********************************************************************************
Field Output Report, written Tue May 28 21:24:22 2024

Source 1
---------

   ODB: G:/Abaqus_calc_2019/1740/Vel_10/odb/zeides_2a_24_red_1500_cal_0_vel_10_fric_050.odb
   Step: Step-1
   Frame: Increment  10977854: Step Time =    1.223

Loc 1 : Nodal values from source 1

Output sorted by column "Nodal Label".

Field Output reported at nodes for region: DIE_2A_24_D0_36-1.Region_1
   Computation algorithm: EXTRAPOLATE_COMPUTE_AVERAGE
   Averaged at nodes
   Averaging regions: ODB_REGIONS

      Node Label     COORD.COOR1     COORD.COOR2
                          @Loc 1          @Loc 1
-------------------------------------------------
               1     18.4810E-03     157.614E-03


Field Output reported at nodes for region: DIE_2A_24_D0_36-1.Region_2
   Computation algorithm: EXTRAPOLATE_COMPUTE_AVERAGE
   Averaged at nodes
   Averaging regions: ODB_REGIONS

      Node Label     COORD.COOR1     COORD.COOR2
                          @Loc 1          @Loc 1
-------------------------------------------------
               1     18.4810E-03     157.614E-03


Field Output reported at nodes for part: WIRE-1
   Computation algorithm: EXTRAPOLATE_COMPUTE_AVERAGE
   Averaged at nodes
   Averaging regions: ODB_REGIONS

      Node Label     COORD.COOR1     COORD.COOR2           S.S11           S.S22           S.S33           S.S12         PE.PE11         PE.PE22         PE.PE33         PE.PE12         LE.LE11         LE.LE22         LE.LE33         LE.LE12
                          @Loc 1          @Loc 1          @Loc 1          @Loc 1          @Loc 1          @Loc 1          @Loc 1          @Loc 1          @Loc 1          @Loc 1          @Loc 1          @Loc 1          @Loc 1          @Loc 1
-------------------------------------------------------------------------------------------------------------------------------------------------------------------------------------------------------------------------------------------------
               1     68.1345E-09     74.7524E-03    -136.681E+06    -298.245E+06    -136.929E+06     166.117E+03    -164.230E-03     327.987E-03    -163.757E-03     11.6990E-03    -164.293E-03     326.904E-03    -163.811E-03     11.0737E-03
               2     15.2843E-03     77.2648E-03    -844.228E+03     99.3733E+06     88.5271E+06     2.24988E+06    -162.730E-03     326.569E-03    -163.839E-03     40.6443E-03    -163.853E-03     327.785E-03    -163.539E-03     33.3212E-03
               3     15.3053E-03     154.355E-03    -107.282E+06    -15.1967E+06    -13.6566E+06     9.87391E+06    -69.9819E-03     233.111E-03    -163.129E-03    -24.5515E-03    -70.4386E-03     233.243E-03    -163.020E-03    -24.7591E-03
               4    -1.16756E-06     149.716E-03     54.5469E+06    -11.3757E+06     49.0458E+06    -4.46911E+06    -164.143E-03     331.065E-03    -166.922E-03    -28.3119E-03    -164.134E-03     330.632E-03    -166.740E-03    -28.6818E-03
               5     633.823E-09     3.12250E-15    -76.4717E+06    -248.991E+06    -76.4513E+06     467.712E+03    -163.174E-03     326.005E-03    -162.831E-03     1.36146E-03    -163.082E-03     324.982E-03    -162.741E-03     1.32569E-03
               6     15.0400E-03     3.12250E-15    -458.131E+03     98.0147E+06     94.8475E+06     4.33298E+06    -291.121E-03     463.186E-03    -172.065E-03     200.871E-03    -294.324E-03     466.431E-03    -171.732E-03     185.680E-03
               7     763.884E-06     74.7669E-03    -134.680E+06    -294.658E+06    -131.588E+06     173.138E+03    -164.181E-03     328.064E-03    -163.882E-03     19.5366E-03    -164.272E-03     327.013E-03    -163.918E-03     18.4898E-03
               8     1.52765E-03     74.8006E-03    -130.170E+06    -284.696E+06    -118.154E+06     393.388E+03    -164.200E-03     328.219E-03    -164.019E-03     35.7519E-03    -164.377E-03     327.266E-03    -164.009E-03     33.8180E-03
               9     2.29159E-03     74.8548E-03    -123.545E+06    -267.951E+06    -100.295E+06     304.141E+03    -164.441E-03     328.482E-03    -164.041E-03     52.4362E-03    -164.762E-03     327.704E-03    -163.975E-03     49.5263E-03
              10     3.05573E-03     74.9293E-03    -115.157E+06    -251.281E+06    -81.0703E+06     182.948E+03    -164.867E-03     328.941E-03    -164.073E-03     68.6106E-03    -165.384E-03     328.392E-03    -163.947E-03     64.6563E-03
              11     3.81963E-03     75.0231E-03    -106.600E+06    -227.130E+06    -62.9378E+06     169.501E+03    -165.301E-03     329.399E-03    -164.098E-03     84.0739E-03    -166.083E-03     329.178E-03    -163.929E-03     79.0230E-03
              12     4.58355E-03     75.1351E-03    -98.0048E+06    -196.082E+06    -46.3968E+06    -103.682E+03    -165.679E-03     329.777E-03    -164.098E-03     98.7482E-03    -166.798E-03     329.987E-03    -163.904E-03     92.5433E-03
              13     5.34771E-03     75.2643E-03    -89.3763E+06    -173.453E+06    -31.1750E+06     172.096E+03    -166.112E-03     330.211E-03    -164.099E-03     112.322E-03    -167.620E-03     330.877E-03    -163.874E-03     104.923E-03
              14     6.11188E-03     75.4089E-03    -81.0867E+06    -146.559E+06    -16.3117E+06     445.700E+03    -166.510E-03     330.605E-03    -164.095E-03     124.778E-03    -168.476E-03     331.810E-03    -163.846E-03     116.170E-03
              15     6.87598E-03     75.5677E-03    -73.2865E+06    -113.222E+06    -1.82449E+06     315.106E+03    -166.812E-03     330.894E-03    -164.082E-03     135.951E-03    -169.298E-03     332.722E-03    -163.820E-03     126.150E-03
              16     7.64027E-03     75.7386E-03    -65.8280E+06    -82.9287E+06     11.7066E+06     180.213E+03    -167.066E-03     331.138E-03    -164.072E-03     145.525E-03    -170.098E-03     333.607E-03    -163.798E-03     134.589E-03
              17     8.40441E-03     75.9195E-03    -58.3260E+06    -49.3362E+06     25.1674E+06     198.510E+03    -167.138E-03     331.198E-03    -164.060E-03     153.036E-03    -170.705E-03     334.309E-03    -163.778E-03     141.115E-03
              18     9.16854E-03     76.1077E-03    -50.8811E+06    -11.6286E+06     39.0522E+06    -181.403E+03    -166.913E-03     330.952E-03    -164.040E-03     157.505E-03    -170.937E-03     334.641E-03    -163.754E-03     144.831E-03
              19     9.93319E-03     76.2980E-03    -43.7020E+06     34.4592E+06     53.2665E+06    -1.01896E+06    -166.438E-03     330.440E-03    -164.001E-03     158.068E-03    -170.780E-03     334.594E-03    -163.721E-03     144.936E-03
              20     10.6971E-03     76.4865E-03    -36.3918E+06     67.7730E+06     63.2624E+06    -960.706E+03    -165.842E-03     329.797E-03    -163.955E-03     154.178E-03    -170.279E-03     334.162E-03    -163.684E-03     140.895E-03
              21     11.4628E-03     76.6656E-03    -29.4213E+06     75.9138E+06     67.5515E+06    -612.474E+03    -165.177E-03     329.097E-03    -163.919E-03     145.741E-03    -169.453E-03     333.341E-03    -163.649E-03     132.592E-03
              22     12.2263E-03     76.8328E-03    -25.3229E+06     80.9830E+06     74.4301E+06    -2.54741E+06    -164.474E-03     328.384E-03    -163.909E-03     134.259E-03    -168.457E-03     332.348E-03    -163.618E-03     121.380E-03
              23     12.9907E-03     76.9819E-03    -20.0243E+06     86.5529E+06     84.6389E+06    -3.16560E+06    -163.701E-03     327.619E-03    -163.918E-03     117.883E-03    -167.176E-03     331.085E-03    -163.591E-03     105.635E-03
              24     13.7553E-03     77.1082E-03    -10.8330E+06     95.8124E+06     93.0157E+06    -1.30318E+06    -163.001E-03     326.908E-03    -163.907E-03     102.941E-03    -166.081E-03     330.020E-03    -163.566E-03     91.0811E-03
              25     14.5199E-03     77.2185E-03    -3.47624E+06     100.782E+06     92.5294E+06     778.401E+03    -162.729E-03     326.597E-03    -163.867E-03     69.4196E-03    -164.810E-03     328.755E-03    -163.546E-03     59.7725E-03
              26     15.2851E-03     78.5768E-03    -4.36689E+06     96.3610E+06     84.5631E+06     1.20405E+06    -162.646E-03     326.463E-03    -163.817E-03     40.4248E-03    -163.780E-03     327.679E-03    -163.528E-03     33.0518E-03
              27     15.2840E-03     79.8942E-03    -1.12467E+06     91.2411E+06     85.1363E+06    -4.01147E+06    -162.681E-03     326.489E-03    -163.808E-03     39.8359E-03    -163.798E-03     327.679E-03    -163.513E-03     32.3326E-03
              28     15.2862E-03     81.2075E-03    -2.96219E+06     89.5724E+06     85.4381E+06    -1.98655E+06    -162.751E-03     326.578E-03    -163.827E-03     39.2823E-03    -163.875E-03     327.761E-03    -163.525E-03     31.8080E-03
              29     15.2821E-03     82.5268E-03    -838.816E+03     94.0277E+06     88.4028E+06     4.00905E+06    -162.147E-03     326.025E-03    -163.878E-03     39.3957E-03    -163.266E-03     327.218E-03    -163.571E-03     32.0731E-03
              30     15.2863E-03     83.8369E-03    -3.68240E+06     90.3039E+06     84.0610E+06    -957.011E+03    -161.888E-03     325.757E-03    -163.869E-03     40.6154E-03    -163.021E-03     326.953E-03    -163.574E-03     33.1899E-03
              31     15.2822E-03     85.1544E-03    -2.23070E+06     92.6220E+06     87.5626E+06    -1.46058E+06    -162.783E-03     326.636E-03    -163.853E-03     40.7381E-03    -163.906E-03     327.826E-03    -163.547E-03     33.3418E-03
              32     15.2865E-03     86.4719E-03    -666.683E+03     93.5729E+06     87.8870E+06     1.35292E+06    -162.540E-03     326.382E-03    -163.842E-03     40.7706E-03    -163.654E-03     327.571E-03    -163.537E-03     33.4286E-03
              33     15.2829E-03     87.7813E-03    -3.71751E+06     98.7077E+06     85.4619E+06     1.59032E+06    -162.581E-03     326.402E-03    -163.821E-03     39.3577E-03    -163.709E-03     327.620E-03    -163.532E-03     31.9911E-03
              34     15.2860E-03     89.1032E-03    -2.06944E+06     101.164E+06     88.2838E+06    -385.658E+03    -162.907E-03     326.755E-03    -163.848E-03     39.7566E-03    -164.040E-03     327.984E-03    -163.550E-03     32.3485E-03
              35     15.2819E-03     90.4153E-03    -2.86447E+06     100.042E+06     88.5797E+06    -113.124E+03    -162.576E-03     326.456E-03    -163.880E-03     40.7126E-03    -163.722E-03     327.691E-03    -163.578E-03     33.2993E-03
              36     15.2859E-03     91.7333E-03    -1.13897E+06     99.8859E+06     89.1001E+06    -147.326E+03    -161.849E-03     325.735E-03    -163.886E-03     40.6650E-03    -162.988E-03     326.966E-03    -163.583E-03     33.2638E-03
              37     15.2828E-03     93.0437E-03    -3.87266E+06     97.7383E+06     87.4084E+06    -1.39922E+06    -162.132E-03     325.995E-03    -163.863E-03     41.0593E-03    -163.279E-03     327.222E-03    -163.562E-03     33.6470E-03
              38     15.2857E-03     94.3636E-03    -356.067E+03     94.5020E+06     89.3697E+06    -696.972E+03    -162.253E-03     326.090E-03    -163.837E-03     41.3080E-03    -163.378E-03     327.289E-03    -163.526E-03     33.9249E-03
              39     15.2849E-03     95.6734E-03    -2.63860E+06     92.1682E+06     87.4516E+06     113.311E+03    -162.870E-03     326.706E-03    -163.836E-03     39.6544E-03    -163.992E-03     327.893E-03    -163.529E-03     32.2472E-03
              40     15.2824E-03     96.9947E-03    -3.40684E+06     99.9581E+06     87.8271E+06     4.59531E+06    -162.389E-03     326.260E-03    -163.871E-03     39.4133E-03    -163.519E-03     327.478E-03    -163.572E-03     32.1304E-03
              41     15.2864E-03     98.3036E-03    -2.20263E+06     97.8094E+06     87.4966E+06    -1.90434E+06    -161.616E-03     325.462E-03    -163.846E-03     40.5699E-03    -162.757E-03     326.688E-03    -163.547E-03     33.1318E-03
              42     15.2837E-03     99.6199E-03    -2.55200E+06     98.4570E+06     89.4086E+06    -1.76414E+06    -162.543E-03     326.356E-03    -163.813E-03     39.6391E-03    -163.683E-03     327.577E-03    -163.505E-03     32.1802E-03
              43     15.2862E-03     100.940E-03    -598.697E+03     97.1325E+06     91.0117E+06     231.078E+03    -162.444E-03     326.276E-03    -163.832E-03     40.6985E-03    -163.579E-03     327.489E-03    -163.517E-03     33.2918E-03
              44     15.2833E-03     102.248E-03    -3.66893E+06     94.3346E+06     88.8601E+06    -745.819E+03    -162.844E-03     326.689E-03    -163.846E-03     39.9793E-03    -163.983E-03     327.893E-03    -163.533E-03     32.5441E-03
              45     15.2850E-03     103.571E-03    -686.220E+03     92.1314E+06     89.4252E+06    -1.05109E+06    -161.948E-03     325.795E-03    -163.847E-03     40.6248E-03    -163.070E-03     326.982E-03    -163.533E-03     33.2318E-03
              46     15.2860E-03     104.877E-03    -2.06432E+06     92.5256E+06     88.9853E+06     673.772E+03    -162.160E-03     325.987E-03    -163.827E-03     40.4677E-03    -163.296E-03     327.187E-03    -163.514E-03     33.0475E-03
              47     15.2830E-03     106.200E-03    -4.44448E+06     100.854E+06     87.5731E+06     4.71078E+06    -162.618E-03     326.450E-03    -163.833E-03     39.4997E-03    -163.762E-03     327.683E-03    -163.535E-03     32.1681E-03
              48     15.2860E-03     107.511E-03    -1.75951E+06     98.1244E+06     88.1722E+06    -2.19663E+06    -161.969E-03     325.811E-03    -163.842E-03     40.7894E-03    -163.113E-03     327.041E-03    -163.540E-03     33.3254E-03
              49     15.2838E-03     108.825E-03    -2.00539E+06     100.933E+06     91.2891E+06    -732.317E+03    -162.658E-03     326.474E-03    -163.816E-03     39.8156E-03    -163.808E-03     327.710E-03    -163.503E-03     32.3438E-03
              50     15.2864E-03     110.145E-03    -1.94759E+06     101.502E+06     90.4757E+06     384.892E+03    -162.314E-03     326.133E-03    -163.820E-03     39.8740E-03    -163.455E-03     327.366E-03    -163.512E-03     32.4676E-03
              51     15.2834E-03     111.455E-03    -3.95494E+06     98.2597E+06     88.8057E+06    -1.33047E+06    -161.950E-03     325.803E-03    -163.852E-03     39.9498E-03    -163.096E-03     327.025E-03    -163.545E-03     32.5401E-03
              52     15.2853E-03     112.774E-03    -397.956E+03     95.7310E+06     91.8128E+06    -885.220E+03    -161.499E-03     325.364E-03    -163.864E-03     40.4115E-03    -162.628E-03     326.564E-03    -163.543E-03     33.0416E-03
              53     15.2852E-03     114.082E-03    -1.00382E+06     95.1645E+06     91.1157E+06     813.015E+03    -162.134E-03     326.005E-03    -163.870E-03     39.1024E-03    -163.255E-03     327.195E-03    -163.551E-03     31.7381E-03
              54     15.2820E-03     115.405E-03    -4.36164E+06     104.289E+06     89.6397E+06     5.13415E+06    -161.687E-03     325.605E-03    -163.918E-03     38.9342E-03    -162.832E-03     326.845E-03    -163.615E-03     31.6664E-03
              55     15.2854E-03     116.711E-03    -2.47347E+06     103.352E+06     88.9912E+06    -1.76991E+06    -160.241E-03     324.148E-03    -163.907E-03     41.0089E-03    -161.391E-03     325.398E-03    -163.608E-03     33.6621E-03
              56     15.2845E-03     118.026E-03    -1.75284E+06     104.070E+06     91.9944E+06    -2.07520E+06    -160.923E-03     324.790E-03    -163.868E-03     39.8409E-03    -162.065E-03     326.030E-03    -163.556E-03     32.4750E-03
              57     15.2850E-03     119.342E-03    -1.96524E+06     100.299E+06     93.0691E+06    -1.00145E+06    -160.810E-03     324.706E-03    -163.896E-03     39.6688E-03    -161.951E-03     325.926E-03    -163.573E-03     32.3217E-03
              58     15.2841E-03     120.649E-03    -2.61174E+06     97.4454E+06     91.8763E+06      -2.213E+03    -160.165E-03     324.085E-03    -163.919E-03     39.0956E-03    -161.299E-03     325.289E-03    -163.598E-03     31.8030E-03
              59     15.2849E-03     121.967E-03    -819.244E+03     100.610E+06     92.6024E+06     1.74822E+06    -158.647E-03     322.577E-03    -163.931E-03     38.6789E-03    -159.769E-03     323.786E-03    -163.612E-03     31.4716E-03
              60     15.2856E-03     123.270E-03    -6.10168E+06     98.6690E+06     89.8396E+06    -4.01646E+06    -157.912E-03     321.794E-03    -163.881E-03     40.2872E-03    -159.068E-03     323.018E-03    -163.567E-03     33.0045E-03
              61     15.2872E-03     124.583E-03     111.365E+03     102.954E+06     93.9651E+06     1.18379E+06    -157.938E-03     321.725E-03    -163.787E-03     40.0071E-03    -159.066E-03     322.946E-03    -163.466E-03     32.8514E-03
              62     15.2893E-03     125.892E-03    -2.47987E+06     98.9773E+06     89.3639E+06     1.32696E+06    -157.164E-03     320.858E-03    -163.693E-03     39.3010E-03    -158.288E-03     322.065E-03    -163.386E-03     32.1591E-03
              63     15.2895E-03     127.196E-03    -3.10860E+06     100.721E+06     89.5249E+06     1.44605E+06    -156.822E-03     320.381E-03    -163.559E-03     40.1810E-03    -157.961E-03     321.606E-03    -163.253E-03     33.0360E-03
              64     15.2955E-03     128.508E-03    -2.20595E+06     103.272E+06     88.8605E+06     347.503E+03    -156.930E-03     320.241E-03    -163.310E-03     42.8734E-03    -158.087E-03     321.498E-03    -163.012E-03     35.6826E-03
              65     15.2975E-03     129.812E-03    -3.39482E+06     99.9179E+06     82.7127E+06    -1.59197E+06    -158.646E-03     321.610E-03    -162.964E-03     45.0627E-03    -159.817E-03     322.884E-03    -162.690E-03     37.7336E-03
              66     15.3041E-03     131.127E-03       -799.E+03     90.6822E+06     76.7435E+06    -3.36350E+06    -161.449E-03     324.002E-03    -162.553E-03     47.7426E-03    -162.607E-03     325.256E-03    -162.300E-03     40.2439E-03
              67     15.3080E-03     132.440E-03    -118.457E+03      77.842E+06     69.8773E+06    -4.04937E+06    -166.725E-03     328.836E-03    -162.111E-03     50.7357E-03    -167.876E-03     330.061E-03    -161.874E-03     42.9934E-03
              68     15.3111E-03     133.768E-03    -4.26634E+06     70.6920E+06     66.1114E+06     1.60322E+06    -173.644E-03     335.357E-03    -161.713E-03     53.4640E-03    -174.825E-03     336.582E-03    -161.478E-03     45.5163E-03
              69     15.3143E-03     135.100E-03    -856.852E+03     57.3736E+06     61.2612E+06    -4.51070E+06    -180.814E-03     342.148E-03    -161.334E-03     57.2346E-03    -181.998E-03     343.355E-03    -161.110E-03     48.8108E-03
              70     15.3162E-03     136.444E-03    -3.34325E+06     47.5738E+06     61.0670E+06    -5.26446E+06    -189.552E-03     350.556E-03    -161.004E-03     60.0268E-03    -190.760E-03     351.745E-03    -160.763E-03     51.1940E-03
              71     15.3170E-03     137.801E-03     806.045E+03     30.2774E+06     58.7509E+06    -4.73738E+06    -198.456E-03     359.170E-03    -160.714E-03     64.4459E-03    -199.644E-03     360.299E-03    -160.465E-03     55.2568E-03
              72     15.3184E-03     139.169E-03    -3.99896E+06     12.6817E+06     48.4103E+06    -4.45846E+06    -207.303E-03     367.752E-03    -160.449E-03     68.7170E-03    -208.530E-03     368.870E-03    -160.220E-03     59.0191E-03
              73     15.3167E-03     140.547E-03     1.63710E+06    -5.49815E+06     47.7953E+06    -5.48223E+06    -215.185E-03     375.431E-03    -160.246E-03     72.2780E-03    -216.400E-03     376.494E-03    -160.001E-03     62.1052E-03
              74     15.3205E-03     141.934E-03    -3.08583E+06    -35.4540E+06     45.8108E+06    -11.2115E+06    -222.808E-03     382.853E-03    -160.045E-03     76.5606E-03    -224.032E-03     383.809E-03    -159.760E-03     65.9713E-03
              75     15.3183E-03     143.333E-03    -162.674E+03    -50.9243E+06     48.6855E+06     398.396E+03    -230.568E-03     390.427E-03    -159.859E-03     77.1645E-03    -231.772E-03     391.309E-03    -159.541E-03     66.3386E-03
              76     15.3210E-03     144.735E-03    -3.73347E+06    -75.5722E+06     43.6386E+06    -8.59250E+06    -237.548E-03     397.231E-03    -159.682E-03     79.2856E-03    -238.756E-03     398.032E-03    -159.349E-03     67.9267E-03
              77     15.3195E-03     146.156E-03     4.10097E+06    -92.3558E+06     52.0832E+06    -712.167E+03    -242.592E-03     402.155E-03    -159.563E-03     80.0047E-03    -243.751E-03     402.851E-03    -159.175E-03     68.5397E-03
              78     15.3232E-03     147.571E-03    -7.61090E+06    -107.324E+06     57.5279E+06    -6.54122E+06    -244.321E-03     403.846E-03    -159.525E-03     80.9606E-03    -245.497E-03     404.449E-03    -159.071E-03     69.5598E-03
              79     15.3211E-03     148.996E-03     16.8086E+06    -89.5629E+06     68.3481E+06     13.9383E+06    -241.450E-03     400.962E-03    -159.512E-03     78.6130E-03    -242.441E-03     401.496E-03    -159.065E-03     68.2642E-03
              80     15.3262E-03     150.398E-03    -19.0054E+06    -36.1108E+06     46.1266E+06     16.9929E+06    -232.578E-03     392.148E-03    -159.570E-03     75.8408E-03    -233.602E-03     392.844E-03    -159.259E-03     67.1329E-03
              81     15.3190E-03     151.809E-03     16.1305E+06    -36.7957E+06     37.4610E+06    -11.4246E+06    -209.743E-03     369.458E-03    -159.715E-03     79.6607E-03    -210.463E-03     369.997E-03    -159.498E-03     72.4180E-03
              82     15.3479E-03     153.126E-03     35.9290E+06    -32.8004E+06     36.2048E+06     11.5989E+06    -131.340E-03     292.812E-03    -161.472E-03     27.8200E-03    -131.530E-03     292.940E-03    -161.295E-03     24.7025E-03
              83     14.4107E-03     154.214E-03    -76.3079E+06     17.1641E+06     22.2429E+06    -13.7584E+06    -60.4558E-03     225.960E-03    -165.504E-03    -14.7118E-03    -60.8478E-03     226.233E-03    -165.307E-03    -15.4599E-03
              84     13.5144E-03     153.913E-03    -11.6851E+06    -4.16540E+06     81.2528E+06    -27.7772E+06    -41.4214E-03     211.701E-03    -170.279E-03    -35.9348E-03    -41.5369E-03     211.689E-03    -169.850E-03    -37.1282E-03
              85     12.6807E-03     153.583E-03     14.3412E+06    -34.3034E+06     97.6366E+06     1.33001E+06    -29.2289E-03     204.045E-03    -174.816E-03    -71.4871E-03    -29.1786E-03     203.744E-03    -174.299E-03    -72.3603E-03
              86     11.8515E-03     153.230E-03     5.69515E+06     12.2126E+06     93.1011E+06     8.69385E+06    -27.8068E-03     206.733E-03    -178.926E-03    -89.7541E-03    -27.8305E-03     206.631E-03    -178.486E-03    -90.5902E-03
              87     11.0489E-03     152.872E-03    -4.00871E+06     9.52102E+06     83.1566E+06     1.71738E+06    -34.7488E-03     217.162E-03    -182.413E-03    -117.077E-03    -34.7412E-03     216.989E-03    -182.005E-03    -118.154E-03
              88     10.2609E-03     152.510E-03    -12.1138E+06     3.53612E+06     79.5462E+06    -4.24677E+06    -46.2785E-03     231.082E-03    -184.803E-03    -147.401E-03    -46.2086E-03     230.788E-03    -184.393E-03    -148.806E-03
              89     9.49827E-03     152.150E-03    -11.4825E+06     2.40660E+06     81.6133E+06    -13.1826E+06    -58.7410E-03     244.646E-03    -185.905E-03    -176.697E-03    -58.5927E-03     244.208E-03    -185.484E-03    -178.467E-03
              90     8.75293E-03     151.805E-03    -10.3175E+06    -10.3824E+06     76.1381E+06    -12.1017E+06    -72.4259E-03     258.231E-03    -185.805E-03    -199.238E-03    -72.1781E-03     257.617E-03    -185.394E-03    -201.227E-03
              91     8.01985E-03     151.478E-03    -9.10532E+06    -6.39304E+06     74.6639E+06    -11.8553E+06    -86.4121E-03     271.135E-03    -184.723E-03    -215.338E-03    -86.1236E-03     270.456E-03    -184.327E-03    -217.492E-03
              92     7.29531E-03     151.175E-03    -4.94149E+06    -4.09088E+06     75.4245E+06    -14.6282E+06    -100.259E-03     283.157E-03    -182.898E-03    -222.512E-03    -99.9594E-03     282.438E-03    -182.508E-03    -224.787E-03
              93     6.57557E-03     150.898E-03     881.327E+03    -9.85608E+06     75.1870E+06    -14.2612E+06    -113.668E-03     294.217E-03    -180.550E-03    -221.146E-03    -113.370E-03     293.462E-03    -180.161E-03    -223.419E-03
              94     5.85685E-03     150.650E-03     4.37519E+06    -12.9499E+06     73.2071E+06    -9.82035E+06    -125.640E-03     303.520E-03    -177.880E-03    -212.172E-03    -125.384E-03     302.785E-03    -177.501E-03    -214.303E-03
              95     5.13696E-03     150.430E-03     7.57076E+06    -3.03404E+06     69.3489E+06    -10.7317E+06    -135.670E-03     310.757E-03    -175.087E-03    -196.330E-03    -135.490E-03     310.134E-03    -174.747E-03    -198.323E-03
              96     4.41372E-03     150.241E-03     14.5867E+06    -2.15669E+06     61.5506E+06    -14.2863E+06    -143.875E-03     316.254E-03    -172.379E-03    -175.241E-03    -143.733E-03     315.705E-03    -172.090E-03    -177.106E-03
              97     3.68679E-03     150.082E-03     25.6466E+06    -8.05804E+06     60.1396E+06    -14.7542E+06    -150.316E-03     320.271E-03    -169.955E-03    -150.335E-03    -150.186E-03     319.750E-03    -169.680E-03    -152.001E-03
              98     2.95489E-03     149.952E-03     36.4832E+06    -5.97148E+06     59.0438E+06    -11.8138E+06    -154.950E-03     322.849E-03    -167.899E-03    -123.366E-03    -154.838E-03     322.394E-03    -167.648E-03    -124.740E-03
              99     2.21875E-03     149.850E-03     47.1056E+06    -3.94826E+06     60.4494E+06    -11.2862E+06    -157.992E-03     324.388E-03    -166.396E-03    -95.9243E-03    -157.887E-03     323.985E-03    -166.156E-03    -97.0264E-03
             100     1.47783E-03     149.777E-03     56.1464E+06    -8.48239E+06     64.1996E+06    -9.76624E+06    -160.070E-03     325.787E-03    -165.718E-03    -69.0696E-03    -159.965E-03     325.382E-03    -165.466E-03    -69.8766E-03
             101     734.787E-06     149.731E-03     57.2202E+06    -9.23544E+06     56.7201E+06    -6.26206E+06    -162.556E-03     328.821E-03    -166.265E-03    -42.0743E-03    -162.504E-03     328.408E-03    -166.051E-03    -42.5814E-03
             102    -226.830E-09     148.388E-03     11.7918E+06    -13.2006E+06     12.8528E+06    -3.18905E+06    -138.780E-03     279.114E-03    -140.335E-03    -14.5578E-03    -138.846E-03     278.878E-03    -140.268E-03    -14.8165E-03
             103     206.841E-09     147.204E-03    -60.4657E+06    -40.6329E+06    -57.5098E+06    -9.44578E+06    -101.269E-03     202.423E-03    -101.155E-03     2.88767E-03    -101.456E-03     202.366E-03    -101.296E-03     2.64911E-03
             104     293.453E-09     146.071E-03    -118.171E+06    -90.5752E+06    -119.908E+06    -12.7184E+06    -83.6306E-03     166.201E-03    -82.5707E-03     9.74028E-03    -83.9239E-03     166.090E-03    -82.8676E-03     9.49324E-03
             105     965.596E-09     144.966E-03    -177.881E+06    -134.531E+06    -177.621E+06    -9.22396E+06    -77.5906E-03     153.613E-03    -76.0223E-03     15.1274E-03    -78.0290E-03     153.457E-03    -76.4574E-03     14.9658E-03
             106     291.492E-09     143.863E-03    -223.917E+06    -169.214E+06    -220.577E+06    -7.71594E+06    -80.5247E-03     159.672E-03    -79.1472E-03     18.1625E-03    -81.0820E-03     159.470E-03    -79.6800E-03     18.0392E-03
             107     642.309E-09     142.745E-03    -216.594E+06    -196.671E+06    -215.086E+06    -5.92171E+06    -90.6117E-03     179.789E-03    -89.1769E-03     19.4108E-03    -91.1047E-03     179.426E-03    -89.6531E-03     19.3184E-03
             108     677.731E-09     141.596E-03    -168.169E+06    -209.167E+06    -170.442E+06    -370.902E+03    -104.857E-03     208.139E-03    -103.282E-03     19.2189E-03    -105.158E-03     207.577E-03    -103.587E-03     19.1806E-03
             109     440.094E-09     140.412E-03    -132.753E+06    -198.808E+06    -132.787E+06     4.94694E+06    -119.898E-03     239.109E-03    -119.211E-03     18.3844E-03    -120.093E-03     238.493E-03    -119.394E-03     18.3573E-03
             110    -525.300E-09     139.189E-03    -105.902E+06    -188.004E+06    -105.282E+06     32.1866E+03    -134.309E-03     268.212E-03    -133.904E-03     16.8351E-03    -134.424E-03     267.576E-03    -134.004E-03     16.6549E-03
             111     1.17831E-06     137.932E-03    -95.4716E+06    -193.921E+06    -101.277E+06    -2.43332E+06    -146.694E-03     292.212E-03    -145.518E-03     16.1467E-03    -146.754E-03     291.530E-03    -145.605E-03     15.8263E-03
             112    -145.306E-09     136.649E-03    -106.888E+06    -201.698E+06    -107.582E+06    -1.17967E+06    -155.576E-03     310.371E-03    -154.795E-03     15.2334E-03    -155.673E-03     309.680E-03    -154.885E-03     14.8141E-03
             113     232.495E-09     135.346E-03    -111.729E+06    -209.682E+06    -111.876E+06    -1.66068E+06    -161.650E-03     322.960E-03    -161.310E-03     13.4815E-03    -161.752E-03     322.245E-03    -161.404E-03     12.9687E-03
             114     129.425E-09     134.030E-03    -110.445E+06    -216.898E+06    -111.349E+06    -1.13744E+06    -165.716E-03     330.989E-03    -165.272E-03     12.6247E-03    -165.802E-03     330.236E-03    -165.355E-03     12.0613E-03
             115     115.639E-09     132.707E-03    -104.474E+06    -227.181E+06    -103.601E+06    -3.02500E+06    -167.938E-03     335.638E-03    -167.700E-03     11.8712E-03    -167.991E-03     334.815E-03    -167.737E-03     11.2290E-03
             116    -42.1776E-09     131.379E-03    -107.390E+06    -241.970E+06    -108.398E+06    -2.43956E+06    -168.933E-03     337.674E-03    -168.741E-03     11.4568E-03    -168.972E-03     336.788E-03    -168.776E-03     10.7916E-03
             117     203.065E-09     130.051E-03    -123.145E+06    -251.886E+06    -122.820E+06    -1.11273E+06    -169.159E-03     337.940E-03    -168.781E-03     11.1520E-03    -169.241E-03     337.048E-03    -168.851E-03     10.4940E-03
             118     168.624E-09     128.722E-03    -126.742E+06    -255.523E+06    -127.892E+06    -94.9559E+03    -168.827E-03     337.176E-03    -168.349E-03     11.1587E-03    -168.915E-03     336.279E-03    -168.434E-03     10.4917E-03
             119     131.556E-09     127.396E-03    -129.171E+06    -257.535E+06    -128.041E+06    -1.14797E+06    -168.011E-03     335.897E-03    -167.885E-03     11.2317E-03    -168.109E-03     334.994E-03    -167.965E-03     10.5535E-03
             120    -273.477E-09     126.071E-03    -135.417E+06    -266.429E+06    -135.984E+06    -2.46207E+06    -167.316E-03     334.538E-03    -167.222E-03     11.3509E-03    -167.420E-03     333.611E-03    -167.319E-03     10.6721E-03
             121     507.150E-09     124.748E-03    -138.456E+06    -280.161E+06    -138.121E+06    -2.63797E+06    -166.957E-03     333.383E-03    -166.427E-03     11.5599E-03    -167.053E-03     332.395E-03    -166.510E-03     10.8698E-03
             122     21.9554E-09     123.427E-03    -141.920E+06    -295.138E+06    -142.326E+06    -3.07726E+06    -166.485E-03     332.375E-03    -165.890E-03     11.4842E-03    -166.571E-03     331.323E-03    -165.968E-03     10.7966E-03
             123     304.726E-09     122.107E-03    -143.724E+06    -303.731E+06    -144.667E+06    -203.318E+03    -165.982E-03     331.465E-03    -165.482E-03     11.1765E-03    -166.061E-03     330.376E-03    -165.557E-03     10.5305E-03
             124     77.4064E-09     120.789E-03    -145.443E+06    -305.013E+06    -144.601E+06     435.669E+03    -165.492E-03     330.616E-03    -165.124E-03     11.2924E-03    -165.578E-03     329.523E-03    -165.194E-03     10.6613E-03
             125     64.8283E-09     119.470E-03    -142.132E+06    -302.500E+06    -142.217E+06     208.555E+03    -165.189E-03     329.994E-03    -164.805E-03     11.4521E-03    -165.265E-03     328.905E-03    -164.871E-03     10.8202E-03
             126     329.733E-09     118.153E-03    -141.208E+06    -302.466E+06    -142.228E+06    -266.153E+03    -164.888E-03     329.422E-03    -164.534E-03     11.4883E-03    -164.960E-03     328.332E-03    -164.602E-03     10.8574E-03
             127    -241.948E-09     116.837E-03    -141.108E+06    -301.282E+06    -140.657E+06     426.682E+03    -164.455E-03     328.928E-03    -164.474E-03     11.2504E-03    -164.530E-03     327.842E-03    -164.535E-03     10.6387E-03
             128     83.5154E-09     115.522E-03    -139.944E+06    -300.441E+06    -139.489E+06    -306.299E+03    -164.427E-03     328.755E-03    -164.328E-03     11.2176E-03    -164.499E-03     327.669E-03    -164.387E-03     10.5830E-03
             129     184.757E-09     114.205E-03    -139.941E+06    -302.147E+06    -140.422E+06     58.9554E+03    -164.549E-03     328.660E-03    -164.111E-03     11.6073E-03    -164.617E-03     327.567E-03    -164.172E-03     10.9785E-03
             130     160.468E-09     112.889E-03    -138.162E+06    -300.275E+06    -137.994E+06     304.261E+03    -164.387E-03     328.447E-03    -164.060E-03     11.8133E-03    -164.453E-03     327.358E-03    -164.115E-03     11.1798E-03
             131    -56.5352E-09     111.574E-03    -137.867E+06    -300.351E+06    -138.435E+06    -380.676E+03    -164.243E-03     328.360E-03    -164.117E-03     11.8001E-03    -164.307E-03     327.271E-03    -164.174E-03     11.1594E-03
             132     88.3438E-09     110.259E-03    -138.171E+06    -299.809E+06    -137.421E+06     655.268E+03    -164.289E-03     328.292E-03    -164.003E-03     11.6294E-03    -164.356E-03     327.204E-03    -164.055E-03     11.0071E-03
             133     274.264E-09     108.943E-03    -137.431E+06    -299.417E+06    -137.873E+06    -394.721E+03    -164.238E-03     327.975E-03    -163.737E-03     11.5582E-03    -164.302E-03     326.889E-03    -163.793E-03     10.9173E-03
             134     75.4342E-09     107.630E-03    -136.455E+06    -298.542E+06    -137.013E+06     405.487E+03    -164.223E-03     327.982E-03    -163.759E-03     11.5694E-03    -164.285E-03     326.898E-03    -163.814E-03     10.9342E-03
             135     229.523E-09     106.314E-03    -135.222E+06    -296.679E+06    -134.369E+06     46.6142E+03    -164.204E-03     328.111E-03    -163.908E-03     11.6491E-03    -164.266E-03     327.031E-03    -163.953E-03     11.0062E-03
             136    -122.853E-09     104.999E-03    -136.310E+06    -298.249E+06    -136.483E+06    -479.571E+03    -164.023E-03     327.907E-03    -163.884E-03     11.5947E-03    -164.085E-03     326.823E-03    -163.936E-03     10.9752E-03
             137     177.414E-09     103.685E-03    -137.195E+06    -299.202E+06    -137.388E+06     417.853E+03    -164.111E-03     327.967E-03    -163.856E-03     11.3046E-03    -164.174E-03     326.880E-03    -163.910E-03     10.7078E-03
             138     109.123E-09     102.370E-03    -136.918E+06    -298.857E+06    -136.922E+06     235.200E+03    -164.230E-03     328.221E-03    -163.991E-03     11.3359E-03    -164.293E-03     327.134E-03    -164.043E-03     10.7268E-03
             139    -77.3617E-09     101.054E-03    -135.920E+06    -297.202E+06    -135.740E+06     227.257E+03    -164.314E-03     328.289E-03    -163.975E-03     11.5308E-03    -164.376E-03     327.208E-03    -164.026E-03     10.9067E-03
             140     515.869E-09     99.7384E-03    -137.051E+06    -298.126E+06    -136.593E+06    -335.215E+03    -164.531E-03     328.194E-03    -163.663E-03     11.6009E-03    -164.596E-03     327.112E-03    -163.715E-03     10.9635E-03
             141     326.362E-09     98.4240E-03    -136.508E+06    -298.490E+06    -136.910E+06     289.956E+03    -164.504E-03     328.289E-03    -163.785E-03     11.9122E-03    -164.566E-03     327.204E-03    -163.839E-03     11.2810E-03
             142    -127.400E-09     97.1076E-03    -135.469E+06    -297.207E+06    -135.402E+06    -177.910E+03    -164.281E-03     328.358E-03    -164.077E-03     11.8633E-03    -164.342E-03     327.276E-03    -164.127E-03     11.2297E-03
             143     188.487E-09     95.7927E-03    -135.860E+06    -297.829E+06    -136.287E+06     4.51638E+03    -164.236E-03     328.176E-03    -163.940E-03     11.7493E-03    -164.296E-03     327.093E-03    -163.992E-03     11.1307E-03
             144     147.092E-09     94.4781E-03    -136.210E+06    -297.867E+06    -136.183E+06     29.6182E+03    -164.242E-03     328.251E-03    -164.009E-03     11.7769E-03    -164.305E-03     327.168E-03    -164.060E-03     11.1429E-03
             145    -176.834E-09     93.1623E-03    -137.196E+06    -298.444E+06    -136.762E+06    -427.488E+03    -164.190E-03     328.248E-03    -164.059E-03     11.5549E-03    -164.256E-03     327.165E-03    -164.111E-03     10.9054E-03
             146     362.855E-09     91.8474E-03    -137.023E+06    -298.480E+06    -137.173E+06    -175.677E+03    -164.336E-03     328.334E-03    -163.998E-03     11.9600E-03    -164.400E-03     327.252E-03    -164.053E-03     11.3055E-03
             147    -87.5857E-09     90.5313E-03    -136.054E+06    -297.479E+06    -135.875E+06     440.739E+03    -164.459E-03     328.419E-03    -163.961E-03     11.6966E-03    -164.521E-03     327.338E-03    -164.011E-03     11.0690E-03
             148     524.648E-09     89.2168E-03    -135.736E+06    -297.559E+06    -135.927E+06     64.1099E+03    -164.364E-03     328.083E-03    -163.719E-03     11.2695E-03    -164.424E-03     327.000E-03    -163.771E-03     10.6573E-03
             149    -25.5924E-09     87.9024E-03    -135.437E+06    -297.579E+06    -136.056E+06    -340.243E+03    -164.270E-03     327.994E-03    -163.724E-03     11.1534E-03    -164.328E-03     326.910E-03    -163.776E-03     10.5286E-03
             150     309.148E-09     86.5871E-03    -136.320E+06    -297.947E+06    -136.317E+06     196.824E+03    -164.166E-03     328.050E-03    -163.884E-03     11.2579E-03    -164.228E-03     326.967E-03    -163.936E-03     10.6234E-03
             151    -207.126E-09     85.2717E-03    -136.884E+06    -297.674E+06    -136.471E+06     217.392E+03    -164.053E-03     327.947E-03    -163.894E-03     11.5231E-03    -164.118E-03     326.866E-03    -163.946E-03     10.8931E-03
             152     303.912E-09     83.9571E-03    -135.797E+06    -296.757E+06    -136.213E+06     27.1023E+03    -164.177E-03     327.946E-03    -163.769E-03     11.5296E-03    -164.239E-03     326.868E-03    -163.823E-03     10.9152E-03
             153     169.690E-09     82.6422E-03    -135.757E+06    -297.324E+06    -136.096E+06     397.432E+03    -164.366E-03     328.007E-03    -163.641E-03     11.6247E-03    -164.427E-03     326.926E-03    -163.694E-03     11.0054E-03
             154     410.915E-09     81.3268E-03    -135.726E+06    -297.229E+06    -134.978E+06    -306.916E+03    -164.288E-03     328.005E-03    -163.716E-03     11.7925E-03    -164.351E-03     326.923E-03    -163.763E-03     11.1677E-03
             155    -161.856E-09     80.0125E-03    -135.321E+06    -297.272E+06    -136.175E+06    -228.739E+03    -164.217E-03     328.146E-03    -163.930E-03     11.6804E-03    -164.275E-03     327.065E-03    -163.983E-03     11.0501E-03
             156     292.842E-09     78.6971E-03    -134.193E+06    -295.633E+06    -134.250E+06     816.105E+03    -164.243E-03     328.116E-03    -163.873E-03     11.3863E-03    -164.301E-03     327.038E-03    -163.921E-03     10.7601E-03
             157     94.5973E-09     77.3819E-03    -134.363E+06    -295.023E+06    -133.976E+06    -549.277E+03    -164.143E-03     327.887E-03    -163.745E-03     11.8835E-03    -164.203E-03     326.813E-03    -163.792E-03     11.2512E-03
             158     77.3393E-09     76.0670E-03    -136.348E+06    -297.316E+06    -136.559E+06    -439.625E+03    -164.087E-03     327.929E-03    -163.842E-03     12.0592E-03    -164.150E-03     326.850E-03    -163.896E-03     11.4258E-03
             159     455.204E-09     73.4378E-03    -136.287E+06    -297.039E+06    -136.929E+06     420.727E+03    -164.263E-03     327.997E-03    -163.733E-03     11.7125E-03    -164.326E-03     326.919E-03    -163.790E-03     11.0970E-03
             160    -226.189E-09     72.1226E-03    -136.741E+06    -297.079E+06    -136.358E+06     26.2078E+03    -163.987E-03     327.846E-03    -163.859E-03     11.6944E-03    -164.053E-03     326.769E-03    -163.912E-03     11.0656E-03
             161     145.511E-09     70.8080E-03    -136.339E+06    -297.672E+06    -136.210E+06    -469.087E+03    -163.787E-03     327.473E-03    -163.686E-03     11.5860E-03    -163.850E-03     326.392E-03    -163.738E-03     10.9482E-03
             162     40.5761E-09     69.4946E-03    -136.682E+06    -298.024E+06    -136.465E+06     20.8524E+03    -163.831E-03     327.430E-03    -163.599E-03     11.5811E-03    -163.895E-03     326.348E-03    -163.651E-03     10.9591E-03
             163     79.6195E-09     68.1802E-03    -135.934E+06    -297.615E+06    -136.112E+06     194.518E+03    -164.020E-03     327.711E-03    -163.691E-03     11.3659E-03    -164.081E-03     326.629E-03    -163.743E-03     10.7373E-03
             164     253.350E-09     66.8655E-03    -135.757E+06    -297.100E+06    -135.736E+06    -165.178E+03    -164.168E-03     327.897E-03    -163.729E-03     11.3608E-03    -164.229E-03     326.817E-03    -163.780E-03     10.7330E-03
             165     37.1203E-09     65.5506E-03    -136.187E+06    -297.290E+06    -135.974E+06     160.060E+03    -164.100E-03     327.844E-03    -163.743E-03     11.3882E-03    -164.163E-03     326.763E-03    -163.795E-03     10.7823E-03
             166     172.528E-09     64.2357E-03    -135.928E+06    -297.419E+06    -135.954E+06    -200.735E+03    -164.049E-03     327.796E-03    -163.747E-03     11.6434E-03    -164.111E-03     326.715E-03    -163.799E-03     11.0206E-03
             167     27.9408E-09     62.9211E-03    -136.246E+06    -297.990E+06    -136.469E+06    -319.399E+03    -164.069E-03     328.050E-03    -163.981E-03     11.9309E-03    -164.131E-03     326.967E-03    -164.034E-03     11.2981E-03
             168    -148.988E-09     61.6055E-03    -135.524E+06    -297.364E+06    -135.938E+06     484.280E+03    -164.087E-03     328.007E-03    -163.920E-03     11.5047E-03    -164.146E-03     326.925E-03    -163.972E-03     10.8927E-03
             169     471.020E-09     60.2915E-03    -135.747E+06    -297.058E+06    -135.363E+06      -565.9E+03    -163.942E-03     327.640E-03    -163.698E-03     11.5122E-03    -164.004E-03     326.559E-03    -163.747E-03     10.8813E-03
             170    -464.774E-09     58.9773E-03    -136.940E+06    -297.993E+06    -136.235E+06     180.754E+03    -163.885E-03     327.622E-03    -163.737E-03     11.4302E-03    -163.951E-03     326.540E-03    -163.788E-03     10.7991E-03
             171     644.934E-09     57.6625E-03    -134.896E+06    -296.421E+06    -135.747E+06     628.133E+03    -164.146E-03     327.681E-03    -163.535E-03     11.2574E-03    -164.204E-03     326.603E-03    -163.588E-03     10.6434E-03
             172     53.8957E-09     56.3485E-03    -134.924E+06    -296.050E+06    -135.293E+06    -732.177E+03    -164.152E-03     327.657E-03    -163.504E-03     11.4539E-03    -164.211E-03     326.579E-03    -163.556E-03     10.8299E-03
             173     184.899E-09     55.0336E-03    -136.113E+06    -297.412E+06    -136.079E+06     179.257E+03    -163.996E-03     327.631E-03    -163.634E-03     11.3828E-03    -164.059E-03     326.549E-03    -163.686E-03     10.7736E-03
             174     82.3016E-09     53.7193E-03    -135.439E+06    -296.833E+06    -135.718E+06     425.653E+03    -163.873E-03     327.445E-03    -163.572E-03     11.5030E-03    -163.933E-03     326.365E-03    -163.624E-03     10.8940E-03
             175     58.3049E-09     52.4051E-03    -137.515E+06    -298.078E+06    -136.567E+06    -891.669E+03    -163.719E-03     327.208E-03    -163.490E-03     11.4763E-03    -163.786E-03     326.127E-03    -163.541E-03     10.8485E-03
             176     111.574E-09     51.0918E-03    -133.333E+06    -301.257E+06    -134.023E+06    -425.103E+03    -163.773E-03     327.166E-03    -163.393E-03     11.4792E-03    -163.819E-03     326.059E-03    -163.433E-03     10.8593E-03
             177     243.259E-09     49.7774E-03    -134.788E+06    -301.945E+06    -134.855E+06     263.242E+03    -163.803E-03     327.042E-03    -163.239E-03     11.4957E-03    -163.854E-03     325.934E-03    -163.280E-03     10.8785E-03
             178     215.227E-09     48.4645E-03    -134.183E+06    -301.330E+06    -134.168E+06    -173.007E+03    -163.628E-03     326.805E-03    -163.177E-03     11.5371E-03    -163.678E-03     325.699E-03    -163.216E-03     10.9235E-03
             179    -31.9591E-09     47.1510E-03    -134.479E+06    -301.903E+06    -134.914E+06    -97.8709E+03    -163.518E-03     326.683E-03    -163.165E-03     11.3074E-03    -163.567E-03     325.575E-03    -163.207E-03     10.6923E-03
             180     336.655E-09     45.8386E-03    -135.354E+06    -302.007E+06    -134.410E+06     128.269E+03    -163.401E-03     326.406E-03    -163.006E-03     11.1652E-03    -163.455E-03     325.298E-03    -163.043E-03     10.5526E-03
             181    -73.0098E-09     44.5251E-03    -133.659E+06    -301.351E+06    -134.707E+06     96.6345E+03    -163.068E-03     326.036E-03    -162.969E-03     11.4154E-03    -163.114E-03     324.930E-03    -163.011E-03     10.7992E-03
             182    -97.1260E-09     43.2142E-03    -134.218E+06    -300.925E+06    -133.192E+06    -133.253E+03    -163.158E-03     325.940E-03    -162.783E-03     11.2833E-03    -163.210E-03     324.835E-03    -162.818E-03     10.6723E-03
             183     805.152E-09     41.9005E-03    -133.717E+06    -301.328E+06    -134.838E+06     4.77848E+03    -163.294E-03     325.641E-03    -162.347E-03     11.3962E-03    -163.340E-03     324.534E-03    -162.390E-03     10.7933E-03
             184    -123.301E-09     40.5905E-03    -133.908E+06    -300.967E+06    -134.302E+06     291.575E+03    -162.877E-03     325.080E-03    -162.203E-03     11.2907E-03    -162.926E-03     323.976E-03    -162.244E-03     10.6864E-03
             185     421.479E-09     39.2793E-03    -133.773E+06    -300.189E+06    -133.068E+06    -136.609E+03    -162.625E-03     324.631E-03    -162.006E-03     10.9928E-03    -162.676E-03     323.528E-03    -162.042E-03     10.3940E-03
             186     191.506E-09     37.9692E-03    -134.245E+06    -301.868E+06    -135.329E+06    -282.173E+03    -162.243E-03     324.182E-03    -161.939E-03     11.4376E-03    -162.291E-03     323.075E-03    -161.983E-03     10.8354E-03
             187    -398.017E-09     36.6591E-03    -134.296E+06    -301.157E+06    -133.966E+06     483.855E+03    -161.588E-03     323.508E-03    -161.920E-03     11.3780E-03    -161.638E-03     322.402E-03    -161.959E-03     10.7863E-03
             188     50.7850E-09     35.3511E-03    -137.731E+06    -297.272E+06    -137.144E+06     804.616E+03    -161.371E-03     322.653E-03    -161.283E-03     11.0129E-03    -161.439E-03     321.576E-03    -161.338E-03     10.4306E-03
             189     393.642E-09     34.0441E-03    -135.577E+06    -295.804E+06    -135.690E+06    -162.789E+03    -161.457E-03     322.229E-03    -160.771E-03     11.0422E-03    -161.519E-03     321.154E-03    -160.824E-03     10.4503E-03
             190     167.299E-09     32.7367E-03    -137.071E+06    -297.296E+06    -136.774E+06    -171.894E+03    -161.050E-03     321.744E-03    -160.694E-03     10.9287E-03    -161.116E-03     320.666E-03    -160.748E-03     10.3447E-03
             191    -223.280E-09     31.4306E-03    -135.375E+06    -295.992E+06    -135.776E+06     496.182E+03    -160.305E-03     320.857E-03    -160.551E-03     10.6923E-03    -160.366E-03     319.780E-03    -160.605E-03     10.1192E-03
             192    -142.738E-09     30.1262E-03    -135.153E+06    -295.384E+06    -135.445E+06    -628.274E+03    -159.800E-03     319.898E-03    -160.098E-03     10.3373E-03    -159.861E-03     318.824E-03    -160.151E-03     9.73984E-03
             193     11.6584E-09     28.8222E-03    -136.703E+06    -296.379E+06    -137.009E+06     331.484E+03    -159.694E-03     318.953E-03    -159.260E-03     10.2908E-03    -159.758E-03     317.879E-03    -159.317E-03     9.71605E-03
             194     745.925E-09     27.5196E-03    -135.499E+06    -294.685E+06    -135.403E+06     338.778E+03    -159.261E-03     317.974E-03    -158.713E-03     10.6563E-03    -159.324E-03     316.904E-03    -158.767E-03     10.0934E-03
             195    -703.518E-09     26.2186E-03    -135.794E+06    -295.131E+06    -136.413E+06    -310.039E+03    -158.358E-03     316.767E-03    -158.409E-03     10.2454E-03    -158.420E-03     315.696E-03    -158.466E-03     9.68128E-03
             196     539.959E-09     24.9200E-03    -135.900E+06    -294.620E+06    -135.913E+06     697.579E+03    -157.835E-03     315.494E-03    -157.659E-03     9.71766E-03    -157.898E-03     314.424E-03    -157.715E-03     9.18300E-03
             197    -139.057E-09     23.6219E-03    -135.086E+06    -292.885E+06    -134.484E+06    -268.852E+03    -156.905E-03     313.912E-03    -157.007E-03     9.67546E-03    -156.969E-03     312.847E-03    -157.058E-03     9.14160E-03
             198    -445.103E-09     22.3269E-03    -132.552E+06    -290.355E+06    -134.205E+06     981.629E+03    -155.466E-03     311.615E-03    -156.149E-03     9.15780E-03    -155.521E-03     310.559E-03    -156.207E-03     8.65342E-03
             199    -67.0341E-09     21.0351E-03    -131.632E+06    -286.818E+06    -130.592E+06     862.541E+03    -154.261E-03     308.649E-03    -154.387E-03     8.50900E-03    -154.321E-03     307.603E-03    -154.434E-03     8.02888E-03
             200     372.581E-09     19.7481E-03    -131.286E+06    -286.259E+06    -132.001E+06    -421.441E+03    -152.162E-03     304.284E-03    -152.122E-03     7.69681E-03    -152.218E-03     303.241E-03    -152.177E-03     7.23844E-03
             201    -641.314E-09     18.4676E-03    -129.750E+06    -283.626E+06    -130.189E+06     1.17897E+06    -148.747E-03     297.886E-03    -149.139E-03     6.40178E-03    -148.801E-03     296.850E-03    -149.191E-03     6.00843E-03
             202     290.159E-09     17.1973E-03    -128.413E+06    -279.260E+06    -127.462E+06     739.068E+03    -144.843E-03     289.791E-03    -144.949E-03     5.17872E-03    -144.900E-03     288.770E-03    -144.995E-03     4.82499E-03
             203    -91.9576E-09     15.9372E-03    -129.416E+06    -278.032E+06    -129.123E+06     68.2985E+03    -140.136E-03     279.649E-03    -139.512E-03     3.94605E-03    -140.197E-03     278.636E-03    -139.567E-03     3.63278E-03
             204     884.987E-09     14.6918E-03    -125.646E+06    -277.106E+06    -125.785E+06     84.1245E+03    -134.123E-03     267.511E-03    -133.388E-03     3.29374E-03    -134.170E-03     266.492E-03    -133.433E-03     3.03106E-03
             205    -511.514E-09     13.4625E-03    -121.603E+06    -276.662E+06    -121.437E+06    -100.494E+03    -127.118E-03     254.106E-03    -126.989E-03     2.20343E-03    -127.152E-03     253.076E-03    -127.018E-03     1.97513E-03
             206     360.096E-09     12.2507E-03    -122.131E+06    -275.891E+06    -122.191E+06     467.194E+03    -119.915E-03     239.846E-03    -119.930E-03     912.063E-06    -119.952E-03     238.821E-03    -119.964E-03     718.569E-06
             207    -210.041E-09     11.0559E-03    -120.785E+06    -270.409E+06    -121.238E+06     1.86496E+06    -113.228E-03     226.045E-03    -112.817E-03     368.320E-06    -113.266E-03     225.044E-03    -112.856E-03     209.678E-06
             208     734.045E-09     9.87712E-03    -116.988E+06    -262.722E+06    -115.670E+06     1.10242E+06    -108.297E-03     215.710E-03    -107.413E-03     998.282E-06    -108.335E-03     214.735E-03    -107.440E-03     830.439E-06
             209     195.067E-09     8.70674E-03    -114.343E+06    -259.812E+06    -113.284E+06     280.802E+03    -106.735E-03     212.900E-03    -106.165E-03     3.20171E-03    -106.768E-03     211.934E-03    -106.189E-03     3.01963E-03
             210    -189.160E-09     7.53437E-03    -109.437E+06    -257.148E+06    -108.663E+06     918.084E+03    -109.966E-03     220.292E-03    -110.326E-03     5.45644E-03    -109.987E-03     219.324E-03    -110.338E-03     5.28217E-03
             211    -378.245E-09     6.34657E-03    -102.562E+06    -255.274E+06    -102.354E+06    -3.88484E+03    -118.371E-03     237.384E-03    -119.013E-03     7.11390E-03    -118.373E-03     236.404E-03    -119.006E-03     6.92718E-03
             212    -55.9353E-09     5.13297E-03    -98.6182E+06    -257.908E+06    -100.071E+06    -401.876E+03    -129.708E-03     260.359E-03    -130.651E-03     7.54783E-03    -129.691E-03     259.355E-03    -130.634E-03     7.33895E-03
             213    -975.187E-09     3.88928E-03    -92.9191E+06    -257.848E+06    -93.4932E+06     775.433E+03    -142.124E-03     285.117E-03    -142.994E-03     7.10611E-03    -142.087E-03     284.096E-03    -142.952E-03     6.91504E-03
             214     672.234E-09     2.61282E-03    -84.6615E+06    -253.922E+06    -84.2653E+06     1.04115E+06    -153.590E-03     307.195E-03    -153.605E-03     5.66675E-03    -153.527E-03     306.169E-03    -153.535E-03     5.51866E-03
             215    -372.626E-09     1.31227E-03    -78.7905E+06    -250.399E+06    -78.3503E+06     419.364E+03    -160.880E-03     321.399E-03    -160.519E-03     2.97102E-03    -160.797E-03     320.375E-03    -160.433E-03     2.88564E-03
             216     763.668E-06     3.12250E-15    -76.5167E+06    -248.885E+06    -76.1810E+06     171.104E+03    -163.140E-03     326.076E-03    -162.936E-03     2.55106E-03    -163.051E-03     325.053E-03    -162.845E-03     2.47398E-03
             217     1.52747E-03     3.12250E-15    -76.0994E+06    -247.940E+06    -74.5612E+06     17.7030E+03    -162.940E-03     325.968E-03    -163.027E-03     4.70772E-03    -162.854E-03     324.947E-03    -162.930E-03     4.54238E-03
             218     2.29119E-03     3.12250E-15    -75.1498E+06    -245.716E+06    -71.1505E+06     67.5174E+03    -162.473E-03     325.422E-03    -162.949E-03     6.99258E-03    -162.391E-03     324.407E-03    -162.840E-03     6.74390E-03
             219     3.05552E-03     3.12250E-15    -73.9802E+06    -241.924E+06    -65.5383E+06     616.897E+03    -161.796E-03     324.579E-03    -162.784E-03     9.35946E-03    -161.724E-03     323.576E-03    -162.653E-03     9.04120E-03
             220     3.82044E-03     3.12250E-15    -71.6444E+06    -235.256E+06    -56.6455E+06     136.314E+03    -160.965E-03     323.521E-03    -162.556E-03     11.5694E-03    -160.907E-03     322.537E-03    -162.394E-03     11.1663E-03
             221     4.58610E-03     3.12250E-15    -67.3511E+06    -220.017E+06    -48.1476E+06    -2.02637E+06    -160.089E-03     322.346E-03    -162.258E-03     13.7500E-03    -160.046E-03     321.422E-03    -162.082E-03     13.2377E-03
             222     5.35254E-03     3.12250E-15    -61.0672E+06    -192.327E+06    -44.2144E+06    -3.76419E+06    -159.245E-03     321.130E-03    -161.885E-03     15.7773E-03    -159.219E-03     320.333E-03    -161.739E-03     15.1646E-03
             223     6.11944E-03     3.12250E-15    -54.9756E+06    -152.127E+06    -44.5885E+06    -3.35700E+06    -158.479E-03     319.941E-03    -161.462E-03     17.8804E-03    -158.485E-03     319.341E-03    -161.385E-03     17.1970E-03
             224     6.88701E-03     3.12250E-15    -50.2626E+06    -113.166E+06    -40.5499E+06    -2.80293E+06    -157.964E-03     319.041E-03    -161.077E-03     19.8958E-03    -158.013E-03     318.627E-03    -161.043E-03     19.1373E-03
             225     7.65488E-03     3.12250E-15    -44.2074E+06    -72.3347E+06    -34.6123E+06    -5.25264E+06    -157.822E-03     318.559E-03    -160.737E-03     22.0724E-03    -157.913E-03     318.336E-03    -160.741E-03     21.1946E-03
             226     8.42225E-03     3.12250E-15    -36.6710E+06    -20.3535E+06    -27.2258E+06    -6.27014E+06    -158.179E-03     318.634E-03    -160.455E-03     24.5524E-03    -158.325E-03     318.656E-03    -160.508E-03     23.5574E-03
             227     9.18952E-03     3.12250E-15    -29.4905E+06     25.2902E+06    -13.2353E+06    -3.64142E+06    -159.237E-03     319.556E-03    -160.319E-03     27.2658E-03    -159.443E-03     319.784E-03    -160.379E-03     26.1786E-03
             228     9.95485E-03     3.12250E-15    -24.5897E+06     50.1926E+06     6.62389E+06    -1.25264E+06    -161.132E-03     321.516E-03    -160.383E-03     30.8365E-03    -161.390E-03     321.844E-03    -160.387E-03     29.6209E-03
             229     10.7182E-03     3.12250E-15    -20.4167E+06     59.7292E+06     23.5004E+06    -1.99123E+06    -164.035E-03     324.665E-03    -160.630E-03     34.2113E-03    -164.330E-03     325.030E-03    -160.569E-03     32.7140E-03
             230     11.4807E-03     3.12250E-15    -13.9044E+06     68.7456E+06     34.9418E+06    -3.30053E+06    -168.978E-03     330.060E-03    -161.082E-03     37.3047E-03    -169.293E-03     330.468E-03    -160.987E-03     35.4835E-03
             231     12.2371E-03     3.12250E-15    -6.90296E+06     80.4214E+06     67.6542E+06    -3.19131E+06    -177.624E-03     339.625E-03    -162.001E-03     42.2606E-03    -178.002E-03     340.069E-03    -161.770E-03     40.0318E-03
             232     12.9848E-03     3.12250E-15    -1.98435E+06     91.2605E+06     98.2536E+06     1.99392E+06    -192.301E-03     355.794E-03    -163.493E-03     56.8945E-03    -192.803E-03     356.327E-03    -163.131E-03     53.9808E-03
             233     13.7086E-03     3.12250E-15    -3.98609E+06     94.4658E+06     97.9168E+06     5.63974E+06    -219.533E-03     385.350E-03    -165.817E-03     93.9485E-03    -220.499E-03     386.353E-03    -165.458E-03     88.3431E-03
             234     14.4041E-03     3.12250E-15    -4.08469E+06     95.5811E+06     93.7341E+06     4.23629E+06    -264.326E-03     433.992E-03    -169.666E-03     160.198E-03    -266.607E-03     436.314E-03    -169.330E-03     148.655E-03
             235     15.1930E-03     1.57299E-03    -4.43014E+06     102.198E+06     91.4310E+06     1.16604E+06    -262.893E-03     432.164E-03    -169.271E-03     172.111E-03    -265.910E-03     435.245E-03    -168.955E-03     157.862E-03
             236     15.2462E-03     2.98697E-03    -1.82013E+06     107.329E+06     85.9859E+06     1.26897E+06    -228.045E-03     393.324E-03    -165.280E-03     122.049E-03    -230.523E-03     395.922E-03    -165.003E-03     109.265E-03
             237     15.2714E-03     4.37287E-03    -810.221E+03     106.062E+06     84.6026E+06     879.323E+03    -222.919E-03     386.520E-03    -163.601E-03     86.8276E-03    -224.907E-03     388.634E-03    -163.331E-03     74.3869E-03
             238     15.2729E-03     5.77029E-03    -3.05369E+06     105.839E+06     88.1512E+06     545.512E+03    -223.976E-03     386.966E-03    -162.990E-03     69.6650E-03    -225.742E-03     388.841E-03    -162.698E-03     57.3256E-03
             239     15.2801E-03     7.16937E-03    -975.826E+03     106.682E+06     90.5853E+06     696.845E+03    -219.478E-03     382.316E-03    -162.837E-03     64.5041E-03    -221.127E-03     384.076E-03    -162.538E-03     52.6501E-03
             240     15.2802E-03     8.54833E-03    -1.38443E+06     105.803E+06     90.3338E+06    -633.132E+03    -213.264E-03     376.118E-03    -162.854E-03     59.0745E-03    -214.812E-03     377.774E-03    -162.554E-03     47.7445E-03
             241     15.2808E-03     9.92930E-03    -3.54005E+06     101.737E+06     87.4369E+06    -1.73320E+06    -206.771E-03     369.741E-03    -162.970E-03     55.5545E-03    -208.220E-03     371.285E-03    -162.675E-03     44.8939E-03
             242     15.2816E-03     11.2948E-03    -1.86715E+06     99.7542E+06     86.5209E+06    -4.49577E+06    -198.213E-03     361.331E-03    -163.118E-03     53.8830E-03    -199.586E-03     362.800E-03    -162.828E-03     43.8742E-03
             243     15.2829E-03     12.6477E-03    -2.68769E+06     96.5778E+06     85.7220E+06    -2.71417E+06    -191.401E-03     354.701E-03    -163.300E-03     48.1816E-03    -192.680E-03     356.065E-03    -163.008E-03     38.8158E-03
             244     15.2788E-03     13.9951E-03    -2.00665E+06     98.3311E+06     88.6613E+06     3.11858E+06    -184.102E-03     347.666E-03    -163.564E-03     43.2896E-03    -185.290E-03     348.939E-03    -163.261E-03     34.7022E-03
             245     15.2815E-03     15.3309E-03    -1.67734E+06     96.7473E+06     85.0361E+06     646.107E+03    -176.348E-03     340.117E-03    -163.769E-03     41.8598E-03    -177.498E-03     341.358E-03    -163.481E-03     33.6895E-03
             246     15.2787E-03     16.6557E-03    -3.51709E+06     93.9508E+06     82.3301E+06      -567.4E+03    -171.473E-03     335.363E-03    -163.890E-03     39.7642E-03    -172.587E-03     336.559E-03    -163.609E-03     31.9425E-03
             247     15.2813E-03     17.9834E-03     462.866E+03     93.6233E+06     88.2021E+06     224.191E+03    -168.141E-03     332.115E-03    -163.974E-03     39.2515E-03    -169.216E-03     333.268E-03    -163.669E-03     31.7244E-03
             248     15.2804E-03     19.2985E-03    -4.63368E+06     89.5516E+06     83.7348E+06    -2.66486E+06    -167.532E-03     331.498E-03    -163.966E-03     38.0493E-03    -168.614E-03     332.639E-03    -163.671E-03     30.4893E-03
             249     15.2805E-03     20.6253E-03    -1.01418E+06     98.9903E+06     86.4605E+06     2.95798E+06    -167.164E-03     331.095E-03    -163.931E-03     37.8864E-03    -168.227E-03     332.255E-03    -163.641E-03     30.5218E-03
             250     15.2836E-03     21.9430E-03    -1.94738E+06     98.0345E+06     85.3601E+06     1.03966E+06    -167.144E-03     331.022E-03    -163.878E-03     37.3674E-03    -168.210E-03     332.181E-03    -163.591E-03     29.9385E-03
             251     15.2802E-03     23.2648E-03    -3.71545E+06     97.9153E+06     85.5583E+06     503.238E+03    -167.624E-03     331.469E-03    -163.845E-03     36.5458E-03    -168.704E-03     332.635E-03    -163.554E-03     29.0362E-03
             252     15.2853E-03     24.5904E-03    -1.53688E+06     99.0399E+06     87.0441E+06     -24.648E+03    -167.198E-03     331.014E-03    -163.816E-03     38.4038E-03    -168.289E-03     332.198E-03    -163.522E-03     30.8679E-03
             253     15.2811E-03     25.9078E-03    -3.41400E+06     97.3437E+06     85.9225E+06    -944.100E+03    -167.580E-03     331.374E-03    -163.794E-03     37.9863E-03    -168.675E-03     332.553E-03    -163.500E-03     30.4236E-03
             254     15.2851E-03     27.2358E-03    -239.259E+03     94.8109E+06     89.5509E+06    -663.347E+03    -167.057E-03     330.862E-03    -163.805E-03     39.1754E-03    -168.146E-03     332.028E-03    -163.495E-03     31.6437E-03
             255     15.2825E-03     28.5509E-03    -1.49320E+06     93.7064E+06     88.1011E+06    -578.048E+03    -166.849E-03     330.627E-03    -163.777E-03     39.2779E-03    -167.947E-03     331.796E-03    -163.471E-03     31.7268E-03
             256     15.2854E-03     29.8765E-03    -3.09948E+06     99.0986E+06     87.1245E+06     3.13606E+06    -166.501E-03     330.265E-03    -163.764E-03     39.2443E-03    -167.611E-03     331.463E-03    -163.467E-03     31.7927E-03
             257     15.2828E-03     31.1957E-03    -1.97605E+06     100.070E+06     87.2965E+06     2.20347E+06    -165.687E-03     329.467E-03    -163.780E-03     39.9869E-03    -166.805E-03     330.679E-03    -163.485E-03     32.5242E-03
             258     15.2853E-03     32.5126E-03    -2.14890E+06     98.7715E+06     85.8623E+06    -1.91265E+06    -164.939E-03     328.685E-03    -163.746E-03     39.4428E-03    -166.061E-03     329.901E-03    -163.457E-03     31.8699E-03
             259     15.2858E-03     33.8299E-03    -2.72671E+06     98.7292E+06     87.8830E+06    -2.64178E+06    -165.687E-03     329.428E-03    -163.741E-03     38.2514E-03    -166.812E-03     330.639E-03    -163.441E-03     30.6378E-03
             260     15.2821E-03     35.1557E-03    -2.34147E+06     99.4498E+06     88.0898E+06     2.31049E+06    -165.170E-03     328.969E-03    -163.799E-03     38.9594E-03    -166.287E-03     330.176E-03    -163.500E-03     31.5204E-03
             261     15.2863E-03     36.4674E-03    -2.42708E+06     96.5399E+06     84.7108E+06    -1.07112E+06    -163.470E-03     327.256E-03    -163.786E-03     40.2366E-03    -164.586E-03     328.461E-03    -163.499E-03     32.7971E-03
             262     15.2842E-03     37.7842E-03    -2.12065E+06     97.9033E+06     86.9453E+06    -1.70714E+06    -164.604E-03     328.361E-03    -163.756E-03     38.3577E-03    -165.714E-03     329.559E-03    -163.461E-03     30.8634E-03
             263     15.2846E-03     39.1074E-03    -956.251E+03     92.8337E+06     87.8201E+06    -391.554E+03    -164.397E-03     328.182E-03    -163.785E-03     38.9523E-03    -165.500E-03     329.356E-03    -163.479E-03     31.4930E-03
             264     15.2852E-03     40.4181E-03    -2.61478E+06     91.5490E+06     86.4973E+06    -172.398E+03    -164.351E-03     328.155E-03    -163.804E-03     38.4997E-03    -165.466E-03     329.335E-03    -163.501E-03     30.9983E-03
             265     15.2825E-03     41.7424E-03    -2.49393E+06     98.5598E+06     86.1121E+06     4.37526E+06    -164.054E-03     327.887E-03    -163.833E-03     38.3070E-03    -165.170E-03     329.094E-03    -163.542E-03     30.9263E-03
             266     15.2853E-03     43.0553E-03    -2.30446E+06     97.4498E+06     84.6072E+06    -813.202E+03    -161.985E-03     325.807E-03    -163.821E-03     40.7108E-03    -163.111E-03     327.025E-03    -163.536E-03     33.3256E-03
             267     15.2859E-03     44.3683E-03    -2.44870E+06     98.2128E+06     86.8689E+06    -2.82574E+06    -163.281E-03     327.053E-03    -163.772E-03     39.8251E-03    -164.414E-03     328.274E-03    -163.477E-03     32.3212E-03
             268     15.2835E-03     45.6907E-03    -3.65847E+06     97.9314E+06     86.5327E+06     2.68799E+06    -164.301E-03     328.106E-03    -163.806E-03     38.6498E-03    -165.419E-03     329.308E-03    -163.510E-03     31.2656E-03
             269     15.2842E-03     47.0045E-03    -696.820E+03     92.6346E+06     86.0236E+06    -1.51563E+06    -162.518E-03     326.369E-03    -163.851E-03     39.4500E-03    -163.623E-03     327.552E-03    -163.554E-03     32.0273E-03
             270     15.2853E-03     48.3165E-03    -3.04295E+06     90.7905E+06     84.8643E+06    -3.81616E+06    -163.032E-03     326.860E-03    -163.828E-03     38.6578E-03    -164.154E-03     328.047E-03    -163.531E-03     31.1161E-03
             271     15.2830E-03     49.6386E-03    -2.21561E+06     99.6470E+06     87.3511E+06     2.80234E+06    -163.376E-03     327.208E-03    -163.831E-03     39.3334E-03    -164.501E-03     328.425E-03    -163.536E-03     31.9703E-03
             272     15.2857E-03     50.9528E-03    -1.69018E+06     98.7876E+06     87.5329E+06     521.332E+03    -162.781E-03     326.635E-03    -163.854E-03     40.3479E-03    -163.909E-03     327.854E-03    -163.557E-03     32.9573E-03
             273     15.2822E-03     52.2673E-03    -3.08204E+06     97.9701E+06     86.4819E+06     811.016E+03    -162.873E-03     326.737E-03    -163.864E-03     39.6759E-03    -164.003E-03     327.953E-03    -163.569E-03     32.2789E-03
             274     15.2856E-03     53.5863E-03    -1.61276E+06     100.165E+06     87.5712E+06     75.2575E+03    -162.404E-03     326.264E-03    -163.860E-03     40.6668E-03    -163.541E-03     327.496E-03    -163.565E-03     33.2571E-03
             275     15.2833E-03     54.8959E-03    -2.66597E+06     99.0685E+06     87.7607E+06     -437.66E+03    -163.044E-03     326.878E-03    -163.834E-03     40.1737E-03    -164.183E-03     328.104E-03    -163.535E-03     32.7336E-03
             276     15.2852E-03     56.2189E-03    -452.187E+03     100.379E+06     87.8636E+06     895.227E+03    -162.799E-03     326.624E-03    -163.824E-03     40.0220E-03    -163.924E-03     327.849E-03    -163.530E-03     32.6226E-03
             277     15.2844E-03     57.5286E-03    -3.03164E+06     99.0896E+06     87.2030E+06    -1.65625E+06    -162.947E-03     326.801E-03    -163.854E-03     40.5344E-03    -164.091E-03     328.032E-03    -163.557E-03     33.0749E-03
             278     15.2823E-03     58.8513E-03    -2.55274E+06     100.164E+06     88.4968E+06     3.05230E+06    -162.910E-03     326.808E-03    -163.899E-03     40.9596E-03    -164.050E-03     328.039E-03    -163.598E-03     33.6255E-03
             279     15.2849E-03     60.1616E-03    -1.69490E+06     96.8714E+06     85.5743E+06    -1.01596E+06    -161.280E-03     325.140E-03    -163.860E-03     41.9538E-03    -162.420E-03     326.370E-03    -163.570E-03     34.5547E-03
             280     15.2860E-03     61.4730E-03    -2.03851E+06     97.9380E+06     88.3119E+06    -2.82623E+06    -163.044E-03     326.843E-03    -163.799E-03     40.6502E-03    -164.185E-03     328.068E-03    -163.497E-03     33.1592E-03
             281     15.2829E-03     62.7988E-03    -1.81615E+06     99.3634E+06     88.7831E+06     3.66189E+06    -163.460E-03     327.277E-03    -163.816E-03     40.2895E-03    -164.589E-03     328.495E-03    -163.514E-03     32.9345E-03
             282     15.2864E-03     64.1058E-03    -4.24884E+06     95.3634E+06     84.3608E+06    -1.37274E+06    -162.336E-03     326.154E-03    -163.818E-03     40.1891E-03    -163.476E-03     327.372E-03    -163.528E-03     32.7268E-03
             283     15.2833E-03     65.4225E-03    -1.97445E+06     98.5195E+06     88.0937E+06    -1.19961E+06    -163.326E-03     327.132E-03    -163.806E-03     38.7855E-03    -164.456E-03     328.349E-03    -163.505E-03     31.3069E-03
             284     15.2857E-03     66.7439E-03    -854.236E+03     100.126E+06     89.9965E+06     1.38432E+06    -162.476E-03     326.321E-03    -163.846E-03     39.5685E-03    -163.608E-03     327.545E-03    -163.540E-03     32.1723E-03
             285     15.2833E-03     68.0525E-03    -3.94393E+06     97.0033E+06     86.0024E+06    -3.23803E+06    -161.927E-03     325.785E-03    -163.858E-03     40.2214E-03    -163.071E-03     327.011E-03    -163.563E-03     32.7560E-03
             286     15.2852E-03     69.3714E-03    -2.71713E+06     98.8841E+06     88.0964E+06    -1.89833E+06    -162.732E-03     326.566E-03    -163.834E-03     40.8358E-03    -163.870E-03     327.790E-03    -163.533E-03     33.4206E-03
             287     15.2844E-03     70.6861E-03     541.357E+03     101.411E+06     91.6669E+06     2.56711E+06    -162.667E-03     326.506E-03    -163.839E-03     40.0073E-03    -163.786E-03     327.721E-03    -163.529E-03     32.6894E-03
             288     15.2845E-03     72.0017E-03    -3.26347E+06     97.1928E+06     86.5168E+06     1.28742E+06    -162.266E-03     326.121E-03    -163.856E-03     39.0826E-03    -163.390E-03     327.328E-03    -163.559E-03     31.7223E-03
             289     15.2838E-03     73.3139E-03    -3.06229E+06     98.2945E+06     87.2992E+06     235.868E+03    -162.337E-03     326.196E-03    -163.859E-03     39.6166E-03    -163.467E-03     327.411E-03    -163.560E-03     32.2428E-03
             290     15.2848E-03     74.6331E-03    -1.05848E+06      99.251E+06     90.1326E+06     330.606E+03    -162.476E-03     326.331E-03    -163.855E-03     39.9638E-03    -163.603E-03     327.545E-03    -163.547E-03     32.5890E-03
             291     15.2841E-03     75.9452E-03    -3.59453E+06     97.9739E+06     88.5974E+06    -1.35256E+06    -162.789E-03     326.639E-03    -163.850E-03     40.3584E-03    -163.927E-03     327.855E-03    -163.544E-03     32.9507E-03
             292     763.783E-06     76.0820E-03    -134.573E+06    -294.334E+06    -131.544E+06    -386.298E+03    -164.101E-03     328.012E-03    -163.911E-03     19.7476E-03    -164.192E-03     326.963E-03    -163.947E-03     18.6951E-03
             293     1.52774E-03     76.1154E-03    -129.699E+06    -285.233E+06    -118.243E+06    -221.655E+03    -164.231E-03     328.235E-03    -164.003E-03     35.7916E-03    -164.405E-03     327.278E-03    -163.993E-03     33.8488E-03
             294     2.29176E-03     76.1696E-03    -122.683E+06    -268.179E+06    -99.9847E+06     152.145E+03    -164.514E-03     328.562E-03    -164.048E-03     52.4305E-03    -164.832E-03     327.781E-03    -163.981E-03     49.5181E-03
             295     3.05553E-03     76.2443E-03    -114.626E+06    -251.353E+06    -80.4021E+06     268.630E+03    -164.889E-03     328.982E-03    -164.093E-03     68.6226E-03    -165.405E-03     328.431E-03    -163.964E-03     64.6702E-03
             296     3.81947E-03     76.3381E-03    -105.862E+06    -227.293E+06    -62.0656E+06     197.541E+03    -165.295E-03     329.411E-03    -164.116E-03     84.1242E-03    -166.074E-03     329.187E-03    -163.943E-03     79.0723E-03
             297     4.58362E-03     76.4501E-03    -97.0872E+06    -195.556E+06    -45.1818E+06     300.214E+03    -165.711E-03     329.826E-03    -164.115E-03     98.8158E-03    -166.828E-03     330.035E-03    -163.917E-03     92.6177E-03
             298     5.34768E-03     76.5793E-03    -88.9253E+06    -173.878E+06    -30.4346E+06     293.745E+03    -166.153E-03     330.271E-03    -164.118E-03     112.450E-03    -167.660E-03     330.934E-03    -163.889E-03     105.051E-03
             299     6.11170E-03     76.7240E-03    -80.7371E+06    -147.226E+06    -16.1331E+06     477.906E+03    -166.537E-03     330.649E-03    -164.112E-03     124.924E-03    -168.502E-03     331.852E-03    -163.862E-03     116.312E-03
             300     6.87596E-03     76.8827E-03    -72.7517E+06    -113.240E+06    -1.36896E+06     839.002E+03    -166.848E-03     330.948E-03    -164.100E-03     136.095E-03    -169.334E-03     332.777E-03    -163.837E-03     126.296E-03
             301     7.64008E-03     77.0537E-03    -65.1059E+06    -82.7728E+06     12.4491E+06     945.080E+03    -167.055E-03     331.144E-03    -164.089E-03     145.638E-03    -170.086E-03     333.614E-03    -163.812E-03     134.712E-03
             302     8.40425E-03     77.2349E-03    -57.7486E+06    -49.1633E+06     25.8943E+06     727.698E+03    -167.056E-03     331.126E-03    -164.071E-03     153.098E-03    -170.620E-03     334.237E-03    -163.786E-03     141.190E-03
             303     9.16872E-03     77.4226E-03    -50.7836E+06    -10.9672E+06     39.6020E+06     644.490E+03    -166.840E-03     330.882E-03    -164.042E-03     157.578E-03    -170.865E-03     334.573E-03    -163.754E-03     144.926E-03
             304     9.93281E-03     77.6134E-03    -44.2455E+06     36.5570E+06     54.1436E+06     100.114E+03    -166.400E-03     330.399E-03    -163.999E-03     158.125E-03    -170.749E-03     334.563E-03    -163.717E-03     145.013E-03
             305     10.6981E-03     77.8011E-03    -37.6015E+06     68.2926E+06     63.5287E+06    -1.06763E+06    -165.881E-03     329.835E-03    -163.954E-03     154.188E-03    -170.327E-03     334.206E-03    -163.681E-03     140.896E-03
             306     11.4613E-03     77.9815E-03    -30.7237E+06     75.7507E+06     66.6419E+06    -1.63730E+06    -165.194E-03     329.110E-03    -163.916E-03     145.638E-03    -169.476E-03     333.359E-03    -163.648E-03     132.461E-03
             307     12.2268E-03     78.1469E-03    -22.5587E+06     83.3208E+06     76.6100E+06    -575.722E+03    -164.346E-03     328.255E-03    -163.909E-03     134.348E-03    -168.320E-03     332.223E-03    -163.614E-03     121.515E-03
             308     12.9914E-03     78.2986E-03    -16.7695E+06     88.9605E+06     87.3104E+06    -1.63217E+06    -163.534E-03     327.443E-03    -163.909E-03     118.165E-03    -166.999E-03     330.911E-03    -163.577E-03     105.966E-03
             309     13.7561E-03     78.4216E-03    -13.0895E+06     94.7594E+06     90.8187E+06    -3.85037E+06    -163.078E-03     326.961E-03    -163.883E-03     103.758E-03    -166.170E-03     330.080E-03    -163.548E-03     91.8792E-03
             310     14.5201E-03     78.5364E-03    -7.36385E+06     97.6054E+06     88.4580E+06    -1.35133E+06    -162.841E-03     326.685E-03    -163.844E-03     70.0337E-03    -164.937E-03     328.844E-03    -163.532E-03     60.3516E-03
             311     764.022E-06     77.3966E-03    -132.940E+06    -293.807E+06    -129.562E+06    -228.921E+03    -164.123E-03     327.977E-03    -163.854E-03     19.6561E-03    -164.209E-03     326.925E-03    -163.883E-03     18.6084E-03
             312     1.52784E-03     77.4303E-03    -128.430E+06    -285.222E+06    -116.508E+06    -1.16957E+03    -164.270E-03     328.269E-03    -163.999E-03     35.7992E-03    -164.440E-03     327.308E-03    -163.982E-03     33.8596E-03
             313     2.29147E-03     77.4846E-03    -121.698E+06    -268.246E+06    -98.8226E+06    -120.268E+03    -164.566E-03     328.625E-03    -164.059E-03     52.4812E-03    -164.880E-03     327.841E-03    -163.987E-03     49.5644E-03
             314     3.05551E-03     77.5592E-03    -113.617E+06    -252.089E+06    -79.8526E+06     174.764E+03    -164.881E-03     328.986E-03    -164.105E-03     68.7181E-03    -165.391E-03     328.429E-03    -163.974E-03     64.7661E-03
             315     3.81961E-03     77.6530E-03    -105.181E+06    -227.577E+06    -61.4839E+06     539.200E+03    -165.282E-03     329.404E-03    -164.122E-03     84.2025E-03    -166.058E-03     329.177E-03    -163.947E-03     79.1586E-03
             316     4.58353E-03     77.7652E-03    -96.8032E+06    -195.776E+06    -44.7657E+06     633.940E+03    -165.726E-03     329.845E-03    -164.119E-03     98.8689E-03    -166.841E-03     330.052E-03    -163.919E-03     92.6777E-03
             317     5.34760E-03     77.8943E-03    -88.2710E+06    -174.003E+06    -29.7642E+06     569.401E+03    -166.172E-03     330.296E-03    -164.124E-03     112.509E-03    -167.677E-03     330.956E-03    -163.892E-03     105.112E-03
             318     6.11181E-03     78.0390E-03    -80.2366E+06    -147.614E+06    -15.5533E+06     801.881E+03    -166.570E-03     330.690E-03    -164.120E-03     125.000E-03    -168.534E-03     331.891E-03    -163.868E-03     116.388E-03
             319     6.87586E-03     78.1978E-03    -72.3415E+06    -113.749E+06    -1.02184E+06     1.04133E+06    -166.869E-03     330.977E-03    -164.108E-03     136.213E-03    -169.355E-03     332.805E-03    -163.843E-03     126.412E-03
             320     7.63998E-03     78.3691E-03    -64.4353E+06    -83.1493E+06     12.8815E+06     1.04506E+06    -167.020E-03     331.115E-03    -164.095E-03     145.782E-03    -170.049E-03     333.583E-03    -163.816E-03     134.860E-03
             321     8.40438E-03     78.5498E-03    -56.6180E+06    -49.1260E+06     26.8890E+06     1.30695E+06    -166.996E-03     331.068E-03    -164.072E-03     153.180E-03    -170.558E-03     334.176E-03    -163.784E-03     141.285E-03
             322     9.16861E-03     78.7380E-03    -48.7737E+06    -10.9761E+06     40.9230E+06     1.37701E+06    -166.779E-03     330.817E-03    -164.038E-03     157.589E-03    -170.797E-03     334.504E-03    -163.747E-03     144.948E-03
             323     9.93349E-03     78.9282E-03    -40.7428E+06     37.6074E+06     56.1544E+06     1.55881E+06    -166.390E-03     330.381E-03    -163.991E-03     158.242E-03    -170.727E-03     334.544E-03    -163.706E-03     145.153E-03
             324     10.6971E-03     79.1168E-03    -33.3693E+06     70.9019E+06     66.3947E+06     614.582E+03    -165.869E-03     329.813E-03    -163.944E-03     154.528E-03    -170.303E-03     334.188E-03    -163.667E-03     141.270E-03
             325     11.4628E-03     79.2964E-03    -26.7808E+06     77.6441E+06     70.8183E+06    -1.02072E+06    -165.211E-03     329.123E-03    -163.912E-03     145.992E-03    -169.484E-03     333.371E-03    -163.632E-03     132.843E-03
             326     12.2263E-03     79.4623E-03    -21.1706E+06     82.2197E+06     77.8988E+06    -1.54024E+06    -164.402E-03     328.303E-03    -163.901E-03     134.390E-03    -168.372E-03     332.264E-03    -163.600E-03     121.538E-03
             327     12.9915E-03     79.6122E-03    -14.6722E+06     89.4872E+06     87.9967E+06     37.5678E+03    -163.492E-03     327.388E-03    -163.896E-03     117.740E-03    -166.949E-03     330.856E-03    -163.565E-03     105.538E-03
             328     13.7563E-03     79.7377E-03    -9.55298E+06     97.8964E+06     94.2687E+06     442.838E+03    -163.016E-03     326.893E-03    -163.877E-03     103.410E-03    -166.090E-03     330.007E-03    -163.534E-03     91.6036E-03
             329     14.5210E-03     79.8510E-03    -4.88717E+06     96.0693E+06     90.0642E+06    -2.41507E+06    -162.845E-03     326.680E-03    -163.835E-03     69.7287E-03    -164.923E-03     328.820E-03    -163.517E-03     60.0284E-03
             330     763.721E-06     78.7112E-03    -133.078E+06    -294.170E+06    -129.580E+06     479.633E+03    -164.168E-03     328.125E-03    -163.957E-03     19.3806E-03    -164.255E-03     327.071E-03    -163.985E-03     18.3368E-03
             331     1.52768E-03     78.7453E-03    -128.527E+06    -285.200E+06    -116.395E+06     63.8881E+03    -164.204E-03     328.251E-03    -164.046E-03     35.7941E-03    -164.375E-03     327.290E-03    -164.028E-03     33.8572E-03
             332     2.29174E-03     78.7997E-03    -121.415E+06    -268.284E+06    -98.4158E+06     88.4208E+03    -164.497E-03     328.563E-03    -164.066E-03     52.4888E-03    -164.810E-03     327.779E-03    -163.993E-03     49.5760E-03
             333     3.05559E-03     78.8741E-03    -113.668E+06    -253.015E+06    -79.6765E+06     390.234E+03    -164.892E-03     328.995E-03    -164.103E-03     68.7055E-03    -165.401E-03     328.433E-03    -163.969E-03     64.7573E-03
             334     3.81947E-03     78.9680E-03    -105.066E+06    -228.309E+06    -61.4078E+06     758.400E+03    -165.295E-03     329.417E-03    -164.122E-03     84.2181E-03    -166.069E-03     329.186E-03    -163.945E-03     79.1787E-03
             335     4.58362E-03     79.0801E-03    -96.3437E+06    -195.927E+06    -44.3505E+06     816.540E+03    -165.716E-03     329.836E-03    -164.119E-03     98.9225E-03    -166.830E-03     330.041E-03    -163.917E-03     92.7323E-03
             336     5.34771E-03     79.2095E-03    -88.0151E+06    -174.264E+06    -29.3229E+06     817.172E+03    -166.176E-03     330.300E-03    -164.124E-03     112.551E-03    -167.681E-03     330.959E-03    -163.890E-03     105.157E-03
             337     6.11167E-03     79.3540E-03    -79.7217E+06    -147.942E+06    -14.8745E+06     931.243E+03    -166.576E-03     330.697E-03    -164.121E-03     125.127E-03    -168.540E-03     331.896E-03    -163.865E-03     116.516E-03
             338     6.87584E-03     79.5132E-03    -71.3709E+06    -113.707E+06    -180.985E+03     781.535E+03    -166.836E-03     330.942E-03    -164.106E-03     136.341E-03    -169.320E-03     332.770E-03    -163.838E-03     126.535E-03
             339     7.64021E-03     79.6839E-03    -62.9518E+06    -83.4581E+06     13.7316E+06     640.228E+03    -166.965E-03     331.052E-03    -164.088E-03     145.863E-03    -169.989E-03     333.516E-03    -163.807E-03     134.938E-03
             340     8.40436E-03     79.8652E-03    -54.6065E+06    -50.0760E+06     27.5911E+06     870.117E+03    -166.953E-03     331.012E-03    -164.059E-03     153.305E-03    -170.506E-03     334.113E-03    -163.769E-03     141.409E-03
             341     9.16892E-03     80.0526E-03    -46.4278E+06    -11.0242E+06     41.9896E+06     1.06527E+06    -166.774E-03     330.796E-03    -164.022E-03     157.751E-03    -170.783E-03     334.480E-03    -163.729E-03     145.109E-03
             342     9.93302E-03     80.2435E-03    -38.3854E+06     37.3619E+06     57.1696E+06     1.03624E+06    -166.369E-03     330.343E-03    -163.974E-03     158.412E-03    -170.697E-03     334.501E-03    -163.687E-03     145.319E-03
             343     10.6987E-03     80.4316E-03    -30.9106E+06     71.9309E+06     67.8094E+06     1.58627E+06    -165.785E-03     329.709E-03    -163.923E-03     154.458E-03    -170.207E-03     334.079E-03    -163.644E-03     141.227E-03
             344     11.4621E-03     80.6118E-03    -25.2386E+06     80.2188E+06     71.8905E+06     1.44269E+06    -165.129E-03     329.013E-03    -163.885E-03     145.846E-03    -169.394E-03     333.265E-03    -163.605E-03     132.744E-03
             345     12.2275E-03     80.7775E-03    -20.4986E+06     83.1422E+06     78.4946E+06     342.195E+03    -164.612E-03     328.492E-03    -163.880E-03     134.462E-03    -168.586E-03     332.460E-03    -163.578E-03     121.613E-03
             346     12.9912E-03     80.9277E-03    -15.5269E+06     87.4492E+06     86.9282E+06    -635.540E+03    -163.992E-03     327.888E-03    -163.896E-03     117.586E-03    -167.457E-03     331.356E-03    -163.565E-03     105.322E-03
             347     13.7559E-03     81.0516E-03    -7.70544E+06     98.1018E+06     94.9244E+06    -93.3708E+03    -163.097E-03     326.992E-03    -163.895E-03     103.045E-03    -166.162E-03     330.103E-03    -163.552E-03     91.2068E-03
             348     14.5199E-03     81.1677E-03    -2.62973E+06     97.3591E+06     92.5748E+06    -481.402E+03    -162.703E-03     326.561E-03    -163.859E-03     69.3347E-03    -164.772E-03     328.699E-03    -163.533E-03     59.6633E-03
             349     763.731E-06     80.0265E-03    -133.500E+06    -294.285E+06    -130.645E+06    -266.259E+03    -164.189E-03     328.190E-03    -164.000E-03     19.5638E-03    -164.276E-03     327.137E-03    -164.033E-03     18.5110E-03
             350     1.52757E-03     80.0600E-03    -128.951E+06    -285.318E+06    -117.118E+06    -175.837E+03    -164.215E-03     328.288E-03    -164.073E-03     35.8291E-03    -164.387E-03     327.329E-03    -164.058E-03     33.8860E-03
             351     2.29154E-03     80.1144E-03    -122.365E+06    -269.297E+06    -99.0635E+06     252.954E+03    -164.448E-03     328.529E-03    -164.081E-03     52.4912E-03    -164.763E-03     327.741E-03    -164.008E-03     49.5817E-03
             352     3.05555E-03     80.1892E-03     -113.97E+06    -253.339E+06    -79.4331E+06     476.802E+03    -164.861E-03     328.966E-03    -164.105E-03     68.7167E-03    -165.372E-03     328.403E-03    -163.970E-03     64.7690E-03
             353     3.81959E-03     80.2829E-03    -105.009E+06    -228.945E+06    -61.2417E+06     541.743E+03    -165.296E-03     329.416E-03    -164.120E-03     84.2562E-03    -166.070E-03     329.182E-03    -163.942E-03     79.2115E-03
             354     4.58356E-03     80.3952E-03    -96.2663E+06    -196.438E+06    -44.1755E+06     885.276E+03    -165.692E-03     329.808E-03    -164.116E-03     98.9617E-03    -166.806E-03     330.011E-03    -163.913E-03     92.7730E-03
             355     5.34764E-03     80.5244E-03    -87.6215E+06    -174.259E+06    -28.7067E+06     906.817E+03    -166.134E-03     330.250E-03    -164.117E-03     112.680E-03    -167.638E-03     330.908E-03    -163.880E-03     105.291E-03
             356     6.11187E-03     80.6692E-03    -79.1173E+06    -148.038E+06    -14.3163E+06     479.478E+03    -166.558E-03     330.668E-03    -164.109E-03     125.279E-03    -168.521E-03     331.866E-03    -163.851E-03     116.663E-03
             357     6.87607E-03     80.8282E-03    -70.8446E+06    -113.660E+06     137.402E+03     373.401E+03    -166.806E-03     330.897E-03    -164.091E-03     136.376E-03    -169.289E-03     332.724E-03    -163.823E-03     126.568E-03
             358     7.64015E-03     80.9992E-03    -63.0919E+06    -83.1025E+06     13.8162E+06     237.909E+03    -166.895E-03     330.963E-03    -164.068E-03     145.876E-03    -169.919E-03     333.429E-03    -163.787E-03     134.951E-03
             359     8.40479E-03     81.1799E-03    -55.6540E+06    -50.6784E+06     27.1156E+06    -149.711E+03    -166.909E-03     330.945E-03    -164.036E-03     153.354E-03    -170.464E-03     334.044E-03    -163.746E-03     141.451E-03
             360     9.16910E-03     81.3680E-03    -48.0391E+06    -11.7338E+06     41.1891E+06    -41.1331E+03    -166.826E-03     330.827E-03    -164.001E-03     157.712E-03    -170.841E-03     334.510E-03    -163.708E-03     145.051E-03
             361     9.93398E-03     81.5583E-03    -41.0273E+06     36.8581E+06     55.9987E+06     540.304E+03    -166.416E-03     330.375E-03    -163.960E-03     158.102E-03    -170.753E-03     334.535E-03    -163.674E-03     144.990E-03
             362     10.6975E-03     81.7468E-03    -34.8140E+06     69.3730E+06     65.0787E+06     1.83928E+06    -165.749E-03     329.660E-03    -163.911E-03     154.113E-03    -170.178E-03     334.023E-03    -163.635E-03     140.887E-03
             363     11.4632E-03     81.9265E-03    -28.8182E+06     81.2320E+06     69.2271E+06     2.64252E+06    -165.135E-03     329.004E-03    -163.869E-03     145.549E-03    -169.415E-03     333.270E-03    -163.599E-03     132.448E-03
             364     12.2271E-03     82.0925E-03    -22.5496E+06     87.0152E+06     77.7099E+06     659.868E+03    -164.702E-03     328.575E-03    -163.873E-03     134.184E-03    -168.691E-03     332.567E-03    -163.578E-03     121.317E-03
             365     12.9917E-03     82.2443E-03    -14.8434E+06     89.0022E+06     88.5245E+06    -1.34630E+06    -164.250E-03     328.161E-03    -163.912E-03     117.484E-03    -167.724E-03     331.642E-03    -163.577E-03     105.160E-03
             366     13.7547E-03     82.3675E-03    -10.2000E+06     94.6733E+06     92.7233E+06    -2.82826E+06    -163.579E-03     327.505E-03    -163.926E-03     102.557E-03    -166.667E-03     330.625E-03    -163.585E-03     90.5710E-03
             367     14.5207E-03     82.4806E-03    -5.39607E+06     95.5019E+06     90.2419E+06    -71.9380E+03    -162.676E-03     326.577E-03    -163.901E-03     68.9107E-03    -164.759E-03     328.718E-03    -163.580E-03     59.2189E-03
             368     763.959E-06     81.3416E-03    -133.876E+06    -294.407E+06    -130.073E+06     4.64339E+03    -164.217E-03     328.085E-03    -163.868E-03     19.5584E-03    -164.307E-03     327.032E-03    -163.897E-03     18.5104E-03
             369     1.52769E-03     81.3751E-03    -129.274E+06    -285.315E+06    -116.701E+06     347.544E+03    -164.252E-03     328.294E-03    -164.041E-03     35.8346E-03    -164.426E-03     327.334E-03    -164.024E-03     33.8969E-03
             370     2.29155E-03     81.4293E-03    -122.505E+06    -269.628E+06    -98.5471E+06     107.411E+03    -164.495E-03     328.572E-03    -164.077E-03     52.6264E-03    -164.812E-03     327.782E-03    -164.001E-03     49.7136E-03
             371     3.05559E-03     81.5040E-03    -114.107E+06    -253.828E+06    -79.4296E+06     157.521E+03    -164.837E-03     328.941E-03    -164.104E-03     68.7992E-03    -165.348E-03     328.377E-03    -163.968E-03     64.8469E-03
             372     3.81955E-03     81.5979E-03    -105.359E+06    -229.177E+06    -61.1236E+06     483.812E+03    -165.247E-03     329.359E-03    -164.112E-03     84.3292E-03    -166.023E-03     329.125E-03    -163.933E-03     79.2845E-03
             373     4.58362E-03     81.7102E-03    -96.3313E+06    -196.863E+06    -44.0044E+06     492.593E+03    -165.667E-03     329.770E-03    -164.103E-03     99.0474E-03    -166.781E-03     329.971E-03    -163.898E-03     92.8522E-03
             374     5.34790E-03     81.8392E-03    -87.3782E+06    -174.393E+06    -28.8550E+06     386.597E+03    -166.151E-03     330.252E-03    -164.102E-03     112.736E-03    -167.654E-03     330.910E-03    -163.866E-03     105.336E-03
             375     6.11198E-03     81.9844E-03    -79.0393E+06    -147.810E+06    -14.3214E+06     306.264E+03    -166.539E-03     330.636E-03    -164.097E-03     125.179E-03    -168.501E-03     331.834E-03    -163.839E-03     116.564E-03
             376     6.87604E-03     82.1433E-03    -71.0934E+06    -113.695E+06     11.2695E+03     166.467E+03    -166.731E-03     330.807E-03    -164.076E-03     136.240E-03    -169.213E-03     332.632E-03    -163.808E-03     126.436E-03
             377     7.64061E-03     82.3139E-03    -63.0455E+06    -82.7659E+06     13.7294E+06     4.24543E+03    -166.888E-03     330.939E-03    -164.051E-03     145.740E-03    -169.912E-03     333.406E-03    -163.771E-03     134.810E-03
             378     8.40478E-03     82.4949E-03    -55.3218E+06    -50.4807E+06     27.3918E+06     171.571E+03    -166.996E-03     331.023E-03    -164.027E-03     153.119E-03    -170.551E-03     334.123E-03    -163.737E-03     141.204E-03
             379     9.16928E-03     82.6829E-03    -48.6615E+06    -12.9397E+06     40.6044E+06     759.596E+03    -166.845E-03     330.843E-03    -163.998E-03     157.480E-03    -170.860E-03     334.522E-03    -163.706E-03     144.820E-03
             380     9.93298E-03     82.8738E-03    -42.3029E+06     34.4159E+06     54.3017E+06     2.00637E+06    -166.387E-03     330.342E-03    -163.955E-03     158.024E-03    -170.724E-03     334.494E-03    -163.672E-03     144.935E-03
             381     10.6985E-03     83.0613E-03    -35.3850E+06     68.2230E+06     64.2568E+06     2.44260E+06    -165.878E-03     329.790E-03    -163.912E-03     154.136E-03    -170.314E-03     334.156E-03    -163.638E-03     140.892E-03
             382     11.4622E-03     83.2415E-03    -27.2223E+06     82.0863E+06     70.6054E+06     1.53719E+06    -165.408E-03     329.296E-03    -163.888E-03     145.602E-03    -169.692E-03     333.570E-03    -163.615E-03     132.446E-03
             383     12.2267E-03     83.4083E-03    -19.3660E+06     90.4385E+06     80.8912E+06     1.11127E+06    -164.832E-03     328.739E-03    -163.907E-03     134.226E-03    -168.818E-03     332.742E-03    -163.605E-03     121.349E-03
             384     12.9906E-03     83.5594E-03    -14.7954E+06     91.1825E+06     89.3484E+06    -266.002E+03    -164.145E-03     328.085E-03    -163.939E-03     117.582E-03    -167.625E-03     331.576E-03    -163.603E-03     105.276E-03
             385     13.7557E-03     83.6844E-03    -9.59358E+06     95.6335E+06     94.3398E+06     293.293E+03    -163.468E-03     327.418E-03    -163.950E-03     102.965E-03    -166.553E-03     330.535E-03    -163.603E-03     91.0789E-03
             386     14.5166E-03     83.7976E-03     -4.6533E+06     95.4056E+06     90.8475E+06     684.906E+03    -162.518E-03     326.429E-03    -163.911E-03     69.7936E-03    -164.598E-03     328.568E-03    -163.589E-03     60.1458E-03
             387     763.714E-06     82.6563E-03    -134.323E+06    -294.953E+06    -130.933E+06     340.973E+03    -164.226E-03     328.049E-03    -163.822E-03     19.4313E-03    -164.316E-03     326.994E-03    -163.854E-03     18.3896E-03
             388     1.52781E-03     82.6899E-03    -129.685E+06    -285.961E+06    -117.275E+06     551.024E+03    -164.207E-03     328.225E-03    -164.018E-03     35.7298E-03    -164.381E-03     327.264E-03    -164.002E-03     33.7972E-03
             389     2.29171E-03     82.7443E-03    -122.473E+06    -269.238E+06    -98.4844E+06     676.165E+03    -164.481E-03     328.533E-03    -164.051E-03     52.5654E-03    -164.799E-03     327.745E-03    -163.976E-03     49.6624E-03
             390     3.05554E-03     82.8189E-03    -114.227E+06    -253.685E+06    -79.0294E+06     153.034E+03    -164.839E-03     328.925E-03    -164.086E-03     68.8670E-03    -165.352E-03     328.361E-03    -163.948E-03     64.9148E-03
             391     3.81966E-03     82.9127E-03    -105.244E+06    -229.305E+06    -61.0562E+06     14.1361E+03    -165.239E-03     329.335E-03    -164.096E-03     84.3764E-03    -166.015E-03     329.101E-03    -163.916E-03     79.3244E-03
             392     4.58387E-03     83.0250E-03    -96.2157E+06    -197.021E+06    -44.4875E+06     11.0682E+03    -165.721E-03     329.812E-03    -164.090E-03     98.9949E-03    -166.835E-03     330.013E-03    -163.887E-03     92.7876E-03
             393     5.34778E-03     83.1543E-03    -87.7914E+06    -174.865E+06    -29.7344E+06     60.3840E+03    -166.206E-03     330.305E-03    -164.098E-03     112.623E-03    -167.710E-03     330.962E-03    -163.866E-03     105.213E-03
             394     6.11179E-03     83.2995E-03    -79.6230E+06    -147.867E+06    -14.9679E+06     330.929E+03    -166.482E-03     330.578E-03    -164.096E-03     125.030E-03    -168.444E-03     331.776E-03    -163.841E-03     116.416E-03
             395     6.87628E-03     83.4579E-03    -71.7823E+06    -113.409E+06    -265.246E+03     248.770E+03    -166.694E-03     330.767E-03    -164.073E-03     136.101E-03    -169.178E-03     332.595E-03    -163.806E-03     126.295E-03
             396     7.64037E-03     83.6291E-03    -64.4458E+06    -82.2556E+06     13.2430E+06    -118.026E+03    -166.947E-03     330.997E-03    -164.050E-03     145.639E-03    -169.979E-03     333.470E-03    -163.771E-03     134.699E-03
             397     8.40472E-03     83.8099E-03    -57.2289E+06    -51.9100E+06      25.867E+06     299.873E+03    -167.020E-03     331.050E-03    -164.030E-03     153.127E-03    -170.581E-03     334.149E-03    -163.742E-03     141.209E-03
             398     9.16869E-03     83.9983E-03    -49.9568E+06    -14.6301E+06     39.3597E+06     1.55240E+06    -166.787E-03     330.787E-03    -164.000E-03     157.569E-03    -170.804E-03     334.460E-03    -163.710E-03     144.928E-03
             399     9.93413E-03     84.1882E-03    -41.7390E+06     33.1839E+06     53.9500E+06     1.68941E+06    -166.436E-03     330.393E-03    -163.957E-03     158.038E-03    -170.769E-03     334.539E-03    -163.675E-03     144.940E-03
             400     10.6977E-03     84.3770E-03    -32.7016E+06     68.3723E+06     65.0839E+06     1.23086E+06    -166.100E-03     330.022E-03    -163.923E-03     154.113E-03    -170.526E-03     334.387E-03    -163.649E-03     140.831E-03
             401     11.4624E-03     84.5570E-03    -25.6888E+06     83.2470E+06     71.8266E+06     1.04363E+06    -165.569E-03     329.482E-03    -163.913E-03     145.757E-03    -169.854E-03     333.763E-03    -163.637E-03     132.580E-03
             402     12.2263E-03     84.7241E-03    -20.1712E+06     89.5416E+06     80.6088E+06     1.04143E+06    -164.732E-03     328.662E-03    -163.930E-03     134.476E-03    -168.725E-03     332.667E-03    -163.628E-03     121.600E-03
             403     12.9908E-03     84.8753E-03    -13.7595E+06     92.3627E+06     90.6269E+06     2.31546E+06    -163.873E-03     327.824E-03    -163.951E-03     118.387E-03    -167.345E-03     331.312E-03    -163.611E-03     106.196E-03
             404     13.7540E-03     85.0000E-03    -9.12417E+06     96.2297E+06     94.7940E+06     2.69637E+06    -162.921E-03     326.854E-03    -163.933E-03     103.101E-03    -165.996E-03     329.963E-03    -163.585E-03     91.3199E-03
             405     14.5234E-03     85.1112E-03    -5.11425E+06     95.2582E+06     91.2653E+06     228.718E+03    -162.564E-03     326.447E-03    -163.884E-03     69.2964E-03    -164.640E-03     328.579E-03    -163.558E-03     59.6577E-03
             406     763.965E-06     83.9712E-03    -133.873E+06    -295.474E+06    -130.443E+06     223.455E+03    -164.154E-03     328.039E-03    -163.886E-03     19.4243E-03    -164.241E-03     326.981E-03    -163.915E-03     18.3864E-03
             407     1.52761E-03     84.0048E-03    -129.107E+06    -286.851E+06    -117.057E+06     339.301E+03    -164.216E-03     328.231E-03    -164.015E-03     35.7660E-03    -164.386E-03     327.264E-03    -163.997E-03     33.8258E-03
             408     2.29163E-03     84.0590E-03    -122.444E+06    -269.370E+06    -99.5738E+06     456.986E+03    -164.446E-03     328.485E-03    -164.039E-03     52.5112E-03    -164.761E-03     327.698E-03    -163.969E-03     49.6000E-03
             409     3.05583E-03     84.1338E-03    -114.136E+06    -253.236E+06    -79.7420E+06     302.276E+03    -164.834E-03     328.905E-03    -164.071E-03     68.7500E-03    -165.345E-03     328.343E-03    -163.937E-03     64.8024E-03
             410     3.81973E-03     84.2276E-03    -105.484E+06    -229.205E+06    -61.6329E+06    -142.515E+03    -165.316E-03     329.408E-03    -164.092E-03     84.2511E-03    -166.092E-03     329.175E-03    -163.915E-03     79.1940E-03
             411     4.58361E-03     84.3400E-03    -96.9720E+06    -197.220E+06    -45.3901E+06    -200.697E+03    -165.775E-03     329.873E-03    -164.098E-03     98.9838E-03    -166.891E-03     330.076E-03    -163.899E-03     92.7692E-03
             412     5.34765E-03     84.4697E-03    -88.4177E+06    -175.060E+06    -30.2588E+06    -61.7232E+03    -166.170E-03     330.279E-03    -164.109E-03     112.601E-03    -167.676E-03     330.937E-03    -163.878E-03     105.190E-03
             413     6.11195E-03     84.6141E-03    -80.2396E+06    -148.300E+06    -15.7214E+06     259.538E+03    -166.464E-03     330.565E-03    -164.102E-03     124.930E-03    -168.428E-03     331.764E-03    -163.849E-03     116.312E-03
             414     6.87600E-03     84.7730E-03    -72.3326E+06    -113.512E+06    -968.653E+03     591.457E+03    -166.719E-03     330.797E-03    -164.078E-03     136.091E-03    -169.205E-03     332.626E-03    -163.814E-03     126.288E-03
             415     7.64042E-03     84.9439E-03    -64.8413E+06    -82.2044E+06     12.7532E+06     1.05450E+06    -166.944E-03     331.000E-03    -164.056E-03     145.771E-03    -169.977E-03     333.474E-03    -163.779E-03     134.851E-03
             416     8.40454E-03     85.1253E-03    -57.9432E+06    -52.1739E+06     25.4284E+06     1.07826E+06    -166.976E-03     331.010E-03    -164.033E-03     153.104E-03    -170.538E-03     334.107E-03    -163.747E-03     141.205E-03
             417     9.16954E-03     85.3126E-03    -50.1419E+06    -16.1689E+06     38.5886E+06     645.049E+03    -166.870E-03     330.875E-03    -164.005E-03     157.398E-03    -170.884E-03     334.542E-03    -163.716E-03     144.735E-03
             418     9.93294E-03     85.5039E-03    -42.3309E+06     34.2869E+06     53.7166E+06     112.502E+03    -166.646E-03     330.619E-03    -163.973E-03     157.949E-03    -170.985E-03     334.774E-03    -163.693E-03     144.806E-03
             419     10.6979E-03     85.6921E-03    -35.6570E+06     68.9452E+06     64.0153E+06     -650.11E+03    -166.168E-03     330.118E-03    -163.949E-03     154.066E-03    -170.607E-03     334.489E-03    -163.677E-03     140.756E-03
             420     11.4617E-03     85.8730E-03    -28.3462E+06     81.1652E+06     69.9301E+06     320.589E+03    -165.388E-03     329.322E-03    -163.934E-03     145.724E-03    -169.676E-03     333.595E-03    -163.661E-03     132.556E-03
             421     12.2262E-03     86.0394E-03    -21.6857E+06     88.9811E+06     79.9764E+06     1.71760E+06    -164.473E-03     328.412E-03    -163.939E-03     134.386E-03    -168.466E-03     332.412E-03    -163.637E-03     121.548E-03
             422     12.9910E-03     86.1898E-03    -16.6454E+06     90.0935E+06     88.0075E+06     1.88890E+06    -163.429E-03     327.363E-03    -163.934E-03     118.076E-03    -166.898E-03     330.837E-03    -163.600E-03     105.921E-03
             423     13.7572E-03     86.3159E-03    -9.55519E+06     96.6411E+06     94.1644E+06     2.03894E+06    -162.917E-03     326.825E-03    -163.908E-03     102.900E-03    -165.998E-03     329.942E-03    -163.563E-03     91.0817E-03
             424     14.5169E-03     86.4250E-03    -2.75065E+06     98.2441E+06     93.2193E+06     1.72850E+06    -162.775E-03     326.646E-03    -163.870E-03     69.3711E-03    -164.857E-03     328.796E-03    -163.543E-03     59.7078E-03
             425     763.798E-06     85.2861E-03    -134.967E+06    -295.941E+06    -131.434E+06     107.793E+03    -164.078E-03     328.019E-03    -163.941E-03     19.4139E-03    -164.169E-03     326.962E-03    -163.974E-03     18.3643E-03
             426     1.52787E-03     85.3196E-03    -129.818E+06    -286.862E+06    -118.012E+06    -49.6556E+03    -164.247E-03     328.260E-03    -164.013E-03     35.7240E-03    -164.419E-03     327.295E-03    -163.999E-03     33.7818E-03
             427     2.29169E-03     85.3739E-03    -122.498E+06    -269.578E+06    -100.092E+06    -196.645E+03    -164.532E-03     328.590E-03    -164.058E-03     52.3733E-03    -164.846E-03     327.803E-03    -163.990E-03     49.4517E-03
             428     3.05549E-03     85.4484E-03    -114.341E+06    -253.490E+06    -81.0406E+06     70.5573E+03    -164.876E-03     328.976E-03    -164.100E-03     68.5944E-03    -165.385E-03     328.414E-03    -163.972E-03     64.6406E-03
             429     3.81954E-03     85.5427E-03    -105.982E+06    -228.970E+06    -62.5775E+06     175.022E+03    -165.306E-03     329.426E-03    -164.120E-03     84.2267E-03    -166.083E-03     329.196E-03    -163.947E-03     79.1731E-03
             430     4.58355E-03     85.6551E-03    -97.4647E+06    -196.648E+06    -45.5047E+06    -52.1192E+03    -165.723E-03     329.843E-03    -164.120E-03     98.9768E-03    -166.843E-03     330.051E-03    -163.921E-03     92.7644E-03
             431     5.34775E-03     85.7844E-03    -89.1739E+06    -175.406E+06    -30.7932E+06    -47.1742E+03    -166.103E-03     330.222E-03    -164.119E-03     112.551E-03    -167.610E-03     330.879E-03    -163.889E-03     105.144E-03
             432     6.11169E-03     85.9293E-03    -81.0613E+06    -149.038E+06    -16.6697E+06     159.951E+03    -166.455E-03     330.559E-03    -164.104E-03     124.978E-03    -168.420E-03     331.756E-03    -163.854E-03     116.361E-03
             433     6.87609E-03     86.0877E-03    -73.1193E+06    -114.191E+06    -2.10420E+06     572.809E+03    -166.778E-03     330.859E-03    -164.081E-03     136.204E-03    -169.267E-03     332.689E-03    -163.820E-03     126.397E-03
             434     7.64027E-03     86.2591E-03    -65.2378E+06    -83.3946E+06     11.8001E+06     1.03372E+06    -166.981E-03     331.045E-03    -164.064E-03     145.669E-03    -170.012E-03     333.514E-03    -163.790E-03     134.747E-03
             435     8.40483E-03     86.4400E-03    -56.9586E+06    -51.8960E+06     25.5174E+06     1.52420E+06    -167.045E-03     331.093E-03    -164.048E-03     152.851E-03    -170.600E-03     334.187E-03    -163.762E-03     140.951E-03
             436     9.16839E-03     86.6280E-03    -49.6964E+06    -14.2821E+06     38.8877E+06     440.695E+03    -167.039E-03     331.068E-03    -164.028E-03     157.365E-03    -171.058E-03     334.746E-03    -163.741E-03     144.677E-03
             437     9.93343E-03     86.8191E-03    -42.4862E+06     34.7183E+06     52.9770E+06    -285.542E+03    -166.737E-03     330.739E-03    -164.002E-03     158.028E-03    -171.079E-03     334.900E-03    -163.726E-03     144.869E-03
             438     10.6969E-03     87.0080E-03    -35.1015E+06     69.1244E+06     63.5713E+06     316.036E+03    -166.068E-03     330.045E-03    -163.976E-03     154.142E-03    -170.506E-03     334.418E-03    -163.708E-03     140.850E-03
             439     11.4616E-03     87.1880E-03    -29.5858E+06     78.9654E+06     68.2520E+06     334.129E+03    -165.167E-03     329.115E-03    -163.948E-03     145.736E-03    -169.453E-03     333.379E-03    -163.679E-03     132.590E-03
             440     12.2265E-03     87.3543E-03    -23.7426E+06     86.4409E+06     76.7982E+06     1.51821E+06    -164.217E-03     328.148E-03    -163.931E-03     134.387E-03    -168.204E-03     332.134E-03    -163.638E-03     121.586E-03
             441     12.9907E-03     87.5054E-03    -16.6215E+06     91.3610E+06     87.8207E+06     1.78313E+06    -163.457E-03     327.382E-03    -163.925E-03     117.902E-03    -166.925E-03     330.861E-03    -163.594E-03     105.744E-03
             442     13.7547E-03     87.6280E-03    -10.7691E+06     95.3946E+06     92.9974E+06     1.10976E+06    -162.981E-03     326.883E-03    -163.902E-03     103.116E-03    -166.060E-03     329.993E-03    -163.560E-03     91.3036E-03
             443     14.5233E-03     87.7456E-03    -6.14037E+06     98.6985E+06     89.7572E+06     1.48328E+06    -162.703E-03     326.556E-03    -163.854E-03     69.1074E-03    -164.788E-03     328.710E-03    -163.539E-03     59.4705E-03
             444     763.876E-06     86.6008E-03    -134.750E+06    -295.777E+06    -131.184E+06    -22.1606E+03    -164.137E-03     328.092E-03    -163.955E-03     19.3156E-03    -164.227E-03     327.035E-03    -163.986E-03     18.2627E-03
             445     1.52761E-03     86.6346E-03    -130.058E+06    -286.661E+06    -117.801E+06    -282.642E+03    -164.267E-03     328.314E-03    -164.047E-03     35.7933E-03    -164.441E-03     327.350E-03    -164.032E-03     33.8491E-03
             446     2.29144E-03     86.6890E-03    -123.047E+06    -269.361E+06    -100.135E+06    -249.093E+03    -164.591E-03     328.684E-03    -164.092E-03     52.4487E-03    -164.909E-03     327.898E-03    -164.024E-03     49.5272E-03
             447     3.05539E-03     86.7635E-03    -115.063E+06    -253.805E+06    -81.5456E+06    -173.383E+03    -164.949E-03     329.090E-03    -164.141E-03     68.6951E-03    -165.462E-03     328.530E-03    -164.014E-03     64.7317E-03
             448     3.81934E-03     86.8575E-03    -106.624E+06    -229.325E+06    -63.4224E+06      188.93E+03    -165.293E-03     329.451E-03    -164.158E-03     84.2599E-03    -166.072E-03     329.221E-03    -163.988E-03     79.2068E-03
             449     4.58348E-03     86.9701E-03    -98.1948E+06    -196.472E+06    -46.3732E+06     385.891E+03    -165.634E-03     329.776E-03    -164.142E-03     98.9053E-03    -166.754E-03     329.985E-03    -163.947E-03     92.7067E-03
             450     5.34746E-03     87.0994E-03    -90.0122E+06    -175.179E+06    -31.4880E+06     166.944E+03    -166.047E-03     330.176E-03    -164.129E-03     112.508E-03    -167.557E-03     330.836E-03    -163.902E-03     105.109E-03
             451     6.11200E-03     87.2440E-03    -82.0226E+06    -149.318E+06    -17.3881E+06     220.057E+03    -166.490E-03     330.603E-03    -164.112E-03     124.923E-03    -168.459E-03     331.800E-03    -163.864E-03     116.304E-03
             452     6.87604E-03     87.4030E-03    -74.1750E+06    -115.015E+06    -3.21003E+06     238.602E+03    -166.868E-03     330.963E-03    -164.095E-03     136.044E-03    -169.359E-03     332.792E-03    -163.837E-03     126.224E-03
             453     7.64014E-03     87.5742E-03    -66.3628E+06    -84.7782E+06     10.2429E+06     584.246E+03    -167.056E-03     331.142E-03    -164.086E-03     145.477E-03    -170.087E-03     333.607E-03    -163.815E-03     134.541E-03
             454     8.40401E-03     87.7551E-03    -59.0654E+06    -52.2291E+06     23.5786E+06     471.641E+03    -167.130E-03     331.203E-03    -164.073E-03     152.920E-03    -170.696E-03     334.306E-03    -163.794E-03     140.993E-03
             455     9.16893E-03     87.9434E-03    -51.3088E+06    -12.0990E+06     38.2852E+06     149.642E+03    -167.095E-03     331.155E-03    -164.059E-03     157.530E-03    -171.125E-03     334.849E-03    -163.776E-03     144.837E-03
             456     9.93213E-03     88.1348E-03    -44.0368E+06     35.0238E+06     52.8347E+06    -244.549E+03    -166.596E-03     330.628E-03    -164.032E-03     158.111E-03    -170.946E-03     334.793E-03    -163.755E-03     144.964E-03
             457     10.6973E-03     88.3231E-03    -37.1403E+06     67.4666E+06     62.3336E+06     30.4457E+03    -165.786E-03     329.773E-03    -163.987E-03     154.355E-03    -170.228E-03     334.142E-03    -163.719E-03     141.088E-03
             458     11.4617E-03     88.5033E-03    -29.7066E+06     76.4442E+06     67.2083E+06     1.55307E+06    -165.016E-03     328.957E-03    -163.941E-03     146.015E-03    -169.294E-03     333.207E-03    -163.673E-03     132.914E-03
             459     12.2259E-03     88.6690E-03    -23.3098E+06     86.1923E+06     77.1757E+06     1.55030E+06    -164.315E-03     328.239E-03    -163.924E-03     134.463E-03    -168.302E-03     332.225E-03    -163.629E-03     121.656E-03
             460     12.9918E-03     88.8192E-03    -17.4875E+06     92.1524E+06     87.2292E+06     1.33638E+06    -163.704E-03     327.628E-03    -163.924E-03     117.855E-03    -167.182E-03     331.118E-03    -163.596E-03     105.658E-03
             461     13.7562E-03     88.9463E-03    -11.7513E+06     94.7702E+06     92.0409E+06     1.33675E+06    -163.048E-03     326.959E-03    -163.912E-03     102.894E-03    -166.131E-03     330.071E-03    -163.572E-03     91.0614E-03
             462     14.5175E-03     89.0554E-03    -5.50135E+06     100.172E+06     91.5422E+06     267.127E+03    -162.795E-03     326.670E-03    -163.876E-03     69.0658E-03    -164.882E-03     328.828E-03    -163.555E-03     59.4041E-03
             463     763.731E-06     87.9157E-03    -134.111E+06    -295.717E+06    -131.345E+06    -64.6056E+03    -164.240E-03     328.119E-03    -163.879E-03     19.3878E-03    -164.326E-03     327.061E-03    -163.913E-03     18.3405E-03
             464     1.52769E-03     87.9496E-03    -129.835E+06    -286.452E+06    -118.055E+06     91.5506E+03    -164.326E-03     328.391E-03    -164.065E-03     35.9433E-03    -164.499E-03     327.428E-03    -164.052E-03     34.0018E-03
             465     2.29160E-03     88.0041E-03    -123.413E+06    -269.182E+06    -100.382E+06     30.3106E+03    -164.605E-03     328.723E-03    -164.118E-03     52.4789E-03    -164.924E-03     327.940E-03    -164.051E-03     49.5602E-03
             466     3.05539E-03     88.0787E-03    -115.737E+06    -253.850E+06    -81.6020E+06     135.564E+03    -164.973E-03     329.139E-03    -164.167E-03     68.6771E-03    -165.489E-03     328.580E-03    -164.039E-03     64.7170E-03
             467     3.81921E-03     88.1727E-03    -107.261E+06    -229.751E+06    -63.7822E+06     147.112E+03    -165.308E-03     329.490E-03    -164.182E-03     84.2615E-03    -166.090E-03     329.261E-03    -164.012E-03     79.2040E-03
             468     4.58322E-03     88.2849E-03    -98.4671E+06    -196.923E+06    -47.2193E+06     335.446E+03    -165.626E-03     329.787E-03    -164.161E-03     98.9153E-03    -166.746E-03     329.995E-03    -163.968E-03     92.7137E-03
             469     5.34773E-03     88.4142E-03    -89.9088E+06    -175.083E+06    -31.9467E+06     531.171E+03    -166.108E-03     330.256E-03    -164.148E-03     112.453E-03    -167.617E-03     330.917E-03    -163.924E-03     105.055E-03
             470     6.11149E-03     88.5592E-03    -81.7844E+06    -149.325E+06    -17.7091E+06     202.143E+03    -166.605E-03     330.746E-03    -164.141E-03     124.865E-03    -168.573E-03     331.945E-03    -163.894E-03     116.235E-03
             471     6.87558E-03     88.7182E-03    -73.6868E+06    -115.415E+06    -3.47953E+06     305.361E+03    -166.890E-03     331.019E-03    -164.129E-03     136.010E-03    -169.377E-03     332.845E-03    -163.872E-03     126.189E-03
             472     7.63974E-03     88.8894E-03    -65.8236E+06    -85.2778E+06     10.2079E+06     641.193E+03    -167.061E-03     331.179E-03    -164.118E-03     145.526E-03    -170.090E-03     333.642E-03    -163.848E-03     134.588E-03
             473     8.40431E-03     89.0702E-03    -57.9043E+06    -51.8382E+06     24.1410E+06     514.143E+03    -167.189E-03     331.294E-03    -164.105E-03     153.114E-03    -170.753E-03     334.398E-03    -163.825E-03     141.182E-03
             474     9.16764E-03     89.2591E-03    -50.8424E+06    -12.2795E+06     38.4283E+06     681.112E+03    -166.976E-03     331.060E-03    -164.084E-03     157.755E-03    -171.003E-03     334.751E-03    -163.800E-03     145.086E-03
             475     9.93288E-03     89.4501E-03    -44.2994E+06     35.1851E+06     53.0215E+06     1.33485E+06    -166.341E-03     330.381E-03    -164.040E-03     158.276E-03    -170.690E-03     334.544E-03    -163.761E-03     145.180E-03
             476     10.6970E-03     89.6379E-03    -38.2078E+06     67.4112E+06     62.0155E+06     1.03851E+06    -165.642E-03     329.619E-03    -163.978E-03     154.403E-03    -170.088E-03     333.990E-03    -163.710E-03     141.161E-03
             477     11.4621E-03     89.8180E-03    -32.0583E+06     75.1853E+06     65.9216E+06     119.290E+03    -165.087E-03     329.016E-03    -163.929E-03     145.817E-03    -169.371E-03     333.263E-03    -163.662E-03     132.693E-03
             478     12.2274E-03     89.9841E-03    -24.5806E+06     85.7483E+06     76.6265E+06     706.350E+03    -164.613E-03     328.540E-03    -163.927E-03     134.175E-03    -168.608E-03     332.530E-03    -163.632E-03     121.318E-03
             479     12.9898E-03     90.1358E-03    -17.7367E+06     92.0953E+06     87.4549E+06     859.752E+03    -163.877E-03     327.822E-03    -163.945E-03     117.576E-03    -167.364E-03     331.320E-03    -163.615E-03     105.322E-03
             480     13.7548E-03     90.2587E-03    -10.7463E+06     96.2159E+06     93.5707E+06    -141.309E+03    -163.167E-03     327.111E-03    -163.944E-03     102.569E-03    -166.251E-03     330.226E-03    -163.600E-03     90.6940E-03
             481     14.5220E-03     90.3749E-03    -4.79642E+06     101.019E+06     92.9213E+06    -313.505E+03    -162.767E-03     326.677E-03    -163.910E-03     69.3880E-03    -164.859E-03     328.841E-03    -163.585E-03     59.7031E-03
             482     764.033E-06     89.2306E-03    -134.082E+06    -295.766E+06    -131.050E+06    -17.7154E+03    -164.332E-03     328.240E-03    -163.908E-03     19.3313E-03    -164.418E-03     327.181E-03    -163.940E-03     18.2860E-03
             483     1.52759E-03     89.2648E-03    -129.694E+06    -286.830E+06    -118.321E+06     212.613E+03    -164.362E-03     328.483E-03    -164.120E-03     35.7440E-03    -164.533E-03     327.518E-03    -164.108E-03     33.8026E-03
             484     2.29128E-03     89.3192E-03    -123.205E+06    -269.634E+06    -100.653E+06     390.356E+03    -164.566E-03     328.722E-03    -164.156E-03     52.4370E-03    -164.883E-03     327.937E-03    -164.090E-03     49.5235E-03
             485     3.05520E-03     89.3939E-03    -115.381E+06    -253.855E+06    -81.4980E+06     468.165E+03    -164.908E-03     329.090E-03    -164.182E-03     68.7513E-03    -165.423E-03     328.530E-03    -164.054E-03     64.7968E-03
             486     3.81926E-03     89.4877E-03    -106.934E+06    -229.343E+06    -63.6154E+06     348.769E+03    -165.322E-03     329.509E-03    -164.187E-03     84.2871E-03    -166.103E-03     329.281E-03    -164.018E-03     79.2296E-03
             487     4.58342E-03     89.5999E-03    -98.2957E+06    -197.176E+06    -47.1990E+06     192.470E+03    -165.778E-03     329.957E-03    -164.178E-03     98.8568E-03    -166.898E-03     330.165E-03    -163.986E-03     92.6418E-03
             488     5.34713E-03     89.7292E-03    -89.8464E+06    -175.656E+06    -32.3806E+06     301.874E+03    -166.235E-03     330.417E-03    -164.182E-03     112.442E-03    -167.744E-03     331.077E-03    -163.959E-03     105.030E-03
             489     6.11142E-03     89.8745E-03    -81.6818E+06    -149.338E+06    -17.8469E+06     271.356E+03    -166.587E-03     330.764E-03    -164.178E-03     124.987E-03    -168.554E-03     331.964E-03    -163.932E-03     116.361E-03
             490     6.87547E-03     90.0334E-03    -73.8420E+06    -115.508E+06    -3.24324E+06     198.026E+03    -166.854E-03     331.014E-03    -164.160E-03     136.153E-03    -169.343E-03     332.840E-03    -163.902E-03     126.334E-03
             491     7.63976E-03     90.2044E-03    -65.9690E+06    -85.6825E+06     10.4534E+06     185.602E+03    -167.083E-03     331.228E-03    -164.144E-03     145.723E-03    -170.116E-03     333.692E-03    -163.872E-03     134.773E-03
             492     8.40347E-03     90.3859E-03    -58.6351E+06    -52.0766E+06     24.0433E+06     493.087E+03    -167.087E-03     331.210E-03    -164.123E-03     153.341E-03    -170.653E-03     334.313E-03    -163.842E-03     141.424E-03
             493     9.16855E-03     90.5743E-03    -51.1353E+06    -13.4070E+06     38.1391E+06     1.43453E+06    -166.741E-03     330.826E-03    -164.085E-03     157.858E-03    -170.764E-03     334.510E-03    -163.801E-03     145.225E-03
             494     9.93251E-03     90.7647E-03    -43.2938E+06     33.8837E+06     52.6830E+06     1.88495E+06    -166.278E-03     330.305E-03    -164.026E-03     158.311E-03    -170.621E-03     334.460E-03    -163.749E-03     145.226E-03
             495     10.6977E-03     90.9531E-03    -35.7683E+06     67.5602E+06     63.4324E+06     2.65167E+06    -165.910E-03     329.887E-03    -163.977E-03     154.138E-03    -170.350E-03     334.255E-03    -163.705E-03     140.886E-03
             496     11.4619E-03     91.1327E-03    -30.0686E+06     78.7563E+06     67.9246E+06     2.68984E+06    -165.407E-03     329.356E-03    -163.949E-03     145.425E-03    -169.695E-03     333.619E-03    -163.680E-03     132.289E-03
             497     12.2250E-03     91.3001E-03    -25.7314E+06     87.1288E+06     75.5164E+06    -581.763E+03    -164.614E-03     328.563E-03    -163.949E-03     134.051E-03    -168.614E-03     332.563E-03    -163.661E-03     121.170E-03
             498     12.9915E-03     91.4503E-03    -17.6779E+06     90.5706E+06     87.2056E+06    -1.72290E+06    -163.881E-03     327.854E-03    -163.973E-03     117.680E-03    -167.362E-03     331.341E-03    -163.642E-03     105.408E-03
             499     13.7548E-03     91.5764E-03    -10.3632E+06     96.2726E+06     94.3668E+06    -865.633E+03    -163.239E-03     327.212E-03    -163.974E-03     102.870E-03    -166.320E-03     330.325E-03    -163.626E-03     90.9988E-03
             500     14.5165E-03     91.6871E-03    -4.87280E+06     100.608E+06     92.7156E+06    -638.878E+03    -162.366E-03     326.292E-03    -163.926E-03     69.5394E-03    -164.457E-03     328.454E-03    -163.601E-03     59.8659E-03
             501     763.438E-06     90.5463E-03    -134.466E+06    -295.987E+06    -130.404E+06     352.052E+03    -164.353E-03     328.433E-03    -164.080E-03     19.5143E-03    -164.443E-03     327.373E-03    -164.108E-03     18.4668E-03
             502     1.52729E-03     90.5799E-03    -129.866E+06    -287.188E+06    -117.539E+06     157.289E+03    -164.301E-03     328.490E-03    -164.189E-03     35.8138E-03    -164.473E-03     327.523E-03    -164.172E-03     33.8724E-03
             503     2.29138E-03     90.6343E-03    -123.111E+06    -270.171E+06    -100.889E+06     329.361E+03    -164.520E-03     328.696E-03    -164.176E-03     52.5621E-03    -164.835E-03     327.908E-03    -164.110E-03     49.6500E-03
             504     3.05541E-03     90.7089E-03    -115.077E+06    -254.090E+06    -81.8487E+06     535.862E+03    -164.933E-03     329.122E-03    -164.190E-03     68.7156E-03    -165.445E-03     328.562E-03    -164.064E-03     64.7607E-03
             505     3.81933E-03     90.8028E-03    -106.561E+06    -229.202E+06    -63.5033E+06     592.731E+03    -165.399E-03     329.604E-03    -164.205E-03     84.1288E-03    -166.178E-03     329.375E-03    -164.036E-03     79.0720E-03
             506     4.58304E-03     90.9153E-03    -98.1555E+06    -197.212E+06    -46.8900E+06     443.958E+03    -165.835E-03     330.042E-03    -164.207E-03     98.8277E-03    -166.955E-03     330.249E-03    -164.013E-03     92.6148E-03
             507     5.34716E-03     91.0446E-03    -89.9412E+06    -175.810E+06    -32.0824E+06     269.750E+03    -166.253E-03     330.465E-03    -164.213E-03     112.583E-03    -167.764E-03     331.126E-03    -163.988E-03     105.167E-03
             508     6.11105E-03     91.1895E-03    -81.9097E+06    -149.366E+06    -17.5506E+06     383.922E+03    -166.577E-03     330.781E-03    -164.204E-03     125.068E-03    -168.546E-03     331.980E-03    -163.957E-03     116.446E-03
             509     6.87542E-03     91.3485E-03    -73.9490E+06    -115.207E+06    -2.83443E+06     226.391E+03    -166.825E-03     331.006E-03    -164.181E-03     136.200E-03    -169.316E-03     332.833E-03    -163.921E-03     126.382E-03
             510     7.63938E-03     91.5199E-03    -66.3553E+06    -86.1351E+06     10.2935E+06     76.1824E+03    -167.013E-03     331.169E-03    -164.156E-03     145.889E-03    -170.048E-03     333.633E-03    -163.884E-03     134.943E-03
             511     8.40409E-03     91.7010E-03    -58.4926E+06    -52.7335E+06     23.9216E+06     622.180E+03    -166.954E-03     331.077E-03    -164.124E-03     153.322E-03    -170.518E-03     334.178E-03    -163.843E-03     141.415E-03
             512     9.16804E-03     91.8889E-03    -50.5659E+06    -15.0645E+06     37.8054E+06     775.144E+03    -166.710E-03     330.790E-03    -164.079E-03     157.603E-03    -170.729E-03     334.466E-03    -163.795E-03     144.953E-03
             513     9.93325E-03     92.0798E-03    -43.3192E+06     31.8577E+06     52.3501E+06     2.01779E+06    -166.461E-03     330.491E-03    -164.030E-03     158.066E-03    -170.799E-03     334.637E-03    -163.751E-03     144.964E-03
             514     10.6971E-03     92.2683E-03    -36.9101E+06     66.6092E+06     62.6969E+06     3.13369E+06    -166.096E-03     330.089E-03    -163.992E-03     154.131E-03    -170.540E-03     334.455E-03    -163.722E-03     140.871E-03
             515     11.4609E-03     92.4491E-03    -29.1849E+06     79.9492E+06     68.5034E+06     1.92277E+06    -165.409E-03     329.379E-03    -163.969E-03     145.786E-03    -169.701E-03     333.652E-03    -163.701E-03     132.633E-03
             516     12.2266E-03     92.6147E-03    -20.7089E+06     91.8078E+06     80.3458E+06     1.66651E+06    -164.579E-03     328.554E-03    -163.976E-03     134.539E-03    -168.574E-03     332.569E-03    -163.677E-03     121.693E-03
             517     12.9890E-03     92.7663E-03    -17.1002E+06     92.2800E+06     88.3773E+06    -942.100E+03    -163.789E-03     327.773E-03    -163.984E-03     118.261E-03    -167.271E-03     331.265E-03    -163.651E-03     106.031E-03
             518     13.7545E-03     92.8907E-03    -12.0673E+06     95.4935E+06     93.0103E+06    -2.30695E+06    -162.892E-03     326.857E-03    -163.965E-03     103.374E-03    -165.979E-03     329.970E-03    -163.621E-03     91.5243E-03
             519     14.5216E-03     93.0046E-03    -5.45265E+06     100.009E+06     92.6513E+06    -1.00457E+06    -162.268E-03     326.177E-03    -163.909E-03     69.9168E-03    -164.365E-03     328.340E-03    -163.583E-03     60.2546E-03
             520     763.815E-06     91.8617E-03    -135.136E+06    -297.081E+06    -131.684E+06     227.811E+03    -164.299E-03     328.385E-03    -164.086E-03     19.6391E-03    -164.389E-03     327.322E-03    -164.117E-03     18.5831E-03
             521     1.52763E-03     91.8950E-03    -130.186E+06    -287.374E+06    -117.522E+06     678.137E+03    -164.343E-03     328.524E-03    -164.181E-03     35.7115E-03    -164.517E-03     327.556E-03    -164.163E-03     33.7771E-03
             522     2.29138E-03     91.9493E-03    -123.261E+06    -270.107E+06    -100.018E+06     330.083E+03    -164.602E-03     328.799E-03    -164.197E-03     52.4025E-03    -164.920E-03     328.010E-03    -164.127E-03     49.4881E-03
             523     3.05514E-03     92.0240E-03    -115.067E+06    -254.773E+06    -81.8523E+06     204.128E+03    -165.013E-03     329.239E-03    -164.226E-03     68.6518E-03    -165.524E-03     328.675E-03    -164.099E-03     64.6914E-03
             524     3.81886E-03     92.1182E-03    -106.416E+06    -229.678E+06    -63.6213E+06     476.897E+03    -165.398E-03     329.640E-03    -164.242E-03     84.1730E-03    -166.176E-03     329.409E-03    -164.073E-03     79.1132E-03
             525     4.58305E-03     92.2304E-03    -97.8810E+06    -197.517E+06    -46.5886E+06     613.143E+03    -165.767E-03     329.999E-03    -164.233E-03     98.9385E-03    -166.885E-03     330.204E-03    -164.037E-03     92.7316E-03
             526     5.34707E-03     92.3599E-03    -89.5572E+06    -175.803E+06    -31.3914E+06     834.240E+03    -166.227E-03     330.455E-03    -164.228E-03     112.631E-03    -167.737E-03     331.114E-03    -164.000E-03     105.224E-03
             527     6.11124E-03     92.5048E-03    -81.6548E+06    -149.159E+06    -17.0651E+06     770.030E+03    -166.596E-03     330.811E-03    -164.216E-03     125.101E-03    -168.565E-03     332.011E-03    -163.967E-03     116.479E-03
             528     6.87509E-03     92.6638E-03    -74.2167E+06    -115.179E+06    -2.90593E+06     742.930E+03    -166.811E-03     331.001E-03    -164.189E-03     136.338E-03    -169.305E-03     332.831E-03    -163.929E-03     126.526E-03
             529     7.63970E-03     92.8348E-03    -66.7535E+06    -84.9111E+06     10.7176E+06     495.370E+03    -166.951E-03     331.112E-03    -164.161E-03     145.899E-03    -169.990E-03     333.582E-03    -163.888E-03     134.961E-03
             530     8.40367E-03     93.0162E-03    -59.2468E+06    -53.5435E+06     23.5743E+06    -190.923E+03    -166.981E-03     331.109E-03    -164.127E-03     153.109E-03    -170.549E-03     334.208E-03    -163.846E-03     141.179E-03
             531     9.16853E-03     93.2039E-03    -52.1055E+06    -16.5873E+06     37.0402E+06     501.274E+03    -166.900E-03     330.994E-03    -164.094E-03     157.383E-03    -170.924E-03     334.667E-03    -163.809E-03     144.705E-03
             532     9.93216E-03     93.3950E-03    -44.5062E+06     29.0778E+06     51.1934E+06     1.31481E+06    -166.561E-03     330.616E-03    -164.055E-03     158.078E-03    -170.899E-03     334.750E-03    -163.777E-03     144.962E-03
             533     10.6968E-03     93.5841E-03    -34.9532E+06     65.6316E+06     63.1922E+06     1.19268E+06    -165.895E-03     329.907E-03    -164.012E-03     154.358E-03    -170.323E-03     334.261E-03    -163.741E-03     141.101E-03
             534     11.4620E-03     93.7639E-03    -27.2311E+06     81.8740E+06     70.5155E+06     1.15906E+06    -165.170E-03     329.145E-03    -163.975E-03     145.974E-03    -169.450E-03     333.415E-03    -163.701E-03     132.855E-03
             535     12.2251E-03     93.9307E-03    -21.4659E+06     90.6943E+06     79.9475E+06     757.392E+03    -164.438E-03     328.402E-03    -163.964E-03     134.784E-03    -168.436E-03     332.414E-03    -163.664E-03     121.936E-03
             536     12.9916E-03     94.0814E-03    -13.1320E+06     96.8125E+06     92.7017E+06     1.58644E+06    -163.509E-03     327.476E-03    -163.968E-03     118.653E-03    -166.988E-03     330.983E-03    -163.625E-03     106.474E-03
             537     13.7553E-03     94.2067E-03    -8.39959E+06     99.2922E+06     97.1131E+06     2.83322E+03    -162.720E-03     326.656E-03    -163.936E-03     103.500E-03    -165.803E-03     329.780E-03    -163.582E-03     91.6913E-03
             538     14.5186E-03     94.3162E-03    -4.45325E+06     96.9338E+06     92.7171E+06    -1.70268E+06    -162.358E-03     326.231E-03    -163.873E-03     69.9619E-03    -164.447E-03     328.379E-03    -163.543E-03     60.2843E-03
             539     763.780E-06     93.1768E-03    -134.967E+06    -297.890E+06    -131.311E+06    -88.2609E+03    -164.251E-03     328.363E-03    -164.111E-03     19.4011E-03    -164.339E-03     327.295E-03    -164.140E-03     18.3431E-03
             540     1.52734E-03     93.2105E-03    -129.560E+06    -288.421E+06    -117.659E+06     457.413E+03    -164.435E-03     328.624E-03    -164.189E-03     35.6307E-03    -164.604E-03     327.651E-03    -164.171E-03     33.6909E-03
             541     2.29112E-03     93.2645E-03    -122.588E+06    -269.917E+06    -99.5019E+06     639.830E+03    -164.680E-03     328.913E-03    -164.233E-03     52.4314E-03    -164.995E-03     328.124E-03    -164.162E-03     49.5189E-03
             542     3.05501E-03     93.3395E-03    -114.722E+06    -254.861E+06    -80.8971E+06     181.335E+03    -164.971E-03     329.233E-03    -164.261E-03     68.8125E-03    -165.482E-03     328.666E-03    -164.130E-03     64.8531E-03
             543     3.81908E-03     93.4334E-03    -106.273E+06    -230.441E+06    -63.4906E+06     345.300E+03    -165.348E-03     329.605E-03    -164.257E-03     84.3256E-03    -166.125E-03     329.370E-03    -164.086E-03     79.2658E-03
             544     4.58298E-03     93.5456E-03    -97.8361E+06    -197.957E+06    -46.4940E+06     912.204E+03    -165.790E-03     330.031E-03    -164.241E-03     99.0132E-03    -166.909E-03     330.234E-03    -164.045E-03     92.8083E-03
             545     5.34703E-03     93.6751E-03    -89.5683E+06    -176.294E+06    -31.4607E+06     963.046E+03    -166.220E-03     330.456E-03    -164.235E-03     112.667E-03    -167.729E-03     331.112E-03    -164.007E-03     105.263E-03
             546     6.11097E-03     93.8201E-03    -81.2683E+06    -149.353E+06    -16.9013E+06     1.13067E+06    -166.559E-03     330.778E-03    -164.220E-03     125.088E-03    -168.527E-03     331.977E-03    -163.970E-03     116.470E-03
             547     6.87552E-03     93.9788E-03    -73.1105E+06    -114.922E+06    -2.00552E+06     1.32801E+06    -166.837E-03     331.031E-03    -164.194E-03     136.250E-03    -169.328E-03     332.860E-03    -163.932E-03     126.441E-03
             548     7.63934E-03     94.1502E-03    -65.1873E+06    -83.9555E+06     11.8316E+06     922.858E+03    -167.013E-03     331.183E-03    -164.170E-03     145.763E-03    -170.047E-03     333.653E-03    -163.895E-03     134.826E-03
             549     8.40395E-03     94.3311E-03    -57.8232E+06    -53.2651E+06     24.9445E+06     657.163E+03    -167.078E-03     331.224E-03    -164.145E-03     153.077E-03    -170.641E-03     334.320E-03    -163.859E-03     141.154E-03
             550     9.16762E-03     94.5194E-03    -50.4173E+06    -18.1872E+06     37.7873E+06     1.07074E+06    -166.973E-03     331.088E-03    -164.116E-03     157.598E-03    -170.987E-03     334.750E-03    -163.827E-03     144.931E-03
             551     9.93233E-03     94.7105E-03    -42.6035E+06     29.9463E+06     52.3528E+06     347.986E+03    -166.482E-03     330.552E-03    -164.071E-03     158.390E-03    -170.816E-03     334.691E-03    -163.791E-03     145.268E-03
             552     10.6970E-03     94.8986E-03    -35.8520E+06     65.5854E+06     63.2037E+06    -686.698E+03    -165.761E-03     329.778E-03    -164.018E-03     154.506E-03    -170.194E-03     334.134E-03    -163.745E-03     141.237E-03
             553     11.4610E-03     95.0793E-03    -28.0619E+06     80.3766E+06     69.4944E+06    -98.6838E+03    -165.007E-03     328.973E-03    -163.966E-03     146.051E-03    -169.286E-03     333.236E-03    -163.695E-03     132.930E-03
             554     12.2271E-03     95.2456E-03    -19.9478E+06     91.8155E+06     81.0913E+06     253.210E+03    -164.164E-03     328.110E-03    -163.945E-03     134.688E-03    -168.152E-03     332.117E-03    -163.644E-03     121.866E-03
             555     12.9900E-03     95.3963E-03    -14.5324E+06     95.2898E+06     91.5443E+06    -44.4517E+03    -163.309E-03     327.243E-03    -163.934E-03     118.155E-03    -166.782E-03     330.738E-03    -163.593E-03     105.971E-03
             556     13.7565E-03     95.5202E-03    -6.79295E+06     100.426E+06     98.1605E+06     1.69644E+06    -162.876E-03     326.783E-03    -163.907E-03     103.142E-03    -165.952E-03     329.906E-03    -163.552E-03     91.3341E-03
             557     14.5218E-03     95.6346E-03    -1.97294E+06     99.0704E+06     94.9016E+06     1.73114E+06    -162.861E-03     326.727E-03    -163.866E-03     69.0981E-03    -164.937E-03     328.872E-03    -163.532E-03     59.4382E-03
             558     763.601E-06     94.4920E-03    -134.615E+06    -297.697E+06    -131.016E+06    -166.273E+03    -164.266E-03     328.348E-03    -164.082E-03     19.6687E-03    -164.353E-03     327.281E-03    -164.110E-03     18.6126E-03
             559     1.52757E-03     94.5259E-03    -129.936E+06    -289.164E+06    -118.420E+06    -154.111E+03    -164.430E-03     328.607E-03    -164.176E-03     35.9133E-03    -164.599E-03     327.631E-03    -164.161E-03     33.9674E-03
             560     2.29121E-03     94.5801E-03    -122.905E+06    -270.806E+06    -100.880E+06     291.691E+03    -164.691E-03     328.912E-03    -164.220E-03     52.5635E-03    -165.006E-03     328.121E-03    -164.154E-03     49.6461E-03
             561     3.05507E-03     94.6546E-03    -114.863E+06    -254.781E+06    -80.8486E+06     613.774E+03    -164.985E-03     329.243E-03    -164.258E-03     68.7782E-03    -165.496E-03     328.677E-03    -164.127E-03     64.8244E-03
             562     3.81900E-03     94.7485E-03    -106.542E+06    -230.762E+06    -62.8391E+06     525.246E+03    -165.372E-03     329.635E-03    -164.263E-03     84.2773E-03    -166.151E-03     329.398E-03    -164.088E-03     79.2180E-03
             563     4.58301E-03     94.8610E-03     -97.636E+06    -198.820E+06    -46.4558E+06     620.542E+03    -165.801E-03     330.048E-03    -164.247E-03     98.9960E-03    -166.917E-03     330.247E-03    -164.050E-03     92.7832E-03
             564     5.34697E-03     94.9903E-03    -88.8655E+06    -176.666E+06    -31.2085E+06     872.852E+03    -166.206E-03     330.446E-03    -164.240E-03     112.632E-03    -167.711E-03     331.099E-03    -164.011E-03     105.229E-03
             565     6.11128E-03     95.1352E-03    -80.6311E+06    -149.851E+06    -16.4988E+06     1.13367E+06    -166.574E-03     330.799E-03    -164.225E-03     125.096E-03    -168.540E-03     331.994E-03    -163.973E-03     116.479E-03
             566     6.87499E-03     95.2942E-03    -72.6611E+06    -115.352E+06    -1.66652E+06     1.24989E+06    -166.864E-03     331.064E-03    -164.200E-03     136.288E-03    -169.352E-03     332.890E-03    -163.936E-03     126.478E-03
             567     7.63952E-03     95.4653E-03    -65.1269E+06    -83.8627E+06     12.3204E+06     1.17490E+06    -167.025E-03     331.203E-03    -164.177E-03     145.861E-03    -170.059E-03     333.671E-03    -163.900E-03     134.933E-03
             568     8.40337E-03     95.6465E-03    -57.7194E+06    -53.2690E+06     25.4736E+06     1.31204E+06    -167.045E-03     331.194E-03    -164.149E-03     153.401E-03    -170.607E-03     334.288E-03    -163.861E-03     141.502E-03
             569     9.16817E-03     95.8349E-03    -50.2474E+06    -17.6405E+06     38.7135E+06     510.994E+03    -166.875E-03     330.987E-03    -164.112E-03     158.004E-03    -170.894E-03     334.653E-03    -163.820E-03     145.340E-03
             570     9.93242E-03     96.0254E-03    -42.6535E+06     30.9149E+06     52.8026E+06     100.269E+03    -166.433E-03     330.491E-03    -164.058E-03     158.578E-03    -170.772E-03     334.635E-03    -163.777E-03     145.457E-03
             571     10.6968E-03     96.2143E-03    -35.1232E+06     66.8513E+06     63.7286E+06     193.427E+03    -165.804E-03     329.807E-03    -164.003E-03     154.647E-03    -170.239E-03     334.170E-03    -163.730E-03     141.386E-03
             572     11.4621E-03     96.3937E-03    -29.1716E+06     80.6931E+06     69.6429E+06    -1.09591E+06    -165.016E-03     328.972E-03    -163.956E-03     146.087E-03    -169.307E-03     333.244E-03    -163.683E-03     132.937E-03
             573     12.2256E-03     96.5606E-03    -23.3400E+06     90.5276E+06     79.1526E+06    -1.28362E+06    -164.127E-03     328.059E-03    -163.932E-03     134.315E-03    -168.127E-03     332.068E-03    -163.634E-03     121.462E-03
             574     12.9925E-03     96.7105E-03    -16.4250E+06     94.2793E+06     90.0948E+06     367.734E+03    -163.638E-03     327.570E-03    -163.932E-03     117.724E-03    -167.118E-03     331.065E-03    -163.595E-03     105.512E-03
             575     13.7552E-03     96.8362E-03    -12.3237E+06      96.159E+06     93.2243E+06    -612.597E+03    -163.398E-03     327.322E-03    -163.924E-03     102.198E-03    -166.491E-03     330.443E-03    -163.580E-03     90.2748E-03
             576     14.5192E-03     96.9480E-03    -7.47767E+06     99.1284E+06     90.3337E+06     1.05190E+06    -162.803E-03     326.697E-03    -163.894E-03     68.1839E-03    -164.897E-03     328.855E-03    -163.576E-03     58.4954E-03
             577     764.000E-06     95.8073E-03    -134.288E+06    -297.624E+06    -130.823E+06     109.118E+03    -164.272E-03     328.311E-03    -164.039E-03     19.5560E-03    -164.357E-03     327.243E-03    -164.067E-03     18.5102E-03
             578     1.52749E-03     95.8411E-03    -129.906E+06    -289.009E+06    -117.905E+06    -26.9259E+03    -164.391E-03     328.547E-03    -164.157E-03     35.8098E-03    -164.561E-03     327.572E-03    -164.139E-03     33.8606E-03
             579     2.29136E-03     95.8955E-03    -123.332E+06    -271.484E+06    -100.959E+06    -134.088E+03    -164.667E-03     328.863E-03    -164.196E-03     52.5158E-03    -164.982E-03     328.070E-03    -164.129E-03     49.5889E-03
             580     3.05512E-03     95.9699E-03    -115.287E+06    -255.572E+06    -81.4239E+06     380.335E+03    -165.052E-03     329.296E-03    -164.243E-03     68.7347E-03    -165.564E-03     328.727E-03    -164.113E-03     64.7771E-03
             581     3.81892E-03     96.0639E-03    -106.289E+06    -230.713E+06    -62.6171E+06     373.674E+03    -165.413E-03     329.677E-03    -164.264E-03     84.3484E-03    -166.191E-03     329.440E-03    -164.088E-03     79.2875E-03
             582     4.58289E-03     96.1761E-03    -97.4276E+06    -199.223E+06    -46.1361E+06     226.791E+03    -165.790E-03     330.042E-03    -164.251E-03     99.0631E-03    -166.907E-03     330.239E-03    -164.052E-03     92.8446E-03
             583     5.34705E-03     96.3056E-03    -89.0003E+06    -176.969E+06    -31.0581E+06     748.113E+03    -166.199E-03     330.441E-03    -164.242E-03     112.626E-03    -167.704E-03     331.092E-03    -164.012E-03     105.223E-03
             584     6.11089E-03     96.4504E-03    -80.8629E+06    -150.543E+06    -16.3253E+06     965.360E+03    -166.553E-03     330.778E-03    -164.225E-03     125.198E-03    -168.519E-03     331.969E-03    -163.971E-03     116.585E-03
             585     6.87547E-03     96.6096E-03    -72.8544E+06    -116.475E+06    -1.80465E+06     1.05287E+06    -166.817E-03     331.012E-03    -164.195E-03     136.458E-03    -169.304E-03     332.832E-03    -163.929E-03     126.654E-03
             586     7.63935E-03     96.7805E-03    -64.8037E+06    -84.5891E+06     12.2440E+06     1.60835E+06    -166.962E-03     331.126E-03    -164.164E-03     146.037E-03    -169.992E-03     333.590E-03    -163.886E-03     135.126E-03
             587     8.40409E-03     96.9618E-03    -57.4080E+06    -53.0927E+06     25.7137E+06     1.69916E+06    -166.964E-03     331.094E-03    -164.130E-03     153.521E-03    -170.526E-03     334.189E-03    -163.841E-03     141.633E-03
             588     9.16824E-03     97.1496E-03    -50.5115E+06    -16.0545E+06     39.3667E+06     1.17888E+06    -166.812E-03     330.901E-03    -164.089E-03     158.035E-03    -170.837E-03     334.575E-03    -163.795E-03     145.383E-03
             589     9.93274E-03     97.3412E-03    -43.5685E+06     32.5108E+06     53.4982E+06    -250.424E+03    -166.440E-03     330.476E-03    -164.035E-03     158.569E-03    -170.788E-03     334.629E-03    -163.752E-03     145.441E-03
             590     10.6976E-03     97.5287E-03    -36.0786E+06     66.5189E+06     63.6666E+06    -788.155E+03    -165.860E-03     329.845E-03    -163.985E-03     154.508E-03    -170.304E-03     334.212E-03    -163.711E-03     141.215E-03
             591     11.4614E-03     97.7097E-03    -28.7779E+06     81.2138E+06     70.5082E+06     451.484E+03    -165.126E-03     329.074E-03    -163.948E-03     145.825E-03    -169.418E-03     333.348E-03    -163.672E-03     132.681E-03
             592     12.2271E-03     97.8747E-03    -23.6836E+06     90.7765E+06     79.7309E+06     797.708E+03    -164.621E-03     328.566E-03    -163.945E-03     134.093E-03    -168.628E-03     332.579E-03    -163.644E-03     121.228E-03
             593     12.9896E-03     98.0259E-03    -18.9371E+06     92.8457E+06     88.1621E+06     145.066E+03    -163.949E-03     327.911E-03    -163.963E-03     117.537E-03    -167.447E-03     331.417E-03    -163.629E-03     105.256E-03
             594     13.7549E-03     98.1525E-03    -11.6571E+06     97.7800E+06     94.2795E+06     1.34977E+06    -163.019E-03     326.975E-03    -163.956E-03     103.467E-03    -166.109E-03     330.098E-03    -163.610E-03     91.6670E-03
             595     14.5179E-03     98.2652E-03    -4.79416E+06     99.8628E+06     92.4821E+06     547.226E+03    -162.140E-03     326.036E-03    -163.896E-03     70.1498E-03    -164.226E-03     328.191E-03    -163.571E-03     60.5430E-03
             596     763.497E-06     97.1227E-03    -134.108E+06    -297.755E+06    -131.022E+06    -81.9243E+03    -164.267E-03     328.392E-03    -164.125E-03     19.6076E-03    -164.351E-03     327.324E-03    -164.154E-03     18.5561E-03
             597     1.52747E-03     97.1563E-03    -129.739E+06    -289.160E+06    -118.194E+06     110.548E+03    -164.363E-03     328.545E-03    -164.182E-03     35.7716E-03    -164.532E-03     327.569E-03    -164.166E-03     33.8253E-03
             598     2.29131E-03     97.2106E-03    -123.284E+06    -271.153E+06    -100.183E+06     30.3886E+03    -164.627E-03     328.832E-03    -164.205E-03     52.4744E-03    -164.943E-03     328.038E-03    -164.134E-03     49.5546E-03
             599     3.05515E-03     97.2855E-03    -115.010E+06    -255.894E+06    -81.1934E+06    -123.967E+03    -164.991E-03     329.227E-03    -164.236E-03     68.7235E-03    -165.501E-03     328.656E-03    -164.104E-03     64.7634E-03
             600     3.81907E-03     97.3790E-03    -106.183E+06    -231.190E+06    -63.0074E+06     247.760E+03    -165.396E-03     329.643E-03    -164.247E-03     84.3869E-03    -166.172E-03     329.404E-03    -164.072E-03     79.3273E-03
             601     4.58306E-03     97.4916E-03    -97.8491E+06    -199.330E+06    -46.0293E+06     438.646E+03    -165.783E-03     330.019E-03    -164.237E-03     99.1591E-03    -166.900E-03     330.216E-03    -164.036E-03     92.9510E-03
             602     5.34695E-03     97.6207E-03    -89.3631E+06    -177.593E+06    -31.0009E+06     485.677E+03    -166.189E-03     330.417E-03    -164.228E-03     112.787E-03    -167.696E-03     331.066E-03    -163.996E-03     105.382E-03
             603     6.11136E-03     97.7656E-03    -80.8955E+06    -151.301E+06    -16.5995E+06     617.967E+03    -166.535E-03     330.743E-03    -164.208E-03     125.313E-03    -168.499E-03     331.931E-03    -163.954E-03     116.697E-03
             604     6.87522E-03     97.9246E-03    -72.6596E+06    -117.292E+06    -2.06824E+06     853.569E+03    -166.759E-03     330.934E-03    -164.174E-03     136.505E-03    -169.243E-03     332.749E-03    -163.909E-03     126.704E-03
             605     7.63989E-03     98.0958E-03    -64.8580E+06    -85.9342E+06     11.9257E+06     1.41746E+06    -166.918E-03     331.059E-03    -164.141E-03     146.006E-03    -169.947E-03     333.518E-03    -163.863E-03     135.092E-03
             606     8.40393E-03     98.2766E-03    -57.0077E+06    -53.8547E+06     25.6712E+06     2.04277E+06    -166.987E-03     331.095E-03    -164.108E-03     153.419E-03    -170.546E-03     334.186E-03    -163.819E-03     141.529E-03
             607     9.16851E-03     98.4652E-03    -49.2289E+06    -14.3978E+06     40.3653E+06     1.80217E+06    -166.865E-03     330.939E-03    -164.073E-03     157.847E-03    -170.886E-03     334.616E-03    -163.779E-03     145.198E-03
             608     9.93308E-03     98.6556E-03    -42.2600E+06     35.1389E+06     55.3377E+06     1.45703E+06    -166.455E-03     330.483E-03    -164.028E-03     158.260E-03    -170.800E-03     334.643E-03    -163.741E-03     145.151E-03
             609     10.6970E-03     98.8449E-03    -36.8032E+06     67.5690E+06     63.7583E+06     503.674E+03    -165.852E-03     329.829E-03    -163.977E-03     154.259E-03    -170.299E-03     334.201E-03    -163.703E-03     140.983E-03
             610     11.4623E-03     99.0237E-03    -31.2178E+06     78.8818E+06      68.134E+06    -85.9571E+03    -165.294E-03     329.236E-03    -163.943E-03     145.761E-03    -169.593E-03     333.507E-03    -163.671E-03     132.597E-03
             611     12.2255E-03     99.1910E-03    -23.5202E+06     89.5742E+06     78.8622E+06     1.25572E+06    -164.702E-03     328.651E-03    -163.948E-03     134.801E-03    -168.714E-03     332.668E-03    -163.650E-03     121.932E-03
             612     12.9904E-03     99.3430E-03    -15.9822E+06     95.3195E+06     90.6087E+06     1.50833E+06    -163.733E-03     327.698E-03    -163.965E-03     118.664E-03    -167.232E-03     331.216E-03    -163.627E-03     106.443E-03
             613     13.7547E-03     99.4649E-03    -10.6173E+06     97.8648E+06     95.0566E+06     496.655E+03    -162.402E-03     326.333E-03    -163.931E-03     103.475E-03    -165.481E-03     329.445E-03    -163.582E-03     91.7193E-03
             614     14.5234E-03     99.5797E-03    -5.46618E+06     99.1140E+06     92.4844E+06    -909.783E+03    -162.116E-03     325.971E-03    -163.855E-03     69.2414E-03    -164.194E-03     328.113E-03    -163.528E-03     59.6209E-03
             615     763.830E-06     98.4378E-03    -134.710E+06    -297.901E+06    -131.148E+06     172.826E+03    -164.392E-03     328.368E-03    -163.976E-03     19.7084E-03    -164.479E-03     327.300E-03    -164.004E-03     18.6609E-03
             616     1.52749E-03     98.4716E-03    -129.819E+06    -288.925E+06    -118.030E+06    -171.054E+03    -164.393E-03     328.571E-03    -164.179E-03     35.8996E-03    -164.562E-03     327.596E-03    -164.161E-03     33.9551E-03
             617     2.29117E-03     98.5260E-03    -122.779E+06    -271.127E+06    -100.503E+06    -234.220E+03    -164.609E-03     328.812E-03    -164.203E-03     52.5263E-03    -164.922E-03     328.018E-03    -164.134E-03     49.6052E-03
             618     3.05518E-03     98.6003E-03    -114.918E+06    -256.015E+06    -81.1502E+06     63.3692E+03    -164.926E-03     329.152E-03    -164.226E-03     68.7678E-03    -165.436E-03     328.580E-03    -164.094E-03     64.8099E-03
             619     3.81913E-03     98.6945E-03    -106.474E+06    -231.841E+06    -63.1266E+06     199.925E+03    -165.336E-03     329.562E-03    -164.226E-03     84.3885E-03    -166.112E-03     329.320E-03    -164.051E-03     79.3324E-03
             620     4.58311E-03     98.8066E-03    -97.6940E+06    -199.635E+06    -46.0528E+06     440.519E+03    -165.725E-03     329.933E-03    -164.209E-03     99.1187E-03    -166.839E-03     330.126E-03    -164.008E-03     92.9204E-03
             621     5.34743E-03     98.9360E-03    -89.3240E+06    -177.943E+06    -31.0445E+06     459.139E+03    -166.155E-03     330.352E-03    -164.197E-03     112.823E-03    -167.662E-03     331.000E-03    -163.965E-03     105.417E-03
             622     6.11120E-03     99.0808E-03    -81.3496E+06    -151.937E+06    -16.9639E+06     465.600E+03    -166.535E-03     330.713E-03    -164.178E-03     125.327E-03    -168.501E-03     331.899E-03    -163.924E-03     116.707E-03
             623     6.87577E-03     99.2397E-03    -73.6316E+06    -117.723E+06    -2.42831E+06     790.413E+03    -166.791E-03     330.941E-03    -164.150E-03     136.474E-03    -169.279E-03     332.757E-03    -163.885E-03     126.670E-03
             624     7.63976E-03     99.4107E-03    -66.0382E+06    -87.2003E+06     11.2569E+06     1.24975E+06    -166.981E-03     331.107E-03    -164.125E-03     145.921E-03    -170.015E-03     333.563E-03    -163.847E-03     134.993E-03
             625     8.40431E-03     99.5920E-03    -58.4077E+06    -54.1421E+06     24.8130E+06     1.10018E+06    -167.047E-03     331.146E-03    -164.099E-03     153.269E-03    -170.611E-03     334.238E-03    -163.812E-03     141.358E-03
             626     9.16850E-03     99.7800E-03    -50.6032E+06    -14.6477E+06     39.3926E+06     1.28398E+06    -166.893E-03     330.963E-03    -164.069E-03     157.773E-03    -170.918E-03     334.642E-03    -163.778E-03     145.116E-03
             627     9.93245E-03     99.9716E-03    -42.9593E+06     34.2297E+06     54.7916E+06     2.03262E+06    -166.436E-03     330.463E-03    -164.027E-03     158.309E-03    -170.783E-03     334.620E-03    -163.740E-03     145.214E-03
             628     10.6977E-03     100.159E-03    -35.5393E+06     68.4841E+06     64.7398E+06     3.01066E+06    -165.874E-03     329.851E-03    -163.978E-03     154.296E-03    -170.315E-03     334.222E-03    -163.702E-03     141.060E-03
             629     11.4614E-03     100.340E-03    -29.8745E+06     81.2259E+06     69.2471E+06     2.87626E+06    -165.220E-03     329.158E-03    -163.938E-03     146.107E-03    -169.519E-03     333.438E-03    -163.667E-03     132.992E-03
             630     12.2264E-03     100.506E-03    -25.4541E+06     90.4023E+06     78.1365E+06    -163.279E+03    -164.285E-03     328.211E-03    -163.925E-03     135.089E-03    -168.302E-03     332.231E-03    -163.629E-03     122.249E-03
             631     12.9918E-03     100.657E-03    -18.7178E+06     93.1632E+06     88.1399E+06    -719.362E+03    -163.311E-03     327.226E-03    -163.915E-03     118.319E-03    -166.804E-03     330.728E-03    -163.582E-03     106.117E-03
             632     13.7565E-03     100.782E-03    -10.6638E+06     98.4602E+06     95.3471E+06    -842.424E+03    -162.923E-03     326.816E-03    -163.893E-03     103.045E-03    -166.018E-03     329.947E-03    -163.544E-03     91.1723E-03
             633     14.5177E-03     100.891E-03    -3.75413E+06     100.366E+06     94.9851E+06    -1.08015E+06    -162.712E-03     326.570E-03    -163.858E-03     69.6188E-03    -164.809E-03     328.734E-03    -163.523E-03     59.9014E-03
             634     763.766E-06     99.7531E-03    -134.442E+06    -297.316E+06    -130.845E+06    -469.993E+03    -164.404E-03     328.302E-03    -163.898E-03     19.5340E-03    -164.491E-03     327.236E-03    -163.926E-03     18.4781E-03
             635     1.52748E-03     99.7869E-03    -129.253E+06    -288.481E+06    -117.868E+06    -368.278E+03    -164.339E-03     328.480E-03    -164.141E-03     35.8937E-03    -164.506E-03     327.506E-03    -164.124E-03     33.9499E-03
             636     2.29144E-03     99.8412E-03    -122.856E+06    -271.421E+06    -100.462E+06     28.9011E+03    -164.562E-03     328.722E-03    -164.161E-03     52.6058E-03    -164.875E-03     327.927E-03    -164.091E-03     49.6905E-03
             637     3.05523E-03     99.9155E-03    -115.014E+06    -256.374E+06    -81.1228E+06     88.6614E+03    -164.943E-03     329.131E-03    -164.188E-03     68.9161E-03    -165.453E-03     328.558E-03    -164.055E-03     64.9570E-03
             638     3.81921E-03     100.010E-03    -106.746E+06    -232.118E+06    -63.2718E+06     179.364E+03    -165.337E-03     329.533E-03    -164.197E-03     84.4459E-03    -166.113E-03     329.291E-03    -164.022E-03     79.3894E-03
             639     4.58335E-03     100.122E-03    -98.1215E+06    -200.041E+06    -46.3494E+06     418.058E+03    -165.706E-03     329.889E-03    -164.183E-03     99.0473E-03    -166.823E-03     330.082E-03    -163.983E-03     92.8430E-03
             640     5.34727E-03     100.251E-03    -89.6991E+06    -178.503E+06    -31.3164E+06     595.106E+03    -166.120E-03     330.292E-03    -164.172E-03     112.741E-03    -167.627E-03     330.938E-03    -163.940E-03     105.338E-03
             641     6.11179E-03     100.396E-03    -81.6708E+06    -152.078E+06    -16.8460E+06     891.017E+03    -166.545E-03     330.702E-03    -164.157E-03     125.221E-03    -168.512E-03     331.888E-03    -163.902E-03     116.606E-03
             642     6.87562E-03     100.555E-03    -73.7244E+06    -117.851E+06    -2.29694E+06     991.841E+03    -166.874E-03     331.012E-03    -164.138E-03     136.292E-03    -169.363E-03     332.828E-03    -163.872E-03     126.480E-03
             643     7.63999E-03     100.726E-03    -65.5911E+06    -87.9878E+06     11.2195E+06     861.055E+03    -167.062E-03     331.185E-03    -164.123E-03     145.804E-03    -170.092E-03     333.637E-03    -163.844E-03     134.863E-03
             644     8.40394E-03     100.907E-03    -57.7219E+06    -54.2404E+06     24.8695E+06     1.12751E+06    -167.068E-03     331.170E-03    -164.101E-03     153.243E-03    -170.630E-03     334.261E-03    -163.815E-03     141.331E-03
             645     9.16825E-03     101.096E-03    -50.4451E+06    -15.6049E+06     38.7609E+06     1.27785E+06    -166.809E-03     330.876E-03    -164.067E-03     157.785E-03    -170.828E-03     334.549E-03    -163.778E-03     145.140E-03
             646     9.93336E-03     101.286E-03    -43.1925E+06     31.6484E+06     53.4959E+06     2.13002E+06    -166.369E-03     330.387E-03    -164.018E-03     158.399E-03    -170.709E-03     334.531E-03    -163.734E-03     145.315E-03
             647     10.6971E-03     101.475E-03    -36.2604E+06     66.0711E+06      63.621E+06     3.25755E+06    -165.861E-03     329.826E-03    -163.966E-03     154.583E-03    -170.302E-03     334.189E-03    -163.691E-03     141.356E-03
             648     11.4622E-03     101.655E-03    -28.3027E+06     83.4773E+06     70.6727E+06     3.09734E+06    -165.103E-03     329.027E-03    -163.925E-03     146.031E-03    -169.399E-03     333.315E-03    -163.651E-03     132.920E-03
             649     12.2271E-03     101.821E-03    -20.6224E+06     94.9538E+06     82.1449E+06     2.91356E+06    -164.213E-03     328.126E-03    -163.913E-03     134.362E-03    -168.208E-03     332.146E-03    -163.610E-03     121.576E-03
             650     12.9908E-03     101.972E-03    -16.4804E+06     95.5085E+06     90.5727E+06    -210.766E+03    -163.486E-03     327.394E-03    -163.908E-03     117.523E-03    -166.967E-03     330.893E-03    -163.570E-03     105.310E-03
             651     13.7565E-03     102.095E-03    -11.3292E+06     99.5416E+06     95.6464E+06    -2.20588E+06    -163.086E-03     326.980E-03    -163.894E-03     102.590E-03    -166.178E-03     330.107E-03    -163.543E-03     90.6987E-03
             652     14.5228E-03     102.212E-03    -5.50261E+06     98.9175E+06     93.9222E+06    -876.247E+03    -162.929E-03     326.797E-03    -163.868E-03     69.1784E-03    -165.017E-03     328.945E-03    -163.534E-03     59.4903E-03
             653     763.700E-06     101.068E-03    -134.686E+06    -296.014E+06    -130.951E+06    -182.279E+03    -164.216E-03     328.257E-03    -164.042E-03     19.4820E-03    -164.305E-03     327.198E-03    -164.072E-03     18.4312E-03
             654     1.52764E-03     101.102E-03    -130.193E+06    -288.569E+06    -117.882E+06    -402.727E+03    -164.238E-03     328.346E-03    -164.108E-03     35.8269E-03    -164.410E-03     327.373E-03    -164.090E-03     33.8817E-03
             655     2.29152E-03     101.156E-03    -123.036E+06    -272.254E+06    -100.062E+06     66.8698E+03    -164.539E-03     328.658E-03    -164.119E-03     52.5074E-03    -164.852E-03     327.858E-03    -164.046E-03     49.5934E-03
             656     3.05556E-03     101.231E-03    -115.150E+06    -256.608E+06    -81.1258E+06     478.399E+03    -164.931E-03     329.083E-03    -164.152E-03     68.7804E-03    -165.441E-03     328.508E-03    -164.018E-03     64.8285E-03
             657     3.81941E-03     101.325E-03    -106.822E+06    -232.288E+06    -63.0792E+06     457.959E+03    -165.322E-03     329.489E-03    -164.167E-03     84.3702E-03    -166.099E-03     329.245E-03    -163.991E-03     79.3155E-03
             658     4.58329E-03     101.437E-03    -98.2635E+06    -200.422E+06    -46.3672E+06     488.169E+03    -165.732E-03     329.891E-03    -164.159E-03     99.0771E-03    -166.850E-03     330.083E-03    -163.958E-03     92.8667E-03
             659     5.34759E-03     101.566E-03    -89.8256E+06    -179.091E+06     -31.237E+06     787.315E+03    -166.206E-03     330.366E-03    -164.161E-03     112.691E-03    -167.713E-03     331.009E-03    -163.927E-03     105.285E-03
             660     6.11142E-03     101.711E-03    -81.5485E+06    -152.559E+06    -16.9004E+06     935.953E+03    -166.602E-03     330.758E-03    -164.155E-03     125.139E-03    -168.568E-03     331.941E-03    -163.900E-03     116.521E-03
             661     6.87573E-03     101.870E-03    -73.4309E+06    -118.119E+06    -2.42978E+06     994.684E+03    -166.864E-03     331.003E-03    -164.139E-03     136.264E-03    -169.350E-03     332.816E-03    -163.873E-03     126.453E-03
             662     7.63971E-03     102.041E-03    -65.9696E+06    -88.0008E+06     11.0603E+06     954.047E+03    -167.025E-03     331.146E-03    -164.121E-03     145.928E-03    -170.057E-03     333.599E-03    -163.843E-03     134.995E-03
             663     8.40413E-03     102.223E-03    -58.6757E+06    -55.0983E+06     24.1226E+06     926.918E+03    -167.013E-03     331.107E-03    -164.094E-03     153.425E-03    -170.579E-03     334.198E-03    -163.808E-03     141.515E-03
             664     9.16867E-03     102.410E-03    -51.3024E+06    -16.1104E+06     38.0293E+06     1.43213E+06    -166.802E-03     330.858E-03    -164.056E-03     157.827E-03    -170.826E-03     334.532E-03    -163.768E-03     145.180E-03
             665     9.93255E-03     102.601E-03    -43.8292E+06     29.5427E+06     52.5041E+06     1.87450E+06    -166.369E-03     330.377E-03    -164.008E-03     158.424E-03    -170.710E-03     334.515E-03    -163.725E-03     145.332E-03
             666     10.6981E-03     102.789E-03    -35.2101E+06     64.8890E+06     63.8846E+06     1.91928E+06    -165.799E-03     329.756E-03    -163.957E-03     154.466E-03    -170.233E-03     334.110E-03    -163.681E-03     141.221E-03
             667     11.4622E-03     102.970E-03    -27.9021E+06     83.8041E+06      71.407E+06     1.72370E+06    -165.162E-03     329.081E-03    -163.918E-03     145.829E-03    -169.456E-03     333.366E-03    -163.642E-03     132.697E-03
             668     12.2260E-03     103.136E-03    -20.7651E+06     94.7290E+06     82.5256E+06     1.16828E+06    -164.505E-03     328.424E-03    -163.919E-03     134.129E-03    -168.509E-03     332.451E-03    -163.614E-03     121.266E-03
             669     12.9922E-03     103.286E-03    -12.1136E+06     99.1289E+06     94.9236E+06     2.48126E+06    -163.848E-03     327.791E-03    -163.943E-03     117.310E-03    -167.324E-03     331.300E-03    -163.594E-03     105.086E-03
             670     13.7545E-03     103.413E-03    -8.66228E+06     102.649E+06     98.9374E+06     1.54194E+06    -163.092E-03     327.028E-03    -163.936E-03     102.354E-03    -166.173E-03     330.155E-03    -163.577E-03     90.5325E-03
             671     14.5180E-03     103.522E-03    -5.04573E+06     97.8505E+06     93.8063E+06    -1.02738E+06    -162.317E-03     326.202E-03    -163.885E-03     69.3028E-03    -164.399E-03     328.341E-03    -163.550E-03     59.6527E-03
             672     763.757E-06     102.383E-03    -134.915E+06    -296.363E+06    -130.984E+06     496.788E+03    -164.171E-03     328.211E-03    -164.040E-03     19.2859E-03    -164.261E-03     327.150E-03    -164.070E-03     18.2514E-03
             673     1.52766E-03     102.417E-03    -130.113E+06    -287.942E+06    -116.935E+06     269.863E+03    -164.247E-03     328.343E-03    -164.096E-03     35.7331E-03    -164.421E-03     327.372E-03    -164.075E-03     33.7942E-03
             674     2.29152E-03     102.471E-03    -123.498E+06    -273.138E+06    -99.8908E+06     24.6734E+03    -164.554E-03     328.672E-03    -164.118E-03     52.4580E-03    -164.868E-03     327.868E-03    -164.042E-03     49.5420E-03
             675     3.05529E-03     102.546E-03    -115.166E+06    -257.399E+06    -81.1816E+06     445.216E+03    -164.893E-03     329.042E-03    -164.148E-03     68.6707E-03    -165.402E-03     328.463E-03    -164.014E-03     64.7182E-03
             676     3.81940E-03     102.640E-03    -106.420E+06    -232.387E+06    -62.6792E+06     822.993E+03    -165.260E-03     329.416E-03    -164.156E-03     84.2581E-03    -166.036E-03     329.171E-03    -163.978E-03     79.2084E-03
             677     4.58367E-03     102.752E-03    -98.0210E+06    -200.690E+06    -45.8408E+06     1.02432E+06    -165.750E-03     329.897E-03    -164.148E-03     99.0159E-03    -166.866E-03     330.087E-03    -163.944E-03     92.8132E-03
             678     5.34743E-03     102.881E-03    -89.7268E+06    -179.417E+06    -31.2209E+06     809.905E+03    -166.268E-03     330.423E-03    -164.155E-03     112.699E-03    -167.774E-03     331.064E-03    -163.920E-03     105.292E-03
             679     6.11153E-03     103.026E-03    -81.4277E+06    -153.254E+06    -17.2837E+06     699.625E+03    -166.611E-03     330.763E-03    -164.153E-03     125.256E-03    -168.575E-03     331.944E-03    -163.899E-03     116.636E-03
             680     6.87560E-03     103.185E-03    -73.5662E+06    -118.913E+06    -2.92649E+06     1.16413E+06    -166.815E-03     330.948E-03    -164.133E-03     136.418E-03    -169.301E-03     332.759E-03    -163.868E-03     126.614E-03
             681     7.64005E-03     103.356E-03    -65.9568E+06    -88.0680E+06     11.0077E+06     1.65088E+06    -166.957E-03     331.067E-03    -164.110E-03     145.949E-03    -169.987E-03     333.518E-03    -163.832E-03     135.033E-03
             682     8.40436E-03     103.537E-03    -58.6389E+06    -54.7396E+06     24.6121E+06     1.49637E+06    -166.998E-03     331.080E-03    -164.081E-03     153.355E-03    -170.563E-03     334.170E-03    -163.794E-03     141.457E-03
             683     9.16851E-03     103.726E-03    -51.3390E+06    -17.2051E+06     38.1257E+06     1.59104E+06    -166.865E-03     330.913E-03    -164.048E-03     157.700E-03    -170.889E-03     334.583E-03    -163.758E-03     145.045E-03
             684     9.93353E-03     103.916E-03    -43.7634E+06     29.8195E+06     53.0640E+06     1.35041E+06    -166.478E-03     330.487E-03    -164.009E-03     158.240E-03    -170.822E-03     334.627E-03    -163.723E-03     145.122E-03
             685     10.6971E-03     104.105E-03    -36.7641E+06     65.2981E+06     63.6652E+06     290.509E+03    -165.874E-03     329.839E-03    -163.965E-03     154.241E-03    -170.318E-03     334.199E-03    -163.688E-03     140.958E-03
             686     11.4620E-03     104.285E-03    -28.7716E+06     83.3409E+06     70.7422E+06    -11.1256E+03    -165.195E-03     329.125E-03    -163.930E-03     145.566E-03    -169.489E-03     333.407E-03    -163.655E-03     132.406E-03
             687     12.2275E-03     104.452E-03    -21.8677E+06     93.9160E+06     81.8847E+06     522.573E+03    -164.557E-03     328.491E-03    -163.934E-03     134.157E-03    -168.563E-03     332.515E-03    -163.629E-03     121.287E-03
             688     12.9889E-03     104.603E-03    -16.8214E+06     96.0735E+06     91.5307E+06     391.374E+03    -163.671E-03     327.618E-03    -163.947E-03     118.009E-03    -167.166E-03     331.128E-03    -163.604E-03     105.780E-03
             689     13.7561E-03     104.726E-03    -7.18992E+06     103.870E+06     99.4944E+06     2.28478E+06    -162.781E-03     326.709E-03    -163.928E-03     103.676E-03    -165.870E-03     329.853E-03    -163.570E-03     91.8869E-03
             690     14.5210E-03     104.841E-03    -1.21593E+06     101.084E+06     96.7210E+06     2.68777E+06    -162.320E-03     326.191E-03    -163.871E-03     70.0098E-03    -164.405E-03     328.350E-03    -163.532E-03     60.3854E-03
             691     763.807E-06     103.698E-03    -135.138E+06    -297.158E+06    -132.195E+06     197.122E+03    -164.175E-03     328.122E-03    -163.947E-03     19.3156E-03    -164.263E-03     327.059E-03    -163.981E-03     18.2855E-03
             692     1.52757E-03     103.732E-03    -130.202E+06    -287.949E+06    -118.812E+06     263.283E+03    -164.311E-03     328.375E-03    -164.064E-03     35.8092E-03    -164.483E-03     327.407E-03    -164.052E-03     33.8713E-03
             693     2.29146E-03     103.786E-03    -123.772E+06    -272.796E+06    -100.561E+06     264.381E+03    -164.520E-03     328.627E-03    -164.107E-03     52.5735E-03    -164.836E-03     327.827E-03    -164.035E-03     49.6580E-03
             694     3.05549E-03     103.861E-03    -115.793E+06    -258.262E+06    -81.6384E+06     194.112E+03    -164.886E-03     329.022E-03    -164.136E-03     68.7945E-03    -165.396E-03     328.441E-03    -164.002E-03     64.8378E-03
             695     3.81945E-03     103.954E-03    -107.071E+06    -233.351E+06    -63.3724E+06     784.197E+03    -165.343E-03     329.494E-03    -164.151E-03     84.2995E-03    -166.119E-03     329.246E-03    -163.975E-03     79.2483E-03
             696     4.58331E-03     104.067E-03    -98.1107E+06    -201.469E+06    -46.0904E+06     892.462E+03    -165.782E-03     329.937E-03    -164.155E-03     99.0012E-03    -166.897E-03     330.122E-03    -163.951E-03     92.7979E-03
             697     5.34754E-03     104.197E-03    -89.1473E+06    -179.663E+06    -31.1744E+06     886.177E+03    -166.184E-03     330.341E-03    -164.157E-03     112.628E-03    -167.686E-03     330.979E-03    -163.923E-03     105.229E-03
             698     6.11166E-03     104.341E-03    -81.3563E+06    -153.381E+06    -17.0198E+06     1.25890E+06    -166.539E-03     330.686E-03    -164.147E-03     125.166E-03    -168.500E-03     331.863E-03    -163.892E-03     116.561E-03
             699     6.87588E-03     104.500E-03    -73.8984E+06    -119.511E+06    -2.84206E+06     1.43589E+06    -166.814E-03     330.939E-03    -164.125E-03     136.324E-03    -169.300E-03     332.746E-03    -163.859E-03     126.523E-03
             700     7.64000E-03     104.671E-03    -66.0969E+06    -88.9717E+06     11.0490E+06     1.61591E+06    -166.989E-03     331.094E-03    -164.105E-03     145.786E-03    -170.019E-03     333.541E-03    -163.825E-03     134.862E-03
             701     8.40427E-03     104.853E-03    -58.5006E+06    -54.8171E+06     25.1001E+06     2.02302E+06    -167.052E-03     331.135E-03    -164.083E-03     153.189E-03    -170.615E-03     334.223E-03    -163.793E-03     141.293E-03
             702     9.16882E-03     105.040E-03    -50.8107E+06    -16.6579E+06     39.1465E+06     1.42313E+06    -166.960E-03     331.019E-03    -164.059E-03     157.481E-03    -170.983E-03     334.689E-03    -163.765E-03     144.812E-03
             703     9.93247E-03     105.232E-03    -42.7329E+06     29.8050E+06     53.5731E+06     900.309E+03    -166.527E-03     330.551E-03    -164.024E-03     157.992E-03    -170.866E-03     334.688E-03    -163.737E-03     144.859E-03
             704     10.6976E-03     105.420E-03    -34.8428E+06     67.0622E+06     64.9192E+06     825.183E+03    -165.909E-03     329.892E-03    -163.982E-03     154.230E-03    -170.344E-03     334.253E-03    -163.705E-03     140.962E-03
             705     11.4617E-03     105.600E-03    -29.2640E+06     83.3846E+06     70.6424E+06     156.291E+03    -165.193E-03     329.139E-03    -163.945E-03     145.898E-03    -169.492E-03     333.424E-03    -163.670E-03     132.746E-03
             706     12.2249E-03     105.767E-03    -23.1972E+06     92.2622E+06     80.0412E+06     209.323E+03    -164.172E-03     328.102E-03    -163.930E-03     134.579E-03    -168.178E-03     332.121E-03    -163.630E-03     121.746E-03
             707     12.9932E-03     105.917E-03    -15.7133E+06     97.1824E+06     91.8772E+06     1.10063E+06    -163.458E-03     327.385E-03    -163.927E-03     118.220E-03    -166.945E-03     330.894E-03    -163.585E-03     106.039E-03
             708     13.7553E-03     106.042E-03    -12.6974E+06     99.9782E+06     94.5690E+06    -112.071E+03    -163.048E-03     326.950E-03    -163.902E-03     102.407E-03    -166.150E-03     330.087E-03    -163.555E-03     90.5183E-03
             709     14.5212E-03     106.152E-03    -8.68860E+06     100.362E+06     90.2093E+06     1.38653E+06    -162.694E-03     326.553E-03    -163.858E-03     68.2148E-03    -164.797E-03     328.719E-03    -163.540E-03     58.5255E-03
             710     764.035E-06     105.013E-03    -134.878E+06    -296.760E+06    -131.676E+06    -361.018E+03    -164.117E-03     328.064E-03    -163.947E-03     19.4381E-03    -164.206E-03     327.002E-03    -163.979E-03     18.3910E-03
             711     1.52774E-03     105.047E-03    -130.529E+06    -288.474E+06    -119.391E+06    -252.382E+03    -164.283E-03     328.316E-03    -164.033E-03     35.7363E-03    -164.454E-03     327.346E-03    -164.023E-03     33.7891E-03
             712     2.29159E-03     105.101E-03    -123.455E+06    -273.025E+06    -101.128E+06     167.636E+03    -164.508E-03     328.586E-03    -164.078E-03     52.5173E-03    -164.821E-03     327.785E-03    -164.008E-03     49.6024E-03
             713     3.05560E-03     105.176E-03    -115.402E+06    -258.276E+06    -81.3043E+06     373.095E+03    -164.924E-03     329.045E-03    -164.120E-03     68.7654E-03    -165.433E-03     328.462E-03    -163.985E-03     64.8137E-03
             714     3.81944E-03     105.270E-03    -106.549E+06    -234.232E+06    -63.4271E+06     38.8207E+03    -165.416E-03     329.565E-03    -164.148E-03     84.3774E-03    -166.189E-03     329.312E-03    -163.971E-03     79.3143E-03
             715     4.58340E-03     105.382E-03    -97.4898E+06    -202.428E+06    -46.4248E+06     576.180E+03    -165.811E-03     329.969E-03    -164.158E-03     99.0852E-03    -166.922E-03     330.150E-03    -163.955E-03     92.8746E-03
             716     5.34737E-03     105.511E-03    -89.5856E+06    -180.431E+06    -31.3682E+06     1.32116E+06    -166.181E-03     330.345E-03    -164.164E-03     112.629E-03    -167.684E-03     330.980E-03    -163.929E-03     105.234E-03
             717     6.11155E-03     105.656E-03    -81.5591E+06    -153.962E+06    -16.7908E+06     1.56731E+06    -166.556E-03     330.712E-03    -164.156E-03     125.053E-03    -168.518E-03     331.886E-03    -163.898E-03     116.450E-03
             718     6.87575E-03     105.815E-03    -73.3211E+06    -119.791E+06    -2.06074E+06     1.68008E+06    -166.857E-03     330.995E-03    -164.138E-03     136.099E-03    -169.338E-03     332.797E-03    -163.869E-03     126.299E-03
             719     7.63997E-03     105.987E-03    -65.5044E+06    -89.6028E+06     11.5074E+06     1.70443E+06    -167.057E-03     331.182E-03    -164.124E-03     145.524E-03    -170.083E-03     333.623E-03    -163.842E-03     134.593E-03
             720     8.40423E-03     106.167E-03    -57.6150E+06    -55.5623E+06     25.2365E+06     1.76668E+06    -167.100E-03     331.206E-03    -164.106E-03     152.986E-03    -170.656E-03     334.287E-03    -163.815E-03     141.081E-03
             721     9.16815E-03     106.356E-03    -50.1844E+06    -16.1911E+06     39.4668E+06     1.92867E+06    -166.918E-03     330.998E-03    -164.080E-03     157.523E-03    -170.936E-03     334.666E-03    -163.786E-03     144.870E-03
             722     9.93290E-03     106.547E-03    -43.4988E+06     31.5152E+06     54.0923E+06     865.598E+03    -166.484E-03     330.525E-03    -164.040E-03     158.106E-03    -170.829E-03     334.670E-03    -163.753E-03     144.981E-03
             723     10.6970E-03     106.735E-03    -36.5665E+06     66.6312E+06     64.4604E+06     119.539E+03    -165.809E-03     329.801E-03    -163.992E-03     154.381E-03    -170.251E-03     334.162E-03    -163.713E-03     141.114E-03
             724     11.4616E-03     106.916E-03    -28.8466E+06     83.0352E+06     71.5166E+06     1.09487E+06    -164.926E-03     328.871E-03    -163.944E-03     146.028E-03    -169.218E-03     333.148E-03    -163.665E-03     132.923E-03
             725     12.2281E-03     107.081E-03    -22.7979E+06     92.8687E+06     81.1009E+06     1.55516E+06    -164.325E-03     328.249E-03    -163.925E-03     134.260E-03    -168.326E-03     332.264E-03    -163.621E-03     121.444E-03
             726     12.9897E-03     107.231E-03    -18.4451E+06     95.0943E+06     89.4931E+06     1.68723E+06    -163.719E-03     327.647E-03    -163.928E-03     117.467E-03    -167.211E-03     331.152E-03    -163.592E-03     105.246E-03
             727     13.7562E-03     107.358E-03    -11.0841E+06     102.336E+06     96.4706E+06     3.06031E+06    -163.167E-03     327.090E-03    -163.923E-03     102.744E-03    -166.258E-03     330.225E-03    -163.573E-03     90.9503E-03
             728     14.5173E-03     107.470E-03    -3.95725E+06     102.994E+06     94.2621E+06     1.03314E+06    -162.538E-03     326.418E-03    -163.880E-03     69.6163E-03    -164.625E-03     328.584E-03    -163.553E-03     59.9764E-03
             729     763.628E-06     106.328E-03    -134.121E+06    -296.203E+06    -130.241E+06    -1.83556E+03    -164.137E-03     328.107E-03    -163.970E-03     19.4717E-03    -164.225E-03     327.046E-03    -163.997E-03     18.4139E-03
             730     1.52765E-03     106.362E-03    -129.949E+06    -288.577E+06    -117.990E+06     42.7632E+03    -164.214E-03     328.255E-03    -164.041E-03     35.6897E-03    -164.384E-03     327.281E-03    -164.024E-03     33.7489E-03
             731     2.29165E-03     106.416E-03    -123.241E+06    -273.529E+06    -100.223E+06     1.25975E+03    -164.562E-03     328.638E-03    -164.076E-03     52.4600E-03    -164.873E-03     327.832E-03    -164.002E-03     49.5476E-03
             732     3.05543E-03     106.491E-03    -114.698E+06    -258.458E+06    -81.1502E+06    -21.3930E+03    -164.982E-03     329.111E-03    -164.130E-03     68.7561E-03    -165.486E-03     328.526E-03    -163.994E-03     64.8009E-03
             733     3.81944E-03     106.585E-03    -106.183E+06    -234.502E+06    -63.2797E+06     290.949E+03    -165.394E-03     329.555E-03    -164.160E-03     84.3127E-03    -166.165E-03     329.300E-03    -163.983E-03     79.2519E-03
             734     4.58343E-03     106.697E-03    -98.3605E+06    -203.675E+06    -46.6507E+06     838.374E+03    -165.808E-03     329.976E-03    -164.169E-03     98.9075E-03    -166.920E-03     330.152E-03    -163.964E-03     92.6993E-03
             735     5.34751E-03     106.826E-03    -89.7831E+06    -181.266E+06    -31.4184E+06     1.19032E+06    -166.260E-03     330.438E-03    -164.179E-03     112.469E-03    -167.762E-03     331.069E-03    -163.943E-03     105.068E-03
             736     6.11150E-03     106.971E-03    -81.3014E+06    -154.687E+06    -16.7607E+06     1.36325E+06    -166.638E-03     330.817E-03    -164.180E-03     124.944E-03    -168.597E-03     331.987E-03    -163.921E-03     116.331E-03
             737     6.87547E-03     107.131E-03    -73.2536E+06    -120.505E+06    -2.18475E+06     1.52265E+06    -166.893E-03     331.059E-03    -164.167E-03     136.078E-03    -169.373E-03     332.858E-03    -163.897E-03     126.274E-03
             738     7.63959E-03     107.302E-03    -65.1772E+06    -89.7827E+06     11.6908E+06     1.50501E+06    -167.110E-03     331.264E-03    -164.154E-03     145.623E-03    -170.135E-03     333.705E-03    -163.871E-03     134.687E-03
             739     8.40360E-03     107.483E-03    -57.6734E+06    -56.3735E+06     25.2057E+06     1.82709E+06    -167.088E-03     331.223E-03    -164.135E-03     153.016E-03    -170.644E-03     334.300E-03    -163.843E-03     141.110E-03
             740     9.16831E-03     107.671E-03    -50.2863E+06    -16.7448E+06     39.4410E+06     2.07983E+06    -166.789E-03     330.889E-03    -164.100E-03     157.537E-03    -170.804E-03     334.551E-03    -163.805E-03     144.899E-03
             741     9.93262E-03     107.862E-03    -42.8028E+06     33.0540E+06     54.9989E+06     2.37330E+06    -166.365E-03     330.414E-03    -164.049E-03     158.155E-03    -170.705E-03     334.560E-03    -163.760E-03     145.069E-03
             742     10.6972E-03     108.051E-03    -36.7558E+06     67.9994E+06     64.9735E+06     1.77372E+06    -165.743E-03     329.736E-03    -163.993E-03     154.192E-03    -170.186E-03     334.102E-03    -163.714E-03     140.951E-03
             743     11.4623E-03     108.229E-03    -31.7177E+06     82.0505E+06     69.8498E+06     1.03083E+06    -165.083E-03     329.031E-03    -163.948E-03     145.441E-03    -169.381E-03     333.304E-03    -163.671E-03     132.319E-03
             744     12.2254E-03     108.397E-03    -25.5649E+06     91.2183E+06     78.8198E+06     1.77800E+06    -164.504E-03     328.442E-03    -163.939E-03     134.009E-03    -168.511E-03     332.455E-03    -163.640E-03     121.172E-03
             745     12.9915E-03     108.548E-03    -17.4362E+06     95.9606E+06     90.3810E+06     1.67300E+06    -163.584E-03     327.533E-03    -163.949E-03     117.710E-03    -167.074E-03     331.039E-03    -163.611E-03     105.515E-03
             746     13.7544E-03     108.671E-03    -10.4074E+06     102.427E+06     97.0079E+06     1.11507E+06    -162.468E-03     326.386E-03    -163.918E-03     103.286E-03    -165.547E-03     329.510E-03    -163.567E-03     91.5510E-03
             747     14.5236E-03     108.786E-03    -4.90251E+06     103.160E+06     94.7522E+06     224.213E+03    -162.319E-03     326.171E-03    -163.852E-03     69.5640E-03    -164.406E-03     328.332E-03    -163.521E-03     59.9474E-03
             748     763.911E-06     107.643E-03    -134.556E+06    -297.023E+06    -131.248E+06     517.817E+03    -164.186E-03     328.075E-03    -163.889E-03     19.4640E-03    -164.273E-03     327.011E-03    -163.920E-03     18.4143E-03
             749     1.52779E-03     107.677E-03    -129.706E+06    -288.545E+06    -117.808E+06     404.936E+03    -164.307E-03     328.354E-03    -164.047E-03     35.7470E-03    -164.476E-03     327.380E-03    -164.030E-03     33.8107E-03
             750     2.29152E-03     107.731E-03    -122.996E+06    -273.377E+06    -100.098E+06     122.131E+03    -164.631E-03     328.740E-03    -164.110E-03     52.4104E-03    -164.941E-03     327.934E-03    -164.035E-03     49.4995E-03
             751     3.05547E-03     107.806E-03    -115.535E+06    -259.055E+06    -81.5477E+06     383.700E+03    -165.006E-03     329.174E-03    -164.168E-03     68.6622E-03    -165.513E-03     328.588E-03    -164.033E-03     64.7071E-03
             752     3.81924E-03     107.900E-03    -107.293E+06    -235.158E+06    -63.6868E+06     677.698E+03    -165.406E-03     329.603E-03    -164.197E-03     84.2068E-03    -166.180E-03     329.346E-03    -164.019E-03     79.1514E-03
             753     4.58320E-03     108.012E-03    -98.2994E+06    -204.213E+06    -46.4915E+06     591.829E+03    -165.817E-03     330.020E-03    -164.203E-03     98.8276E-03    -166.928E-03     330.192E-03    -163.997E-03     92.6162E-03
             754     5.34713E-03     108.142E-03    -89.6342E+06    -182.221E+06    -31.4933E+06     878.727E+03    -166.283E-03     330.493E-03    -164.210E-03     112.471E-03    -167.782E-03     331.119E-03    -163.973E-03     105.063E-03
             755     6.11109E-03     108.287E-03    -81.2944E+06    -155.214E+06    -16.8175E+06     1.16267E+06    -166.656E-03     330.865E-03    -164.209E-03     124.970E-03    -168.613E-03     332.032E-03    -163.950E-03     116.356E-03
             756     6.87535E-03     108.446E-03    -73.0949E+06    -121.175E+06    -2.29680E+06     1.18201E+06    -166.910E-03     331.104E-03    -164.194E-03     136.147E-03    -169.389E-03     332.900E-03    -163.924E-03     126.335E-03
             757     7.63955E-03     108.617E-03    -65.6595E+06    -90.5847E+06     11.3183E+06     1.73337E+06    -167.066E-03     331.242E-03    -164.176E-03     145.746E-03    -170.091E-03     333.680E-03    -163.893E-03     134.818E-03
             758     8.40383E-03     108.798E-03    -58.0643E+06    -56.6777E+06     25.2373E+06     1.80430E+06    -167.057E-03     331.209E-03    -164.152E-03     153.044E-03    -170.615E-03     334.286E-03    -163.859E-03     141.138E-03
             759     9.16792E-03     108.986E-03    -50.3366E+06    -17.7892E+06     39.1127E+06     1.95054E+06    -166.845E-03     330.961E-03    -164.116E-03     157.457E-03    -170.861E-03     334.621E-03    -163.822E-03     144.805E-03
             760     9.93251E-03     109.177E-03    -43.1349E+06     31.7465E+06     54.1727E+06     2.71687E+06    -166.316E-03     330.380E-03    -164.064E-03     157.911E-03    -170.652E-03     334.518E-03    -163.777E-03     144.833E-03
             761     10.6974E-03     109.365E-03    -36.0031E+06     67.5315E+06     64.7720E+06     4.23441E+06    -165.774E-03     329.783E-03    -164.008E-03     153.783E-03    -170.206E-03     334.139E-03    -163.730E-03     140.577E-03
             762     11.4610E-03     109.546E-03    -30.3653E+06     83.4252E+06     70.3857E+06     4.97758E+06    -165.208E-03     329.175E-03    -163.967E-03     145.632E-03    -169.504E-03     333.455E-03    -163.692E-03     132.551E-03
             763     12.2264E-03     109.712E-03    -25.6675E+06     94.6569E+06     79.8852E+06     1.65046E+06    -164.317E-03     328.272E-03    -163.955E-03     134.588E-03    -168.338E-03     332.306E-03    -163.655E-03     121.767E-03
             764     12.9902E-03     109.862E-03    -19.7243E+06     95.6477E+06     88.9241E+06    -579.158E+03    -163.262E-03     327.207E-03    -163.945E-03     117.578E-03    -166.761E-03     330.718E-03    -163.610E-03     105.363E-03
             765     13.7569E-03     109.987E-03    -12.2641E+06     101.273E+06     95.7061E+06    -872.486E+03    -162.611E-03     326.523E-03    -163.912E-03     102.493E-03    -165.703E-03     329.654E-03    -163.563E-03     90.6608E-03
             766     14.5183E-03     110.097E-03    -5.10425E+06     104.354E+06     94.9641E+06    -663.351E+03    -162.410E-03     326.267E-03    -163.857E-03     69.1318E-03    -164.503E-03     328.437E-03    -163.526E-03     59.4691E-03
             767     763.935E-06     108.958E-03    -135.671E+06    -297.867E+06    -132.839E+06    -239.974E+03    -164.266E-03     328.165E-03    -163.899E-03     19.3821E-03    -164.356E-03     327.101E-03    -163.934E-03     18.3227E-03
             768     1.52756E-03     108.992E-03    -130.949E+06    -289.062E+06    -119.799E+06     67.0545E+03    -164.414E-03     328.515E-03    -164.102E-03     35.6716E-03    -164.586E-03     327.544E-03    -164.092E-03     33.7253E-03
             769     2.29135E-03     109.046E-03    -124.031E+06    -273.881E+06    -101.090E+06     444.915E+03    -164.673E-03     328.851E-03    -164.177E-03     52.3528E-03    -164.987E-03     328.045E-03    -164.106E-03     49.4398E-03
             770     3.05509E-03     109.121E-03    -115.947E+06    -259.416E+06    -81.6126E+06     516.385E+03    -165.002E-03     329.231E-03    -164.228E-03     68.6177E-03    -165.511E-03     328.644E-03    -164.092E-03     64.6612E-03
             771     3.81908E-03     109.215E-03    -107.344E+06    -235.255E+06    -63.6436E+06     540.707E+03    -165.387E-03     329.630E-03    -164.243E-03     84.2406E-03    -166.161E-03     329.372E-03    -164.064E-03     79.1852E-03
             772     4.58303E-03     109.327E-03    -98.6311E+06    -204.623E+06    -46.5998E+06     456.903E+03    -165.822E-03     330.061E-03    -164.239E-03     98.9413E-03    -166.935E-03     330.232E-03    -164.032E-03     92.7283E-03
             773     5.34711E-03     109.457E-03    -90.0864E+06    -182.786E+06    -31.7668E+06     533.978E+03    -166.293E-03     330.534E-03    -164.241E-03     112.570E-03    -167.795E-03     331.159E-03    -164.004E-03     105.156E-03
             774     6.11123E-03     109.602E-03    -81.7336E+06    -155.853E+06    -17.3651E+06     884.769E+03    -166.664E-03     330.900E-03    -164.236E-03     124.927E-03    -168.622E-03     332.065E-03    -163.978E-03     116.306E-03
             775     6.87514E-03     109.761E-03    -73.9825E+06    -121.871E+06    -2.91863E+06     1.18514E+06    -166.902E-03     331.121E-03    -164.219E-03     136.104E-03    -169.383E-03     332.915E-03    -163.949E-03     126.293E-03
             776     7.63922E-03     109.932E-03    -65.9367E+06    -91.4351E+06     10.8603E+06     1.53190E+06    -167.026E-03     331.223E-03    -164.197E-03     145.628E-03    -170.048E-03     333.655E-03    -163.914E-03     134.700E-03
             777     8.40361E-03     110.113E-03    -58.1589E+06    -57.2669E+06     24.5793E+06     1.79215E+06    -167.050E-03     331.217E-03    -164.168E-03     152.937E-03    -170.605E-03     334.291E-03    -163.877E-03     141.030E-03
             778     9.16794E-03     110.302E-03    -50.9825E+06    -18.8602E+06     38.2160E+06     1.99184E+06    -166.893E-03     331.025E-03    -164.133E-03     157.299E-03    -170.908E-03     334.682E-03    -163.841E-03     144.641E-03
             779     9.93222E-03     110.492E-03    -43.9363E+06     28.7361E+06     52.2475E+06     3.34766E+06    -166.440E-03     330.525E-03    -164.085E-03     157.803E-03    -170.774E-03     334.653E-03    -163.802E-03     144.719E-03
             780     10.6963E-03     110.680E-03    -37.1867E+06     65.0754E+06     62.8755E+06     4.60815E+06    -165.834E-03     329.867E-03    -164.034E-03     153.934E-03    -170.267E-03     334.217E-03    -163.760E-03     140.728E-03
             781     11.4618E-03     110.860E-03    -28.7691E+06     83.8173E+06     70.6005E+06     4.23831E+06    -165.011E-03     329.000E-03    -163.988E-03     145.339E-03    -169.298E-03     333.277E-03    -163.715E-03     132.254E-03
             782     12.2261E-03     111.027E-03    -20.8287E+06     99.1411E+06     83.2354E+06     4.58215E+06    -164.016E-03     327.982E-03    -163.966E-03     133.878E-03    -168.011E-03     332.014E-03    -163.664E-03     121.127E-03
             783     12.9913E-03     111.178E-03    -16.3008E+06     100.454E+06     92.6351E+06     1.64751E+06    -163.398E-03     327.353E-03    -163.955E-03     117.409E-03    -166.890E-03     330.875E-03    -163.614E-03     105.219E-03
             784     13.7546E-03     111.300E-03    -11.2915E+06     102.949E+06     96.9571E+06    -1.68659E+06    -163.087E-03     327.022E-03    -163.935E-03     102.542E-03    -166.187E-03     330.166E-03    -163.583E-03     90.6470E-03
             785     14.5215E-03     111.417E-03    -5.90068E+06     103.257E+06     94.4287E+06    -1.40042E+06    -162.429E-03     326.320E-03    -163.890E-03     69.0541E-03    -164.525E-03     328.487E-03    -163.559E-03     59.3740E-03
             786     763.610E-06     110.273E-03    -136.514E+06    -297.968E+06    -132.461E+06     197.777E+03    -164.288E-03     328.372E-03    -164.084E-03     19.5529E-03    -164.382E-03     327.308E-03    -164.117E-03     18.5020E-03
             787     1.52742E-03     110.307E-03    -131.801E+06    -289.168E+06    -119.627E+06    -152.122E+03    -164.408E-03     328.593E-03    -164.185E-03     35.8840E-03    -164.585E-03     327.622E-03    -164.173E-03     33.9347E-03
             788     2.29115E-03     110.362E-03    -124.696E+06    -274.606E+06    -101.675E+06    -36.5936E+03    -164.680E-03     328.908E-03    -164.228E-03     52.5365E-03    -164.997E-03     328.102E-03    -164.157E-03     49.6125E-03
             789     3.05505E-03     110.436E-03    -116.338E+06    -260.074E+06    -82.4056E+06     398.483E+03    -165.020E-03     329.286E-03    -164.266E-03     68.7418E-03    -165.529E-03     328.697E-03    -164.132E-03     64.7836E-03
             790     3.81892E-03     110.530E-03    -107.885E+06    -235.520E+06    -63.9937E+06     694.591E+03    -165.403E-03     329.679E-03    -164.277E-03     84.2996E-03    -166.179E-03     329.422E-03    -164.099E-03     79.2434E-03
             791     4.58298E-03     110.643E-03    -99.2480E+06    -204.440E+06    -46.9041E+06     390.331E+03    -165.858E-03     330.129E-03    -164.271E-03     98.9524E-03    -166.973E-03     330.302E-03    -164.065E-03     92.7380E-03
             792     5.34686E-03     110.772E-03    -90.7824E+06    -183.388E+06    -32.4897E+06     432.577E+03    -166.332E-03     330.605E-03    -164.273E-03     112.489E-03    -167.834E-03     331.229E-03    -164.038E-03     105.073E-03
             793     6.11070E-03     110.918E-03    -82.9225E+06    -156.799E+06    -18.3479E+06     962.561E+03    -166.671E-03     330.940E-03    -164.268E-03     124.851E-03    -168.633E-03     332.103E-03    -164.012E-03     116.225E-03
             794     6.87494E-03     111.076E-03    -74.9135E+06    -121.858E+06    -3.68118E+06     1.15456E+06    -166.899E-03     331.147E-03    -164.248E-03     135.992E-03    -169.382E-03     332.942E-03    -163.981E-03     126.180E-03
             795     7.63927E-03     111.248E-03    -67.2169E+06    -92.2518E+06     9.45588E+06     918.554E+03    -167.070E-03     331.295E-03    -164.225E-03     145.487E-03    -170.096E-03     333.727E-03    -163.946E-03     134.542E-03
             796     8.40326E-03     111.428E-03    -59.7456E+06    -58.5799E+06     22.8915E+06     1.44080E+06    -167.068E-03     331.265E-03    -164.197E-03     152.765E-03    -170.625E-03     334.335E-03    -163.911E-03     140.849E-03
             797     9.16764E-03     111.617E-03    -52.2059E+06    -19.4956E+06     37.0904E+06     2.00258E+06    -166.872E-03     331.034E-03    -164.162E-03     157.089E-03    -170.886E-03     334.686E-03    -163.873E-03     144.436E-03
             798     9.93196E-03     111.807E-03    -44.2728E+06     25.3250E+06     50.9352E+06     2.51882E+06    -166.507E-03     330.624E-03    -164.117E-03     157.605E-03    -170.834E-03     334.736E-03    -163.835E-03     144.500E-03
             799     10.6969E-03     111.995E-03    -35.3133E+06     63.7031E+06     62.9556E+06     3.65957E+06    -165.862E-03     329.931E-03    -164.068E-03     153.662E-03    -170.285E-03     334.272E-03    -163.795E-03     140.427E-03
             800     11.4604E-03     112.176E-03    -28.7463E+06     83.9577E+06     70.6055E+06     3.48691E+06    -164.936E-03     328.957E-03    -164.021E-03     145.095E-03    -169.221E-03     333.233E-03    -163.748E-03     132.004E-03
             801     12.2253E-03     112.341E-03    -21.5744E+06     98.0157E+06     82.6484E+06     2.40350E+06    -164.047E-03     328.045E-03    -163.997E-03     133.516E-03    -168.046E-03     332.075E-03    -163.695E-03     120.710E-03
             802     12.9908E-03     112.491E-03    -12.2558E+06     104.647E+06     96.0779E+06     3.46728E+06    -163.472E-03     327.466E-03    -163.994E-03     117.146E-03    -166.952E-03     330.996E-03    -163.648E-03     104.965E-03
             803     13.7555E-03     112.619E-03    -8.54347E+06     107.437E+06     100.781E+06     1.67230E+06    -162.869E-03     326.841E-03    -163.972E-03     102.330E-03    -165.963E-03     329.994E-03    -163.612E-03     90.5046E-03
             804     14.5178E-03     112.727E-03    -4.63822E+06     102.879E+06     96.6321E+06    -1.21594E+06    -161.987E-03     325.897E-03    -163.910E-03     69.0533E-03    -164.081E-03     328.060E-03    -163.570E-03     59.3968E-03
             805     763.754E-06     111.589E-03    -136.000E+06    -298.133E+06    -133.051E+06     33.1524E+03    -164.281E-03     328.438E-03    -164.156E-03     19.6783E-03    -164.372E-03     327.373E-03    -164.192E-03     18.6263E-03
             806     1.52747E-03     111.622E-03    -131.405E+06    -288.947E+06    -119.436E+06     311.218E+03    -164.415E-03     328.627E-03    -164.212E-03     35.9145E-03    -164.590E-03     327.656E-03    -164.199E-03     33.9762E-03
             807     2.29128E-03     111.677E-03    -125.136E+06    -274.763E+06    -101.561E+06     153.980E+03    -164.679E-03     328.926E-03    -164.247E-03     52.5233E-03    -164.997E-03     328.119E-03    -164.175E-03     49.6055E-03
             808     3.05503E-03     111.752E-03    -117.362E+06    -261.096E+06    -83.3838E+06     266.793E+03    -165.068E-03     329.351E-03    -164.283E-03     68.7106E-03    -165.579E-03     328.761E-03    -164.151E-03     64.7485E-03
             809     3.81888E-03     111.846E-03    -108.335E+06    -236.209E+06    -65.2535E+06     380.727E+03    -165.493E-03     329.795E-03    -164.302E-03     84.2748E-03    -166.269E-03     329.537E-03    -164.128E-03     79.2084E-03
             810     4.58269E-03     111.958E-03    -99.5467E+06    -204.352E+06    -47.6509E+06     689.385E+03    -165.925E-03     330.231E-03    -164.306E-03     98.9929E-03    -167.041E-03     330.406E-03    -164.103E-03     92.7800E-03
             811     5.34663E-03     112.088E-03    -91.5282E+06    -183.533E+06    -32.9786E+06     820.381E+03    -166.361E-03     330.673E-03    -164.312E-03     112.505E-03    -167.867E-03     331.298E-03    -164.078E-03     105.091E-03
             812     6.11077E-03     112.233E-03    -83.0837E+06    -157.356E+06    -18.9636E+06     690.255E+03    -166.722E-03     331.028E-03    -164.306E-03     124.807E-03    -168.684E-03     332.192E-03    -164.052E-03     116.167E-03
             813     6.87470E-03     112.392E-03    -74.8466E+06    -122.557E+06    -4.72416E+06     966.072E+03    -166.989E-03     331.276E-03    -164.288E-03     135.829E-03    -169.470E-03     333.071E-03    -164.025E-03     126.000E-03
             814     7.63859E-03     112.563E-03    -67.2127E+06    -92.3751E+06     8.90045E+06     1.27912E+06    -167.130E-03     331.402E-03    -164.271E-03     145.260E-03    -170.154E-03     333.833E-03    -163.995E-03     134.311E-03
             815     8.40294E-03     112.744E-03    -59.5573E+06    -59.5271E+06     22.3457E+06     1.23785E+06    -167.097E-03     331.343E-03    -164.246E-03     152.528E-03    -170.648E-03     334.407E-03    -163.961E-03     140.605E-03
             816     9.16708E-03     112.932E-03    -52.2063E+06    -21.5419E+06     36.0804E+06     2.09268E+06    -166.934E-03     331.146E-03    -164.212E-03     156.896E-03    -170.941E-03     334.787E-03    -163.924E-03     144.238E-03
             817     9.93154E-03     113.123E-03    -45.5362E+06     25.3790E+06     50.6378E+06     2.33470E+06    -166.568E-03     330.739E-03    -164.171E-03     157.348E-03    -170.898E-03     334.850E-03    -163.888E-03     144.235E-03
             818     10.6952E-03     113.311E-03    -39.0060E+06     62.6030E+06     61.1610E+06     874.350E+03    -165.774E-03     329.893E-03    -164.119E-03     153.208E-03    -170.208E-03     334.233E-03    -163.847E-03     139.930E-03
             819     11.4609E-03     113.490E-03    -29.6841E+06     83.6748E+06     69.5947E+06     936.823E+03    -164.842E-03     328.906E-03    -164.064E-03     144.640E-03    -169.126E-03     333.180E-03    -163.794E-03     131.511E-03
             820     12.2258E-03     113.656E-03    -21.5725E+06     98.0828E+06     82.5048E+06     1.56656E+06    -164.285E-03     328.331E-03    -164.046E-03     133.421E-03    -168.288E-03     332.366E-03    -163.744E-03     120.574E-03
             821     12.9887E-03     113.808E-03    -16.5435E+06     101.712E+06     93.0940E+06     984.329E+03    -163.416E-03     327.459E-03    -164.043E-03     117.129E-03    -166.914E-03     330.989E-03    -163.701E-03     104.903E-03
             822     13.7542E-03     113.930E-03    -7.38503E+06     109.954E+06     102.088E+06     2.74467E+06    -162.201E-03     326.207E-03    -164.005E-03     102.075E-03    -165.286E-03     329.360E-03    -163.643E-03     90.3197E-03
             823     14.5213E-03     114.046E-03    -1.04885E+06     106.334E+06     99.5355E+06     2.88318E+06    -161.917E-03     325.842E-03    -163.925E-03     68.2806E-03    -163.993E-03     328.002E-03    -163.580E-03     58.7093E-03
             824     763.686E-06     112.904E-03    -137.059E+06    -298.073E+06    -133.792E+06     94.3785E+03    -164.374E-03     328.521E-03    -164.147E-03     19.6016E-03    -164.468E-03     327.459E-03    -164.185E-03     18.5551E-03
             825     1.52732E-03     112.938E-03    -132.799E+06    -289.545E+06    -121.135E+06     155.757E+03    -164.440E-03     328.689E-03    -164.249E-03     35.7654E-03    -164.618E-03     327.719E-03    -164.242E-03     33.8297E-03
             826     2.29109E-03     112.992E-03    -125.836E+06    -274.931E+06    -102.370E+06     335.163E+03    -164.693E-03     328.974E-03    -164.281E-03     52.4400E-03    -165.013E-03     328.168E-03    -164.212E-03     49.5241E-03
             827     3.05492E-03     113.067E-03    -117.753E+06    -260.973E+06    -83.7792E+06     21.6847E+03    -165.126E-03     329.444E-03    -164.318E-03     68.6713E-03    -165.639E-03     328.855E-03    -164.188E-03     64.7034E-03
             828     3.81868E-03     113.161E-03    -109.205E+06    -236.689E+06    -66.4228E+06     49.7358E+03    -165.598E-03     329.942E-03    -164.344E-03     84.1847E-03    -166.376E-03     329.684E-03    -164.175E-03     79.1103E-03
             829     4.58257E-03     113.274E-03    -100.343E+06     -204.95E+06    -48.9309E+06     297.886E+03    -165.998E-03     330.354E-03    -164.357E-03     98.7976E-03    -167.114E-03     330.529E-03    -164.159E-03     92.5724E-03
             830     5.34650E-03     113.403E-03    -90.9764E+06    -183.896E+06    -33.6327E+06     423.072E+03    -166.396E-03     330.762E-03    -164.366E-03     112.248E-03    -167.897E-03     331.384E-03    -164.135E-03     104.822E-03
             831     6.11022E-03     113.548E-03    -82.7150E+06    -157.641E+06    -19.5439E+06     624.322E+03    -166.789E-03     331.150E-03    -164.361E-03     124.603E-03    -168.747E-03     332.312E-03    -164.111E-03     115.956E-03
             832     6.87419E-03     113.707E-03    -75.2761E+06    -123.415E+06    -5.44449E+06     941.007E+03    -167.078E-03     331.426E-03    -164.348E-03     135.673E-03    -169.560E-03     333.218E-03    -164.087E-03     125.830E-03
             833     7.63833E-03     113.879E-03    -67.4533E+06    -92.7900E+06     8.27802E+06     1.07434E+06    -167.203E-03     331.537E-03    -164.335E-03     145.067E-03    -170.225E-03     333.967E-03    -164.061E-03     134.104E-03
             834     8.40226E-03     114.059E-03    -59.9892E+06    -60.2539E+06     21.8385E+06     1.17738E+06    -167.211E-03     331.525E-03    -164.315E-03     152.280E-03    -170.762E-03     334.587E-03    -164.031E-03     140.338E-03
             835     9.16663E-03     114.247E-03    -52.3773E+06    -23.7513E+06     35.5894E+06     1.70897E+06    -167.088E-03     331.379E-03    -164.290E-03     156.545E-03    -171.092E-03     335.009E-03    -164.002E-03     143.858E-03
             836     9.93050E-03     114.438E-03    -44.0500E+06     25.0209E+06     50.5476E+06     2.48014E+06    -166.509E-03     330.755E-03    -164.247E-03     156.942E-03    -170.826E-03     334.859E-03    -163.966E-03     143.828E-03
             837     10.6955E-03     114.626E-03    -36.3501E+06     66.0820E+06     63.0911E+06     1.96376E+06    -165.740E-03     329.931E-03    -164.191E-03     152.749E-03    -170.163E-03     334.276E-03    -163.919E-03     139.487E-03
             838     11.4593E-03     114.804E-03    -31.3958E+06     84.8146E+06     69.3096E+06    -428.411E+03    -165.053E-03     329.192E-03    -164.139E-03     144.135E-03    -169.349E-03     333.476E-03    -163.870E-03     130.947E-03
             839     12.2234E-03     114.972E-03    -25.1631E+06     95.1323E+06     79.1589E+06    -878.500E+03    -164.081E-03     328.195E-03    -164.114E-03     132.997E-03    -168.090E-03     332.222E-03    -163.819E-03     120.116E-03
             840     12.9898E-03     115.122E-03    -16.4646E+06     101.896E+06     93.0817E+06     934.134E+03    -163.107E-03     327.207E-03    -164.100E-03     116.670E-03    -166.595E-03     330.728E-03    -163.759E-03     104.477E-03
             841     13.7540E-03     115.246E-03    -12.2374E+06     106.591E+06     97.4853E+06     627.507E+03    -162.440E-03     326.489E-03    -164.049E-03     100.992E-03    -165.539E-03     329.640E-03    -163.698E-03     89.1458E-03
             842     14.5185E-03     115.355E-03    -8.20078E+06     105.688E+06     92.9213E+06     2.30834E+06    -161.924E-03     325.890E-03    -163.966E-03     67.3851E-03    -164.026E-03     328.068E-03    -163.643E-03     57.7638E-03
             843     763.546E-06     114.220E-03    -137.949E+06    -298.693E+06    -134.478E+06     230.217E+03    -164.455E-03     328.667E-03    -164.212E-03     19.5072E-03    -164.552E-03     327.605E-03    -164.252E-03     18.4614E-03
             844     1.52729E-03     114.253E-03    -133.180E+06    -289.569E+06    -120.998E+06     172.247E+03    -164.486E-03     328.806E-03    -164.320E-03     35.7352E-03    -164.667E-03     327.837E-03    -164.312E-03     33.7941E-03
             845     2.29102E-03     114.308E-03    -126.206E+06    -275.059E+06    -103.423E+06     2.18014E+03    -164.795E-03     329.143E-03    -164.348E-03     52.3682E-03    -165.115E-03     328.338E-03    -164.283E-03     49.4429E-03
             846     3.05476E-03     114.383E-03    -117.883E+06    -260.472E+06    -84.0118E+06     10.9104E+03    -165.230E-03     329.626E-03    -164.397E-03     68.5478E-03    -165.743E-03     329.041E-03    -164.268E-03     64.5735E-03
             847     3.81842E-03     114.477E-03    -109.152E+06    -236.232E+06    -66.1896E+06    -457.914E+03    -165.677E-03     330.106E-03    -164.429E-03     84.0023E-03    -166.455E-03     329.850E-03    -164.259E-03     78.9147E-03
             848     4.58202E-03     114.589E-03    -100.004E+06    -204.885E+06    -49.7842E+06    -796.806E+03    -166.071E-03     330.508E-03    -164.437E-03     98.6322E-03    -167.185E-03     330.684E-03    -164.244E-03     92.3834E-03
             849     5.34576E-03     114.719E-03    -91.4330E+06    -184.905E+06    -35.2205E+06    -637.438E+03    -166.495E-03     330.941E-03    -164.446E-03     112.136E-03    -167.994E-03     331.562E-03    -164.222E-03     104.686E-03
             850     6.10987E-03     114.864E-03    -82.7859E+06    -158.838E+06    -20.6782E+06    -16.1654E+03    -166.881E-03     331.327E-03    -164.446E-03     124.437E-03    -168.835E-03     332.483E-03    -164.199E-03     115.774E-03
             851     6.87373E-03     115.023E-03    -74.0061E+06    -124.187E+06    -5.65875E+06     465.929E+03    -167.153E-03     331.589E-03    -164.436E-03     135.372E-03    -169.625E-03     333.374E-03    -164.177E-03     125.511E-03
             852     7.63752E-03     115.194E-03    -65.8329E+06    -93.2085E+06     8.34494E+06     759.833E+03    -167.348E-03     331.776E-03    -164.427E-03     144.620E-03    -170.360E-03     334.199E-03    -164.155E-03     133.633E-03
             853     8.40168E-03     115.375E-03    -57.9220E+06    -61.5953E+06     22.0138E+06     1.42857E+06    -167.432E-03     331.852E-03    -164.420E-03     151.797E-03    -170.970E-03     334.902E-03    -164.136E-03     139.829E-03
             854     9.16523E-03     115.563E-03    -50.4788E+06    -24.5306E+06     35.7831E+06     1.77714E+06    -167.142E-03     331.543E-03    -164.401E-03     156.046E-03    -171.134E-03     335.165E-03    -164.113E-03     143.337E-03
             855     9.92958E-03     115.754E-03    -43.1736E+06     24.6583E+06     50.2460E+06     1.18800E+06    -166.461E-03     330.813E-03    -164.352E-03     156.275E-03    -170.768E-03     334.908E-03    -164.074E-03     143.133E-03
             856     10.6939E-03     115.941E-03    -35.8470E+06     64.3345E+06     62.2516E+06     2.43758E+06    -165.755E-03     330.046E-03    -164.290E-03     152.231E-03    -170.166E-03     334.377E-03    -164.020E-03     138.965E-03
             857     11.4585E-03     116.122E-03    -29.1171E+06     87.7699E+06     71.8060E+06     3.53283E+06    -164.981E-03     329.220E-03    -164.239E-03     143.963E-03    -169.270E-03     333.509E-03    -163.965E-03     130.833E-03
             858     12.2234E-03     116.285E-03    -24.7767E+06     98.6781E+06     81.8853E+06     913.728E+03    -164.032E-03     328.240E-03    -164.208E-03     132.625E-03    -168.040E-03     332.273E-03    -163.905E-03     119.788E-03
             859     12.9872E-03     116.436E-03    -21.1192E+06     98.2824E+06     89.1107E+06    -245.180E+03    -162.960E-03     327.130E-03    -164.170E-03     116.083E-03    -166.450E-03     330.635E-03    -163.836E-03     103.893E-03
             860     13.7530E-03     116.560E-03    -13.3476E+06     106.471E+06     96.4536E+06     2.26786E+06    -162.085E-03     326.190E-03    -164.105E-03     101.612E-03    -165.181E-03     329.337E-03    -163.758E-03     89.8653E-03
             861     14.5162E-03     116.674E-03    -5.26507E+06     108.543E+06     95.3249E+06     1.16365E+06    -161.015E-03     325.005E-03    -163.990E-03     69.2915E-03    -163.115E-03     327.195E-03    -163.663E-03     59.7301E-03
             862     763.553E-06     115.535E-03    -138.495E+06    -298.426E+06    -135.581E+06    -437.048E+03    -164.449E-03     328.799E-03    -164.349E-03     19.3318E-03    -164.548E-03     327.740E-03    -164.394E-03     18.2762E-03
             863     1.52716E-03     115.569E-03    -133.905E+06    -289.672E+06    -122.745E+06    -262.865E+03    -164.629E-03     329.027E-03    -164.397E-03     35.7189E-03    -164.811E-03     328.061E-03    -164.397E-03     33.7672E-03
             864     2.29071E-03     115.623E-03    -127.103E+06    -274.392E+06    -104.329E+06    -336.688E+03    -164.974E-03     329.430E-03    -164.456E-03     52.2928E-03    -165.299E-03     328.632E-03    -164.395E-03     49.3547E-03
             865     3.05420E-03     115.699E-03    -118.675E+06    -259.924E+06    -85.3429E+06    -920.577E+03    -165.358E-03     329.874E-03    -164.516E-03     68.4802E-03    -165.875E-03     329.295E-03    -164.394E-03     64.4857E-03
             866     3.81782E-03     115.793E-03    -109.540E+06    -235.538E+06    -67.3116E+06    -1.25967E+06    -165.733E-03     330.278E-03    -164.544E-03     83.8962E-03    -166.513E-03     330.027E-03    -164.381E-03     78.7938E-03
             867     4.58169E-03     115.905E-03    -100.821E+06    -204.118E+06    -50.8661E+06    -1.53810E+06    -166.147E-03     330.692E-03    -164.545E-03     98.4534E-03    -167.264E-03     330.874E-03    -164.358E-03     92.1892E-03
             868     5.34555E-03     116.035E-03    -92.0299E+06    -184.401E+06    -36.1676E+06    -1.78554E+06    -166.644E-03     331.201E-03    -164.557E-03     111.919E-03    -168.145E-03     331.826E-03    -164.337E-03     104.440E-03
             869     6.10892E-03     116.180E-03    -83.2839E+06    -160.097E+06    -22.3645E+06    -2.13653E+06    -167.065E-03     331.630E-03    -164.565E-03     124.146E-03    -169.017E-03     332.783E-03    -164.324E-03     115.432E-03
             870     6.87272E-03     116.339E-03    -74.5585E+06    -125.756E+06    -7.76605E+06    -1.56025E+06    -167.346E-03     331.910E-03    -164.564E-03     134.947E-03    -169.814E-03     333.689E-03    -164.312E-03     125.037E-03
             871     7.63663E-03     116.510E-03    -65.9553E+06    -94.6156E+06     6.86512E+06    -557.088E+03    -167.549E-03     332.117E-03    -164.568E-03     144.146E-03    -170.556E-03     334.534E-03    -164.301E-03     133.113E-03
             872     8.39998E-03     116.691E-03    -58.0438E+06    -64.2165E+06     20.1495E+06     565.227E+03    -167.508E-03     332.072E-03    -164.563E-03     151.356E-03    -171.038E-03     335.109E-03    -164.285E-03     139.359E-03
             873     9.16415E-03     116.879E-03    -50.6785E+06    -25.1839E+06     34.5552E+06     1.61547E+06    -167.084E-03     331.621E-03    -164.537E-03     155.494E-03    -171.067E-03     335.235E-03    -164.254E-03     142.786E-03
             874     9.92834E-03     117.069E-03    -44.2913E+06     24.4546E+06     49.3617E+06     2.42122E+06    -166.489E-03     330.970E-03    -164.481E-03     155.921E-03    -170.793E-03     335.061E-03    -164.205E-03     142.794E-03
             875     10.6924E-03     117.257E-03    -38.4970E+06     62.2906E+06     60.1400E+06     2.21175E+06    -165.716E-03     330.127E-03    -164.411E-03     152.030E-03    -170.131E-03     334.451E-03    -164.144E-03     138.760E-03
             876     11.4572E-03     117.435E-03    -31.2584E+06     86.8997E+06     69.3235E+06     2.33039E+06    -164.711E-03     329.049E-03    -164.338E-03     143.516E-03    -168.993E-03     333.328E-03    -164.072E-03     130.406E-03
             877     12.2219E-03     117.602E-03    -23.5996E+06     100.137E+06     80.9464E+06     4.46298E+06    -163.687E-03     327.969E-03    -164.282E-03     132.274E-03    -167.679E-03     331.998E-03    -163.988E-03     119.519E-03
             878     12.9870E-03     117.751E-03    -17.8563E+06     101.826E+06     91.9558E+06     3.18654E+06    -162.507E-03     326.734E-03    -164.227E-03     116.682E-03    -165.983E-03     330.241E-03    -163.889E-03     104.616E-03
             879     13.7517E-03     117.875E-03    -12.3700E+06     107.309E+06     97.8819E+06    -318.675E+03    -160.970E-03     325.083E-03    -164.113E-03     102.147E-03    -164.050E-03     328.216E-03    -163.762E-03     90.5000E-03
             880     14.5218E-03     117.984E-03    -5.45596E+06     107.490E+06     95.6887E+06    -1.75857E+06    -160.518E-03     324.471E-03    -163.953E-03     68.5570E-03    -162.606E-03     326.644E-03    -163.622E-03     59.0053E-03
             881     763.528E-06     116.851E-03    -139.426E+06    -297.982E+06    -135.489E+06     109.440E+03    -164.571E-03     329.063E-03    -164.492E-03     19.2808E-03    -164.674E-03     328.007E-03    -164.535E-03     18.2383E-03
             882     1.52696E-03     116.885E-03    -134.770E+06    -288.616E+06    -123.083E+06    -688.134E+03    -164.822E-03     329.365E-03    -164.543E-03     35.6540E-03    -165.009E-03     328.406E-03    -164.545E-03     33.6921E-03
             883     2.29036E-03     116.940E-03    -127.867E+06    -272.895E+06    -106.264E+06    -1.52366E+06    -165.118E-03     329.722E-03    -164.604E-03     52.2459E-03    -165.446E-03     328.935E-03    -164.554E-03     49.2886E-03
             884     3.05386E-03     117.015E-03    -119.676E+06    -258.821E+06    -87.4548E+06    -1.97503E+06    -165.474E-03     330.133E-03    -164.659E-03     68.3744E-03    -165.994E-03     329.563E-03    -164.548E-03     64.3598E-03
             885     3.81742E-03     117.109E-03    -110.969E+06    -234.437E+06    -69.2553E+06    -2.20699E+06    -165.886E-03     330.572E-03    -164.687E-03     83.7271E-03    -166.671E-03     330.332E-03    -164.532E-03     78.6013E-03
             886     4.58088E-03     117.221E-03    -101.901E+06    -202.736E+06    -52.4075E+06    -2.80990E+06    -166.349E-03     331.045E-03    -164.696E-03     98.1630E-03    -167.470E-03     331.237E-03    -164.517E-03     91.8650E-03
             887     5.34428E-03     117.351E-03    -92.9993E+06    -184.108E+06    -37.9106E+06    -3.35594E+06    -166.832E-03     331.549E-03    -164.718E-03     111.563E-03    -168.335E-03     332.179E-03    -164.506E-03     104.039E-03
             888     6.10813E-03     117.496E-03    -84.8524E+06    -159.169E+06    -23.9338E+06    -3.43224E+06    -167.275E-03     332.010E-03    -164.734E-03     123.771E-03    -169.233E-03     333.170E-03    -164.500E-03     115.021E-03
             889     6.87150E-03     117.656E-03    -77.0108E+06    -126.487E+06    -10.2037E+06    -3.65920E+06    -167.589E-03     332.332E-03    -164.742E-03     134.563E-03    -170.064E-03     334.114E-03    -164.498E-03     124.598E-03
             890     7.63477E-03     117.827E-03    -69.1446E+06    -98.1418E+06     2.79772E+06    -2.65586E+06    -167.673E-03     332.421E-03    -164.748E-03     143.793E-03    -170.683E-03     334.829E-03    -164.491E-03     132.714E-03
             891     8.39877E-03     118.008E-03    -61.2626E+06    -65.8029E+06     16.8193E+06    -1.43472E+06    -167.479E-03     332.214E-03    -164.736E-03     150.851E-03    -171.009E-03     335.245E-03    -164.467E-03     138.830E-03
             892     9.16257E-03     118.195E-03    -52.9165E+06    -27.6706E+06     31.7707E+06    -264.486E+03    -167.047E-03     331.746E-03    -164.699E-03     154.894E-03    -171.023E-03     335.343E-03    -164.423E-03     142.163E-03
             893     9.92661E-03     118.385E-03    -44.2308E+06     20.3328E+06     47.5315E+06     2.10089E+06    -166.371E-03     331.002E-03    -164.631E-03     155.390E-03    -170.657E-03     335.065E-03    -164.359E-03     142.265E-03
             894     10.6915E-03     118.572E-03    -36.7420E+06     62.3858E+06     60.2023E+06     4.24832E+06    -165.509E-03     330.050E-03    -164.541E-03     151.538E-03    -169.903E-03     334.360E-03    -164.277E-03     138.322E-03
             895     11.4556E-03     118.752E-03    -32.4088E+06     88.0501E+06     68.1133E+06     4.11368E+06    -164.351E-03     328.790E-03    -164.439E-03     143.333E-03    -168.628E-03     333.067E-03    -164.179E-03     130.286E-03
             896     12.2208E-03     118.915E-03    -27.2177E+06     98.1681E+06     77.6217E+06     1.90532E+06    -163.027E-03     327.369E-03    -164.342E-03     132.333E-03    -167.021E-03     331.390E-03    -164.057E-03     119.603E-03
             897     12.9871E-03     119.065E-03    -17.5865E+06     103.709E+06     91.0801E+06     1.91944E+06    -161.644E-03     325.885E-03    -164.241E-03     115.893E-03    -165.113E-03     329.396E-03    -163.910E-03     103.842E-03
             898     13.7544E-03     119.187E-03    -9.87394E+06     112.653E+06     101.297E+06    -319.412E+03    -160.892E-03     325.008E-03    -164.116E-03     100.855E-03    -163.975E-03     328.162E-03    -163.758E-03     89.1484E-03
             899     14.5171E-03     119.296E-03    -4.86974E+06      107.18E+06     98.5943E+06    -2.34174E+06    -160.859E-03     324.833E-03    -163.974E-03     67.9880E-03    -162.952E-03     327.004E-03    -163.629E-03     58.3798E-03
             900     763.298E-06     118.168E-03    -139.625E+06    -298.051E+06    -137.084E+06    -81.9881E+03    -164.880E-03     329.511E-03    -164.631E-03     19.3381E-03    -164.982E-03     328.457E-03    -164.682E-03     18.2863E-03
             901     1.52652E-03     118.202E-03    -135.349E+06    -286.367E+06    -124.234E+06    -715.390E+03    -164.985E-03     329.735E-03    -164.750E-03     35.6168E-03    -165.176E-03     328.789E-03    -164.760E-03     33.6540E-03
             902     2.28987E-03     118.256E-03    -128.959E+06    -270.100E+06    -107.486E+06    -2.05249E+06    -165.267E-03     330.060E-03    -164.792E-03     52.1758E-03    -165.603E-03     329.290E-03    -164.751E-03     49.2074E-03
             903     3.05322E-03     118.331E-03    -120.828E+06    -256.717E+06    -88.9152E+06    -3.21042E+06    -165.666E-03     330.510E-03    -164.844E-03     68.1651E-03    -166.193E-03     329.954E-03    -164.741E-03     64.1219E-03
             904     3.81657E-03     118.426E-03    -111.840E+06    -232.960E+06    -71.1069E+06    -3.76018E+06    -166.133E-03     331.011E-03    -164.878E-03     83.5239E-03    -166.922E-03     330.782E-03    -164.734E-03     78.3582E-03
             905     4.57992E-03     118.538E-03    -103.161E+06    -201.369E+06    -54.5607E+06    -4.10307E+06    -166.614E-03     331.514E-03    -164.899E-03     97.9479E-03    -167.741E-03     331.718E-03    -164.730E-03     91.6114E-03
             906     5.34338E-03     118.668E-03    -94.7907E+06    -183.062E+06    -39.9648E+06    -4.74838E+06    -167.130E-03     332.065E-03    -164.936E-03     111.260E-03    -168.640E-03     332.706E-03    -164.733E-03     103.694E-03
             907     6.10642E-03     118.813E-03    -86.1096E+06    -158.245E+06    -25.9740E+06    -4.98029E+06    -167.520E-03     332.481E-03    -164.962E-03     123.347E-03    -169.480E-03     333.650E-03    -164.737E-03     114.552E-03
             908     6.86979E-03     118.973E-03    -77.6651E+06    -125.985E+06    -11.8515E+06    -5.07476E+06    -167.709E-03     332.680E-03    -164.970E-03     134.111E-03    -170.183E-03     334.464E-03    -164.734E-03     124.109E-03
             909     7.63338E-03     119.144E-03    -69.2359E+06    -99.8106E+06     978.602E+03    -4.78515E+06    -167.727E-03     332.693E-03    -164.966E-03     143.276E-03    -170.727E-03     335.090E-03    -164.716E-03     132.156E-03
             910     8.39675E-03     119.324E-03    -60.4297E+06    -67.8478E+06     14.9677E+06    -3.38066E+06    -167.476E-03     332.415E-03    -164.939E-03     150.279E-03    -170.989E-03     335.430E-03    -164.678E-03     138.225E-03
             911     9.16067E-03     119.511E-03    -52.4930E+06    -30.9388E+06     29.3171E+06    -1.99048E+06    -167.004E-03     331.890E-03    -164.885E-03     154.398E-03    -170.964E-03     335.468E-03    -164.618E-03     141.635E-03
             912     9.92504E-03     119.700E-03    -45.6390E+06     13.8638E+06     43.4911E+06     588.808E+03    -166.244E-03     331.043E-03    -164.799E-03     154.801E-03    -170.513E-03     335.073E-03    -164.535E-03     141.659E-03
             913     10.6892E-03     119.888E-03    -38.8276E+06     58.0970E+06     56.7559E+06     4.07608E+06    -165.104E-03     329.786E-03    -164.682E-03     150.918E-03    -169.482E-03     334.068E-03    -164.426E-03     137.733E-03
             914     11.4549E-03     120.065E-03    -30.2890E+06     89.5772E+06     67.8744E+06     5.11584E+06    -163.794E-03     328.336E-03    -164.543E-03     142.364E-03    -168.046E-03     332.602E-03    -164.289E-03     129.363E-03
             915     12.2209E-03     120.229E-03    -22.9128E+06     103.186E+06     80.8782E+06     3.32589E+06    -162.571E-03     326.992E-03    -164.421E-03     131.054E-03    -166.533E-03     331.004E-03    -164.133E-03     118.390E-03
             916     12.9861E-03     120.378E-03    -18.3704E+06     106.919E+06     92.5991E+06    -1.68124E+06    -161.497E-03     325.801E-03    -164.304E-03     114.438E-03    -164.964E-03     329.314E-03    -163.969E-03     102.330E-03
             917     13.7518E-03     120.498E-03    -9.98104E+06     113.360E+06     101.121E+06    -2.22011E+06    -160.820E-03     324.988E-03    -164.168E-03     100.132E-03    -163.898E-03     328.140E-03    -163.812E-03     88.3858E-03
             918     14.5197E-03     120.613E-03    -3.19895E+06     106.331E+06     98.7517E+06     337.929E+03    -160.409E-03     324.420E-03    -164.012E-03     67.8567E-03    -162.483E-03     326.574E-03    -163.667E-03     58.3359E-03
             919     763.028E-06     119.485E-03    -141.285E+06    -297.173E+06    -138.402E+06    -270.225E+03    -165.136E-03     330.030E-03    -164.894E-03     19.2959E-03    -165.246E-03     328.985E-03    -164.950E-03     18.2375E-03
             920     1.52628E-03     119.519E-03    -137.303E+06    -283.390E+06    -126.397E+06    -1.37414E+06    -165.194E-03     330.190E-03    -164.995E-03     35.5236E-03    -165.397E-03     329.265E-03    -165.017E-03     33.5467E-03
             921     2.28941E-03     119.574E-03    -130.381E+06    -266.459E+06    -108.897E+06    -2.82917E+06    -165.487E-03     330.516E-03    -165.029E-03     52.0247E-03    -165.833E-03     329.769E-03    -164.998E-03     49.0321E-03
             922     3.05254E-03     119.648E-03    -122.328E+06    -253.704E+06    -90.2695E+06    -3.84966E+06    -165.948E-03     331.034E-03    -165.086E-03     68.0079E-03    -166.485E-03     330.497E-03    -164.992E-03     63.9443E-03
             923     3.81561E-03     119.743E-03    -114.089E+06    -230.428E+06    -72.9814E+06    -5.08977E+06    -166.448E-03     331.581E-03    -165.133E-03     83.2857E-03    -167.249E-03     331.371E-03    -164.998E-03     78.0854E-03
             924     4.57874E-03     119.856E-03    -105.127E+06    -199.015E+06    -56.8460E+06    -6.28143E+06    -166.923E-03     332.088E-03    -165.165E-03     97.5822E-03    -168.059E-03     332.309E-03    -165.008E-03     91.1929E-03
             925     5.34164E-03     119.986E-03    -95.4771E+06    -181.000E+06    -41.9139E+06    -6.86360E+06    -167.410E-03     332.619E-03    -165.209E-03     110.903E-03    -168.922E-03     333.272E-03    -165.018E-03     103.288E-03
             926     6.10470E-03     120.131E-03    -86.6706E+06    -157.652E+06    -28.0095E+06    -7.13988E+06    -167.732E-03     332.968E-03    -165.236E-03     123.050E-03    -169.694E-03     334.143E-03    -165.022E-03     114.196E-03
             927     6.86788E-03     120.290E-03    -78.3281E+06    -125.275E+06    -13.7319E+06    -6.92968E+06    -167.829E-03     333.065E-03    -165.236E-03     133.726E-03    -170.301E-03     334.854E-03    -165.009E-03     123.679E-03
             928     7.63111E-03     120.461E-03    -70.4446E+06    -99.3951E+06    -751.961E+03    -7.05020E+06    -167.736E-03     332.953E-03    -165.218E-03     142.731E-03    -170.734E-03     335.351E-03    -164.975E-03     131.569E-03
             929     8.39487E-03     120.641E-03    -62.7244E+06    -70.5051E+06     11.6706E+06    -6.54588E+06    -167.445E-03     332.614E-03    -165.169E-03     149.691E-03    -170.955E-03     335.617E-03    -164.917E-03     137.581E-03
             930     9.15890E-03     120.828E-03    -54.6720E+06    -35.6533E+06     25.3075E+06    -4.11142E+06    -166.938E-03     332.033E-03    -165.095E-03     153.739E-03    -170.885E-03     335.587E-03    -164.838E-03     140.946E-03
             931     9.92281E-03     121.017E-03    -46.5362E+06     6.92027E+06     39.5934E+06    -614.530E+03    -166.063E-03     331.052E-03    -164.989E-03     153.960E-03    -170.307E-03     335.040E-03    -164.734E-03     140.811E-03
             932     10.6880E-03     121.202E-03    -37.3689E+06     54.1544E+06     55.5005E+06     1.19926E+06    -164.832E-03     329.684E-03    -164.852E-03     149.855E-03    -169.180E-03     333.930E-03    -164.599E-03     136.645E-03
             933     11.4530E-03     121.380E-03    -28.4067E+06     87.9592E+06     66.9075E+06     1.70047E+06    -163.461E-03     328.145E-03    -164.684E-03     141.200E-03    -167.683E-03     332.385E-03    -164.436E-03     128.177E-03
             934     12.2182E-03     121.543E-03    -19.4225E+06     105.552E+06     81.1102E+06     2.12588E+06    -162.187E-03     326.720E-03    -164.533E-03     129.913E-03    -166.124E-03     330.728E-03    -164.253E-03     117.242E-03
             935     12.9854E-03     121.690E-03    -11.2927E+06     114.446E+06     98.6744E+06     1.92540E+06    -161.347E-03     325.759E-03    -164.412E-03     114.092E-03    -164.794E-03     329.286E-03    -164.068E-03     102.048E-03
             936     13.7509E-03     121.813E-03    -10.2390E+06     111.741E+06     100.628E+06    -370.416E+03    -160.532E-03     324.782E-03    -164.250E-03     99.6578E-03    -163.601E-03     327.920E-03    -163.894E-03     87.9688E-03
             937     14.5168E-03     121.920E-03    -6.53051E+06     103.208E+06     94.5457E+06    -356.620E+03    -159.313E-03     323.356E-03    -164.043E-03     66.9456E-03    -161.385E-03     325.498E-03    -163.711E-03     57.4567E-03
             938     762.919E-06     120.803E-03    -143.074E+06    -296.404E+06    -139.491E+06    -24.1325E+03    -165.461E-03     330.677E-03    -165.216E-03     19.1714E-03    -165.579E-03     329.641E-03    -165.277E-03     18.1097E-03
             939     1.52565E-03     120.837E-03    -138.291E+06    -279.198E+06    -127.190E+06    -1.61240E+06    -165.516E-03     330.835E-03    -165.319E-03     35.3036E-03    -165.728E-03     329.934E-03    -165.349E-03     33.3135E-03
             940     2.28858E-03     120.891E-03    -132.223E+06    -262.130E+06    -110.438E+06    -3.42078E+06    -165.790E-03     331.140E-03    -165.350E-03     51.7528E-03    -166.148E-03     330.419E-03    -165.331E-03     48.7471E-03
             941     3.05155E-03     120.967E-03    -124.091E+06    -249.575E+06    -91.7923E+06    -5.22629E+06    -166.278E-03     331.687E-03    -165.408E-03     67.7753E-03    -166.827E-03     331.175E-03    -165.326E-03     63.6800E-03
             942     3.81431E-03     121.061E-03    -114.346E+06    -225.997E+06    -73.9951E+06    -6.90382E+06    -166.798E-03     332.259E-03    -165.462E-03     82.9798E-03    -167.605E-03     332.073E-03    -165.338E-03     77.7319E-03
             943     4.57698E-03     121.174E-03    -105.232E+06    -195.516E+06    -57.9349E+06    -7.88901E+06    -167.229E-03     332.726E-03    -165.497E-03     97.3501E-03    -168.371E-03     332.968E-03    -165.350E-03     90.9107E-03
             944     5.33986E-03     121.304E-03    -97.3762E+06    -177.938E+06    -43.9320E+06    -9.02501E+06    -167.613E-03     333.144E-03    -165.531E-03     110.656E-03    -169.137E-03     333.818E-03    -165.352E-03     102.985E-03
             945     6.10286E-03     121.449E-03    -88.6803E+06    -156.029E+06    -30.2205E+06    -10.1208E+06    -167.885E-03     333.429E-03    -165.544E-03     122.677E-03    -169.854E-03     334.617E-03    -165.341E-03     113.764E-03
             946     6.86578E-03     121.608E-03    -79.6479E+06    -126.262E+06    -16.3218E+06    -9.49213E+06    -167.964E-03     333.494E-03    -165.530E-03     133.237E-03    -170.434E-03     335.281E-03    -165.314E-03     123.134E-03
             947     7.62911E-03     121.778E-03    -71.1583E+06    -98.0330E+06    -2.43299E+06    -8.87214E+06    -167.835E-03     333.334E-03    -165.499E-03     142.063E-03    -170.831E-03     335.736E-03    -165.266E-03     130.857E-03
             948     8.39263E-03     121.958E-03    -62.8797E+06    -70.9296E+06     10.2649E+06    -9.19074E+06    -167.514E-03     332.955E-03    -165.441E-03     148.771E-03    -171.013E-03     335.950E-03    -165.196E-03     136.602E-03
             949     9.15623E-03     122.144E-03    -54.1179E+06    -40.9917E+06     22.7557E+06    -7.47764E+06    -166.864E-03     332.216E-03    -165.352E-03     152.609E-03    -170.782E-03     335.731E-03    -165.101E-03     139.766E-03
             950     9.92089E-03     122.332E-03    -43.9561E+06     1.71056E+06     37.7293E+06    -5.36418E+06    -165.859E-03     331.081E-03    -165.222E-03     152.702E-03    -170.059E-03     335.021E-03    -164.972E-03     139.504E-03
             951     10.6853E-03     122.517E-03    -34.3944E+06     48.7445E+06     53.6958E+06    -2.56822E+06    -164.505E-03     329.560E-03    -165.056E-03     148.608E-03    -168.807E-03     333.758E-03    -164.808E-03     135.371E-03
             952     11.4508E-03     122.694E-03    -26.8877E+06     85.4473E+06     65.7037E+06     359.377E+03    -163.023E-03     327.876E-03    -164.853E-03     140.355E-03    -167.212E-03     332.082E-03    -164.610E-03     127.364E-03
             953     12.2177E-03     122.855E-03    -21.6738E+06     105.516E+06     78.8387E+06     1.04466E+06    -161.833E-03     326.498E-03    -164.666E-03     129.444E-03    -165.764E-03     330.499E-03    -164.393E-03     116.803E-03
             954     12.9828E-03     123.003E-03    -17.6542E+06     110.823E+06     92.1460E+06     1.94567E+06    -160.619E-03     325.114E-03    -164.496E-03     113.946E-03    -164.066E-03     328.625E-03    -164.170E-03     101.981E-03
             955     13.7504E-03     123.125E-03    -9.88951E+06     114.623E+06     102.231E+06     5.00747E+06    -159.341E-03     323.637E-03    -164.296E-03     100.186E-03    -162.402E-03     326.773E-03    -163.936E-03     88.7087E-03
             956     14.5168E-03     123.234E-03    -5.25485E+06     108.049E+06     98.9047E+06     1.61096E+06    -158.350E-03     322.387E-03    -164.037E-03     68.2367E-03    -160.435E-03     324.550E-03    -163.691E-03     58.8474E-03
             957     762.435E-06     122.121E-03    -142.870E+06    -294.783E+06    -141.144E+06    -771.143E+03    -165.898E-03     331.492E-03    -165.593E-03     19.0805E-03    -166.016E-03     330.465E-03    -165.664E-03     18.0032E-03
             958     1.52509E-03     122.156E-03    -139.353E+06    -275.689E+06    -129.323E+06    -1.50146E+06    -165.908E-03     331.624E-03    -165.715E-03     35.1530E-03    -166.127E-03     330.744E-03    -165.760E-03     33.1596E-03
             959     2.28767E-03     122.210E-03    -132.775E+06    -255.692E+06    -111.061E+06    -3.62438E+06    -166.219E-03     331.972E-03    -165.752E-03     51.6159E-03    -166.589E-03     331.284E-03    -165.744E-03     48.5933E-03
             960     3.05017E-03     122.286E-03    -124.257E+06    -241.735E+06    -92.4062E+06    -7.60056E+06    -166.671E-03     332.483E-03    -165.813E-03     67.6459E-03    -167.232E-03     332.013E-03    -165.744E-03     63.4947E-03
             961     3.81267E-03     122.380E-03    -115.210E+06    -221.944E+06    -75.8894E+06    -9.70363E+06    -167.091E-03     332.947E-03    -165.856E-03     82.7642E-03    -167.906E-03     332.785E-03    -165.746E-03     77.4570E-03
             962     4.57535E-03     122.493E-03    -106.002E+06    -193.410E+06    -59.4742E+06    -9.51299E+06    -167.506E-03     333.384E-03    -165.878E-03     97.0594E-03    -168.651E-03     333.639E-03    -165.742E-03     90.5737E-03
             963     5.33797E-03     122.623E-03    -96.5694E+06    -171.889E+06    -43.6571E+06    -10.6322E+06    -167.902E-03     333.805E-03    -165.903E-03     110.146E-03    -169.430E-03     334.507E-03    -165.732E-03     102.422E-03
             964     6.10050E-03     122.768E-03    -87.9642E+06    -153.233E+06    -30.3841E+06    -12.3660E+06    -168.102E-03     334.012E-03    -165.910E-03     121.955E-03    -170.067E-03     335.208E-03    -165.712E-03     112.984E-03
             965     6.86351E-03     122.927E-03    -79.5888E+06    -127.033E+06    -17.9550E+06    -12.5928E+06    -168.128E-03     334.009E-03    -165.882E-03     132.332E-03    -170.586E-03     335.787E-03    -165.672E-03     122.162E-03
             966     7.62653E-03     123.097E-03    -70.1483E+06    -96.1809E+06    -4.15910E+06    -12.6413E+06    -167.990E-03     333.823E-03    -165.833E-03     140.991E-03    -170.969E-03     336.223E-03    -165.612E-03     129.711E-03
             967     8.38962E-03     123.276E-03    -61.0845E+06    -71.8989E+06      8.7116E+06    -11.9185E+06    -167.543E-03     333.307E-03    -165.764E-03     147.674E-03    -171.014E-03     336.281E-03    -165.528E-03     135.459E-03
             968     9.15355E-03     123.461E-03    -53.0099E+06    -43.0499E+06     21.1208E+06    -11.0201E+06    -166.698E-03     332.349E-03    -165.651E-03     151.562E-03    -170.590E-03     335.839E-03    -165.406E-03     138.676E-03
             969     9.91750E-03     123.648E-03    -46.0668E+06    -1.58281E+06     34.1294E+06    -9.74528E+06    -165.442E-03     330.920E-03    -165.477E-03     151.928E-03    -169.621E-03     334.830E-03    -165.238E-03     138.719E-03
             970     10.6829E-03     123.832E-03    -39.6220E+06     40.4380E+06     47.6187E+06    -6.24579E+06    -163.974E-03     329.235E-03    -165.261E-03     148.055E-03    -168.255E-03     333.380E-03    -165.024E-03     134.850E-03
             971     11.4491E-03     124.006E-03    -32.6575E+06     80.5515E+06     59.3005E+06    -1.62723E+06    -162.545E-03     327.552E-03    -165.006E-03     139.872E-03    -166.722E-03     331.726E-03    -164.779E-03     126.931E-03
             972     12.2147E-03     124.169E-03    -25.9120E+06     103.221E+06     72.6326E+06     1.33369E+06    -161.080E-03     325.845E-03    -164.765E-03     129.270E-03    -164.998E-03     329.828E-03    -164.514E-03     116.726E-03
             973     12.9827E-03     124.314E-03    -18.6886E+06     109.256E+06     89.8650E+06     2.78421E+06    -159.427E-03     323.971E-03    -164.544E-03     114.155E-03    -162.851E-03     327.456E-03    -164.226E-03     102.353E-03
             974     13.7500E-03     124.435E-03    -12.0210E+06     114.307E+06     100.698E+06     1.54497E+06    -157.870E-03     322.139E-03    -164.269E-03     100.155E-03    -160.921E-03     325.261E-03    -163.913E-03     88.7611E-03
             975     14.5212E-03     124.541E-03    -4.58522E+06     109.296E+06     98.6737E+06     311.699E+03    -157.565E-03     321.515E-03    -163.951E-03     67.8706E-03    -159.638E-03     323.674E-03    -163.609E-03     58.5269E-03
             976     762.220E-06     123.442E-03    -140.246E+06    -290.759E+06    -138.306E+06    -2.41661E+06    -166.395E-03     332.431E-03    -166.037E-03     19.0950E-03    -166.509E-03     331.417E-03    -166.103E-03     17.9885E-03
             977     1.52435E-03     123.475E-03    -135.844E+06    -272.312E+06    -128.195E+06    -2.64670E+06    -166.413E-03     332.597E-03    -166.184E-03     34.9897E-03    -166.621E-03     331.728E-03    -166.233E-03     32.9638E-03
             978     2.28657E-03     123.530E-03    -129.483E+06    -247.634E+06    -112.210E+06    -5.01289E+06    -166.709E-03     332.919E-03    -166.211E-03     51.5039E-03    -167.072E-03     332.270E-03    -166.225E-03     48.4400E-03
             979     3.04871E-03     123.606E-03    -122.051E+06    -231.957E+06    -91.9800E+06    -8.50963E+06    -167.078E-03     333.350E-03    -166.272E-03     67.4450E-03    -167.643E-03     332.925E-03    -166.219E-03     63.2613E-03
             980     3.81099E-03     123.700E-03    -114.175E+06    -216.932E+06    -74.0714E+06    -11.0245E+06    -167.498E-03     333.819E-03    -166.321E-03     82.4393E-03    -168.318E-03     333.678E-03    -166.211E-03     77.0851E-03
             981     4.57324E-03     123.813E-03    -105.354E+06    -190.795E+06    -59.5361E+06    -12.0777E+06    -167.909E-03     334.243E-03    -166.333E-03     96.5292E-03    -169.054E-03     334.509E-03    -166.202E-03     89.9764E-03
             982     5.33543E-03     123.943E-03    -96.0748E+06    -165.090E+06    -44.9085E+06    -13.6313E+06    -168.210E-03     334.548E-03    -166.338E-03     109.483E-03    -169.740E-03     335.281E-03    -166.184E-03     101.693E-03
             983     6.09791E-03     124.088E-03    -86.7294E+06    -149.500E+06    -31.1340E+06    -15.0460E+06    -168.403E-03     334.742E-03    -166.339E-03     121.116E-03    -170.360E-03     335.951E-03    -166.152E-03     112.076E-03
             984     6.86036E-03     124.246E-03    -77.6823E+06    -124.999E+06    -18.6928E+06    -15.6479E+06    -168.330E-03     334.629E-03    -166.299E-03     131.446E-03    -170.771E-03     336.405E-03    -166.099E-03     121.214E-03
             985     7.62308E-03     124.416E-03    -70.3398E+06    -94.5982E+06    -6.61978E+06    -15.3717E+06    -167.953E-03     334.170E-03    -166.217E-03     140.230E-03    -170.916E-03     336.567E-03    -166.011E-03     128.921E-03
             986     8.38661E-03     124.594E-03    -63.4598E+06    -72.2637E+06     5.14760E+06    -15.0722E+06    -167.313E-03     333.420E-03    -166.106E-03     146.978E-03    -170.771E-03     336.380E-03    -165.884E-03     134.756E-03
             987     9.15029E-03     124.778E-03    -56.1807E+06    -44.0766E+06     17.8475E+06    -14.1103E+06    -166.264E-03     332.207E-03    -165.943E-03     150.977E-03    -170.138E-03     335.674E-03    -165.709E-03     138.117E-03
             988     9.91542E-03     124.964E-03    -48.7316E+06    -4.89262E+06     31.1740E+06    -11.7447E+06    -164.855E-03     330.569E-03    -165.714E-03     151.309E-03    -169.006E-03     334.439E-03    -165.480E-03     138.165E-03
             989     10.6813E-03     125.146E-03    -40.7746E+06     33.9594E+06     44.2262E+06    -8.58765E+06    -163.407E-03     328.846E-03    -165.439E-03     147.609E-03    -167.642E-03     332.929E-03    -165.208E-03     134.487E-03
             990     11.4470E-03     125.320E-03    -33.0381E+06     71.6613E+06     54.7959E+06    -4.34855E+06    -161.782E-03     326.905E-03    -165.123E-03     139.843E-03    -165.911E-03     331.013E-03    -164.905E-03     126.987E-03
             991     12.2148E-03     125.480E-03    -25.5212E+06     99.2531E+06     69.9973E+06    -278.271E+03    -159.950E-03     324.763E-03    -164.813E-03     129.503E-03    -163.831E-03     328.703E-03    -164.570E-03     117.093E-03
             992     12.9825E-03     125.624E-03    -17.5941E+06     108.907E+06     87.8011E+06     1.16895E+06    -158.238E-03     322.752E-03    -164.514E-03     114.091E-03    -161.632E-03     326.215E-03    -164.207E-03     102.402E-03
             993     13.7524E-03     125.743E-03    -9.90806E+06     116.977E+06     101.562E+06     610.884E+03    -157.503E-03     321.706E-03    -164.202E-03     100.302E-03    -160.541E-03     324.829E-03    -163.850E-03     88.9520E-03
             994     14.5183E-03     125.850E-03    -4.41783E+06     110.871E+06     98.9576E+06     837.492E+03    -157.375E-03     321.248E-03    -163.873E-03     67.9048E-03    -159.445E-03     323.409E-03    -163.533E-03     58.5948E-03
             995     761.735E-06     124.763E-03    -136.541E+06    -281.780E+06    -134.404E+06    -4.08173E+06    -166.907E-03     333.477E-03    -166.571E-03     19.0276E-03    -167.021E-03     332.497E-03    -166.636E-03     17.8924E-03
             996     1.52352E-03     124.797E-03    -132.339E+06    -267.442E+06    -126.692E+06    -5.65544E+06    -166.984E-03     333.695E-03    -166.711E-03     34.9626E-03    -167.185E-03     332.844E-03    -166.765E-03     32.8821E-03
             997     2.28525E-03     124.852E-03    -127.674E+06    -240.638E+06    -113.050E+06    -6.37916E+06    -167.244E-03     333.978E-03    -166.734E-03     51.3730E-03    -167.608E-03     333.362E-03    -166.765E-03     48.2693E-03
             998     3.04716E-03     124.927E-03    -121.282E+06    -221.930E+06    -91.9866E+06    -8.92283E+06    -167.577E-03     334.373E-03    -166.795E-03     67.0491E-03    -168.151E-03     333.995E-03    -166.758E-03     62.8399E-03
             999     3.80900E-03     125.022E-03    -112.495E+06    -209.641E+06    -72.9701E+06    -12.2147E+06    -168.012E-03     334.863E-03    -166.851E-03     82.0025E-03    -168.834E-03     334.754E-03    -166.749E-03     76.6042E-03
            1000     4.57061E-03     125.135E-03    -103.873E+06    -186.196E+06    -59.2153E+06    -13.8067E+06    -168.327E-03     335.184E-03    -166.857E-03     96.0142E-03    -169.468E-03     335.468E-03    -166.733E-03     89.4140E-03
            1001     5.33271E-03     125.264E-03    -96.3434E+06    -157.964E+06    -46.6512E+06    -15.1873E+06    -168.492E-03     335.323E-03    -166.830E-03     108.970E-03    -170.025E-03     336.088E-03    -166.695E-03     101.145E-03
            1002     6.09476E-03     125.409E-03    -89.4523E+06    -143.861E+06    -34.4194E+06    -17.5695E+06    -168.560E-03     335.359E-03    -166.799E-03     120.685E-03    -170.525E-03     336.595E-03    -166.632E-03     111.611E-03
            1003     6.85702E-03     125.567E-03    -82.6453E+06    -121.875E+06    -21.7128E+06    -18.6366E+06    -168.298E-03     335.024E-03    -166.725E-03     131.095E-03    -170.751E-03     336.814E-03    -166.537E-03     120.845E-03
            1004     7.62025E-03     125.735E-03    -74.6714E+06     -94.084E+06    -9.07142E+06    -18.0991E+06    -167.730E-03     334.326E-03    -166.596E-03     139.957E-03    -170.694E-03     336.717E-03    -166.397E-03     128.656E-03
            1005     8.38361E-03     125.913E-03    -66.5687E+06    -69.9594E+06     3.05940E+06    -17.8390E+06    -166.867E-03     333.286E-03    -166.419E-03     146.622E-03    -170.311E-03     336.237E-03    -166.205E-03     134.444E-03
            1006     9.14824E-03     126.095E-03    -57.9851E+06    -43.8638E+06     15.8645E+06    -18.4759E+06    -165.661E-03     331.849E-03    -166.188E-03     150.505E-03    -169.504E-03     335.284E-03    -165.961E-03     137.700E-03
            1007     9.91335E-03     126.279E-03    -48.0074E+06    -10.5937E+06     28.7899E+06    -16.4613E+06    -164.260E-03     330.156E-03    -165.896E-03     150.959E-03    -168.355E-03     333.959E-03    -165.667E-03     137.879E-03
            1008     10.6790E-03     126.460E-03    -38.9255E+06     27.6476E+06     42.4241E+06    -12.0120E+06    -162.544E-03     328.098E-03    -165.555E-03     147.645E-03    -166.719E-03     332.110E-03    -165.326E-03     134.630E-03
            1009     11.4469E-03     126.632E-03    -31.2097E+06     62.3924E+06     54.0960E+06    -6.97209E+06    -160.554E-03     325.719E-03    -165.165E-03     140.097E-03    -164.619E-03     329.738E-03    -164.940E-03     127.405E-03
            1010     12.2147E-03     126.790E-03    -23.8062E+06     92.9112E+06     68.2030E+06    -1.95812E+06    -158.841E-03     323.605E-03    -164.764E-03     129.908E-03    -162.663E-03     327.474E-03    -164.523E-03     117.676E-03
            1011     12.9842E-03     126.933E-03    -17.7024E+06     109.167E+06     84.6469E+06    -509.849E+03    -157.836E-03     322.239E-03    -164.403E-03     114.630E-03    -161.209E-03     325.691E-03    -164.113E-03     103.022E-03
            1012     13.7526E-03     127.050E-03    -11.5206E+06     116.258E+06     98.9937E+06    -119.493E+03    -157.293E-03     321.376E-03    -164.083E-03     101.246E-03    -160.327E-03     324.495E-03    -163.740E-03     89.9571E-03
            1013     14.5233E-03     127.162E-03    -5.45109E+06     110.613E+06     97.9983E+06     1.06676E+06    -156.937E-03     320.683E-03    -163.746E-03     69.0665E-03    -159.010E-03     322.846E-03    -163.409E-03     59.8119E-03
            1014     761.358E-06     126.086E-03    -134.150E+06    -267.065E+06    -131.640E+06    -5.05545E+06    -167.388E-03     334.653E-03    -167.265E-03     18.9209E-03    -167.516E-03     333.738E-03    -167.341E-03     17.7686E-03
            1015     1.52269E-03     126.120E-03    -130.186E+06    -259.599E+06    -121.882E+06    -8.10950E+06    -167.594E-03     334.919E-03    -167.325E-03     34.8355E-03    -167.802E-03     334.096E-03    -167.369E-03     32.7075E-03
            1016     2.28399E-03     126.175E-03    -124.061E+06    -236.523E+06    -109.309E+06    -8.09429E+06    -167.850E-03     335.200E-03    -167.350E-03     51.0650E-03    -168.206E-03     334.593E-03    -167.374E-03     47.9233E-03
            1017     3.04520E-03     126.250E-03    -117.665E+06    -213.434E+06    -92.7750E+06    -8.29190E+06    -168.127E-03     335.503E-03    -167.377E-03     66.7501E-03    -168.692E-03     335.162E-03    -167.360E-03     62.5362E-03
            1018     3.80645E-03     126.345E-03    -112.213E+06    -199.415E+06    -74.6307E+06    -11.3835E+06    -168.403E-03     335.810E-03    -167.407E-03     81.8091E-03    -169.233E-03     335.750E-03    -167.328E-03     76.4190E-03
            1019     4.56815E-03     126.457E-03    -105.404E+06    -178.703E+06    -59.3815E+06    -15.5840E+06    -168.616E-03     336.006E-03    -167.390E-03     95.8695E-03    -169.770E-03     336.324E-03    -167.275E-03     89.2467E-03
            1020     5.32975E-03     126.587E-03    -97.2117E+06    -154.820E+06    -46.8351E+06    -15.9300E+06    -168.675E-03     336.002E-03    -167.327E-03     108.846E-03    -170.208E-03     336.776E-03    -167.196E-03     101.025E-03
            1021     6.09185E-03     126.731E-03    -90.7747E+06    -135.306E+06    -33.2557E+06    -15.6048E+06    -168.476E-03     335.716E-03    -167.240E-03     120.545E-03    -170.447E-03     336.981E-03    -167.078E-03     111.540E-03
            1022     6.85470E-03     126.887E-03    -84.5417E+06    -114.723E+06    -20.1256E+06    -19.3194E+06    -168.056E-03     335.160E-03    -167.105E-03     130.917E-03    -170.511E-03     336.967E-03    -166.917E-03     120.713E-03
            1023     7.61752E-03     127.055E-03    -76.4426E+06    -91.9864E+06    -9.14636E+06    -22.3248E+06    -167.313E-03     334.217E-03    -166.904E-03     139.809E-03    -170.261E-03     336.593E-03    -166.705E-03     128.539E-03
            1024     8.38167E-03     127.231E-03    -66.7285E+06    -67.5912E+06     2.11311E+06    -22.6117E+06    -166.229E-03     332.870E-03    -166.641E-03     146.613E-03    -169.637E-03     335.796E-03    -166.436E-03     134.508E-03
            1025     9.14635E-03     127.411E-03    -57.7457E+06    -41.2272E+06     14.8686E+06    -22.5572E+06    -164.916E-03     331.244E-03    -166.328E-03     150.719E-03    -168.714E-03     334.648E-03    -166.110E-03     138.028E-03
            1026     9.91224E-03     127.594E-03    -50.8239E+06    -15.3965E+06     25.7622E+06    -21.3038E+06    -163.260E-03     329.215E-03    -165.955E-03     151.616E-03    -167.312E-03     332.956E-03    -165.730E-03     138.671E-03
            1027     10.6797E-03     127.773E-03    -43.6261E+06     18.9826E+06     38.1272E+06    -16.6763E+06    -161.308E-03     326.830E-03    -165.522E-03     148.613E-03    -165.439E-03     330.763E-03    -165.296E-03     135.778E-03
            1028     11.4476E-03     127.942E-03    -35.5324E+06     54.4714E+06     49.7008E+06    -11.4325E+06    -159.430E-03     324.474E-03    -165.043E-03     141.242E-03    -163.450E-03     328.417E-03    -164.822E-03     128.741E-03
            1029     12.2174E-03     128.099E-03    -27.3469E+06     84.0481E+06     60.6206E+06    -6.67537E+06    -158.072E-03     322.636E-03    -164.564E-03     131.277E-03    -161.854E-03     326.443E-03    -164.343E-03     119.178E-03
            1030     12.9867E-03     128.241E-03    -18.7930E+06     106.156E+06     77.2938E+06    -1.59711E+06    -157.434E-03     321.592E-03    -164.158E-03     116.964E-03    -160.777E-03     325.021E-03    -163.898E-03     105.522E-03
            1031     13.7553E-03     128.361E-03    -12.1865E+06     114.143E+06     95.4898E+06    -316.569E+03    -156.952E-03     320.788E-03    -163.836E-03     103.836E-03    -159.977E-03     323.899E-03    -163.507E-03     92.6763E-03
            1032     14.5237E-03     128.464E-03    -6.13373E+06     110.246E+06     96.7742E+06    -469.997E+03    -156.772E-03     320.273E-03    -163.501E-03     71.3743E-03    -158.860E-03     322.450E-03    -163.168E-03     62.1163E-03
            1033     760.803E-06     127.410E-03    -128.458E+06    -254.718E+06    -123.884E+06    -2.42055E+06    -168.074E-03     336.010E-03    -167.936E-03     18.9080E-03    -168.202E-03     335.138E-03    -168.000E-03     17.7780E-03
            1034     1.52149E-03     127.445E-03    -126.212E+06    -248.293E+06    -114.182E+06    -6.01591E+06    -168.228E-03     336.236E-03    -168.008E-03     34.7456E-03    -168.443E-03     335.452E-03    -168.036E-03     32.6425E-03
            1035     2.28225E-03     127.499E-03    -121.604E+06    -230.024E+06    -104.436E+06    -9.65631E+06    -168.366E-03     336.368E-03    -168.002E-03     50.9565E-03    -168.725E-03     335.782E-03    -168.015E-03     47.7935E-03
            1036     3.04327E-03     127.575E-03    -114.733E+06    -209.552E+06    -92.1448E+06    -10.0654E+06    -168.499E-03     336.461E-03    -167.962E-03     66.7455E-03    -169.054E-03     336.132E-03    -167.952E-03     62.5114E-03
            1037     3.80459E-03     127.669E-03    -106.514E+06    -190.809E+06    -72.2934E+06    -9.76569E+06    -168.667E-03     336.598E-03    -167.931E-03     81.8188E-03    -169.478E-03     336.563E-03    -167.862E-03     76.4716E-03
            1038     4.56582E-03     127.781E-03    -99.4810E+06    -167.069E+06    -52.0327E+06    -12.8874E+06    -168.760E-03     336.636E-03    -167.876E-03     95.9298E-03    -169.904E-03     336.985E-03    -167.750E-03     89.3738E-03
            1039     5.32757E-03     127.910E-03    -93.3155E+06    -152.563E+06    -39.5635E+06    -15.5445E+06    -168.636E-03     336.402E-03    -167.766E-03     108.852E-03    -170.151E-03     337.158E-03    -167.607E-03     101.079E-03
            1040     6.08980E-03     128.053E-03    -84.0603E+06    -129.728E+06    -28.6540E+06    -16.1086E+06    -168.202E-03     335.782E-03    -167.580E-03     120.673E-03    -170.134E-03     337.039E-03    -167.414E-03     111.738E-03
            1041     6.85231E-03     128.208E-03    -74.4872E+06    -103.321E+06    -14.9043E+06    -18.5815E+06    -167.525E-03     334.870E-03    -167.345E-03     131.378E-03    -169.928E-03     336.685E-03    -167.162E-03     121.307E-03
            1042     7.61619E-03     128.374E-03    -67.8734E+06    -85.2212E+06    -3.46167E+06    -21.2120E+06    -166.565E-03     333.619E-03    -167.054E-03     140.492E-03    -169.451E-03     335.972E-03    -166.850E-03     129.404E-03
            1043     8.38075E-03     128.548E-03    -63.3956E+06    -62.8235E+06     4.81803E+06    -23.1969E+06    -165.275E-03     331.957E-03    -166.683E-03     147.719E-03    -168.632E-03     334.853E-03    -166.476E-03     135.821E-03
            1044     9.14670E-03     128.727E-03    -58.5038E+06    -38.9652E+06     14.3430E+06    -23.9374E+06    -163.721E-03     329.974E-03    -166.253E-03     152.351E-03    -167.470E-03     333.336E-03    -166.040E-03     139.916E-03
            1045     9.91373E-03     128.907E-03    -52.1604E+06    -16.1195E+06     25.0992E+06    -22.5419E+06    -161.941E-03     327.715E-03    -165.775E-03     153.448E-03    -165.937E-03     331.397E-03    -165.550E-03     140.795E-03
            1046     10.6820E-03     129.083E-03    -44.7039E+06     13.4961E+06     35.8463E+06    -20.6698E+06    -160.038E-03     325.280E-03    -165.242E-03     150.644E-03    -164.100E-03     329.128E-03    -165.018E-03     138.079E-03
            1047     11.4519E-03     129.251E-03    -36.4609E+06     44.9420E+06     45.5349E+06    -16.0375E+06    -158.514E-03     323.200E-03    -164.686E-03     143.874E-03    -162.466E-03     327.050E-03    -164.470E-03     131.615E-03
            1048     12.2212E-03     129.406E-03    -29.4988E+06     75.5773E+06     55.6344E+06    -9.82779E+06    -157.609E-03     321.771E-03    -164.162E-03     134.558E-03    -161.350E-03     325.514E-03    -163.951E-03     122.661E-03
            1049     12.9913E-03     129.549E-03    -23.5159E+06     100.709E+06     70.1790E+06    -6.41222E+06    -156.994E-03     320.718E-03    -163.724E-03     120.475E-03    -160.317E-03     324.111E-03    -163.485E-03     109.202E-03
            1050     13.7625E-03     129.666E-03    -14.1830E+06     112.370E+06     90.4915E+06    -3.97281E+06    -157.079E-03     320.484E-03    -163.404E-03     106.828E-03    -160.093E-03     323.584E-03    -163.094E-03     95.7605E-03
            1051     14.5324E-03     129.775E-03    -5.62190E+06     108.533E+06     92.6252E+06    -1.91001E+06    -158.039E-03     321.159E-03    -163.120E-03     73.6844E-03    -160.129E-03     323.345E-03    -162.806E-03     64.3667E-03
            1052     760.258E-06     128.737E-03    -125.110E+06    -250.232E+06    -122.216E+06    -206.994E+03    -168.735E-03     337.197E-03    -168.462E-03     18.9945E-03    -168.855E-03     336.340E-03    -168.529E-03     17.8997E-03
            1053     1.52062E-03     128.771E-03    -120.524E+06    -237.063E+06    -108.542E+06    -2.86500E+06    -168.682E-03     337.254E-03    -168.572E-03     34.9924E-03    -168.892E-03     336.509E-03    -168.596E-03     32.9441E-03
            1054     2.28105E-03     128.826E-03    -114.903E+06    -218.496E+06    -92.6159E+06    -7.54975E+06    -168.726E-03     337.265E-03    -168.539E-03     51.2218E-03    -169.084E-03     336.708E-03    -168.519E-03     48.0982E-03
            1055     3.04180E-03     128.900E-03    -109.079E+06    -204.669E+06    -78.9774E+06    -10.6578E+06    -168.766E-03     337.231E-03    -168.465E-03     67.0304E-03    -169.316E-03     336.896E-03    -168.405E-03     62.8045E-03
            1056     3.80271E-03     128.994E-03    -101.630E+06    -186.299E+06    -66.2549E+06    -11.9505E+06    -168.749E-03     337.088E-03    -168.339E-03     82.1773E-03    -169.543E-03     337.053E-03    -168.253E-03     76.8435E-03
            1057     4.56421E-03     129.106E-03    -92.3783E+06    -160.356E+06    -48.8664E+06    -11.3039E+06    -168.562E-03     336.741E-03    -168.180E-03     96.4548E-03    -169.669E-03     337.094E-03    -168.058E-03     90.0085E-03
            1058     5.32600E-03     129.234E-03    -84.0009E+06    -144.227E+06    -32.5739E+06    -12.7806E+06    -168.175E-03     336.153E-03    -167.978E-03     109.674E-03    -169.646E-03     336.908E-03    -167.810E-03     102.056E-03
            1059     6.08847E-03     129.375E-03    -77.9004E+06    -121.543E+06    -23.7328E+06    -17.6675E+06    -167.471E-03     335.142E-03    -167.671E-03     121.999E-03    -169.367E-03     336.398E-03    -167.500E-03     113.202E-03
            1060     6.85254E-03     129.529E-03    -71.4676E+06    -96.8651E+06    -14.2420E+06    -19.7258E+06    -166.477E-03     333.770E-03    -167.293E-03     133.128E-03    -168.835E-03     335.572E-03    -167.120E-03     123.278E-03
            1061     7.61710E-03     129.693E-03    -64.6718E+06    -79.6538E+06    -893.822E+03    -19.5528E+06    -165.293E-03     332.170E-03    -166.877E-03     142.626E-03    -168.124E-03     334.492E-03    -166.672E-03     131.853E-03
            1062     8.38307E-03     129.864E-03    -57.8973E+06    -55.2352E+06     11.3830E+06    -20.4960E+06    -163.828E-03     330.213E-03    -166.385E-03     150.275E-03    -167.119E-03     333.069E-03    -166.164E-03     138.750E-03
            1063     9.15030E-03     130.041E-03    -51.2081E+06    -34.5941E+06     20.0493E+06    -22.2603E+06    -162.157E-03     327.981E-03    -165.824E-03     155.341E-03    -165.817E-03     331.278E-03    -165.599E-03     143.312E-03
            1064     9.91906E-03     130.218E-03    -44.3144E+06    -14.4682E+06     28.9923E+06    -22.9234E+06    -160.472E-03     325.696E-03    -165.224E-03     156.889E-03    -164.361E-03     329.292E-03    -164.994E-03     144.646E-03
            1065     10.6887E-03     130.392E-03    -37.8281E+06     11.9183E+06     39.9952E+06    -21.4452E+06    -158.945E-03     323.559E-03    -164.614E-03     154.494E-03    -162.911E-03     327.317E-03    -164.376E-03     142.301E-03
            1066     11.4591E-03     130.558E-03    -32.1540E+06     36.0075E+06     48.2965E+06    -17.1757E+06    -157.830E-03     321.847E-03    -164.017E-03     148.300E-03    -161.699E-03     325.590E-03    -163.781E-03     136.371E-03
            1067     12.2304E-03     130.714E-03    -24.8829E+06     68.7828E+06     57.4870E+06    -12.2033E+06    -157.332E-03     320.801E-03    -163.469E-03     139.397E-03    -161.006E-03     324.464E-03    -163.245E-03     127.770E-03
            1068     13.0010E-03     130.854E-03    -16.4934E+06     96.3024E+06     72.0364E+06    -8.04446E+06    -157.725E-03     320.778E-03    -163.053E-03     125.178E-03    -161.004E-03     324.132E-03    -162.809E-03     114.041E-03
            1069     13.7693E-03     130.975E-03    -11.9668E+06     110.593E+06     89.6312E+06    -6.21165E+06    -158.759E-03     321.569E-03    -162.810E-03     110.942E-03    -161.784E-03     324.685E-03    -162.505E-03     99.8197E-03
            1070     14.5364E-03     131.083E-03    -6.23997E+06     104.507E+06     87.7706E+06    -5.04339E+06    -160.390E-03     323.030E-03    -162.640E-03     76.8918E-03    -162.501E-03     325.236E-03    -162.344E-03     67.3996E-03
            1071     759.962E-06     130.065E-03    -120.319E+06    -243.924E+06    -119.338E+06     -3.6801E+06    -169.013E-03     337.841E-03    -168.827E-03     19.1315E-03    -169.122E-03     337.003E-03    -168.896E-03     18.0058E-03
            1072     1.52012E-03     130.099E-03    -113.964E+06    -228.518E+06    -107.061E+06    -6.04824E+06    -168.829E-03     337.662E-03    -168.833E-03     35.3279E-03    -169.019E-03     336.947E-03    -168.872E-03     33.2572E-03
            1073     2.28057E-03     130.153E-03    -106.974E+06    -211.893E+06    -86.4383E+06    -5.18546E+06    -168.788E-03     337.542E-03    -168.754E-03     51.7132E-03    -169.121E-03     336.994E-03    -168.724E-03     48.6686E-03
            1074     3.04111E-03     130.227E-03    -99.6517E+06    -195.329E+06    -66.2684E+06    -7.03371E+06    -168.723E-03     337.367E-03    -168.643E-03     67.8374E-03    -169.252E-03     337.040E-03    -168.547E-03     63.7258E-03
            1075     3.80220E-03     130.320E-03    -93.3558E+06    -178.861E+06    -55.1824E+06    -10.8469E+06    -168.421E-03     336.856E-03    -168.435E-03     83.3115E-03    -169.191E-03     336.820E-03    -168.316E-03     78.0890E-03
            1076     4.56395E-03     130.430E-03    -87.8257E+06    -158.518E+06    -48.9361E+06    -12.2996E+06    -167.781E-03     335.893E-03    -168.112E-03     97.9890E-03    -168.850E-03     336.229E-03    -168.000E-03     91.6909E-03
            1077     5.32688E-03     130.556E-03    -80.5882E+06    -135.965E+06    -35.5652E+06    -13.3092E+06    -166.969E-03     334.699E-03    -167.730E-03     111.835E-03    -168.401E-03     335.465E-03    -167.594E-03     104.448E-03
            1078     6.09088E-03     130.696E-03    -72.6319E+06    -109.937E+06    -17.6112E+06    -15.8613E+06    -166.051E-03     333.345E-03    -167.294E-03     124.699E-03    -167.906E-03     334.603E-03    -167.117E-03     116.221E-03
            1079     6.85542E-03     130.847E-03    -66.5692E+06    -92.6914E+06    -7.08842E+06    -17.9311E+06    -164.879E-03     331.652E-03    -166.773E-03     136.326E-03    -167.178E-03     333.406E-03    -166.578E-03     126.849E-03
            1080     7.62198E-03     131.009E-03    -60.6005E+06    -74.5959E+06     2.52451E+06    -19.3678E+06    -163.447E-03     329.629E-03    -166.183E-03     146.501E-03    -166.205E-03     331.900E-03    -165.974E-03     136.156E-03
            1081     8.38970E-03     131.178E-03    -53.1736E+06    -48.5300E+06     16.1038E+06    -21.1508E+06    -161.901E-03     327.444E-03    -165.543E-03     154.661E-03    -165.110E-03     330.245E-03    -165.315E-03     143.601E-03
            1082     9.15895E-03     131.352E-03    -46.3923E+06    -30.1776E+06     26.4854E+06    -21.4669E+06    -160.366E-03     325.232E-03    -164.866E-03     160.177E-03    -163.935E-03     328.452E-03    -164.622E-03     148.655E-03
            1083     9.92921E-03     131.527E-03    -41.3485E+06    -9.38528E+06     35.1823E+06    -22.4148E+06    -158.965E-03     323.136E-03    -164.171E-03     162.139E-03    -162.772E-03     326.661E-03    -163.922E-03     150.394E-03
            1084     10.7008E-03     131.699E-03    -35.4492E+06     10.2800E+06     44.0051E+06    -22.1028E+06    -158.072E-03     321.582E-03    -163.510E-03     160.154E-03    -161.956E-03     325.249E-03    -163.254E-03     148.395E-03
            1085     11.4722E-03     131.865E-03    -27.8208E+06     29.8760E+06     52.9144E+06    -18.8137E+06    -157.825E-03     320.751E-03    -162.926E-03     154.030E-03    -161.615E-03     324.395E-03    -162.665E-03     142.437E-03
            1086     12.2433E-03     132.018E-03    -20.8041E+06     63.9219E+06     60.4881E+06    -14.8787E+06    -158.173E-03     320.604E-03    -162.431E-03     144.631E-03    -161.791E-03     324.200E-03    -162.191E-03     133.207E-03
            1087     13.0133E-03     132.163E-03    -15.0465E+06     87.8765E+06     70.5416E+06    -10.7822E+06    -159.478E-03     321.592E-03    -162.114E-03     130.441E-03    -162.723E-03     324.892E-03    -161.867E-03     119.402E-03
            1088     13.7814E-03     132.284E-03    -7.03422E+06     108.759E+06     91.4517E+06    -5.93711E+06    -161.794E-03     323.830E-03    -162.036E-03     116.406E-03    -164.822E-03     326.954E-03    -161.726E-03     105.230E-03
            1089     14.5472E-03     132.397E-03    -790.652E+03     102.361E+06     87.4771E+06    -3.46283E+06    -164.939E-03     327.019E-03    -162.080E-03     81.0784E-03    -167.061E-03     329.248E-03    -161.790E-03     71.3862E-03
            1090     759.970E-06     131.394E-03    -108.442E+06    -229.181E+06    -107.967E+06    -5.13717E+06    -168.787E-03     337.498E-03    -168.711E-03     19.5123E-03    -168.874E-03     336.700E-03    -168.761E-03     18.3970E-03
            1091     1.52024E-03     131.426E-03    -108.224E+06    -220.413E+06    -101.622E+06    -7.88857E+06    -168.541E-03     337.163E-03    -168.622E-03     35.9894E-03    -168.720E-03     336.469E-03    -168.654E-03     33.9545E-03
            1092     2.28088E-03     131.480E-03    -103.632E+06    -211.418E+06    -89.7944E+06    -7.12311E+06    -168.286E-03     336.729E-03    -168.442E-03     52.8446E-03    -168.593E-03     336.177E-03    -168.434E-03     49.8681E-03
            1093     3.04212E-03     131.553E-03    -96.3655E+06    -187.392E+06    -73.1535E+06     -6.9485E+06    -167.877E-03     336.065E-03    -168.188E-03     69.4311E-03    -168.379E-03     335.772E-03    -168.143E-03     65.4744E-03
            1094     3.80390E-03     131.645E-03    -88.2983E+06    -170.063E+06    -53.3783E+06    -9.06313E+06    -167.193E-03     335.062E-03    -167.869E-03     85.4518E-03    -167.935E-03     335.041E-03    -167.761E-03     80.4606E-03
            1095     4.56680E-03     131.753E-03    -80.7415E+06    -152.719E+06    -40.1461E+06    -11.6634E+06    -166.210E-03     333.622E-03    -167.411E-03     100.840E-03    -167.240E-03     333.939E-03    -167.274E-03     94.8113E-03
            1096     5.33113E-03     131.877E-03    -73.6297E+06    -128.494E+06    -29.7584E+06    -14.4318E+06    -165.055E-03     331.884E-03    -166.830E-03     115.474E-03    -166.432E-03     332.630E-03    -166.685E-03     108.424E-03
            1097     6.09671E-03     132.014E-03    -66.7768E+06    -105.016E+06    -14.9593E+06    -15.0950E+06    -163.798E-03     329.989E-03    -166.191E-03     129.077E-03    -165.579E-03     331.204E-03    -166.017E-03     121.054E-03
            1098     6.86415E-03     132.163E-03    -60.5252E+06    -87.1895E+06    -41.0608E+03    -14.4957E+06    -162.478E-03     327.981E-03    -165.504E-03     141.509E-03    -164.698E-03     329.677E-03    -165.290E-03     132.582E-03
            1099     7.63247E-03     132.322E-03    -55.5269E+06    -65.6435E+06     10.6504E+06    -16.7467E+06    -161.046E-03     325.794E-03    -164.748E-03     152.477E-03    -163.725E-03     328.012E-03    -164.519E-03     142.724E-03
            1100     8.40274E-03     132.488E-03    -51.9085E+06    -42.4267E+06     20.8133E+06    -18.9120E+06    -159.645E-03     323.609E-03    -163.964E-03     161.331E-03    -162.773E-03     326.341E-03    -163.723E-03     150.898E-03
            1101     9.17400E-03     132.660E-03    -47.9379E+06    -25.2151E+06     31.5018E+06    -20.4748E+06    -158.576E-03     321.777E-03    -163.200E-03     167.254E-03    -162.077E-03     324.926E-03    -162.937E-03     156.325E-03
            1102     9.94652E-03     132.833E-03    -42.4498E+06    -4.43794E+06     41.4183E+06    -20.9218E+06    -157.975E-03     320.454E-03    -162.479E-03     169.378E-03    -161.721E-03     323.914E-03    -162.204E-03     158.172E-03
            1103     10.7186E-03     133.004E-03    -37.5921E+06     13.0342E+06     48.2965E+06    -22.0133E+06    -158.023E-03     319.871E-03    -161.849E-03     167.291E-03    -161.854E-03     323.476E-03    -161.572E-03     155.974E-03
            1104     11.4908E-03     133.169E-03    -32.2031E+06     27.8431E+06     56.0497E+06    -22.8029E+06    -158.818E-03     320.187E-03    -161.369E-03     160.961E-03    -162.574E-03     323.765E-03    -161.082E-03     149.656E-03
            1105     12.2605E-03     133.326E-03    -25.6017E+06     54.3899E+06     62.2228E+06    -17.8350E+06    -160.494E-03     321.536E-03    -161.042E-03     151.678E-03    -164.104E-03     325.068E-03    -160.773E-03     140.394E-03
            1106     13.0286E-03     133.469E-03    -19.8115E+06     85.5971E+06     74.2930E+06    -12.7544E+06    -163.101E-03     324.053E-03    -160.952E-03     136.916E-03    -166.389E-03     327.359E-03    -160.675E-03     125.836E-03
            1107     13.7944E-03     133.598E-03    -13.3749E+06     105.230E+06     89.6962E+06    -12.0371E+06    -166.836E-03     327.969E-03    -161.134E-03     121.398E-03    -169.916E-03     331.116E-03    -160.818E-03     109.943E-03
            1108     14.5549E-03     133.715E-03    -7.06887E+06     90.3875E+06     79.7081E+06    -5.47859E+06    -171.350E-03     332.844E-03    -161.494E-03     84.5182E-03    -173.503E-03     335.061E-03    -161.216E-03     74.5142E-03
            1109     760.776E-06     132.720E-03    -103.737E+06    -217.885E+06    -100.824E+06    -2.15021E+06    -167.749E-03     335.432E-03    -167.682E-03     20.0857E-03    -167.838E-03     334.671E-03    -167.720E-03     19.0667E-03
            1110     1.52174E-03     132.753E-03    -101.870E+06    -211.611E+06    -91.4576E+06    -3.64403E+06    -167.385E-03     334.963E-03    -167.578E-03     37.1673E-03    -167.556E-03     334.286E-03    -167.581E-03     35.2931E-03
            1111     2.28319E-03     132.805E-03    -97.8925E+06    -205.118E+06    -82.5810E+06    -7.87925E+06    -166.859E-03     334.158E-03    -167.299E-03     54.8451E-03    -167.148E-03     333.611E-03    -167.273E-03     52.0201E-03
            1112     3.04551E-03     132.877E-03    -92.3610E+06    -182.978E+06    -74.9962E+06    -9.85499E+06    -165.940E-03     332.791E-03    -166.851E-03     72.1608E-03    -166.409E-03     332.499E-03    -166.827E-03     68.4122E-03
            1113     3.80924E-03     132.966E-03    -86.5532E+06    -162.898E+06    -57.7793E+06    -10.4643E+06    -164.775E-03     331.086E-03    -166.312E-03     88.9971E-03    -165.485E-03     331.078E-03    -166.239E-03     84.3191E-03
            1114     4.57447E-03     133.072E-03    -79.4508E+06    -145.217E+06    -36.5891E+06    -11.7428E+06    -163.555E-03     329.238E-03    -165.683E-03     105.334E-03    -164.556E-03     329.547E-03    -165.540E-03     99.7095E-03
            1115     5.34090E-03     133.193E-03    -73.0340E+06    -121.216E+06    -22.4707E+06    -13.3369E+06    -162.159E-03     327.083E-03    -164.923E-03     120.989E-03    -163.502E-03     327.800E-03    -164.754E-03     114.447E-03
            1116     6.10933E-03     133.327E-03    -67.6608E+06    -101.841E+06    -12.5612E+06    -14.4887E+06    -160.654E-03     324.730E-03    -164.076E-03     135.676E-03    -162.378E-03     325.888E-03    -163.893E-03     128.250E-03
            1117     6.87924E-03     133.473E-03    -60.8767E+06    -83.7954E+06     1.28063E+06    -14.6434E+06    -159.307E-03     322.509E-03    -163.202E-03     149.060E-03    -161.450E-03     324.134E-03    -162.986E-03     140.792E-03
            1118     7.65107E-03     133.630E-03    -53.1442E+06    -58.5642E+06     17.5285E+06    -14.5267E+06    -158.194E-03     320.518E-03    -162.324E-03     160.654E-03    -160.786E-03     322.662E-03    -162.074E-03     151.614E-03
            1119     8.42377E-03     133.793E-03    -45.9086E+06    -37.5089E+06     29.8653E+06    -14.8126E+06    -157.474E-03     318.945E-03    -161.471E-03     170.007E-03    -160.492E-03     321.579E-03    -161.200E-03     160.300E-03
            1120     9.19763E-03     133.963E-03    -39.8187E+06    -16.9530E+06     40.7558E+06    -15.8000E+06    -157.379E-03     318.077E-03    -160.698E-03     176.143E-03    -160.766E-03     321.144E-03    -160.411E-03     165.891E-03
            1121     9.97075E-03     134.135E-03    -35.3834E+06    -1.19409E+06     49.3653E+06    -17.1072E+06    -158.011E-03     318.071E-03    -160.060E-03     178.132E-03    -161.654E-03     321.441E-03    -159.760E-03     167.480E-03
            1122     10.7438E-03     134.307E-03    -31.1258E+06     19.1377E+06     57.3216E+06    -16.9024E+06    -159.304E-03     318.896E-03    -159.592E-03     175.817E-03    -163.060E-03     322.443E-03    -159.288E-03     164.951E-03
            1123     11.5140E-03     134.474E-03    -28.5446E+06     34.0970E+06     64.3612E+06    -18.6767E+06    -161.277E-03     320.613E-03    -159.336E-03     169.112E-03    -165.001E-03     324.170E-03    -159.022E-03     158.094E-03
            1124     12.2837E-03     134.633E-03    -25.0439E+06     47.1151E+06     68.0439E+06    -18.7482E+06    -164.586E-03     323.893E-03    -159.307E-03     159.529E-03    -168.184E-03     327.373E-03    -158.999E-03     148.299E-03
            1125     13.0486E-03     134.785E-03    -16.8954E+06     83.3703E+06     80.8508E+06    -15.4782E+06    -169.141E-03     328.712E-03    -159.571E-03     144.129E-03    -172.461E-03     332.035E-03    -159.263E-03     132.811E-03
            1126     13.8075E-03     134.917E-03    -10.3530E+06     101.644E+06     91.3690E+06    -11.5181E+06    -174.298E-03     334.448E-03    -160.150E-03     128.477E-03    -177.436E-03     337.646E-03    -159.826E-03     116.635E-03
            1127     14.5628E-03     135.045E-03    -4.66824E+06     77.9743E+06     76.1765E+06    -6.44490E+06    -178.919E-03     339.839E-03    -160.919E-03     90.1523E-03    -181.095E-03     342.054E-03    -160.645E-03     79.7445E-03
            1128     762.234E-06     134.044E-03    -108.387E+06    -212.728E+06    -106.215E+06    -1.96383E+06    -165.467E-03     330.776E-03    -165.309E-03     21.1855E-03    -165.578E-03     330.054E-03    -165.374E-03     20.2501E-03
            1129     1.52505E-03     134.075E-03    -102.678E+06    -204.503E+06    -93.7223E+06    -3.72226E+06    -164.872E-03     330.072E-03    -165.200E-03     39.0418E-03    -165.048E-03     329.429E-03    -165.223E-03     37.3249E-03
            1130     2.28860E-03     134.126E-03    -96.4547E+06    -194.747E+06    -78.3573E+06    -6.08627E+06    -163.910E-03     328.720E-03    -164.810E-03     57.6025E-03    -164.200E-03     328.203E-03    -164.780E-03     55.0499E-03
            1131     3.05337E-03     134.195E-03    -92.0555E+06    -175.528E+06     -66.313E+06    -9.11767E+06    -162.553E-03     326.749E-03    -164.196E-03     76.0286E-03    -163.021E-03     326.458E-03    -164.140E-03     72.6293E-03
            1132     3.81992E-03     134.281E-03    -86.9128E+06    -157.116E+06    -55.2153E+06    -11.0757E+06    -161.104E-03     324.526E-03    -163.422E-03     94.1212E-03    -161.790E-03     324.505E-03    -163.344E-03     89.8871E-03
            1133     4.58798E-03     134.384E-03    -79.7423E+06    -139.184E+06    -38.1082E+06    -12.3987E+06    -159.592E-03     322.160E-03    -162.568E-03     111.659E-03    -160.546E-03     322.446E-03    -162.441E-03     106.588E-03
            1134     5.35815E-03     134.502E-03    -71.2605E+06    -115.449E+06    -19.0428E+06    -12.9987E+06    -158.047E-03     319.681E-03    -161.635E-03     128.479E-03    -159.322E-03     320.348E-03    -161.459E-03     122.589E-03
            1135     6.13005E-03     134.633E-03    -62.9243E+06    -98.0717E+06    -4.25357E+06    -12.8160E+06    -156.750E-03     317.399E-03    -160.649E-03     144.346E-03    -158.381E-03     318.469E-03    -160.437E-03     137.654E-03
            1136     6.90382E-03     134.776E-03    -56.0080E+06    -78.2971E+06     7.91387E+06    -14.0373E+06    -155.806E-03     315.463E-03    -159.657E-03     158.681E-03    -157.840E-03     316.996E-03    -159.423E-03     151.180E-03
            1137     7.67859E-03     134.930E-03    -49.1145E+06    -55.6546E+06     21.4979E+06    -14.4710E+06    -155.442E-03     314.172E-03    -158.731E-03     170.848E-03    -157.913E-03     316.208E-03    -158.471E-03     162.566E-03
            1138     8.45420E-03     135.093E-03    -42.5277E+06    -35.3974E+06     34.4756E+06    -13.2340E+06    -155.921E-03     313.851E-03    -157.930E-03     180.408E-03    -158.824E-03     316.376E-03    -157.644E-03     171.412E-03
            1139     9.22898E-03     135.262E-03    -37.4755E+06    -12.5212E+06     45.5494E+06    -12.2219E+06    -157.202E-03     314.501E-03    -157.298E-03     186.538E-03    -160.492E-03     317.481E-03    -156.998E-03     176.924E-03
            1140     10.0033E-03     135.436E-03    -33.0288E+06     3.61413E+06     53.8651E+06    -12.2877E+06    -159.310E-03     316.196E-03    -156.887E-03     188.354E-03    -162.876E-03     319.502E-03    -156.575E-03     178.223E-03
            1141     10.7745E-03     135.610E-03    -28.8613E+06     23.1991E+06     61.4264E+06    -12.8407E+06    -162.165E-03     318.888E-03    -156.723E-03     185.464E-03    -165.873E-03     322.399E-03    -156.407E-03     174.937E-03
            1142     11.5446E-03     135.781E-03    -24.4950E+06     39.5621E+06     68.7655E+06    -11.8300E+06    -166.072E-03     322.920E-03    -156.848E-03     177.768E-03    -169.775E-03     326.479E-03    -156.526E-03     166.911E-03
            1143     12.3086E-03     135.945E-03    -21.3544E+06     54.4939E+06     72.5352E+06    -15.1617E+06    -171.188E-03     328.462E-03    -157.274E-03     167.441E-03    -174.809E-03     331.992E-03    -156.960E-03     156.096E-03
            1144     13.0683E-03     136.105E-03    -18.1182E+06     81.7438E+06     80.8596E+06    -18.8326E+06    -176.811E-03     334.839E-03    -158.028E-03     151.357E-03    -180.180E-03     338.201E-03    -157.716E-03     139.688E-03
            1145     13.8234E-03     136.247E-03    -10.2347E+06     89.4046E+06     84.6187E+06    -14.3356E+06    -182.713E-03     341.792E-03    -159.079E-03     135.138E-03    -185.890E-03     345.007E-03    -158.771E-03     122.801E-03
            1146     14.5720E-03     136.384E-03    -4.14140E+06     65.7883E+06     71.0399E+06    -7.94055E+06    -187.663E-03     347.994E-03    -160.331E-03     94.8745E-03    -189.868E-03     350.213E-03    -160.065E-03     83.9592E-03
            1147     765.488E-06     135.359E-03    -109.570E+06    -205.410E+06    -107.967E+06    -2.81879E+06    -161.338E-03     322.618E-03    -161.280E-03     22.6124E-03    -161.461E-03     321.934E-03    -161.363E-03     21.7749E-03
            1148     1.53108E-03     135.390E-03    -106.194E+06    -197.863E+06    -98.1488E+06    -4.81612E+06    -160.444E-03     321.470E-03    -161.026E-03     41.6367E-03    -160.634E-03     320.863E-03    -161.076E-03     40.1243E-03
            1149     2.29797E-03     135.438E-03    -101.766E+06    -186.640E+06    -83.1115E+06    -6.80715E+06    -159.090E-03     319.553E-03    -160.463E-03     61.4338E-03    -159.394E-03     319.072E-03    -160.460E-03     59.2060E-03
            1150     3.06689E-03     135.504E-03    -93.4463E+06    -166.763E+06    -62.9931E+06    -8.71340E+06    -157.537E-03     317.240E-03    -159.704E-03     81.2240E-03    -157.998E-03     316.958E-03    -159.641E-03     78.2776E-03
            1151     3.83731E-03     135.587E-03    -84.1128E+06    -150.574E+06    -46.0468E+06    -11.2451E+06    -155.924E-03     314.716E-03    -158.792E-03     100.766E-03    -156.571E-03     314.661E-03    -158.682E-03     97.0912E-03
            1152     4.60992E-03     135.686E-03    -76.2730E+06    -132.287E+06    -33.1427E+06    -13.2415E+06    -154.285E-03     312.046E-03    -157.761E-03     119.733E-03    -155.169E-03     312.283E-03    -157.624E-03     115.330E-03
            1153     5.38453E-03     135.800E-03    -69.6456E+06    -112.471E+06    -18.4986E+06    -13.1507E+06    -153.005E-03     309.697E-03    -156.691E-03     137.901E-03    -154.187E-03     310.283E-03    -156.520E-03     132.772E-03
            1154     6.16091E-03     135.928E-03    -63.4060E+06    -95.5701E+06    -3.02497E+06    -12.0206E+06    -152.345E-03     308.004E-03    -155.659E-03     154.801E-03    -153.876E-03     308.977E-03    -155.443E-03     148.926E-03
            1155     6.93818E-03     136.069E-03    -57.5419E+06    -71.5176E+06     11.0295E+06    -11.9304E+06    -152.367E-03     307.071E-03    -154.704E-03     169.847E-03    -154.304E-03     308.516E-03    -154.462E-03     163.185E-03
            1156     7.71622E-03     136.222E-03    -52.7007E+06    -52.2972E+06     21.5943E+06    -13.1499E+06    -153.359E-03     307.259E-03    -153.900E-03     182.625E-03    -155.734E-03     309.197E-03    -153.640E-03     175.122E-03
            1157     8.49336E-03     136.386E-03    -47.6369E+06    -35.3882E+06     32.2206E+06    -12.1918E+06    -155.448E-03     308.772E-03    -153.323E-03     192.412E-03    -158.265E-03     311.200E-03    -153.042E-03     184.088E-03
            1158     9.26939E-03     136.558E-03    -41.6407E+06    -11.0843E+06     44.4810E+06    -10.1840E+06    -158.488E-03     311.506E-03    -153.018E-03     198.250E-03    -161.715E-03     314.417E-03    -152.719E-03     189.167E-03
            1159     10.0423E-03     136.735E-03    -36.0962E+06     7.26739E+06     53.1620E+06    -9.46445E+06    -162.386E-03     315.399E-03    -153.013E-03     199.310E-03    -165.912E-03     318.670E-03    -152.705E-03     189.550E-03
            1160     10.8129E-03     136.914E-03    -32.0969E+06     26.5155E+06     60.4249E+06    -9.01745E+06    -167.277E-03     320.612E-03    -153.335E-03     195.356E-03    -170.974E-03     324.116E-03    -153.025E-03     185.007E-03
            1161     11.5768E-03     137.091E-03    -27.3489E+06     43.0102E+06     67.4751E+06    -11.3706E+06    -173.237E-03     327.254E-03    -154.017E-03     187.125E-03    -176.967E-03     330.846E-03    -153.703E-03     176.169E-03
            1162     12.3366E-03     137.265E-03    -19.9197E+06     66.2132E+06     74.6061E+06    -14.7860E+06    -179.751E-03     334.793E-03    -155.042E-03     176.256E-03    -183.430E-03     338.423E-03    -154.736E-03     164.610E-03
            1163     13.0900E-03     137.434E-03    -12.0883E+06     84.4854E+06     82.8107E+06    -16.1717E+06    -186.383E-03     342.787E-03    -156.403E-03     159.411E-03    -189.798E-03     346.220E-03    -156.094E-03     147.310E-03
            1164     13.8368E-03     137.586E-03    -8.30245E+06     79.4603E+06     82.0166E+06    -15.7135E+06    -192.388E-03     350.417E-03    -158.029E-03     141.405E-03    -195.617E-03     353.663E-03    -157.722E-03     128.451E-03
            1165     14.5794E-03     137.733E-03    -3.63522E+06     53.8591E+06     68.1763E+06    -9.69083E+06    -196.748E-03     356.546E-03    -159.798E-03     99.4332E-03    -198.986E-03     358.766E-03    -159.530E-03     87.9803E-03
            1166     769.765E-06     136.661E-03    -105.915E+06    -198.587E+06    -103.550E+06    -1.67233E+06    -155.001E-03     309.825E-03    -154.823E-03     24.7046E-03    -155.120E-03     309.158E-03    -154.900E-03     24.0332E-03
            1167     1.54084E-03     136.690E-03    -101.767E+06    -189.731E+06    -91.3949E+06    -3.69643E+06    -153.748E-03     308.315E-03    -154.567E-03     44.7999E-03    -153.927E-03     307.719E-03    -154.601E-03     43.5778E-03
            1168     2.31334E-03     136.735E-03    -95.5226E+06    -177.683E+06    -75.9428E+06    -7.28030E+06    -152.341E-03     306.233E-03    -153.892E-03     66.1883E-03    -152.614E-03     305.751E-03    -153.875E-03     64.3610E-03
            1169     3.08709E-03     136.798E-03    -89.4988E+06    -160.741E+06    -61.7343E+06    -9.69755E+06    -150.761E-03     303.789E-03    -153.029E-03     87.6344E-03    -151.172E-03     303.486E-03    -152.974E-03     85.2116E-03
            1170     3.86315E-03     136.877E-03    -83.7029E+06    -142.938E+06    -45.9323E+06    -10.3134E+06    -149.143E-03     301.188E-03    -152.045E-03     108.701E-03    -149.736E-03     301.104E-03    -151.946E-03     105.693E-03
            1171     4.64121E-03     136.972E-03    -78.7620E+06    -125.740E+06    -31.1937E+06    -10.9051E+06    -147.930E-03     298.928E-03    -150.997E-03     129.111E-03    -148.753E-03     299.111E-03    -150.857E-03     125.484E-03
            1172     5.42111E-03     137.084E-03    -73.8718E+06    -109.874E+06    -19.4533E+06    -11.0124E+06    -147.478E-03     297.446E-03    -149.968E-03     148.586E-03    -148.576E-03     297.944E-03    -149.799E-03     144.296E-03
            1173     6.20181E-03     137.210E-03    -68.0314E+06    -92.6865E+06    -6.32399E+06    -10.7320E+06    -147.942E-03     297.001E-03    -149.059E-03     166.509E-03    -149.372E-03     297.875E-03    -148.857E-03     161.486E-03
            1174     6.98307E-03     137.352E-03    -61.8634E+06    -68.6468E+06     8.32811E+06    -9.33077E+06    -149.526E-03     297.866E-03    -148.340E-03     182.338E-03    -151.356E-03     299.207E-03    -148.109E-03     176.510E-03
            1175     7.76321E-03     137.506E-03    -57.5008E+06    -48.8612E+06     20.1797E+06    -7.80671E+06    -152.434E-03     300.318E-03    -147.884E-03     195.555E-03    -154.716E-03     302.164E-03    -147.629E-03     188.828E-03
            1176     8.54173E-03     137.673E-03    -54.1701E+06    -30.5549E+06     29.7579E+06    -9.35519E+06    -156.562E-03     304.311E-03    -147.749E-03     205.294E-03    -159.320E-03     306.682E-03    -147.477E-03     197.564E-03
            1177     9.31667E-03     137.850E-03    -48.4501E+06    -10.0283E+06     40.0145E+06    -10.8423E+06    -161.704E-03     309.679E-03    -147.975E-03     210.552E-03    -164.893E-03     312.546E-03    -147.690E-03     201.836E-03
            1178     10.0880E-03     138.034E-03    -41.5083E+06     6.28154E+06     48.4757E+06    -8.93857E+06    -167.863E-03     316.447E-03    -148.584E-03     210.688E-03    -171.376E-03     319.697E-03    -148.290E-03     201.091E-03
            1179     10.8528E-03     138.221E-03    -33.9065E+06     31.5050E+06     58.3085E+06    -8.89906E+06    -174.833E-03     324.418E-03    -149.585E-03     205.831E-03    -178.550E-03     327.961E-03    -149.290E-03     195.401E-03
            1180     11.6133E-03     138.409E-03    -25.9399E+06     53.0007E+06     68.2491E+06    -13.1071E+06    -182.310E-03     333.289E-03    -150.980E-03     196.723E-03    -186.084E-03     336.966E-03    -150.678E-03     185.461E-03
            1181     12.3656E-03     138.593E-03    -18.7848E+06     72.7443E+06     74.3254E+06    -17.1438E+06    -190.021E-03     342.735E-03    -152.714E-03     184.525E-03    -193.756E-03     346.449E-03    -152.420E-03     172.391E-03
            1182     13.1120E-03     138.774E-03    -12.6075E+06     85.7624E+06     81.6018E+06    -19.0693E+06    -197.072E-03     351.834E-03    -154.762E-03     166.607E-03    -200.567E-03     355.355E-03    -154.460E-03     153.854E-03
            1183     13.8513E-03     138.939E-03    -5.07647E+06     73.5283E+06     81.3884E+06    -15.5568E+06    -202.687E-03     359.698E-03    -157.011E-03     147.545E-03    -205.977E-03     362.998E-03    -156.704E-03     133.913E-03
            1184     14.5860E-03     139.092E-03    -2.11948E+06     38.7216E+06     62.4496E+06    -8.01945E+06    -206.204E-03     365.505E-03    -159.301E-03     104.206E-03    -208.468E-03     367.719E-03    -159.041E-03     92.1824E-03
            1185     777.337E-06     137.944E-03    -96.5756E+06    -193.180E+06    -97.6032E+06    -2.45658E+06    -145.976E-03     291.600E-03    -145.624E-03     26.4540E-03    -146.061E-03     290.931E-03    -145.692E-03     25.9527E-03
            1186     1.55504E-03     137.970E-03    -96.7081E+06    -183.322E+06    -89.9019E+06    -3.17113E+06    -144.686E-03     290.115E-03    -145.429E-03     48.4204E-03    -144.838E-03     289.524E-03    -145.472E-03     47.5191E-03
            1187     2.33412E-03     138.012E-03    -94.9621E+06    -170.268E+06    -79.1109E+06    -3.95509E+06    -143.466E-03     288.230E-03    -144.764E-03     71.7480E-03    -143.713E-03     287.757E-03    -144.775E-03     70.4145E-03
            1188     3.11520E-03     138.072E-03    -93.1627E+06    -153.424E+06    -65.2290E+06    -5.40847E+06    -142.169E-03     286.136E-03    -143.968E-03     94.8796E-03    -142.553E-03     285.826E-03    -143.936E-03     93.0909E-03
            1189     3.89802E-03     138.148E-03    -89.6855E+06    -137.551E+06    -50.5282E+06    -7.07556E+06    -141.196E-03     284.292E-03    -143.096E-03     117.516E-03    -141.745E-03     284.174E-03    -143.019E-03     115.235E-03
            1190     4.68246E-03     138.241E-03    -84.7641E+06    -123.628E+06    -35.0033E+06    -6.08314E+06    -141.067E-03     283.318E-03    -142.251E-03     139.451E-03    -141.819E-03     283.425E-03    -142.123E-03     136.644E-03
            1191     5.46746E-03     138.352E-03    -81.0536E+06    -104.791E+06    -21.2572E+06    -5.57588E+06    -142.022E-03     283.541E-03    -141.519E-03     160.101E-03    -143.043E-03     283.960E-03    -141.356E-03     156.670E-03
            1192     6.25287E-03     138.479E-03    -77.4826E+06    -86.6698E+06    -9.92301E+06    -8.20157E+06    -144.226E-03     285.218E-03    -140.992E-03     178.834E-03    -145.577E-03     286.013E-03    -140.804E-03     174.625E-03
            1193     7.03695E-03     138.622E-03    -71.6718E+06    -68.2738E+06     1.45721E+06    -8.94075E+06    -147.917E-03     288.674E-03    -140.757E-03     195.150E-03    -149.659E-03     289.914E-03    -140.547E-03     190.044E-03
            1194     7.81893E-03     138.782E-03    -63.5371E+06    -49.1977E+06     14.2470E+06    -6.08033E+06    -153.113E-03     294.002E-03    -140.889E-03     208.455E-03    -155.301E-03     295.749E-03    -140.654E-03     202.357E-03
            1195     8.59663E-03     138.955E-03    -55.1472E+06    -20.2520E+06     28.7394E+06    -7.07927E+06    -159.536E-03     300.961E-03    -141.425E-03     218.004E-03    -162.226E-03     303.302E-03    -141.172E-03     210.741E-03
            1196     9.36990E-03     139.141E-03    -48.0414E+06    -6.54959E+06     37.3720E+06    -10.4213E+06    -167.103E-03     309.494E-03    -142.391E-03     222.792E-03    -170.248E-03     312.340E-03    -142.125E-03     214.296E-03
            1197     10.1367E-03     139.335E-03    -40.3120E+06     4.07718E+06     43.8441E+06    -10.5842E+06    -175.570E-03     319.366E-03    -143.796E-03     222.357E-03    -179.069E-03     322.614E-03    -143.524E-03     212.705E-03
            1198     10.8972E-03     139.535E-03    -31.5909E+06     40.8956E+06     57.1302E+06    -12.4153E+06    -184.464E-03     330.091E-03    -145.628E-03     216.699E-03    -188.227E-03     333.727E-03    -145.355E-03     205.938E-03
            1199     11.6489E-03     139.734E-03    -23.1581E+06     61.7167E+06     67.5492E+06    -16.2220E+06    -193.361E-03     341.221E-03    -147.860E-03     206.141E-03    -197.203E-03     345.010E-03    -147.578E-03     194.339E-03
            1200     12.3944E-03     139.934E-03    -16.4515E+06     76.1080E+06     72.4755E+06    -17.3685E+06    -201.522E-03     351.914E-03    -150.393E-03     192.757E-03    -205.322E-03     355.721E-03    -150.117E-03     180.017E-03
            1201     13.1313E-03     140.127E-03    -12.3158E+06     89.8149E+06     80.3636E+06    -16.9203E+06    -208.248E-03     361.411E-03    -153.163E-03     173.793E-03    -211.825E-03     365.033E-03    -152.873E-03     160.417E-03
            1202     13.8646E-03     140.302E-03    -11.4657E+06     67.4140E+06     75.5423E+06    -16.4365E+06    -213.115E-03     369.152E-03    -156.037E-03     152.705E-03    -216.502E-03     372.521E-03    -155.740E-03     138.329E-03
            1203     14.5927E-03     140.467E-03    -5.23956E+06     20.6244E+06     56.5148E+06    -10.7344E+06    -215.111E-03     373.966E-03    -158.855E-03     107.943E-03    -217.417E-03     376.164E-03    -158.594E-03     95.2648E-03
            1204     786.113E-06     139.199E-03    -107.102E+06    -188.774E+06    -105.625E+06    -654.193E+03    -133.927E-03     267.785E-03    -133.858E-03     28.3695E-03    -134.056E-03     267.156E-03    -133.957E-03     28.0633E-03
            1205     1.57362E-03     139.224E-03    -108.446E+06    -181.650E+06    -102.795E+06    -285.858E+03    -133.236E-03     266.832E-03    -133.596E-03     52.5016E-03    -133.415E-03     266.266E-03    -133.690E-03     51.9461E-03
            1206     2.36193E-03     139.264E-03    -107.096E+06    -167.269E+06    -90.4303E+06     329.756E+03    -132.629E-03     265.772E-03    -133.142E-03     77.6356E-03    -132.892E-03     265.310E-03    -133.197E-03     76.7981E-03
            1207     3.15124E-03     139.322E-03    -102.747E+06    -147.176E+06    -71.3282E+06    -712.267E+03    -132.293E-03     264.937E-03    -132.644E-03     102.411E-03    -132.669E-03     264.622E-03    -132.638E-03     101.234E-03
            1208     3.94160E-03     139.397E-03    -97.7768E+06    -132.842E+06    -54.3779E+06    -2.37506E+06    -132.765E-03     264.931E-03    -132.166E-03     126.541E-03    -133.276E-03     264.772E-03    -132.104E-03     124.951E-03
            1209     4.73235E-03     139.489E-03     -93.174E+06    -125.774E+06    -41.4267E+06    -1.67214E+06    -134.376E-03     266.185E-03    -131.809E-03     149.709E-03    -135.055E-03     266.201E-03    -131.699E-03     147.643E-03
            1210     5.52300E-03     139.602E-03    -86.7257E+06    -99.2113E+06    -25.8190E+06    -889.582E+03    -137.321E-03     268.976E-03    -131.655E-03     171.250E-03    -138.253E-03     269.319E-03    -131.515E-03     168.584E-03
            1211     6.31158E-03     139.732E-03    -79.1100E+06    -75.1905E+06    -11.2589E+06    -5.01741E+06    -141.879E-03     273.686E-03    -131.806E-03     190.625E-03    -143.128E-03     274.418E-03    -131.639E-03     187.128E-03
            1212     7.09762E-03     139.882E-03    -71.5128E+06    -66.7943E+06    -2.07370E+06    -8.26411E+06    -148.064E-03     280.398E-03    -132.334E-03     207.368E-03    -149.683E-03     281.532E-03    -132.144E-03     202.865E-03
            1213     7.87907E-03     140.049E-03    -62.3751E+06    -47.4304E+06     9.66724E+06    -9.50879E+06    -155.599E-03     288.880E-03    -133.280E-03     220.836E-03    -157.676E-03     290.540E-03    -133.072E-03     215.171E-03
            1214     8.65576E-03     140.234E-03    -51.3616E+06    -13.5374E+06     26.0767E+06    -10.4413E+06    -164.403E-03     299.080E-03    -134.676E-03     230.320E-03    -167.005E-03     301.380E-03    -134.452E-03     223.332E-03
            1215     9.42543E-03     140.431E-03    -41.5121E+06    -3.59034E+06     34.8925E+06    -10.3174E+06    -174.436E-03     310.981E-03    -136.545E-03     234.795E-03    -177.528E-03     313.817E-03    -136.305E-03     226.361E-03
            1216     10.1873E-03     140.641E-03    -34.5798E+06     8.33089E+06     42.4384E+06    -11.8542E+06    -185.024E-03     323.906E-03    -138.882E-03     233.754E-03    -188.535E-03     327.207E-03    -138.632E-03     223.866E-03
            1217     10.9404E-03     140.854E-03    -28.1394E+06     50.5961E+06     57.5059E+06    -14.6205E+06    -195.544E-03     337.189E-03    -141.645E-03     227.378E-03    -199.372E-03     340.937E-03    -141.390E-03     216.155E-03
            1218     11.6856E-03     141.073E-03    -22.5006E+06     67.8200E+06     65.8982E+06    -17.6550E+06    -205.421E-03     350.191E-03    -144.770E-03     215.971E-03    -209.354E-03     354.101E-03    -144.506E-03     203.546E-03
            1219     12.4212E-03     141.284E-03    -16.8569E+06     78.5788E+06     70.2879E+06    -19.1280E+06    -213.786E-03     361.922E-03    -148.137E-03     201.024E-03    -217.676E-03     365.834E-03    -147.875E-03     187.555E-03
            1220     13.1533E-03     141.492E-03    -9.67458E+06     85.3729E+06     78.1618E+06    -16.1632E+06    -219.812E-03     371.460E-03    -151.648E-03     179.942E-03    -223.438E-03     375.132E-03    -151.367E-03     165.858E-03
            1221     13.8760E-03     141.680E-03    -3.68403E+06     66.7613E+06     75.4881E+06    -11.5017E+06    -222.737E-03     377.859E-03    -155.122E-03     157.556E-03    -226.159E-03     381.289E-03    -154.836E-03     142.550E-03
            1222     14.5970E-03     141.848E-03    -2.20932E+06     10.3002E+06     57.0481E+06    -10.3868E+06    -223.080E-03     381.506E-03    -158.426E-03     112.382E-03    -225.416E-03     383.707E-03    -158.153E-03     99.1939E-03
            1223     798.447E-06     140.422E-03    -131.753E+06    -191.680E+06    -126.291E+06     4.43734E+06    -119.869E-03     239.263E-03    -119.394E-03     30.7776E-03    -120.084E-03     238.678E-03    -119.557E-03     30.6809E-03
            1224     1.59634E-03     140.446E-03    -127.753E+06    -181.352E+06    -112.460E+06     2.89989E+06    -120.034E-03     239.623E-03    -119.589E-03     56.5053E-03    -120.281E-03     239.082E-03    -119.703E-03     56.2470E-03
            1225     2.39473E-03     140.486E-03    -121.685E+06    -167.642E+06    -98.4112E+06     2.42196E+06    -120.663E-03     240.257E-03    -119.594E-03     83.1131E-03    -120.953E-03     239.791E-03    -119.667E-03     82.6652E-03
            1226     3.19341E-03     140.544E-03    -116.017E+06    -143.040E+06    -82.8082E+06     2.04019E+06    -122.025E-03     241.660E-03    -119.635E-03     109.293E-03    -122.403E-03     241.347E-03    -119.673E-03     108.600E-03
            1227     3.99170E-03     140.620E-03    -110.070E+06    -130.490E+06    -65.2822E+06     1.16469E+06    -124.606E-03     244.455E-03    -119.849E-03     134.623E-03    -125.090E-03     244.266E-03    -119.827E-03     133.592E-03
            1228     4.78856E-03     140.717E-03    -100.909E+06    -122.188E+06    -48.4839E+06    -1.98628E+06    -128.590E-03     248.888E-03    -120.298E-03     158.691E-03    -129.209E-03     248.850E-03    -120.217E-03     157.171E-03
            1229     5.58303E-03     140.833E-03    -87.5914E+06    -93.3360E+06    -30.9604E+06    -6.04441E+06    -133.960E-03     254.973E-03    -121.013E-03     180.925E-03    -134.788E-03     255.246E-03    -120.905E-03     178.756E-03
            1230     6.37469E-03     140.972E-03    -74.3337E+06    -68.4039E+06    -14.6466E+06    -6.93226E+06    -140.978E-03     263.058E-03    -122.080E-03     200.965E-03    -142.090E-03     263.706E-03    -121.946E-03     197.996E-03
            1231     7.16106E-03     141.131E-03    -64.1816E+06    -61.5959E+06    -3.43578E+06    -9.10048E+06    -149.697E-03     273.263E-03    -123.566E-03     218.350E-03    -151.173E-03     274.305E-03    -123.401E-03     214.323E-03
            1232     7.94205E-03     141.311E-03    -55.5695E+06    -39.8339E+06     9.27499E+06    -12.3500E+06    -159.754E-03     285.248E-03    -125.493E-03     232.133E-03    -161.716E-03     286.849E-03    -125.309E-03     226.793E-03
            1233     8.71557E-03     141.509E-03    -48.4231E+06    -10.2155E+06     22.6157E+06    -13.4141E+06    -170.957E-03     298.841E-03    -127.884E-03     241.624E-03    -173.481E-03     301.098E-03    -127.685E-03     234.796E-03
            1234     9.48098E-03     141.725E-03    -41.8591E+06    -3.76489E+06     29.8995E+06    -13.7011E+06    -183.083E-03     313.835E-03    -130.753E-03     246.067E-03    -186.153E-03     316.665E-03    -130.537E-03     237.559E-03
            1235     10.2368E-03     141.950E-03    -33.4708E+06     16.2489E+06     41.6711E+06    -14.7962E+06    -195.495E-03     329.576E-03    -134.081E-03     244.838E-03    -199.051E-03     332.958E-03    -133.847E-03     234.611E-03
            1236     10.9832E-03     142.185E-03    -25.9471E+06     56.4194E+06     57.5432E+06    -15.9208E+06    -207.244E-03     345.043E-03    -137.799E-03     237.919E-03    -211.149E-03     348.898E-03    -137.555E-03     226.156E-03
            1237     11.7197E-03     142.419E-03    -19.6314E+06     74.0460E+06     66.9688E+06    -16.5024E+06    -217.778E-03     359.599E-03    -141.821E-03     225.123E-03    -221.785E-03     363.613E-03    -141.565E-03     212.081E-03
            1238     12.4496E-03     142.650E-03    -16.1061E+06     83.3009E+06     71.2122E+06    -17.4072E+06    -226.074E-03     372.083E-03    -146.009E-03     208.297E-03    -230.034E-03     376.082E-03    -145.751E-03     194.155E-03
            1239     13.1680E-03     142.870E-03    -13.2327E+06     82.9179E+06     77.0806E+06    -18.9676E+06    -230.348E-03     380.568E-03    -150.220E-03     186.096E-03    -234.041E-03     384.289E-03    -149.936E-03     171.360E-03
            1240     13.8880E-03     143.066E-03    -5.42542E+06     56.5198E+06     72.0919E+06    -19.0559E+06    -231.797E-03     386.038E-03    -154.240E-03     162.225E-03    -235.226E-03     389.442E-03    -153.954E-03     146.646E-03
            1241     14.6069E-03     143.240E-03    -338.767E+03    -5.46351E+06     55.6164E+06    -8.93956E+06    -231.441E-03     389.451E-03    -158.010E-03     114.399E-03    -233.747E-03     391.578E-03    -157.724E-03     100.807E-03
            1242     810.915E-06     141.607E-03    -164.211E+06    -197.657E+06    -163.118E+06     885.704E+03    -105.012E-03     208.811E-03    -103.799E-03     32.2188E-03    -105.323E-03     208.292E-03    -104.090E-03     32.1720E-03
            1243     1.62150E-03     141.633E-03    -155.938E+06    -179.349E+06    -144.928E+06     906.284E+03    -106.127E-03     210.711E-03    -104.584E-03     59.1984E-03    -106.458E-03     210.255E-03    -104.822E-03     59.0835E-03
            1244     2.43081E-03     141.675E-03    -145.399E+06    -165.915E+06    -123.577E+06    -1.56129E+06    -108.619E-03     213.839E-03    -105.220E-03     87.0809E-03    -108.968E-03     213.427E-03    -105.387E-03     86.8231E-03
            1245     3.23856E-03     141.737E-03    -132.013E+06    -141.518E+06    -99.8608E+06    -1.82664E+06    -112.304E-03     218.383E-03    -106.078E-03     114.331E-03    -112.697E-03     218.084E-03    -106.181E-03     113.893E-03
            1246     4.04385E-03     141.819E-03    -117.041E+06    -126.971E+06    -76.9845E+06    -3.63246E+06    -117.395E-03     224.612E-03    -107.218E-03     140.527E-03    -117.842E-03     224.410E-03    -107.249E-03     139.791E-03
            1247     4.84602E-03     141.922E-03    -102.248E+06    -110.446E+06    -56.7023E+06    -9.44221E+06    -123.910E-03     232.561E-03    -108.651E-03     165.450E-03    -124.464E-03     232.521E-03    -108.626E-03     164.232E-03
            1248     5.64402E-03     142.049E-03    -90.4307E+06    -85.9282E+06    -39.3454E+06    -14.4196E+06    -131.900E-03     242.304E-03    -110.404E-03     188.463E-03    -132.650E-03     242.542E-03    -110.345E-03     186.604E-03
            1249     6.43669E-03     142.198E-03    -80.0746E+06    -69.0335E+06    -24.8331E+06    -14.7274E+06    -141.427E-03     253.959E-03    -112.532E-03     209.010E-03    -142.451E-03     254.528E-03    -112.440E-03     206.361E-03
            1250     7.22380E-03     142.372E-03    -68.7741E+06    -53.1348E+06    -10.2714E+06    -16.1433E+06    -152.477E-03     267.548E-03    -115.071E-03     226.621E-03    -153.871E-03     268.545E-03    -114.946E-03     222.893E-03
            1251     8.00257E-03     142.567E-03    -57.3808E+06    -34.4151E+06     4.80940E+06    -18.9865E+06    -164.916E-03     282.969E-03    -118.053E-03     240.740E-03    -166.788E-03     284.508E-03    -117.896E-03     235.622E-03
            1252     8.77265E-03     142.785E-03    -46.7408E+06    -11.4531E+06     19.0570E+06    -16.2024E+06    -178.323E-03     299.805E-03    -121.482E-03     250.657E-03    -180.754E-03     301.983E-03    -121.303E-03     243.954E-03
            1253     9.53301E-03     143.018E-03    -37.7412E+06     1.36844E+06     30.2755E+06    -15.9830E+06    -192.260E-03     317.620E-03    -125.360E-03     255.562E-03    -195.271E-03     320.424E-03    -125.156E-03     247.006E-03
            1254     10.2831E-03     143.268E-03    -30.3714E+06     21.7192E+06     42.5721E+06    -18.7151E+06    -206.058E-03     335.707E-03    -129.649E-03     254.516E-03    -209.604E-03     339.109E-03    -129.423E-03     243.997E-03
            1255     11.0225E-03     143.522E-03    -22.8513E+06     58.2720E+06     58.3927E+06    -17.7143E+06    -218.905E-03     353.185E-03    -134.281E-03     246.825E-03    -222.837E-03     357.084E-03    -134.040E-03     234.554E-03
            1256     11.7524E-03     143.779E-03    -17.1565E+06     75.4927E+06     69.6173E+06    -15.7342E+06    -229.531E-03     368.684E-03    -139.153E-03     233.059E-03    -233.577E-03     372.744E-03    -138.890E-03     219.460E-03
            1257     12.4708E-03     144.027E-03    -11.3669E+06     87.9272E+06     76.9392E+06    -14.6227E+06    -236.513E-03     380.582E-03    -144.069E-03     215.255E-03    -240.473E-03     384.596E-03    -143.795E-03     200.722E-03
            1258     13.1897E-03     144.259E-03    -4.35822E+06     83.3412E+06     82.1120E+06    -14.4950E+06    -240.089E-03     388.965E-03    -148.876E-03     190.647E-03    -243.722E-03     392.645E-03    -148.580E-03     175.599E-03
            1259     13.9013E-03     144.462E-03    -4.51090E+06     52.0130E+06     75.0907E+06    -12.8629E+06    -241.071E-03     394.503E-03    -153.432E-03     164.742E-03    -244.458E-03     397.843E-03    -153.125E-03     148.877E-03
            1260     14.6070E-03     144.648E-03    -5.59375E+06    -17.0443E+06     55.7204E+06    -9.72342E+06    -239.234E-03     396.883E-03    -157.649E-03     116.576E-03    -241.541E-03     398.949E-03    -157.337E-03     102.611E-03
            1261     823.131E-06     142.757E-03    -213.163E+06    -189.272E+06    -212.935E+06    -8.59560E+06    -91.1266E-03     180.867E-03    -89.7403E-03     32.2959E-03    -91.6173E-03     180.534E-03    -90.2214E-03     32.1606E-03
            1262     1.64501E-03     142.786E-03    -201.791E+06    -171.159E+06    -198.266E+06    -13.1688E+06    -93.3290E-03     184.110E-03    -90.7815E-03     59.2371E-03    -93.8152E-03     183.836E-03    -91.2320E-03     59.0084E-03
            1263     2.46473E-03     142.834E-03    -183.061E+06    -154.740E+06    -165.236E+06    -18.5185E+06    -97.6135E-03     189.613E-03    -91.9995E-03     87.4778E-03    -98.0912E-03     189.361E-03    -92.3359E-03     87.1070E-03
            1264     3.28074E-03     142.903E-03    -159.869E+06    -139.559E+06    -129.370E+06    -21.4087E+06    -103.601E-03     197.259E-03    -93.6583E-03     115.443E-03    -104.068E-03     197.032E-03    -93.8710E-03     114.900E-03
            1265     4.09262E-03     142.994E-03    -135.550E+06    -117.405E+06    -100.743E+06    -23.8840E+06    -111.115E-03     206.792E-03    -95.6770E-03     142.453E-03    -111.598E-03     206.665E-03    -95.8139E-03     141.651E-03
            1266     4.89917E-03     143.109E-03    -112.712E+06    -100.201E+06    -75.3268E+06    -27.9863E+06    -120.113E-03     218.188E-03    -98.0743E-03     168.027E-03    -120.655E-03     218.191E-03    -98.1422E-03     166.813E-03
            1267     5.70013E-03     143.248E-03    -92.7672E+06    -84.3214E+06    -52.0164E+06    -26.0652E+06    -130.682E-03     231.537E-03    -100.855E-03     191.632E-03    -131.359E-03     231.739E-03    -100.858E-03     189.904E-03
            1268     6.49378E-03     143.414E-03    -76.7355E+06    -67.1369E+06    -31.1981E+06    -23.6911E+06    -142.795E-03     246.831E-03    -104.036E-03     212.696E-03    -143.712E-03     247.332E-03    -103.983E-03     210.225E-03
            1269     7.27885E-03     143.603E-03    -63.7571E+06    -46.9496E+06    -11.8191E+06    -24.0581E+06    -156.121E-03     263.749E-03    -107.628E-03     230.674E-03    -157.394E-03     264.670E-03    -107.526E-03     227.147E-03
            1270     8.05558E-03     143.820E-03    -53.9837E+06    -30.8102E+06     3.94249E+06    -23.9666E+06    -170.440E-03     282.069E-03    -111.628E-03     244.969E-03    -172.174E-03     283.499E-03    -111.486E-03     240.082E-03
            1271     8.82240E-03     144.057E-03    -44.4297E+06    -14.7216E+06     17.7694E+06    -23.7669E+06    -185.519E-03     301.550E-03    -116.031E-03     255.061E-03    -187.794E-03     303.574E-03    -115.857E-03     248.500E-03
            1272     9.57824E-03     144.316E-03    -32.9473E+06     4.66843E+06     32.4408E+06    -22.5227E+06    -200.807E-03     321.633E-03    -120.826E-03     260.207E-03    -203.657E-03     324.299E-03    -120.622E-03     251.724E-03
            1273     10.3227E-03     144.587E-03    -23.2898E+06     24.2235E+06     47.4967E+06    -20.2792E+06    -215.620E-03     341.598E-03    -125.978E-03     259.401E-03    -219.007E-03     344.862E-03    -125.742E-03     248.889E-03
            1274     11.0560E-03     144.869E-03    -17.1522E+06     55.5460E+06     62.2526E+06    -17.1443E+06    -228.685E-03     360.072E-03    -131.387E-03     252.258E-03    -232.491E-03     363.845E-03    -131.131E-03     239.874E-03
            1275     11.7774E-03     145.146E-03    -11.2165E+06     71.6271E+06     74.2208E+06    -12.8476E+06    -238.647E-03     375.578E-03    -136.931E-03     238.584E-03    -242.609E-03     379.548E-03    -136.648E-03     224.776E-03
            1276     12.4958E-03     145.411E-03    -7.37044E+06     89.0939E+06     83.8607E+06    -9.91850E+06    -245.535E-03     387.970E-03    -142.435E-03     218.788E-03    -249.414E-03     391.903E-03    -142.134E-03     204.074E-03
            1277     13.2034E-03     145.657E-03    -8.20866E+06     90.4367E+06     89.4034E+06    -11.9123E+06    -249.064E-03     396.848E-03    -147.784E-03     191.764E-03    -252.645E-03     400.467E-03    -147.456E-03     176.503E-03
            1278     13.9076E-03     145.873E-03    -2.97017E+06     50.6313E+06     81.8788E+06    -12.4085E+06    -248.499E-03     401.302E-03    -152.803E-03     164.222E-03    -251.801E-03     404.538E-03    -152.463E-03     148.094E-03
            1279     14.6183E-03     146.057E-03     3.66475E+06    -32.3188E+06     62.5720E+06    -5.60500E+06    -244.899E-03     402.273E-03    -157.374E-03     116.212E-03    -247.101E-03     404.193E-03    -157.020E-03     102.086E-03
            1280     831.928E-06     143.878E-03    -220.675E+06    -161.669E+06    -216.147E+06    -14.0953E+06    -81.3446E-03     161.151E-03    -79.8069E-03     29.9865E-03    -81.9049E-03     160.977E-03    -80.3332E-03     29.7679E-03
            1281     1.66223E-03     143.911E-03    -213.411E+06    -147.556E+06    -203.928E+06    -26.0550E+06    -84.2333E-03     165.320E-03    -81.0870E-03     55.0760E-03    -84.8020E-03     165.195E-03    -81.5832E-03     54.6638E-03
            1282     2.48951E-03     143.966E-03    -202.344E+06    -133.209E+06    -182.953E+06    -35.5765E+06    -89.3647E-03     171.965E-03    -82.6002E-03     81.9508E-03    -89.9441E-03     171.880E-03    -83.0284E-03     81.3466E-03
            1283     3.31268E-03     144.045E-03    -185.174E+06    -123.011E+06    -157.184E+06    -44.9829E+06    -96.5487E-03     181.193E-03    -84.6441E-03     109.277E-03    -97.1246E-03     181.129E-03    -84.9831E-03     108.434E-03
            1284     4.12983E-03     144.149E-03    -163.649E+06    -103.479E+06    -129.967E+06    -51.6636E+06    -105.710E-03     192.898E-03    -87.1881E-03     136.276E-03    -106.303E-03     192.920E-03    -87.4506E-03     135.151E-03
            1285     4.94060E-03     144.278E-03    -142.098E+06    -90.2067E+06    -102.461E+06    -54.5546E+06    -116.770E-03     207.018E-03    -90.2476E-03     162.083E-03    -117.413E-03     207.136E-03    -90.4231E-03     160.600E-03
            1286     5.74296E-03     144.434E-03    -119.664E+06    -87.7876E+06    -76.3877E+06    -54.2932E+06    -129.534E-03     223.338E-03    -93.8043E-03     186.047E-03    -130.263E-03     223.557E-03    -93.8854E-03     184.080E-03
            1287     6.53711E-03     144.617E-03    -94.3792E+06    -69.5540E+06    -47.8757E+06    -49.6140E+06    -143.694E-03     241.506E-03    -97.8126E-03     207.461E-03    -144.596E-03     241.972E-03    -97.8142E-03     204.846E-03
            1288     7.32153E-03     144.829E-03    -71.2273E+06    -51.1413E+06    -19.1942E+06    -43.2284E+06    -159.039E-03     261.309E-03    -102.270E-03     225.624E-03    -160.213E-03     262.113E-03    -102.189E-03     222.108E-03
            1289     8.09519E-03     145.066E-03    -51.1456E+06    -35.3583E+06     4.30090E+06    -36.2466E+06    -175.094E-03     282.225E-03    -107.130E-03     239.920E-03    -176.632E-03     283.452E-03    -106.983E-03     235.207E-03
            1290     8.85761E-03     145.329E-03    -35.5212E+06    -15.0160E+06     22.6009E+06    -31.6092E+06    -191.346E-03     303.689E-03    -112.343E-03     250.032E-03    -193.344E-03     305.453E-03    -112.157E-03     243.778E-03
            1291     9.60901E-03     145.611E-03    -25.9707E+06     1.15655E+06     37.7077E+06    -27.7583E+06    -207.314E-03     325.199E-03    -117.885E-03     255.327E-03    -209.825E-03     327.524E-03    -117.661E-03     247.269E-03
            1292     10.3488E-03     145.911E-03    -19.0094E+06     18.2114E+06     52.7927E+06    -21.8759E+06    -221.906E-03     345.589E-03    -123.683E-03     255.350E-03    -224.917E-03     348.455E-03    -123.418E-03     245.394E-03
            1293     11.0771E-03     146.216E-03    -12.9226E+06     49.6735E+06     69.1145E+06    -15.1847E+06    -234.131E-03     363.739E-03    -129.608E-03     249.397E-03    -237.562E-03     367.110E-03    -129.316E-03     237.636E-03
            1294     11.7993E-03     146.517E-03    -7.99938E+06     66.0042E+06     80.2468E+06    -11.2233E+06    -244.452E-03     380.029E-03    -135.577E-03     235.839E-03    -248.106E-03     383.666E-03    -135.260E-03     222.412E-03
            1295     12.5080E-03     146.802E-03    -1.19778E+06     83.4694E+06     90.4067E+06    -7.32734E+06    -251.619E-03     393.104E-03    -141.486E-03     215.509E-03    -255.274E-03     396.797E-03    -141.153E-03     200.842E-03
            1296     13.2129E-03     147.067E-03     5.35050E+06     94.7333E+06     105.386E+06     908.384E+03    -254.236E-03     401.447E-03    -147.210E-03     188.908E-03    -257.604E-03     404.869E-03    -146.828E-03     173.926E-03
            1297     13.9168E-03     147.286E-03    -1.65084E+06     58.1600E+06     95.7328E+06     2.14609E+06    -252.565E-03     405.066E-03    -152.501E-03     160.351E-03    -255.688E-03     408.114E-03    -152.104E-03     144.686E-03
            1298     14.6131E-03     147.477E-03    -8.97496E+06    -38.1423E+06     67.9120E+06    -4.04922E+06    -247.460E-03     404.714E-03    -157.254E-03     113.949E-03    -249.608E-03     406.499E-03    -156.846E-03     100.020E-03
            1299     835.127E-06     144.983E-03    -176.691E+06    -125.729E+06    -174.080E+06    -15.4893E+06    -78.3544E-03     155.099E-03    -76.7444E-03     24.8015E-03    -78.8082E-03     154.983E-03    -77.1762E-03     24.5299E-03
            1300     1.66830E-03     145.021E-03    -172.407E+06    -113.940E+06    -162.708E+06    -27.5680E+06    -81.1966E-03     159.327E-03    -78.1300E-03     45.6037E-03    -81.6733E-03     159.258E-03    -78.5283E-03     45.1041E-03
            1301     2.49848E-03     145.083E-03    -165.228E+06    -103.194E+06    -148.088E+06    -39.4161E+06    -86.3244E-03     166.036E-03    -79.7111E-03     68.3121E-03    -86.8231E-03     166.010E-03    -80.0623E-03     67.5570E-03
            1302     3.32431E-03     145.172E-03    -156.825E+06    -90.6519E+06    -131.989E+06    -52.2855E+06    -93.4500E-03     175.286E-03    -81.8355E-03     91.7227E-03    -93.9848E-03     175.325E-03    -82.1367E-03     90.6542E-03
            1303     4.14484E-03     145.288E-03    -147.310E+06    -81.4201E+06    -113.419E+06    -62.6271E+06    -102.712E-03     187.244E-03    -84.5318E-03     115.377E-03    -103.298E-03     187.348E-03    -84.7673E-03     113.960E-03
            1304     4.95738E-03     145.433E-03    -135.373E+06    -74.5119E+06    -94.8283E+06    -67.6570E+06    -114.122E-03     201.921E-03    -87.7985E-03     138.762E-03    -114.777E-03     202.109E-03    -87.9683E-03     136.966E-03
            1305     5.76141E-03     145.607E-03    -121.796E+06    -75.3647E+06    -77.0222E+06    -72.9400E+06    -127.462E-03     219.094E-03    -91.6316E-03     161.378E-03    -128.206E-03     219.366E-03    -91.7308E-03     159.072E-03
            1306     6.55467E-03     145.812E-03    -107.272E+06    -70.7469E+06    -59.6683E+06    -75.2343E+06    -142.307E-03     238.285E-03    -95.9779E-03     182.360E-03    -143.191E-03     238.717E-03    -96.0181E-03     179.422E-03
            1307     7.33756E-03     146.045E-03    -89.2963E+06    -58.9084E+06    -38.7246E+06    -71.3586E+06    -158.438E-03     259.246E-03    -100.809E-03     200.828E-03    -159.515E-03     259.918E-03    -100.787E-03     197.139E-03
            1308     8.10855E-03     146.308E-03    -70.1832E+06    -49.1951E+06    -13.7380E+06    -65.0404E+06    -175.391E-03     281.495E-03    -106.104E-03     215.828E-03    -176.725E-03     282.454E-03    -105.999E-03     211.156E-03
            1309     8.86812E-03     146.594E-03    -51.8324E+06    -30.1926E+06     13.2406E+06    -54.6064E+06    -192.328E-03     304.106E-03    -111.778E-03     226.776E-03    -193.995E-03     305.453E-03    -111.593E-03     220.912E-03
            1310     9.61550E-03     146.904E-03    -35.0443E+06    -15.3437E+06     36.4249E+06    -42.0912E+06    -208.166E-03     325.890E-03    -117.724E-03     233.212E-03    -210.193E-03     327.643E-03    -117.469E-03     225.958E-03
            1311     10.3518E-03     147.228E-03    -21.0231E+06     1.24343E+06     56.6344E+06    -30.5343E+06    -221.867E-03     345.675E-03    -123.809E-03     234.229E-03    -224.257E-03     347.841E-03    -123.497E-03     225.448E-03
            1312     11.0807E-03     147.558E-03    -8.06618E+06     34.1595E+06     75.9041E+06    -19.3297E+06    -233.619E-03     363.530E-03    -129.912E-03     229.016E-03    -236.335E-03     366.129E-03    -129.570E-03     218.679E-03
            1313     11.7969E-03     147.884E-03     1.22511E+06     54.6317E+06     87.8812E+06    -7.33796E+06    -243.024E-03     378.981E-03    -135.957E-03     218.516E-03    -245.957E-03     381.867E-03    -135.599E-03     206.734E-03
            1314     12.5069E-03     148.196E-03     3.68091E+06     81.3698E+06     98.8664E+06    -1.91903E+06    -249.409E-03     391.256E-03    -141.847E-03     202.927E-03    -252.490E-03     394.359E-03    -141.476E-03     189.791E-03
            1315     13.2123E-03     148.468E-03     6.20584E+06     77.0237E+06     108.406E+06     2.01512E+06    -252.238E-03     399.744E-03    -147.506E-03     179.641E-03    -255.225E-03     402.718E-03    -147.085E-03     165.565E-03
            1316     13.9114E-03     148.710E-03     19.3434E+06     50.1848E+06     109.752E+06     16.2367E+06    -250.329E-03     403.054E-03    -152.724E-03     151.833E-03    -253.025E-03     405.680E-03    -152.276E-03     137.412E-03
            1317     14.6208E-03     148.890E-03     23.0635E+06    -18.8122E+06     88.5509E+06     19.7633E+06    -244.763E-03     402.105E-03    -157.342E-03     108.276E-03    -246.544E-03     403.644E-03    -156.905E-03     95.8423E-03
            1318     830.314E-06     146.090E-03    -117.344E+06    -88.8030E+06    -116.971E+06    -16.4562E+06    -84.2637E-03     167.415E-03    -83.1509E-03     16.0026E-03    -84.5640E-03     167.310E-03    -83.4368E-03     15.6544E-03
            1319     1.65934E-03     146.131E-03    -114.236E+06    -80.5976E+06    -107.452E+06    -26.3125E+06    -86.7954E-03     171.176E-03    -84.3805E-03     29.4649E-03    -87.1191E-03     171.106E-03    -84.6353E-03     28.8617E-03
            1320     2.48539E-03     146.200E-03    -107.622E+06    -68.5891E+06    -91.7733E+06    -38.8900E+06    -91.3879E-03     177.385E-03    -85.9970E-03     43.8133E-03    -91.7430E-03     177.367E-03    -86.2004E-03     42.8742E-03
            1321     3.30697E-03     146.297E-03    -99.3330E+06    -59.9983E+06    -73.6203E+06    -48.0661E+06    -97.4732E-03     185.677E-03    -88.2033E-03     58.4927E-03    -97.8644E-03     185.703E-03    -88.3404E-03     57.2097E-03
            1322     4.12234E-03     146.424E-03    -92.6982E+06    -53.5414E+06    -58.4174E+06    -54.9500E+06    -105.007E-03     195.926E-03    -90.9182E-03     73.9815E-03    -105.454E-03     196.012E-03    -90.9982E-03     72.3260E-03
            1323     4.93136E-03     146.582E-03    -86.4145E+06    -50.9949E+06    -49.0942E+06    -62.9073E+06    -114.170E-03     208.279E-03    -94.1083E-03     90.2660E-03    -114.682E-03     208.436E-03    -94.1545E-03     88.1557E-03
            1324     5.73178E-03     146.772E-03    -79.9576E+06    -52.1674E+06    -41.8822E+06    -68.3238E+06    -124.994E-03     222.782E-03    -97.7879E-03     106.981E-03    -125.584E-03     223.018E-03    -97.8057E-03     104.373E-03
            1325     6.52357E-03     146.995E-03    -75.8417E+06    -55.5430E+06    -35.2649E+06    -71.3335E+06    -137.472E-03     239.430E-03    -101.958E-03     123.663E-03    -138.170E-03     239.761E-03    -101.944E-03     120.502E-03
            1326     7.30433E-03     147.250E-03    -74.3845E+06    -50.9867E+06    -28.5564E+06    -73.6654E+06    -151.263E-03     257.845E-03    -106.583E-03     139.572E-03    -152.115E-03     258.337E-03    -106.544E-03     135.772E-03
            1327     8.07445E-03     147.535E-03    -71.9154E+06    -47.8078E+06    -17.1066E+06    -73.9056E+06    -166.003E-03     277.646E-03    -111.644E-03     153.817E-03    -167.036E-03     278.309E-03    -111.555E-03     149.281E-03
            1328     8.83186E-03     147.848E-03    -66.5118E+06    -42.9164E+06     179.502E+03    -71.3773E+06    -180.954E-03     298.009E-03    -117.055E-03     166.083E-03    -182.188E-03     298.863E-03    -116.895E-03     160.724E-03
            1329     9.57812E-03     148.182E-03    -57.8622E+06    -37.9320E+06     16.1413E+06    -63.9455E+06    -194.962E-03     317.613E-03    -122.652E-03     175.639E-03    -196.395E-03     318.672E-03    -122.432E-03     169.421E-03
            1330     10.3155E-03     148.531E-03    -45.9911E+06    -22.7934E+06     36.1664E+06    -54.7773E+06    -207.813E-03     336.128E-03    -128.315E-03     181.659E-03    -209.447E-03     337.428E-03    -128.034E-03     174.538E-03
            1331     11.0409E-03     148.885E-03    -33.2045E+06     3.46178E+06     59.1426E+06    -45.4542E+06    -218.769E-03     352.689E-03    -133.920E-03     184.589E-03    -220.595E-03     354.254E-03    -133.581E-03     176.563E-03
            1332     11.7617E-03     149.236E-03    -19.1481E+06     13.6523E+06     79.0873E+06    -26.6249E+06    -226.954E-03     366.299E-03    -139.345E-03     183.137E-03    -228.907E-03     368.018E-03    -138.942E-03     174.346E-03
            1333     12.4806E-03     149.563E-03    -8.05448E+06     59.2508E+06     104.450E+06    -3.78816E+06    -232.997E-03     377.481E-03    -144.483E-03     176.795E-03    -235.127E-03     379.501E-03    -144.035E-03     167.200E-03
            1334     13.1903E-03     149.871E-03    -6.91253E+06     67.8387E+06     111.400E+06     8.43380E+06    -237.100E-03     386.411E-03    -149.311E-03     163.085E-03    -239.415E-03     388.629E-03    -148.843E-03     152.010E-03
            1335     13.9027E-03     150.108E-03    -17.4541E+06     25.7799E+06     98.9184E+06     13.2578E+06    -237.170E-03     390.966E-03    -153.796E-03     141.088E-03    -239.587E-03     393.130E-03    -153.313E-03     128.484E-03
            1336     14.6068E-03     150.306E-03    -22.3347E+06    -9.41747E+06     69.9906E+06     16.3134E+06    -234.179E-03     391.931E-03    -157.751E-03     102.290E-03    -235.921E-03     393.358E-03    -157.355E-03     91.3730E-03
            1337     816.247E-06     147.222E-03    -59.6042E+06    -51.7522E+06    -54.0362E+06    -14.0313E+06    -102.506E-03     204.305E-03    -101.799E-03     2.94594E-03    -102.683E-03     204.184E-03    -101.908E-03     2.54432E-03
            1338     1.63098E-03     147.267E-03    -55.8577E+06    -48.9670E+06    -45.6834E+06    -24.3302E+06    -105.029E-03     208.301E-03    -103.272E-03     2.77021E-03    -105.211E-03     208.177E-03    -103.349E-03     2.00248E-03
            1339     2.44190E-03     147.341E-03    -50.0969E+06    -35.0436E+06    -32.1742E+06    -34.6938E+06    -107.819E-03     212.957E-03    -105.139E-03     2.83494E-03    -108.019E-03     212.884E-03    -105.176E-03     1.65163E-03
            1340     3.24809E-03     147.444E-03    -45.1180E+06    -37.2417E+06    -19.4723E+06    -40.7240E+06    -111.168E-03     218.547E-03    -107.379E-03     4.27740E-03    -111.372E-03     218.455E-03    -107.357E-03     2.69485E-03
            1341     4.04950E-03     147.577E-03    -40.3718E+06    -30.8483E+06    -10.3024E+06    -43.8230E+06    -115.151E-03     225.117E-03    -109.967E-03     7.38313E-03    -115.378E-03     225.064E-03    -109.915E-03     5.41095E-03
            1342     4.84453E-03     147.743E-03    -37.4029E+06    -24.0156E+06    -2.19290E+06    -48.8320E+06    -119.809E-03     232.745E-03    -112.936E-03     11.9415E-03    -120.077E-03     232.749E-03    -112.858E-03     9.52073E-03
            1343     5.63327E-03     147.942E-03    -37.7175E+06    -31.5613E+06     1.84055E+06    -52.2835E+06    -125.238E-03     241.536E-03    -116.298E-03     17.4426E-03    -125.548E-03     241.546E-03    -116.188E-03     14.5542E-03
            1344     6.41392E-03     148.176E-03    -39.6501E+06    -37.2193E+06     5.96126E+06    -52.3442E+06    -131.406E-03     251.441E-03    -120.035E-03     23.9367E-03    -131.778E-03     251.480E-03    -119.893E-03     20.6008E-03
            1345     7.18646E-03     148.444E-03    -41.8038E+06    -32.9404E+06     12.1684E+06    -52.6527E+06    -138.139E-03     262.236E-03    -124.098E-03     31.4316E-03    -138.599E-03     262.362E-03    -123.928E-03     27.6295E-03
            1346     7.94983E-03     148.743E-03    -43.3986E+06    -28.6700E+06     16.4759E+06    -54.8009E+06    -145.181E-03     273.571E-03    -128.389E-03     40.2708E-03    -145.731E-03     273.794E-03    -128.202E-03     35.9823E-03
            1347     8.70576E-03     149.073E-03    -46.2774E+06    -31.4172E+06     17.7828E+06    -55.1493E+06    -152.082E-03     284.862E-03    -132.780E-03     50.2646E-03    -152.720E-03     285.163E-03    -132.579E-03     45.5456E-03
            1348     9.45529E-03     149.426E-03    -51.4231E+06    -34.0952E+06      20.019E+06    -54.0036E+06    -158.971E-03     296.105E-03    -137.134E-03     61.1545E-03    -159.710E-03     296.488E-03    -136.910E-03     56.0891E-03
            1349     10.1972E-03     149.796E-03    -54.9635E+06    -24.3382E+06     28.9767E+06    -55.5471E+06    -165.666E-03     306.975E-03    -141.308E-03     73.9382E-03    -166.526E-03     307.490E-03    -141.048E-03     68.5824E-03
            1350     10.9373E-03     150.174E-03    -56.8563E+06    -10.1531E+06     43.6104E+06    -54.2535E+06    -171.512E-03     316.656E-03    -145.143E-03     87.9867E-03    -172.498E-03     317.311E-03    -144.828E-03     82.4598E-03
            1351     11.6754E-03     150.543E-03    -59.8458E+06    -20.5642E+06     50.8508E+06    -46.3857E+06    -177.554E-03     326.058E-03    -148.504E-03     103.424E-03    -178.633E-03     326.752E-03    -148.133E-03     97.7665E-03
            1352     12.4054E-03     150.900E-03    -52.7335E+06     7.84622E+06     69.0029E+06    -33.2064E+06    -183.983E-03     335.338E-03    -151.355E-03     120.234E-03    -185.207E-03     336.250E-03    -150.945E-03     114.379E-03
            1353     13.1432E-03     151.217E-03    -40.8197E+06     20.5948E+06     79.9751E+06     255.327E+03    -191.759E-03     345.559E-03    -153.800E-03     133.484E-03    -193.131E-03     346.663E-03    -153.371E-03     127.221E-03
            1354     13.8689E-03     151.497E-03    -26.2914E+06     29.2079E+06     98.7324E+06     21.5405E+06    -203.288E-03     359.512E-03    -156.224E-03     133.933E-03    -204.987E-03     360.955E-03    -155.734E-03     125.841E-03
            1355     14.6030E-03     151.682E-03     601.382E+03     15.8487E+06     81.3473E+06     2.92169E+06    -209.941E-03     368.551E-03    -158.610E-03     104.630E-03    -211.295E-03     369.731E-03    -158.227E-03     96.1986E-03
            1356     790.164E-06     148.415E-03     12.3682E+06    -21.1996E+06     17.5229E+06    -8.32237E+06    -138.922E-03     279.340E-03    -140.418E-03    -23.4490E-03    -138.961E-03     279.066E-03    -140.318E-03    -23.9013E-03
            1357     1.57419E-03     148.464E-03     13.8118E+06    -21.0746E+06     24.5543E+06    -16.4872E+06    -138.997E-03     280.059E-03    -141.062E-03    -41.5111E-03    -139.005E-03     279.774E-03    -140.929E-03    -42.3480E-03
            1358     2.35593E-03     148.540E-03     13.1119E+06    -11.5827E+06     28.8352E+06    -20.9489E+06    -138.638E-03     281.076E-03    -142.438E-03    -59.2789E-03    -138.642E-03     280.812E-03    -142.296E-03    -60.4833E-03
            1359     3.13529E-03     148.644E-03     9.94848E+06    -16.3368E+06     32.9471E+06    -23.6446E+06    -137.823E-03     282.122E-03    -144.300E-03    -76.0807E-03    -137.809E-03     281.803E-03    -144.126E-03    -77.6370E-03
            1360     3.91019E-03     148.779E-03     6.29164E+06    -15.0720E+06     36.1344E+06    -26.2923E+06    -136.381E-03     282.941E-03    -146.560E-03    -91.6231E-03    -136.355E-03     282.593E-03    -146.366E-03    -93.5275E-03
            1361     4.68039E-03     148.946E-03     1.85485E+06    -6.52620E+06     41.4910E+06    -26.7794E+06    -134.133E-03     283.314E-03    -149.181E-03    -105.308E-03    -134.111E-03     282.975E-03    -148.967E-03    -107.517E-03
            1362     5.44423E-03     149.146E-03    -4.36040E+06    -12.0331E+06     47.1282E+06    -25.9188E+06    -131.113E-03     283.239E-03    -152.126E-03    -116.528E-03    -131.083E-03     282.844E-03    -151.866E-03    -119.017E-03
            1363     6.20190E-03     149.379E-03    -10.6437E+06    -21.7805E+06     49.2868E+06    -25.9736E+06    -127.149E-03     282.416E-03    -155.267E-03    -124.371E-03    -127.105E-03     281.958E-03    -154.974E-03    -127.141E-03
            1364     6.95355E-03     149.645E-03    -13.7842E+06    -17.3548E+06     53.7754E+06    -28.1403E+06    -122.137E-03     280.602E-03    -158.465E-03    -127.752E-03    -122.097E-03     280.160E-03    -158.151E-03    -130.784E-03
            1365     7.70070E-03     149.944E-03    -16.8840E+06    -10.8925E+06     56.7244E+06    -28.7703E+06    -116.232E-03     277.782E-03    -161.550E-03    -126.018E-03    -116.216E-03     277.395E-03    -161.226E-03    -129.236E-03
            1366     8.44465E-03     150.271E-03    -21.2832E+06    -14.1870E+06     55.3488E+06    -26.6554E+06    -109.812E-03     274.146E-03    -164.335E-03    -118.947E-03    -109.827E-03     273.801E-03    -164.007E-03    -122.227E-03
            1367     9.18759E-03     150.623E-03    -24.1600E+06    -16.3811E+06     56.8913E+06    -24.6284E+06    -103.451E-03     270.097E-03    -166.646E-03    -105.875E-03    -103.518E-03     269.818E-03    -166.302E-03    -109.119E-03
            1368     9.93435E-03     150.995E-03    -25.7351E+06    -4.97403E+06     63.1819E+06    -26.2725E+06    -97.1690E-03     265.438E-03    -168.269E-03    -87.1954E-03    -97.3267E-03     265.305E-03    -167.908E-03    -90.3422E-03
            1369     10.6877E-03     151.375E-03    -30.8551E+06    -850.037E+03     63.6780E+06    -22.5247E+06    -91.7202E-03     260.718E-03    -168.998E-03    -63.7231E-03    -91.9718E-03     260.714E-03    -168.634E-03    -66.6352E-03
            1370     11.4499E-03     151.758E-03    -34.9102E+06    -6.41948E+06     60.0693E+06    -19.9866E+06    -87.7314E-03     256.454E-03    -168.723E-03    -35.3968E-03    -88.0614E-03     256.530E-03    -168.362E-03    -38.0532E-03
            1371     12.2353E-03     152.128E-03    -39.0124E+06    -3.03904E+06     63.5142E+06    -21.8439E+06    -87.6830E-03     255.240E-03    -167.557E-03    -4.56453E-03    -88.1199E-03     255.425E-03    -167.179E-03    -7.09359E-03
            1372     13.0218E-03     152.480E-03    -33.6314E+06    -30.9432E+06     68.3675E+06    -11.1834E+06    -93.8228E-03     259.685E-03    -165.862E-03     21.6402E-03    -94.2717E-03     259.786E-03    -165.426E-03     19.2636E-03
            1373     13.8221E-03     152.786E-03     289.546E+03     15.0368E+06     95.5322E+06    -4.95651E+06    -110.362E-03     274.431E-03    -164.069E-03     48.1187E-03    -110.912E-03     274.857E-03    -163.614E-03     45.0783E-03
            1374     14.5762E-03     153.058E-03     30.1426E+06     28.9214E+06     78.7846E+06     2.31683E+06    -126.885E-03     289.223E-03    -162.338E-03     45.8272E-03    -127.333E-03     289.732E-03    -162.029E-03     42.3673E-03
            1375     14.5207E-03     75.9056E-03    -4.57706E+06     100.513E+06     93.9514E+06     655.300E+03    -162.859E-03     326.737E-03    -163.878E-03     69.1538E-03    -164.943E-03     328.889E-03    -163.547E-03     59.5037E-03
            1376     13.7558E-03     75.7917E-03    -9.11327E+06     97.9321E+06     95.9103E+06     2.20388E+06    -163.048E-03     326.959E-03    -163.912E-03     102.565E-03    -166.123E-03     330.072E-03    -163.561E-03     90.7498E-03
            1377     12.9914E-03     75.6680E-03    -16.1580E+06     90.3735E+06     87.9210E+06     418.165E+03    -163.562E-03     327.483E-03    -163.921E-03     117.711E-03    -167.028E-03     330.958E-03    -163.589E-03     105.502E-03
            1378     12.2268E-03     75.5167E-03    -24.5663E+06     81.1730E+06     74.5659E+06    -2.51205E+06    -164.422E-03     328.335E-03    -163.913E-03     134.444E-03    -168.405E-03     332.303E-03    -163.622E-03     121.563E-03
            1379     11.4613E-03     75.3513E-03    -31.5449E+06     73.5811E+06     65.3331E+06    -3.13999E+06    -165.234E-03     329.153E-03    -163.919E-03     145.848E-03    -169.516E-03     333.395E-03    -163.653E-03     132.657E-03
            1380     10.6978E-03     75.1708E-03    -36.5055E+06     66.8274E+06     62.6114E+06    -1.72992E+06    -165.890E-03     329.844E-03    -163.954E-03     154.085E-03    -170.324E-03     334.204E-03    -163.685E-03     140.787E-03
            1381     9.93291E-03     74.9831E-03    -43.4828E+06     33.2115E+06     52.8046E+06    -835.588E+03    -166.511E-03     330.507E-03    -163.996E-03     157.971E-03    -170.851E-03     334.657E-03    -163.717E-03     144.828E-03
            1382     9.16878E-03     74.7923E-03    -51.4492E+06    -12.5316E+06     38.3692E+06    -315.732E+03    -166.987E-03     331.014E-03    -164.027E-03     157.446E-03    -171.011E-03     334.699E-03    -163.742E-03     144.766E-03
            1383     8.40451E-03     74.6042E-03    -58.7544E+06    -49.4453E+06     24.6072E+06    -427.992E+03    -167.149E-03     331.189E-03    -164.041E-03     152.911E-03    -170.713E-03     334.298E-03    -163.761E-03     140.985E-03
            1384     7.64033E-03     74.4233E-03    -66.0186E+06    -83.1856E+06     11.1362E+06    -413.884E+03    -167.064E-03     331.113E-03    -164.050E-03     145.390E-03    -170.093E-03     333.581E-03    -163.778E-03     134.447E-03
            1385     6.87627E-03     74.2527E-03    -73.7308E+06    -113.524E+06    -2.38775E+06    -132.617E+03    -166.816E-03     330.872E-03    -164.056E-03     135.831E-03    -169.302E-03     332.700E-03    -163.797E-03     126.022E-03
            1386     6.11202E-03     74.0939E-03    -81.6164E+06    -146.603E+06    -16.9364E+06     170.266E+03    -166.474E-03     330.541E-03    -164.067E-03     124.722E-03    -168.440E-03     331.746E-03    -163.821E-03     116.116E-03
            1387     5.34791E-03     73.9494E-03    -89.6935E+06    -173.239E+06    -31.7416E+06     194.076E+03    -166.086E-03     330.157E-03    -164.071E-03     112.265E-03    -167.594E-03     330.824E-03    -163.848E-03     104.868E-03
            1388     4.58381E-03     73.8203E-03    -98.1273E+06    -195.861E+06    -46.9587E+06     49.1240E+03    -165.655E-03     329.724E-03    -164.069E-03     98.6927E-03    -166.774E-03     329.935E-03    -163.877E-03     92.4912E-03
            1389     3.81964E-03     73.7080E-03    -106.873E+06    -227.388E+06    -63.4176E+06     65.9686E+03    -165.240E-03     329.313E-03    -164.073E-03     84.0427E-03    -166.021E-03     329.091E-03    -163.905E-03     78.9971E-03
            1390     3.05559E-03     73.6145E-03    -115.577E+06    -251.505E+06    -81.4152E+06     227.449E+03    -164.819E-03     328.875E-03    -164.056E-03     68.4838E-03    -165.337E-03     328.326E-03    -163.931E-03     64.5339E-03
            1391     2.29171E-03     73.5400E-03    -123.489E+06    -267.583E+06    -100.316E+06     226.497E+03    -164.424E-03     328.451E-03    -164.027E-03     52.3442E-03    -164.745E-03     327.675E-03    -163.961E-03     49.4336E-03
            1392     1.52778E-03     73.4857E-03    -130.098E+06    -284.327E+06    -117.880E+06     129.334E+03    -164.177E-03     328.187E-03    -164.010E-03     35.8274E-03    -164.355E-03     327.235E-03    -163.998E-03     33.8867E-03
            1393     763.828E-06     73.4519E-03    -134.708E+06    -294.113E+06    -131.517E+06     318.728E+03    -164.181E-03     328.049E-03    -163.867E-03     19.6131E-03    -164.273E-03     327.000E-03    -163.903E-03     18.5691E-03
            1394     14.5192E-03     74.5874E-03    -5.08432E+06     98.3210E+06     92.4103E+06    -332.759E+03    -162.649E-03     326.532E-03    -163.883E-03     69.3361E-03    -164.734E-03     328.680E-03    -163.556E-03     59.6733E-03
            1395     13.7560E-03     74.4775E-03    -10.5788E+06     96.2962E+06     94.1955E+06     67.6565E+03    -163.140E-03     327.062E-03    -163.922E-03     103.226E-03    -166.227E-03     330.180E-03    -163.575E-03     91.3713E-03
            1396     12.9909E-03     74.3527E-03    -14.7103E+06     92.8583E+06     90.1674E+06     1.56837E+06    -163.793E-03     327.726E-03    -163.933E-03     118.006E-03    -167.264E-03     331.213E-03    -163.595E-03     105.801E-03
            1397     12.2260E-03     74.2022E-03    -20.6231E+06     85.3489E+06     78.2153E+06     1.22334E+06    -164.493E-03     328.410E-03    -163.917E-03     134.169E-03    -168.467E-03     332.386E-03    -163.620E-03     121.326E-03
            1398     11.4625E-03     74.0354E-03    -28.8895E+06     75.8212E+06     67.1816E+06    -1.16060E+06    -165.222E-03     329.137E-03    -163.916E-03     145.460E-03    -169.495E-03     333.383E-03    -163.648E-03     132.283E-03
            1399     10.6974E-03     73.8560E-03    -38.1256E+06     64.5336E+06     61.3688E+06    -2.48977E+06    -165.914E-03     329.859E-03    -163.946E-03     154.012E-03    -170.351E-03     334.213E-03    -163.677E-03     140.697E-03
            1400     9.93325E-03     73.6677E-03    -45.3860E+06     31.3908E+06     51.2105E+06    -1.76851E+06    -166.594E-03     330.574E-03    -163.980E-03     157.959E-03    -170.937E-03     334.718E-03    -163.704E-03     144.802E-03
            1401     9.16892E-03     73.4770E-03    -51.5372E+06    -13.1215E+06     37.8218E+06    -1.31850E+06    -167.042E-03     331.046E-03    -164.004E-03     157.327E-03    -171.062E-03     334.727E-03    -163.722E-03     144.635E-03
            1402     8.40479E-03     73.2890E-03    -58.3447E+06    -50.0418E+06     24.4158E+06    -928.200E+03    -167.119E-03     331.135E-03    -164.016E-03     152.769E-03    -170.677E-03     334.238E-03    -163.736E-03     140.842E-03
            1403     7.64059E-03     73.1082E-03    -66.0163E+06    -83.7218E+06     10.6268E+06    -441.595E+03    -167.013E-03     331.037E-03    -164.024E-03     145.320E-03    -170.039E-03     333.501E-03    -163.754E-03     134.383E-03
            1404     6.87636E-03     72.9375E-03    -73.9066E+06    -113.980E+06    -3.10592E+06    -184.757E+03    -166.793E-03     330.824E-03    -164.031E-03     135.812E-03    -169.279E-03     332.652E-03    -163.774E-03     126.004E-03
            1405     6.11222E-03     72.7792E-03    -81.7938E+06    -147.037E+06    -17.4632E+06     10.0226E+03    -166.492E-03     330.531E-03    -164.040E-03     124.696E-03    -168.458E-03     331.736E-03    -163.795E-03     116.086E-03
            1406     5.34798E-03     72.6344E-03    -89.9574E+06    -173.311E+06    -31.9015E+06     117.459E+03    -166.093E-03     330.132E-03    -164.039E-03     112.222E-03    -167.601E-03     330.798E-03    -163.817E-03     104.828E-03
            1407     4.58390E-03     72.5054E-03    -98.4756E+06    -195.431E+06    -46.9483E+06     123.633E+03    -165.625E-03     329.659E-03    -164.034E-03     98.6156E-03    -166.746E-03     329.872E-03    -163.842E-03     92.4180E-03
            1408     3.81984E-03     72.3934E-03    -107.042E+06    -227.334E+06    -63.5268E+06     125.107E+03    -165.175E-03     329.214E-03    -164.039E-03     83.9902E-03    -165.957E-03     328.993E-03    -163.872E-03     78.9485E-03
            1409     3.05584E-03     72.2995E-03    -115.513E+06    -251.459E+06    -81.5515E+06     106.114E+03    -164.767E-03     328.795E-03    -164.028E-03     68.4463E-03    -165.283E-03     328.244E-03    -163.903E-03     64.5028E-03
            1410     2.29175E-03     72.2254E-03    -123.437E+06    -267.384E+06    -100.398E+06    -67.5546E+03    -164.432E-03     328.427E-03    -163.995E-03     52.3312E-03    -164.753E-03     327.652E-03    -163.930E-03     49.4171E-03
            1411     1.52770E-03     72.1710E-03    -130.136E+06    -284.315E+06    -118.008E+06    -216.653E+03    -164.176E-03     328.135E-03    -163.959E-03     35.7456E-03    -164.354E-03     327.184E-03    -163.948E-03     33.7984E-03
            1412     763.821E-06     72.1371E-03    -134.941E+06    -294.161E+06    -131.309E+06    -125.894E+03    -164.023E-03     327.922E-03    -163.899E-03     19.5000E-03    -164.116E-03     326.873E-03    -163.933E-03     18.4471E-03
            1413     14.5208E-03     73.2758E-03    -5.09721E+06     99.1380E+06     91.5345E+06     324.776E+03    -162.575E-03     326.469E-03    -163.894E-03     69.3674E-03    -164.658E-03     328.620E-03    -163.572E-03     59.7253E-03
            1414     13.7540E-03     73.1604E-03    -10.2603E+06     95.9877E+06     93.7840E+06    -410.704E+03    -163.270E-03     327.204E-03    -163.935E-03     102.844E-03    -166.354E-03     330.321E-03    -163.590E-03     90.9539E-03
            1415     12.9909E-03     73.0373E-03    -16.1770E+06     90.8918E+06     88.5131E+06    -761.375E+03    -164.020E-03     327.952E-03    -163.932E-03     117.237E-03    -167.496E-03     331.437E-03    -163.598E-03     104.944E-03
            1416     12.2274E-03     72.8866E-03    -21.5778E+06     85.5131E+06     78.1861E+06     530.950E+03    -164.555E-03     328.465E-03    -163.910E-03     134.146E-03    -168.533E-03     332.443E-03    -163.611E-03     121.296E-03
            1417     11.4619E-03     72.7207E-03    -27.1374E+06     78.4392E+06     69.0089E+06     1.51785E+06    -165.218E-03     329.126E-03    -163.908E-03     145.708E-03    -169.487E-03     333.378E-03    -163.638E-03     132.584E-03
            1418     10.6979E-03     72.5407E-03    -34.0384E+06     67.1253E+06     63.8709E+06     561.205E+03    -166.044E-03     329.980E-03    -163.935E-03     154.040E-03    -170.468E-03     334.335E-03    -163.664E-03     140.760E-03
            1419     9.93332E-03     72.3524E-03    -42.0294E+06     31.8387E+06     52.8146E+06    -1.25293E+06    -166.699E-03     330.659E-03    -163.960E-03     157.828E-03    -171.024E-03     334.795E-03    -163.681E-03     144.675E-03
            1420     9.16925E-03     72.1616E-03    -50.0755E+06    -14.4052E+06     37.7854E+06    -1.41553E+06    -167.025E-03     331.002E-03    -163.976E-03     157.174E-03    -171.033E-03     334.670E-03    -163.694E-03     144.485E-03
            1421     8.40499E-03     71.9739E-03    -58.1012E+06    -51.3871E+06     23.9423E+06    -484.274E+03    -167.068E-03     331.055E-03    -163.987E-03     152.648E-03    -170.620E-03     334.150E-03    -163.709E-03     140.731E-03
            1422     7.64074E-03     71.7932E-03    -66.0598E+06    -83.8862E+06     10.1804E+06    -13.0754E+03    -166.948E-03     330.946E-03    -163.997E-03     145.246E-03    -169.973E-03     333.408E-03    -163.729E-03     134.322E-03
            1423     6.87645E-03     71.6227E-03    -74.1382E+06    -114.057E+06    -3.40633E+06    -38.8121E+03    -166.765E-03     330.772E-03    -164.007E-03     135.729E-03    -169.250E-03     332.598E-03    -163.751E-03     125.928E-03
            1424     6.11229E-03     71.4641E-03    -82.1740E+06    -147.299E+06    -17.4382E+06    -118.146E+03    -166.494E-03     330.509E-03    -164.015E-03     124.602E-03    -168.462E-03     331.713E-03    -163.769E-03     115.989E-03
            1425     5.34834E-03     71.3197E-03    -90.3384E+06    -173.376E+06    -31.8558E+06     19.1432E+03    -166.073E-03     330.084E-03    -164.011E-03     112.223E-03    -167.583E-03     330.750E-03    -163.788E-03     104.830E-03
            1426     4.58412E-03     71.1906E-03    -98.6329E+06    -195.289E+06    -46.9733E+06    -129.987E+03    -165.589E-03     329.594E-03    -164.005E-03     98.6653E-03    -166.709E-03     329.807E-03    -163.814E-03     92.4710E-03
            1427     3.81998E-03     71.0787E-03    -106.915E+06    -227.243E+06    -63.4134E+06    -244.625E+03    -165.149E-03     329.161E-03    -164.012E-03     84.0683E-03    -165.931E-03     328.940E-03    -163.844E-03     79.0193E-03
            1428     3.05577E-03     70.9850E-03    -115.285E+06    -251.426E+06    -81.3833E+06    -88.3301E+03    -164.785E-03     328.780E-03    -163.994E-03     68.5082E-03    -165.301E-03     328.230E-03    -163.870E-03     64.5607E-03
            1429     2.29178E-03     70.9106E-03    -123.200E+06    -267.466E+06    -100.330E+06    -245.236E+03    -164.495E-03     328.429E-03    -163.935E-03     52.2027E-03    -164.814E-03     327.653E-03    -163.870E-03     49.2855E-03
            1430     1.52807E-03     70.8561E-03    -129.958E+06    -284.471E+06    -118.395E+06    -214.059E+03    -164.183E-03     328.028E-03    -163.845E-03     35.5157E-03    -164.359E-03     327.076E-03    -163.836E-03     33.5704E-03
            1431     764.120E-06     70.8227E-03    -134.629E+06    -294.617E+06    -131.646E+06    -248.809E+03    -163.896E-03     327.635E-03    -163.739E-03     19.3333E-03    -163.986E-03     326.584E-03    -163.775E-03     18.2818E-03
            1432     14.5181E-03     71.9584E-03    -5.33907E+06     99.6771E+06     91.7222E+06    -1.84306E+03    -162.771E-03     326.659E-03    -163.887E-03     68.8939E-03    -164.850E-03     328.806E-03    -163.566E-03     59.2393E-03
            1433     13.7567E-03     71.8456E-03    -10.0758E+06     96.9796E+06     94.2127E+06    -952.209E+03    -163.254E-03     327.176E-03    -163.922E-03     102.619E-03    -166.334E-03     330.291E-03    -163.577E-03     90.7287E-03
            1434     12.9914E-03     71.7213E-03    -16.2728E+06     89.8397E+06     87.4894E+06    -412.220E+03    -163.671E-03     327.598E-03    -163.927E-03     117.520E-03    -167.143E-03     331.077E-03    -163.596E-03     105.267E-03
            1435     12.2260E-03     71.5718E-03    -23.3211E+06     84.1876E+06     76.4809E+06    -202.724E+03    -164.608E-03     328.521E-03    -163.914E-03     134.496E-03    -168.596E-03     332.504E-03    -163.620E-03     121.625E-03
            1436     11.4623E-03     71.4055E-03    -29.3745E+06     77.9689E+06     67.8019E+06    -438.886E+03    -165.508E-03     329.411E-03    -163.903E-03     145.716E-03    -169.791E-03     333.670E-03    -163.635E-03     132.532E-03
            1437     10.6977E-03     71.2251E-03    -34.6628E+06     68.0518E+06     63.9127E+06    -23.4996E+03    -166.190E-03     330.106E-03    -163.915E-03     153.932E-03    -170.615E-03     334.464E-03    -163.644E-03     140.641E-03
            1438     9.93386E-03     71.0369E-03    -41.9746E+06     33.5802E+06     53.6287E+06     880.400E+03    -166.692E-03     330.626E-03    -163.934E-03     157.688E-03    -171.019E-03     334.768E-03    -163.654E-03     144.566E-03
            1439     9.16948E-03     70.8465E-03    -50.9653E+06    -13.8673E+06     37.8079E+06     412.743E+03    -166.960E-03     330.909E-03    -163.949E-03     157.057E-03    -170.970E-03     334.579E-03    -163.666E-03     144.401E-03
            1440     8.40526E-03     70.6588E-03    -59.3455E+06    -52.2317E+06     23.1097E+06    -89.6237E+03    -167.000E-03     330.961E-03    -163.961E-03     152.597E-03    -170.554E-03     334.052E-03    -163.684E-03     140.696E-03
            1441     7.64094E-03     70.4785E-03    -66.9607E+06    -83.9978E+06     9.93992E+06    -32.0666E+03    -166.932E-03     330.906E-03    -163.974E-03     145.248E-03    -169.959E-03     333.368E-03    -163.705E-03     134.329E-03
            1442     6.87677E-03     70.3077E-03    -74.2925E+06    -113.703E+06    -3.09206E+06    -276.002E+03    -166.740E-03     330.725E-03    -163.984E-03     135.787E-03    -169.226E-03     332.551E-03    -163.727E-03     125.988E-03
            1443     6.11259E-03     70.1493E-03    -81.9247E+06    -147.725E+06    -17.3035E+06    -477.197E+03    -166.441E-03     330.436E-03    -163.995E-03     124.665E-03    -168.407E-03     331.637E-03    -163.749E-03     116.050E-03
            1444     5.34822E-03     70.0049E-03    -89.6858E+06    -173.278E+06    -31.1425E+06    -340.569E+03    -166.032E-03     330.029E-03    -163.997E-03     112.264E-03    -167.541E-03     330.695E-03    -163.772E-03     104.864E-03
            1445     4.58410E-03     69.8760E-03    -98.1021E+06    -194.882E+06    -46.3688E+06    -51.8526E+03    -165.592E-03     329.582E-03    -163.991E-03     98.6863E-03    -166.711E-03     329.796E-03    -163.798E-03     92.4947E-03
            1446     3.81992E-03     69.7641E-03    -106.929E+06    -227.633E+06    -63.6596E+06    -387.524E+03    -165.211E-03     329.196E-03    -163.984E-03     83.9728E-03    -165.992E-03     328.973E-03    -163.818E-03     78.9208E-03
            1447     3.05599E-03     69.6702E-03    -115.068E+06    -251.650E+06    -81.2423E+06    -496.125E+03    -164.822E-03     328.771E-03    -163.949E-03     68.4639E-03    -165.337E-03     328.219E-03    -163.823E-03     64.5062E-03
            1448     2.29220E-03     69.5956E-03    -123.072E+06    -267.582E+06    -100.360E+06    -247.738E+03    -164.432E-03     328.311E-03    -163.879E-03     52.2809E-03    -164.751E-03     327.534E-03    -163.815E-03     49.3658E-03
            1449     1.52814E-03     69.5418E-03    -130.214E+06    -284.929E+06    -118.659E+06    -230.027E+03    -164.102E-03     327.904E-03    -163.802E-03     35.6511E-03    -164.278E-03     326.950E-03    -163.793E-03     33.7071E-03
            1450     764.104E-06     69.5084E-03    -134.983E+06    -294.886E+06    -131.691E+06    -84.8174E+03    -163.890E-03     327.570E-03    -163.680E-03     19.4307E-03    -163.982E-03     326.518E-03    -163.715E-03     18.3841E-03
            1451     14.5219E-03     70.6435E-03    -3.83376E+06     100.371E+06     92.9394E+06     236.349E+03    -162.576E-03     326.440E-03    -163.864E-03     69.0582E-03    -164.655E-03     328.592E-03    -163.539E-03     59.4101E-03
            1452     13.7548E-03     70.5295E-03    -11.2236E+06     94.7797E+06     91.8928E+06    -1.49891E+06    -162.670E-03     326.580E-03    -163.910E-03     102.807E-03    -165.744E-03     329.684E-03    -163.572E-03     90.9612E-03
            1453     12.9904E-03     70.4075E-03    -16.9419E+06     88.5951E+06     86.8906E+06    -188.976E+03    -163.696E-03     327.634E-03    -163.938E-03     117.949E-03    -167.163E-03     331.104E-03    -163.608E-03     105.729E-03
            1454     12.2265E-03     70.2555E-03    -22.3492E+06     85.0042E+06     77.6955E+06    -149.918E+03    -164.955E-03     328.873E-03    -163.918E-03     134.097E-03    -168.945E-03     332.860E-03    -163.620E-03     121.176E-03
            1455     11.4622E-03     70.0896E-03    -28.7341E+06     78.8872E+06     68.4163E+06    -595.366E+03    -165.673E-03     329.558E-03    -163.885E-03     145.204E-03    -169.954E-03     333.818E-03    -163.616E-03     131.993E-03
            1456     10.6985E-03     69.9097E-03    -37.0879E+06     65.6678E+06     61.6394E+06    -191.577E+03    -166.165E-03     330.048E-03    -163.883E-03     153.697E-03    -170.591E-03     334.397E-03    -163.616E-03     140.410E-03
            1457     9.93382E-03     69.7216E-03    -44.4788E+06     32.8912E+06     51.7845E+06     240.741E+03    -166.562E-03     330.466E-03    -163.904E-03     157.619E-03    -170.893E-03     334.606E-03    -163.629E-03     144.509E-03
            1458     9.16976E-03     69.5313E-03    -50.3117E+06    -13.3052E+06     38.7289E+06     961.802E+03    -166.878E-03     330.811E-03    -163.933E-03     157.054E-03    -170.886E-03     334.481E-03    -163.647E-03     144.413E-03
            1459     8.40531E-03     69.3441E-03    -57.5353E+06    -51.2896E+06     24.9313E+06     1.15328E+06    -166.983E-03     330.933E-03    -163.951E-03     152.628E-03    -170.532E-03     334.024E-03    -163.668E-03     140.745E-03
            1460     7.64107E-03     69.1634E-03    -65.3864E+06    -82.6262E+06     11.4722E+06     41.2557E+03    -166.909E-03     330.872E-03    -163.963E-03     145.347E-03    -169.933E-03     333.337E-03    -163.691E-03     134.431E-03
            1461     6.87675E-03     68.9930E-03    -73.0339E+06    -114.047E+06    -2.40481E+06    -643.601E+03    -166.718E-03     330.692E-03    -163.974E-03     135.888E-03    -169.199E-03     332.516E-03    -163.715E-03     126.082E-03
            1462     6.11243E-03     68.8344E-03    -80.9604E+06    -147.595E+06    -16.7515E+06    -472.294E+03    -166.425E-03     330.412E-03    -163.986E-03     124.685E-03    -168.387E-03     331.611E-03    -163.739E-03     116.073E-03
            1463     5.34844E-03     68.6903E-03    -89.3347E+06    -173.746E+06    -31.0962E+06    -477.295E+03    -166.038E-03     330.026E-03    -163.987E-03     112.206E-03    -167.544E-03     330.688E-03    -163.761E-03     104.807E-03
            1464     4.58416E-03     68.5613E-03    -97.7134E+06    -195.300E+06    -46.1083E+06    -202.018E+03    -165.622E-03     329.598E-03    -163.976E-03     98.6596E-03    -166.739E-03     329.809E-03    -163.782E-03     92.4621E-03
            1465     3.82024E-03     68.4492E-03    -106.127E+06    -227.182E+06    -62.9378E+06    -170.048E+03    -165.224E-03     329.188E-03    -163.964E-03     84.0548E-03    -166.002E-03     328.965E-03    -163.795E-03     79.0081E-03
            1466     3.05626E-03     68.3556E-03    -115.044E+06    -252.030E+06    -81.2288E+06    -521.373E+03    -164.751E-03     328.684E-03    -163.932E-03     68.6489E-03    -165.266E-03     328.130E-03    -163.806E-03     64.6939E-03
            1467     2.29191E-03     68.2813E-03    -123.550E+06    -268.094E+06    -100.449E+06    -105.548E+03    -164.303E-03     328.198E-03    -163.896E-03     52.4524E-03    -164.624E-03     327.420E-03    -163.830E-03     49.5415E-03
            1468     1.52787E-03     68.2273E-03    -130.565E+06    -284.863E+06    -118.499E+06     324.361E+03    -164.049E-03     327.923E-03    -163.873E-03     35.6962E-03    -164.227E-03     326.970E-03    -163.864E-03     33.7599E-03
            1469     763.902E-06     68.1941E-03    -134.769E+06    -294.754E+06    -131.455E+06     222.600E+03    -163.996E-03     327.773E-03    -163.777E-03     19.3181E-03    -164.087E-03     326.721E-03    -163.812E-03     18.2699E-03
            1470     14.5194E-03     69.3267E-03    -3.93984E+06     101.193E+06     93.4085E+06     784.150E+03    -162.551E-03     326.421E-03    -163.870E-03     69.4425E-03    -164.635E-03     328.580E-03    -163.544E-03     59.7982E-03
            1471     13.7560E-03     69.2182E-03    -9.19379E+06     97.5376E+06     94.9728E+06     2.04050E+06    -162.951E-03     326.868E-03    -163.917E-03     102.615E-03    -166.017E-03     329.972E-03    -163.570E-03     90.8191E-03
            1472     12.9906E-03     69.0901E-03    -16.6219E+06     88.4503E+06     86.8143E+06    -849.005E+03    -164.065E-03     327.980E-03    -163.915E-03     117.395E-03    -167.526E-03     331.444E-03    -163.585E-03     105.134E-03
            1473     12.2270E-03     68.9400E-03    -23.1139E+06     83.5748E+06     75.8830E+06    -1.00612E+06    -164.909E-03     328.785E-03    -163.876E-03     133.621E-03    -168.889E-03     332.760E-03    -163.584E-03     120.697E-03
            1474     11.4631E-03     68.7738E-03    -30.0352E+06     77.5584E+06     67.1061E+06     835.639E+03    -165.520E-03     329.370E-03    -163.850E-03     145.030E-03    -169.792E-03     333.616E-03    -163.583E-03     131.874E-03
            1475     10.6984E-03     68.5943E-03    -36.4869E+06     67.4688E+06     62.7291E+06     702.449E+03    -166.021E-03     329.882E-03    -163.861E-03     153.629E-03    -170.447E-03     334.236E-03    -163.592E-03     140.367E-03
            1476     9.93441E-03     68.4067E-03    -43.0743E+06     33.0108E+06     52.5724E+06    -589.867E+03    -166.454E-03     330.344E-03    -163.890E-03     157.690E-03    -170.779E-03     334.480E-03    -163.612E-03     144.579E-03
            1477     9.16959E-03     68.2164E-03    -50.6572E+06    -16.0512E+06     37.9798E+06    -287.144E+03    -166.804E-03     330.728E-03    -163.925E-03     157.121E-03    -170.806E-03     334.384E-03    -163.638E-03     144.475E-03
            1478     8.40547E-03     68.0289E-03    -57.1817E+06    -50.4067E+06     25.7900E+06     403.428E+03    -166.944E-03     330.893E-03    -163.949E-03     152.707E-03    -170.495E-03     333.987E-03    -163.664E-03     140.816E-03
            1479     7.64105E-03     67.8488E-03    -64.0434E+06    -81.1568E+06     12.7441E+06     264.702E+03    -166.914E-03     330.877E-03    -163.963E-03     145.400E-03    -169.935E-03     333.346E-03    -163.689E-03     134.486E-03
            1480     6.87678E-03     67.6780E-03    -72.3076E+06    -113.747E+06    -1.80577E+06     65.5020E+03    -166.721E-03     330.694E-03    -163.973E-03     135.850E-03    -169.199E-03     332.517E-03    -163.712E-03     126.056E-03
            1481     6.11268E-03     67.5198E-03    -80.8398E+06    -147.445E+06    -16.5870E+06     -99.798E+03    -166.412E-03     330.396E-03    -163.984E-03     124.685E-03    -168.372E-03     331.595E-03    -163.736E-03     116.082E-03
            1482     5.34830E-03     67.3755E-03    -89.0583E+06    -173.874E+06    -31.2769E+06    -258.344E+03    -166.043E-03     330.028E-03    -163.985E-03     112.325E-03    -167.547E-03     330.689E-03    -163.760E-03     104.932E-03
            1483     4.58434E-03     67.2466E-03    -97.4041E+06    -195.872E+06    -46.0296E+06    -504.664E+03    -165.605E-03     329.584E-03    -163.979E-03     98.8576E-03    -166.721E-03     329.793E-03    -163.784E-03     92.6585E-03
            1484     3.82003E-03     67.1346E-03    -106.269E+06    -227.352E+06    -62.4195E+06    -49.8637E+03    -165.135E-03     329.118E-03    -163.983E-03     84.2234E-03    -165.914E-03     328.894E-03    -163.812E-03     79.1835E-03
            1485     3.05582E-03     67.0411E-03    -115.227E+06    -251.974E+06    -81.0868E+06     191.721E+03    -164.699E-03     328.671E-03    -163.972E-03     68.7030E-03    -165.214E-03     328.118E-03    -163.845E-03     64.7612E-03
            1486     2.29195E-03     66.9669E-03    -123.509E+06    -268.565E+06    -100.359E+06     41.3446E+03    -164.336E-03     328.288E-03    -163.952E-03     52.4477E-03    -164.657E-03     327.507E-03    -163.885E-03     49.5370E-03
            1487     1.52784E-03     66.9128E-03    -129.877E+06    -284.706E+06    -117.896E+06     234.530E+03    -164.091E-03     328.031E-03    -163.940E-03     35.6776E-03    -164.266E-03     327.077E-03    -163.928E-03     33.7436E-03
            1488     763.894E-06     66.8794E-03    -134.083E+06    -293.999E+06    -130.941E+06     121.440E+03    -164.086E-03     327.918E-03    -163.832E-03     19.2970E-03    -164.176E-03     326.868E-03    -163.866E-03     18.2551E-03
            1489     14.5204E-03     68.0147E-03    -5.73346E+06     99.7931E+06     91.7752E+06    -801.219E+03    -162.740E-03     326.633E-03    -163.893E-03     69.5110E-03    -164.832E-03     328.793E-03    -163.571E-03     59.8143E-03
            1490     13.7549E-03     67.8993E-03    -9.25990E+06     98.4927E+06     96.0364E+06     1.57032E+06    -163.911E-03     327.827E-03    -163.916E-03     103.117E-03    -166.993E-03     330.948E-03    -163.566E-03     91.2425E-03
            1491     12.9928E-03     67.7762E-03    -14.8542E+06     90.2477E+06     88.6982E+06     1.67410E+06    -164.345E-03     328.225E-03    -163.880E-03     117.648E-03    -167.812E-03     331.703E-03    -163.546E-03     105.388E-03
            1492     12.2275E-03     67.6242E-03    -23.0037E+06     83.1360E+06     75.4375E+06     1.50697E+06    -164.675E-03     328.508E-03    -163.833E-03     133.744E-03    -168.644E-03     332.471E-03    -163.543E-03     120.904E-03
            1493     11.4629E-03     67.4586E-03    -29.4423E+06     77.7599E+06     67.4776E+06     360.266E+03    -165.231E-03     329.056E-03    -163.825E-03     145.075E-03    -169.493E-03     333.294E-03    -163.558E-03     131.952E-03
            1494     10.6989E-03     67.2792E-03    -35.0888E+06     68.3670E+06     64.1526E+06    -533.484E+03    -165.835E-03     329.690E-03    -163.855E-03     153.784E-03    -170.257E-03     334.044E-03    -163.583E-03     140.519E-03
            1495     9.93391E-03     67.0917E-03    -42.5665E+06     32.7915E+06     53.3680E+06     358.448E+03    -166.411E-03     330.304E-03    -163.893E-03     157.813E-03    -170.735E-03     334.438E-03    -163.612E-03     144.718E-03
            1496     9.16996E-03     66.9014E-03    -50.4933E+06    -14.9799E+06     38.1821E+06    -44.3797E+03    -166.792E-03     330.719E-03    -163.927E-03     157.254E-03    -170.795E-03     334.378E-03    -163.641E-03     144.619E-03
            1497     8.40521E-03     66.7143E-03    -58.1122E+06    -51.1070E+06     24.7098E+06    -1.28050E+06    -166.946E-03     330.897E-03    -163.951E-03     152.820E-03    -170.498E-03     333.989E-03    -163.669E-03     140.914E-03
            1498     7.64101E-03     66.5336E-03    -65.4546E+06    -82.5791E+06     11.8309E+06    -368.569E+03    -166.906E-03     330.875E-03    -163.969E-03     145.427E-03    -169.931E-03     333.339E-03    -163.695E-03     134.507E-03
            1499     6.87683E-03     66.3633E-03    -72.8215E+06    -113.095E+06    -1.80066E+06     372.450E+03    -166.681E-03     330.664E-03    -163.983E-03     135.965E-03    -169.162E-03     332.490E-03    -163.722E-03     126.183E-03
            1500     6.11240E-03     66.2050E-03    -80.4563E+06    -147.215E+06    -16.3082E+06     122.869E+03    -166.401E-03     330.402E-03    -164.001E-03     124.871E-03    -168.361E-03     331.601E-03    -163.752E-03     116.275E-03
            1501     5.34836E-03     66.0608E-03    -88.6858E+06    -173.503E+06    -30.7303E+06     60.6770E+03    -166.035E-03     330.043E-03    -164.008E-03     112.458E-03    -167.538E-03     330.705E-03    -163.782E-03     105.071E-03
            1502     4.58394E-03     65.9318E-03    -97.5634E+06    -196.070E+06    -46.1313E+06    -60.8597E+03    -165.578E-03     329.587E-03    -164.008E-03     98.8627E-03    -166.694E-03     329.793E-03    -163.813E-03     92.6741E-03
            1503     3.81994E-03     65.8201E-03    -106.337E+06    -228.070E+06    -62.6423E+06      -66.72E+03    -165.140E-03     329.161E-03    -164.020E-03     84.1467E-03    -165.919E-03     328.933E-03    -163.848E-03     79.1059E-03
            1504     3.05586E-03     65.7265E-03    -114.708E+06    -251.493E+06    -80.5327E+06     348.699E+03    -164.746E-03     328.758E-03    -164.012E-03     68.5821E-03    -165.260E-03     328.205E-03    -163.883E-03     64.6418E-03
            1505     2.29163E-03     65.6521E-03    -122.697E+06    -268.303E+06    -99.9322E+06     68.5049E+03    -164.421E-03     328.400E-03    -163.979E-03     52.2919E-03    -164.738E-03     327.618E-03    -163.911E-03     49.3842E-03
            1506     1.52780E-03     65.5982E-03    -129.561E+06    -285.005E+06    -117.613E+06    -360.803E+03    -164.150E-03     328.094E-03    -163.943E-03     35.5606E-03    -164.324E-03     327.137E-03    -163.930E-03     33.6194E-03
            1507     763.829E-06     65.5646E-03    -134.405E+06    -294.004E+06    -130.855E+06    -104.237E+03    -164.058E-03     327.891E-03    -163.833E-03     19.2787E-03    -164.148E-03     326.841E-03    -163.866E-03     18.2411E-03
            1508     14.5178E-03     66.6957E-03    -5.17670E+06     99.4789E+06     91.6548E+06    -1.07276E+06    -162.840E-03     326.705E-03    -163.864E-03     68.6770E-03    -164.918E-03     328.852E-03    -163.543E-03     58.9785E-03
            1509     13.7563E-03     66.5840E-03    -12.1481E+06     94.3614E+06     91.3463E+06    -2.05373E+06    -163.568E-03     327.447E-03    -163.879E-03     102.465E-03    -166.643E-03     330.549E-03    -163.542E-03     90.5458E-03
            1510     12.9910E-03     66.4586E-03    -16.6841E+06     88.6798E+06     87.4081E+06     962.955E+03    -164.252E-03     328.116E-03    -163.864E-03     117.429E-03    -167.722E-03     331.588E-03    -163.531E-03     105.165E-03
            1511     12.2281E-03     66.3097E-03    -20.0091E+06     85.6194E+06     79.7213E+06     2.16964E+06    -164.634E-03     328.469E-03    -163.835E-03     133.873E-03    -168.598E-03     332.435E-03    -163.532E-03     121.058E-03
            1512     11.4635E-03     66.1435E-03    -25.6939E+06     80.0812E+06     70.6957E+06     919.493E+03    -165.085E-03     328.914E-03    -163.829E-03     145.518E-03    -169.339E-03     333.156E-03    -163.554E-03     132.422E-03
            1513     10.6983E-03     65.9646E-03    -34.1527E+06     67.2953E+06     63.9732E+06     541.521E+03    -165.817E-03     329.676E-03    -163.859E-03     153.950E-03    -170.229E-03     334.021E-03    -163.588E-03     140.713E-03
            1514     9.93426E-03     65.7764E-03    -41.9078E+06     32.2930E+06     53.5088E+06     745.252E+03    -166.382E-03     330.284E-03    -163.902E-03     157.730E-03    -170.697E-03     334.410E-03    -163.620E-03     144.653E-03
            1515     9.16930E-03     65.5867E-03    -48.9408E+06    -12.3978E+06     39.6379E+06     389.278E+03    -166.795E-03     330.734E-03    -163.939E-03     157.235E-03    -170.795E-03     334.401E-03    -163.652E-03     144.609E-03
            1516     8.40534E-03     65.3990E-03    -56.8398E+06    -50.5952E+06     25.3080E+06    -24.3214E+03    -166.963E-03     330.925E-03    -163.962E-03     152.793E-03    -170.509E-03     334.016E-03    -163.680E-03     140.905E-03
            1517     7.64098E-03     65.2190E-03    -65.1237E+06    -83.9964E+06     11.3479E+06    -415.447E+03    -166.838E-03     330.821E-03    -163.983E-03     145.443E-03    -169.858E-03     333.278E-03    -163.710E-03     134.530E-03
            1518     6.87644E-03     65.0484E-03    -72.8203E+06    -113.564E+06    -1.99036E+06    -187.942E+03    -166.631E-03     330.638E-03    -164.007E-03     136.005E-03    -169.110E-03     332.461E-03    -163.746E-03     126.222E-03
            1519     6.11229E-03     64.8903E-03    -80.6965E+06    -147.244E+06    -16.2697E+06     40.2333E+03    -166.410E-03     330.441E-03    -164.031E-03     124.890E-03    -168.370E-03     331.639E-03    -163.782E-03     116.296E-03
            1520     5.34795E-03     64.7458E-03    -88.9159E+06    -173.647E+06    -30.4776E+06     154.089E+03    -166.067E-03     330.108E-03    -164.041E-03     112.400E-03    -167.571E-03     330.768E-03    -163.813E-03     105.013E-03
            1521     4.58402E-03     64.6172E-03    -97.2932E+06    -195.362E+06    -45.6195E+06     385.643E+03    -165.618E-03     329.657E-03    -164.039E-03     98.7407E-03    -166.733E-03     329.866E-03    -163.842E-03     92.5547E-03
            1522     3.81972E-03     64.5052E-03    -106.151E+06    -227.826E+06    -62.8039E+06     70.1573E+03    -165.227E-03     329.267E-03    -164.039E-03     84.0339E-03    -166.004E-03     329.040E-03    -163.869E-03     78.9928E-03
            1523     3.05574E-03     64.4118E-03    -114.906E+06    -252.038E+06    -80.7918E+06    -124.102E+03    -164.829E-03     328.843E-03    -164.014E-03     68.4472E-03    -165.342E-03     328.288E-03    -163.886E-03     64.4984E-03
            1524     2.29194E-03     64.3374E-03    -122.577E+06    -267.596E+06    -99.3265E+06     143.497E+03    -164.419E-03     328.389E-03    -163.971E-03     52.2170E-03    -164.736E-03     327.609E-03    -163.901E-03     49.3111E-03
            1525     1.52794E-03     64.2834E-03    -129.808E+06    -284.947E+06    -117.988E+06        -86.3008    -164.137E-03     328.068E-03    -163.931E-03     35.5828E-03    -164.311E-03     327.112E-03    -163.919E-03     33.6497E-03
            1526     764.047E-06     64.2501E-03    -134.702E+06    -294.660E+06    -131.598E+06    -185.683E+03    -164.041E-03     327.869E-03    -163.828E-03     19.4286E-03    -164.132E-03     326.817E-03    -163.863E-03     18.3877E-03
            1527     14.5242E-03     65.3836E-03    -4.15924E+06     99.6123E+06     92.0216E+06     224.166E+03    -163.040E-03     326.865E-03    -163.826E-03     69.4533E-03    -165.113E-03     329.011E-03    -163.504E-03     59.8025E-03
            1528     13.7559E-03     65.2680E-03    -10.3670E+06     95.8068E+06     92.8339E+06     959.107E+03    -163.157E-03     327.008E-03    -163.851E-03     103.435E-03    -166.223E-03     330.108E-03    -163.511E-03     91.6349E-03
            1529     12.9928E-03     65.1437E-03    -16.9496E+06     88.9634E+06     86.7411E+06    -1.21490E+06    -163.753E-03     327.611E-03    -163.857E-03     117.298E-03    -167.211E-03     331.072E-03    -163.528E-03     105.069E-03
            1530     12.2273E-03     64.9937E-03    -22.5325E+06     83.7366E+06     77.2077E+06    -1.97993E+06    -164.446E-03     328.292E-03    -163.847E-03     134.033E-03    -168.416E-03     332.256E-03    -163.549E-03     121.174E-03
            1531     11.4625E-03     64.8295E-03    -28.0132E+06     77.8168E+06     68.9743E+06     662.784E+03    -165.301E-03     329.146E-03    -163.845E-03     145.577E-03    -169.563E-03     333.384E-03    -163.572E-03     132.460E-03
            1532     10.6987E-03     64.6485E-03    -34.1316E+06     68.4815E+06     64.3952E+06     2.23894E+06    -165.869E-03     329.738E-03    -163.869E-03     153.818E-03    -170.277E-03     334.081E-03    -163.597E-03     140.617E-03
            1533     9.93379E-03     64.4622E-03    -41.7371E+06     33.9831E+06     53.7349E+06     936.786E+03    -166.378E-03     330.286E-03    -163.908E-03     157.659E-03    -170.694E-03     334.418E-03    -163.628E-03     144.584E-03
            1534     9.16974E-03     64.2713E-03    -49.6374E+06    -12.6967E+06     39.1867E+06     279.150E+03    -166.770E-03     330.718E-03    -163.947E-03     157.250E-03    -170.771E-03     334.383E-03    -163.661E-03     144.626E-03
            1535     8.40508E-03     64.0843E-03    -57.0720E+06    -49.9863E+06     25.5385E+06     495.870E+03    -166.875E-03     330.854E-03    -163.978E-03     152.783E-03    -170.421E-03     333.945E-03    -163.695E-03     140.912E-03
            1536     7.64065E-03     63.9040E-03    -64.4985E+06    -83.4028E+06     11.9407E+06     229.673E+03    -166.834E-03     330.839E-03    -164.006E-03     145.404E-03    -169.849E-03     333.295E-03    -163.732E-03     134.506E-03
            1537     6.87647E-03     63.7338E-03    -72.6990E+06    -113.737E+06    -1.74976E+06     31.8711E+03    -166.682E-03     330.712E-03    -164.029E-03     135.918E-03    -169.159E-03     332.531E-03    -163.768E-03     126.140E-03
            1538     6.11202E-03     63.5753E-03    -81.0133E+06    -147.273E+06    -16.2862E+06     61.5504E+03    -166.442E-03     330.491E-03    -164.049E-03     124.741E-03    -168.402E-03     331.688E-03    -163.800E-03     116.147E-03
            1539     5.34804E-03     63.4310E-03    -89.3422E+06    -173.835E+06    -30.8473E+06    -13.5893E+03    -166.078E-03     330.133E-03    -164.055E-03     112.202E-03    -167.582E-03     330.793E-03    -163.828E-03     104.813E-03
            1540     4.58372E-03     63.3023E-03    -97.7251E+06    -195.501E+06    -45.6817E+06     69.9863E+03    -165.662E-03     329.712E-03    -164.050E-03     98.5956E-03    -166.779E-03     329.921E-03    -163.853E-03     92.4012E-03
            1541     3.81987E-03     63.1905E-03    -106.130E+06    -227.068E+06    -62.5515E+06     299.749E+03    -165.269E-03     329.311E-03    -164.042E-03     83.9672E-03    -166.048E-03     329.088E-03    -163.871E-03     78.9251E-03
            1542     3.05595E-03     63.0968E-03    -114.809E+06    -251.859E+06    -80.9327E+06     37.0518E+03    -164.806E-03     328.820E-03    -164.014E-03     68.4319E-03    -165.318E-03     328.266E-03    -163.887E-03     64.4866E-03
            1543     2.29180E-03     63.0229E-03    -123.097E+06    -268.015E+06    -99.6895E+06     25.5068E+03    -164.352E-03     328.340E-03    -163.989E-03     52.3595E-03    -164.671E-03     327.560E-03    -163.920E-03     49.4520E-03
            1544     1.52771E-03     62.9688E-03    -129.806E+06    -284.443E+06    -117.842E+06     321.933E+03    -164.099E-03     328.088E-03    -163.989E-03     35.8070E-03    -164.275E-03     327.135E-03    -163.977E-03     33.8787E-03
            1545     763.752E-06     62.9354E-03    -134.431E+06    -294.621E+06    -131.539E+06     9.71068E+03    -164.053E-03     328.039E-03    -163.987E-03     19.6559E-03    -164.142E-03     326.987E-03    -164.022E-03     18.6144E-03
            1546     14.5175E-03     64.0685E-03    -5.77242E+06     98.4281E+06     90.4699E+06    -58.8441E+03    -163.158E-03     327.001E-03    -163.843E-03     70.3273E-03    -165.250E-03     329.160E-03    -163.525E-03     60.6330E-03
            1547     13.7568E-03     63.9515E-03    -9.02912E+06     98.5937E+06     95.7212E+06     725.240E+03    -163.507E-03     327.376E-03    -163.869E-03     103.563E-03    -166.585E-03     330.494E-03    -163.520E-03     91.7272E-03
            1548     12.9914E-03     63.8294E-03    -14.8207E+06     91.4768E+06     88.9506E+06     218.814E+03    -163.549E-03     327.417E-03    -163.867E-03     117.345E-03    -167.002E-03     330.884E-03    -163.534E-03     105.147E-03
            1549     12.2267E-03     63.6793E-03    -23.3312E+06     82.7541E+06     75.1731E+06    -684.730E+03    -164.529E-03     328.378E-03    -163.849E-03     133.756E-03    -168.491E-03     332.333E-03    -163.559E-03     120.912E-03
            1550     11.4632E-03     63.5127E-03    -31.0666E+06     74.7474E+06     66.2641E+06    -1.01805E+06    -165.271E-03     329.117E-03    -163.846E-03     145.016E-03    -169.534E-03     333.343E-03    -163.578E-03     131.874E-03
            1551     10.6983E-03     63.3347E-03    -36.9088E+06     67.7278E+06     63.3217E+06    -4.95683E+03    -165.779E-03     329.656E-03    -163.877E-03     153.742E-03    -170.197E-03     334.000E-03    -163.605E-03     140.514E-03
            1552     9.93398E-03     63.1463E-03    -42.8612E+06     35.3386E+06     53.6910E+06     670.999E+03    -166.329E-03     330.250E-03    -163.921E-03     157.842E-03    -170.649E-03     334.388E-03    -163.642E-03     144.779E-03
            1553     9.16931E-03     62.9569E-03    -49.9369E+06    -12.4554E+06     39.0755E+06     540.872E+03    -166.759E-03     330.725E-03    -163.966E-03     157.379E-03    -170.760E-03     334.390E-03    -163.680E-03     144.767E-03
            1554     8.40491E-03     62.7693E-03    -57.3759E+06    -49.8932E+06     25.5967E+06     190.637E+03    -166.909E-03     330.908E-03    -163.999E-03     152.813E-03    -170.455E-03     333.999E-03    -163.715E-03     140.942E-03
            1555     7.64061E-03     62.5892E-03    -65.1205E+06    -83.1125E+06     12.0116E+06     298.915E+03    -166.920E-03     330.942E-03    -164.022E-03     145.268E-03    -169.938E-03     333.399E-03    -163.747E-03     134.364E-03
            1556     6.87621E-03     62.4187E-03    -72.9227E+06    -113.592E+06    -1.77852E+06     302.346E+03    -166.767E-03     330.802E-03    -164.035E-03     135.732E-03    -169.244E-03     332.622E-03    -163.773E-03     125.948E-03
            1557     6.11227E-03     62.2604E-03    -80.8812E+06    -147.026E+06    -16.1336E+06     234.830E+03    -166.467E-03     330.515E-03    -164.048E-03     124.600E-03    -168.427E-03     331.712E-03    -163.798E-03     116.004E-03
            1558     5.34794E-03     62.1161E-03    -89.1934E+06    -173.441E+06    -30.8972E+06     135.926E+03    -166.086E-03     330.135E-03    -164.048E-03     112.105E-03    -167.590E-03     330.796E-03    -163.822E-03     104.715E-03
            1559     4.58401E-03     61.9875E-03    -97.6419E+06    -195.928E+06    -46.2197E+06    -196.661E+03    -165.658E-03     329.697E-03    -164.040E-03     98.5120E-03    -166.772E-03     329.904E-03    -163.845E-03     92.3152E-03
            1560     3.81981E-03     61.8755E-03    -106.114E+06    -227.339E+06    -62.5403E+06    -120.503E+03    -165.184E-03     329.226E-03    -164.042E-03     83.9231E-03    -165.962E-03     329.001E-03    -163.871E-03     78.8772E-03
            1561     3.05568E-03     61.7822E-03    -114.553E+06    -251.278E+06    -80.5816E+06     317.088E+03    -164.717E-03     328.753E-03    -164.036E-03     68.4207E-03    -165.229E-03     328.201E-03    -163.909E-03     64.4817E-03
            1562     2.29165E-03     61.7083E-03    -122.966E+06    -268.175E+06    -100.208E+06     158.273E+03    -164.381E-03     328.404E-03    -164.023E-03     52.2894E-03    -164.699E-03     327.623E-03    -163.956E-03     49.3843E-03
            1563     1.52766E-03     61.6541E-03    -129.907E+06    -284.653E+06    -117.525E+06     100.768E+03    -164.178E-03     328.191E-03    -164.013E-03     35.6698E-03    -164.354E-03     327.237E-03    -164.000E-03     33.7320E-03
            1564     763.737E-06     61.6203E-03    -134.103E+06    -293.929E+06    -130.494E+06     407.543E+03    -164.091E-03     328.054E-03    -163.964E-03     19.3654E-03    -164.181E-03     327.004E-03    -163.995E-03     18.3275E-03
            1565     14.5216E-03     62.7469E-03    -5.29940E+06     99.3816E+06     91.1271E+06    -321.056E+03    -163.099E-03     326.927E-03    -163.828E-03     68.2993E-03    -165.177E-03     329.075E-03    -163.509E-03     58.5928E-03
            1566     13.7563E-03     62.6382E-03    -11.5191E+06     95.7987E+06     92.2907E+06    -2.81152E+06    -162.912E-03     326.766E-03    -163.855E-03     101.807E-03    -165.976E-03     329.862E-03    -163.515E-03     89.9314E-03
            1567     12.9916E-03     62.5140E-03    -16.7299E+06     89.2265E+06     87.5359E+06    -336.086E+03    -163.708E-03     327.579E-03    -163.871E-03     117.416E-03    -167.164E-03     331.038E-03    -163.538E-03     105.209E-03
            1568     12.2282E-03     62.3632E-03    -21.8681E+06     83.7044E+06     77.4794E+06     1.57214E+06    -164.507E-03     328.365E-03    -163.858E-03     133.874E-03    -168.468E-03     332.321E-03    -163.560E-03     121.066E-03
            1569     11.4627E-03     62.1988E-03    -28.3159E+06     76.9464E+06     68.4385E+06     723.031E+03    -165.082E-03     328.943E-03    -163.861E-03     145.533E-03    -169.334E-03     333.169E-03    -163.589E-03     132.453E-03
            1570     10.6984E-03     62.0189E-03    -36.0321E+06     66.5656E+06     63.2266E+06    -938.787E+03    -165.796E-03     329.695E-03    -163.898E-03     154.011E-03    -170.209E-03     334.033E-03    -163.626E-03     140.775E-03
            1571     9.93349E-03     61.8322E-03    -43.4679E+06     33.8605E+06     53.3573E+06    -296.604E+03    -166.381E-03     330.326E-03    -163.945E-03     157.891E-03    -170.698E-03     334.454E-03    -163.664E-03     144.826E-03
            1572     9.16902E-03     61.6414E-03    -50.4549E+06    -11.9191E+06     39.2355E+06     212.628E+03    -166.808E-03     330.793E-03    -163.985E-03     157.177E-03    -170.810E-03     334.460E-03    -163.698E-03     144.556E-03
            1573     8.40477E-03     61.4545E-03    -57.8630E+06    -49.8081E+06     25.3210E+06     256.987E+03    -167.026E-03     331.034E-03    -164.009E-03     152.607E-03    -170.574E-03     334.127E-03    -163.726E-03     140.721E-03
            1574     7.64050E-03     61.2740E-03    -65.4939E+06    -83.1819E+06     11.6721E+06     104.950E+03    -167.006E-03     331.027E-03    -164.020E-03     145.102E-03    -170.026E-03     333.485E-03    -163.746E-03     134.184E-03
            1575     6.87658E-03     61.1038E-03    -73.1120E+06    -113.535E+06    -2.10971E+06     87.3653E+03    -166.786E-03     330.811E-03    -164.025E-03     135.597E-03    -169.263E-03     332.632E-03    -163.765E-03     125.805E-03
            1576     6.11214E-03     60.9456E-03    -80.8471E+06    -147.113E+06    -16.5380E+06     61.5596E+03    -166.478E-03     330.512E-03    -164.033E-03     124.522E-03    -168.437E-03     331.709E-03    -163.786E-03     115.921E-03
            1577     5.34815E-03     60.8013E-03    -88.7260E+06    -173.304E+06    -30.6772E+06     53.6697E+03    -166.088E-03     330.121E-03    -164.033E-03     112.068E-03    -167.590E-03     330.782E-03    -163.807E-03     104.678E-03
            1578     4.58392E-03     60.6725E-03    -97.2661E+06    -195.316E+06    -45.9179E+06     178.364E+03    -165.609E-03     329.635E-03    -164.026E-03     98.4533E-03    -166.722E-03     329.843E-03    -163.831E-03     92.2655E-03
            1579     3.81988E-03     60.5610E-03    -106.323E+06    -227.714E+06    -63.0194E+06    -33.0330E+03    -165.127E-03     329.160E-03    -164.034E-03     83.7630E-03    -165.903E-03     328.933E-03    -163.864E-03     78.7231E-03
            1580     3.05569E-03     60.4676E-03    -115.063E+06    -251.661E+06    -80.9466E+06     22.1302E+03    -164.734E-03     328.763E-03    -164.029E-03     68.2355E-03    -165.248E-03     328.210E-03    -163.902E-03     64.2913E-03
            1581     2.29166E-03     60.3934E-03    -122.793E+06    -267.617E+06    -99.8523E+06     380.324E+03    -164.465E-03     328.457E-03    -163.992E-03     52.0740E-03    -164.782E-03     327.678E-03    -163.925E-03     49.1711E-03
            1582     1.52786E-03     60.3392E-03    -129.340E+06    -284.669E+06    -118.078E+06     90.0634E+03    -164.232E-03     328.155E-03    -163.924E-03     35.5190E-03    -164.403E-03     327.200E-03    -163.914E-03     33.5872E-03
            1583     764.128E-06     60.3055E-03    -134.035E+06    -294.075E+06    -130.987E+06    -475.073E+03    -164.023E-03     327.811E-03    -163.788E-03     19.3540E-03    -164.111E-03     326.760E-03    -163.822E-03     18.3063E-03
            1584     14.5225E-03     61.4354E-03    -3.35162E+06     100.677E+06     93.0681E+06     227.576E+03    -162.630E-03     326.460E-03    -163.830E-03     69.7673E-03    -164.709E-03     328.614E-03    -163.506E-03     60.1218E-03
            1585     13.7560E-03     61.3243E-03    -9.21983E+06     97.7228E+06     94.2185E+06     1.75776E+06    -162.822E-03     326.698E-03    -163.876E-03     103.709E-03    -165.884E-03     329.801E-03    -163.534E-03     91.9765E-03
            1586     12.9921E-03     61.1972E-03    -17.1865E+06     87.8881E+06     86.3749E+06    -619.315E+03    -163.713E-03     327.609E-03    -163.896E-03     118.471E-03    -167.169E-03     331.065E-03    -163.566E-03     106.301E-03
            1587     12.2263E-03     61.0497E-03    -22.6373E+06     82.0269E+06     76.4567E+06    -519.374E+03    -164.450E-03     328.341E-03    -163.892E-03     134.498E-03    -168.412E-03     332.293E-03    -163.596E-03     121.686E-03
            1588     11.4623E-03     60.8826E-03    -27.4392E+06     77.5252E+06     69.1031E+06     794.104E+03    -165.258E-03     329.156E-03    -163.898E-03     145.656E-03    -169.509E-03     333.385E-03    -163.625E-03     132.567E-03
            1589     10.6976E-03     60.7045E-03    -34.1268E+06     67.6672E+06     64.1348E+06     1.09331E+06    -165.987E-03     329.910E-03    -163.923E-03     153.784E-03    -170.394E-03     334.250E-03    -163.651E-03     140.553E-03
            1590     9.93345E-03     60.5163E-03    -42.0155E+06     33.6403E+06     53.6692E+06     382.419E+03    -166.582E-03     330.536E-03    -163.954E-03     157.492E-03    -170.897E-03     334.665E-03    -163.674E-03     144.393E-03
            1591     9.16926E-03     60.3269E-03    -49.9006E+06    -12.4244E+06     39.1940E+06     89.2706E+03    -166.906E-03     330.886E-03    -163.980E-03     156.831E-03    -170.906E-03     334.551E-03    -163.693E-03     144.184E-03
            1592     8.40483E-03     60.1390E-03    -57.4800E+06    -49.5991E+06     25.3102E+06     243.791E+03    -167.025E-03     331.021E-03    -163.996E-03     152.386E-03    -170.570E-03     334.112E-03    -163.714E-03     140.497E-03
            1593     7.64084E-03     59.9590E-03    -64.9796E+06    -82.8317E+06     11.8861E+06     109.763E+03    -166.964E-03     330.972E-03    -164.008E-03     144.980E-03    -169.979E-03     333.428E-03    -163.734E-03     134.068E-03
            1594     6.87635E-03     59.7888E-03    -72.8352E+06    -113.450E+06    -2.10307E+06     28.8721E+03    -166.792E-03     330.804E-03    -164.013E-03     135.559E-03    -169.267E-03     332.624E-03    -163.753E-03     125.767E-03
            1595     6.11243E-03     59.6307E-03    -80.9477E+06    -147.108E+06    -16.7917E+06    -39.6783E+03    -166.513E-03     330.528E-03    -164.015E-03     124.414E-03    -168.471E-03     331.725E-03    -163.769E-03     115.811E-03
            1596     5.34818E-03     59.4864E-03    -89.3415E+06    -173.640E+06    -31.3123E+06     10.2146E+03    -166.058E-03     330.068E-03    -164.011E-03     111.942E-03    -167.560E-03     330.727E-03    -163.786E-03     104.555E-03
            1597     4.58410E-03     59.3578E-03    -97.7002E+06    -195.288E+06    -46.0768E+06     158.109E+03    -165.559E-03     329.565E-03    -164.007E-03     98.3318E-03    -166.673E-03     329.773E-03    -163.812E-03     92.1471E-03
            1598     3.81987E-03     59.2462E-03    -106.207E+06    -227.076E+06    -62.7845E+06     369.161E+03    -165.171E-03     329.180E-03    -164.009E-03     83.6656E-03    -165.947E-03     328.955E-03    -163.840E-03     78.6292E-03
            1599     3.05594E-03     59.1530E-03    -114.926E+06    -251.890E+06    -81.3247E+06     110.788E+03    -164.822E-03     328.800E-03    -163.978E-03     68.2137E-03    -165.333E-03     328.245E-03    -163.853E-03     64.2722E-03
            1600     2.29203E-03     59.0786E-03    -122.869E+06    -267.964E+06     -99.986E+06    -162.806E+03    -164.442E-03     328.360E-03    -163.918E-03     52.0791E-03    -164.759E-03     327.579E-03    -163.851E-03     49.1708E-03
            1601     1.52805E-03     59.0245E-03    -129.331E+06    -284.150E+06    -117.552E+06     59.8709E+03    -164.104E-03     327.961E-03    -163.857E-03     35.5570E-03    -164.277E-03     327.007E-03    -163.845E-03     33.6265E-03
            1602     763.922E-06     58.9912E-03    -134.533E+06    -294.305E+06    -131.156E+06     223.062E+03    -163.920E-03     327.702E-03    -163.782E-03     19.3413E-03    -164.011E-03     326.651E-03    -163.816E-03     18.3010E-03
            1603     14.5169E-03     60.1201E-03    -5.18014E+06     99.3055E+06     90.6597E+06    -682.268E+03    -162.442E-03     326.345E-03    -163.903E-03     70.5619E-03    -164.532E-03     328.506E-03    -163.586E-03     60.8960E-03
            1604     13.7553E-03     60.0067E-03    -10.0902E+06     97.9925E+06     94.6342E+06     467.388E+03    -163.590E-03     327.537E-03    -163.947E-03     103.488E-03    -166.668E-03     330.653E-03    -163.601E-03     91.6513E-03
            1605     12.9899E-03     59.8844E-03    -14.5724E+06     90.2278E+06     88.7517E+06     1.18090E+06    -163.906E-03     327.848E-03    -163.942E-03     117.787E-03    -167.359E-03     331.312E-03    -163.608E-03     105.590E-03
            1606     12.2264E-03     59.7323E-03    -22.0411E+06     82.3041E+06     76.1440E+06    -188.322E+03    -164.663E-03     328.580E-03    -163.916E-03     133.657E-03    -168.619E-03     332.529E-03    -163.623E-03     120.810E-03
            1607     11.4620E-03     59.5685E-03    -29.7275E+06     75.5763E+06     67.1089E+06    -527.356E+03    -165.457E-03     329.362E-03    -163.905E-03     144.877E-03    -169.714E-03     333.587E-03    -163.636E-03     131.723E-03
            1608     10.6979E-03     59.3882E-03    -35.9292E+06     67.7344E+06     63.4485E+06     225.416E+03    -166.087E-03     330.005E-03    -163.918E-03     153.279E-03    -170.502E-03     334.348E-03    -163.647E-03     140.010E-03
            1609     9.93368E-03     59.2014E-03    -42.4968E+06     34.0830E+06     53.4499E+06     470.095E+03    -166.586E-03     330.527E-03    -163.941E-03     157.173E-03    -170.904E-03     334.659E-03    -163.661E-03     144.061E-03
            1610     9.16936E-03     59.0113E-03    -49.9241E+06    -12.1405E+06     39.2150E+06     468.063E+03    -166.930E-03     330.893E-03    -163.963E-03     156.788E-03    -170.928E-03     334.558E-03    -163.677E-03     144.149E-03
            1611     8.40533E-03     58.8243E-03    -57.5536E+06    -49.0417E+06     25.4468E+06     157.791E+03    -167.012E-03     330.990E-03    -163.978E-03     152.425E-03    -170.554E-03     334.080E-03    -163.696E-03     140.549E-03
            1612     7.64066E-03     58.6440E-03    -65.2795E+06    -83.0210E+06     11.4005E+06     182.917E+03    -166.959E-03     330.946E-03    -163.988E-03     144.925E-03    -169.970E-03     333.398E-03    -163.716E-03     134.026E-03
            1613     6.87670E-03     58.4738E-03    -73.1021E+06    -113.653E+06    -2.50786E+06    -20.0912E+03    -166.799E-03     330.789E-03    -163.990E-03     135.383E-03    -169.273E-03     332.607E-03    -163.731E-03     125.592E-03
            1614     6.11242E-03     58.3155E-03    -81.0579E+06    -147.133E+06    -16.7398E+06     133.985E+03    -166.459E-03     330.452E-03    -163.993E-03     124.263E-03    -168.417E-03     331.648E-03    -163.746E-03     115.664E-03
            1615     5.34844E-03     58.1718E-03    -89.1637E+06    -173.180E+06    -31.0824E+06     295.830E+03    -166.013E-03     330.004E-03    -163.991E-03     111.909E-03    -167.514E-03     330.664E-03    -163.766E-03     104.528E-03
            1616     4.58414E-03     58.0431E-03    -97.7884E+06    -195.295E+06    -46.4604E+06     162.081E+03    -165.583E-03     329.565E-03    -163.983E-03     98.3698E-03    -166.696E-03     329.773E-03    -163.790E-03     92.1869E-03
            1617     3.82009E-03     57.9316E-03    -106.463E+06    -227.352E+06    -63.1034E+06     66.0927E+03    -165.213E-03     329.188E-03    -163.976E-03     83.6922E-03    -165.989E-03     328.962E-03    -163.807E-03     78.6558E-03
            1618     3.05605E-03     57.8380E-03    -114.694E+06    -251.609E+06    -81.0679E+06     111.389E+03    -164.799E-03     328.736E-03    -163.937E-03     68.2577E-03    -165.310E-03     328.182E-03    -163.811E-03     64.3188E-03
            1619     2.29207E-03     57.7641E-03    -122.957E+06    -267.870E+06    -100.188E+06    -87.9475E+03    -164.356E-03     328.237E-03    -163.881E-03     52.1415E-03    -164.673E-03     327.457E-03    -163.816E-03     49.2377E-03
            1620     1.52794E-03     57.7102E-03    -130.099E+06    -284.575E+06    -117.708E+06    -8.54476E+03    -164.029E-03     327.876E-03    -163.847E-03     35.5778E-03    -164.205E-03     326.921E-03    -163.834E-03     33.6462E-03
            1621     763.961E-06     57.6767E-03    -133.983E+06    -293.613E+06    -130.755E+06     507.410E+03    -164.027E-03     327.711E-03    -163.684E-03     19.2604E-03    -164.116E-03     326.662E-03    -163.718E-03     18.2275E-03
            1622     14.5201E-03     58.8019E-03    -5.37455E+06     100.722E+06     91.6338E+06     736.484E+03    -162.943E-03     326.862E-03    -163.919E-03     68.7779E-03    -165.026E-03     329.018E-03    -163.599E-03     59.1034E-03
            1623     13.7541E-03     58.6921E-03    -11.5205E+06     95.5225E+06     92.1294E+06    -2.23235E+06    -163.373E-03     327.313E-03    -163.940E-03     101.381E-03    -166.439E-03     330.411E-03    -163.601E-03     89.4522E-03
            1624     12.9915E-03     58.5669E-03    -17.0501E+06     88.0398E+06     86.8174E+06    -1.34898E+06    -164.124E-03     328.056E-03    -163.932E-03     116.683E-03    -167.579E-03     331.512E-03    -163.601E-03     104.403E-03
            1625     12.2268E-03     58.4185E-03    -21.9372E+06     82.8131E+06     77.1740E+06     910.638E+03    -164.757E-03     328.657E-03    -163.900E-03     133.155E-03    -168.711E-03     332.603E-03    -163.602E-03     120.305E-03
            1626     11.4625E-03     58.2517E-03    -28.0990E+06     76.5635E+06     68.0220E+06     638.255E+03    -165.368E-03     329.250E-03    -163.882E-03     144.667E-03    -169.614E-03     333.471E-03    -163.612E-03     131.539E-03
            1627     10.6984E-03     58.0735E-03    -35.6400E+06     66.9408E+06     62.9972E+06    -32.8216E+03    -165.969E-03     329.868E-03    -163.899E-03     153.407E-03    -170.377E-03     334.205E-03    -163.630E-03     140.151E-03
            1628     9.93377E-03     57.8858E-03    -43.4352E+06     33.6238E+06     52.7599E+06      2.1295E+03    -166.530E-03     330.459E-03    -163.929E-03     157.396E-03    -170.845E-03     334.586E-03    -163.651E-03     144.304E-03
            1629     9.16952E-03     57.6963E-03    -50.5564E+06    -11.4894E+06     38.8767E+06    -2.61306E+03    -166.959E-03     330.912E-03    -163.953E-03     156.815E-03    -170.957E-03     334.577E-03    -163.669E-03     144.181E-03
            1630     8.40495E-03     57.5091E-03    -57.6404E+06    -49.1813E+06     25.2627E+06     284.614E+03    -167.096E-03     331.058E-03    -163.962E-03     152.244E-03    -170.636E-03     334.146E-03    -163.681E-03     140.364E-03
            1631     7.64116E-03     57.3291E-03    -65.3112E+06    -82.8173E+06     11.3021E+06     314.333E+03    -167.001E-03     330.963E-03    -163.963E-03     144.810E-03    -170.011E-03     333.415E-03    -163.691E-03     133.912E-03
            1632     6.87686E-03     57.1587E-03    -73.2341E+06    -113.441E+06    -2.61800E+06     105.809E+03    -166.731E-03     330.695E-03    -163.963E-03     135.373E-03    -169.204E-03     332.512E-03    -163.706E-03     125.592E-03
            1633     6.11276E-03     57.0011E-03    -81.1517E+06    -147.198E+06    -16.8271E+06     80.2790E+03    -166.390E-03     330.362E-03    -163.972E-03     124.265E-03    -168.346E-03     331.557E-03    -163.725E-03     115.672E-03
            1634     5.34828E-03     56.8570E-03    -89.3987E+06    -173.155E+06    -31.1014E+06     340.000E+03    -166.028E-03     329.999E-03    -163.971E-03     111.826E-03    -167.529E-03     330.658E-03    -163.746E-03     104.450E-03
            1635     4.58422E-03     56.7286E-03    -97.8273E+06    -194.958E+06    -46.4486E+06     282.859E+03    -165.620E-03     329.573E-03    -163.953E-03     98.2343E-03    -166.733E-03     329.781E-03    -163.761E-03     92.0544E-03
            1636     3.82017E-03     56.6167E-03    -106.354E+06    -227.416E+06    -63.2824E+06    -78.6461E+03    -165.174E-03     329.113E-03    -163.939E-03     83.6081E-03    -165.948E-03     328.886E-03    -163.772E-03     78.5749E-03
            1637     3.05617E-03     56.5237E-03    -114.936E+06    -251.826E+06    -81.0042E+06    -224.853E+03    -164.697E-03     328.609E-03    -163.912E-03     68.1880E-03    -165.208E-03     328.053E-03    -163.785E-03     64.2461E-03
            1638     2.29197E-03     56.4495E-03    -122.976E+06    -267.429E+06    -99.8407E+06     377.576E+03    -164.281E-03     328.157E-03    -163.876E-03     52.0394E-03    -164.599E-03     327.378E-03    -163.809E-03     49.1447E-03
            1639     1.52802E-03     56.3959E-03    -129.734E+06    -284.470E+06    -118.315E+06     140.817E+03    -164.034E-03     327.882E-03    -163.848E-03     35.5980E-03    -164.208E-03     326.928E-03    -163.838E-03     33.6700E-03
            1640     764.005E-06     56.3621E-03    -133.791E+06    -293.751E+06    -131.167E+06    -660.889E+03    -164.054E-03     327.722E-03    -163.668E-03     19.4464E-03    -164.142E-03     326.673E-03    -163.704E-03     18.3978E-03
            1641     14.5203E-03     57.4897E-03    -3.87420E+06     101.729E+06     92.9522E+06     735.172E+03    -162.971E-03     326.852E-03    -163.880E-03     69.2566E-03    -165.054E-03     329.012E-03    -163.557E-03     59.5825E-03
            1642     13.7566E-03     57.3752E-03    -8.92170E+06     97.9549E+06     94.7826E+06     1.88426E+06    -163.275E-03     327.183E-03    -163.907E-03     102.178E-03    -166.335E-03     330.283E-03    -163.562E-03     90.3571E-03
            1643     12.9908E-03     57.2526E-03    -17.2472E+06     87.3407E+06     85.7203E+06    -644.312E+03    -163.939E-03     327.836E-03    -163.897E-03     116.783E-03    -167.383E-03     331.280E-03    -163.570E-03     104.556E-03
            1644     12.2272E-03     57.1016E-03    -23.4977E+06     80.4638E+06     74.8252E+06    -1.40867E+06    -164.620E-03     328.493E-03    -163.873E-03     133.431E-03    -168.567E-03     332.425E-03    -163.582E-03     120.593E-03
            1645     11.4630E-03     56.9378E-03    -28.4266E+06     75.5223E+06     67.3537E+06     349.260E+03    -165.258E-03     329.127E-03    -163.869E-03     145.088E-03    -169.499E-03     333.340E-03    -163.601E-03     131.990E-03
            1646     10.6979E-03     56.7578E-03    -34.7658E+06     67.4025E+06     63.4702E+06     1.30151E+06    -165.948E-03     329.842E-03    -163.895E-03     153.506E-03    -170.347E-03     334.173E-03    -163.625E-03     140.289E-03
            1647     9.93367E-03     56.5709E-03    -42.2562E+06     35.1492E+06     53.4410E+06     590.984E+03    -166.608E-03     330.529E-03    -163.921E-03     157.209E-03    -170.914E-03     334.655E-03    -163.644E-03     144.128E-03
            1648     9.16935E-03     56.3808E-03    -50.1306E+06    -11.6682E+06     38.6031E+06    -71.6619E+03    -167.023E-03     330.958E-03    -163.936E-03     156.509E-03    -171.016E-03     334.620E-03    -163.653E-03     143.864E-03
            1649     8.40567E-03     56.1940E-03    -57.7859E+06    -49.9035E+06     24.9763E+06     105.300E+03    -167.098E-03     331.038E-03    -163.940E-03     152.067E-03    -170.637E-03     334.122E-03    -163.659E-03     140.181E-03
            1650     7.64120E-03     56.0140E-03    -65.3590E+06    -82.6169E+06     11.5170E+06     410.270E+03    -166.942E-03     330.884E-03    -163.941E-03     144.781E-03    -169.953E-03     333.336E-03    -163.669E-03     133.888E-03
            1651     6.87696E-03     55.8442E-03    -73.2210E+06    -112.749E+06    -2.25177E+06     438.858E+03    -166.688E-03     330.633E-03    -163.945E-03     135.327E-03    -169.160E-03     332.451E-03    -163.687E-03     125.559E-03
            1652     6.11253E-03     55.6862E-03    -81.4842E+06    -147.220E+06    -17.1218E+06     162.897E+03    -166.451E-03     330.398E-03    -163.948E-03     124.125E-03    -168.406E-03     331.591E-03    -163.702E-03     115.536E-03
            1653     5.34868E-03     55.5424E-03    -89.5216E+06    -173.605E+06    -31.4707E+06    -48.1890E+03    -166.092E-03     330.024E-03    -163.932E-03     111.625E-03    -167.591E-03     330.680E-03    -163.708E-03     104.242E-03
            1654     4.58458E-03     55.4136E-03    -97.5429E+06    -194.662E+06    -45.9937E+06    -16.3218E+03    -165.566E-03     329.475E-03    -163.909E-03     98.0700E-03    -166.677E-03     329.682E-03    -163.715E-03     91.8925E-03
            1655     3.82041E-03     55.3025E-03    -106.098E+06    -226.892E+06    -62.5895E+06     89.0177E+03    -165.065E-03     328.967E-03    -163.902E-03     83.5190E-03    -165.838E-03     328.740E-03    -163.732E-03     78.4945E-03
            1656     3.05617E-03     55.2090E-03    -114.913E+06    -251.833E+06    -81.0806E+06     126.083E+03    -164.617E-03     328.501E-03    -163.884E-03     68.1056E-03    -165.127E-03     327.945E-03    -163.758E-03     64.1760E-03
            1657     2.29215E-03     55.1354E-03    -122.898E+06    -267.911E+06    -100.103E+06    -216.633E+03    -164.248E-03     328.106E-03    -163.857E-03     52.0196E-03    -164.564E-03     327.324E-03    -163.791E-03     49.1202E-03
            1658     1.52789E-03     55.0813E-03    -129.241E+06    -283.925E+06    -117.466E+06    -104.472E+03    -164.018E-03     327.854E-03    -163.836E-03     35.5711E-03    -164.191E-03     326.901E-03    -163.824E-03     33.6389E-03
            1659     763.919E-06     55.0478E-03    -134.099E+06    -293.946E+06    -130.930E+06     145.938E+03    -163.964E-03     327.693E-03    -163.728E-03     19.3413E-03    -164.054E-03     326.643E-03    -163.762E-03     18.3045E-03
            1660     14.5193E-03     56.1708E-03    -5.18987E+06     99.7633E+06     90.5174E+06    -641.429E+03    -162.824E-03     326.673E-03    -163.849E-03     68.7932E-03    -164.896E-03     328.818E-03    -163.533E-03     59.1254E-03
            1661     13.7551E-03     56.0611E-03    -10.7173E+06     96.5700E+06     93.0794E+06    -200.773E+03    -163.117E-03     327.003E-03    -163.886E-03     102.190E-03    -166.174E-03     330.095E-03    -163.545E-03     90.3692E-03
            1662     12.9922E-03     55.9359E-03    -14.1438E+06     90.3144E+06     88.3319E+06     1.78119E+06    -163.773E-03     327.668E-03    -163.895E-03     117.186E-03    -167.205E-03     331.114E-03    -163.563E-03     105.032E-03
            1663     12.2270E-03     55.7879E-03    -21.8608E+06     81.1555E+06     75.2501E+06     419.452E+03    -164.576E-03     328.449E-03    -163.873E-03     133.582E-03    -168.514E-03     332.379E-03    -163.583E-03     120.781E-03
            1664     11.4620E-03     55.6214E-03    -30.0146E+06     73.3445E+06     65.9070E+06    -757.208E+03    -165.403E-03     329.268E-03    -163.865E-03     144.871E-03    -169.645E-03     333.473E-03    -163.599E-03     131.741E-03
            1665     10.6985E-03     55.4431E-03    -36.1384E+06     67.2540E+06     63.0647E+06     47.9841E+03    -166.103E-03     329.982E-03    -163.879E-03     153.148E-03    -170.504E-03     334.311E-03    -163.609E-03     139.904E-03
            1666     9.93402E-03     55.2551E-03    -42.7481E+06     36.1780E+06     53.6152E+06     751.006E+03    -166.628E-03     330.524E-03    -163.895E-03     156.946E-03    -170.936E-03     334.653E-03    -163.618E-03     143.863E-03
            1667     9.17013E-03     55.0657E-03    -50.1540E+06    -11.1835E+06     38.8368E+06     586.737E+03    -166.937E-03     330.847E-03    -163.910E-03     156.386E-03    -170.928E-03     334.507E-03    -163.627E-03     143.759E-03
            1668     8.40540E-03     54.8789E-03    -57.9456E+06    -50.2773E+06     24.7389E+06     188.791E+03    -167.014E-03     330.932E-03    -163.918E-03     152.027E-03    -170.548E-03     334.010E-03    -163.637E-03     140.157E-03
            1669     7.64133E-03     54.6992E-03    -65.6612E+06    -83.0196E+06     11.3955E+06     160.754E+03    -166.960E-03     330.880E-03    -163.921E-03     144.604E-03    -169.968E-03     333.328E-03    -163.648E-03     133.708E-03
            1670     6.87706E-03     54.5294E-03    -73.2021E+06    -112.322E+06    -1.99709E+06     397.778E+03    -166.775E-03     330.688E-03    -163.914E-03     135.012E-03    -169.244E-03     332.505E-03    -163.655E-03     125.242E-03
            1671     6.11311E-03     54.3714E-03    -80.8176E+06    -146.689E+06    -16.5874E+06     182.902E+03    -166.470E-03     330.374E-03    -163.904E-03     123.910E-03    -168.420E-03     331.564E-03    -163.657E-03     115.327E-03
            1672     5.34892E-03     54.2274E-03    -88.8808E+06    -173.444E+06    -30.9713E+06    -204.884E+03    -166.015E-03     329.901E-03    -163.886E-03     111.539E-03    -167.510E-03     330.555E-03    -163.660E-03     104.161E-03
            1673     4.58472E-03     54.0994E-03    -97.4773E+06    -194.806E+06    -45.8119E+06    -74.0654E+03    -165.476E-03     329.344E-03    -163.868E-03     98.0555E-03    -166.586E-03     329.549E-03    -163.673E-03     91.8864E-03
            1674     3.82047E-03     53.9879E-03    -106.273E+06    -226.959E+06    -62.5945E+06     112.855E+03    -165.005E-03     328.872E-03    -163.867E-03     83.5136E-03    -165.779E-03     328.644E-03    -163.697E-03     78.4952E-03
            1675     3.05635E-03     53.8949E-03    -114.680E+06    -251.253E+06    -80.6678E+06     194.180E+03    -164.586E-03     328.438E-03    -163.852E-03     68.0480E-03    -165.096E-03     327.883E-03    -163.724E-03     64.1249E-03
            1676     2.29203E-03     53.8210E-03    -122.742E+06    -267.673E+06    -99.9010E+06    -248.014E+03    -164.254E-03     328.069E-03    -163.815E-03     51.9586E-03    -164.570E-03     327.288E-03    -163.748E-03     49.0626E-03
            1677     1.52817E-03     53.7670E-03    -129.948E+06    -284.648E+06    -117.657E+06    -486.018E+03    -164.005E-03     327.776E-03    -163.772E-03     35.4652E-03    -164.180E-03     326.821E-03    -163.759E-03     33.5305E-03
            1678     764.082E-06     53.7334E-03    -134.260E+06    -293.771E+06    -130.671E+06     111.506E+03    -163.874E-03     327.533E-03    -163.659E-03     19.3051E-03    -163.965E-03     326.484E-03    -163.691E-03     18.2703E-03
            1679     14.5224E-03     54.8597E-03    -4.01654E+06     100.699E+06     92.3395E+06     635.890E+03    -162.979E-03     326.836E-03    -163.857E-03     69.4141E-03    -165.056E-03     328.988E-03    -163.535E-03     59.7549E-03
            1680     13.7567E-03     54.7443E-03    -9.90485E+06     96.4450E+06     92.6879E+06     135.479E+03    -163.061E-03     326.945E-03    -163.885E-03     102.729E-03    -166.117E-03     330.040E-03    -163.547E-03     90.9216E-03
            1681     12.9906E-03     54.6223E-03    -17.1526E+06     87.8309E+06     85.9605E+06    -369.229E+03    -163.786E-03     327.680E-03    -163.894E-03     117.159E-03    -167.225E-03     331.121E-03    -163.567E-03     104.972E-03
            1682     12.2267E-03     54.4710E-03    -21.7692E+06     82.2829E+06     77.2157E+06     1.40166E+06    -164.815E-03     328.690E-03    -163.875E-03     133.264E-03    -168.758E-03     332.624E-03    -163.577E-03     120.445E-03
            1683     11.4634E-03     54.3070E-03    -27.8860E+06     75.7632E+06     68.0941E+06     1.26660E+06    -165.548E-03     329.396E-03    -163.848E-03     144.458E-03    -169.785E-03     333.606E-03    -163.577E-03     131.333E-03
            1684     10.6985E-03     54.1269E-03    -36.0716E+06     66.7130E+06     62.7586E+06     75.7846E+03    -166.091E-03     329.941E-03    -163.850E-03     153.119E-03    -170.490E-03     334.266E-03    -163.580E-03     139.875E-03
            1685     9.93457E-03     53.9404E-03    -43.5912E+06     35.1719E+06     53.1227E+06     75.8928E+03    -166.574E-03     330.441E-03    -163.868E-03     157.036E-03    -170.880E-03     334.564E-03    -163.590E-03     143.956E-03
            1686     9.16977E-03     53.7504E-03    -50.6997E+06    -10.6980E+06     38.8901E+06     405.388E+03    -166.890E-03     330.774E-03    -163.884E-03     156.290E-03    -170.876E-03     334.430E-03    -163.601E-03     143.681E-03
            1687     8.40591E-03     53.5642E-03    -57.8070E+06    -49.8847E+06     24.9527E+06     151.844E+03    -167.036E-03     330.926E-03    -163.890E-03     151.774E-03    -170.565E-03     334.000E-03    -163.609E-03     139.909E-03
            1688     7.64154E-03     53.3841E-03    -65.1423E+06    -82.8220E+06     11.7133E+06     71.5056E+03    -167.025E-03     330.908E-03    -163.884E-03     144.370E-03    -170.026E-03     333.351E-03    -163.611E-03     133.478E-03
            1689     6.87764E-03     53.2144E-03    -72.7566E+06    -112.386E+06    -1.75562E+06    -48.3165E+03    -166.803E-03     330.669E-03    -163.866E-03     134.880E-03    -169.268E-03     332.482E-03    -163.607E-03     125.106E-03
            1690     6.11338E-03     53.0567E-03    -80.6420E+06    -146.540E+06    -16.1899E+06     50.7802E+03    -166.399E-03     330.253E-03    -163.854E-03     123.845E-03    -168.346E-03     331.441E-03    -163.605E-03     115.270E-03
            1691     5.34911E-03     52.9131E-03    -89.0286E+06    -173.133E+06    -30.8432E+06     111.690E+03    -165.903E-03     329.743E-03    -163.840E-03     111.420E-03    -167.396E-03     330.395E-03    -163.614E-03     104.060E-03
            1692     4.58484E-03     52.7850E-03    -97.5519E+06    -195.111E+06    -46.1033E+06    -92.8222E+03    -165.431E-03     329.255E-03    -163.825E-03     97.8641E-03    -166.538E-03     329.457E-03    -163.631E-03     91.6969E-03
            1693     3.82063E-03     52.6738E-03    -106.005E+06    -227.005E+06    -62.6603E+06    -49.0419E+03    -164.995E-03     328.813E-03    -163.818E-03     83.3019E-03    -165.766E-03     328.584E-03    -163.649E-03     78.2834E-03
            1694     3.05638E-03     52.5806E-03    -114.525E+06    -251.195E+06    -80.5393E+06    -82.1724E+03    -164.575E-03     328.368E-03    -163.793E-03     67.8977E-03    -165.084E-03     327.812E-03    -163.665E-03     63.9711E-03
            1695     2.29244E-03     52.5068E-03    -122.782E+06    -267.227E+06    -99.3505E+06     124.003E+03    -164.225E-03     327.968E-03    -163.743E-03     51.8875E-03    -164.542E-03     327.188E-03    -163.674E-03     48.9959E-03
            1696     1.52818E-03     52.4527E-03    -129.882E+06    -284.498E+06    -117.866E+06    -30.6093E+03    -163.945E-03     327.624E-03    -163.679E-03     35.3806E-03    -164.120E-03     326.670E-03    -163.668E-03     33.4484E-03
            1697     764.130E-06     52.4195E-03    -135.254E+06    -294.756E+06    -131.696E+06    -629.001E+03    -163.764E-03     327.330E-03    -163.566E-03     19.2562E-03    -163.857E-03     326.278E-03    -163.600E-03     18.2074E-03
            1698     14.5172E-03     53.5393E-03    -5.44986E+06     99.3828E+06     90.5888E+06    -410.978E+03    -162.882E-03     326.766E-03    -163.885E-03     69.4926E-03    -164.969E-03     328.924E-03    -163.568E-03     59.7924E-03
            1699     13.7551E-03     53.4311E-03    -10.7670E+06     95.8232E+06     92.5734E+06     700.914E+03    -163.637E-03     327.542E-03    -163.906E-03     102.555E-03    -166.706E-03     330.646E-03    -163.566E-03     90.6869E-03
            1700     12.9920E-03     53.3057E-03    -16.1745E+06     89.0036E+06     87.2711E+06     1.05248E+06    -164.209E-03     328.096E-03    -163.887E-03     116.922E-03    -167.652E-03     331.545E-03    -163.557E-03     104.705E-03
            1701     12.2277E-03     53.1563E-03    -23.5524E+06     81.1729E+06      75.749E+06    -252.534E+03    -164.767E-03     328.616E-03    -163.849E-03     133.200E-03    -168.713E-03     332.547E-03    -163.554E-03     120.361E-03
            1702     11.4628E-03     52.9903E-03    -29.0974E+06     75.6266E+06     67.2556E+06     919.358E+03    -165.461E-03     329.288E-03    -163.827E-03     144.760E-03    -169.703E-03     333.500E-03    -163.558E-03     131.646E-03
            1703     10.6992E-03     52.8127E-03    -35.0827E+06     68.1188E+06     63.4923E+06     1.55878E+06    -166.151E-03     329.983E-03    -163.831E-03     153.207E-03    -170.547E-03     334.311E-03    -163.562E-03     139.984E-03
            1704     9.93425E-03     52.6245E-03    -42.7123E+06     35.5857E+06     53.6792E+06     388.817E+03    -166.625E-03     330.469E-03    -163.844E-03     156.799E-03    -170.921E-03     334.584E-03    -163.566E-03     143.732E-03
            1705     9.17061E-03     52.4359E-03    -50.0793E+06    -10.7207E+06     39.4165E+06    -166.169E+03    -166.970E-03     330.823E-03    -163.853E-03     156.026E-03    -170.949E-03     334.472E-03    -163.568E-03     143.407E-03
            1706     8.40603E-03     52.2488E-03    -57.4977E+06    -49.5382E+06     25.2765E+06    -175.115E+03    -167.097E-03     330.944E-03    -163.846E-03     151.581E-03    -170.622E-03     334.015E-03    -163.565E-03     139.710E-03
            1707     7.64214E-03     52.0695E-03    -64.9065E+06    -82.7209E+06     11.8542E+06    -147.392E+03    -166.987E-03     330.821E-03    -163.833E-03     144.239E-03    -169.984E-03     333.259E-03    -163.560E-03     133.354E-03
            1708     6.87774E-03     51.8994E-03    -72.6279E+06    -112.784E+06    -1.69558E+06    -130.279E+03    -166.727E-03     330.544E-03    -163.816E-03     134.733E-03    -169.187E-03     332.350E-03    -163.556E-03     124.970E-03
            1709     6.11364E-03     51.7424E-03    -80.6352E+06    -146.755E+06    -16.2155E+06     34.1416E+03    -166.364E-03     330.166E-03    -163.802E-03     123.563E-03    -168.308E-03     331.350E-03    -163.553E-03     114.992E-03
            1710     5.34943E-03     51.5987E-03    -88.6464E+06    -172.694E+06    -30.5510E+06     198.832E+03    -165.880E-03     329.662E-03    -163.782E-03     111.166E-03    -167.370E-03     330.313E-03    -163.556E-03     103.813E-03
            1711     4.58519E-03     51.4709E-03    -97.1335E+06    -194.946E+06    -46.0000E+06    -29.0833E+03    -165.389E-03     329.149E-03    -163.760E-03     97.6973E-03    -166.493E-03     329.349E-03    -163.566E-03     91.5362E-03
            1712     3.82097E-03     51.3595E-03    -105.707E+06    -227.107E+06    -62.5046E+06    -96.1231E+03    -164.960E-03     328.707E-03    -163.748E-03     83.1884E-03    -165.728E-03     328.476E-03    -163.577E-03     78.1727E-03
            1713     3.05685E-03     51.2667E-03    -114.297E+06    -251.262E+06    -80.4416E+06     60.0801E+03    -164.530E-03     328.243E-03    -163.713E-03     67.8654E-03    -165.037E-03     327.686E-03    -163.585E-03     63.9432E-03
            1714     2.29244E-03     51.1926E-03    -122.318E+06    -267.391E+06    -99.5119E+06     69.8127E+03    -164.144E-03     327.801E-03    -163.658E-03     51.8785E-03    -164.458E-03     327.020E-03    -163.590E-03     48.9859E-03
            1715     1.52844E-03     51.1389E-03    -128.609E+06    -283.729E+06    -117.217E+06    -19.4906E+03    -163.835E-03     327.440E-03    -163.605E-03     35.3398E-03    -164.006E-03     326.487E-03    -163.594E-03     33.4089E-03
            1716     764.221E-06     51.1055E-03    -132.305E+06    -295.650E+06    -129.822E+06    -252.486E+03    -163.734E-03     327.220E-03    -163.486E-03     19.2455E-03    -163.814E-03     326.157E-03    -163.514E-03     18.2035E-03
            1717     14.5217E-03     52.2275E-03    -5.12929E+06     99.0503E+06     90.8094E+06     431.665E+03    -163.035E-03     326.921E-03    -163.886E-03     68.5857E-03    -165.100E-03     329.056E-03    -163.568E-03     58.9386E-03
            1718     13.7554E-03     52.1124E-03    -10.5081E+06      95.897E+06     93.0885E+06    -230.681E+03    -163.576E-03     327.480E-03    -163.904E-03     101.918E-03    -166.631E-03     330.569E-03    -163.563E-03     90.0591E-03
            1719     12.9917E-03     51.9902E-03    -16.0533E+06     88.9413E+06     87.3950E+06     847.497E+03    -164.241E-03     328.125E-03    -163.885E-03     117.017E-03    -167.685E-03     331.575E-03    -163.553E-03     104.792E-03
            1720     12.2275E-03     51.8407E-03    -21.6693E+06     82.4436E+06     76.4937E+06     2.01651E+06    -164.866E-03     328.708E-03    -163.842E-03     133.568E-03    -168.806E-03     332.642E-03    -163.548E-03     120.763E-03
            1721     11.4633E-03     51.6760E-03    -29.6554E+06     74.5828E+06     66.5743E+06     487.511E+03    -165.597E-03     329.409E-03    -163.812E-03     144.635E-03    -169.835E-03     333.613E-03    -163.544E-03     131.507E-03
            1722     10.6986E-03     51.4959E-03    -36.2957E+06     68.4724E+06     63.5473E+06    -230.149E+03    -166.225E-03     330.034E-03    -163.809E-03     152.730E-03    -170.620E-03     334.359E-03    -163.538E-03     139.477E-03
            1723     9.93528E-03     51.3101E-03    -41.8447E+06     37.4168E+06     54.9097E+06     19.4063E+03    -166.674E-03     330.487E-03    -163.813E-03     156.500E-03    -170.966E-03     334.604E-03    -163.532E-03     143.424E-03
            1724     9.17047E-03     51.1202E-03    -48.9165E+06    -11.1429E+06     39.8242E+06    -100.078E+03    -167.031E-03     330.843E-03    -163.812E-03     155.964E-03    -171.000E-03     334.483E-03    -163.526E-03     143.351E-03
            1725     8.40683E-03     50.9342E-03    -56.4106E+06    -49.1396E+06     25.9792E+06     206.183E+03    -167.138E-03     330.935E-03    -163.797E-03     151.416E-03    -170.654E-03     334.001E-03    -163.514E-03     139.556E-03
            1726     7.64237E-03     50.7545E-03    -64.4063E+06    -82.8812E+06     11.9461E+06     68.6380E+03    -166.973E-03     330.749E-03    -163.775E-03     143.996E-03    -169.964E-03     333.181E-03    -163.502E-03     133.119E-03
            1727     6.87834E-03     50.5851E-03    -72.2821E+06    -113.097E+06    -1.63892E+06     61.6753E+03    -166.663E-03     330.417E-03    -163.755E-03     134.462E-03    -169.115E-03     332.216E-03    -163.494E-03     124.715E-03
            1728     6.11407E-03     50.4277E-03    -80.2736E+06    -146.593E+06    -16.0544E+06     62.2299E+03    -166.287E-03     330.027E-03    -163.740E-03     123.369E-03    -168.226E-03     331.207E-03    -163.491E-03     114.811E-03
            1729     5.34989E-03     50.2847E-03    -88.5257E+06    -172.784E+06    -30.4333E+06     114.095E+03    -165.842E-03     329.560E-03    -163.719E-03     111.110E-03    -167.330E-03     330.209E-03    -163.492E-03     103.764E-03
            1730     4.58555E-03     50.1567E-03    -96.8859E+06    -194.325E+06    -45.4246E+06     210.137E+03    -165.339E-03     329.033E-03    -163.694E-03     97.7127E-03    -166.443E-03     329.235E-03    -163.499E-03     91.5623E-03
            1731     3.82121E-03     50.0456E-03    -105.642E+06    -226.978E+06    -62.5806E+06     118.063E+03    -164.892E-03     328.570E-03    -163.679E-03     83.2220E-03    -165.659E-03     328.339E-03    -163.509E-03     78.2154E-03
            1732     3.05687E-03     49.9526E-03    -114.033E+06    -251.511E+06    -80.6217E+06         366.191    -164.488E-03     328.129E-03    -163.641E-03     67.8855E-03    -164.993E-03     327.570E-03    -163.514E-03     63.9696E-03
            1733     2.29283E-03     49.8789E-03    -121.778E+06    -267.415E+06    -99.5719E+06    -112.136E+03    -164.081E-03     327.661E-03    -163.581E-03     51.8145E-03    -164.392E-03     326.879E-03    -163.514E-03     48.9256E-03
            1734     1.52838E-03     49.8251E-03    -128.405E+06    -283.696E+06    -117.241E+06    -180.975E+03    -163.743E-03     327.274E-03    -163.531E-03     35.2306E-03    -163.911E-03     326.320E-03    -163.520E-03     33.3073E-03
            1735     764.106E-06     49.7920E-03    -133.007E+06    -295.901E+06    -130.072E+06    -20.8278E+03    -163.705E-03     327.079E-03    -163.375E-03     19.1974E-03    -163.786E-03     326.016E-03    -163.403E-03     18.1607E-03
            1736     14.5184E-03     50.9095E-03    -4.00851E+06     100.050E+06     92.0226E+06     1.35498E+06    -163.107E-03     326.982E-03    -163.876E-03     69.3194E-03    -165.175E-03     329.124E-03    -163.555E-03     59.6883E-03
            1737     13.7564E-03     50.7981E-03    -10.1925E+06     95.3940E+06     92.4874E+06     885.412E+03    -163.448E-03     327.339E-03    -163.891E-03     102.343E-03    -166.503E-03     330.428E-03    -163.552E-03     90.5081E-03
            1738     12.9911E-03     50.6744E-03    -17.2097E+06     86.1969E+06     84.9247E+06    -152.827E+03    -164.094E-03     327.969E-03    -163.875E-03     116.701E-03    -167.530E-03     331.404E-03    -163.550E-03     104.464E-03
            1739     12.2271E-03     50.5247E-03    -22.6176E+06     81.3002E+06     75.9489E+06     578.335E+03    -165.168E-03     328.999E-03    -163.831E-03     132.891E-03    -169.105E-03     332.924E-03    -163.537E-03     120.032E-03
            1740     11.4635E-03     50.3597E-03    -26.6178E+06     78.0896E+06     69.7757E+06     928.769E+03    -165.807E-03     329.593E-03    -163.787E-03     144.082E-03    -170.034E-03     333.801E-03    -163.512E-03     130.941E-03
            1741     10.7001E-03     50.1812E-03    -32.7038E+06     69.3282E+06     65.4292E+06    -531.898E+03    -166.185E-03     329.955E-03    -163.770E-03     152.471E-03    -170.556E-03     334.267E-03    -163.496E-03     139.230E-03
            1742     9.93493E-03     49.9944E-03    -40.8285E+06     35.4552E+06     54.6325E+06    -392.726E+03    -166.681E-03     330.450E-03    -163.769E-03     156.305E-03    -170.957E-03     334.549E-03    -163.488E-03     143.235E-03
            1743     9.17142E-03     49.8055E-03    -48.7359E+06    -11.0182E+06     39.9588E+06     837.747E+03    -167.051E-03     330.813E-03    -163.763E-03     155.680E-03    -171.011E-03     334.446E-03    -163.476E-03     143.091E-03
            1744     8.40684E-03     49.6188E-03    -56.7182E+06    -49.3301E+06     25.6689E+06     534.012E+03    -167.097E-03     330.839E-03    -163.742E-03     151.195E-03    -170.608E-03     333.899E-03    -163.460E-03     139.352E-03
            1745     7.64310E-03     49.4400E-03    -64.3158E+06    -82.3366E+06     12.1971E+06     424.250E+03    -166.946E-03     330.664E-03    -163.718E-03     143.861E-03    -169.933E-03     333.095E-03    -163.444E-03     132.998E-03
            1746     6.87879E-03     49.2705E-03    -72.1822E+06    -112.401E+06    -1.40201E+06     348.778E+03    -166.607E-03     330.302E-03    -163.695E-03     134.453E-03    -169.057E-03     332.101E-03    -163.434E-03     124.724E-03
            1747     6.11445E-03     49.1138E-03    -80.2918E+06    -146.339E+06    -15.9600E+06     263.967E+03    -166.221E-03     329.901E-03    -163.681E-03     123.349E-03    -168.157E-03     331.079E-03    -163.432E-03     114.810E-03
            1748     5.35000E-03     48.9704E-03    -88.5212E+06    -172.840E+06    -30.5234E+06     171.442E+03    -165.793E-03     329.451E-03    -163.659E-03     110.999E-03    -167.277E-03     330.096E-03    -163.432E-03     103.663E-03
            1749     4.58575E-03     48.8428E-03    -96.9595E+06    -194.545E+06    -45.4590E+06     154.360E+03    -165.300E-03     328.931E-03    -163.631E-03     97.5461E-03    -166.401E-03     329.129E-03    -163.436E-03     91.4024E-03
            1750     3.82142E-03     48.7318E-03    -105.418E+06    -226.673E+06    -62.4167E+06     125.332E+03    -164.845E-03     328.455E-03    -163.610E-03     83.0845E-03    -165.610E-03     328.222E-03    -163.441E-03     78.0879E-03
            1751     3.05721E-03     48.6389E-03    -114.030E+06    -251.457E+06    -80.8129E+06     43.1118E+03    -164.422E-03     327.990E-03    -163.568E-03     67.7542E-03    -164.925E-03     327.430E-03    -163.442E-03     63.8483E-03
            1752     2.29279E-03     48.5651E-03    -121.991E+06    -267.413E+06    -99.4818E+06    -59.1474E+03    -164.005E-03     327.512E-03    -163.506E-03     51.6664E-03    -164.316E-03     326.729E-03    -163.439E-03     48.7863E-03
            1753     1.52869E-03     48.5117E-03    -128.726E+06    -283.893E+06    -117.389E+06     18.9422E+03    -163.689E-03     327.136E-03    -163.448E-03     35.1860E-03    -163.858E-03     326.182E-03    -163.436E-03     33.2671E-03
            1754     764.426E-06     48.4784E-03    -133.014E+06    -295.972E+06    -130.117E+06    -10.2215E+03    -163.599E-03     326.896E-03    -163.297E-03     19.2199E-03    -163.681E-03     325.832E-03    -163.325E-03     18.1863E-03
            1755     14.5211E-03     49.5934E-03    -5.34177E+06     98.9651E+06     90.4937E+06     921.234E+03    -163.067E-03     326.916E-03    -163.849E-03     68.0278E-03    -165.134E-03     329.053E-03    -163.532E-03     58.3598E-03
            1756     13.7552E-03     49.4823E-03    -10.1410E+06     94.9053E+06     92.1887E+06     392.010E+03    -163.311E-03     327.180E-03    -163.868E-03     101.538E-03    -166.358E-03     330.260E-03    -163.530E-03     89.6790E-03
            1757     12.9921E-03     49.3586E-03    -15.6976E+06     87.7737E+06     86.4321E+06     689.066E+03    -164.388E-03     328.236E-03    -163.849E-03     116.522E-03    -167.817E-03     331.671E-03    -163.521E-03     104.282E-03
            1758     12.2284E-03     49.2087E-03    -22.1507E+06     82.1007E+06     76.4974E+06    -1.09910E+06    -165.151E-03     328.943E-03    -163.792E-03     132.688E-03    -169.082E-03     332.866E-03    -163.497E-03     119.811E-03
            1759     11.4643E-03     49.0437E-03    -27.8748E+06     77.1232E+06       68.63E+06    -1.91800E+06    -165.669E-03     329.415E-03    -163.746E-03     143.973E-03    -169.890E-03     333.612E-03    -163.474E-03     130.821E-03
            1760     10.6995E-03     48.8661E-03    -34.2494E+06     68.1039E+06     63.9233E+06    -201.652E+03    -166.259E-03     329.986E-03    -163.728E-03     152.414E-03    -170.629E-03     334.292E-03    -163.457E-03     139.182E-03
            1761     9.93615E-03     48.6792E-03    -41.8182E+06     34.3925E+06     53.8572E+06     1.07332E+06    -166.772E-03     330.492E-03    -163.720E-03     156.167E-03    -171.043E-03     334.580E-03    -163.439E-03     143.126E-03
            1762     9.17160E-03     48.4902E-03    -49.8434E+06    -11.2862E+06     39.4181E+06     871.466E+03    -167.011E-03     330.717E-03    -163.706E-03     155.458E-03    -170.971E-03     334.345E-03    -163.420E-03     142.876E-03
            1763     8.40781E-03     48.3044E-03    -57.2247E+06    -48.1496E+06     25.6380E+06     823.861E+03    -166.989E-03     330.674E-03    -163.685E-03     151.073E-03    -170.497E-03     333.733E-03    -163.404E-03     139.256E-03
            1764     7.64320E-03     48.1251E-03    -64.9110E+06    -81.9690E+06     12.0120E+06     185.467E+03    -166.820E-03     330.487E-03    -163.667E-03     143.739E-03    -169.803E-03     332.914E-03    -163.394E-03     132.894E-03
            1765     6.87896E-03     47.9565E-03    -72.5907E+06    -112.213E+06    -1.46856E+06     188.373E+03    -166.586E-03     330.232E-03    -163.646E-03     134.313E-03    -169.034E-03     332.028E-03    -163.385E-03     124.590E-03
            1766     6.11470E-03     47.7994E-03    -80.3555E+06    -145.985E+06    -15.8121E+06     427.204E+03    -166.267E-03     329.889E-03    -163.622E-03     123.123E-03    -168.199E-03     331.064E-03    -163.373E-03     114.594E-03
            1767     5.35057E-03     47.6567E-03    -88.5548E+06    -172.646E+06    -30.6472E+06     241.892E+03    -165.791E-03     329.377E-03    -163.586E-03     110.700E-03    -167.271E-03     330.018E-03    -163.360E-03     103.378E-03
            1768     4.58615E-03     47.5288E-03    -96.9962E+06    -194.751E+06    -45.8731E+06     10.9787E+03    -165.273E-03     328.817E-03    -163.545E-03     97.2605E-03    -166.369E-03     329.011E-03    -163.351E-03     91.1296E-03
            1769     3.82183E-03     47.4183E-03    -105.467E+06    -226.949E+06    -62.2525E+06    -78.8582E+03    -164.798E-03     328.313E-03    -163.515E-03     82.8149E-03    -165.561E-03     328.076E-03    -163.344E-03     77.8243E-03
            1770     3.05741E-03     47.3252E-03    -113.752E+06    -251.193E+06    -79.9493E+06     68.3243E+03    -164.305E-03     327.774E-03    -163.469E-03     67.5352E-03    -164.807E-03     327.212E-03    -163.340E-03     63.6362E-03
            1771     2.29316E-03     47.2518E-03    -121.984E+06    -267.186E+06    -98.8720E+06     226.399E+03    -163.868E-03     327.281E-03    -163.414E-03     51.4717E-03    -164.179E-03     326.497E-03    -163.344E-03     48.6041E-03
            1772     1.52861E-03     47.1982E-03    -128.836E+06    -283.726E+06    -117.070E+06     111.163E+03    -163.575E-03     326.942E-03    -163.367E-03     35.1265E-03    -163.745E-03     325.987E-03    -163.354E-03     33.2133E-03
            1773     764.268E-06     47.1653E-03    -133.029E+06    -296.039E+06    -130.256E+06    -49.1922E+03    -163.490E-03     326.744E-03    -163.254E-03     19.1400E-03    -163.572E-03     325.681E-03    -163.283E-03     18.1048E-03
            1774     14.5212E-03     48.2801E-03    -2.69277E+06     97.5380E+06     92.4468E+06     159.075E+03    -163.225E-03     327.074E-03    -163.850E-03     69.0159E-03    -165.288E-03     329.206E-03    -163.525E-03     59.3286E-03
            1775     13.7570E-03     48.1671E-03    -6.89690E+06     98.6945E+06     96.4786E+06     3.28038E+06    -163.857E-03     327.713E-03    -163.857E-03     102.705E-03    -166.901E-03     330.804E-03    -163.507E-03     90.9051E-03
            1776     12.9923E-03     48.0421E-03    -13.9767E+06     90.8827E+06     89.5328E+06     1.25980E+06    -164.476E-03     328.293E-03    -163.817E-03     116.394E-03    -167.899E-03     331.730E-03    -163.481E-03     104.172E-03
            1777     12.2284E-03     47.8928E-03    -20.2687E+06     84.6118E+06     78.1375E+06    -140.347E+03    -164.966E-03     328.721E-03    -163.755E-03     132.665E-03    -168.886E-03     332.643E-03    -163.457E-03     119.832E-03
            1778     11.4641E-03     47.7287E-03    -28.3829E+06     76.1740E+06     67.4383E+06    -315.581E+03    -165.649E-03     329.356E-03    -163.707E-03     143.798E-03    -169.862E-03     333.543E-03    -163.439E-03     130.677E-03
            1779     10.7006E-03     47.5502E-03    -36.8814E+06     65.8246E+06     62.0121E+06     34.9990E+03    -166.314E-03     329.999E-03    -163.685E-03     152.165E-03    -170.685E-03     334.293E-03    -163.417E-03     138.938E-03
            1780     9.93614E-03     47.3639E-03    -44.0001E+06     34.0876E+06     52.6693E+06     619.010E+03    -166.767E-03     330.438E-03    -163.671E-03     156.023E-03    -171.042E-03     334.525E-03    -163.393E-03     142.979E-03
            1781     9.17238E-03     47.1754E-03    -50.7037E+06    -10.2046E+06     39.3372E+06     379.901E+03    -166.963E-03     330.619E-03    -163.656E-03     155.373E-03    -170.922E-03     334.247E-03    -163.371E-03     142.801E-03
            1782     8.40783E-03     46.9896E-03    -57.8786E+06    -47.3594E+06     25.8266E+06     29.1458E+03    -166.962E-03     330.597E-03    -163.635E-03     150.913E-03    -170.466E-03     333.652E-03    -163.353E-03     139.106E-03
            1783     7.64376E-03     46.8111E-03    -65.0148E+06    -81.6094E+06     12.0357E+06     80.1552E+03    -166.844E-03     330.452E-03    -163.609E-03     143.425E-03    -169.820E-03     332.874E-03    -163.336E-03     132.593E-03
            1784     6.87941E-03     46.6420E-03    -72.8480E+06    -112.857E+06    -1.85213E+06    -133.261E+03    -166.604E-03     330.179E-03    -163.575E-03     133.847E-03    -169.044E-03     331.966E-03    -163.315E-03     124.131E-03
            1785     6.11524E-03     46.4853E-03    -80.6781E+06    -146.535E+06    -16.0154E+06    -17.5377E+03    -166.233E-03     329.774E-03    -163.541E-03     122.718E-03    -168.159E-03     330.940E-03    -163.292E-03     114.200E-03
            1786     5.35093E-03     46.3427E-03    -88.4503E+06    -172.539E+06    -30.3770E+06     35.1682E+03    -165.776E-03     329.270E-03    -163.494E-03     110.416E-03    -167.252E-03     329.907E-03    -163.267E-03     103.103E-03
            1787     4.58667E-03     46.2154E-03    -96.6557E+06    -194.230E+06    -45.4652E+06    -99.2968E+03    -165.257E-03     328.694E-03    -163.437E-03     97.0375E-03    -166.351E-03     328.888E-03    -163.243E-03     90.9095E-03
            1788     3.82232E-03     46.1045E-03    -105.120E+06    -226.962E+06    -61.9093E+06    -145.030E+03    -164.720E-03     328.113E-03    -163.393E-03     82.5748E-03    -165.480E-03     327.874E-03    -163.221E-03     77.5886E-03
            1789     3.05797E-03     46.0123E-03    -113.676E+06    -251.626E+06      -79.66E+06    -90.3720E+03    -164.172E-03     327.514E-03    -163.342E-03     67.3352E-03    -164.672E-03     326.949E-03    -163.211E-03     63.4408E-03
            1790     2.29332E-03     45.9385E-03    -121.548E+06    -266.834E+06    -98.2636E+06     158.828E+03    -163.727E-03     327.015E-03    -163.288E-03     51.3575E-03    -164.037E-03     326.231E-03    -163.216E-03     48.4951E-03
            1791     1.52897E-03     45.8855E-03    -128.209E+06    -283.133E+06    -116.510E+06     169.780E+03    -163.455E-03     326.695E-03    -163.240E-03     34.9645E-03    -163.624E-03     325.741E-03    -163.226E-03     33.0562E-03
            1792     764.445E-06     45.8519E-03    -133.286E+06    -295.947E+06    -129.934E+06     86.5592E+03    -163.372E-03     326.481E-03    -163.109E-03     18.9613E-03    -163.455E-03     325.418E-03    -163.136E-03     17.9298E-03
            1793     14.5181E-03     46.9634E-03    -5.84099E+06     95.0046E+06     89.1704E+06    -2.20871E+06    -163.528E-03     327.385E-03    -163.857E-03     69.0544E-03    -165.600E-03     329.514E-03    -163.540E-03     59.3156E-03
            1794     13.7558E-03     46.8483E-03    -10.2776E+06     96.2306E+06     93.9375E+06    -1.16327E+06    -164.416E-03     328.258E-03    -163.842E-03     102.128E-03    -167.479E-03     331.353E-03    -163.497E-03     90.1874E-03
            1795     12.9935E-03     46.7271E-03    -12.8747E+06     92.0299E+06     90.9220E+06     1.48714E+06    -164.495E-03     328.285E-03    -163.790E-03     116.125E-03    -167.916E-03     331.724E-03    -163.450E-03     103.893E-03
            1796     12.2289E-03     46.5774E-03    -20.0544E+06     84.8746E+06     78.2719E+06     2.08336E+06    -165.001E-03     328.721E-03    -163.720E-03     132.451E-03    -168.916E-03     332.639E-03    -163.423E-03     119.645E-03
            1797     11.4652E-03     46.4128E-03    -27.2498E+06     77.4870E+06     68.4320E+06     2.57981E+06    -165.669E-03     329.338E-03    -163.669E-03     143.639E-03    -169.872E-03     333.521E-03    -163.400E-03     130.565E-03
            1798     10.7007E-03     46.2350E-03    -34.6372E+06     67.2456E+06     63.1935E+06     2.25478E+06    -166.283E-03     329.928E-03    -163.645E-03     152.142E-03    -170.637E-03     334.215E-03    -163.376E-03     138.965E-03
            1799     9.93688E-03     46.0487E-03    -42.6928E+06     35.0618E+06     53.3514E+06     352.458E+03    -166.725E-03     330.355E-03    -163.630E-03     155.881E-03    -170.987E-03     334.435E-03    -163.352E-03     142.851E-03
            1800     9.17244E-03     45.8605E-03    -49.9362E+06    -9.20305E+06     40.2655E+06    -333.056E+03    -167.010E-03     330.623E-03    -163.613E-03     155.118E-03    -170.957E-03     334.243E-03    -163.326E-03     142.553E-03
            1801     8.40850E-03     45.6752E-03    -56.9397E+06    -47.9980E+06     26.3452E+06    -372.610E+03    -167.113E-03     330.690E-03    -163.577E-03     150.520E-03    -170.605E-03     333.733E-03    -163.293E-03     138.707E-03
            1802     7.64425E-03     45.4964E-03    -64.4103E+06    -81.7762E+06     12.5338E+06    -34.3494E+03    -166.980E-03     330.507E-03    -163.527E-03     142.954E-03    -169.945E-03     332.917E-03    -163.253E-03     132.127E-03
            1803     6.88030E-03     45.3279E-03    -71.9046E+06    -112.368E+06    -1.35160E+06    -51.7554E+03    -166.595E-03     330.069E-03    -163.473E-03     133.403E-03    -169.024E-03     331.847E-03    -163.213E-03     123.706E-03
            1804     6.11593E-03     45.1715E-03    -79.7043E+06    -146.959E+06    -15.7909E+06    -356.443E+03    -166.151E-03     329.581E-03    -163.429E-03     122.363E-03    -168.066E-03     330.737E-03    -163.180E-03     113.856E-03
            1805     5.35157E-03     45.0290E-03    -87.7658E+06    -172.757E+06    -29.6853E+06    -187.050E+03    -165.690E-03     329.068E-03    -163.378E-03     110.073E-03    -167.159E-03     329.698E-03    -163.148E-03     102.769E-03
            1806     4.58727E-03     44.9017E-03    -96.1986E+06    -194.149E+06    -44.8089E+06    -102.318E+03    -165.131E-03     328.447E-03    -163.316E-03     96.7438E-03    -166.222E-03     328.637E-03    -163.119E-03     90.6227E-03
            1807     3.82282E-03     44.7916E-03    -104.984E+06    -226.836E+06    -61.7945E+06     24.8175E+03    -164.580E-03     327.850E-03    -163.270E-03     82.4496E-03    -165.339E-03     327.610E-03    -163.098E-03     77.4751E-03
            1808     3.05828E-03     44.6992E-03    -113.593E+06    -251.576E+06    -80.0973E+06    -81.0744E+03    -164.073E-03     327.287E-03    -163.214E-03     67.2525E-03    -164.571E-03     326.721E-03    -163.085E-03     63.3658E-03
            1809     2.29378E-03     44.6262E-03    -121.532E+06    -266.976E+06    -98.7893E+06    -131.396E+03    -163.642E-03     326.789E-03    -163.147E-03     51.3471E-03    -163.950E-03     326.004E-03    -163.078E-03     48.4846E-03
            1810     1.52911E-03     44.5723E-03    -128.206E+06    -283.070E+06    -116.218E+06     183.928E+03    -163.339E-03     326.421E-03    -163.083E-03     34.9304E-03    -163.507E-03     325.467E-03    -163.068E-03     33.0273E-03
            1811     764.670E-06     44.5399E-03    -132.412E+06    -295.391E+06    -129.655E+06     249.355E+03    -163.138E-03     326.146E-03    -163.008E-03     19.0228E-03    -163.218E-03     325.084E-03    -163.036E-03     17.9976E-03
            1812     14.5220E-03     45.6445E-03    -5.79430E+06     98.3738E+06     90.2085E+06    -1.02697E+06    -163.839E-03     327.640E-03    -163.801E-03     67.4355E-03    -165.904E-03     329.772E-03    -163.484E-03     57.6948E-03
            1813     13.7579E-03     45.5332E-03    -12.5425E+06     92.6701E+06     89.7445E+06    -4.54672E+06    -163.501E-03     327.284E-03    -163.784E-03     101.023E-03    -166.544E-03     330.353E-03    -163.451E-03     89.0841E-03
            1814     12.9925E-03     45.4101E-03    -18.3844E+06     85.6920E+06     84.1199E+06    -2.06067E+06    -164.264E-03     328.021E-03    -163.758E-03     116.322E-03    -167.685E-03     331.438E-03    -163.435E-03     104.083E-03
            1815     12.2296E-03     45.2618E-03    -21.8536E+06     82.8945E+06     76.8000E+06     1.87128E+06    -165.180E-03     328.885E-03    -163.704E-03     132.862E-03    -169.099E-03     332.797E-03    -163.409E-03     120.056E-03
            1816     11.4651E-03     45.0976E-03    -27.4953E+06     77.2651E+06     68.6191E+06     3.28500E+06    -165.806E-03     329.454E-03    -163.648E-03     144.009E-03    -170.001E-03     333.627E-03    -163.377E-03     130.974E-03
            1817     10.7013E-03     44.9195E-03    -33.8191E+06     70.0591E+06     64.9673E+06     2.36289E+06    -166.389E-03     330.006E-03    -163.617E-03     152.054E-03    -170.737E-03     334.294E-03    -163.345E-03     138.891E-03
            1818     9.93694E-03     44.7336E-03    -40.1570E+06     38.5613E+06     55.8696E+06     895.343E+03    -166.858E-03     330.448E-03    -163.590E-03     155.513E-03    -171.107E-03     334.529E-03    -163.308E-03     142.493E-03
            1819     9.17309E-03     44.5457E-03    -47.4815E+06    -9.49951E+06     41.0228E+06    -63.1228E+03    -167.190E-03     330.741E-03    -163.550E-03     154.569E-03    -171.117E-03     334.346E-03    -163.263E-03     142.003E-03
            1820     8.40904E-03     44.3601E-03    -55.2627E+06    -48.6149E+06     26.8758E+06     200.954E+03    -167.233E-03     330.725E-03    -163.492E-03     149.980E-03    -170.707E-03     333.752E-03    -163.207E-03     138.176E-03
            1821     7.64533E-03     44.1821E-03    -62.9932E+06    -82.0122E+06     13.2291E+06     336.483E+03    -166.982E-03     330.408E-03    -163.426E-03     142.535E-03    -169.933E-03     332.805E-03    -163.149E-03     131.726E-03
            1822     6.88100E-03     44.0139E-03    -70.8419E+06    -111.676E+06    -377.139E+03     121.574E+03    -166.571E-03     329.930E-03    -163.359E-03     133.056E-03    -168.990E-03     331.703E-03    -163.097E-03     123.371E-03
            1823     6.11673E-03     43.8581E-03    -79.1491E+06    -146.112E+06    -15.1693E+06     139.219E+03    -166.114E-03     329.415E-03    -163.301E-03     122.081E-03    -168.024E-03     330.569E-03    -163.050E-03     113.590E-03
            1824     5.35248E-03     43.7155E-03    -87.7948E+06    -172.954E+06    -29.8254E+06     3.70642E+03    -165.529E-03     328.772E-03    -163.242E-03     109.860E-03    -166.993E-03     329.396E-03    -163.013E-03     102.581E-03
            1825     4.58787E-03     43.5890E-03    -96.3685E+06    -194.332E+06    -44.8776E+06     22.3223E+03    -164.928E-03     328.116E-03    -163.188E-03     96.5865E-03    -166.014E-03     328.301E-03    -162.991E-03     90.4911E-03
            1826     3.82320E-03     43.4786E-03    -104.872E+06    -226.603E+06    -61.6017E+06     43.9137E+03    -164.446E-03     327.594E-03    -163.148E-03     82.2694E-03    -165.202E-03     327.353E-03    -162.976E-03     77.3079E-03
            1827     3.05860E-03     43.3868E-03    -113.414E+06    -251.204E+06    -79.7837E+06     32.8710E+03    -163.981E-03     327.069E-03    -163.088E-03     67.0360E-03    -164.478E-03     326.503E-03    -162.958E-03     63.1583E-03
            1828     2.29398E-03     43.3134E-03    -121.659E+06    -267.359E+06    -99.0171E+06    -43.3335E+03    -163.521E-03     326.532E-03    -163.011E-03     51.2088E-03    -163.828E-03     325.745E-03    -162.942E-03     48.3533E-03
            1829     1.52944E-03     43.2604E-03    -128.215E+06    -283.449E+06    -116.808E+06    -153.821E+03    -163.150E-03     326.110E-03    -162.960E-03     34.9264E-03    -163.317E-03     325.154E-03    -162.947E-03     33.0281E-03
            1830     764.616E-06     43.2272E-03    -132.514E+06    -295.167E+06    -129.076E+06    -140.742E+03    -163.078E-03     325.940E-03    -162.862E-03     18.9860E-03    -163.160E-03     324.878E-03    -162.887E-03     17.9643E-03
            1831     14.5227E-03     44.3294E-03    -4.00806E+06     99.8065E+06     91.7609E+06     116.122E+03    -163.183E-03     326.974E-03    -163.791E-03     69.6670E-03    -165.258E-03     329.123E-03    -163.471E-03     59.9882E-03
            1832     13.7573E-03     44.2192E-03    -9.56379E+06     95.7256E+06     92.7111E+06     1.72117E+06    -163.581E-03     327.380E-03    -163.799E-03     103.435E-03    -166.625E-03     330.462E-03    -163.461E-03     91.6593E-03
            1833     12.9936E-03     44.0945E-03    -18.5455E+06     84.3213E+06     82.4770E+06    -1.25958E+06    -164.479E-03     328.238E-03    -163.759E-03     117.021E-03    -167.891E-03     331.644E-03    -163.442E-03     104.817E-03
            1834     12.2284E-03     43.9458E-03    -25.8553E+06     77.7950E+06     72.1520E+06    -1.73047E+06    -165.351E-03     329.042E-03    -163.691E-03     132.510E-03    -169.263E-03     332.928E-03    -163.405E-03     119.663E-03
            1835     11.4652E-03     43.7814E-03    -29.3714E+06     75.7781E+06     67.7843E+06    -266.387E+03    -166.106E-03     329.733E-03    -163.626E-03     143.374E-03    -170.299E-03     333.894E-03    -163.355E-03     130.271E-03
            1836     10.7014E-03     43.6039E-03    -33.3792E+06     71.0904E+06     65.6628E+06     293.223E+03    -166.610E-03     330.181E-03    -163.572E-03     151.366E-03    -170.948E-03     334.463E-03    -163.298E-03     138.161E-03
            1837     9.93776E-03     43.4183E-03    -39.9493E+06     39.3127E+06     56.0863E+06     615.431E+03    -167.053E-03     330.572E-03    -163.519E-03     154.854E-03    -171.291E-03     334.645E-03    -163.237E-03     141.819E-03
            1838     9.17402E-03     43.2303E-03    -47.7537E+06    -9.00698E+06     40.9711E+06     851.644E+03    -167.288E-03     330.745E-03    -163.456E-03     153.980E-03    -171.205E-03     334.341E-03    -163.169E-03     141.428E-03
            1839     8.41028E-03     43.0457E-03    -55.6582E+06    -48.4384E+06     26.6692E+06     567.472E+03    -167.165E-03     330.550E-03    -163.385E-03     149.523E-03    -170.629E-03     333.567E-03    -163.100E-03     137.748E-03
            1840     7.64592E-03     42.8676E-03    -63.4551E+06    -81.7644E+06     13.1900E+06     356.435E+03    -166.869E-03     330.184E-03    -163.315E-03     142.194E-03    -169.813E-03     332.574E-03    -163.038E-03     131.407E-03
            1841     6.88186E-03     42.7003E-03    -71.5704E+06    -111.604E+06    -501.488E+03     571.764E+03    -166.508E-03     329.752E-03    -163.244E-03     132.811E-03    -168.924E-03     331.519E-03    -162.981E-03     123.153E-03
            1842     6.11766E-03     42.5443E-03    -79.6638E+06    -145.999E+06    -15.3274E+06     352.400E+03    -166.018E-03     329.197E-03    -163.179E-03     121.901E-03    -167.925E-03     330.347E-03    -162.928E-03     113.433E-03
            1843     5.35304E-03     42.4029E-03    -87.6781E+06    -172.277E+06    -29.6272E+06     334.521E+03    -165.422E-03     328.538E-03    -163.116E-03     109.689E-03    -166.882E-03     329.161E-03    -162.887E-03     102.435E-03
            1844     4.58837E-03     42.2761E-03    -96.2286E+06    -194.114E+06    -44.7199E+06     152.184E+03    -164.865E-03     327.918E-03    -163.053E-03     96.3257E-03    -165.948E-03     328.100E-03    -162.856E-03     90.2494E-03
            1845     3.82377E-03     42.1663E-03    -105.032E+06    -226.547E+06    -61.6465E+06    -86.1882E+03    -164.353E-03     327.351E-03    -162.998E-03     81.8992E-03    -165.106E-03     327.106E-03    -162.826E-03     76.9510E-03
            1846     3.05916E-03     42.0742E-03    -113.588E+06    -251.449E+06    -79.6237E+06    -38.3089E+03    -163.806E-03     326.739E-03    -162.933E-03     66.7253E-03    -164.301E-03     326.169E-03    -162.801E-03     62.8611E-03
            1847     2.29443E-03     42.0016E-03    -121.389E+06    -267.238E+06    -98.5008E+06     61.1487E+03    -163.317E-03     326.183E-03    -162.866E-03     50.9934E-03    -163.622E-03     325.394E-03    -162.795E-03     48.1505E-03
            1848     1.52944E-03     41.9483E-03    -128.023E+06    -283.215E+06    -116.813E+06    -18.0172E+03    -163.003E-03     325.825E-03    -162.822E-03     34.7709E-03    -163.168E-03     324.869E-03    -162.810E-03     32.8812E-03
            1849     764.648E-06     41.9157E-03    -132.391E+06    -295.610E+06    -130.283E+06    -124.538E+03    -163.093E-03     325.668E-03    -162.575E-03     18.9870E-03    -163.171E-03     324.605E-03    -162.606E-03     17.9683E-03
            1850     14.5178E-03     43.0148E-03    -5.38832E+06     98.9099E+06     89.3262E+06     367.219E+03    -163.029E-03     326.875E-03    -163.847E-03     69.7288E-03    -165.097E-03     329.016E-03    -163.536E-03     60.0784E-03
            1851     13.7553E-03     42.9004E-03    -10.9775E+06     95.6811E+06     92.0473E+06     1.37977E+06    -164.472E-03     328.315E-03    -163.843E-03     102.385E-03    -167.524E-03     331.401E-03    -163.505E-03     90.4980E-03
            1852     12.9923E-03     42.7786E-03    -16.0125E+06     87.0901E+06     86.2414E+06     1.55562E+06    -165.208E-03     328.973E-03    -163.765E-03     115.878E-03    -168.620E-03     332.387E-03    -163.437E-03     103.611E-03
            1853     12.2299E-03     42.6294E-03    -22.2925E+06     80.6789E+06     75.8028E+06    -797.592E+03    -165.696E-03     329.353E-03    -163.656E-03     131.467E-03    -169.589E-03     333.233E-03    -163.362E-03     118.597E-03
            1854     11.4661E-03     42.4654E-03    -29.7683E+06     74.6439E+06     66.7989E+06    -3.37325E+06    -166.177E-03     329.736E-03    -163.559E-03     142.554E-03    -170.360E-03     333.885E-03    -163.290E-03     129.384E-03
            1855     10.7026E-03     42.2883E-03    -36.6252E+06     67.8440E+06     62.9987E+06    -2.41610E+06    -166.757E-03     330.243E-03    -163.486E-03     150.782E-03    -171.090E-03     334.504E-03    -163.216E-03     137.534E-03
            1856     9.93887E-03     42.1026E-03    -43.1285E+06     37.1394E+06     54.1885E+06    -786.536E+03    -167.098E-03     330.515E-03    -163.418E-03     154.315E-03    -171.331E-03     334.570E-03    -163.138E-03     141.275E-03
            1857     9.17506E-03     41.9155E-03    -49.8160E+06    -9.10795E+06     40.3048E+06     152.406E+03    -167.169E-03     330.517E-03    -163.349E-03     153.593E-03    -171.079E-03     334.102E-03    -163.062E-03     141.065E-03
            1858     8.41097E-03     41.7310E-03    -56.8827E+06    -47.5883E+06     26.5489E+06     426.292E+03    -167.032E-03     330.309E-03    -163.276E-03     149.178E-03    -170.491E-03     333.319E-03    -162.992E-03     137.432E-03
            1859     7.64701E-03     41.5542E-03    -64.5885E+06    -81.5849E+06     12.5676E+06     374.191E+03    -166.763E-03     329.966E-03    -163.203E-03     141.961E-03    -169.701E-03     332.349E-03    -162.929E-03     131.208E-03
            1860     6.88261E-03     41.3863E-03    -72.2297E+06    -111.784E+06    -1.07060E+06     190.374E+03    -166.398E-03     329.529E-03    -163.131E-03     132.573E-03    -168.806E-03     331.287E-03    -162.869E-03     122.942E-03
            1861     6.11807E-03     41.2316E-03    -79.8122E+06    -145.808E+06    -15.3940E+06     220.024E+03    -165.945E-03     329.007E-03    -163.062E-03     121.508E-03    -167.844E-03     330.150E-03    -162.812E-03     113.062E-03
            1862     5.35365E-03     41.0899E-03    -87.8718E+06    -172.144E+06    -29.5894E+06     199.007E+03    -165.432E-03     328.416E-03    -162.984E-03     109.273E-03    -166.887E-03     329.034E-03    -162.755E-03     102.029E-03
            1863     4.58923E-03     40.9638E-03    -96.3909E+06    -193.754E+06    -44.5847E+06     330.907E+03    -164.837E-03     327.733E-03    -162.897E-03     95.9494E-03    -165.916E-03     327.912E-03    -162.699E-03     89.8894E-03
            1864     3.82460E-03     40.8539E-03    -105.204E+06    -226.499E+06    -61.9494E+06     165.962E+03    -164.215E-03     327.038E-03    -162.823E-03     81.6315E-03    -164.965E-03     326.790E-03    -162.652E-03     76.7063E-03
            1865     3.05971E-03     40.7627E-03    -113.779E+06    -251.693E+06    -80.4466E+06    -199.500E+03    -163.644E-03     326.392E-03    -162.747E-03     66.4964E-03    -164.137E-03     325.820E-03    -162.620E-03     62.6423E-03
            1866     2.29467E-03     40.6898E-03    -121.700E+06    -267.241E+06    -99.0018E+06    -124.923E+03    -163.160E-03     325.831E-03    -162.671E-03     50.6948E-03    -163.465E-03     325.042E-03    -162.602E-03     47.8579E-03
            1867     1.52990E-03     40.6371E-03    -128.359E+06    -283.132E+06    -116.614E+06     333.251E+03    -162.846E-03     325.452E-03    -162.606E-03     34.5939E-03    -163.013E-03     324.497E-03    -162.593E-03     32.7152E-03
            1868     765.094E-06     40.6037E-03    -132.562E+06    -295.161E+06    -129.658E+06     496.784E+03    -162.811E-03     325.199E-03    -162.388E-03     18.9097E-03    -162.892E-03     324.138E-03    -162.416E-03     17.9002E-03
            1869     14.5213E-03     41.6967E-03    -6.21240E+06     98.5806E+06     88.9128E+06     1.46104E+06    -164.059E-03     327.882E-03    -163.823E-03     67.7137E-03    -166.116E-03     330.008E-03    -163.512E-03     58.0194E-03
            1870     13.7574E-03     41.5846E-03    -12.1621E+06     94.0069E+06     90.4519E+06    -867.411E+03    -164.441E-03     328.223E-03    -163.782E-03     100.714E-03    -167.478E-03     331.289E-03    -163.449E-03     88.7596E-03
            1871     12.9941E-03     41.4604E-03    -16.1143E+06     87.8168E+06     87.1802E+06    -898.130E+03    -165.157E-03     328.863E-03    -163.706E-03     114.770E-03    -168.559E-03     332.267E-03    -163.374E-03     102.454E-03
            1872     12.2307E-03     41.3127E-03    -20.5768E+06     83.1794E+06     77.8887E+06    -677.290E+03    -165.755E-03     329.346E-03    -163.591E-03     131.136E-03    -169.640E-03     333.227E-03    -163.292E-03     118.259E-03
            1873     11.4671E-03     41.1501E-03    -27.2047E+06     76.2350E+06     68.0428E+06    -521.658E+03    -166.334E-03     329.811E-03    -163.477E-03     142.471E-03    -170.500E-03     333.954E-03    -163.208E-03     129.343E-03
            1874     10.7035E-03     40.9718E-03    -35.2121E+06     66.7262E+06     63.1987E+06    -1.80521E+06    -166.785E-03     330.178E-03    -163.393E-03     150.604E-03    -171.099E-03     334.421E-03    -163.123E-03     137.380E-03
            1875     9.94000E-03     40.7878E-03    -42.9290E+06       35.18E+06     53.7722E+06    -1.78833E+06    -167.004E-03     330.324E-03    -163.320E-03     154.086E-03    -171.217E-03     334.354E-03    -163.040E-03     141.070E-03
            1876     9.17605E-03     40.6007E-03    -50.0993E+06    -10.2153E+06     39.7000E+06    -751.988E+03    -167.059E-03     330.309E-03    -163.250E-03     153.448E-03    -170.954E-03     333.875E-03    -162.964E-03     140.951E-03
            1877     8.41198E-03     40.4172E-03    -57.3449E+06    -48.0872E+06     25.9911E+06    -58.8440E+03    -166.984E-03     330.159E-03    -163.175E-03     148.969E-03    -170.431E-03     333.157E-03    -162.892E-03     137.245E-03
            1878     7.64759E-03     40.2401E-03    -64.5874E+06    -81.3367E+06     12.4652E+06     42.5961E+03    -166.776E-03     329.869E-03    -163.093E-03     141.590E-03    -169.703E-03     332.242E-03    -162.819E-03     130.853E-03
            1879     6.88332E-03     40.0734E-03    -72.1467E+06    -111.595E+06    -1.11094E+06    -87.5764E+03    -166.375E-03     329.381E-03    -163.006E-03     132.008E-03    -168.772E-03     331.129E-03    -162.745E-03     122.395E-03
            1880     6.11907E-03     39.9183E-03    -80.2576E+06    -145.621E+06    -15.7069E+06     69.2588E+03    -165.914E-03     328.834E-03    -162.919E-03     120.916E-03    -167.806E-03     329.969E-03    -162.670E-03     112.492E-03
            1881     5.35463E-03     39.7775E-03    -88.5675E+06    -172.426E+06    -30.5825E+06     83.7662E+03    -165.369E-03     328.189E-03    -162.820E-03     108.808E-03    -166.819E-03     328.802E-03    -162.595E-03     101.579E-03
            1882     4.58997E-03     39.6513E-03    -96.7585E+06    -193.836E+06    -45.2272E+06     107.473E+03    -164.703E-03     327.423E-03    -162.720E-03     95.5438E-03    -165.778E-03     327.598E-03    -162.525E-03     89.5006E-03
            1883     3.82509E-03     39.5426E-03    -105.009E+06    -225.941E+06    -61.6893E+06     265.370E+03    -164.088E-03     326.725E-03    -162.637E-03     81.2405E-03    -164.834E-03     326.475E-03    -162.465E-03     76.3322E-03
            1884     3.06024E-03     39.4510E-03    -113.721E+06    -251.129E+06    -80.5434E+06     245.214E+03    -163.522E-03     326.061E-03    -162.538E-03     66.1236E-03    -164.013E-03     325.490E-03    -162.412E-03     62.2872E-03
            1885     2.29551E-03     39.3790E-03    -122.023E+06    -267.474E+06    -99.7973E+06     51.6826E+03    -162.995E-03     325.431E-03    -162.435E-03     50.4500E-03    -163.299E-03     324.641E-03    -162.370E-03     47.6279E-03
            1886     1.53028E-03     39.3260E-03    -128.678E+06    -283.563E+06    -117.189E+06    -316.473E+03    -162.605E-03     324.963E-03    -162.358E-03     34.5732E-03    -162.772E-03     324.006E-03    -162.346E-03     32.6885E-03
            1887     765.025E-06     39.2932E-03    -132.634E+06    -294.893E+06    -129.159E+06    -341.827E+03    -162.537E-03     324.702E-03    -162.165E-03     18.7824E-03    -162.619E-03     323.641E-03    -162.190E-03     17.7662E-03
            1888     14.5221E-03     40.3828E-03    -2.85128E+06     98.2713E+06     93.3107E+06     1.85313E+06    -164.554E-03     328.340E-03    -163.786E-03     68.8447E-03    -166.610E-03     330.465E-03    -163.458E-03     59.1347E-03
            1889     13.7583E-03     40.2662E-03    -6.76728E+06     99.5877E+06     96.9954E+06     1.75671E+06    -164.695E-03     328.421E-03    -163.726E-03     101.942E-03    -167.724E-03     331.499E-03    -163.376E-03     90.0599E-03
            1890     12.9951E-03     40.1451E-03    -14.8501E+06     89.2875E+06     87.8728E+06    -892.120E+03    -164.899E-03     328.531E-03    -163.633E-03     115.017E-03    -168.289E-03     331.931E-03    -163.301E-03     102.746E-03
            1891     12.2309E-03     39.9963E-03    -22.5087E+06     81.2602E+06     75.2377E+06    -1.31223E+06    -165.648E-03     329.166E-03    -163.518E-03     131.164E-03    -169.521E-03     333.030E-03    -163.227E-03     118.315E-03
            1892     11.4680E-03     39.8332E-03    -28.0711E+06     76.1060E+06     67.7216E+06    -884.003E+03    -166.433E-03     329.841E-03    -163.408E-03     142.335E-03    -170.591E-03     333.974E-03    -163.139E-03     129.216E-03
            1893     10.7047E-03     39.6567E-03    -33.8406E+06     68.3519E+06     64.4916E+06    -565.664E+03    -166.759E-03     330.078E-03    -163.319E-03     150.419E-03    -171.057E-03     334.311E-03    -163.046E-03     137.238E-03
            1894     9.94055E-03     39.4724E-03    -41.6249E+06     35.1226E+06     54.2251E+06    -511.943E+03    -166.928E-03     330.171E-03    -163.243E-03     153.855E-03    -171.117E-03     334.180E-03    -162.962E-03     140.899E-03
            1895     9.17662E-03     39.2865E-03    -49.8260E+06    -11.4619E+06     39.0666E+06    -629.895E+03    -167.111E-03     330.276E-03    -163.164E-03     153.120E-03    -170.988E-03     333.821E-03    -162.880E-03     140.646E-03
            1896     8.41250E-03     39.1029E-03    -57.1918E+06    -48.8318E+06     25.4218E+06    -725.338E+03    -167.116E-03     330.187E-03    -163.071E-03     148.520E-03    -170.548E-03     333.169E-03    -162.790E-03     136.800E-03
            1897     7.64868E-03     38.9266E-03    -64.6337E+06    -81.2709E+06     12.4216E+06    -258.191E+03    -166.867E-03     329.832E-03    -162.965E-03     140.919E-03    -169.782E-03     332.194E-03    -162.692E-03     130.190E-03
            1898     6.88460E-03     38.7600E-03    -72.5784E+06    -111.302E+06    -1.38191E+06     175.538E+03    -166.389E-03     329.241E-03    -162.852E-03     131.382E-03    -168.776E-03     330.980E-03    -162.592E-03     121.793E-03
            1899     6.12009E-03     38.6059E-03    -80.5856E+06    -146.162E+06    -16.4932E+06    -82.7203E+03    -165.860E-03     328.603E-03    -162.743E-03     120.438E-03    -167.742E-03     329.728E-03    -162.497E-03     112.033E-03
            1900     5.35556E-03     38.4650E-03    -88.3246E+06    -172.491E+06    -31.0693E+06    -173.006E+03    -165.240E-03     327.868E-03    -162.629E-03     108.258E-03    -166.680E-03     328.473E-03    -162.406E-03     101.048E-03
            1901     4.59084E-03     38.3399E-03    -96.4943E+06    -193.594E+06    -45.8246E+06     73.0839E+03    -164.569E-03     327.082E-03    -162.513E-03     94.9593E-03    -165.636E-03     327.252E-03    -162.321E-03     88.9364E-03
            1902     3.82609E-03     38.2310E-03    -105.449E+06    -226.136E+06    -62.0101E+06     120.683E+03    -163.936E-03     326.350E-03    -162.415E-03     80.7218E-03    -164.679E-03     326.096E-03    -162.244E-03     75.8293E-03
            1903     3.06119E-03     38.1403E-03    -113.856E+06    -250.832E+06    -79.5193E+06     426.901E+03    -163.287E-03     325.598E-03    -162.311E-03     65.7711E-03    -163.777E-03     325.024E-03    -162.180E-03     61.9603E-03
            1904     2.29575E-03     38.0683E-03    -121.613E+06    -266.794E+06    -98.8456E+06     200.840E+03    -162.753E-03     324.959E-03    -162.206E-03     50.2775E-03    -163.055E-03     324.169E-03    -162.137E-03     47.4732E-03
            1905     1.53065E-03     38.0159E-03    -128.320E+06    -283.488E+06    -117.420E+06    -365.628E+03    -162.375E-03     324.498E-03    -162.123E-03     34.4320E-03    -162.539E-03     323.541E-03    -162.113E-03     32.5545E-03
            1906     765.405E-06     37.9830E-03    -132.707E+06    -296.001E+06    -130.706E+06    -348.710E+03    -162.221E-03     324.233E-03    -162.013E-03     18.9225E-03    -162.299E-03     323.169E-03    -162.045E-03     17.9105E-03
            1907     14.5200E-03     39.0609E-03    -3.76849E+06     96.6873E+06     92.2072E+06    -1.78746E+06    -164.599E-03     328.359E-03    -163.760E-03     68.2853E-03    -166.654E-03     330.477E-03    -163.433E-03     58.5065E-03
            1908     13.7590E-03     38.9502E-03    -8.02898E+06     97.9539E+06     95.6828E+06    -489.776E+03    -164.703E-03     328.397E-03    -163.694E-03     101.234E-03    -167.728E-03     331.463E-03    -163.346E-03     89.3129E-03
            1909     12.9952E-03     38.8280E-03    -12.9226E+06     91.0802E+06     89.8425E+06     2.26742E+06    -165.067E-03     328.667E-03    -163.600E-03     115.252E-03    -168.442E-03     332.059E-03    -163.264E-03     103.056E-03
            1910     12.2326E-03     38.6807E-03    -20.0055E+06     83.8352E+06     77.9558E+06     1.22698E+06    -165.871E-03     329.346E-03    -163.476E-03     131.487E-03    -169.734E-03     333.210E-03    -163.178E-03     118.682E-03
            1911     11.4684E-03     38.5168E-03    -27.9237E+06     76.5257E+06     68.1681E+06    -844.239E+03    -166.415E-03     329.767E-03    -163.352E-03     142.176E-03    -170.557E-03     333.884E-03    -163.082E-03     129.089E-03
            1912     10.7049E-03     38.3410E-03    -35.5595E+06     67.2549E+06     63.4132E+06    -941.450E+03    -166.774E-03     330.029E-03    -163.255E-03     149.919E-03    -171.057E-03     334.240E-03    -162.984E-03     136.764E-03
            1913     9.94130E-03     38.1577E-03    -42.3013E+06     34.6750E+06     53.7661E+06    -103.782E+03    -167.087E-03     330.252E-03    -163.165E-03     153.254E-03    -171.263E-03     334.245E-03    -162.885E-03     140.310E-03
            1914     9.17745E-03     37.9718E-03    -49.3392E+06    -11.0296E+06     39.3598E+06    -202.609E+03    -167.282E-03     330.345E-03    -163.063E-03     152.320E-03    -171.141E-03     333.875E-03    -162.778E-03     139.856E-03
            1915     8.41384E-03     37.7888E-03    -57.2755E+06    -48.6627E+06     25.2145E+06    -567.451E+03    -167.210E-03     330.152E-03    -162.942E-03     147.789E-03    -170.626E-03     333.119E-03    -162.662E-03     136.087E-03
            1916     7.64986E-03     37.6127E-03    -65.0989E+06    -82.1619E+06     11.4829E+06    -464.770E+03    -166.862E-03     329.675E-03    -162.813E-03     140.295E-03    -169.762E-03     332.019E-03    -162.542E-03     129.588E-03
            1917     6.88558E-03     37.4473E-03    -72.3423E+06    -111.509E+06    -1.87242E+06    -68.2258E+03    -166.388E-03     329.067E-03    -162.679E-03     130.857E-03    -168.762E-03     330.794E-03    -162.422E-03     121.286E-03
            1918     6.12135E-03     37.2932E-03    -80.0151E+06    -145.664E+06    -16.2469E+06    -76.7376E+03    -165.836E-03     328.384E-03    -162.548E-03     119.854E-03    -167.707E-03     329.502E-03    -162.302E-03     111.468E-03
            1919     5.35681E-03     37.1535E-03    -88.4067E+06    -172.620E+06    -30.7956E+06    -112.165E+03    -165.133E-03     327.545E-03    -162.412E-03     107.623E-03    -166.564E-03     328.139E-03    -162.188E-03     100.444E-03
            1920     4.59205E-03     37.0284E-03    -96.9157E+06    -194.091E+06    -46.0844E+06    -32.7590E+03    -164.377E-03     326.656E-03    -162.279E-03     94.4898E-03    -165.438E-03     326.818E-03    -162.088E-03     88.4945E-03
            1921     3.82704E-03     36.9204E-03    -105.191E+06    -226.202E+06    -62.0770E+06     171.770E+03    -163.668E-03     325.845E-03    -162.177E-03     80.3816E-03    -164.406E-03     325.586E-03    -162.006E-03     75.5165E-03
            1922     3.06168E-03     36.8301E-03    -113.671E+06    -250.767E+06    -79.1216E+06    -49.0725E+03    -163.045E-03     325.122E-03    -162.077E-03     65.5162E-03    -163.532E-03     324.544E-03    -161.944E-03     61.7195E-03
            1923     2.29653E-03     36.7585E-03    -121.626E+06    -266.554E+06    -98.4508E+06    -64.6972E+03    -162.568E-03     324.527E-03    -161.959E-03     49.9965E-03    -162.869E-03     323.736E-03    -161.889E-03     47.2014E-03
            1924     1.53098E-03     36.7060E-03    -128.330E+06    -283.412E+06    -117.469E+06     415.096E+03    -162.168E-03     324.011E-03    -161.842E-03     34.0054E-03    -162.332E-03     323.053E-03    -161.833E-03     32.1525E-03
            1925     765.398E-06     36.6737E-03    -132.832E+06    -295.663E+06    -130.103E+06     539.883E+03    -161.776E-03     323.628E-03    -161.853E-03     18.6728E-03    -161.856E-03     322.565E-03    -161.882E-03     17.6800E-03
            1926     14.5247E-03     37.7458E-03    -5.46706E+06     97.6622E+06     89.7291E+06    -1.88653E+06    -164.302E-03     328.040E-03    -163.738E-03     68.7189E-03    -166.363E-03     330.168E-03    -163.423E-03     58.9691E-03
            1927     13.7585E-03     37.6329E-03    -11.9616E+06     93.6788E+06     90.7492E+06    -1.85091E+06    -164.551E-03     328.236E-03    -163.685E-03     102.368E-03    -167.582E-03     331.295E-03    -163.350E-03     90.4726E-03
            1928     12.9956E-03     37.5118E-03    -16.4053E+06      88.512E+06     87.1104E+06    -589.502E+03    -165.584E-03     329.176E-03    -163.591E-03     115.672E-03    -168.965E-03     332.560E-03    -163.260E-03     103.433E-03
            1929     12.2316E-03     37.3631E-03    -19.8300E+06     84.8723E+06     78.7150E+06     1.01437E+06    -166.271E-03     329.716E-03    -163.445E-03     131.220E-03    -170.129E-03     333.577E-03    -163.146E-03     118.389E-03
            1930     11.4694E-03     37.2008E-03    -25.2728E+06     78.9596E+06     70.0710E+06     1.64892E+06    -166.624E-03     329.922E-03    -163.298E-03     141.490E-03    -170.743E-03     334.028E-03    -163.025E-03     128.437E-03
            1931     10.7057E-03     37.0257E-03    -32.9666E+06     67.6203E+06     64.1241E+06     929.684E+03    -166.965E-03     330.141E-03    -163.176E-03     149.056E-03    -171.215E-03     334.329E-03    -162.906E-03     135.932E-03
            1932     9.94224E-03     36.8420E-03    -41.1213E+06     34.2866E+06     53.6893E+06     135.120E+03    -167.304E-03     330.363E-03    -163.059E-03     152.408E-03    -171.455E-03     334.335E-03    -162.781E-03     139.462E-03
            1933     9.17894E-03     36.6574E-03    -48.9436E+06    -10.2398E+06     39.6872E+06     204.925E+03    -167.419E-03     330.350E-03    -162.931E-03     151.618E-03    -171.261E-03     333.866E-03    -162.646E-03     139.169E-03
            1934     8.41505E-03     36.4745E-03    -56.4606E+06    -48.0364E+06     25.5836E+06     206.836E+03    -167.190E-03     329.978E-03    -162.788E-03     147.091E-03    -170.583E-03     332.926E-03    -162.509E-03     135.433E-03
            1935     7.65104E-03     36.2998E-03    -64.0028E+06    -82.5221E+06     11.6443E+06    -251.266E+03    -166.806E-03     329.450E-03    -162.644E-03     139.623E-03    -169.682E-03     331.772E-03    -162.373E-03     128.957E-03
            1936     6.88698E-03     36.1342E-03    -72.0789E+06    -112.555E+06    -2.31844E+06    -255.827E+03    -166.351E-03     328.843E-03    -162.492E-03     130.230E-03    -168.708E-03     330.551E-03    -162.236E-03     120.686E-03
            1937     6.12263E-03     35.9813E-03    -80.3105E+06    -145.537E+06    -16.3199E+06     390.446E+03    -165.745E-03     328.088E-03    -162.342E-03     119.296E-03    -167.607E-03     329.195E-03    -162.097E-03     110.950E-03
            1938     5.35809E-03     35.8419E-03    -88.8010E+06    -171.783E+06    -30.2782E+06     407.038E+03    -164.989E-03     327.181E-03    -162.192E-03     107.188E-03    -166.416E-03     327.770E-03    -161.965E-03     100.047E-03
            1939     4.59314E-03     35.7180E-03    -97.7092E+06    -194.709E+06    -45.7046E+06     142.238E+03    -164.166E-03     326.215E-03    -162.049E-03     94.0814E-03    -165.224E-03     326.367E-03    -161.854E-03     88.1170E-03
            1940     3.82782E-03     35.6102E-03    -106.759E+06    -225.317E+06    -63.5624E+06     13.5163E+03    -163.443E-03     325.372E-03    -161.929E-03     79.9253E-03    -164.182E-03     325.116E-03    -161.765E-03     75.0871E-03
            1941     3.06256E-03     35.5205E-03    -115.297E+06    -250.325E+06    -82.0238E+06    -543.595E+03    -162.862E-03     324.669E-03    -161.806E-03     65.0991E-03    -163.350E-03     324.096E-03    -161.686E-03     61.3144E-03
            1942     2.29698E-03     35.4488E-03    -123.391E+06    -267.872E+06    -100.446E+06    -142.350E+03    -162.367E-03     324.035E-03    -161.668E-03     49.6592E-03    -162.670E-03     323.240E-03    -161.603E-03     46.8809E-03
            1943     1.53168E-03     35.3972E-03    -130.453E+06    -283.271E+06    -117.898E+06     638.617E+03    -161.924E-03     323.440E-03    -161.517E-03     33.6861E-03    -162.095E-03     322.485E-03    -161.506E-03     31.8499E-03
            1944     766.067E-06     35.3651E-03    -135.643E+06    -293.974E+06    -131.703E+06     686.028E+03    -161.543E-03     322.903E-03    -161.360E-03     18.3505E-03    -161.636E-03     321.854E-03    -161.396E-03     17.3625E-03
            1945     14.5188E-03     36.4290E-03    -4.39543E+06     99.4334E+06     90.6152E+06     157.787E+03    -164.386E-03     328.162E-03    -163.776E-03     69.4540E-03    -166.447E-03     330.298E-03    -163.461E-03     59.7198E-03
            1946     13.7576E-03     36.3158E-03    -10.2471E+06     96.3681E+06     93.0322E+06    -617.197E+03    -165.444E-03     329.145E-03    -163.701E-03     101.469E-03    -168.473E-03     332.210E-03    -163.361E-03     89.4941E-03
            1947     12.9949E-03     36.1931E-03    -17.5328E+06     87.0019E+06     85.0568E+06    -3.16892E+06    -165.966E-03     329.520E-03    -163.554E-03     114.318E-03    -169.341E-03     332.895E-03    -163.229E-03     101.964E-03
            1948     12.2336E-03     36.0463E-03    -23.5569E+06     81.1328E+06     74.5921E+06    -2.64477E+06    -166.452E-03     329.831E-03    -163.379E-03     129.954E-03    -170.298E-03     333.665E-03    -163.089E-03     117.056E-03
            1949     11.4697E-03     35.8843E-03    -28.3933E+06     76.5572E+06     67.5440E+06    -82.4400E+03    -166.785E-03     330.001E-03    -163.216E-03     140.613E-03    -170.895E-03     334.087E-03    -162.948E-03     127.531E-03
            1950     10.7071E-03     35.7095E-03    -33.9396E+06     69.0157E+06     63.7425E+06     1.64957E+06    -167.174E-03     330.248E-03    -163.074E-03     148.481E-03    -171.413E-03     334.427E-03    -162.806E-03     135.372E-03
            1951     9.94375E-03     35.5273E-03    -41.5184E+06     35.7376E+06     53.5906E+06     1.41421E+06    -167.419E-03     330.354E-03    -162.935E-03     151.882E-03    -171.552E-03     334.310E-03    -162.658E-03     138.985E-03
            1952     9.18008E-03     35.3423E-03    -49.4291E+06    -9.76518E+06     39.4236E+06     540.914E+03    -167.441E-03     330.230E-03    -162.788E-03     151.085E-03    -171.264E-03     333.728E-03    -162.505E-03     138.676E-03
            1953     8.41657E-03     35.1612E-03    -57.1105E+06    -47.8995E+06     25.3543E+06     346.041E+03    -167.217E-03     329.845E-03    -162.629E-03     146.503E-03    -170.594E-03     332.776E-03    -162.350E-03     134.881E-03
            1954     7.65258E-03     34.9864E-03    -65.3897E+06    -82.1029E+06     11.2339E+06     574.407E+03    -166.801E-03     329.264E-03    -162.463E-03     139.080E-03    -169.667E-03     331.574E-03    -162.193E-03     128.463E-03
            1955     6.88836E-03     34.8219E-03    -74.2308E+06    -112.694E+06    -2.82403E+06     543.470E+03    -166.251E-03     328.545E-03    -162.294E-03     129.666E-03    -168.601E-03     330.241E-03    -162.038E-03     120.176E-03
            1956     6.12388E-03     34.6695E-03    -82.5961E+06    -145.510E+06    -17.6844E+06    -35.0345E+03    -165.587E-03     327.714E-03    -162.127E-03     118.658E-03    -167.444E-03     328.813E-03    -161.885E-03     110.347E-03
            1957     5.35909E-03     34.5310E-03    -90.1647E+06    -171.722E+06    -31.8895E+06    -289.294E+03    -164.816E-03     326.777E-03    -161.961E-03     106.482E-03    -166.237E-03     327.361E-03    -161.741E-03     99.3633E-03
            1958     4.59409E-03     34.4077E-03    -98.1843E+06    -194.594E+06    -46.3020E+06     396.424E+03    -164.033E-03     325.835E-03    -161.803E-03     93.3534E-03    -165.084E-03     325.982E-03    -161.610E-03     87.4208E-03
            1959     3.82896E-03     34.3008E-03    -106.826E+06    -224.067E+06    -63.4829E+06     191.713E+03    -163.312E-03     324.965E-03    -161.654E-03     79.2946E-03    -164.046E-03     324.709E-03    -161.491E-03     74.4854E-03
            1960     3.06343E-03     34.2114E-03    -115.675E+06    -250.626E+06    -82.0888E+06    -175.409E+03    -162.638E-03     324.142E-03    -161.504E-03     64.5853E-03    -163.122E-03     323.564E-03    -161.383E-03     60.8265E-03
            1961     2.29795E-03     34.1404E-03    -123.974E+06    -268.375E+06    -100.496E+06    -52.3837E+03    -162.017E-03     323.376E-03    -161.358E-03     49.2800E-03    -162.320E-03     322.577E-03    -161.292E-03     46.5187E-03
            1962     1.53192E-03     34.0888E-03    -130.631E+06    -283.513E+06    -118.203E+06     28.0415E+03    -161.545E-03     322.776E-03    -161.232E-03     33.4895E-03    -161.716E-03     321.820E-03    -161.222E-03     31.6588E-03
            1963     765.987E-06     34.0575E-03    -134.505E+06    -293.200E+06    -131.212E+06     39.7998E+03    -161.410E-03     322.383E-03    -160.972E-03     18.3024E-03    -161.499E-03     321.335E-03    -161.008E-03     17.3137E-03
            1964     14.5218E-03     35.1081E-03    -5.47304E+06     99.8489E+06     91.1545E+06    -465.881E+03    -165.323E-03     329.076E-03    -163.752E-03     67.1672E-03    -167.374E-03     331.197E-03    -163.433E-03     57.3554E-03
            1965     13.7599E-03     34.9973E-03    -10.1934E+06     96.6905E+06     93.2059E+06    -1.97222E+06    -165.564E-03     329.202E-03    -163.638E-03     99.6597E-03    -168.575E-03     332.250E-03    -163.297E-03     87.6208E-03
            1966     12.9977E-03     34.8759E-03    -15.5441E+06     88.6344E+06     86.7570E+06    -775.038E+03    -165.954E-03     329.438E-03    -163.484E-03     113.946E-03    -169.309E-03     332.801E-03    -163.156E-03     101.639E-03
            1967     12.2335E-03     34.7288E-03    -23.6891E+06     80.1449E+06     73.3931E+06    -1.36863E+06    -166.443E-03     329.740E-03    -163.297E-03     129.517E-03    -170.267E-03     333.551E-03    -163.012E-03     116.664E-03
            1968     11.4716E-03     34.5682E-03    -31.6514E+06     73.2312E+06     63.6677E+06    -1.52005E+06    -166.869E-03     329.990E-03    -163.120E-03     140.329E-03    -170.964E-03     334.047E-03    -162.862E-03     127.261E-03
            1969     10.7078E-03     34.3935E-03    -38.5258E+06     66.3398E+06     60.5745E+06    -160.913E+03    -167.273E-03     330.242E-03    -162.969E-03     148.203E-03    -171.506E-03     334.398E-03    -162.706E-03     135.099E-03
            1970     9.94477E-03     34.2117E-03    -45.0676E+06     37.1247E+06     52.4467E+06     473.402E+03    -167.501E-03     330.316E-03    -162.815E-03     151.426E-03    -171.630E-03     334.265E-03    -162.542E-03     138.544E-03
            1971     9.18150E-03     34.0282E-03    -51.9034E+06    -9.02753E+06     38.5429E+06    -72.4961E+03    -167.493E-03     330.144E-03    -162.651E-03     150.567E-03    -171.306E-03     333.629E-03    -162.370E-03     138.185E-03
            1972     8.41762E-03     33.8470E-03    -59.3383E+06    -49.0491E+06     24.1499E+06     277.025E+03    -167.280E-03     329.751E-03    -162.471E-03     145.920E-03    -170.649E-03     332.665E-03    -162.193E-03     134.321E-03
            1973     7.65390E-03     33.6737E-03    -66.9801E+06    -81.9306E+06     10.4181E+06     853.210E+03    -166.876E-03     329.153E-03    -162.277E-03     138.378E-03    -169.733E-03     331.451E-03    -162.009E-03     127.786E-03
            1974     6.88968E-03     33.5098E-03    -73.9534E+06    -111.376E+06    -2.56837E+06     472.698E+03    -166.232E-03     328.311E-03    -162.079E-03     128.752E-03    -168.565E-03     329.994E-03    -161.824E-03     119.297E-03
            1975     6.12531E-03     33.3582E-03    -81.2026E+06    -144.309E+06    -16.8506E+06    -269.067E+03    -165.450E-03     327.340E-03    -161.890E-03     117.693E-03    -167.287E-03     328.425E-03    -161.647E-03     109.418E-03
            1976     5.36060E-03     33.2207E-03    -89.6479E+06    -172.636E+06    -32.2053E+06    -487.194E+03    -164.678E-03     326.379E-03    -161.701E-03     105.619E-03    -166.083E-03     326.945E-03    -161.481E-03     98.5340E-03
            1977     4.59552E-03     33.0980E-03    -97.6391E+06    -194.885E+06    -46.8557E+06    -635.815E+03    -163.893E-03     325.406E-03    -161.513E-03     92.5385E-03    -164.931E-03     325.541E-03    -161.323E-03     86.6238E-03
            1978     3.83011E-03     32.9917E-03    -105.221E+06    -224.550E+06    -61.4291E+06    -57.7313E+03    -163.108E-03     324.455E-03    -161.347E-03     78.6065E-03    -163.830E-03     324.185E-03    -161.176E-03     73.8196E-03
            1979     3.06461E-03     32.9031E-03    -113.716E+06    -250.440E+06    -78.9522E+06     640.195E+03    -162.335E-03     323.517E-03    -161.182E-03     64.0029E-03    -162.811E-03     322.928E-03    -161.048E-03     60.2801E-03
            1980     2.29852E-03     32.8327E-03    -122.207E+06    -267.739E+06    -99.1130E+06     257.981E+03    -161.628E-03     322.657E-03    -161.029E-03     48.8271E-03    -161.922E-03     321.855E-03    -160.959E-03     46.0905E-03
            1981     1.53248E-03     32.7817E-03    -129.116E+06    -283.630E+06    -117.552E+06    -37.0213E+03    -161.157E-03     322.087E-03    -160.930E-03     33.1327E-03    -161.320E-03     321.125E-03    -160.919E-03     31.3143E-03
            1982     766.143E-06     32.7503E-03    -134.569E+06    -293.458E+06    -131.278E+06    -128.673E+03    -161.022E-03     321.815E-03    -160.794E-03     18.0415E-03    -161.110E-03     320.766E-03    -160.829E-03     17.0615E-03
            1983     14.5243E-03     33.7916E-03    -3.92331E+06     101.011E+06     92.7583E+06    -585.973E+03    -165.386E-03     329.082E-03    -163.696E-03     68.1674E-03    -167.433E-03     331.205E-03    -163.373E-03     58.3792E-03
            1984     13.7599E-03     33.6797E-03    -9.50572E+06     97.3284E+06     93.7563E+06     881.141E+03    -165.458E-03     329.040E-03    -163.582E-03     101.072E-03    -168.451E-03     332.073E-03    -163.240E-03     89.1868E-03
            1985     12.9967E-03     33.5579E-03    -17.0598E+06     87.9683E+06     85.8909E+06     553.962E+03    -166.000E-03     329.428E-03    -163.429E-03     113.987E-03    -169.340E-03     332.771E-03    -163.102E-03     101.759E-03
            1986     12.2354E-03     33.4121E-03    -23.1472E+06     81.0696E+06     74.4615E+06     1.21855E+06    -166.523E-03     329.763E-03    -163.240E-03     129.492E-03    -170.328E-03     333.558E-03    -162.951E-03     116.713E-03
            1987     11.4714E-03     33.2515E-03    -30.3029E+06     73.9142E+06     64.7886E+06     913.166E+03    -167.139E-03     330.187E-03    -163.047E-03     139.974E-03    -171.211E-03     334.225E-03    -162.787E-03     126.950E-03
            1988     10.7092E-03     33.0775E-03    -37.6777E+06     66.1375E+06     60.7208E+06    -820.594E+03    -167.449E-03     330.319E-03    -162.870E-03     147.569E-03    -171.656E-03     334.452E-03    -162.608E-03     134.469E-03
            1989     9.94588E-03     32.8964E-03    -43.7206E+06     36.9762E+06     52.5544E+06    -1.64118E+06    -167.604E-03     330.299E-03    -162.695E-03     150.675E-03    -171.705E-03     334.223E-03    -162.422E-03     137.785E-03
            1990     9.18249E-03     32.7135E-03    -50.0904E+06    -10.5101E+06     38.8665E+06    -395.392E+03    -167.643E-03     330.151E-03    -162.508E-03     149.599E-03    -171.424E-03     333.604E-03    -162.226E-03     137.227E-03
            1991     8.41922E-03     32.5336E-03    -57.1669E+06    -50.1408E+06     24.9762E+06     618.300E+03    -167.395E-03     329.693E-03    -162.298E-03     144.897E-03    -170.729E-03     332.574E-03    -162.018E-03     133.326E-03
            1992     7.65535E-03     32.3606E-03    -63.9362E+06    -81.2608E+06     11.9740E+06     387.604E+03    -166.921E-03     328.993E-03    -162.072E-03     137.341E-03    -169.745E-03     331.267E-03    -161.802E-03     126.771E-03
            1993     6.89165E-03     32.1978E-03    -71.0470E+06    -110.371E+06    -1.52479E+06     20.6679E+03    -166.211E-03     328.052E-03    -161.842E-03     127.795E-03    -168.515E-03     329.717E-03    -161.586E-03     118.368E-03
            1994     6.12708E-03     32.0477E-03    -79.1163E+06    -144.376E+06    -15.6310E+06     436.572E+03    -165.417E-03     327.040E-03    -161.623E-03     116.810E-03    -167.229E-03     328.105E-03    -161.378E-03     108.582E-03
            1995     5.36207E-03     31.9106E-03    -87.5417E+06    -171.579E+06    -29.7385E+06     514.695E+03    -164.578E-03     325.982E-03    -161.404E-03     104.671E-03    -165.964E-03     326.534E-03    -161.177E-03     97.6347E-03
            1996     4.59701E-03     31.7889E-03    -96.8715E+06    -194.618E+06    -45.3872E+06    -21.7472E+03    -163.663E-03     324.847E-03    -161.184E-03     91.6006E-03    -164.689E-03     324.970E-03    -160.988E-03     85.7311E-03
            1997     3.83154E-03     31.6836E-03    -106.576E+06    -225.426E+06    -62.9464E+06    -245.085E+03    -162.786E-03     323.774E-03    -160.988E-03     77.8171E-03    -163.504E-03     323.496E-03    -160.821E-03     73.0633E-03
            1998     3.06558E-03     31.5955E-03    -115.174E+06    -250.319E+06    -80.8653E+06    -177.448E+03    -161.970E-03     322.779E-03    -160.809E-03     63.3084E-03    -162.445E-03     322.191E-03    -160.683E-03     59.6042E-03
            1999     2.29951E-03     31.5262E-03    -122.830E+06    -267.794E+06    -99.3553E+06     252.828E+03    -161.276E-03     321.929E-03    -160.653E-03     48.2496E-03    -161.570E-03     321.125E-03    -160.583E-03     45.5335E-03
            2000     1.53298E-03     31.4752E-03    -129.846E+06    -283.385E+06    -117.504E+06     274.384E+03    -160.807E-03     321.340E-03    -160.532E-03     32.8075E-03    -160.973E-03     320.379E-03    -160.520E-03     31.0075E-03
            2001     766.645E-06     31.4441E-03    -134.249E+06    -293.123E+06    -130.958E+06     308.889E+03    -160.473E-03     320.988E-03    -160.516E-03     17.8384E-03    -160.560E-03     319.939E-03    -160.551E-03     16.8722E-03
            2002     14.5207E-03     32.4737E-03    -5.46156E+06     99.5638E+06     90.1145E+06    -896.493E+03    -165.495E-03     329.197E-03    -163.701E-03     68.7143E-03    -167.546E-03     331.320E-03    -163.387E-03     58.9062E-03
            2003     13.7602E-03     32.3601E-03    -10.7843E+06     96.4629E+06     92.8305E+06     1.22587E+06    -165.987E-03     329.564E-03    -163.577E-03     100.850E-03    -168.983E-03     332.595E-03    -163.237E-03     88.9293E-03
            2004     12.9989E-03     32.2409E-03    -16.5871E+06     88.8091E+06     86.6489E+06     2.01388E+06    -166.301E-03     329.702E-03    -163.402E-03     113.680E-03    -169.632E-03     333.039E-03    -163.073E-03     101.456E-03
            2005     12.2344E-03     32.0949E-03    -23.6336E+06     81.0884E+06     75.4341E+06     1.24595E+06    -166.941E-03     330.131E-03    -163.191E-03     128.979E-03    -170.734E-03     333.910E-03    -162.897E-03     116.188E-03
            2006     11.4732E-03     31.9340E-03    -28.6057E+06     75.7544E+06     67.5982E+06     402.510E+03    -167.387E-03     330.361E-03    -162.973E-03     139.154E-03    -171.437E-03     334.382E-03    -162.704E-03     126.122E-03
            2007     10.7101E-03     31.7616E-03    -33.5936E+06     69.2544E+06     63.6028E+06    -781.760E+03    -167.658E-03     330.423E-03    -162.766E-03     146.705E-03    -171.831E-03     334.539E-03    -162.499E-03     133.612E-03
            2008     9.94727E-03     31.5810E-03    -41.0712E+06     35.7998E+06     53.3862E+06    -1.15758E+06    -167.798E-03     330.359E-03    -162.561E-03     149.878E-03    -171.863E-03     334.251E-03    -162.286E-03     137.006E-03
            2009     9.18438E-03     31.3990E-03     -49.357E+06    -12.7666E+06     38.8734E+06    -328.837E+03    -167.818E-03     330.162E-03    -162.344E-03     148.749E-03    -171.570E-03     333.580E-03    -162.059E-03     136.397E-03
            2010     8.42091E-03     31.2199E-03    -56.7144E+06    -49.9434E+06     25.5062E+06    -2.32594E+03    -167.532E-03     329.631E-03    -162.099E-03     144.001E-03    -170.841E-03     332.488E-03    -161.817E-03     132.453E-03
            2011     7.65750E-03     31.0479E-03    -64.1464E+06    -80.8500E+06     12.2181E+06    -171.941E+03    -166.889E-03     328.731E-03    -161.842E-03     136.399E-03    -169.692E-03     330.984E-03    -161.571E-03     125.867E-03
            2012     6.89297E-03     30.8865E-03    -72.5516E+06    -111.126E+06    -1.93928E+06     405.078E+03    -166.160E-03     327.743E-03    -161.583E-03     126.760E-03    -168.451E-03     329.387E-03    -161.326E-03     117.378E-03
            2013     6.12866E-03     30.7369E-03    -80.9491E+06    -143.883E+06    -16.4153E+06     579.494E+03    -165.413E-03     326.736E-03    -161.323E-03     115.748E-03    -167.219E-03     327.791E-03    -161.079E-03     107.554E-03
            2014     5.36426E-03     30.6012E-03    -89.1442E+06    -171.008E+06    -30.7167E+06     198.184E+03    -164.439E-03     325.499E-03    -161.060E-03     103.617E-03    -165.817E-03     326.042E-03    -160.836E-03     96.6188E-03
            2015     4.59882E-03     30.4807E-03    -96.9445E+06    -194.925E+06     -45.795E+06     624.583E+03    -163.375E-03     324.187E-03    -160.813E-03     90.6914E-03    -164.388E-03     324.298E-03    -160.618E-03     84.8728E-03
            2016     3.83303E-03     30.3762E-03    -105.180E+06    -224.355E+06    -62.5390E+06     560.145E+03    -162.441E-03     323.040E-03    -160.599E-03     77.0196E-03    -163.147E-03     322.758E-03    -160.434E-03     72.3097E-03
            2017     3.06693E-03     30.2893E-03    -114.288E+06    -250.413E+06    -80.3839E+06     92.3841E+03    -161.629E-03     322.034E-03    -160.405E-03     62.6088E-03    -162.095E-03     321.439E-03    -160.278E-03     58.9354E-03
            2018     2.30040E-03     30.2202E-03    -122.768E+06    -268.161E+06    -98.9629E+06     5.70072E+03    -160.932E-03     321.154E-03    -160.222E-03     47.6596E-03    -161.223E-03     320.344E-03    -160.150E-03     44.9595E-03
            2019     1.53385E-03     30.1702E-03    -129.656E+06    -283.074E+06    -117.537E+06     86.4319E+03    -160.389E-03     320.457E-03    -160.068E-03     32.4447E-03    -160.553E-03     319.497E-03    -160.057E-03     30.6586E-03
            2020     766.853E-06     30.1388E-03    -133.920E+06    -292.745E+06    -131.060E+06    -227.391E+03    -159.983E-03     320.032E-03    -160.049E-03     17.5800E-03    -160.069E-03     318.984E-03    -160.086E-03     16.6104E-03
            2021     14.5232E-03     31.1520E-03    -5.86685E+06     99.7773E+06     89.9552E+06     797.730E+03    -165.973E-03     329.689E-03    -163.716E-03     68.1707E-03    -168.023E-03     331.812E-03    -163.402E-03     58.3550E-03
            2022     13.7604E-03     31.0427E-03    -13.1695E+06     93.9690E+06     89.8984E+06    -561.699E+03    -166.302E-03     329.862E-03    -163.560E-03     99.9631E-03    -169.297E-03     332.884E-03    -163.228E-03     87.9590E-03
            2023     12.9967E-03     30.9219E-03    -17.6717E+06     87.5570E+06     85.9197E+06     393.739E+03    -166.798E-03     330.163E-03    -163.365E-03     113.078E-03    -170.118E-03     333.483E-03    -163.037E-03     100.810E-03
            2024     12.2372E-03     30.7765E-03    -21.2260E+06     83.2876E+06     77.8336E+06     393.489E+03    -167.330E-03     330.458E-03    -163.128E-03     128.144E-03    -171.102E-03     334.224E-03    -162.828E-03     115.320E-03
            2025     11.4737E-03     30.6176E-03    -27.0333E+06     77.3306E+06     68.7875E+06    -863.141E+03    -167.573E-03     330.454E-03    -162.880E-03     138.590E-03    -171.597E-03     334.457E-03    -162.609E-03     125.556E-03
            2026     10.7115E-03     30.4447E-03    -34.4590E+06     69.1610E+06     63.6970E+06    -631.443E+03    -167.820E-03     330.471E-03    -162.652E-03     146.030E-03    -171.974E-03     334.564E-03    -162.384E-03     132.960E-03
            2027     9.94884E-03     30.2659E-03    -42.5820E+06     34.7687E+06     52.8563E+06     135.254E+03    -167.988E-03     330.408E-03    -162.420E-03     149.183E-03    -172.036E-03     334.275E-03    -162.145E-03     136.346E-03
            2028     9.18560E-03     30.0842E-03    -50.0796E+06    -12.5195E+06     38.6258E+06     12.4986E+03    -167.993E-03     330.164E-03    -162.171E-03     148.100E-03    -171.724E-03     333.561E-03    -161.887E-03     135.781E-03
            2029     8.42278E-03     29.9063E-03    -57.7539E+06    -49.3795E+06     25.2217E+06    -228.423E+03    -167.656E-03     329.549E-03    -161.892E-03     143.112E-03    -170.948E-03     332.387E-03    -161.611E-03     131.589E-03
            2030     7.65895E-03     29.7357E-03    -65.9778E+06    -81.4811E+06     11.3969E+06     251.404E+03    -167.040E-03     328.633E-03    -161.593E-03     135.243E-03    -169.827E-03     330.863E-03    -161.322E-03     124.746E-03
            2031     6.89539E-03     29.5753E-03    -73.9137E+06    -111.878E+06    -2.55279E+06     549.838E+03    -166.219E-03     327.505E-03    -161.286E-03     125.469E-03    -168.493E-03     329.126E-03    -161.029E-03     116.121E-03
            2032     6.13105E-03     29.4268E-03    -81.7649E+06    -142.644E+06    -17.0778E+06     285.619E+03    -165.213E-03     326.198E-03    -160.984E-03     114.532E-03    -167.003E-03     327.240E-03    -160.744E-03     106.387E-03
            2033     5.36587E-03     29.2924E-03    -89.5409E+06    -170.699E+06    -31.8390E+06    -311.865E+03    -164.163E-03     324.859E-03    -160.697E-03     102.608E-03    -165.525E-03     325.391E-03    -160.478E-03     95.6578E-03
            2034     4.60058E-03     29.1733E-03    -97.7026E+06    -196.488E+06    -47.3118E+06    -276.208E+03    -163.133E-03     323.559E-03    -160.426E-03     89.8021E-03    -164.136E-03     323.655E-03    -160.236E-03     84.0085E-03
            2035     3.83456E-03     29.0699E-03    -106.219E+06    -223.756E+06    -63.1396E+06     534.109E+03    -162.136E-03     322.320E-03    -160.184E-03     76.1595E-03    -162.839E-03     322.035E-03    -160.022E-03     71.4835E-03
            2036     3.06820E-03     28.9837E-03    -114.346E+06    -249.484E+06    -80.1306E+06     433.444E+03    -161.251E-03     321.218E-03    -159.967E-03     61.8783E-03    -161.714E-03     320.622E-03    -159.840E-03     58.2401E-03
            2037     2.30162E-03     28.9155E-03    -122.229E+06    -268.332E+06    -99.1574E+06     52.0051E+03    -160.508E-03     320.272E-03    -159.765E-03     47.1490E-03    -160.793E-03     319.458E-03    -159.694E-03     44.4748E-03
            2038     1.53453E-03     28.8660E-03    -129.207E+06    -282.706E+06    -117.015E+06     167.281E+03    -159.932E-03     319.535E-03    -159.602E-03     32.1412E-03    -160.094E-03     318.573E-03    -159.590E-03     30.3738E-03
            2039     767.401E-06     28.8354E-03    -134.461E+06    -292.449E+06    -130.991E+06     282.618E+03    -159.690E-03     319.088E-03    -159.397E-03     17.4541E-03    -159.779E-03     318.041E-03    -159.433E-03     16.5013E-03
            2040     14.5212E-03     29.8321E-03    -5.39069E+06     99.9539E+06     91.1078E+06     2.61246E+06    -166.296E-03     329.988E-03    -163.693E-03     67.0392E-03    -168.329E-03     332.093E-03    -163.374E-03     57.2487E-03
            2041     13.7600E-03     29.7236E-03    -10.2654E+06     95.7238E+06     92.6788E+06     821.149E+03    -166.475E-03     329.997E-03    -163.522E-03     98.6606E-03    -169.434E-03     332.991E-03    -163.183E-03     86.6894E-03
            2042     13.0006E-03     29.6026E-03    -16.6338E+06     87.8883E+06     86.3275E+06    -1.91360E+06    -166.984E-03     330.289E-03    -163.305E-03     112.305E-03    -170.274E-03     333.581E-03    -162.976E-03     100.031E-03
            2043     12.2363E-03     29.4588E-03    -22.5791E+06     82.3563E+06     76.3681E+06    -2.23473E+06    -167.361E-03     330.412E-03    -163.051E-03     127.665E-03    -171.115E-03     334.157E-03    -162.756E-03     114.830E-03
            2044     11.4753E-03     29.2997E-03    -28.1599E+06     76.5401E+06     67.8825E+06    -481.868E+03    -167.765E-03     330.557E-03    -162.792E-03     138.121E-03    -171.774E-03     334.541E-03    -162.523E-03     125.102E-03
            2045     10.7127E-03     29.1288E-03    -35.1609E+06     67.8058E+06     62.9575E+06     273.464E+03    -168.071E-03     330.612E-03    -162.541E-03     145.569E-03    -172.209E-03     334.683E-03    -162.273E-03     132.515E-03
            2046     9.94992E-03     28.9499E-03    -42.1549E+06     35.0207E+06     53.1486E+06     642.459E+03    -168.315E-03     330.592E-03    -162.277E-03     148.369E-03    -172.337E-03     334.434E-03    -162.001E-03     135.551E-03
            2047     9.18763E-03     28.7697E-03    -49.7213E+06    -11.3804E+06     38.7180E+06     600.579E+03    -168.223E-03     330.208E-03    -161.985E-03     146.916E-03    -171.927E-03     333.582E-03    -161.702E-03     134.624E-03
            2048     8.42425E-03     28.5926E-03    -57.7272E+06    -49.5570E+06     24.8949E+06     618.166E+03    -167.796E-03     329.461E-03    -161.665E-03     141.789E-03    -171.059E-03     332.271E-03    -161.385E-03     130.305E-03
            2049     7.66141E-03     28.4233E-03    -65.5027E+06    -81.8084E+06     11.3448E+06     861.763E+03    -167.135E-03     328.459E-03    -161.324E-03     134.009E-03    -169.895E-03     330.663E-03    -161.053E-03     123.550E-03
            2050     6.89757E-03     28.2641E-03    -73.3516E+06    -111.417E+06    -2.73840E+06     500.055E+03    -166.183E-03     327.157E-03    -160.974E-03     124.478E-03    -168.433E-03     328.759E-03    -160.720E-03     115.173E-03
            2051     6.13310E-03     28.1178E-03    -81.1250E+06    -141.416E+06    -16.8094E+06     58.1218E+03    -165.063E-03     325.703E-03    -160.640E-03     113.525E-03    -166.832E-03     326.731E-03    -160.401E-03     105.429E-03
            2052     5.36804E-03     27.9845E-03    -89.4229E+06    -170.128E+06    -31.4550E+06    -30.7534E+03    -163.936E-03     324.260E-03    -160.325E-03     101.473E-03    -165.283E-03     324.777E-03    -160.106E-03     94.5742E-03
            2053     4.60230E-03     27.8664E-03    -98.5590E+06    -197.813E+06    -47.5085E+06     338.596E+03    -162.861E-03     322.886E-03    -160.025E-03     88.6270E-03    -163.853E-03     322.964E-03    -159.833E-03     82.8854E-03
            2054     3.83637E-03     27.7645E-03    -107.484E+06    -222.884E+06    -64.8091E+06     246.378E+03    -161.799E-03     321.543E-03    -159.744E-03     75.1945E-03    -162.498E-03     321.257E-03    -159.589E-03     70.5574E-03
            2055     3.06974E-03     27.6794E-03    -115.688E+06    -248.869E+06    -82.4434E+06    -600.947E+03    -160.830E-03     320.332E-03    -159.502E-03     61.1534E-03    -161.291E-03     319.738E-03    -159.385E-03     57.5381E-03
            2056     2.30251E-03     27.6120E-03    -123.426E+06    -269.217E+06    -100.318E+06    -267.417E+03    -160.046E-03     319.341E-03    -159.296E-03     46.5444E-03    -160.330E-03     318.523E-03    -159.228E-03     43.8928E-03
            2057     1.53519E-03     27.5631E-03    -130.085E+06    -282.580E+06    -118.045E+06     210.844E+03    -159.464E-03     318.587E-03    -159.124E-03     31.6369E-03    -159.627E-03     317.628E-03    -159.115E-03     29.8877E-03
            2058     767.534E-06     27.5329E-03    -134.235E+06    -291.974E+06    -130.919E+06     140.382E+03    -159.245E-03     318.127E-03    -158.882E-03     17.3996E-03    -159.333E-03     317.082E-03    -158.919E-03     16.4561E-03
            2059     14.5251E-03     28.5150E-03    -2.19615E+06     99.6466E+06     94.5340E+06     1.82139E+06    -166.915E-03     330.609E-03    -163.694E-03     67.6186E-03    -168.934E-03     332.700E-03    -163.362E-03     57.8075E-03
            2060     13.7626E-03     28.4027E-03    -6.79474E+06     99.6006E+06     97.4253E+06     2.37644E+06    -166.908E-03     330.404E-03    -163.496E-03     99.3051E-03    -169.857E-03     333.400E-03    -163.144E-03     87.3707E-03
            2061     12.9986E-03     28.2849E-03    -14.0158E+06     90.3969E+06     89.2686E+06     408.245E+03    -167.075E-03     330.333E-03    -163.258E-03     112.209E-03    -170.349E-03     333.618E-03    -162.922E-03     99.9761E-03
            2062     12.2386E-03     28.1402E-03    -22.0657E+06     82.4587E+06     75.9056E+06    -534.892E+03    -167.488E-03     330.471E-03    -162.983E-03     127.256E-03    -171.221E-03     334.199E-03    -162.691E-03     114.455E-03
            2063     11.4756E-03     27.9828E-03    -30.0128E+06     74.3586E+06     65.3672E+06    -1.26302E+06    -168.005E-03     330.708E-03    -162.703E-03     137.562E-03    -172.000E-03     334.671E-03    -162.440E-03     124.526E-03
            2064     10.7135E-03     27.8117E-03    -36.1870E+06     66.3163E+06     61.8125E+06    -257.892E+03    -168.506E-03     330.928E-03    -162.422E-03     144.673E-03    -172.622E-03     334.972E-03    -162.157E-03     131.601E-03
            2065     9.95185E-03     27.6338E-03    -43.4256E+06     34.8205E+06     52.0936E+06     972.182E+03    -168.653E-03     330.766E-03    -162.113E-03     147.226E-03    -172.653E-03     334.585E-03    -161.840E-03     134.413E-03
            2066     9.18926E-03     27.4548E-03    -51.4196E+06    -10.7256E+06     37.4242E+06     919.388E+03    -168.462E-03     330.237E-03    -161.774E-03     145.761E-03    -172.148E-03     333.593E-03    -161.497E-03     133.484E-03
            2067     8.42700E-03     27.2792E-03    -58.7716E+06    -49.5019E+06     23.9096E+06     495.803E+03    -167.909E-03     329.324E-03    -161.414E-03     140.687E-03    -171.148E-03     332.108E-03    -161.138E-03     129.238E-03
            2068     7.66336E-03     27.1110E-03    -65.9122E+06    -82.1156E+06     10.8300E+06     333.979E+03    -167.052E-03     328.094E-03    -161.042E-03     132.835E-03    -169.782E-03     330.268E-03    -160.773E-03     122.427E-03
            2069     6.89943E-03     26.9539E-03    -73.2431E+06    -110.398E+06    -2.31096E+06     394.137E+03    -166.059E-03     326.726E-03    -160.666E-03     123.104E-03    -168.282E-03     328.303E-03    -160.412E-03     113.860E-03
            2070     6.13504E-03     26.8085E-03    -81.2872E+06    -140.632E+06    -16.4861E+06     311.055E+03    -164.998E-03     325.293E-03    -160.295E-03     112.103E-03    -166.746E-03     326.301E-03    -160.056E-03     104.062E-03
            2071     5.37013E-03     26.6774E-03    -89.7723E+06    -170.490E+06    -31.3900E+06     439.314E+03    -163.813E-03     323.747E-03    -159.934E-03     100.162E-03    -165.142E-03     324.243E-03    -159.713E-03     93.3198E-03
            2072     4.60451E-03     26.5606E-03    -97.9588E+06    -197.829E+06    -46.9838E+06     674.322E+03    -162.566E-03     322.161E-03    -159.595E-03     87.4213E-03    -163.539E-03     322.220E-03    -159.401E-03     81.7465E-03
            2073     3.83795E-03     26.4600E-03    -105.959E+06    -221.470E+06    -63.6020E+06     156.012E+03    -161.421E-03     320.707E-03    -159.286E-03     74.0497E-03    -162.104E-03     320.412E-03    -159.129E-03     69.4640E-03
            2074     3.07101E-03     26.3761E-03    -114.567E+06    -248.533E+06    -81.6713E+06    -108.326E+03    -160.434E-03     319.450E-03    -159.017E-03     60.1146E-03    -160.882E-03     318.847E-03    -158.899E-03     56.5480E-03
            2075     2.30383E-03     26.3097E-03    -123.032E+06    -270.163E+06    -100.652E+06    -153.973E+03    -159.595E-03     318.374E-03    -158.779E-03     45.7158E-03    -159.870E-03     317.546E-03    -158.712E-03     43.0996E-03
            2076     1.53609E-03     26.2615E-03    -129.703E+06    -282.555E+06    -118.284E+06    -32.9718E+03    -158.977E-03     317.553E-03    -158.576E-03     31.0690E-03    -159.135E-03     316.591E-03    -158.570E-03     29.3392E-03
            2077     768.236E-06     26.2317E-03    -134.111E+06    -291.924E+06    -131.402E+06    -33.0328E+03    -158.548E-03     316.996E-03    -158.448E-03     16.9665E-03    -158.634E-03     315.951E-03    -158.487E-03     16.0353E-03
            2078     14.5196E-03     27.1891E-03    -4.33000E+06     97.4124E+06     92.1661E+06    -1.50703E+06    -167.182E-03     330.887E-03    -163.705E-03     67.0922E-03    -169.197E-03     332.965E-03    -163.379E-03     57.2211E-03
            2079     13.7606E-03     27.0847E-03    -9.14833E+06     97.8765E+06     95.0778E+06    -159.339E+03    -167.285E-03     330.774E-03    -163.488E-03     98.5246E-03    -170.232E-03     333.760E-03    -163.142E-03     86.5137E-03
            2080     13.0013E-03     26.9643E-03    -13.1409E+06     91.6142E+06     90.6897E+06     2.27490E+06    -167.433E-03     330.669E-03    -163.236E-03     111.863E-03    -170.696E-03     333.947E-03    -162.897E-03     99.6436E-03
            2081     12.2380E-03     26.8228E-03    -19.7096E+06     84.0182E+06     78.0123E+06     2.42627E+06    -167.983E-03     330.917E-03    -162.934E-03     126.926E-03    -171.701E-03     334.637E-03    -162.637E-03     114.136E-03
            2082     11.4769E-03     26.6647E-03    -27.2922E+06     76.3900E+06     67.1222E+06     1.72745E+06    -168.599E-03     331.208E-03    -162.609E-03     136.756E-03    -172.569E-03     335.157E-03    -162.344E-03     123.728E-03
            2083     10.7157E-03     26.4942E-03    -36.4102E+06     65.6355E+06     60.7504E+06     1.06892E+06    -168.856E-03     331.134E-03    -162.278E-03     143.611E-03    -172.942E-03     335.148E-03    -162.017E-03     130.562E-03
            2084     9.95340E-03     26.3178E-03    -44.3768E+06     34.2431E+06     50.8916E+06     831.732E+03    -168.839E-03     330.772E-03    -161.933E-03     146.214E-03    -172.811E-03     334.560E-03    -161.664E-03     133.421E-03
            2085     9.19149E-03     26.1397E-03    -50.8444E+06    -9.80021E+06     37.7842E+06     577.222E+03    -168.609E-03     330.174E-03    -161.564E-03     144.754E-03    -172.259E-03     333.498E-03    -161.287E-03     132.515E-03
            2086     8.42854E-03     25.9657E-03    -57.6620E+06    -49.3728E+06     24.2587E+06     297.793E+03    -168.068E-03     329.234E-03    -161.166E-03     139.449E-03    -171.266E-03     331.981E-03    -160.889E-03     128.043E-03
            2087     7.66567E-03     25.7996E-03    -65.1255E+06    -81.7183E+06     11.4614E+06     193.167E+03    -167.189E-03     327.936E-03    -160.747E-03     131.226E-03    -169.878E-03     330.071E-03    -160.477E-03     120.874E-03
            2088     6.90197E-03     25.6436E-03    -73.1245E+06    -110.142E+06    -1.81418E+06     475.317E+03    -166.073E-03     326.393E-03    -160.320E-03     121.239E-03    -168.257E-03     327.932E-03    -160.063E-03     112.069E-03
            2089     6.13752E-03     25.5004E-03    -81.1057E+06    -140.712E+06    -16.4140E+06     499.278E+03    -164.855E-03     324.753E-03    -159.899E-03     110.199E-03    -166.566E-03     325.725E-03    -159.659E-03     102.241E-03
            2090     5.37232E-03     25.3704E-03    -88.9796E+06    -170.675E+06    -31.0197E+06     287.019E+03    -163.577E-03     323.073E-03    -159.495E-03     98.2960E-03    -164.874E-03     323.538E-03    -159.274E-03     91.5290E-03
            2091     4.60645E-03     25.2559E-03    -97.2588E+06    -197.371E+06    -46.1097E+06     386.676E+03    -162.295E-03     321.408E-03    -159.114E-03     85.7054E-03    -163.244E-03     321.445E-03    -158.917E-03     80.0990E-03
            2092     3.84002E-03     25.1566E-03    -106.054E+06    -220.794E+06    -62.9173E+06     391.858E+03    -161.071E-03     319.828E-03    -158.756E-03     72.4679E-03    -161.740E-03     319.518E-03    -158.597E-03     67.9529E-03
            2093     3.07294E-03     25.0740E-03    -114.652E+06    -248.219E+06    -81.3154E+06     363.263E+03    -159.971E-03     318.412E-03    -158.441E-03     58.7018E-03    -160.410E-03     317.799E-03    -158.322E-03     55.1956E-03
            2094     2.30509E-03     25.0088E-03    -122.566E+06    -269.984E+06    -100.345E+06     424.777E+03    -159.044E-03     317.212E-03    -158.169E-03     44.6527E-03    -159.311E-03     316.377E-03    -158.101E-03     42.0892E-03
            2095     1.53698E-03     24.9613E-03    -129.500E+06    -282.457E+06    -117.850E+06     299.334E+03    -158.359E-03     316.305E-03    -157.946E-03     30.3948E-03    -158.514E-03     315.340E-03    -157.938E-03     28.7019E-03
            2096     768.542E-06     24.9320E-03    -134.299E+06    -291.343E+06    -130.816E+06     468.098E+03    -157.960E-03     315.716E-03    -157.756E-03     16.4609E-03    -158.047E-03     314.672E-03    -157.792E-03     15.5562E-03
            2097     14.5255E-03     25.8732E-03    -5.29713E+06     98.9812E+06     90.5730E+06    -938.448E+03    -167.330E-03     331.027E-03    -163.697E-03     66.1504E-03    -169.331E-03     333.098E-03    -163.380E-03     56.3066E-03
            2098     13.7621E-03     25.7608E-03    -11.1290E+06     95.1186E+06     91.4825E+06    -1.59793E+06    -167.249E-03     330.723E-03    -163.474E-03     97.8821E-03    -170.174E-03     333.681E-03    -163.139E-03     85.8827E-03
            2099     12.9994E-03     25.6471E-03    -17.1125E+06     87.3541E+06     85.4881E+06    -694.928E+03    -167.907E-03     331.111E-03    -163.204E-03     111.365E-03    -171.167E-03     334.373E-03    -162.879E-03     99.0652E-03
            2100     12.2391E-03     25.5021E-03    -21.2948E+06     82.8343E+06     77.2020E+06     1.85707E+06    -168.644E-03     331.521E-03    -162.877E-03     126.295E-03    -172.354E-03     335.225E-03    -162.580E-03     113.456E-03
            2101     11.4786E-03     25.3461E-03    -26.7222E+06     77.2984E+06     68.0986E+06     4.13301E+06    -169.024E-03     331.536E-03    -162.513E-03     136.155E-03    -172.973E-03     335.468E-03    -162.245E-03     123.153E-03
            2102     10.7167E-03     25.1768E-03    -33.5326E+06     68.4435E+06     62.5762E+06     4.03369E+06    -169.188E-03     331.333E-03    -162.145E-03     143.157E-03    -173.242E-03     335.330E-03    -161.883E-03     130.155E-03
            2103     9.95542E-03     25.0014E-03    -41.2666E+06     36.4196E+06     52.9012E+06     1.70476E+06    -169.220E-03     330.982E-03    -161.762E-03     145.332E-03    -173.147E-03     334.739E-03    -161.491E-03     132.570E-03
            2104     9.19309E-03     24.8250E-03    -49.2801E+06    -9.66759E+06     38.8301E+06     835.952E+03    -168.984E-03     330.328E-03    -161.343E-03     143.228E-03    -172.581E-03     333.603E-03    -161.064E-03     131.028E-03
            2105     8.43100E-03     24.6522E-03    -57.2434E+06    -48.3289E+06     25.0109E+06     699.292E+03    -168.359E-03     329.243E-03    -160.884E-03     137.387E-03    -171.501E-03     331.937E-03    -160.606E-03     126.049E-03
            2106     7.66818E-03     24.4876E-03    -65.1828E+06    -81.1648E+06     11.5922E+06     411.236E+03    -167.412E-03     327.809E-03    -160.397E-03     128.971E-03    -170.049E-03     329.892E-03    -160.126E-03     118.697E-03
            2107     6.90473E-03     24.3341E-03    -72.7681E+06    -110.631E+06    -1.71578E+06     316.355E+03    -166.187E-03     326.085E-03    -159.898E-03     118.907E-03    -168.319E-03     327.570E-03    -159.641E-03     109.821E-03
            2108     6.14045E-03     24.1925E-03    -80.4059E+06    -140.254E+06    -15.7651E+06     297.096E+03    -164.785E-03     324.191E-03    -159.406E-03     107.745E-03    -166.450E-03     325.119E-03    -159.165E-03     99.8804E-03
            2109     5.37529E-03     24.0650E-03    -88.6046E+06    -170.318E+06    -30.7519E+06     265.474E+03    -163.347E-03     322.282E-03    -158.935E-03     95.7458E-03    -164.605E-03     322.710E-03    -158.713E-03     89.0793E-03
            2110     4.60929E-03     23.9519E-03    -97.1209E+06    -197.508E+06    -45.9822E+06     439.687E+03    -161.939E-03     320.428E-03    -158.490E-03     83.2129E-03    -162.857E-03     320.434E-03    -158.292E-03     77.7006E-03
            2111     3.84253E-03     23.8544E-03    -105.506E+06    -220.670E+06    -62.3645E+06     640.793E+03    -160.573E-03     318.648E-03    -158.075E-03     70.3018E-03    -161.219E-03     318.317E-03    -157.914E-03     65.8699E-03
            2112     3.07497E-03     23.7735E-03    -114.091E+06    -248.139E+06    -80.8781E+06     588.290E+03    -159.368E-03     317.079E-03    -157.711E-03     56.9171E-03    -159.791E-03     316.451E-03    -157.590E-03     53.4844E-03
            2113     2.30693E-03     23.7095E-03    -122.303E+06    -269.555E+06    -99.6629E+06     782.859E+03    -158.358E-03     315.754E-03    -157.395E-03     43.2135E-03    -158.618E-03     314.911E-03    -157.326E-03     40.7097E-03
            2114     1.53823E-03     23.6629E-03    -129.023E+06    -281.487E+06    -117.585E+06     812.698E+03    -157.564E-03     314.706E-03    -157.142E-03     29.3448E-03    -157.715E-03     313.741E-03    -157.135E-03     27.6960E-03
            2115     769.179E-06     23.6343E-03    -133.487E+06    -290.144E+06    -130.384E+06     162.152E+03    -157.071E-03     314.093E-03    -157.022E-03     16.0259E-03    -157.155E-03     313.052E-03    -157.060E-03     15.1383E-03
            2116     14.5198E-03     24.5467E-03    -4.71728E+06     99.5109E+06     90.5169E+06    -479.259E+03    -167.324E-03     331.042E-03    -163.718E-03     66.5524E-03    -169.325E-03     333.117E-03    -163.403E-03     56.7059E-03
            2117     13.7610E-03     24.4447E-03    -10.7350E+06     95.0381E+06     91.4848E+06    -369.209E+03    -167.825E-03     331.308E-03    -163.483E-03     98.0668E-03    -170.747E-03     334.264E-03    -163.148E-03     86.0488E-03
            2118     13.0009E-03     24.3238E-03    -17.4292E+06     86.3290E+06     84.5043E+06    -544.194E+03    -168.459E-03     331.636E-03    -163.177E-03     110.892E-03    -171.712E-03     334.889E-03    -162.855E-03     98.5484E-03
            2119     12.2405E-03     24.1834E-03    -24.7084E+06     79.3041E+06     73.4546E+06     366.791E+03    -168.902E-03     331.718E-03    -162.816E-03     126.051E-03    -172.603E-03     335.400E-03    -162.528E-03     113.195E-03
            2120     11.4786E-03     24.0268E-03    -30.0434E+06     73.9994E+06     65.4421E+06     1.59700E+06    -169.394E-03     331.826E-03    -162.432E-03     135.966E-03    -173.330E-03     335.728E-03    -162.169E-03     122.932E-03
            2121     10.7181E-03     23.8590E-03    -34.4389E+06     69.3050E+06     63.0335E+06     2.31754E+06    -169.809E-03     331.836E-03    -162.027E-03     142.183E-03    -173.838E-03     335.806E-03    -161.763E-03     129.137E-03
            2122     9.95658E-03     23.6844E-03    -40.8082E+06     39.0530E+06     54.0882E+06     3.04357E+06    -169.935E-03     331.512E-03    -161.577E-03     143.781E-03    -173.816E-03     335.230E-03    -161.304E-03     131.041E-03
            2123     9.19587E-03     23.5094E-03    -48.8619E+06    -7.80474E+06     39.5519E+06     2.26695E+06    -169.681E-03     330.755E-03    -161.073E-03     141.122E-03    -173.220E-03     333.978E-03    -160.793E-03     128.966E-03
            2124     8.43408E-03     23.3386E-03    -56.7260E+06    -46.5113E+06     25.7653E+06     1.44305E+06    -168.892E-03     329.413E-03    -160.521E-03     134.873E-03    -171.967E-03     332.047E-03    -160.242E-03     123.614E-03
            2125     7.67160E-03     23.1762E-03    -64.2230E+06    -80.5114E+06     12.0203E+06     488.204E+03    -167.730E-03     327.669E-03    -159.939E-03     126.002E-03    -170.293E-03     329.683E-03    -159.669E-03     115.826E-03
            2126     6.90841E-03     23.0245E-03    -71.6828E+06    -110.566E+06    -1.04528E+06     48.7942E+03    -166.345E-03     325.690E-03    -159.345E-03     115.611E-03    -168.407E-03     327.108E-03    -159.086E-03     106.630E-03
            2127     6.14435E-03     22.8858E-03    -79.5655E+06    -140.052E+06    -15.1843E+06     263.008E+03    -164.776E-03     323.529E-03    -158.753E-03     104.350E-03    -166.382E-03     324.399E-03    -158.510E-03     96.5978E-03
            2128     5.37926E-03     22.7601E-03    -87.6356E+06    -169.936E+06    -30.2412E+06     646.124E+03    -163.116E-03     321.297E-03    -158.181E-03     92.5124E-03    -164.323E-03     321.677E-03    -157.959E-03     85.9746E-03
            2129     4.61325E-03     22.6495E-03    -95.7684E+06    -197.361E+06    -45.5653E+06     682.714E+03    -161.455E-03     319.102E-03    -157.647E-03     80.2164E-03    -162.331E-03     319.070E-03    -157.450E-03     74.8270E-03
            2130     3.84603E-03     22.5541E-03    -104.391E+06    -220.553E+06    -61.8364E+06     599.074E+03    -159.888E-03     317.048E-03    -157.161E-03     67.5784E-03    -160.503E-03     316.690E-03    -156.999E-03     63.2501E-03
            2131     3.07800E-03     22.4748E-03    -112.731E+06    -248.163E+06    -79.4131E+06     988.079E+03    -158.544E-03     315.284E-03    -156.740E-03     54.5819E-03    -158.945E-03     314.635E-03    -156.614E-03     51.2420E-03
            2132     2.30920E-03     22.4123E-03    -120.541E+06    -268.970E+06    -98.7574E+06     1.17898E+06    -157.436E-03     313.806E-03    -156.370E-03     41.4167E-03    -157.679E-03     312.953E-03    -156.299E-03     38.9823E-03
            2133     1.53986E-03     22.3670E-03    -127.077E+06    -280.228E+06    -116.123E+06     943.090E+03    -156.576E-03     312.645E-03    -156.069E-03     28.1014E-03    -156.716E-03     311.677E-03    -156.059E-03     26.4985E-03
            2134     770.037E-06     22.3389E-03    -131.180E+06    -288.485E+06    -128.758E+06     892.520E+03    -155.843E-03     311.891E-03    -156.048E-03     15.2724E-03    -155.919E-03     310.851E-03    -156.083E-03     14.4194E-03
            2135     14.5235E-03     23.2301E-03    -5.68839E+06     98.9619E+06     89.6085E+06    -262.407E+03    -167.639E-03     331.378E-03    -163.739E-03     65.1217E-03    -169.617E-03     333.428E-03    -163.427E-03     55.3108E-03
            2136     13.7609E-03     23.1190E-03    -10.4095E+06     95.3205E+06     91.5420E+06       21.82E+03    -167.970E-03     331.463E-03    -163.493E-03     97.5894E-03    -170.882E-03     334.411E-03    -163.159E-03     85.5691E-03
            2137     13.0012E-03     23.0044E-03    -16.7662E+06     86.7148E+06     85.0303E+06     2.12697E+06    -168.633E-03     331.815E-03    -163.181E-03     111.310E-03    -171.881E-03     335.064E-03    -162.858E-03     99.0008E-03
            2138     12.2394E-03     22.8632E-03    -23.6350E+06     79.6928E+06     74.6294E+06     1.52261E+06    -169.512E-03     332.313E-03    -162.801E-03     126.214E-03    -173.199E-03     335.983E-03    -162.509E-03     113.343E-03
            2139     11.4799E-03     22.7070E-03    -30.2866E+06     73.2382E+06     65.5147E+06    -396.022E+03    -170.339E-03     332.699E-03    -162.360E-03     135.134E-03    -174.252E-03     336.575E-03    -162.095E-03     122.001E-03
            2140     10.7192E-03     22.5400E-03    -37.2785E+06     66.0898E+06     60.6174E+06     388.619E+03    -170.832E-03     332.701E-03    -161.870E-03     140.589E-03    -174.815E-03     336.612E-03    -161.609E-03     127.485E-03
            2141     9.95955E-03     22.3665E-03    -43.8280E+06     39.6760E+06     53.1134E+06     1.80546E+06    -170.948E-03     332.270E-03    -161.322E-03     141.417E-03    -174.769E-03     335.922E-03    -161.050E-03     128.672E-03
            2142     9.19864E-03     22.1933E-03    -49.9638E+06    -5.19379E+06     39.8089E+06     1.59305E+06    -170.567E-03     331.271E-03    -160.704E-03     138.028E-03    -174.024E-03     334.417E-03    -160.425E-03     125.925E-03
            2143     8.43781E-03     22.0245E-03    -56.3986E+06    -45.6195E+06     25.9633E+06     789.930E+03    -169.694E-03     329.717E-03    -160.023E-03     131.110E-03    -172.673E-03     332.258E-03    -159.745E-03     119.927E-03
            2144     7.67633E-03     21.8647E-03    -63.1873E+06    -79.0511E+06     12.9036E+06     465.066E+03    -168.296E-03     327.597E-03    -159.301E-03     121.719E-03    -170.761E-03     329.519E-03    -159.030E-03     111.666E-03
            2145     6.91362E-03     21.7158E-03    -70.8037E+06    -110.673E+06    -1.03513E+06     258.518E+03    -166.563E-03     325.128E-03    -158.565E-03     111.099E-03    -168.532E-03     326.455E-03    -158.307E-03     102.272E-03
            2146     6.14980E-03     21.5796E-03    -78.6328E+06    -140.086E+06    -14.8914E+06     355.405E+03    -164.685E-03     322.524E-03    -157.839E-03     99.7804E-03    -166.210E-03     323.316E-03    -157.596E-03     92.1971E-03
            2147     5.38473E-03     21.4572E-03    -86.5379E+06    -169.863E+06    -29.5728E+06     684.082E+03    -162.725E-03     319.867E-03    -157.142E-03     88.0836E-03    -163.865E-03     320.183E-03    -156.918E-03     81.7120E-03
            2148     4.61819E-03     21.3490E-03    -94.7250E+06    -197.415E+06    -45.4081E+06     866.212E+03    -160.796E-03     317.286E-03    -156.490E-03     76.0880E-03    -161.619E-03     317.204E-03    -156.293E-03     70.8553E-03
            2149     3.85069E-03     21.2561E-03    -102.937E+06    -219.880E+06    -61.3860E+06     937.854E+03    -158.991E-03     314.890E-03    -155.899E-03     63.8849E-03    -159.566E-03     314.497E-03    -155.737E-03     59.7027E-03
            2150     3.08200E-03     21.1789E-03    -111.420E+06    -248.159E+06    -78.3533E+06     1.06017E+06    -157.415E-03     312.810E-03    -155.395E-03     51.4849E-03    -157.789E-03     312.134E-03    -155.265E-03     48.2657E-03
            2151     2.31233E-03     21.1182E-03    -119.103E+06    -268.073E+06    -97.5124E+06     1.24920E+06    -156.126E-03     311.085E-03    -154.959E-03     38.9377E-03    -156.352E-03     310.219E-03    -154.885E-03     36.5988E-03
            2152     1.54199E-03     21.0739E-03    -125.317E+06    -278.822E+06    -114.431E+06     1.09690E+06    -155.156E-03     309.774E-03    -154.618E-03     26.4029E-03    -155.286E-03     308.801E-03    -154.604E-03     24.8677E-03
            2153     771.219E-06     21.0469E-03    -129.893E+06    -286.558E+06    -125.823E+06     859.162E+03    -154.515E-03     308.951E-03    -154.436E-03     14.3262E-03    -154.590E-03     307.913E-03    -154.462E-03     13.5097E-03
            2154     14.5206E-03     21.9057E-03    -4.61538E+06     99.2896E+06     89.6784E+06     951.008E+03    -167.556E-03     331.335E-03    -163.780E-03     66.5888E-03    -169.537E-03     333.392E-03    -163.469E-03     56.8339E-03
            2155     13.7617E-03     21.8001E-03    -11.5633E+06     93.7486E+06     90.0389E+06     1.13568E+06    -168.143E-03     331.678E-03    -163.535E-03     98.8382E-03    -171.063E-03     334.629E-03    -163.204E-03     86.8448E-03
            2156     12.9988E-03     21.6831E-03    -17.4092E+06     85.5886E+06     84.6958E+06     1.46296E+06    -169.240E-03     332.449E-03    -163.209E-03     111.213E-03    -172.482E-03     335.687E-03    -162.884E-03     98.8540E-03
            2157     12.2405E-03     21.5408E-03    -21.6816E+06     81.1108E+06     76.2375E+06     1.05070E+06    -170.707E-03     333.481E-03    -162.774E-03     125.211E-03    -174.372E-03     337.136E-03    -162.479E-03     112.217E-03
            2158     11.4805E-03     21.3864E-03    -28.2844E+06     73.9472E+06     66.1943E+06     1.49438E+06    -171.722E-03     333.959E-03    -162.237E-03     133.487E-03    -175.580E-03     337.788E-03    -161.972E-03     120.291E-03
            2159     10.7220E-03     21.2192E-03    -35.6620E+06     66.6266E+06     61.0541E+06     1.20084E+06    -172.365E-03     333.991E-03    -161.626E-03     138.074E-03    -176.259E-03     337.817E-03    -161.365E-03     124.955E-03
            2160     9.96260E-03     21.0477E-03    -42.1278E+06     39.2035E+06     53.1556E+06     25.6147E+03    -172.479E-03     333.406E-03    -160.928E-03     137.714E-03    -176.178E-03     336.941E-03    -160.657E-03     124.965E-03
            2161     9.20380E-03     20.8762E-03    -48.3187E+06    -5.15553E+06     40.4470E+06     231.259E+03    -171.958E-03     332.096E-03    -160.138E-03     133.099E-03    -175.272E-03     335.102E-03    -159.858E-03     121.059E-03
            2162     8.44402E-03     20.7102E-03    -55.2431E+06    -44.4669E+06     26.4262E+06     200.131E+03    -170.716E-03     329.981E-03    -159.265E-03     125.246E-03    -173.545E-03     332.380E-03    -158.989E-03     114.205E-03
            2163     7.68320E-03     20.5532E-03    -62.5540E+06    -79.0300E+06     12.7991E+06     169.870E+03    -168.931E-03     327.281E-03    -158.351E-03     115.358E-03    -171.251E-03     329.062E-03    -158.081E-03     105.498E-03
            2164     6.92123E-03     20.4081E-03    -69.9072E+06    -110.216E+06    -612.552E+03     605.694E+03    -166.795E-03     324.219E-03    -157.424E-03     104.543E-03    -168.634E-03     325.421E-03    -157.166E-03     95.9512E-03
            2165     6.15759E-03     20.2752E-03    -77.6610E+06    -139.655E+06    -14.4970E+06     584.655E+03    -164.476E-03     320.989E-03    -156.513E-03     93.2434E-03    -165.888E-03     321.672E-03    -156.270E-03     85.9137E-03
            2166     5.39240E-03     20.1563E-03    -85.4883E+06    -170.355E+06    -29.0669E+06     584.454E+03    -162.132E-03     317.775E-03    -155.643E-03     81.7141E-03    -163.179E-03     317.999E-03    -155.418E-03     75.5825E-03
            2167     4.62581E-03     20.0514E-03    -93.5039E+06    -197.163E+06    -44.6684E+06     1.11456E+06    -159.827E-03     314.655E-03    -154.828E-03     70.1842E-03    -160.578E-03     314.504E-03    -154.630E-03     65.1865E-03
            2168     3.85744E-03     19.9614E-03    -101.911E+06    -219.315E+06    -61.0845E+06     1.40814E+06    -157.673E-03     311.764E-03    -154.091E-03     58.6194E-03    -158.195E-03     311.323E-03    -153.930E-03     54.6562E-03
            2169     3.08772E-03     19.8868E-03    -110.227E+06    -247.277E+06    -77.7495E+06     1.31515E+06    -155.832E-03     309.293E-03    -153.461E-03     47.0479E-03    -156.170E-03     308.588E-03    -153.332E-03     44.0095E-03
            2170     2.31698E-03     19.8279E-03    -118.182E+06    -267.400E+06    -95.3836E+06     1.10231E+06    -154.292E-03     307.218E-03    -152.927E-03     35.4043E-03    -154.498E-03     306.333E-03    -152.845E-03     33.2035E-03
            2171     1.54512E-03     19.7856E-03    -125.166E+06    -277.288E+06    -113.142E+06     1.16439E+06    -153.116E-03     305.619E-03    -152.503E-03     23.8792E-03    -153.240E-03     304.642E-03    -152.485E-03     22.4420E-03
            2172     772.574E-06     19.7590E-03    -129.786E+06    -284.469E+06    -126.803E+06     441.519E+03    -152.404E-03     304.629E-03    -152.225E-03     12.9375E-03    -152.477E-03     303.599E-03    -152.258E-03     12.1719E-03
            2173     14.5197E-03     20.5834E-03    -5.57226E+06     97.9716E+06     88.3353E+06     2.36632E+06    -167.455E-03     331.284E-03    -163.829E-03     65.5519E-03    -169.429E-03     333.330E-03    -163.521E-03     55.7949E-03
            2174     13.7578E-03     20.4776E-03    -11.0191E+06     93.7583E+06     90.7149E+06     969.896E+03    -168.715E-03     332.290E-03    -163.576E-03     97.4316E-03    -171.622E-03     335.228E-03    -163.242E-03     85.3582E-03
            2175     13.0010E-03     20.3600E-03    -15.0596E+06     86.6792E+06     86.8603E+06    -608.116E+03    -170.592E-03     333.787E-03    -163.195E-03     110.553E-03    -173.810E-03     337.007E-03    -162.865E-03     98.0623E-03
            2176     12.2408E-03     20.2184E-03    -21.4526E+06     78.1779E+06     75.6471E+06     155.477E+03    -172.325E-03     334.983E-03    -162.658E-03     123.598E-03    -175.927E-03     338.567E-03    -162.362E-03     110.506E-03
            2177     11.4833E-03     20.0628E-03    -26.7305E+06     73.2947E+06     67.4194E+06     1.87775E+06    -173.803E-03     335.790E-03    -161.987E-03     130.393E-03    -177.549E-03     339.506E-03    -161.718E-03     117.158E-03
            2178     10.7257E-03     19.8973E-03    -31.7033E+06     69.8369E+06     64.0746E+06     1.37178E+06    -174.621E-03     335.810E-03    -161.188E-03     133.191E-03    -178.357E-03     339.495E-03    -160.923E-03     120.062E-03
            2179     9.96896E-03     19.7269E-03    -38.5505E+06     40.1671E+06     54.7528E+06     248.740E+03    -174.604E-03     334.864E-03    -160.261E-03     131.318E-03    -178.107E-03     338.215E-03    -159.989E-03     118.639E-03
            2180     9.21162E-03     19.5580E-03    -46.1354E+06    -5.92818E+06     40.9598E+06     245.475E+03    -173.744E-03     332.963E-03    -159.219E-03     125.518E-03    -176.840E-03     335.756E-03    -158.939E-03     113.648E-03
            2181     8.45357E-03     19.3956E-03    -53.4180E+06    -43.6032E+06     27.2488E+06     582.665E+03    -171.998E-03     330.082E-03    -158.084E-03     116.796E-03    -174.612E-03     332.273E-03    -157.807E-03     106.012E-03
            2182     7.69401E-03     19.2428E-03    -60.9015E+06    -78.5934E+06     13.2673E+06     543.244E+03    -169.650E-03     326.553E-03    -156.903E-03     106.320E-03    -171.767E-03     328.137E-03    -156.635E-03     96.7757E-03
            2183     6.93260E-03     19.1018E-03    -68.5337E+06    -109.986E+06    -73.1019E+03     897.728E+03    -166.954E-03     322.670E-03    -155.716E-03     95.2218E-03    -168.612E-03     323.695E-03    -155.457E-03     86.9817E-03
            2184     6.16941E-03     18.9735E-03    -76.2150E+06    -138.335E+06    -13.8361E+06     1.08892E+06    -164.054E-03     318.605E-03    -154.551E-03     84.0871E-03    -165.315E-03     319.144E-03    -154.309E-03     77.1219E-03
            2185     5.40410E-03     18.8586E-03    -84.4538E+06    -170.395E+06    -28.6446E+06     959.572E+03    -161.144E-03     314.590E-03    -153.446E-03     73.0707E-03    -162.069E-03     314.694E-03    -153.220E-03     67.3024E-03
            2186     4.63662E-03     18.7579E-03    -92.7888E+06    -197.287E+06    -43.7611E+06     1.45967E+06    -158.342E-03     310.760E-03    -152.419E-03     62.2712E-03    -159.001E-03     310.517E-03    -152.217E-03     57.6122E-03
            2187     3.86730E-03     18.6716E-03    -101.138E+06    -218.535E+06    -59.8990E+06     2.02555E+06    -155.751E-03     307.238E-03    -151.487E-03     51.6813E-03    -156.209E-03     306.735E-03    -151.323E-03     48.0216E-03
            2188     3.09629E-03     18.6000E-03    -109.569E+06    -245.258E+06    -77.1584E+06     1.65345E+06    -153.509E-03     304.193E-03    -150.684E-03     41.2637E-03    -153.807E-03     303.455E-03    -150.555E-03     38.4742E-03
            2189     2.32361E-03     18.5439E-03    -117.287E+06    -266.339E+06    -94.7097E+06     916.103E+03    -151.667E-03     301.677E-03    -150.009E-03     30.9244E-03    -151.849E-03     300.771E-03    -149.927E-03     28.9079E-03
            2190     1.54992E-03     18.5032E-03    -123.835E+06    -276.635E+06    -111.978E+06     900.497E+03    -150.276E-03     299.737E-03    -149.461E-03     20.7935E-03    -150.386E-03     298.749E-03    -149.440E-03     19.4815E-03
            2191     775.410E-06     18.4782E-03    -128.258E+06    -281.836E+06    -125.224E+06     1.19056E+06    -149.221E-03     298.402E-03    -149.180E-03     11.1090E-03    -149.290E-03     297.377E-03    -149.212E-03     10.4253E-03
            2192     14.5214E-03     19.2638E-03    -2.51826E+06     98.0895E+06     92.5157E+06     1.76231E+06    -168.235E-03     332.090E-03    -163.856E-03     65.8582E-03    -170.195E-03     334.122E-03    -163.532E-03     56.0520E-03
            2193     13.7615E-03     19.1552E-03    -5.84666E+06     98.9708E+06     95.8339E+06     3.46569E+06    -169.948E-03     333.492E-03    -163.543E-03     97.4703E-03    -172.824E-03     336.420E-03    -163.199E-03     85.3826E-03
            2194     13.0000E-03     19.0354E-03    -15.0146E+06     86.3918E+06     85.6937E+06     582.707E+03    -172.464E-03     335.516E-03    -163.052E-03     109.077E-03    -175.630E-03     338.687E-03    -162.727E-03     96.4759E-03
            2195     12.2443E-03     18.8930E-03    -21.3208E+06     78.0015E+06     76.0030E+06     222.506E+03    -175.121E-03     337.482E-03    -162.361E-03     120.094E-03    -178.610E-03     340.952E-03    -162.063E-03     106.904E-03
            2196     11.4883E-03     18.7371E-03    -26.5807E+06     73.4350E+06     68.2407E+06    -404.447E+03    -176.926E-03     338.386E-03    -161.460E-03     124.717E-03    -180.496E-03     341.924E-03    -161.187E-03     111.416E-03
            2197     10.7342E-03     18.5722E-03    -31.9917E+06     69.1070E+06     63.7411E+06    -304.834E+03    -177.652E-03     338.026E-03    -160.375E-03     125.399E-03    -181.153E-03     341.475E-03    -160.110E-03     112.313E-03
            2198     9.97976E-03     18.4045E-03    -38.3246E+06     40.9971E+06     55.0845E+06     875.459E+03    -177.239E-03     336.370E-03    -159.131E-03     121.822E-03    -180.469E-03     339.451E-03    -158.860E-03     109.349E-03
            2199     9.22477E-03     18.2393E-03    -45.7808E+06    -4.94528E+06     40.9870E+06     1.12981E+06    -175.760E-03     333.514E-03    -157.754E-03     114.662E-03    -178.567E-03     336.023E-03    -157.476E-03     103.122E-03
            2200     8.46839E-03     18.0811E-03    -53.2704E+06    -42.8680E+06     27.1941E+06     715.624E+03    -173.371E-03     329.648E-03    -156.277E-03     105.099E-03    -175.707E-03     331.564E-03    -156.002E-03     94.7129E-03
            2201     7.71026E-03     17.9338E-03    -60.4849E+06    -77.3938E+06     13.5009E+06     926.969E+03    -170.314E-03     325.066E-03    -154.752E-03     94.3630E-03    -172.181E-03     326.405E-03    -154.485E-03     85.2755E-03
            2202     6.94985E-03     17.7982E-03    -67.8232E+06    -109.888E+06    -367.013E+03     1.04094E+06    -166.854E-03     320.082E-03    -153.228E-03     83.4533E-03    -168.294E-03     320.893E-03    -152.973E-03     75.6929E-03
            2203     6.18669E-03     17.6756E-03    -75.4828E+06    -137.754E+06    -13.8258E+06     1.39014E+06    -163.198E-03     314.945E-03    -151.747E-03     72.8031E-03    -164.283E-03     315.314E-03    -151.507E-03     66.3175E-03
            2204     5.42079E-03     17.5662E-03    -83.4395E+06    -169.202E+06    -27.9298E+06     1.94377E+06    -159.557E-03     309.911E-03    -150.354E-03     62.6127E-03    -160.346E-03     309.884E-03    -150.128E-03     57.3107E-03
            2205     4.65236E-03     17.4705E-03    -91.8174E+06    -197.043E+06    -43.0743E+06     1.93878E+06    -156.122E-03     305.189E-03    -149.067E-03     52.9378E-03    -156.681E-03     304.847E-03    -148.864E-03     48.6892E-03
            2206     3.88138E-03     17.3886E-03    -100.101E+06    -218.071E+06    -59.3827E+06     2.25130E+06    -152.984E-03     300.889E-03    -147.905E-03     43.6595E-03    -153.372E-03     300.319E-03    -147.740E-03     40.3463E-03
            2207     3.10802E-03     17.3212E-03    -108.078E+06    -242.349E+06    -76.7807E+06     2.12739E+06    -150.244E-03     297.150E-03    -146.906E-03     34.6884E-03    -150.497E-03     296.381E-03    -146.782E-03     32.1904E-03
            2208     2.33291E-03     17.2680E-03    -115.773E+06    -264.385E+06    -94.8952E+06     947.914E+03    -148.015E-03     294.100E-03    -146.085E-03     25.9605E-03    -148.168E-03     293.178E-03    -146.008E-03     24.1617E-03
            2209     1.55616E-03     17.2299E-03    -121.914E+06    -276.763E+06    -111.077E+06     562.133E+03    -146.348E-03     291.803E-03    -145.455E-03     17.4959E-03    -146.439E-03     290.799E-03    -145.432E-03     16.3245E-03
            2210     778.288E-06     17.2064E-03    -126.395E+06    -279.523E+06    -122.710E+06     780.104E+03    -145.250E-03     290.320E-03    -145.070E-03     9.26976E-03    -145.313E-03     289.297E-03    -145.095E-03     8.65817E-03
            2211     14.5177E-03     17.9370E-03    -4.94537E+06     94.4021E+06     89.0441E+06    -2.10764E+06    -169.614E-03     333.422E-03    -163.808E-03     65.8708E-03    -171.567E-03     335.434E-03    -163.492E-03     55.9092E-03
            2212     13.7602E-03     17.8311E-03    -9.63316E+06     94.3656E+06     91.2398E+06    -210.080E+03    -172.756E-03     336.127E-03    -163.372E-03     95.9462E-03    -175.596E-03     339.004E-03    -163.038E-03     83.6192E-03
            2213     13.0059E-03     17.7084E-03    -12.5570E+06     89.5640E+06     88.6796E+06     3.39075E+06    -176.157E-03     338.849E-03    -162.692E-03     105.659E-03    -179.219E-03     341.927E-03    -162.360E-03     92.9276E-03
            2214     12.2509E-03     17.5636E-03    -19.5636E+06     82.1563E+06     77.6712E+06     1.26032E+06    -179.161E-03     340.877E-03    -161.716E-03     113.834E-03    -182.471E-03     344.184E-03    -161.418E-03     100.540E-03
            2215     11.4996E-03     17.4077E-03    -26.2412E+06     74.8471E+06     67.3051E+06    -885.327E+03    -180.966E-03     341.438E-03    -160.472E-03     116.015E-03    -184.281E-03     344.731E-03    -160.206E-03     102.719E-03
            2216     10.7482E-03     17.2449E-03    -33.2846E+06     67.0239E+06     61.3841E+06    -1.14662E+06    -181.257E-03     340.266E-03    -159.009E-03     114.564E-03    -184.445E-03     343.396E-03    -158.751E-03     101.654E-03
            2217     9.99702E-03     17.0804E-03    -39.8884E+06     39.6084E+06     53.1311E+06    -128.114E+03    -180.162E-03     337.527E-03    -157.365E-03     109.374E-03    -183.055E-03     340.266E-03    -157.099E-03     97.2180E-03
            2218     9.24479E-03     16.9203E-03    -45.9465E+06    -3.64957E+06     40.8413E+06     797.679E+03    -177.867E-03     333.446E-03    -155.579E-03     101.294E-03    -180.344E-03     335.629E-03    -155.303E-03     90.1813E-03
            2219     8.49055E-03     16.7684E-03    -52.6619E+06    -41.1051E+06     27.3520E+06     1.03278E+06    -174.581E-03     328.271E-03    -153.691E-03     91.3615E-03    -176.608E-03     329.888E-03    -153.418E-03     81.5013E-03
            2220     7.73355E-03     16.6274E-03    -59.8161E+06    -76.9250E+06     13.3295E+06     1.00273E+06    -170.642E-03     322.406E-03    -151.765E-03     80.6406E-03    -172.237E-03     323.479E-03    -151.500E-03     72.1159E-03
            2221     6.97338E-03     16.4991E-03    -67.2516E+06    -109.398E+06    -639.768E+03     1.40591E+06    -166.263E-03     316.119E-03    -149.856E-03     70.1299E-03    -167.481E-03     316.712E-03    -149.603E-03     62.9384E-03
            2222     6.20996E-03     16.3833E-03    -75.1167E+06    -137.498E+06    -14.3331E+06     2.01201E+06    -161.693E-03     309.709E-03    -148.016E-03     60.2927E-03    -162.601E-03     309.905E-03    -147.780E-03     54.3649E-03
            2223     5.44311E-03     16.2810E-03    -83.0363E+06    -167.668E+06    -28.1639E+06     2.36519E+06    -157.230E-03     303.528E-03    -146.298E-03     51.2500E-03    -157.888E-03     303.378E-03    -146.076E-03     46.4551E-03
            2224     4.67270E-03     16.1914E-03    -90.8556E+06    -195.614E+06    -42.9660E+06     2.34817E+06    -153.027E-03     297.755E-03    -144.729E-03     42.9577E-03    -153.491E-03     297.326E-03    -144.528E-03     39.1555E-03
            2225     3.89924E-03     16.1152E-03    -98.8543E+06    -217.855E+06    -59.8881E+06     2.58597E+06    -149.236E-03     292.564E-03    -143.328E-03     35.1978E-03    -149.556E-03     291.932E-03    -143.168E-03     32.2624E-03
            2226     3.12311E-03     16.0525E-03    -106.696E+06    -239.461E+06    -77.2819E+06     2.73081E+06    -145.988E-03     288.125E-03    -142.137E-03     27.8378E-03    -146.200E-03     287.330E-03    -142.021E-03     25.6482E-03
            2227     2.34440E-03     16.0033E-03    -114.421E+06    -261.667E+06    -94.1648E+06     1.99559E+06    -143.377E-03     284.556E-03    -141.180E-03     20.7422E-03    -143.508E-03     283.623E-03    -141.105E-03     19.1795E-03
            2228     1.56395E-03     15.9680E-03    -121.698E+06    -275.644E+06    -110.060E+06     977.671E+03    -141.444E-03     281.903E-03    -140.459E-03     13.7894E-03    -141.527E-03     280.893E-03    -140.433E-03     12.7730E-03
            2229     782.272E-06     15.9462E-03    -127.229E+06    -278.178E+06    -123.291E+06     263.828E+03    -140.388E-03     280.223E-03    -139.835E-03     7.15517E-03    -140.454E-03     279.205E-03    -139.863E-03     6.61982E-03
            2230     14.5243E-03     16.6152E-03    -4.94171E+06     96.0289E+06     87.2630E+06    -136.413E+03    -173.198E-03     336.837E-03    -163.639E-03     65.4785E-03    -175.132E-03     338.841E-03    -163.334E-03     55.3167E-03
            2231     13.7669E-03     16.5009E-03    -11.1447E+06     92.7007E+06     89.3630E+06    -1.76014E+06    -177.232E-03     340.206E-03    -162.975E-03     93.5662E-03    -180.009E-03     343.014E-03    -162.646E-03     80.9557E-03
            2232     13.0135E-03     16.3760E-03    -15.8574E+06     86.3158E+06     86.1251E+06    -1.91051E+06    -181.507E-03     343.483E-03    -161.976E-03     100.921E-03    -184.459E-03     346.435E-03    -161.648E-03     87.8386E-03
            2233     12.2653E-03     16.2300E-03    -17.9184E+06     83.0130E+06     78.7587E+06     912.229E+03    -184.489E-03     345.101E-03    -160.612E-03     106.201E-03    -187.582E-03     348.197E-03    -160.312E-03     92.7792E-03
            2234     11.5170E-03     16.0747E-03    -23.7417E+06     76.7684E+06     68.1760E+06     1.42758E+06    -185.662E-03     344.592E-03    -158.931E-03     105.611E-03    -188.685E-03     347.607E-03    -158.667E-03     92.4102E-03
            2235     10.7703E-03     15.9149E-03    -30.8855E+06     68.7901E+06     62.1352E+06     487.327E+03    -185.126E-03     342.141E-03    -157.015E-03     102.333E-03    -187.977E-03     344.948E-03    -156.759E-03     89.6974E-03
            2236     10.0223E-03     15.7558E-03    -38.1494E+06     40.0891E+06     52.8249E+06    -197.829E+03    -183.111E-03     338.019E-03    -154.909E-03     96.0902E-03    -185.659E-03     340.423E-03    -154.647E-03     84.3271E-03
            2237     9.27224E-03     15.6022E-03    -45.3428E+06    -3.62871E+06     39.7706E+06     47.6083E+03    -179.885E-03     332.542E-03    -152.658E-03     87.2723E-03    -182.036E-03     334.407E-03    -152.388E-03     76.6423E-03
            2238     8.51948E-03     15.4580E-03    -51.9533E+06    -39.7161E+06     27.1904E+06     667.649E+03    -175.607E-03     325.919E-03    -150.311E-03     76.8663E-03    -177.343E-03     327.252E-03    -150.043E-03     67.5609E-03
            2239     7.76335E-03     15.3255E-03    -58.8280E+06    -76.4278E+06     13.1458E+06     1.32054E+06    -170.572E-03     318.513E-03    -147.941E-03     66.1227E-03    -171.913E-03     319.337E-03    -147.679E-03     58.1999E-03
            2240     7.00347E-03     15.2058E-03    -66.2966E+06    -109.140E+06    -1.22674E+06     2.29173E+06    -165.092E-03     310.705E-03    -145.613E-03     56.0687E-03    -166.100E-03     311.095E-03    -145.365E-03     49.4870E-03
            2241     6.23906E-03     15.0992E-03    -74.0564E+06    -136.451E+06    -14.9863E+06     3.17864E+06    -159.507E-03     302.899E-03    -143.392E-03     47.1850E-03    -160.252E-03     302.940E-03    -143.161E-03     41.8413E-03
            2242     5.47030E-03     15.0047E-03    -82.0371E+06    -165.238E+06    -28.9384E+06     3.06698E+06    -154.119E-03     295.452E-03    -141.333E-03     39.3604E-03    -154.657E-03     295.196E-03    -141.119E-03     35.0911E-03
            2243     4.69764E-03     14.9231E-03    -90.2695E+06    -194.322E+06    -43.4865E+06     2.79459E+06    -149.099E-03     288.572E-03    -139.473E-03     32.4727E-03    -149.477E-03     288.066E-03    -139.278E-03     29.1246E-03
            2244     3.92096E-03     14.8535E-03    -98.4982E+06    -217.181E+06    -59.7461E+06     3.35639E+06    -144.616E-03     282.450E-03    -137.834E-03     26.2839E-03    -144.880E-03     281.765E-03    -137.675E-03     23.7338E-03
            2245     3.14084E-03     14.7964E-03    -106.650E+06    -237.008E+06    -77.4885E+06     3.57591E+06    -140.832E-03     277.277E-03    -136.445E-03     20.5148E-03    -141.012E-03     276.460E-03    -136.334E-03     18.6321E-03
            2246     2.35820E-03     14.7518E-03    -114.162E+06    -258.237E+06    -94.6385E+06     3.01968E+06    -137.846E-03     273.180E-03    -135.334E-03     15.1767E-03    -137.961E-03     272.244E-03    -135.267E-03     13.8490E-03
            2247     1.57348E-03     14.7196E-03    -120.224E+06    -272.427E+06    -109.564E+06     1.49990E+06    -135.658E-03     270.155E-03    -134.498E-03     10.0197E-03    -135.731E-03     269.149E-03    -134.476E-03     9.15987E-03
            2248     787.236E-06     14.7002E-03    -124.264E+06    -277.029E+06    -121.109E+06     229.722E+03    -134.439E-03     268.207E-03    -133.768E-03     5.35934E-03    -134.492E-03     267.184E-03    -133.792E-03     4.90468E-03
            2249     14.5234E-03     15.2810E-03    -4.83634E+06     97.5719E+06     88.7971E+06     368.435E+03    -179.019E-03     342.375E-03    -163.357E-03     66.4097E-03    -180.979E-03     344.407E-03    -163.047E-03     55.8004E-03
            2250     13.7750E-03     15.1668E-03    -9.71747E+06     95.1473E+06     91.6008E+06    -1.10952E+06    -183.903E-03     346.234E-03    -162.331E-03     92.1020E-03    -186.665E-03     349.033E-03    -161.997E-03     78.9642E-03
            2251     13.0287E-03     15.0368E-03    -15.6552E+06     85.1803E+06     84.6480E+06    -3.89583E+06    -187.935E-03     348.828E-03    -160.893E-03     96.4780E-03    -190.794E-03     351.690E-03    -160.571E-03     82.9458E-03
            2252     12.2841E-03     14.8904E-03    -21.8090E+06     76.8446E+06     74.4163E+06    -4.10393E+06    -190.404E-03     349.468E-03    -159.064E-03     99.0655E-03    -193.330E-03     352.375E-03    -158.772E-03     85.3731E-03
            2253     11.5419E-03     14.7380E-03    -24.6668E+06     74.5711E+06     67.9580E+06    -652.716E+03    -190.745E-03     347.653E-03    -156.907E-03     96.6154E-03    -193.539E-03     350.428E-03    -156.640E-03     83.4147E-03
            2254     10.7982E-03     14.5832E-03    -28.8748E+06     70.0189E+06     62.6970E+06     1.48450E+06    -189.295E-03     343.784E-03    -154.489E-03     91.5624E-03    -191.873E-03     346.328E-03    -154.235E-03     79.1473E-03
            2255     10.0530E-03     14.4310E-03    -35.8153E+06     42.7098E+06     52.9432E+06     1.46293E+06    -186.346E-03     338.215E-03    -151.869E-03     83.6663E-03    -188.608E-03     340.350E-03    -151.614E-03     72.2647E-03
            2256     9.30563E-03     14.2857E-03    -42.9384E+06    -1.34544E+06     39.5071E+06     837.047E+03    -182.063E-03     331.165E-03    -149.101E-03     73.5589E-03    -183.932E-03     332.765E-03    -148.840E-03     63.3923E-03
            2257     8.55480E-03     14.1511E-03    -50.0656E+06    -39.3776E+06     26.3867E+06     893.077E+03    -176.547E-03     322.797E-03    -146.249E-03     62.4375E-03    -178.025E-03     323.883E-03    -145.988E-03     53.6563E-03
            2258     7.79951E-03     14.0292E-03    -57.5732E+06    -76.2682E+06     12.5686E+06     2.37910E+06    -170.161E-03     313.565E-03    -143.404E-03     51.7008E-03    -171.284E-03     314.179E-03    -143.147E-03     44.3544E-03
            2259     7.03885E-03     13.9204E-03    -65.2333E+06    -108.509E+06    -1.86196E+06     3.54998E+06    -163.460E-03     304.101E-03    -140.641E-03     42.2615E-03    -164.293E-03     304.324E-03    -140.399E-03     36.2585E-03
            2260     6.27315E-03     13.8241E-03    -72.6213E+06    -135.034E+06    -15.7422E+06     3.96906E+06    -156.823E-03     294.847E-03    -138.023E-03     34.2626E-03    -157.432E-03     294.765E-03    -137.801E-03     29.4494E-03
            2261     5.50234E-03     13.7398E-03    -80.0092E+06    -162.536E+06    -29.2188E+06     4.15707E+06    -150.438E-03     286.050E-03    -135.612E-03     27.5602E-03    -150.873E-03     285.709E-03    -135.407E-03     23.7718E-03
            2262     4.72628E-03     13.6670E-03    -88.0892E+06    -192.487E+06    -42.8387E+06     4.38650E+06    -144.560E-03     278.014E-03    -133.454E-03     22.0081E-03    -144.864E-03     277.446E-03    -133.262E-03     19.0833E-03
            2263     3.94598E-03     13.6055E-03    -96.6955E+06    -215.816E+06    -58.2099E+06     4.54113E+06    -139.354E-03     270.917E-03    -131.563E-03     17.3811E-03    -139.568E-03     270.189E-03    -131.401E-03     15.1796E-03
            2264     3.16182E-03     13.5549E-03    -104.442E+06    -234.351E+06    -75.7395E+06     4.42918E+06    -134.952E-03     264.921E-03    -129.969E-03     13.3359E-03    -135.100E-03     264.083E-03    -129.856E-03     11.7308E-03
            2265     2.37424E-03     13.5155E-03    -111.081E+06    -253.985E+06    -94.1353E+06     3.67530E+06    -131.488E-03     260.196E-03    -128.708E-03     9.83801E-03    -131.580E-03     259.261E-03    -128.649E-03     8.72114E-03
            2266     1.58414E-03     13.4870E-03    -116.588E+06    -268.265E+06    -109.234E+06     2.10318E+06    -129.027E-03     256.827E-03    -127.799E-03     6.52854E-03    -129.082E-03     255.828E-03    -127.787E-03     5.81140E-03
            2267     792.414E-06     13.4700E-03    -120.236E+06    -275.506E+06    -118.272E+06     548.548E+03    -127.590E-03     254.803E-03    -127.213E-03     3.50858E-03    -127.628E-03     253.775E-03    -127.230E-03     3.12561E-03
            2268     14.5335E-03     13.9421E-03    -4.23560E+06     99.6398E+06     91.4633E+06    -456.323E+03    -186.467E-03     349.407E-03    -162.940E-03     66.5708E-03    -188.481E-03     351.494E-03    -162.621E-03     55.2937E-03
            2269     13.7876E-03     13.8212E-03    -8.85200E+06     96.0259E+06     92.2396E+06    -3.47756E+06    -191.139E-03     352.615E-03    -161.476E-03     91.0214E-03    -193.933E-03     355.452E-03    -161.141E-03     77.1493E-03
            2270     13.0465E-03     13.6909E-03    -13.7737E+06     86.7688E+06     85.7278E+06    -2.05022E+06    -194.852E-03     354.429E-03    -159.576E-03     94.0999E-03    -197.674E-03     357.261E-03    -159.254E-03     80.1228E-03
            2271     12.3078E-03     13.5456E-03    -20.4736E+06     77.7482E+06     73.5491E+06    -2.86487E+06    -196.541E-03     353.794E-03    -157.253E-03     94.3756E-03    -199.364E-03     356.609E-03    -156.968E-03     80.4169E-03
            2272     11.5684E-03     13.3971E-03    -28.0754E+06     69.9122E+06     62.3257E+06    -4.23725E+06    -196.286E-03     350.863E-03    -154.577E-03     89.6216E-03    -198.933E-03     353.480E-03    -154.326E-03     76.2638E-03
            2273     10.8294E-03     13.2490E-03    -33.0237E+06     64.9362E+06     57.5001E+06    -2.10066E+06    -194.136E-03     345.755E-03    -151.619E-03     82.0716E-03    -196.535E-03     348.104E-03    -151.378E-03     69.6374E-03
            2274     10.0883E-03     13.1054E-03    -36.8200E+06     43.9580E+06     50.9867E+06     263.824E+03    -190.059E-03     338.498E-03    -148.439E-03     72.2333E-03    -192.122E-03     340.442E-03    -148.194E-03     60.9933E-03
            2275     9.34374E-03     12.9708E-03    -42.3499E+06     1.05253E+06     38.2274E+06     1.32120E+06    -184.345E-03     329.462E-03    -145.117E-03     60.9907E-03    -186.010E-03     330.874E-03    -144.866E-03     51.1436E-03
            2276     8.59440E-03     12.8481E-03    -49.4835E+06    -39.2188E+06     24.2055E+06     2.46531E+06    -177.282E-03     319.030E-03    -141.747E-03     49.5162E-03    -178.572E-03     319.938E-03    -141.498E-03     41.1654E-03
            2277     7.83921E-03     12.7395E-03    -56.9909E+06    -75.7382E+06     11.2336E+06     3.65326E+06    -169.538E-03     307.972E-03    -138.434E-03     39.0632E-03    -170.507E-03     308.440E-03    -138.185E-03     32.1727E-03
            2278     7.07807E-03     12.6435E-03    -64.1738E+06    -107.476E+06    -2.10442E+06     4.56551E+06    -161.644E-03     296.887E-03    -135.243E-03     30.2470E-03    -162.354E-03     296.997E-03    -135.005E-03     24.6877E-03
            2279     6.31061E-03     12.5595E-03    -71.6136E+06    -133.056E+06    -16.4982E+06     5.03644E+06    -153.869E-03     286.101E-03    -132.232E-03     23.0909E-03    -154.385E-03     285.940E-03    -132.018E-03     18.6926E-03
            2280     5.53700E-03     12.4869E-03    -79.7410E+06    -160.972E+06    -30.6240E+06     5.73350E+06    -146.504E-03     275.978E-03    -129.474E-03     17.4837E-03    -146.875E-03     275.583E-03    -129.278E-03     14.0736E-03
            2281     4.75791E-03     12.4247E-03    -88.0235E+06    -189.421E+06    -43.7346E+06     6.02338E+06    -139.737E-03     266.751E-03    -127.014E-03     13.1879E-03    -140.000E-03     266.155E-03    -126.831E-03     10.5955E-03
            2282     3.97336E-03     12.3722E-03    -95.6568E+06    -213.024E+06    -58.2207E+06     5.30996E+06    -133.724E-03     258.603E-03    -124.879E-03     9.99005E-03    -133.909E-03     257.859E-03    -124.722E-03     8.05643E-03
            2283     3.18414E-03     12.3294E-03    -103.139E+06    -231.921E+06    -75.8326E+06     5.10459E+06    -128.686E-03     251.783E-03    -123.097E-03     7.52396E-03    -128.815E-03     250.939E-03    -122.990E-03     6.13286E-03
            2284     2.39131E-03     12.2959E-03    -110.443E+06    -249.810E+06    -93.8152E+06     5.10292E+06    -124.783E-03     246.490E-03    -121.707E-03     5.48153E-03    -124.869E-03     245.566E-03    -121.654E-03     4.53657E-03
            2285     1.59564E-03     12.2717E-03    -116.576E+06    -262.787E+06    -109.075E+06     4.01189E+06    -122.052E-03     242.768E-03    -120.716E-03     3.60406E-03    -122.110E-03     241.792E-03    -120.711E-03     3.01603E-03
            2286     798.315E-06     12.2567E-03    -120.708E+06    -271.719E+06    -119.100E+06     1.80332E+06    -120.449E-03     240.573E-03    -120.124E-03     1.78604E-03    -120.492E-03     239.565E-03    -120.151E-03     1.47398E-03
            2287     14.5390E-03     12.5906E-03    -2.96337E+06     100.997E+06     92.0443E+06    -2.04318E+06    -194.103E-03     356.585E-03    -162.481E-03     71.1641E-03    -196.227E-03     358.789E-03    -162.163E-03     59.1060E-03
            2288     13.8011E-03     12.4704E-03    -7.23098E+06     98.4268E+06     94.4972E+06    -765.832E+03    -198.882E-03     359.472E-03    -160.590E-03     94.0065E-03    -201.773E-03     362.413E-03    -160.250E-03     79.4664E-03
            2289     13.0647E-03     12.3359E-03    -14.7970E+06     87.2745E+06     85.7153E+06    -1.08744E+06    -202.128E-03     360.339E-03    -158.211E-03     93.7791E-03    -204.985E-03     363.206E-03    -157.887E-03     79.2645E-03
            2290     12.3303E-03     12.1950E-03    -20.7742E+06     79.8680E+06     73.8363E+06    -995.057E+03    -203.414E-03     358.786E-03    -155.373E-03     90.7461E-03    -206.215E-03     361.585E-03    -155.089E-03     76.3631E-03
            2291     11.5973E-03     12.0510E-03    -26.9103E+06     71.8900E+06     61.8242E+06    -1.66599E+06    -202.461E-03     354.600E-03    -152.140E-03     83.2960E-03    -205.034E-03     357.158E-03    -151.896E-03     69.6439E-03
            2292     10.8628E-03     11.9110E-03    -34.1225E+06     62.7987E+06     53.7644E+06    -4.28820E+06    -199.160E-03     347.767E-03    -148.607E-03     73.7193E-03    -201.456E-03     350.013E-03    -148.380E-03     61.0778E-03
            2293     10.1253E-03     11.7786E-03    -40.1607E+06     40.3031E+06     45.8137E+06    -3.25797E+06    -193.617E-03     338.486E-03    -144.869E-03     62.7646E-03    -195.567E-03     340.308E-03    -144.640E-03     51.4816E-03
            2294     9.38314E-03     11.6572E-03    -45.8542E+06    -502.832E+03     33.6355E+06     484.478E+03    -186.170E-03     327.204E-03    -141.034E-03     51.0163E-03    -187.727E-03     328.503E-03    -140.799E-03     41.3192E-03
            2295     8.63474E-03     11.5500E-03    -52.0514E+06    -39.4694E+06     20.0162E+06     3.08375E+06    -177.595E-03     314.801E-03    -137.206E-03     39.8424E-03    -178.789E-03     315.616E-03    -136.973E-03     31.7494E-03
            2296     7.87946E-03     11.4561E-03    -58.6004E+06    -74.3401E+06     7.73256E+06     4.35010E+06    -168.650E-03     302.134E-03    -133.484E-03     30.0906E-03    -169.544E-03     302.538E-03    -133.253E-03     23.4800E-03
            2297     7.11718E-03     11.3752E-03    -65.6400E+06    -106.385E+06    -4.32443E+06     5.09971E+06    -159.621E-03     289.556E-03    -129.935E-03     22.1611E-03    -160.280E-03     289.619E-03    -129.707E-03     16.8724E-03
            2298     6.34773E-03     11.3057E-03    -72.9531E+06    -132.289E+06    -18.2684E+06     6.39186E+06    -150.784E-03     277.391E-03    -126.607E-03     16.1102E-03    -151.267E-03     277.200E-03    -126.401E-03     11.9758E-03
            2299     5.57143E-03     11.2462E-03    -80.1958E+06    -159.165E+06    -32.8434E+06     7.48735E+06    -142.514E-03     266.088E-03    -123.574E-03     11.7313E-03    -142.861E-03     265.682E-03    -123.391E-03     8.56185E-03
            2300     4.78849E-03     11.1959E-03    -87.4121E+06    -185.085E+06    -45.8313E+06     6.97963E+06    -135.024E-03     255.908E-03    -120.884E-03     8.63545E-03    -135.272E-03     255.321E-03    -120.718E-03     6.23783E-03
            2301     3.99980E-03     11.1541E-03    -95.2690E+06    -209.661E+06    -59.6770E+06     6.04866E+06    -128.437E-03     246.997E-03    -118.560E-03     6.35779E-03    -128.614E-03     246.263E-03    -118.416E-03     4.57777E-03
            2302     3.20598E-03     11.1199E-03    -103.500E+06    -230.389E+06    -75.5805E+06     6.39280E+06    -122.914E-03     239.537E-03    -116.622E-03     4.64107E-03    -123.042E-03     238.696E-03    -116.516E-03     3.37611E-03
            2303     2.40799E-03     11.0930E-03    -111.012E+06    -245.240E+06    -91.7125E+06     6.53217E+06    -118.620E-03     233.708E-03    -115.088E-03     3.29035E-03    -118.715E-03     232.802E-03    -115.030E-03     2.44334E-03
            2304     1.60710E-03     11.0733E-03    -116.540E+06    -255.974E+06    -106.956E+06     4.99008E+06    -115.553E-03     229.511E-03    -113.958E-03     2.12013E-03    -115.623E-03     228.566E-03    -113.952E-03     1.59693E-03
            2305     804.007E-06     11.0611E-03    -119.724E+06    -264.947E+06    -117.785E+06     2.91818E+06    -113.769E-03     226.924E-03    -113.155E-03     973.887E-06    -113.818E-03     225.946E-03    -113.186E-03     705.045E-06
            2306     14.5439E-03     11.2309E-03    -5.18868E+06     100.685E+06     90.1733E+06    -2.63213E+06    -201.468E-03     363.568E-03    -162.100E-03     75.5224E-03    -203.725E-03     365.902E-03    -161.788E-03     62.6859E-03
            2307     13.8107E-03     11.1055E-03    -10.3516E+06     97.4605E+06     92.8756E+06    -751.537E+03    -207.002E-03     366.780E-03    -159.778E-03     95.7976E-03    -210.038E-03     369.856E-03    -159.440E-03     80.3758E-03
            2308     13.0818E-03     10.9744E-03    -14.9285E+06     89.2746E+06     87.0398E+06    -489.938E+03    -210.064E-03     366.968E-03    -156.904E-03     92.9855E-03    -213.013E-03     369.930E-03    -156.576E-03     77.6902E-03
            2309     12.3540E-03     10.8352E-03    -20.7350E+06     80.3990E+06     74.8512E+06    -1.12451E+06    -210.427E-03     363.962E-03    -153.534E-03     87.6031E-03    -213.273E-03     366.805E-03    -153.247E-03     72.5824E-03
            2310     11.6259E-03     10.6988E-03    -25.6918E+06     73.0668E+06     62.8414E+06    -1.60900E+06    -208.259E-03     358.027E-03    -149.768E-03     78.7036E-03    -210.837E-03     360.594E-03    -149.522E-03     64.6048E-03
            2311     10.8953E-03     10.5698E-03    -31.1513E+06     65.5804E+06     53.2433E+06    -1.61954E+06    -203.412E-03     349.128E-03    -145.716E-03     67.9780E-03    -205.676E-03     351.364E-03    -145.499E-03     55.1100E-03
            2312     10.1607E-03     10.4507E-03    -39.3589E+06     37.7815E+06     41.8768E+06    -1.60389E+06    -196.028E-03     337.548E-03    -141.520E-03     56.3341E-03    -197.927E-03     339.325E-03    -141.308E-03     45.0008E-03
            2313     9.41959E-03     10.3465E-03    -47.1980E+06    -4.17381E+06     28.9512E+06     446.145E+03    -186.898E-03     324.207E-03    -137.309E-03     45.0408E-03    -188.413E-03     325.461E-03    -137.090E-03     35.4011E-03
            2314     8.67102E-03     10.2561E-03    -53.7469E+06    -40.5012E+06     15.7150E+06     3.13239E+06    -176.994E-03     310.168E-03    -133.174E-03     35.0361E-03    -178.167E-03     310.965E-03    -132.959E-03     27.0553E-03
            2315     7.91490E-03     10.1795E-03    -60.1485E+06    -73.4373E+06     3.15256E+06     4.73592E+06    -166.854E-03     296.064E-03    -129.211E-03     26.8303E-03    -167.743E-03     296.474E-03    -129.001E-03     20.3594E-03
            2316     7.15074E-03     10.1152E-03    -66.7721E+06    -105.721E+06    -7.77529E+06     5.95625E+06    -156.892E-03     282.387E-03    -125.495E-03     20.6147E-03    -157.557E-03     282.466E-03    -125.284E-03     15.4663E-03
            2317     6.37873E-03     10.0617E-03    -73.5032E+06    -132.146E+06    -19.2463E+06     6.94779E+06    -147.430E-03     269.492E-03    -122.063E-03     16.1783E-03    -147.927E-03     269.318E-03    -121.861E-03     12.1572E-03
            2318     5.59908E-03     10.0168E-03    -79.9545E+06    -156.792E+06    -33.4054E+06     7.36376E+06    -138.730E-03     257.676E-03    -118.946E-03     13.0104E-03    -139.094E-03     257.298E-03    -118.769E-03     9.92114E-03
            2319     4.81267E-03     9.97949E-03    -86.2410E+06    -181.410E+06    -46.7779E+06     7.33537E+06    -130.995E-03     247.182E-03    -116.187E-03     10.5556E-03    -131.255E-03     246.629E-03    -116.033E-03     8.21937E-03
            2320     4.02029E-03     9.94854E-03    -93.0485E+06    -206.741E+06    -58.0457E+06     7.21546E+06    -124.317E-03     238.123E-03    -113.806E-03     8.47266E-03    -124.500E-03     237.411E-03    -113.662E-03     6.74171E-03
            2321     3.22289E-03     9.92380E-03    -100.457E+06    -228.267E+06    -70.7161E+06     7.14985E+06    -118.688E-03     230.475E-03    -111.787E-03     6.68788E-03    -118.817E-03     229.642E-03    -111.664E-03     5.45098E-03
            2322     2.42123E-03     9.90393E-03    -106.973E+06    -239.901E+06    -86.0582E+06     6.41104E+06    -114.109E-03     224.242E-03    -110.133E-03     5.03400E-03    -114.204E-03     223.355E-03    -110.060E-03     4.19517E-03
            2323     1.61612E-03     9.88964E-03    -112.224E+06    -249.025E+06    -101.636E+06     4.62358E+06    -110.714E-03     219.608E-03    -108.893E-03     3.40585E-03    -110.782E-03     218.687E-03    -108.878E-03     2.88072E-03
            2324     808.819E-06     9.88064E-03    -115.774E+06    -257.656E+06    -112.239E+06     2.30245E+06    -108.813E-03     216.711E-03    -107.898E-03     1.80477E-03    -108.861E-03     215.758E-03    -107.917E-03     1.52803E-03
            2325     14.5494E-03     9.86149E-03    -6.04364E+06     102.107E+06     90.9687E+06    -1.93163E+06    -209.237E-03     370.982E-03    -161.745E-03     77.7926E-03    -211.634E-03     373.457E-03    -161.430E-03     64.1268E-03
            2326     13.8221E-03     9.73235E-03    -11.1824E+06     97.5882E+06     92.5498E+06    -2.10226E+06    -214.018E-03     373.023E-03    -159.006E-03     97.1672E-03    -217.215E-03     376.259E-03    -158.668E-03     80.8418E-03
            2327     13.0981E-03     9.60078E-03    -15.9236E+06     88.8355E+06     86.3155E+06    -2.22392E+06    -216.847E-03     372.544E-03    -155.697E-03     92.7374E-03    -219.919E-03     375.626E-03    -155.371E-03     76.6642E-03
            2328     12.3755E-03     9.46864E-03    -20.1902E+06     80.8489E+06     73.9569E+06    -1.83076E+06    -216.346E-03     368.221E-03    -151.875E-03     86.4654E-03    -219.292E-03     371.170E-03    -151.593E-03     70.8005E-03
            2329     11.6507E-03     9.34198E-03    -25.8576E+06     71.9633E+06     59.6780E+06    -1.51127E+06    -212.613E-03     360.288E-03    -147.674E-03     76.1118E-03    -215.249E-03     362.918E-03    -147.443E-03     61.5852E-03
            2330     10.9232E-03     9.22504E-03    -32.3487E+06     63.6827E+06     48.9552E+06    -13.1814E+03    -205.571E-03     348.839E-03    -143.267E-03     64.6517E-03    -207.867E-03     351.109E-03    -143.068E-03     51.6089E-03
            2331     10.1893E-03     9.12444E-03    -38.8985E+06     37.7340E+06     38.4780E+06     2.92616E+06    -196.085E-03     334.916E-03    -138.832E-03     53.7468E-03    -198.002E-03     336.723E-03    -138.638E-03     42.4537E-03
            2332     9.44759E-03     9.03848E-03    -47.3724E+06    -4.73491E+06     25.6323E+06     4.21976E+06    -185.371E-03     319.871E-03    -134.500E-03     44.4661E-03    -186.915E-03     321.161E-03    -134.296E-03     34.9439E-03
            2333     8.69779E-03     8.96758E-03    -55.9127E+06    -40.5052E+06     12.4995E+06     4.41522E+06    -174.194E-03     304.549E-03    -130.355E-03     37.1403E-03    -175.419E-03     305.400E-03    -130.152E-03     29.2857E-03
            2334     7.93877E-03     8.90983E-03    -62.7044E+06    -73.4203E+06    -86.5896E+03     5.01572E+06    -163.228E-03     289.708E-03    -126.480E-03     31.7165E-03    -164.182E-03     290.182E-03    -126.283E-03     25.3608E-03
            2335     7.17108E-03     8.86346E-03    -68.4804E+06    -105.035E+06    -10.9043E+06     5.64815E+06    -153.005E-03     275.932E-03    -122.927E-03     27.7960E-03    -153.735E-03     276.081E-03    -122.730E-03     22.7278E-03
            2336     6.39539E-03     8.82603E-03    -74.1095E+06    -131.371E+06    -19.7554E+06     5.91294E+06    -143.744E-03     263.452E-03    -119.709E-03     24.8464E-03    -144.300E-03     263.339E-03    -119.509E-03     20.8544E-03
            2337     5.61267E-03     8.79591E-03    -80.3378E+06    -155.744E+06    -30.8485E+06     6.47891E+06    -135.469E-03     252.281E-03    -116.812E-03     22.3751E-03    -135.888E-03     251.953E-03    -116.624E-03     19.2806E-03
            2338     4.82363E-03     8.77114E-03    -87.1353E+06    -179.327E+06    -44.5187E+06     6.98318E+06    -128.174E-03     242.415E-03    -114.241E-03     20.0494E-03    -128.483E-03     241.908E-03    -114.077E-03     17.6974E-03
            2339     4.02894E-03     8.75135E-03    -93.7623E+06    -203.746E+06    -56.0444E+06     6.67444E+06    -121.939E-03     233.960E-03    -112.021E-03     17.5838E-03    -122.159E-03     233.288E-03    -111.870E-03     15.8289E-03
            2340     3.22955E-03     8.73532E-03    -99.4551E+06    -224.354E+06    -67.6605E+06     5.27895E+06    -116.713E-03     226.842E-03    -110.130E-03     14.8222E-03    -116.865E-03     226.042E-03    -109.998E-03     13.5411E-03
            2341     2.42616E-03     8.72343E-03    -104.684E+06    -236.161E+06    -81.9443E+06     4.15055E+06    -112.383E-03     220.951E-03    -108.568E-03     11.7433E-03    -112.488E-03     220.084E-03    -108.483E-03     10.8585E-03
            2342     1.61942E-03     8.71458E-03    -109.163E+06    -243.023E+06    -96.9872E+06     3.14402E+06    -109.102E-03     216.499E-03    -107.397E-03     8.32242E-03    -109.174E-03     215.602E-03    -107.371E-03     7.76915E-03
            2343     810.177E-06     8.70938E-03    -112.702E+06    -252.596E+06    -109.036E+06     1.25555E+06    -107.248E-03     213.789E-03    -106.540E-03     4.85831E-03    -107.294E-03     212.854E-03    -106.556E-03     4.56305E-03
            2344     14.5552E-03     8.48394E-03    -4.82010E+06     104.012E+06     92.3819E+06    -1.17733E+06    -216.021E-03     377.472E-03    -161.451E-03     82.2331E-03    -218.576E-03     380.110E-03    -161.133E-03     67.7978E-03
            2345     13.8320E-03     8.35015E-03    -10.6386E+06     98.0144E+06     92.7009E+06    -1.56313E+06    -220.334E-03     378.687E-03    -158.353E-03     101.033E-03    -223.723E-03     382.118E-03    -158.016E-03     83.9323E-03
            2346     13.1116E-03     8.22184E-03    -16.5572E+06     88.5605E+06     84.8249E+06    -1.98864E+06    -221.995E-03     376.683E-03    -154.688E-03     93.5941E-03    -225.212E-03     379.911E-03    -154.368E-03     76.9004E-03
            2347     12.3911E-03     8.09530E-03    -23.1260E+06     78.5234E+06     69.8025E+06    -2.35701E+06    -220.062E-03     370.601E-03    -150.539E-03     84.9327E-03    -223.121E-03     373.657E-03    -150.270E-03     68.7692E-03
            2348     11.6705E-03     7.98024E-03    -28.8347E+06     69.3497E+06     55.4379E+06    -234.619E+03    -213.630E-03     359.740E-03    -146.110E-03     73.9860E-03    -216.348E-03     362.446E-03    -145.891E-03     59.2451E-03
            2349     10.9427E-03     7.88239E-03    -35.9711E+06     58.8350E+06     44.4164E+06     3.49096E+06    -203.561E-03     345.209E-03    -141.647E-03     64.2942E-03    -205.916E-03     347.521E-03    -141.458E-03     51.3924E-03
            2350     10.2066E-03     7.80097E-03    -45.3239E+06     35.2310E+06     32.7513E+06     6.83389E+06    -191.884E-03     329.224E-03    -137.340E-03     56.9054E-03    -193.877E-03     331.091E-03    -137.161E-03     45.9417E-03
            2351     9.46156E-03     7.73648E-03    -53.6536E+06    -1.72002E+06     22.0162E+06     7.74931E+06    -179.862E-03     313.172E-03    -133.310E-03     51.7370E-03    -181.506E-03     314.561E-03    -133.120E-03     42.5982E-03
            2352     8.70631E-03     7.68607E-03    -60.8371E+06    -37.6144E+06     11.4739E+06     6.07502E+06    -168.213E-03     297.819E-03    -129.606E-03     48.2293E-03    -169.547E-03     298.776E-03    -129.406E-03     40.7071E-03
            2353     7.94221E-03     7.64765E-03    -67.7026E+06    -72.3633E+06    -55.0683E+03     4.33148E+06    -157.603E-03     283.858E-03    -126.255E-03     45.7053E-03    -158.671E-03     284.433E-03    -126.052E-03     39.5762E-03
            2354     7.17002E-03     7.61820E-03    -73.3416E+06    -103.919E+06    -10.8563E+06     3.22234E+06    -148.265E-03     271.519E-03    -123.254E-03     43.5234E-03    -149.102E-03     271.762E-03    -123.051E-03     38.5800E-03
            2355     6.39086E-03     7.59579E-03    -78.1156E+06    -130.982E+06    -19.3520E+06     2.70689E+06    -140.140E-03     260.732E-03    -120.592E-03     41.3418E-03    -140.789E-03     260.697E-03    -120.385E-03     37.3998E-03
            2356     5.60563E-03     7.57845E-03    -82.3523E+06    -156.814E+06    -26.6269E+06     3.31662E+06    -133.120E-03     251.370E-03    -118.249E-03     38.8288E-03    -133.611E-03     251.091E-03    -118.036E-03     35.7378E-03
            2357     4.81492E-03     7.56549E-03    -86.9021E+06    -178.847E+06    -36.8367E+06     4.37710E+06    -127.071E-03     243.265E-03    -116.194E-03     35.7646E-03    -127.434E-03     242.792E-03    -115.993E-03     33.3947E-03
            2358     4.01966E-03     7.55501E-03    -92.1789E+06    -199.610E+06    -49.0818E+06     3.32121E+06    -121.942E-03     236.376E-03    -114.434E-03     32.0294E-03    -122.201E-03     235.742E-03    -114.256E-03     30.2376E-03
            2359     3.22054E-03     7.54735E-03    -97.4084E+06    -220.932E+06    -62.9050E+06     925.267E+03    -117.768E-03     230.740E-03    -112.972E-03     27.3908E-03    -117.942E-03     229.965E-03    -112.825E-03     26.0555E-03
            2360     2.41823E-03     7.54175E-03    -102.082E+06    -234.993E+06    -78.0187E+06    -223.878E+03    -114.518E-03     226.310E-03    -111.792E-03     21.7768E-03    -114.630E-03     225.449E-03    -111.693E-03     20.8316E-03
            2361     1.61349E-03     7.53823E-03    -105.915E+06    -241.365E+06    -93.1933E+06    -170.346E+03    -112.141E-03     223.039E-03    -110.898E-03     15.3442E-03    -112.212E-03     222.144E-03    -110.860E-03     14.7439E-03
            2362     807.212E-06     7.53562E-03    -108.516E+06    -250.713E+06    -104.857E+06     488.391E+03    -110.570E-03     220.995E-03    -110.425E-03     8.70321E-03    -110.607E-03     220.058E-03    -110.429E-03     8.39642E-03
            2363     14.5548E-03     7.09237E-03    -3.64999E+06     105.886E+06     93.2593E+06     662.969E+03    -221.672E-03     382.963E-03    -161.291E-03     85.9937E-03    -224.366E-03     385.750E-03    -160.973E-03     70.9371E-03
            2364     13.8376E-03     6.96158E-03    -10.3316E+06     98.9438E+06     92.2494E+06    -676.922E+03    -225.108E-03     383.017E-03    -157.909E-03     103.673E-03    -228.702E-03     386.659E-03    -157.577E-03     85.8273E-03
            2365     13.1212E-03     6.83536E-03    -17.3626E+06     88.0827E+06     83.2627E+06    -1.00693E+06    -225.194E-03     379.193E-03    -153.999E-03     95.0690E-03    -228.593E-03     382.604E-03    -153.685E-03     77.8116E-03
            2366     12.4052E-03     6.71860E-03    -23.7736E+06     76.7991E+06     68.5832E+06     596.898E+03    -219.378E-03     369.121E-03    -149.742E-03     84.8488E-03    -222.527E-03     372.264E-03    -149.476E-03     68.6524E-03
            2367     11.6810E-03     6.62190E-03    -31.9923E+06     63.6770E+06     51.6346E+06     3.22392E+06    -208.416E-03     353.872E-03    -145.456E-03     76.0514E-03    -211.164E-03     356.589E-03    -145.244E-03     61.8463E-03
            2368     10.9483E-03     6.54544E-03    -41.1391E+06     51.0831E+06     40.8050E+06     8.60977E+06    -195.473E-03     336.898E-03    -141.425E-03     71.0574E-03    -197.847E-03     339.195E-03    -141.235E-03     59.0296E-03
            2369     10.2051E-03     6.48722E-03    -49.4214E+06     35.6180E+06     33.6614E+06     11.4957E+06    -182.423E-03     320.194E-03    -137.770E-03     68.6041E-03    -184.458E-03     322.089E-03    -137.582E-03     58.5791E-03
            2370     9.45109E-03     6.44364E-03    -56.7341E+06     5.15261E+06     25.7443E+06     7.94802E+06    -170.348E-03     304.892E-03    -134.543E-03     67.4501E-03    -172.056E-03     306.348E-03    -134.340E-03     59.1190E-03
            2371     8.68879E-03     6.41299E-03    -61.8833E+06    -34.4405E+06     17.2483E+06     3.86470E+06    -159.898E-03     291.631E-03    -131.733E-03     66.8173E-03    -161.294E-03     292.641E-03    -131.507E-03     59.9172E-03
            2372     7.91859E-03     6.39096E-03    -66.0410E+06    -69.8199E+06     8.74397E+06     1.61560E+06    -151.112E-03     280.402E-03    -129.290E-03     65.9195E-03    -152.233E-03     281.020E-03    -129.049E-03     60.2486E-03
            2373     7.14217E-03     6.37587E-03    -70.8118E+06    -102.512E+06    -442.742E+03    -832.945E+03    -143.804E-03     270.977E-03    -127.173E-03     64.3073E-03    -144.690E-03     271.252E-03    -126.924E-03     59.6701E-03
            2374     6.36035E-03     6.36549E-03    -75.0638E+06    -130.756E+06    -9.21611E+06    -2.78881E+06    -137.744E-03     263.092E-03    -125.348E-03     61.7352E-03    -138.430E-03     263.075E-03    -125.096E-03     57.9744E-03
            2375     5.57389E-03     6.35867E-03    -78.6618E+06    -159.256E+06    -17.2075E+06    -3.66000E+06    -132.782E-03     256.576E-03    -123.794E-03     57.9884E-03    -133.296E-03     256.294E-03    -123.535E-03     54.9747E-03
            2376     4.78397E-03     6.35399E-03    -81.5928E+06    -180.768E+06    -25.4658E+06    -3.17763E+06    -128.735E-03     251.205E-03    -122.470E-03     52.9509E-03    -129.109E-03     250.719E-03    -122.217E-03     50.5839E-03
            2377     3.99082E-03     6.35125E-03    -84.8004E+06    -197.642E+06    -37.2474E+06    -3.06577E+06    -125.429E-03     246.785E-03    -121.355E-03     46.6215E-03    -125.690E-03     246.146E-03    -121.132E-03     44.8005E-03
            2378     3.19502E-03     6.34913E-03    -89.5407E+06    -220.845E+06    -56.1573E+06    -3.75739E+06    -122.895E-03     243.337E-03    -120.442E-03     39.0127E-03    -123.052E-03     242.549E-03    -120.273E-03     37.6359E-03
            2379     2.39758E-03     6.34797E-03    -94.9243E+06    -236.444E+06    -74.4686E+06    -3.83320E+06    -121.077E-03     240.802E-03    -119.725E-03     30.3200E-03    -121.165E-03     239.922E-03    -119.617E-03     29.3250E-03
            2380     1.59914E-03     6.34716E-03    -99.8678E+06    -244.917E+06    -89.2467E+06    -2.83894E+06    -119.827E-03     239.012E-03    -119.185E-03     20.9736E-03    -119.874E-03     238.085E-03    -119.131E-03     20.3251E-03
            2381     799.894E-06     6.34690E-03    -102.346E+06    -252.393E+06    -99.5448E+06    -971.396E+03    -118.849E-03     237.832E-03    -118.984E-03     11.6572E-03    -118.864E-03     236.868E-03    -118.967E-03     11.3234E-03
            2382     14.5596E-03     5.69834E-03    -5.10030E+06     105.500E+06     91.0940E+06      551.14E+03    -225.577E-03     386.929E-03    -161.352E-03     92.3070E-03    -228.473E-03     389.917E-03    -161.042E-03     76.7229E-03
            2383     13.8410E-03     5.56768E-03    -9.47720E+06     99.8646E+06     91.7042E+06     1.43480E+06    -227.367E-03     385.193E-03    -157.827E-03     110.199E-03    -231.198E-03     389.080E-03    -157.499E-03     92.0086E-03
            2384     13.1259E-03     5.44378E-03    -15.7524E+06     86.6481E+06     83.1467E+06     2.49699E+06    -222.998E-03     376.927E-03    -153.929E-03     99.3503E-03    -226.487E-03     380.431E-03    -153.616E-03     82.3872E-03
            2385     12.4047E-03     5.34674E-03    -24.3198E+06       71.72E+06     68.0733E+06     5.24756E+06    -211.067E-03     361.067E-03    -150.000E-03     89.9423E-03    -214.157E-03     364.135E-03    -149.728E-03     74.9021E-03
            2386     11.6736E-03     5.27496E-03    -33.3277E+06     57.6747E+06     52.0923E+06     9.97508E+06    -196.193E-03     342.593E-03    -146.400E-03     85.9323E-03    -198.818E-03     345.161E-03    -146.175E-03     73.4339E-03
            2387     10.9292E-03     5.22266E-03    -41.1360E+06     47.3975E+06     45.3475E+06     11.9316E+06    -181.995E-03     325.323E-03    -143.328E-03     85.6688E-03    -184.241E-03     327.467E-03    -143.110E-03     75.3628E-03
            2388     10.1748E-03     5.18549E-03    -46.0081E+06     41.4393E+06     46.5797E+06     9.68711E+06    -169.719E-03     310.509E-03    -140.790E-03     86.4603E-03    -171.644E-03     312.291E-03    -140.551E-03     77.9374E-03
            2389     9.41202E-03     5.16146E-03    -49.2776E+06     14.2939E+06     43.3015E+06     4.19078E+06    -159.781E-03     298.499E-03    -138.718E-03     86.9784E-03    -161.384E-03     299.859E-03    -138.451E-03     79.8900E-03
            2390     8.64169E-03     5.14518E-03     -53.541E+06    -31.8861E+06     33.7768E+06    -1.29837E+06    -152.096E-03     289.129E-03    -137.033E-03     86.6433E-03    -153.388E-03     290.024E-03    -136.741E-03     80.7222E-03
            2391     7.86662E-03     5.13573E-03    -57.6813E+06    -68.3877E+06     24.7495E+06    -4.47974E+06    -146.226E-03     281.881E-03    -135.655E-03     85.0130E-03    -147.259E-03     282.397E-03    -135.348E-03     80.0751E-03
            2392     7.08733E-03     5.13022E-03    -61.0094E+06    -101.160E+06     15.2118E+06    -7.35553E+06    -141.796E-03     276.319E-03    -134.522E-03     81.8762E-03    -142.604E-03     276.507E-03    -134.211E-03     77.7539E-03
            2393     6.30511E-03     5.12800E-03    -64.5015E+06    -131.080E+06     3.74267E+06    -10.1296E+06    -138.491E-03     272.074E-03    -133.583E-03     77.1897E-03    -139.105E-03     271.981E-03    -133.281E-03     73.7514E-03
            2394     5.52073E-03     5.12733E-03    -67.8478E+06    -162.196E+06    -9.22772E+06    -11.9548E+06    -136.050E-03     268.855E-03    -132.805E-03     71.0034E-03    -136.493E-03     268.503E-03    -132.518E-03     68.1524E-03
            2395     4.73444E-03     5.12794E-03    -71.0828E+06    -185.974E+06    -21.8193E+06    -11.7907E+06    -134.228E-03     266.384E-03    -132.156E-03     63.3823E-03    -134.533E-03     265.833E-03    -131.893E-03     61.0551E-03
            2396     3.94706E-03     5.12889E-03    -75.4185E+06    -203.590E+06    -36.3825E+06    -8.80800E+06    -132.900E-03     264.506E-03    -131.606E-03     54.5656E-03    -133.100E-03     263.813E-03    -131.384E-03     52.7312E-03
            2397     3.15898E-03     5.13022E-03    -81.2832E+06    -225.671E+06    -56.4659E+06    -5.21502E+06    -131.936E-03     263.071E-03    -131.134E-03     44.7281E-03    -132.044E-03     262.241E-03    -130.971E-03     43.3392E-03
            2398     2.36998E-03     5.13106E-03    -87.8179E+06    -239.886E+06    -74.2289E+06    -3.10405E+06    -131.189E-03     261.943E-03    -130.754E-03     34.1986E-03    -131.237E-03     261.031E-03    -130.650E-03     33.1988E-03
            2399     1.58025E-03     5.13200E-03    -93.8243E+06    -249.407E+06    -87.2385E+06    -1.87575E+06    -130.692E-03     261.161E-03    -130.470E-03     23.2482E-03    -130.706E-03     260.198E-03    -130.408E-03     22.5917E-03
            2400     790.134E-06     5.13258E-03    -97.5966E+06    -255.821E+06    -96.6269E+06    -803.881E+03    -130.108E-03     260.607E-03    -130.498E-03     12.6193E-03    -130.100E-03     259.612E-03    -130.469E-03     12.2684E-03
            2401     14.5473E-03     4.29851E-03    -4.61369E+06     105.209E+06     86.6760E+06     1.02011E+06    -226.351E-03     388.327E-03    -161.976E-03     108.994E-03    -229.515E-03     391.596E-03    -161.688E-03     93.3345E-03
            2402     13.8343E-03     4.16582E-03    -11.4215E+06     96.0344E+06     86.0480E+06     2.45264E+06    -225.898E-03     384.434E-03    -158.536E-03     121.247E-03    -229.838E-03     388.429E-03    -158.229E-03     103.632E-03
            2403     13.1154E-03     4.06028E-03    -17.4973E+06     80.7522E+06     79.6537E+06     6.85125E+06    -212.821E-03     367.862E-03    -155.041E-03     106.041E-03    -216.074E-03     371.118E-03    -154.734E-03     91.0164E-03
            2404     12.3835E-03     3.99141E-03    -24.7078E+06     66.5909E+06     69.3746E+06     11.0248E+06    -195.371E-03     347.348E-03    -151.977E-03     99.8641E-03    -198.076E-03     350.010E-03    -151.691E-03     87.5233E-03
            2405     11.6368E-03     3.94564E-03    -30.7505E+06     56.9799E+06     61.9451E+06     11.0676E+06    -180.325E-03     329.859E-03    -149.534E-03     99.5419E-03    -182.562E-03     332.018E-03    -149.263E-03     89.6181E-03
            2406     10.8807E-03     3.91516E-03    -32.8096E+06     53.7550E+06     62.3941E+06     7.23077E+06    -168.238E-03     315.927E-03    -147.689E-03     100.271E-03    -170.095E-03     317.685E-03    -147.408E-03     92.2258E-03
            2407     10.1156E-03     3.89537E-03    -34.4897E+06     48.9664E+06     65.1367E+06     1.99938E+06    -159.124E-03     305.471E-03    -146.347E-03     99.9570E-03    -160.675E-03     306.889E-03    -146.042E-03     93.3432E-03
            2408     9.34463E-03     3.88317E-03    -38.3788E+06     18.2274E+06     59.8036E+06    -2.02393E+06    -152.832E-03     298.221E-03    -145.389E-03     98.3259E-03    -154.103E-03     299.251E-03    -145.061E-03     92.8012E-03
            2409     8.57090E-03     3.87684E-03    -43.1933E+06    -28.2319E+06     44.5063E+06    -6.37694E+06    -148.681E-03     293.368E-03    -144.688E-03     95.2973E-03    -149.688E-03     293.993E-03    -144.361E-03     90.6086E-03
            2410     7.79421E-03     3.87372E-03    -47.4708E+06    -66.6750E+06     28.3414E+06    -11.8426E+06    -145.976E-03     290.148E-03    -144.172E-03     90.8203E-03    -146.763E-03     290.446E-03    -143.865E-03     86.7748E-03
            2411     7.01641E-03     3.87321E-03    -50.2713E+06    -102.158E+06     12.9813E+06    -15.4624E+06    -144.348E-03     288.146E-03    -143.798E-03     84.9888E-03    -144.943E-03     288.159E-03    -143.512E-03     81.4803E-03
            2412     6.23775E-03     3.87426E-03    -52.8854E+06    -134.701E+06    -1.06392E+06    -16.4111E+06    -143.436E-03     286.959E-03    -143.523E-03     78.0741E-03    -143.868E-03     286.722E-03    -143.256E-03     75.0533E-03
            2413     5.45858E-03     3.87612E-03    -57.6331E+06    -168.175E+06    -16.5616E+06    -15.7167E+06    -142.974E-03     286.282E-03    -143.308E-03     70.2044E-03    -143.267E-03     285.814E-03    -143.063E-03     67.6319E-03
            2414     4.67945E-03     3.87858E-03    -64.3504E+06    -195.036E+06    -33.5175E+06    -13.1958E+06    -142.736E-03     285.857E-03    -143.121E-03     61.5810E-03    -142.925E-03     285.214E-03    -142.912E-03     59.4389E-03
            2415     3.89988E-03     3.88096E-03    -71.6159E+06    -216.223E+06    -49.1444E+06    -8.16307E+06    -142.633E-03     285.596E-03    -142.963E-03     52.4138E-03    -142.744E-03     284.819E-03    -142.792E-03     50.7046E-03
            2416     3.12012E-03     3.88314E-03    -78.2761E+06    -233.661E+06    -62.8594E+06    -2.78157E+06    -142.596E-03     285.427E-03    -142.831E-03     42.7237E-03    -142.648E-03     284.543E-03    -142.693E-03     41.4272E-03
            2417     2.34032E-03     3.88543E-03    -83.8703E+06    -243.521E+06    -74.5944E+06     334.695E+03    -142.556E-03     285.273E-03    -142.717E-03     32.7303E-03    -142.568E-03     284.327E-03    -142.615E-03     31.8038E-03
            2418     1.56042E-03     3.88677E-03    -88.3281E+06    -250.888E+06    -84.2723E+06     1.29618E+06    -142.537E-03     285.171E-03    -142.633E-03     22.3793E-03    -142.521E-03     284.183E-03    -142.563E-03     21.7753E-03
            2419     780.506E-06     3.88806E-03    -91.5578E+06    -255.846E+06    -90.7953E+06     1.02295E+06    -142.330E-03     285.127E-03    -142.798E-03     12.0850E-03    -142.298E-03     284.114E-03    -142.748E-03     11.7609E-03
            2420     14.5271E-03     2.89121E-03    -4.32532E+06     102.493E+06     85.6959E+06     3.38848E+06    -227.603E-03     391.284E-03    -163.680E-03     131.348E-03    -230.832E-03     394.612E-03    -163.394E-03     116.575E-03
            2421     13.8095E-03     2.76190E-03    -11.7569E+06     88.9582E+06     81.5139E+06     7.03800E+06    -217.251E-03     377.802E-03    -160.551E-03     127.419E-03    -220.634E-03     381.232E-03    -160.255E-03     112.620E-03
            2422     13.0803E-03     2.69822E-03    -19.1003E+06     76.4891E+06     78.0591E+06     8.98693E+06    -197.562E-03     355.419E-03    -157.857E-03     111.139E-03    -200.041E-03     357.885E-03    -157.550E-03     99.8152E-03
            2423     12.3312E-03     2.65698E-03    -22.0589E+06     69.2837E+06     77.7533E+06     7.59232E+06    -180.999E-03     336.873E-03    -155.874E-03     105.653E-03    -182.929E-03     338.752E-03    -155.554E-03     96.9312E-03
            2424     11.5737E-03     2.63187E-03    -22.5251E+06     64.3484E+06     75.4376E+06     2.96266E+06    -169.428E-03     323.921E-03    -154.493E-03     101.125E-03    -170.943E-03     325.369E-03    -154.176E-03     94.2745E-03
            2425     10.8085E-03     2.61565E-03    -24.0090E+06     60.8276E+06     66.3547E+06    -1.42987E+06    -161.286E-03     314.840E-03    -153.553E-03     96.7985E-03    -162.496E-03     315.990E-03    -153.275E-03     91.2889E-03
            2426     10.0400E-03     2.60632E-03    -27.8048E+06     51.7235E+06     54.5824E+06    -3.14863E+06    -155.837E-03     308.817E-03    -152.979E-03     92.2578E-03    -156.826E-03     309.732E-03    -152.741E-03     87.7269E-03
            2427     9.26880E-03     2.60053E-03    -32.6564E+06     19.3442E+06     40.1630E+06    -5.65049E+06    -152.678E-03     305.369E-03    -152.691E-03     87.1100E-03    -153.472E-03     305.998E-03    -152.471E-03     83.2616E-03
            2428     8.49576E-03     2.59777E-03    -37.0080E+06    -24.3747E+06     22.4887E+06    -10.5990E+06    -151.094E-03     303.668E-03    -152.575E-03     81.3835E-03    -151.707E-03     303.996E-03    -152.373E-03     77.9966E-03
            2429     7.72286E-03     2.59701E-03    -41.1542E+06    -65.4832E+06     3.87109E+06    -14.8878E+06    -150.419E-03     302.976E-03    -152.557E-03     75.3395E-03    -150.878E-03     303.042E-03    -152.383E-03     72.3196E-03
            2430     6.94952E-03     2.59766E-03    -46.9203E+06    -105.935E+06    -14.2546E+06    -16.9221E+06    -150.316E-03     302.926E-03    -152.610E-03     68.9620E-03    -150.647E-03     302.752E-03    -152.460E-03     66.2697E-03
            2431     6.17639E-03     2.59912E-03    -53.6530E+06    -143.308E+06    -27.0038E+06    -15.7310E+06    -150.548E-03     303.272E-03    -152.724E-03     62.3329E-03    -150.780E-03     302.879E-03    -152.574E-03     59.9714E-03
            2432     5.40357E-03     2.60125E-03    -60.2646E+06    -178.387E+06    -38.9475E+06    -12.1692E+06    -150.960E-03     303.816E-03    -152.856E-03     55.4386E-03    -151.107E-03     303.223E-03    -152.704E-03     53.4185E-03
            2433     4.63074E-03     2.60369E-03    -66.9517E+06    -206.351E+06    -51.0478E+06     -7.6779E+06    -151.462E-03     304.439E-03    -152.977E-03     48.3332E-03    -151.542E-03     303.691E-03    -152.836E-03     46.6549E-03
            2434     3.85841E-03     2.60618E-03    -73.1107E+06    -227.601E+06    -60.3926E+06    -3.24972E+06    -151.928E-03     305.025E-03    -153.097E-03     40.9259E-03    -151.959E-03     304.157E-03    -152.963E-03     39.5792E-03
            2435     3.08621E-03     2.60838E-03    -77.6719E+06    -239.885E+06    -67.1913E+06    -156.012E+03    -152.338E-03     305.548E-03    -153.210E-03     33.2077E-03    -152.336E-03     304.607E-03    -153.086E-03     32.1671E-03
            2436     2.31421E-03     2.61033E-03    -80.6512E+06    -245.571E+06    -73.3246E+06     1.55311E+06    -152.719E-03     306.032E-03    -153.313E-03     25.3231E-03    -152.693E-03     305.053E-03    -153.206E-03     24.5655E-03
            2437     1.54245E-03     2.61166E-03    -82.4302E+06    -249.469E+06    -78.6330E+06     1.98871E+06    -153.026E-03     306.450E-03    -153.424E-03     17.3021E-03    -152.979E-03     305.446E-03    -153.336E-03     16.8058E-03
            2438     770.707E-06     2.61280E-03    -83.8727E+06    -252.563E+06    -82.7041E+06     1.43838E+06    -153.375E-03     306.921E-03    -153.545E-03     9.45165E-03    -153.317E-03     305.901E-03    -153.471E-03     9.19137E-03
            2439     14.4857E-03     1.46424E-03    -4.37893E+06     97.8053E+06     90.9161E+06     4.75971E+06    -246.785E-03     414.055E-03    -167.269E-03     151.594E-03    -249.508E-03     416.840E-03    -166.950E-03     138.812E-03
            2440     13.7625E-03     1.38683E-03    -6.53744E+06     90.4143E+06     90.2425E+06     9.03191E+06    -215.117E-03     378.996E-03    -163.880E-03     111.447E-03    -217.027E-03     380.948E-03    -163.550E-03     102.377E-03
            2441     13.0155E-03     1.35075E-03    -10.2519E+06     83.8816E+06     88.8979E+06     5.71845E+06    -190.893E-03     352.508E-03    -161.615E-03     84.7659E-03    -192.111E-03     353.734E-03    -161.278E-03     78.7921E-03
            2442     12.2650E-03     1.33084E-03    -12.9072E+06     76.9712E+06     75.9351E+06    -704.674E+03    -176.742E-03     336.879E-03    -160.136E-03     73.7116E-03    -177.649E-03     337.794E-03    -159.850E-03     69.1999E-03
            2443     11.5067E-03     1.31826E-03    -16.0041E+06     68.9300E+06     57.5885E+06    -3.38758E+06    -167.804E-03     326.990E-03    -159.186E-03     66.5616E-03    -168.495E-03     327.702E-03    -158.974E-03     63.0433E-03
            2444     10.7449E-03     1.31220E-03    -20.6268E+06     61.3869E+06     41.6358E+06    -3.07546E+06    -162.204E-03     320.836E-03    -158.632E-03     60.8210E-03    -162.769E-03     321.424E-03    -158.483E-03     57.9782E-03
            2445     9.97848E-03     1.30818E-03    -26.1896E+06     50.6048E+06     21.0166E+06    -2.68630E+06    -158.792E-03     317.122E-03    -158.329E-03     55.7553E-03    -159.264E-03     317.618E-03    -158.260E-03     53.3996E-03
            2446     9.21043E-03     1.30543E-03    -30.8632E+06     22.8813E+06     1.30449E+06    -5.15259E+06    -156.845E-03     315.091E-03    -158.246E-03     50.8616E-03    -157.219E-03     315.431E-03    -158.228E-03     48.8104E-03
            2447     8.44197E-03     1.30402E-03    -35.7569E+06    -21.4655E+06    -13.2518E+06    -9.16174E+06    -155.898E-03     314.246E-03    -158.348E-03     46.2805E-03    -156.172E-03     314.354E-03    -158.331E-03     44.4224E-03
            2448     7.67249E-03     1.30361E-03    -42.3428E+06    -69.1080E+06    -25.0451E+06    -9.97088E+06    -155.646E-03     314.209E-03    -158.563E-03     42.0646E-03    -155.838E-03     314.076E-03    -158.527E-03     40.3969E-03
            2449     6.90335E-03     1.30411E-03    -49.9683E+06    -110.700E+06    -36.4161E+06    -8.54729E+06    -155.835E-03     314.667E-03    -158.832E-03     38.1392E-03    -155.964E-03     314.329E-03    -158.781E-03     36.6650E-03
            2450     6.13435E-03     1.30498E-03    -57.8706E+06    -150.458E+06    -44.3487E+06    -8.01021E+06    -156.317E-03     315.465E-03    -159.148E-03     34.3167E-03    -156.396E-03     314.932E-03    -159.068E-03     33.0098E-03
            2451     5.36564E-03     1.30641E-03    -64.2318E+06    -188.262E+06    -48.7494E+06    -6.44312E+06    -156.999E-03     316.489E-03    -159.490E-03     30.4293E-03    -157.032E-03     315.765E-03    -159.367E-03     29.2970E-03
            2452     4.59773E-03     1.30781E-03    -68.8522E+06    -216.120E+06    -53.7198E+06    -3.05695E+06    -157.782E-03     317.585E-03    -159.803E-03     26.4548E-03    -157.776E-03     316.722E-03    -159.659E-03     25.5166E-03
            2453     3.83029E-03     1.30924E-03    -72.3302E+06    -233.510E+06    -59.8614E+06    -317.557E+03    -158.564E-03     318.634E-03    -160.070E-03     22.2794E-03    -158.530E-03     317.686E-03    -159.926E-03     21.5246E-03
            2454     3.06347E-03     1.31079E-03    -75.0248E+06    -241.961E+06    -66.4142E+06     615.084E+03    -159.269E-03     319.555E-03    -160.286E-03     18.0146E-03    -159.217E-03     318.568E-03    -160.159E-03     17.4202E-03
            2455     2.29717E-03     1.31166E-03    -76.8513E+06    -245.793E+06    -71.7742E+06     549.926E+03    -159.854E-03     320.313E-03    -160.458E-03     13.5360E-03    -159.790E-03     319.308E-03    -160.349E-03     13.0880E-03
            2456     1.53116E-03     1.31270E-03    -77.7882E+06    -248.212E+06    -75.2448E+06     596.948E+03    -160.304E-03     320.894E-03    -160.590E-03     9.03904E-03    -160.230E-03     319.878E-03    -160.494E-03     8.74190E-03
            2457     765.731E-06     1.31249E-03    -78.4606E+06    -249.798E+06    -77.4806E+06     581.395E+03    -160.688E-03     321.270E-03    -160.582E-03     4.93167E-03    -160.607E-03     320.248E-03    -160.493E-03     4.78121E-03


