********************************************************************************
Field Output Report, written Tue May 28 21:44:17 2024

Source 1
---------

   ODB: G:/Abaqus_calc_2019/1740/Vel_10/odb/zeides_2a_24_red_500_cal_10_vel_10_fric_050.odb
   Step: Step-1
   Frame: Increment   7298060: Step Time =   0.9036

Loc 1 : Nodal values from source 1

Output sorted by column "Nodal Label".

Field Output reported at nodes for region: DIE_2A_24_D0_36-1.Region_1
   Computation algorithm: EXTRAPOLATE_COMPUTE_AVERAGE
   Averaged at nodes
   Averaging regions: ODB_REGIONS

      Node Label     COORD.COOR1     COORD.COOR2
                          @Loc 1          @Loc 1
-------------------------------------------------
               1     20.6553E-03     126.619E-03


Field Output reported at nodes for region: DIE_2A_24_D0_36-1.Region_2
   Computation algorithm: EXTRAPOLATE_COMPUTE_AVERAGE
   Averaged at nodes
   Averaging regions: ODB_REGIONS

      Node Label     COORD.COOR1     COORD.COOR2
                          @Loc 1          @Loc 1
-------------------------------------------------
               1     20.6553E-03     126.619E-03


Field Output reported at nodes for part: WIRE-1
   Computation algorithm: EXTRAPOLATE_COMPUTE_AVERAGE
   Averaged at nodes
   Averaging regions: ODB_REGIONS

      Node Label     COORD.COOR1     COORD.COOR2           S.S11           S.S22           S.S33           S.S12         PE.PE11         PE.PE22         PE.PE33         PE.PE12         LE.LE11         LE.LE22         LE.LE33         LE.LE12
                          @Loc 1          @Loc 1          @Loc 1          @Loc 1          @Loc 1          @Loc 1          @Loc 1          @Loc 1          @Loc 1          @Loc 1          @Loc 1          @Loc 1          @Loc 1          @Loc 1
-------------------------------------------------------------------------------------------------------------------------------------------------------------------------------------------------------------------------------------------------
               1    -71.3474E-09     60.4567E-03    -55.7611E+06    -171.272E+06    -55.4626E+06     229.489E+03    -53.7805E-03     107.475E-03    -53.6945E-03     5.86193E-03    -53.7307E-03     106.781E-03    -53.6427E-03     5.84583E-03
               2     17.0626E-03     62.0358E-03    -1.78214E+06     136.480E+06     94.0384E+06     502.022E+03    -53.1503E-03     106.862E-03    -53.7114E-03     43.9715E-03    -54.3156E-03     108.232E-03    -53.4365E-03     44.0516E-03
               3     16.6019E-03     123.994E-03     26.9720E+06    -18.7174E+06     22.2146E+06     23.1232E+06     37.3302E-03     32.7915E-03    -70.1217E-03    -192.377E-06     37.3612E-03     32.5277E-03    -70.0226E-03     105.857E-06
               4     562.682E-09     121.002E-03     40.9002E+06    -1.30232E+06     41.7304E+06    -1.11805E+06    -54.3303E-03     108.580E-03    -54.2501E-03    -3.20831E-03    -54.1937E-03     108.445E-03    -54.0989E-03    -3.23020E-03
               5     179.113E-09     111.022E-18    -26.1127E+06    -140.693E+06    -26.4448E+06    -543.965E+03    -51.2028E-03     102.214E-03    -51.0116E-03     531.335E-06    -51.0897E-03     101.588E-03    -50.9019E-03     523.764E-06
               6     16.7813E-03     111.022E-18    -4.55248E+06     102.539E+06     79.3913E+06     11.0757E+06    -105.996E-03     171.221E-03    -65.2247E-03     144.548E-03    -106.967E-03     172.287E-03    -64.9698E-03     142.967E-03
               7     852.946E-06     60.4626E-03    -55.0844E+06    -170.066E+06    -53.5409E+06    -54.4031E+03    -53.7998E-03     107.528E-03    -53.7278E-03     9.72745E-03    -53.7523E-03     106.837E-03    -53.6691E-03     9.69367E-03
               8     1.70592E-03     60.4763E-03    -53.2057E+06    -166.825E+06    -48.4918E+06    -317.065E+03    -53.8440E-03     107.619E-03    -53.7748E-03     17.8581E-03    -53.8025E-03     106.937E-03    -53.6982E-03     17.7908E-03
               9     2.55886E-03     60.4985E-03    -50.3349E+06    -161.823E+06    -40.9157E+06    -264.242E+03    -53.9124E-03     107.714E-03    -53.8016E-03     26.3229E-03    -53.8806E-03     107.048E-03    -53.6985E-03     26.2218E-03
              10     3.41178E-03     60.5292E-03    -46.7426E+06    -155.665E+06    -31.8071E+06    -169.342E+03    -54.0172E-03     107.844E-03    -53.8266E-03     34.6561E-03    -53.9985E-03     107.199E-03    -53.6922E-03     34.5168E-03
              11     4.26480E-03     60.5681E-03    -43.0011E+06    -145.915E+06    -23.3911E+06    -16.9258E+03    -54.1480E-03     107.989E-03    -53.8407E-03     42.8157E-03    -54.1498E-03     107.388E-03    -53.6837E-03     42.6330E-03
              12     5.11779E-03     60.6152E-03    -39.3090E+06    -137.237E+06    -16.3512E+06     111.307E+03    -54.3082E-03     108.157E-03    -53.8487E-03     50.6704E-03    -54.3323E-03     107.602E-03    -53.6744E-03     50.4366E-03
              13     5.97086E-03     60.6699E-03    -35.5241E+06    -131.314E+06    -9.78708E+06     146.010E+03    -54.5012E-03     108.360E-03    -53.8587E-03     58.2053E-03    -54.5489E-03     107.844E-03    -53.6657E-03     57.9107E-03
              14     6.82379E-03     60.7320E-03    -31.9551E+06    -123.556E+06    -4.75992E+06     80.1971E+03    -54.7053E-03     108.565E-03    -53.8596E-03     65.4923E-03    -54.7863E-03     108.108E-03    -53.6579E-03     65.1266E-03
              15     7.67693E-03     60.8013E-03    -28.8521E+06    -112.838E+06    -3.06737E+06     163.035E+03    -54.9061E-03     108.746E-03    -53.8403E-03     72.4862E-03    -55.0324E-03     108.379E-03    -53.6502E-03     72.0415E-03
              16     8.52991E-03     60.8773E-03    -26.1329E+06    -100.119E+06    -2.16788E+06     392.397E+03    -55.1014E-03     108.916E-03    -53.8144E-03     79.1804E-03    -55.2904E-03     108.663E-03    -53.6421E-03     78.6468E-03
              17     9.38299E-03     60.9599E-03    -23.6922E+06    -87.5144E+06    -223.349E+03     453.912E+03    -55.2946E-03     109.088E-03    -53.7933E-03     86.0625E-03    -55.5691E-03     108.968E-03    -53.6332E-03     85.4236E-03
              18     10.2361E-03     61.0497E-03    -21.6152E+06    -73.8720E+06    -620.983E+03     339.146E+03    -55.4824E-03     109.240E-03    -53.7580E-03     93.0344E-03    -55.8699E-03     109.291E-03    -53.6227E-03     92.2716E-03
              19     11.0893E-03     61.1460E-03    -19.9577E+06    -53.8723E+06    -997.147E+03     316.411E+03    -55.5398E-03     109.251E-03    -53.7111E-03     98.8626E-03    -56.0850E-03     109.537E-03    -53.6090E-03     97.9619E-03
              20     11.9427E-03     61.2471E-03    -18.5382E+06    -26.2377E+06     611.373E+03     365.610E+03    -55.7096E-03     109.371E-03    -53.6618E-03     106.256E-03    -56.4946E-03     109.996E-03    -53.5939E-03     105.197E-03
              21     12.7953E-03     61.3583E-03    -16.9140E+06     13.4833E+06    -791.720E+03    -361.442E+03    -56.0783E-03     109.658E-03    -53.5796E-03     120.024E-03    -57.3022E-03     110.872E-03    -53.5786E-03     118.741E-03
              22     13.6504E-03     61.4869E-03    -16.5067E+06     70.8368E+06     4.91447E+06    -150.243E+03    -56.7642E-03     110.270E-03    -53.5062E-03     142.059E-03    -58.8166E-03     112.501E-03    -53.5604E-03     140.540E-03
              23     14.5012E-03     61.6444E-03    -14.7966E+06     116.022E+06     36.3768E+06     1.00335E+06    -57.4931E-03     111.070E-03    -53.5766E-03     164.659E-03    -60.7343E-03     114.565E-03    -53.5415E-03     163.132E-03
              24     15.3569E-03     61.8178E-03    -9.54733E+06     141.502E+06     81.0869E+06     899.236E+03    -56.5917E-03     110.310E-03    -53.7178E-03     175.446E-03    -61.0109E-03     114.962E-03    -53.5037E-03     174.612E-03
              25     16.2120E-03     61.9996E-03    -4.16725E+06     145.269E+06     98.0393E+06     531.294E+03    -54.3163E-03     108.057E-03    -53.7412E-03     110.404E-03    -57.3705E-03     111.328E-03    -53.4556E-03     110.327E-03
              26     17.0642E-03     63.1025E-03    -2.19195E+06     138.496E+06     94.5755E+06     1.11753E+06    -53.0010E-03     106.696E-03    -53.6951E-03     51.3810E-03    -54.2630E-03     108.168E-03    -53.4199E-03     51.4769E-03
              27     17.0634E-03     64.1603E-03    -1.89107E+06     139.865E+06     94.9107E+06     49.0077E+03    -51.2553E-03     104.987E-03    -53.7312E-03     55.1069E-03    -52.5673E-03     106.513E-03    -53.4568E-03     55.2511E-03
              28     17.0640E-03     65.2050E-03    -2.28597E+06     139.585E+06     94.7098E+06    -370.197E+03    -50.5315E-03     104.278E-03    -53.7462E-03     48.2768E-03    -51.7631E-03     105.722E-03    -53.4717E-03     48.4271E-03
              29     17.0637E-03     66.2567E-03    -4.02992E+06     138.082E+06     93.3912E+06    -805.622E+03    -53.1543E-03     106.841E-03    -53.6864E-03     46.1336E-03    -54.3593E-03     108.251E-03    -53.4138E-03     46.1917E-03
              30     17.0631E-03     67.3199E-03    -2.99286E+06     137.992E+06     93.7740E+06     564.677E+03    -54.1889E-03     107.868E-03    -53.6789E-03     46.2608E-03    -55.3898E-03     109.276E-03    -53.4058E-03     46.2968E-03
              31     17.0633E-03     68.3757E-03    -1.99495E+06     139.505E+06     94.9605E+06     573.786E+03    -51.4096E-03     105.148E-03    -53.7382E-03     48.6888E-03    -52.6399E-03     106.591E-03    -53.4627E-03     48.8127E-03
              32     17.0645E-03     69.4258E-03    -2.25166E+06     139.255E+06     94.7135E+06    -229.099E+03    -51.9080E-03     105.627E-03    -53.7191E-03     49.7078E-03    -53.1488E-03     107.080E-03    -53.4441E-03     49.8124E-03
              33     17.0624E-03     70.4868E-03    -1.54442E+06     139.666E+06     95.4278E+06     463.912E+03    -51.6206E-03     105.348E-03    -53.7278E-03     47.5872E-03    -52.8266E-03     106.768E-03    -53.4509E-03     47.6905E-03
              34     17.0654E-03     71.5337E-03    -966.452E+03     139.524E+06     95.5036E+06    -855.245E+03    -50.8795E-03     104.598E-03    -53.7186E-03     47.8791E-03    -52.0790E-03     106.013E-03    -53.4419E-03     47.9814E-03
              35     17.0634E-03     72.5895E-03    -2.62546E+06     138.068E+06     94.0598E+06    -224.067E+03    -54.1051E-03     107.756E-03    -53.6510E-03     45.4702E-03    -55.2866E-03     109.146E-03    -53.3771E-03     45.4889E-03
              36     17.0632E-03     73.6500E-03    -3.58596E+06     139.014E+06     94.0188E+06     826.773E+03    -53.5531E-03     107.244E-03    -53.6905E-03     44.0294E-03    -54.7282E-03     108.627E-03    -53.4167E-03     44.0718E-03
              37     17.0639E-03     74.7028E-03    -2.49508E+06     139.347E+06     94.1179E+06    -298.331E+03    -51.6578E-03     105.387E-03    -53.7289E-03     45.9120E-03    -52.8507E-03     106.793E-03    -53.4567E-03     46.0034E-03
              38     17.0633E-03     75.7568E-03    -1.97557E+06     139.776E+06     94.6425E+06     656.632E+03    -53.1773E-03     106.867E-03    -53.6892E-03     45.9059E-03    -54.3693E-03     108.273E-03    -53.4158E-03     45.9678E-03
              39     17.0639E-03     76.8172E-03    -2.03398E+06     141.114E+06     95.7367E+06     444.548E+03    -52.2405E-03     105.961E-03    -53.7207E-03     45.4145E-03    -53.4342E-03     107.371E-03    -53.4437E-03     45.4994E-03
              40     17.0630E-03     77.8691E-03    -1.98770E+06     141.172E+06     95.7422E+06    -180.918E+03    -50.7657E-03     104.523E-03    -53.7568E-03     46.7771E-03    -51.9704E-03     105.944E-03    -53.4799E-03     46.9039E-03
              41     17.0643E-03     78.9201E-03    -2.56228E+06     140.442E+06     94.9068E+06    -524.484E+03    -52.2503E-03     105.963E-03    -53.7131E-03     43.9404E-03    -53.4240E-03     107.351E-03    -53.4385E-03     44.0058E-03
              42     17.0627E-03     79.9774E-03    -4.40786E+06     140.659E+06     94.0093E+06     535.366E+03    -54.6988E-03     108.376E-03    -53.6774E-03     44.0245E-03    -55.8799E-03     109.768E-03    -53.4049E-03     44.0423E-03
              43     17.0626E-03     81.0394E-03    -3.15048E+06     143.677E+06     95.5133E+06     1.54455E+06    -52.7810E-03     106.511E-03    -53.7305E-03     44.2879E-03    -53.9661E-03     107.919E-03    -53.4567E-03     44.3727E-03
              44     17.0642E-03     82.0900E-03    -2.30873E+06     145.106E+06     96.3119E+06    -147.507E+03    -50.7350E-03     104.500E-03    -53.7648E-03     48.2120E-03    -51.9677E-03     105.961E-03    -53.4903E-03     48.3507E-03
              45     17.0625E-03     83.1471E-03    -2.23140E+06     145.862E+06     96.3962E+06     627.381E+03    -53.4042E-03     107.107E-03    -53.7028E-03     52.3134E-03    -54.6847E-03     108.618E-03    -53.4290E-03     52.3915E-03
              46     17.0640E-03     84.2098E-03    -1.79739E+06     146.420E+06     96.8078E+06    -55.1774E+03    -50.1520E-03     103.978E-03    -53.8258E-03     48.8232E-03    -51.3942E-03     105.453E-03    -53.5515E-03     48.9609E-03
              47     17.0600E-03     85.2524E-03    -2.57073E+06     146.358E+06     96.6726E+06     204.910E+03    -48.0298E-03     101.899E-03    -53.8694E-03     53.7240E-03    -49.3206E-03     103.421E-03    -53.5946E-03     53.9502E-03
              48     17.0673E-03     86.3016E-03    -2.81357E+06     145.760E+06     95.7979E+06    -538.604E+03    -55.6495E-03     109.253E-03    -53.6035E-03     49.6703E-03    -56.8911E-03     110.725E-03    -53.3318E-03     49.6359E-03
              49     17.0611E-03     87.3703E-03    -3.04719E+06     145.254E+06     95.4945E+06    -30.8914E+03    -56.6891E-03     110.288E-03    -53.5994E-03     41.9770E-03    -57.8437E-03     111.671E-03    -53.3281E-03     41.9037E-03
              50     17.0645E-03     88.4264E-03    -1.02487E+06     147.650E+06     97.6000E+06     1.58108E+06    -50.0630E-03     103.841E-03    -53.7785E-03     47.7144E-03    -51.2738E-03     105.290E-03    -53.5031E-03     47.8793E-03
              51     17.0637E-03     89.4734E-03    -1.34349E+06     148.363E+06     97.3764E+06    -311.749E+03    -49.5844E-03     103.326E-03    -53.7415E-03     47.6454E-03    -50.8068E-03     104.788E-03    -53.4678E-03     47.7865E-03
              52     17.0651E-03     90.5266E-03    -4.26953E+06     146.668E+06     94.9588E+06    -724.751E+03    -54.2576E-03     107.892E-03    -53.6348E-03     45.2749E-03    -55.4743E-03     109.339E-03    -53.3665E-03     45.2852E-03
              53     17.0618E-03     91.5906E-03    -2.96947E+06     147.278E+06     96.0424E+06     451.226E+03    -53.7247E-03     107.384E-03    -53.6595E-03     44.0456E-03    -54.9175E-03     108.811E-03    -53.3885E-03     44.0814E-03
              54     17.0664E-03     92.6413E-03    -1.95297E+06     147.526E+06     97.4586E+06    -108.275E+03    -50.6264E-03     104.328E-03    -53.7020E-03     45.0578E-03    -51.8196E-03     105.756E-03    -53.4258E-03     45.1797E-03
              55     17.0634E-03     93.6925E-03    -2.14150E+06     146.564E+06     97.3564E+06    -477.707E+03    -52.2537E-03     105.901E-03    -53.6473E-03     44.9356E-03    -53.4437E-03     107.322E-03    -53.3699E-03     45.0068E-03
              56     17.0658E-03     94.7553E-03    -2.31375E+06     147.404E+06     98.3825E+06     1.00748E+06    -52.3587E-03     105.978E-03    -53.6194E-03     45.2272E-03    -53.5509E-03     107.400E-03    -53.3379E-03     45.2931E-03
              57     17.0659E-03     95.8028E-03    -2.91906E+06     148.806E+06     99.4727E+06     714.763E+03    -51.9066E-03     105.497E-03    -53.5903E-03     45.0320E-03    -53.1083E-03     106.928E-03    -53.3044E-03     45.1143E-03
              58     17.0663E-03     96.8614E-03    -1.76067E+06     150.448E+06     100.808E+06     511.714E+03    -51.8913E-03     105.422E-03    -53.5303E-03     43.5428E-03    -53.0768E-03     106.843E-03    -53.2418E-03     43.6196E-03
              59     17.0696E-03     97.9136E-03    -2.61867E+06     149.854E+06     99.8360E+06    -222.885E+03    -52.0561E-03     105.495E-03    -53.4388E-03     46.2671E-03    -53.2717E-03     106.944E-03    -53.1531E-03     46.3345E-03
              60     17.0682E-03     98.9721E-03    -2.20488E+06     149.571E+06     100.099E+06     80.6697E+03    -52.9896E-03     106.329E-03    -53.3390E-03     46.0495E-03    -54.2004E-03     107.772E-03    -53.0521E-03     46.0859E-03
              61     17.0728E-03     100.025E-03    -2.62678E+06     149.580E+06     100.795E+06     339.457E+03    -52.7627E-03     105.974E-03    -53.2115E-03     46.9596E-03    -53.9767E-03     107.418E-03    -52.9206E-03     46.9948E-03
              62     17.0742E-03     101.080E-03    -2.55183E+06     148.958E+06     100.891E+06     198.758E+03    -53.8335E-03     106.843E-03    -53.0099E-03     45.9630E-03    -55.0385E-03     108.276E-03    -52.7177E-03     45.9678E-03
              63     17.0784E-03     102.138E-03    -2.59095E+06     148.390E+06     101.136E+06    -205.968E+03    -54.5656E-03     107.356E-03    -52.7901E-03     45.1790E-03    -55.7749E-03     108.789E-03    -52.4958E-03     45.1610E-03
              64     17.0821E-03     103.191E-03    -3.76690E+06     145.778E+06     100.589E+06    -586.390E+03    -56.7338E-03     109.249E-03    -52.5151E-03     47.8058E-03    -57.9807E-03     110.709E-03    -52.2181E-03     47.7392E-03
              65     17.0854E-03     104.260E-03    -3.28294E+06     144.099E+06     101.512E+06      -8.898E+03    -58.6610E-03     110.908E-03    -52.2471E-03     49.2421E-03    -59.9331E-03     112.386E-03    -51.9437E-03     49.1316E-03
              66     17.0901E-03     105.315E-03    -1.76250E+06     142.362E+06     102.391E+06    -396.171E+03    -61.0215E-03     112.984E-03    -51.9625E-03     51.1175E-03    -62.3259E-03     114.491E-03    -51.6544E-03     50.9397E-03
              67     17.0927E-03     106.381E-03    -3.94124E+06     138.973E+06     101.182E+06    -1.40367E+06    -67.8575E-03     119.479E-03    -51.6211E-03     51.8646E-03    -69.1938E-03     121.002E-03    -51.3110E-03     51.4697E-03
              68     17.0942E-03     107.462E-03    -2.63731E+06     136.086E+06     101.528E+06    -648.768E+03    -72.9238E-03     124.299E-03    -51.3754E-03     53.8621E-03    -74.2901E-03     125.845E-03    -51.0613E-03     53.3150E-03
              69     17.0968E-03     108.534E-03    -2.46122E+06     132.338E+06     101.290E+06    -1.51371E+06    -77.1102E-03     128.274E-03    -51.1642E-03     56.5086E-03    -78.5098E-03     129.841E-03    -50.8461E-03     55.8093E-03
              70     17.0975E-03     109.619E-03    -2.79022E+06     126.169E+06     99.7314E+06    -2.75952E+06    -86.1503E-03     137.008E-03    -50.8573E-03     60.7059E-03    -87.5830E-03     138.590E-03    -50.5375E-03     59.6614E-03
              71     17.0993E-03     110.717E-03    -4.17916E+06     118.889E+06     97.3515E+06    -2.69632E+06    -95.1838E-03     145.749E-03    -50.5656E-03     65.7777E-03    -96.6636E-03     147.356E-03    -50.2451E-03     64.3866E-03
              72     17.0999E-03     111.824E-03    -2.33132E+06     112.647E+06     97.8985E+06    -1.57448E+06    -101.595E-03     151.929E-03    -50.3340E-03     73.2423E-03    -103.169E-03     153.612E-03    -50.0044E-03     71.5708E-03
              73     17.1029E-03     112.932E-03    -2.86910E+06     105.735E+06     98.2839E+06    -2.48562E+06    -110.296E-03     160.347E-03    -50.0519E-03     81.0148E-03    -111.978E-03     162.113E-03    -49.7096E-03     78.9189E-03
              74     17.1024E-03     114.060E-03    -1.04734E+06     99.2887E+06     98.8388E+06    -2.00950E+06    -120.591E-03     170.357E-03    -49.7663E-03     91.1991E-03    -122.428E-03     172.262E-03    -49.4145E-03     88.5582E-03
              75     17.1043E-03     115.198E-03    -5.99787E+06     89.7269E+06     97.3723E+06    -4.56497E+06    -128.931E-03     178.472E-03    -49.5412E-03     104.445E-03    -131.018E-03     180.578E-03    -49.1757E-03     101.213E-03
              76     17.1045E-03     116.338E-03     2.97639E+06     86.0035E+06     104.425E+06     1.81282E+06    -136.559E-03     185.898E-03    -49.3390E-03     112.668E-03    -138.773E-03     188.128E-03    -48.9459E-03     109.024E-03
              77     17.1062E-03     117.485E-03    -11.9151E+06     76.6187E+06     100.813E+06    -6.62840E+06    -145.201E-03     194.318E-03    -49.1174E-03     119.943E-03    -147.653E-03     196.712E-03    -48.7072E-03     115.497E-03
              78     17.1054E-03     118.649E-03     9.56127E+06     69.6283E+06     107.416E+06     413.624E+03    -153.672E-03     202.577E-03    -48.9056E-03     141.917E-03    -156.444E-03     205.335E-03    -48.4833E-03     136.672E-03
              79     17.1094E-03     119.842E-03    -6.64134E+06     70.1303E+06     89.4277E+06     2.01278E+06    -151.747E-03     200.607E-03    -48.8601E-03     185.153E-03    -155.588E-03     204.439E-03    -48.5050E-03     179.045E-03
              80     17.1087E-03     121.021E-03    -9.56115E+06     45.8192E+06     53.6418E+06    -15.8927E+06    -125.041E-03     174.451E-03    -49.4095E-03     243.254E-03    -129.173E-03     178.576E-03    -49.1938E-03     237.955E-03
              81     17.1134E-03     122.132E-03     5.94126E+06     7.09404E+06     25.5481E+06    -16.0004E+06    -53.0169E-03     105.545E-03    -52.5281E-03     234.913E-03    -55.0082E-03     107.553E-03    -52.4193E-03     232.898E-03
              82     17.0006E-03     123.063E-03    -12.9538E+06    -15.8312E+06     7.49320E+06     -566.18E+03     17.7352E-03     44.8957E-03    -62.6309E-03     96.6738E-03     17.4653E-03     44.9792E-03    -62.5517E-03     96.6621E-03
              83     15.7835E-03     123.659E-03     3.68887E+06     29.7089E+06     53.3898E+06    -3.68593E+06     26.3998E-03     44.8394E-03    -71.2391E-03     17.3948E-03     26.2677E-03     44.8791E-03    -71.0206E-03     17.3442E-03
              84     14.8877E-03     123.348E-03    -12.6700E+06    -8.15614E+06     66.7926E+06    -12.6566E+06    -3.71361E-03     76.2772E-03    -72.5636E-03     15.1312E-03    -3.86535E-03     76.1674E-03    -72.1994E-03     14.9081E-03
              85     14.0821E-03     123.006E-03     5.12005E+06    -16.2228E+06     73.7194E+06    -5.84612E+06    -25.0598E-03     97.3542E-03    -72.2944E-03    -9.34094E-03    -25.1549E-03     97.1318E-03    -71.9097E-03    -9.52269E-03
              86     13.2659E-03     122.702E-03     17.8172E+06     4.70047E+06     88.2381E+06    -4.59703E+06    -33.6566E-03     104.979E-03    -71.3225E-03    -24.8149E-03    -33.7272E-03     104.817E-03    -70.9140E-03    -25.0024E-03
              87     12.4540E-03     122.437E-03     25.0609E+06    -8.17953E+06     88.6800E+06     2.16649E+06    -45.6723E-03     115.734E-03    -70.0622E-03    -41.9158E-03    -45.6822E-03     115.484E-03    -69.6432E-03    -42.0652E-03
              88     11.6494E-03     122.200E-03     30.6930E+06     1.57537E+06     87.7345E+06     2.94785E+06    -54.6230E-03     123.052E-03    -68.4287E-03    -50.1581E-03    -54.6130E-03     122.836E-03    -68.0368E-03    -50.3197E-03
              89     10.8426E-03     121.997E-03     31.0099E+06    -4.93555E+06     83.9325E+06     5.07716E+06    -59.9729E-03     126.663E-03    -66.6900E-03    -51.0236E-03    -59.9427E-03     126.423E-03    -66.3081E-03    -51.1508E-03
              90     10.0319E-03     121.820E-03     30.7156E+06     3.44188E+06     85.5395E+06     2.39517E+06    -63.1070E-03     128.079E-03    -64.9716E-03    -47.6693E-03    -63.0908E-03     127.886E-03    -64.5934E-03    -47.8114E-03
              91     9.21598E-03     121.668E-03     30.9278E+06      -89.27E+03       83.26E+06     1.23690E+06    -64.6308E-03     127.933E-03    -63.3025E-03    -42.8472E-03    -64.6042E-03     127.734E-03    -62.9309E-03    -42.9828E-03
              92     8.39582E-03     121.537E-03     32.5696E+06     1.46713E+06     80.6353E+06    -600.432E+03    -64.7525E-03     126.454E-03    -61.7010E-03    -37.5873E-03    -64.7159E-03     126.270E-03    -61.3472E-03    -37.7246E-03
              93     7.57053E-03     121.425E-03     33.8041E+06    -1.66984E+06     75.4012E+06    -80.3418E+03    -63.8938E-03     124.099E-03    -60.2052E-03    -32.4308E-03    -63.8388E-03     123.911E-03    -59.8748E-03    -32.5402E-03
              94     6.74106E-03     121.329E-03     34.2756E+06     1.47365E+06     72.5393E+06    -498.898E+03    -62.5049E-03     121.351E-03    -58.8463E-03    -27.5632E-03    -62.4477E-03     121.186E-03    -58.5355E-03    -27.6585E-03
              95     5.90712E-03     121.249E-03      34.868E+06    -157.278E+03     67.3506E+06    -1.18071E+06    -60.8461E-03     118.473E-03    -57.6265E-03    -23.1398E-03    -60.7758E-03     118.310E-03    -57.3401E-03    -23.2276E-03
              96     5.06973E-03     121.181E-03     35.6784E+06     661.213E+03     61.3640E+06    -1.60471E+06    -59.1137E-03     115.667E-03    -56.5530E-03    -19.1720E-03    -59.0319E-03     115.518E-03    -56.2989E-03    -19.2512E-03
              97     4.22930E-03     121.126E-03     36.7270E+06    -426.089E+03     55.3612E+06    -1.72194E+06    -57.4195E-03     113.072E-03    -55.6520E-03    -15.4993E-03    -57.3220E-03     112.926E-03    -55.4278E-03    -15.5676E-03
              98     3.38603E-03     121.081E-03     38.3591E+06     403.318E+03     51.8958E+06    -2.21584E+06    -55.8891E-03     110.845E-03    -54.9555E-03    -12.2698E-03    -55.7795E-03     110.707E-03    -54.7522E-03    -12.3340E-03
              99     2.54069E-03     121.047E-03     40.2980E+06    -881.645E+03     48.0905E+06    -2.43268E+06    -54.7073E-03     109.190E-03    -54.4831E-03    -9.56121E-03    -54.5805E-03     109.050E-03    -54.2998E-03    -9.61941E-03
             100     1.69346E-03     121.023E-03     42.1169E+06    -187.383E+03     45.2133E+06    -2.62803E+06    -54.0078E-03     108.274E-03    -54.2658E-03    -7.24813E-03    -53.8691E-03     108.139E-03    -54.1006E-03    -7.30102E-03
             101     845.834E-06     121.008E-03     41.9868E+06    -1.77734E+06     42.7398E+06    -1.98875E+06    -54.0657E-03     108.305E-03    -54.2390E-03    -4.68780E-03    -53.9233E-03     108.165E-03    -54.0836E-03    -4.72469E-03
             102    -445.089E-09     119.945E-03     34.8425E+06    -4.03673E+06     34.9288E+06    -1.86975E+06    -47.8238E-03     95.9623E-03    -48.1386E-03    -1.36446E-03    -47.7005E-03     95.8349E-03    -48.0086E-03    -1.39532E-03
             103    -152.814E-09     118.914E-03     17.7618E+06    -9.82494E+06     17.2176E+06    -1.87999E+06    -37.4007E-03     75.0494E-03    -37.6487E-03     942.045E-06    -37.3248E-03     74.9474E-03    -37.5741E-03     912.252E-06
             104     346.480E-09     117.902E-03    -3.27683E+06    -18.8647E+06    -3.13406E+06    -1.86819E+06    -30.4978E-03     60.8580E-03    -30.3602E-03     2.18481E-03    -30.4833E-03     60.7722E-03    -30.3438E-03     2.15666E-03
             105    -286.792E-09     116.899E-03    -26.5788E+06    -28.1827E+06    -26.1577E+06    -2.83149E+06    -25.6798E-03     51.4065E-03    -25.7267E-03     3.48577E-03    -25.7341E-03     51.3421E-03    -25.7781E-03     3.44672E-03
             106     148.537E-09     115.905E-03    -55.3399E+06    -39.1856E+06    -54.9669E+06    -3.98677E+06    -22.9425E-03     46.0251E-03    -23.0825E-03     4.45165E-03    -23.0826E-03     45.9895E-03    -23.2203E-03     4.39881E-03
             107    -260.255E-09     114.914E-03    -85.6600E+06    -52.1999E+06    -85.6720E+06    -3.76820E+06    -21.9338E-03     43.9185E-03    -21.9846E-03     5.28713E-03    -22.1620E-03     43.9063E-03    -22.2131E-03     5.23817E-03
             108     269.517E-09     113.924E-03    -116.161E+06    -63.5559E+06     -116.24E+06    -2.82356E+06    -22.4262E-03     44.7497E-03    -22.3234E-03     5.77500E-03    -22.7461E-03     44.7692E-03    -22.6440E-03     5.73903E-03
             109    -113.787E-09     112.931E-03    -118.433E+06    -63.2570E+06    -120.917E+06     3.21559E+06    -24.2249E-03     48.3142E-03    -24.0893E-03     6.12007E-03    -24.5500E-03     48.3451E-03    -24.4305E-03     6.16255E-03
             110     152.735E-09     111.934E-03    -82.0147E+06    -44.8617E+06    -80.8038E+06     7.26249E+06    -27.1924E-03     54.3693E-03    -27.1769E-03     6.52749E-03    -27.4205E-03     54.3810E-03    -27.3969E-03     6.62231E-03
             111    -166.427E-09     110.928E-03    -45.6135E+06    -29.9748E+06    -43.6486E+06     1.93346E+06    -30.9430E-03     61.8670E-03    -30.9240E-03     6.79081E-03    -31.0647E-03     61.8464E-03    -31.0326E-03     6.81616E-03
             112     219.440E-09     109.916E-03    -33.7089E+06    -31.3911E+06    -33.5254E+06    -2.44573E+06    -34.7725E-03     69.4756E-03    -34.7031E-03     6.87282E-03    -34.8473E-03     69.4160E-03    -34.7763E-03     6.84038E-03
             113    -166.221E-09     108.895E-03    -29.0588E+06    -40.4855E+06    -28.9321E+06    -2.85140E+06    -38.3619E-03     76.6650E-03    -38.3031E-03     6.84988E-03    -38.4068E-03     76.5466E-03    -38.3469E-03     6.81063E-03
             114     199.196E-09     107.868E-03    -23.9577E+06    -49.8418E+06    -23.8500E+06    -2.73586E+06    -41.6443E-03     83.1687E-03    -41.5244E-03     6.72312E-03    -41.6575E-03     82.9890E-03    -41.5366E-03     6.68326E-03
             115    -41.5001E-09     106.835E-03    -25.9506E+06    -60.7344E+06    -25.9806E+06    -3.41779E+06    -44.4134E-03     88.7301E-03    -44.3168E-03     6.69246E-03    -44.4176E-03     88.5021E-03    -44.3210E-03     6.64109E-03
             116     31.9297E-09     105.796E-03    -29.4710E+06    -73.0246E+06    -30.3581E+06    -3.38028E+06    -46.6911E-03     93.3807E-03    -46.6896E-03     6.68795E-03    -46.6888E-03     93.1029E-03    -46.6928E-03     6.63444E-03
             117    -48.3551E-09     104.753E-03    -32.3282E+06    -84.5846E+06    -32.6420E+06    -2.97200E+06    -48.6329E-03     97.1996E-03    -48.5667E-03     6.57422E-03    -48.6247E-03     96.8715E-03    -48.5604E-03     6.52367E-03
             118     155.771E-09     103.706E-03    -36.0564E+06    -94.5532E+06    -36.3358E+06    -2.60353E+06    -50.1746E-03     100.177E-03    -50.0027E-03     6.36003E-03    -50.1653E-03     99.8101E-03    -49.9950E-03     6.31246E-03
             119     9.96016E-09     102.657E-03    -39.2254E+06    -103.891E+06    -39.2927E+06    -2.44842E+06    -51.2418E-03     102.387E-03    -51.1448E-03     6.22270E-03    -51.2305E-03     101.982E-03    -51.1337E-03     6.17584E-03
             120    -27.8485E-09     101.606E-03    -42.4308E+06    -112.362E+06    -42.4235E+06    -2.23076E+06    -52.0268E-03     104.055E-03    -52.0280E-03     6.11999E-03    -52.0147E-03     103.617E-03    -52.0157E-03     6.07481E-03
             121     26.6171E-09     100.553E-03    -45.9822E+06    -121.119E+06    -45.9120E+06    -2.32647E+06    -52.6068E-03     105.227E-03    -52.6202E-03     6.00736E-03    -52.5947E-03     104.755E-03    -52.6075E-03     5.96004E-03
             122    -64.0306E-09     99.4998E-03    -48.9701E+06    -129.609E+06    -49.0310E+06    -2.21504E+06    -52.9847E-03     106.056E-03    -53.0716E-03     5.94220E-03    -52.9708E-03     105.551E-03    -53.0579E-03     5.89515E-03
             123    -63.6705E-09     98.4458E-03    -52.2630E+06    -137.138E+06    -52.1754E+06    -1.99115E+06    -53.3566E-03     106.727E-03    -53.3709E-03     5.90257E-03    -53.3436E-03     106.194E-03    -53.3572E-03     5.85780E-03
             124     151.856E-09     97.3903E-03    -54.9773E+06    -143.967E+06    -55.2924E+06    -1.70237E+06    -53.6823E-03     107.122E-03    -53.4396E-03     5.94639E-03    -53.6685E-03     106.563E-03    -53.4276E-03     5.90534E-03
             125     154.289E-09     96.3361E-03    -57.1069E+06    -149.751E+06    -57.2936E+06    -1.41360E+06    -53.7910E-03     107.348E-03    -53.5571E-03     5.89584E-03    -53.7766E-03     106.766E-03    -53.5436E-03     5.85817E-03
             126    -79.3425E-09     95.2803E-03    -58.3507E+06    -154.367E+06    -58.4429E+06    -1.24492E+06    -53.7478E-03     107.508E-03    -53.7604E-03     5.85014E-03    -53.7312E-03     106.907E-03    -53.7441E-03     5.81418E-03
             127    -33.7598E-09     94.2253E-03    -59.8271E+06    -158.620E+06    -59.5816E+06    -1.20784E+06    -53.7641E-03     107.545E-03    -53.7814E-03     5.82291E-03    -53.7470E-03     106.926E-03    -53.7626E-03     5.78734E-03
             128     104.432E-09     93.1698E-03    -60.1952E+06    -162.157E+06    -60.5239E+06    -678.749E+03    -53.8335E-03     107.585E-03    -53.7517E-03     5.90804E-03    -53.8118E-03     106.950E-03    -53.7319E-03     5.87970E-03
             129    -55.2862E-09     92.1146E-03    -61.4703E+06    -164.902E+06    -61.1947E+06    -634.282E+03    -53.8515E-03     107.638E-03    -53.7861E-03     5.95696E-03    -53.8312E-03     106.992E-03    -53.7638E-03     5.92922E-03
             130     104.463E-09     91.0590E-03    -61.3674E+06    -167.206E+06    -61.6332E+06    -602.312E+03    -53.8624E-03     107.656E-03    -53.7936E-03     5.98146E-03    -53.8376E-03     106.999E-03    -53.7703E-03     5.95396E-03
             131    -55.8467E-09     90.0039E-03    -61.3032E+06    -168.627E+06    -61.3628E+06    -165.927E+03    -53.8242E-03     107.701E-03    -53.8766E-03     6.03425E-03    -53.7974E-03     107.036E-03    -53.8500E-03     6.01257E-03
             132    -99.5821E-09     88.9481E-03    -61.4899E+06    -170.513E+06    -61.4419E+06    -408.690E+03    -53.8524E-03     107.729E-03    -53.8769E-03     5.99673E-03    -53.8236E-03     107.056E-03    -53.8477E-03     5.97215E-03
             133     197.016E-09     87.8930E-03    -60.3190E+06    -172.903E+06    -60.4335E+06    -374.220E+03    -53.9083E-03     107.704E-03    -53.7954E-03     5.97609E-03    -53.8717E-03     107.015E-03    -53.7594E-03     5.95174E-03
             134    -119.756E-09     86.8376E-03    -59.2749E+06    -174.230E+06    -59.3199E+06    -192.401E+03    -53.8775E-03     107.723E-03    -53.8457E-03     5.98195E-03    -53.8354E-03     107.025E-03    -53.8037E-03     5.95934E-03
             135     79.6139E-09     85.7821E-03    -59.1268E+06    -174.536E+06    -59.2180E+06    -286.956E+03    -53.8724E-03     107.753E-03    -53.8809E-03     5.96199E-03    -53.8293E-03     107.053E-03    -53.8381E-03     5.93828E-03
             136    -71.3203E-09     84.7268E-03    -59.3243E+06    -175.191E+06    -59.4350E+06     143.532E+03    -53.9098E-03     107.714E-03    -53.8041E-03     5.96185E-03    -53.8664E-03     107.011E-03    -53.7612E-03     5.94426E-03
             137     225.612E-09     83.6713E-03    -59.1586E+06    -175.166E+06    -58.9266E+06     122.701E+03    -53.8940E-03     107.650E-03    -53.7556E-03     6.00255E-03    -53.8505E-03     106.946E-03    -53.7104E-03     5.98484E-03
             138    -158.045E-09     82.6162E-03    -58.2777E+06    -174.402E+06    -58.2844E+06    -76.1050E+03    -53.8452E-03     107.605E-03    -53.7602E-03     5.83991E-03    -53.7994E-03     106.903E-03    -53.7142E-03     5.81919E-03
             139     219.644E-09     81.5613E-03    -57.8899E+06    -173.987E+06    -57.8605E+06     57.0568E+03    -53.8732E-03     107.631E-03    -53.7574E-03     5.71673E-03    -53.8266E-03     106.929E-03    -53.7105E-03     5.69792E-03
             140    -98.6130E-09     80.5055E-03    -58.0217E+06    -174.416E+06    -58.3515E+06     225.012E+03    -53.8278E-03     107.619E-03    -53.7916E-03     5.81142E-03    -53.7805E-03     106.917E-03    -53.7463E-03     5.79556E-03
             141     19.8871E-09     79.4505E-03    -57.7720E+06    -173.823E+06    -57.3930E+06     335.886E+03    -53.7971E-03     107.579E-03    -53.7822E-03     5.84023E-03    -53.7509E-03     106.878E-03    -53.7333E-03     5.82534E-03
             142     72.7031E-09     78.3951E-03    -56.5188E+06    -172.672E+06    -56.4387E+06    -115.814E+03    -53.8843E-03     107.560E-03    -53.6752E-03     5.94071E-03    -53.8349E-03     106.861E-03    -53.6251E-03     5.91894E-03
             143     175.984E-09     77.3398E-03    -56.3463E+06    -172.646E+06    -56.4222E+06    -99.5806E+03    -53.8603E-03     107.508E-03    -53.6473E-03     6.11898E-03    -53.8101E-03     106.809E-03    -53.5974E-03     6.09744E-03
             144    -79.5724E-09     76.2847E-03    -56.1660E+06    -172.390E+06    -56.1274E+06     104.957E+03    -53.7944E-03     107.472E-03    -53.6776E-03     6.07127E-03    -53.7441E-03     106.774E-03    -53.6269E-03     6.05239E-03
             145     165.699E-09     75.2297E-03    -55.9179E+06    -172.065E+06    -55.9549E+06     164.704E+03    -53.7627E-03     107.445E-03    -53.6819E-03     5.99355E-03    -53.7118E-03     106.747E-03    -53.6311E-03     5.97561E-03
             146    -131.102E-09     74.1746E-03    -55.7005E+06    -171.795E+06    -55.7107E+06     106.963E+03    -53.6298E-03     107.401E-03    -53.7711E-03     5.98059E-03    -53.5786E-03     106.704E-03    -53.7198E-03     5.96236E-03
             147    -161.225E-09     73.1198E-03    -55.4919E+06    -171.571E+06    -55.5485E+06     41.8148E+03    -53.6223E-03     107.430E-03    -53.8074E-03     5.83737E-03    -53.5706E-03     106.734E-03    -53.7559E-03     5.81848E-03
             148     121.314E-09     72.0645E-03    -55.4914E+06    -171.533E+06    -55.5140E+06     73.1065E+03    -53.7142E-03     107.468E-03    -53.7533E-03     5.85203E-03    -53.6626E-03     106.772E-03    -53.7017E-03     5.83413E-03
             149    -164.281E-09     71.0094E-03    -55.1188E+06    -171.222E+06    -55.2361E+06     81.5161E+03    -53.7528E-03     107.464E-03    -53.7110E-03     5.78053E-03    -53.7001E-03     106.769E-03    -53.6590E-03     5.76276E-03
             150     261.535E-09     69.9546E-03    -55.1709E+06    -171.145E+06    -55.0218E+06    -16.4415E+03    -53.8160E-03     107.513E-03    -53.6974E-03     5.71392E-03    -53.7640E-03     106.818E-03    -53.6444E-03     5.69466E-03
             151    -170.174E-09     68.8991E-03    -54.6273E+06    -170.656E+06    -54.7601E+06     211.743E+03    -53.7623E-03     107.539E-03    -53.7764E-03     5.72220E-03    -53.7087E-03     106.845E-03    -53.7236E-03     5.70628E-03
             152     37.8729E-09     67.8441E-03    -54.8577E+06    -170.667E+06    -54.6960E+06    -107.289E+03    -53.7481E-03     107.578E-03    -53.8303E-03     5.69154E-03    -53.6957E-03     106.885E-03    -53.7767E-03     5.67114E-03
             153    -59.0642E-09     66.7888E-03    -54.6282E+06    -170.855E+06    -55.0006E+06    -257.627E+03    -53.8191E-03     107.697E-03    -53.8780E-03     5.84105E-03    -53.7649E-03     107.003E-03    -53.8261E-03     5.81805E-03
             154    -40.2437E-09     65.7330E-03    -54.9091E+06    -170.936E+06    -54.8632E+06     134.785E+03    -53.8218E-03     107.676E-03    -53.8538E-03     5.89446E-03    -53.7690E-03     106.981E-03    -53.8007E-03     5.87674E-03
             155     69.1732E-09     64.6780E-03    -54.8951E+06    -170.646E+06    -54.6285E+06    -105.635E+03    -53.8593E-03     107.594E-03    -53.7347E-03     5.82341E-03    -53.8073E-03     106.900E-03    -53.6808E-03     5.80272E-03
             156     101.596E-09     63.6229E-03    -54.8604E+06    -170.753E+06    -54.8713E+06    -326.455E+03    -53.9026E-03     107.691E-03    -53.7881E-03     5.79544E-03    -53.8499E-03     106.997E-03    -53.7353E-03     5.77110E-03
             157    -92.6077E-09     62.5672E-03    -55.2512E+06    -171.287E+06    -55.3876E+06    -177.097E+03    -53.8781E-03     107.727E-03    -53.8487E-03     5.81563E-03    -53.8258E-03     107.032E-03    -53.7971E-03     5.79303E-03
             158     116.683E-09     61.5118E-03    -55.1563E+06    -171.131E+06    -55.4307E+06     428.255E+03    -53.8224E-03     107.593E-03    -53.7703E-03     5.93734E-03    -53.7698E-03     106.898E-03    -53.7193E-03     5.92320E-03
             159     159.886E-09     59.4018E-03    -55.8810E+06    -171.643E+06    -55.9378E+06    -354.065E+03    -53.7520E-03     107.458E-03    -53.7056E-03     5.69746E-03    -53.7015E-03     106.762E-03    -53.6554E-03     5.67398E-03
             160    -185.012E-09     58.3469E-03    -55.8424E+06    -171.764E+06    -56.0179E+06    -18.5558E+03    -53.7280E-03     107.552E-03    -53.8236E-03     5.73055E-03    -53.6770E-03     106.856E-03    -53.7736E-03     5.71105E-03
             161     29.8514E-09     57.2909E-03    -55.7389E+06    -171.485E+06    -55.7124E+06     39.5134E+03    -53.7176E-03     107.571E-03    -53.8537E-03     5.92855E-03    -53.6670E-03     106.876E-03    -53.8027E-03     5.90942E-03
             162    -122.860E-09     56.2360E-03    -55.5722E+06    -171.425E+06    -55.7613E+06    -73.6500E+03    -53.7183E-03     107.501E-03    -53.7823E-03     6.07347E-03    -53.6669E-03     106.806E-03    -53.7319E-03     6.05248E-03
             163     87.5075E-09     55.1807E-03    -55.8317E+06    -171.541E+06    -55.7742E+06    -54.3337E+03    -53.7854E-03     107.495E-03    -53.7099E-03     5.90199E-03    -53.7351E-03     106.800E-03    -53.6590E-03     5.88135E-03
             164     61.1870E-09     54.1261E-03    -55.5334E+06    -171.349E+06    -55.6807E+06    -3.50724E+03    -53.8177E-03     107.534E-03    -53.7166E-03     5.79595E-03    -53.7664E-03     106.840E-03    -53.6660E-03     5.77615E-03
             165    -54.5585E-09     53.0705E-03    -55.0064E+06    -170.898E+06    -55.0615E+06     76.9211E+03    -53.8245E-03     107.589E-03    -53.7647E-03     5.78263E-03    -53.7720E-03     106.895E-03    -53.7124E-03     5.76414E-03
             166     133.777E-09     52.0154E-03    -55.2421E+06    -170.958E+06    -55.1192E+06    -237.177E+03    -53.7977E-03     107.561E-03    -53.7633E-03     5.76815E-03    -53.7463E-03     106.867E-03    -53.7109E-03     5.74545E-03
             167    -168.353E-09     50.9602E-03    -55.1833E+06    -171.147E+06    -55.5011E+06    -103.464E+03    -53.7094E-03     107.513E-03    -53.8036E-03     5.73105E-03    -53.6568E-03     106.819E-03    -53.7529E-03     5.71036E-03
             168     23.4638E-09     49.9051E-03    -54.9152E+06    -170.888E+06    -54.9679E+06     257.122E+03    -53.7892E-03     107.560E-03    -53.7708E-03     5.72063E-03    -53.7364E-03     106.866E-03    -53.7182E-03     5.70475E-03
             169     136.932E-09     48.8495E-03    -54.9002E+06    -170.668E+06    -54.7908E+06     149.218E+03    -53.8529E-03     107.538E-03    -53.6847E-03     5.83964E-03    -53.8006E-03     106.844E-03    -53.6316E-03     5.82186E-03
             170    -25.1815E-09     47.7946E-03    -54.9778E+06    -170.631E+06    -54.9102E+06    -167.968E+03    -53.7303E-03     107.420E-03    -53.6897E-03     5.90153E-03    -53.6783E-03     106.727E-03    -53.6371E-03     5.87952E-03
             171    -32.7761E-09     46.7394E-03    -55.4330E+06    -171.158E+06    -55.4867E+06    -143.679E+03    -53.6627E-03     107.329E-03    -53.6659E-03     5.89273E-03    -53.6113E-03     106.635E-03    -53.6148E-03     5.87104E-03
             172     68.4015E-09     45.6846E-03    -55.6401E+06    -171.373E+06     -55.663E+06     124.775E+03    -53.6497E-03     107.223E-03    -53.5729E-03     5.88310E-03    -53.5989E-03     106.528E-03    -53.5220E-03     5.86482E-03
             173     10.7355E-09     44.6297E-03    -55.4525E+06    -171.075E+06    -55.3075E+06    -28.9502E+03    -53.5881E-03     107.053E-03    -53.4645E-03     5.83798E-03    -53.5373E-03     106.359E-03    -53.4126E-03     5.81778E-03
             174     106.716E-09     43.5753E-03    -55.7768E+06    -171.449E+06    -55.7926E+06    -224.868E+03    -53.4569E-03     106.854E-03    -53.3976E-03     5.80565E-03    -53.4064E-03     106.160E-03    -53.3471E-03     5.78341E-03
             175    -138.909E-09     42.5209E-03    -55.8605E+06    -171.687E+06    -56.0105E+06     133.040E+03    -53.3332E-03     106.664E-03    -53.3312E-03     5.66058E-03    -53.2824E-03     105.969E-03    -53.2813E-03     5.64347E-03
             176     157.838E-09     41.4670E-03    -55.1849E+06    -171.015E+06    -55.2196E+06     304.904E+03    -53.2450E-03     106.488E-03    -53.2426E-03     5.60042E-03    -53.1929E-03     105.794E-03    -53.1907E-03     5.58543E-03
             177    -187.774E-09     40.4127E-03    -54.9044E+06    -170.531E+06    -54.7233E+06    -28.8510E+03    -53.1308E-03     106.259E-03    -53.1278E-03     5.58142E-03    -53.0788E-03     105.566E-03    -53.0745E-03     5.56209E-03
             178     210.336E-09     39.3592E-03    -55.1085E+06    -170.813E+06    -55.2539E+06    -163.886E+03    -52.9792E-03     105.932E-03    -52.9529E-03     5.58951E-03    -52.9270E-03     105.239E-03    -52.9015E-03     5.56879E-03
             179    -204.202E-09     38.3057E-03    -54.9836E+06    -170.654E+06    -55.1643E+06     234.677E+03    -52.7718E-03     105.567E-03    -52.7953E-03     5.66596E-03    -52.7193E-03     104.875E-03    -52.7440E-03     5.65072E-03
             180     140.813E-09     37.2528E-03    -55.0050E+06    -170.472E+06    -54.9713E+06     186.736E+03    -52.5795E-03     105.175E-03    -52.5955E-03     5.66844E-03    -52.5277E-03     104.483E-03    -52.5435E-03     5.65272E-03
             181    -119.501E-09     36.2004E-03    -55.1414E+06    -170.521E+06    -55.2725E+06    -117.268E+03    -52.4225E-03     104.775E-03    -52.3525E-03     5.62240E-03    -52.3709E-03     104.084E-03    -52.3017E-03     5.60254E-03
             182     201.418E-09     35.1483E-03    -55.8676E+06    -171.052E+06    -55.8779E+06     39.2856E+03    -52.2079E-03     104.298E-03    -52.0899E-03     5.45030E-03    -52.1582E-03     103.606E-03    -52.0403E-03     5.43271E-03
             183    -95.8414E-09     34.0970E-03    -55.7594E+06    -170.920E+06    -55.6500E+06    -142.105E+03    -51.8554E-03     103.762E-03    -51.9069E-03     5.35150E-03    -51.8057E-03     103.070E-03    -51.8564E-03     5.33162E-03
             184    -109.963E-09     33.0462E-03    -55.0116E+06    -170.267E+06    -55.2640E+06    -131.133E+03    -51.5863E-03     103.307E-03    -51.7210E-03     5.28805E-03    -51.5343E-03     102.617E-03    -51.6707E-03     5.26853E-03
             185     69.5444E-09     31.9952E-03    -55.4925E+06    -170.435E+06    -55.5277E+06     142.574E+03    -51.3516E-03     102.677E-03    -51.3253E-03     5.31344E-03    -51.3013E-03     101.987E-03    -51.2754E-03     5.29804E-03
             186     2.06044E-09     30.9460E-03    -55.5231E+06    -170.227E+06    -55.3055E+06     151.528E+03    -50.9649E-03     101.862E-03    -50.8971E-03     5.24158E-03    -50.9155E-03     101.173E-03    -50.8463E-03     5.22651E-03
             187     31.6767E-09     29.8972E-03    -55.2908E+06    -169.838E+06    -55.2613E+06     212.041E+03    -50.5420E-03     101.083E-03    -50.5411E-03     5.10336E-03    -50.4920E-03     100.395E-03    -50.4909E-03     5.08967E-03
             188    -75.7739E-09     28.8491E-03    -54.9530E+06    -169.248E+06    -55.0469E+06     105.336E+03    -50.1520E-03     100.292E-03    -50.1398E-03     5.02144E-03    -50.1014E-03     99.6060E-03    -50.0900E-03     5.00660E-03
             189     127.682E-09     27.8021E-03    -54.5330E+06    -168.589E+06    -54.6524E+06    -38.6789E+03    -49.7194E-03     99.3575E-03    -49.6381E-03     4.86454E-03    -49.6683E-03     98.6738E-03    -49.5878E-03     4.84793E-03
             190    -52.7598E-09     26.7561E-03    -54.3121E+06    -168.141E+06    -54.6494E+06     415.530E+03    -49.1435E-03     98.2559E-03    -49.1124E-03     4.77435E-03    -49.0919E-03     97.5740E-03    -49.0631E-03     4.76433E-03
             191     16.5487E-09     25.7112E-03     -54.416E+06    -167.626E+06    -54.3142E+06     371.334E+03    -48.5711E-03     97.1325E-03    -48.5614E-03     4.67733E-03    -48.5213E-03     96.4530E-03    -48.5111E-03     4.66741E-03
             192     26.9766E-09     24.6677E-03    -54.0666E+06    -166.921E+06    -54.0542E+06    -95.1481E+03    -48.0339E-03     96.0108E-03    -47.9768E-03     4.51218E-03    -47.9837E-03     95.3338E-03    -47.9267E-03     4.49651E-03
             193     17.9352E-09     23.6253E-03    -54.2027E+06    -166.570E+06    -54.1941E+06     108.753E+03    -47.5407E-03     94.9362E-03    -47.3955E-03     4.36407E-03    -47.4915E-03     94.2614E-03    -47.3464E-03     4.35116E-03
             194     177.386E-09     22.5839E-03    -54.3284E+06    -165.996E+06    -54.0643E+06     322.016E+03    -47.0701E-03     93.9008E-03    -46.8308E-03     4.25517E-03    -47.0225E-03     93.2289E-03    -46.7816E-03     4.24557E-03
             195     32.6094E-09     21.5436E-03    -53.8485E+06    -164.885E+06    -53.6551E+06     551.346E+03    -46.4873E-03     92.7840E-03    -46.2967E-03     4.12268E-03    -46.4395E-03     92.1163E-03    -46.2478E-03     4.11672E-03
             196     78.9975E-09     20.5045E-03    -52.7568E+06    -162.675E+06    -52.5043E+06     395.293E+03    -45.8487E-03     91.6136E-03    -45.7649E-03     4.01095E-03    -45.8003E-03     90.9537E-03    -45.7151E-03     4.00336E-03
             197    -51.5771E-09     19.4665E-03    -52.4893E+06    -161.346E+06    -52.7936E+06     514.082E+03    -45.2522E-03     90.3982E-03    -45.1460E-03     3.78729E-03    -45.2039E-03     89.7449E-03    -45.0999E-03     3.78176E-03
             198     196.490E-09     18.4302E-03    -51.8642E+06    -159.472E+06    -51.9029E+06     647.238E+03    -44.5688E-03     89.0268E-03    -44.4581E-03     3.52567E-03    -44.5214E-03     88.3807E-03    -44.4111E-03     3.52220E-03
             199    -157.233E-09     17.3950E-03    -50.1023E+06    -156.652E+06    -50.3370E+06     341.597E+03    -43.6428E-03     87.2699E-03    -43.6271E-03     3.10850E-03    -43.5930E-03     86.6330E-03    -43.5790E-03     3.10178E-03
             200     137.880E-09     16.3625E-03    -49.0233E+06    -154.182E+06    -49.1879E+06     673.940E+03    -42.5449E-03     85.0326E-03    -42.4877E-03     2.60226E-03    -42.4949E-03     84.4048E-03    -42.4389E-03     2.60132E-03
             201    -24.4684E-09     15.3319E-03    -46.9774E+06    -150.498E+06    -46.9217E+06     1.02782E+06    -41.1476E-03     82.1914E-03    -41.0438E-03     2.09548E-03    -41.0960E-03     81.5757E-03    -40.9921E-03     2.10053E-03
             202     89.3727E-09     14.3050E-03    -44.1513E+06    -146.365E+06    -44.1823E+06     1.31361E+06    -39.3785E-03     78.6338E-03    -39.2552E-03     1.52159E-03    -39.3228E-03     78.0306E-03    -39.1999E-03     1.53170E-03
             203     58.8221E-09     13.2821E-03    -41.0899E+06    -141.850E+06    -41.0634E+06     1.35652E+06    -37.3109E-03     74.4272E-03    -37.1162E-03     950.919E-06    -37.2510E-03     73.8375E-03    -37.0563E-03     962.854E-06
             204     132.193E-09     12.2635E-03    -38.3399E+06    -137.116E+06    -38.2009E+06     1.39827E+06    -34.9767E-03     69.7390E-03    -34.7623E-03     635.310E-06    -34.9141E-03     69.1648E-03    -34.6989E-03     648.489E-06
             205     52.8157E-09     11.2499E-03    -36.6605E+06    -133.427E+06    -36.2324E+06     837.420E+03    -32.6217E-03     65.1247E-03    -32.5030E-03     632.078E-06    -32.5589E-03     64.5638E-03    -32.4375E-03     638.145E-06
             206    -25.0794E-09     10.2408E-03    -35.4977E+06    -130.957E+06    -35.5491E+06     353.914E+03    -30.7209E-03     61.3401E-03    -30.6191E-03     769.896E-06    -30.6568E-03     60.7889E-03    -30.5555E-03     769.715E-06
             207     174.948E-09     9.23471E-03    -35.7881E+06    -129.924E+06    -35.2626E+06     105.065E+03    -29.6186E-03     59.1613E-03    -29.5427E-03     1.17030E-03    -29.5578E-03     58.6154E-03    -29.4787E-03     1.16705E-03
             208    -187.098E-09     8.23025E-03    -36.4275E+06    -130.775E+06    -35.7934E+06    -517.194E+03    -29.7895E-03     59.4851E-03    -29.6956E-03     1.69700E-03    -29.7299E-03     58.9366E-03    -29.6321E-03     1.68611E-03
             209     368.986E-09     7.22341E-03    -36.6061E+06    -132.822E+06    -36.4290E+06    -629.779E+03    -31.2916E-03     62.5091E-03    -31.2175E-03     2.38888E-03    -31.2291E-03     61.9514E-03    -31.1540E-03     2.37691E-03
             210    -420.406E-09     6.21246E-03    -35.6346E+06    -134.474E+06    -35.7077E+06    -294.497E+03    -33.7868E-03     67.7795E-03    -33.9927E-03     2.85760E-03    -33.7183E-03     67.2108E-03    -33.9245E-03     2.85042E-03
             211     113.270E-09     5.19547E-03    -33.8294E+06    -135.893E+06    -33.9229E+06    -348.669E+03    -37.3249E-03     74.7896E-03    -37.4646E-03     2.91040E-03    -37.2481E-03     74.2084E-03    -37.3882E-03     2.90267E-03
             212    -48.7927E-09     4.17001E-03    -31.9321E+06    -137.583E+06    -31.9111E+06    -547.945E+03    -41.2254E-03     82.5185E-03    -41.2931E-03     2.93467E-03    -41.1394E-03     81.9233E-03    -41.2069E-03     2.92440E-03
             213    -130.394E-09     3.13703E-03    -29.3059E+06    -138.746E+06    -29.6836E+06    -93.8763E+03    -44.9971E-03     90.0885E-03    -45.0914E-03     2.65494E-03    -44.8994E-03     89.4806E-03    -44.9962E-03     2.65100E-03
             214     143.840E-09     2.09607E-03    -26.9325E+06    -139.026E+06    -27.0166E+06     44.8607E+03    -48.3151E-03     96.5486E-03    -48.2334E-03     2.01246E-03    -48.2085E-03     95.9321E-03    -48.1279E-03     2.01102E-03
             215    -18.5007E-09     1.04953E-03    -26.0063E+06    -139.752E+06    -25.9288E+06    -354.185E+03    -50.4656E-03     100.764E-03    -50.2981E-03     1.11267E-03    -50.3543E-03     100.141E-03    -50.1874E-03     1.10704E-03
             216     854.924E-06     111.022E-18    -25.8007E+06    -140.278E+06    -25.8395E+06    -296.900E+03    -51.2587E-03     102.354E-03    -51.0950E-03     955.518E-06    -51.1461E-03     101.727E-03    -50.9833E-03     950.650E-06
             217     1.70964E-03     111.022E-18    -25.3788E+06    -140.025E+06    -25.5243E+06    -183.720E+03    -51.4631E-03     102.697E-03    -51.2341E-03     1.79052E-03    -51.3498E-03     102.071E-03    -51.1219E-03     1.78608E-03
             218     2.56411E-03     111.022E-18    -24.9050E+06    -140.299E+06    -26.2749E+06    -613.970E+03    -51.8209E-03     103.183E-03    -51.3622E-03     2.59275E-03    -51.7039E-03     102.556E-03    -51.2540E-03     2.58153E-03
             219     3.41833E-03     111.022E-18    -24.3599E+06    -140.576E+06    -27.1676E+06    -770.799E+03    -52.3392E-03     103.870E-03    -51.5313E-03     3.45091E-03    -52.2178E-03     103.242E-03    -51.4280E-03     3.43610E-03
             220     4.27181E-03     111.022E-18    -24.0897E+06    -141.575E+06    -29.4696E+06    -700.130E+03    -53.0373E-03     104.783E-03    -51.7455E-03     4.42086E-03    -52.9098E-03     104.153E-03    -51.6527E-03     4.40535E-03
             221     5.12472E-03     111.022E-18    -23.2870E+06    -143.439E+06    -34.7719E+06    -2.05820E+06    -53.9045E-03     105.904E-03    -51.9991E-03     5.44212E-03    -53.7627E-03     105.271E-03    -51.9312E-03     5.40715E-03
             222     5.97683E-03     111.022E-18    -21.1338E+06    -140.776E+06    -42.0834E+06    -3.46768E+06    -54.9574E-03     107.247E-03    -52.2894E-03     6.53882E-03    -54.7982E-03     106.635E-03    -52.2650E-03     6.48322E-03
             223     6.82782E-03     111.022E-18    -18.0933E+06    -134.912E+06    -49.5784E+06    -4.48557E+06    -56.2740E-03     108.909E-03    -52.6348E-03     7.79678E-03    -56.0974E-03     108.333E-03    -52.6608E-03     7.72490E-03
             224     7.67767E-03     111.022E-18    -13.8835E+06    -123.894E+06    -55.1610E+06    -6.02542E+06    -57.8404E-03     110.891E-03    -53.0508E-03     9.15103E-03    -57.6508E-03     110.372E-03    -53.1268E-03     9.05480E-03
             225     8.52583E-03     111.022E-18    -8.19306E+06    -104.690E+06    -60.2973E+06    -6.94324E+06    -59.6524E-03     113.182E-03    -53.5294E-03     10.8877E-03    -59.4550E-03     112.758E-03    -53.6672E-03     10.7744E-03
             226     9.37220E-03     111.022E-18    -2.97075E+06    -81.2983E+06    -63.5237E+06    -6.31583E+06    -61.7707E-03     115.862E-03    -54.0918E-03     12.9449E-03    -61.5768E-03     115.554E-03    -54.2872E-03     12.8322E-03
             227     10.2166E-03     111.022E-18     1.52900E+06    -51.3697E+06    -60.1877E+06    -5.54277E+06    -64.2550E-03     119.023E-03    -54.7675E-03     15.3070E-03    -64.0876E-03     118.853E-03    -54.9962E-03     15.1937E-03
             228     11.0585E-03     111.022E-18     3.86171E+06    -12.0721E+06    -50.3279E+06    -2.89451E+06    -67.1882E-03     122.755E-03    -55.5671E-03     18.7416E-03    -67.0815E-03     122.765E-03    -55.8069E-03     18.6494E-03
             229     11.8962E-03     111.022E-18     2.51759E+06     31.2489E+06    -34.1458E+06     290.031E+03    -70.3279E-03     126.832E-03    -56.5042E-03     22.8417E-03    -70.3167E-03     127.040E-03    -56.7239E-03     22.7633E-03
             230     12.7326E-03     111.022E-18    -152.270E+03     61.5324E+06    -10.1895E+06     825.441E+03    -74.0940E-03     131.708E-03    -57.6140E-03     27.3419E-03    -74.1787E-03     132.040E-03    -57.7540E-03     27.2304E-03
             231     13.5644E-03     111.022E-18    -403.693E+03     78.5662E+06     20.2377E+06     7.48866E+03    -79.6623E-03     138.599E-03    -58.9365E-03     34.5977E-03    -79.8241E-03     138.979E-03    -58.9487E-03     34.4233E-03
             232     14.3872E-03     111.022E-18     3.45791E+06     93.9695E+06     57.7945E+06    -4.46980E+06    -85.9012E-03     146.405E-03    -60.5036E-03     48.9304E-03    -86.1367E-03     146.814E-03    -60.3559E-03     48.6251E-03
             233     15.1975E-03     111.022E-18     7.68114E+06     107.723E+06     88.0832E+06    -986.116E+03    -92.8580E-03     155.124E-03    -62.2665E-03     80.7064E-03    -93.2386E-03     155.646E-03    -61.9934E-03     80.1106E-03
             234     15.9923E-03     111.022E-18     2.29552E+06     108.139E+06     88.1960E+06     8.55178E+06    -101.467E-03     165.669E-03    -64.2021E-03     123.743E-03    -102.195E-03     166.513E-03    -63.9213E-03     122.552E-03
             235     16.9166E-03     1.13728E-03    -881.681E+03     109.430E+06     79.8807E+06     8.81668E+06    -99.6018E-03     161.903E-03    -62.3015E-03     120.464E-03    -100.586E-03     163.032E-03    -62.0595E-03     118.890E-03
             236     16.9857E-03     2.24444E-03     669.450E+03     115.680E+06     80.3098E+06     4.65921E+06    -102.746E-03     160.427E-03    -57.6812E-03     78.5036E-03    -103.684E-03     161.550E-03    -57.4484E-03     76.6975E-03
             237     17.0147E-03     3.37216E-03    -944.920E+03     116.057E+06     81.7337E+06     3.30052E+06    -116.107E-03     171.261E-03    -55.1533E-03     48.6875E-03    -116.929E-03     172.256E-03    -54.9115E-03     46.5725E-03
             238     17.0354E-03     4.50088E-03    -3.02522E+06     116.390E+06     82.2560E+06     1.32279E+06    -120.529E-03     174.447E-03    -53.9183E-03     32.1970E-03    -121.287E-03     175.368E-03    -53.6714E-03     29.9720E-03
             239     17.0406E-03     5.63012E-03    -2.72147E+06     119.162E+06     85.1946E+06     1.07090E+06    -117.334E-03     170.765E-03    -53.4317E-03     22.4908E-03    -118.051E-03     171.651E-03    -53.1746E-03     20.4024E-03
             240     17.0477E-03     6.76005E-03    -1.54368E+06     121.566E+06     87.3285E+06     1.79437E+06    -107.301E-03     160.702E-03    -53.4011E-03     22.4114E-03    -108.043E-03     161.618E-03    -53.1385E-03     20.5789E-03
             241     17.0470E-03     7.86374E-03    -2.57202E+06     121.524E+06     86.3208E+06     828.081E+03    -98.2408E-03     151.744E-03    -53.5031E-03     23.6980E-03    -99.0215E-03     152.696E-03    -53.2440E-03     22.0585E-03
             242     17.0490E-03     8.96634E-03    -1.94955E+06     122.884E+06     87.1025E+06     519.955E+03    -91.4074E-03     145.023E-03    -53.6158E-03     23.1064E-03    -92.1984E-03     145.991E-03    -53.3557E-03     21.6687E-03
             243     17.0494E-03     10.0606E-03    -2.13670E+06     123.695E+06     87.0066E+06     449.238E+03    -84.8885E-03     138.602E-03    -53.7140E-03     27.2544E-03    -85.7237E-03     139.617E-03    -53.4553E-03     26.0012E-03
             244     17.0507E-03     11.1505E-03    -1.26245E+06     125.137E+06     87.4470E+06     889.406E+03    -78.8414E-03     132.627E-03    -53.7851E-03     28.7771E-03    -79.6978E-03     133.669E-03    -53.5275E-03     27.7193E-03
             245     17.0529E-03     12.2270E-03    -2.74420E+06     125.025E+06     86.5479E+06    -378.866E+03    -75.0780E-03     128.891E-03    -53.8135E-03     30.2541E-03    -75.9709E-03     129.968E-03    -53.5580E-03     29.3199E-03
             246     17.0514E-03     13.3105E-03    -4.17605E+06     125.149E+06     85.9161E+06     1.00719E+06    -73.1300E-03     126.940E-03    -53.8096E-03     32.5765E-03    -74.0596E-03     128.050E-03    -53.5554E-03     31.7545E-03
             247     17.0557E-03     14.3866E-03    -1.74330E+06     128.078E+06     88.0760E+06     1.08012E+06    -69.1474E-03     122.945E-03    -53.7974E-03     34.9310E-03    -70.0994E-03     124.090E-03    -53.5402E-03     34.2294E-03
             248     17.0563E-03     15.4556E-03    -1.50636E+06     129.163E+06     88.7486E+06    -324.067E+03    -68.1296E-03     121.870E-03    -53.7402E-03     36.9343E-03    -69.1077E-03     123.044E-03    -53.4815E-03     36.2742E-03
             249     17.0563E-03     16.5344E-03    -2.37822E+06     129.232E+06     88.4620E+06     886.058E+03    -67.6274E-03     121.332E-03    -53.7046E-03     38.3499E-03    -68.6329E-03     122.532E-03    -53.4462E-03     37.7543E-03
             250     17.0588E-03     17.6013E-03    -1.73985E+06     130.210E+06     89.3023E+06     427.089E+03    -65.0440E-03     118.737E-03    -53.6932E-03     39.8815E-03    -66.0900E-03     119.980E-03    -53.4330E-03     39.3658E-03
             251     17.0590E-03     18.6703E-03    -2.08882E+06     130.161E+06     89.4509E+06     -26.824E+03    -65.5680E-03     119.196E-03    -53.6282E-03     42.3491E-03    -66.6539E-03     120.478E-03    -53.3666E-03     41.8357E-03
             252     17.0597E-03     19.7443E-03    -1.55305E+06     130.650E+06     89.9384E+06     271.284E+03    -64.2757E-03     117.882E-03    -53.6065E-03     44.4452E-03    -65.3894E-03     119.194E-03    -53.3440E-03     43.9896E-03
             253     17.0619E-03     20.8107E-03    -2.31578E+06     130.850E+06     89.6706E+06    -62.4824E+03    -61.9158E-03     115.542E-03    -53.6265E-03     50.0738E-03    -63.1151E-03     116.938E-03    -53.3646E-03     49.7108E-03
             254     17.0596E-03     21.8788E-03    -3.78870E+06     131.441E+06     89.4112E+06     675.948E+03    -62.9811E-03     116.578E-03    -53.5970E-03     54.5476E-03    -64.2526E-03     118.044E-03    -53.3350E-03     54.1822E-03
             255     17.0623E-03     22.9466E-03    -2.86240E+06     132.816E+06     90.3495E+06     455.205E+03    -61.8288E-03     115.438E-03    -53.6096E-03     53.7581E-03    -63.0952E-03     116.904E-03    -53.3463E-03     53.4316E-03
             256     17.0604E-03     24.0082E-03    -1.96569E+06     133.422E+06     90.9526E+06     276.972E+03    -59.0256E-03     112.688E-03    -53.6624E-03     52.8835E-03    -60.2808E-03     114.146E-03    -53.3983E-03     52.6646E-03
             257     17.0627E-03     25.0678E-03    -1.66741E+06     133.956E+06     91.6754E+06     -2.1135E+03    -58.3662E-03     112.019E-03    -53.6528E-03     54.0206E-03    -59.6366E-03     113.493E-03    -53.3862E-03     53.8364E-03
             258     17.0619E-03     26.1332E-03    -1.74948E+06     133.909E+06     91.9301E+06    -75.7759E+03    -58.5457E-03     112.163E-03    -53.6175E-03     56.1339E-03    -59.8508E-03     113.671E-03    -53.3495E-03     55.9533E-03
             259     17.0634E-03     27.1943E-03    -2.21349E+06     133.405E+06     91.5596E+06    -88.1984E+03    -57.9707E-03     111.588E-03    -53.6178E-03     55.4740E-03    -59.2806E-03     113.099E-03    -53.3502E-03     55.3254E-03
             260     17.0621E-03     28.2516E-03    -2.15890E+06     133.627E+06     91.7520E+06     392.844E+03    -57.0408E-03     110.678E-03    -53.6373E-03     53.6491E-03    -58.3293E-03     112.167E-03    -53.3691E-03     53.5529E-03
             261     17.0635E-03     29.3138E-03    -1.29226E+06     134.861E+06     92.5678E+06     513.355E+03    -55.5931E-03     109.242E-03    -53.6492E-03     54.9270E-03    -56.8893E-03     110.744E-03    -53.3800E-03     54.8782E-03
             262     17.0638E-03     30.3708E-03    -2.95340E+06     134.507E+06     91.6176E+06    -570.433E+03    -56.0406E-03     109.671E-03    -53.6306E-03     55.6675E-03    -57.3570E-03     111.189E-03    -53.3633E-03     55.6012E-03
             263     17.0622E-03     31.4293E-03    -2.61108E+06     134.185E+06     91.8102E+06     204.650E+03    -55.5928E-03     109.243E-03    -53.6503E-03     51.2025E-03    -56.8449E-03     110.696E-03    -53.3820E-03     51.1523E-03
             264     17.0645E-03     32.4852E-03    -1.14824E+06     134.073E+06     92.5890E+06     -33.452E+03    -53.3509E-03     107.050E-03    -53.6986E-03     48.5975E-03    -54.5539E-03     108.456E-03    -53.4284E-03     48.6021E-03
             265     17.0621E-03     33.5367E-03    -1.56239E+06     133.478E+06     92.3575E+06    -227.541E+03    -54.4444E-03     108.106E-03    -53.6619E-03     45.3406E-03    -55.6158E-03     109.478E-03    -53.3914E-03     45.3181E-03
             266     17.0651E-03     34.5947E-03    -2.58487E+06     132.668E+06     91.4121E+06    -211.311E+03    -55.7207E-03     109.338E-03    -53.6170E-03     43.2796E-03    -56.8708E-03     110.685E-03    -53.3485E-03     43.2260E-03
             267     17.0622E-03     35.6590E-03    -2.90961E+06     132.562E+06     91.0874E+06    -123.031E+03    -54.7065E-03     108.366E-03    -53.6591E-03     46.9047E-03    -55.8907E-03     109.746E-03    -53.3916E-03     46.8915E-03
             268     17.0640E-03     36.7148E-03    -1.70638E+06     133.521E+06     92.2473E+06     589.678E+03    -52.5747E-03     106.285E-03    -53.7104E-03     46.7187E-03    -53.7518E-03     107.663E-03    -53.4403E-03     46.7757E-03
             269     17.0637E-03     37.7620E-03    -2.19254E+06     133.516E+06     92.0454E+06    -244.190E+03    -52.9895E-03     106.675E-03    -53.6851E-03     44.5252E-03    -54.1426E-03     108.027E-03    -53.4153E-03     44.5607E-03
             270     17.0634E-03     38.8271E-03    -2.87984E+06     133.376E+06     91.4810E+06    -102.545E+03    -54.2733E-03     107.933E-03    -53.6596E-03     46.0148E-03    -55.4407E-03     109.298E-03    -53.3914E-03     46.0197E-03
             271     17.0637E-03     39.8821E-03    -2.58362E+06     133.692E+06     91.7835E+06     195.885E+03    -52.5475E-03     106.251E-03    -53.7032E-03     45.4153E-03    -53.7148E-03     107.617E-03    -53.4344E-03     45.4809E-03
             272     17.0634E-03     40.9325E-03    -2.77584E+06     133.357E+06     91.7483E+06    -190.795E+03    -52.6107E-03     106.312E-03    -53.7014E-03     44.9526E-03    -53.7858E-03     107.685E-03    -53.4320E-03     45.0231E-03
             273     17.0636E-03     41.9925E-03    -2.64998E+06     133.444E+06     91.9166E+06     356.330E+03    -54.1477E-03     107.821E-03    -53.6731E-03     45.8413E-03    -55.3382E-03     109.209E-03    -53.4031E-03     45.8810E-03
             274     17.0628E-03     43.0523E-03    -1.81184E+06     134.715E+06     92.9037E+06     332.082E+03    -51.9296E-03     105.656E-03    -53.7266E-03     48.0882E-03    -53.1445E-03     107.074E-03    -53.4548E-03     48.2001E-03
             275     17.0647E-03     44.1034E-03    -2.64675E+06     134.201E+06     92.3377E+06    -454.251E+03    -51.0619E-03     104.801E-03    -53.7390E-03     50.1707E-03    -52.3062E-03     106.244E-03    -53.4680E-03     50.3057E-03
             276     17.0623E-03     45.1571E-03    -2.90737E+06     133.440E+06     91.8970E+06    -254.319E+03    -52.8579E-03     106.561E-03    -53.7034E-03     46.3450E-03    -54.0562E-03     107.957E-03    -53.4332E-03     46.4101E-03
             277     17.0643E-03     46.2123E-03    -2.78743E+06     133.178E+06     91.8094E+06     36.1750E+03    -53.1057E-03     106.810E-03    -53.7041E-03     46.0423E-03    -54.2884E-03     108.189E-03    -53.4341E-03     46.0978E-03
             278     17.0623E-03     47.2715E-03    -1.58695E+06     133.707E+06     92.6633E+06     320.249E+03    -52.1560E-03     105.876E-03    -53.7196E-03     47.5846E-03    -53.3538E-03     107.274E-03    -53.4479E-03     47.6754E-03
             279     17.0651E-03     48.3232E-03    -2.04432E+06     133.331E+06     92.3494E+06    -355.458E+03    -51.6391E-03     105.354E-03    -53.7146E-03     47.5314E-03    -52.8457E-03     106.759E-03    -53.4432E-03     47.6359E-03
             280     17.0626E-03     49.3777E-03    -4.35241E+06     131.748E+06     90.5912E+06    -773.112E+03    -52.8874E-03     106.583E-03    -53.6953E-03     46.9210E-03    -54.0949E-03     107.980E-03    -53.4271E-03     46.9925E-03
             281     17.0637E-03     50.4373E-03    -3.22557E+06     132.403E+06     91.5077E+06     601.724E+03    -52.9977E-03     106.714E-03    -53.7160E-03     47.2070E-03    -54.2028E-03     108.112E-03    -53.4458E-03     47.2860E-03
             282     17.0627E-03     51.4890E-03    -1.15824E+06     134.132E+06     93.3329E+06      743.52E+03    -51.5363E-03     105.276E-03    -53.7397E-03     46.8528E-03    -52.7249E-03     106.666E-03    -53.4659E-03     46.9545E-03
             283     17.0648E-03     52.5441E-03    -1.39941E+06     134.156E+06     93.1266E+06    -172.614E+03    -51.8131E-03     105.533E-03    -53.7203E-03     46.5896E-03    -52.9992E-03     106.921E-03    -53.4472E-03     46.6650E-03
             284     17.0623E-03     53.5985E-03    -1.65199E+06     134.207E+06     93.0491E+06     55.8791E+03    -52.6086E-03     106.316E-03    -53.7074E-03     44.2295E-03    -53.7759E-03     107.684E-03    -53.4344E-03     44.2905E-03
             285     17.0646E-03     54.6520E-03    -2.16504E+06     134.389E+06     92.9613E+06     -25.268E+03    -52.4569E-03     106.158E-03    -53.7008E-03     43.9573E-03    -53.6239E-03     107.525E-03    -53.4277E-03     44.0277E-03
             286     17.0632E-03     55.7106E-03    -2.73762E+06     134.214E+06     92.4403E+06     177.982E+03    -53.1973E-03     106.882E-03    -53.6852E-03     46.3692E-03    -54.3898E-03     108.274E-03    -53.4136E-03     46.4293E-03
             287     17.0635E-03     56.7685E-03    -1.10124E+06     135.907E+06     93.7247E+06     1.15059E+06    -51.4870E-03     105.208E-03    -53.7208E-03     45.1435E-03    -52.6576E-03     106.585E-03    -53.4476E-03     45.2529E-03
             288     17.0650E-03     57.8150E-03    -2.79864E+06     135.743E+06     92.9481E+06    -771.433E+03    -51.6841E-03     105.404E-03    -53.7196E-03     45.9938E-03    -52.8821E-03     106.804E-03    -53.4476E-03     46.0861E-03
             289     17.0613E-03     58.8782E-03    -4.45132E+06     135.184E+06     91.9080E+06    -120.956E+03    -54.6578E-03     108.344E-03    -53.6858E-03     46.8550E-03    -55.8739E-03     109.757E-03    -53.4158E-03     46.8788E-03
             290     17.0642E-03     59.9345E-03    -2.73378E+06     136.626E+06     93.0560E+06     840.861E+03    -52.0569E-03     105.791E-03    -53.7337E-03     45.9612E-03    -53.2376E-03     107.177E-03    -53.4626E-03     46.0525E-03
             291     17.0635E-03     60.9846E-03    -1.99294E+06     136.516E+06     93.6178E+06    -713.146E+03    -50.6935E-03     104.454E-03    -53.7606E-03     43.5712E-03    -51.8473E-03     105.814E-03    -53.4876E-03     43.6934E-03
             292     852.940E-06     61.5179E-03    -54.6114E+06    -169.838E+06    -53.3034E+06     196.666E+03    -53.8249E-03     107.612E-03    -53.7869E-03     9.75841E-03    -53.7757E-03     106.921E-03    -53.7279E-03     9.72761E-03
             293     1.70580E-03     61.5315E-03    -52.9232E+06    -166.448E+06    -47.9368E+06    -165.377E+03    -53.8527E-03     107.664E-03    -53.8112E-03     17.8459E-03    -53.8111E-03     106.983E-03    -53.7328E-03     17.7804E-03
             294     2.55874E-03     61.5538E-03    -50.2372E+06    -161.667E+06    -40.6572E+06    -340.546E+03    -53.9142E-03     107.741E-03    -53.8269E-03     26.3191E-03    -53.8825E-03     107.075E-03    -53.7229E-03     26.2168E-03
             295     3.41177E-03     61.5844E-03    -46.9100E+06    -155.972E+06    -32.1350E+06    -153.726E+03    -54.0224E-03     107.867E-03    -53.8446E-03     34.6669E-03    -54.0036E-03     107.221E-03    -53.7111E-03     34.5277E-03
             296     4.26471E-03     61.6234E-03    -43.1964E+06    -146.179E+06    -23.5640E+06     174.712E+03    -54.1683E-03     108.026E-03    -53.8580E-03     42.8246E-03    -54.1704E-03     107.424E-03    -53.7012E-03     42.6442E-03
             297     5.11771E-03     61.6704E-03    -39.2769E+06    -137.169E+06    -16.1392E+06     128.868E+03    -54.3281E-03     108.196E-03    -53.8675E-03     50.6646E-03    -54.3525E-03     107.640E-03    -53.6924E-03     50.4309E-03
             298     5.97068E-03     61.7251E-03    -35.4677E+06    -131.386E+06    -9.79596E+06     44.5746E+03    -54.5092E-03     108.385E-03    -53.8760E-03     58.2317E-03    -54.5565E-03     107.869E-03    -53.6831E-03     57.9358E-03
             299     6.82376E-03     61.7873E-03    -31.9723E+06    -123.603E+06    -4.77163E+06     172.423E+03    -54.7085E-03     108.584E-03    -53.8753E-03     65.5335E-03    -54.7894E-03     108.126E-03    -53.6736E-03     65.1691E-03
             300     7.67672E-03     61.8565E-03    -28.8459E+06    -112.896E+06    -2.98197E+06     133.333E+03    -54.9017E-03     108.756E-03    -53.8546E-03     72.5090E-03    -55.0279E-03     108.388E-03    -53.6640E-03     72.0641E-03
             301     8.52986E-03     61.9327E-03    -26.0698E+06    -100.390E+06    -2.19865E+06     120.472E+03    -55.0878E-03     108.914E-03    -53.8259E-03     79.2294E-03    -55.2759E-03     108.659E-03    -53.6535E-03     78.6927E-03
             302     9.38291E-03     62.0152E-03    -23.6621E+06    -87.6797E+06    -194.445E+03     305.236E+03    -55.2843E-03     109.087E-03    -53.8026E-03     86.0933E-03    -55.5584E-03     108.966E-03    -53.6421E-03     85.4527E-03
             303     10.2361E-03     62.1049E-03    -21.7071E+06    -73.6687E+06    -329.251E+03     295.537E+03    -55.4966E-03     109.264E-03    -53.7678E-03     92.9786E-03    -55.8851E-03     109.315E-03    -53.6311E-03     92.2151E-03
             304     11.0892E-03     62.2012E-03    -20.2000E+06    -53.9562E+06    -875.189E+03     288.364E+03    -55.6342E-03     109.359E-03    -53.7248E-03     98.6013E-03    -56.1808E-03     109.645E-03    -53.6216E-03     97.6978E-03
             305     11.9422E-03     62.3023E-03    -18.7824E+06    -25.7704E+06     925.491E+03     150.454E+03    -55.7601E-03     109.441E-03    -53.6812E-03     106.020E-03    -56.5477E-03     110.068E-03    -53.6119E-03     104.955E-03
             306     12.7960E-03     62.4138E-03    -18.5511E+06     13.9433E+06    -1.06474E+06     207.061E+03    -56.3790E-03     109.988E-03    -53.6092E-03     120.004E-03    -57.6136E-03     111.210E-03    -53.6078E-03     118.719E-03
             307     13.6467E-03     62.5426E-03    -18.0104E+06     69.8126E+06     2.36846E+06     626.924E+03    -56.8915E-03     110.431E-03    -53.5394E-03     141.755E-03    -58.9530E-03     112.669E-03    -53.6027E-03     140.237E-03
             308     14.5031E-03     62.6985E-03    -15.1589E+06     115.660E+06     34.2934E+06    -9.21313E+03    -57.2880E-03     110.893E-03    -53.6052E-03     165.094E-03    -60.5401E-03     114.403E-03    -53.5794E-03     163.559E-03
             309     15.3539E-03     62.8747E-03    -10.7505E+06     140.758E+06     80.0873E+06    -272.424E+03    -56.0549E-03     109.789E-03    -53.7341E-03     173.099E-03    -60.3886E-03     114.352E-03    -53.5221E-03     172.281E-03
             310     16.2106E-03     63.0468E-03    -5.14600E+06     145.230E+06     97.5866E+06     675.859E+03    -53.7105E-03     107.446E-03    -53.7356E-03     111.015E-03    -56.7174E-03     110.667E-03    -53.4508E-03     110.973E-03
             311     852.817E-06     62.5731E-03    -54.4639E+06    -169.915E+06    -53.3915E+06    -55.4869E+03    -53.8466E-03     107.692E-03    -53.8452E-03     9.70333E-03    -53.7964E-03     107.000E-03    -53.7868E-03     9.66897E-03
             312     1.70580E-03     62.5868E-03    -52.5111E+06    -166.184E+06    -47.6761E+06     37.8090E+03    -53.8478E-03     107.690E-03    -53.8422E-03     17.8652E-03    -53.8049E-03     107.009E-03    -53.7634E-03     17.8024E-03
             313     2.55874E-03     62.6090E-03    -50.0054E+06    -161.564E+06    -40.4541E+06     46.2607E+03    -53.9338E-03     107.782E-03    -53.8484E-03     26.3248E-03    -53.9014E-03     107.116E-03    -53.7439E-03     26.2274E-03
             314     3.41166E-03     62.6397E-03    -46.9865E+06    -156.196E+06    -32.3134E+06     81.1247E+03    -54.0478E-03     107.913E-03    -53.8652E-03     34.6660E-03    -54.0288E-03     107.266E-03    -53.7322E-03     34.5297E-03
             315     4.26464E-03     62.6787E-03    -43.1431E+06    -146.213E+06    -23.6524E+06    -40.4707E+03    -54.1696E-03     108.047E-03    -53.8772E-03     42.8343E-03    -54.1713E-03     107.445E-03    -53.7209E-03     42.6513E-03
             316     5.11761E-03     62.7257E-03    -38.9917E+06    -137.180E+06    -16.3300E+06    -35.2870E+03    -54.3253E-03     108.207E-03    -53.8822E-03     50.6979E-03    -54.3479E-03     107.652E-03    -53.7084E-03     50.4622E-03
             317     5.97063E-03     62.7804E-03    -35.2696E+06    -131.515E+06    -9.79694E+06     139.228E+03    -54.5116E-03     108.401E-03    -53.8892E-03     58.2733E-03    -54.5577E-03     107.883E-03    -53.6963E-03     57.9787E-03
             318     6.82364E-03     62.8425E-03    -31.7609E+06    -123.679E+06    -4.59892E+06     159.811E+03    -54.7009E-03     108.588E-03    -53.8870E-03     65.5778E-03    -54.7809E-03     108.129E-03    -53.6846E-03     65.2135E-03
             319     7.67672E-03     62.9119E-03    -28.5600E+06    -112.794E+06    -2.75674E+06     150.932E+03    -54.8983E-03     108.762E-03    -53.8640E-03     72.5545E-03    -55.0236E-03     108.394E-03    -53.6728E-03     72.1100E-03
             320     8.52974E-03     62.9878E-03    -26.1158E+06    -100.550E+06    -2.15066E+06     141.723E+03    -55.0864E-03     108.920E-03    -53.8339E-03     79.2519E-03    -55.2747E-03     108.665E-03    -53.6610E-03     78.7154E-03
             321     9.38290E-03     63.0706E-03    -24.0236E+06    -87.8936E+06    -339.446E+03     244.436E+03    -55.3232E-03     109.134E-03    -53.8112E-03     86.0942E-03    -55.5988E-03     109.014E-03    -53.6506E-03     85.4522E-03
             322     10.2359E-03     63.1601E-03    -22.1527E+06    -73.6321E+06    -483.271E+03     375.994E+03    -55.5707E-03     109.351E-03    -53.7802E-03     92.9538E-03    -55.9615E-03     109.403E-03    -53.6437E-03     92.1900E-03
             323     11.0888E-03     63.2568E-03    -20.5032E+06    -53.8059E+06    -951.956E+03     280.607E+03    -55.6857E-03     109.427E-03    -53.7410E-03     98.7397E-03    -56.2343E-03     109.714E-03    -53.6380E-03     97.8355E-03
             324     11.9419E-03     63.3577E-03    -19.2560E+06    -26.1010E+06     383.246E+03     432.473E+03    -55.8554E-03     109.555E-03    -53.6995E-03     106.272E-03    -56.6471E-03     110.184E-03    -53.6318E-03     105.208E-03
             325     12.7945E-03     63.4689E-03    -17.8426E+06     13.3923E+06    -1.37827E+06     1.18335E+06    -56.2110E-03     109.832E-03    -53.6212E-03     120.813E-03    -57.4360E-03     111.045E-03    -53.6217E-03     119.551E-03
             326     13.6492E-03     63.5997E-03    -16.0539E+06     70.7368E+06     4.05016E+06     881.186E+03    -56.8717E-03     110.418E-03    -53.5466E-03     142.579E-03    -58.9349E-03     112.664E-03    -53.6057E-03     141.069E-03
             327     14.5001E-03     63.7514E-03    -14.6433E+06     116.886E+06     35.4106E+06    -199.824E+03    -57.3438E-03     110.952E-03    -53.6080E-03     165.980E-03    -60.6042E-03     114.472E-03    -53.5792E-03     164.449E-03
             328     15.3565E-03     63.9320E-03    -10.9690E+06     139.664E+06     79.0768E+06    -52.0385E+03    -56.7443E-03     110.493E-03    -53.7488E-03     172.784E-03    -61.0561E-03     115.033E-03    -53.5400E-03     171.926E-03
             329     16.2089E-03     64.0981E-03    -4.91419E+06     144.590E+06     97.0301E+06     209.719E+03    -53.6935E-03     107.464E-03    -53.7702E-03     111.793E-03    -56.7098E-03     110.695E-03    -53.4876E-03     111.715E-03
             330     852.840E-06     63.6285E-03    -54.3320E+06    -169.691E+06    -53.1473E+06    -306.854E+03    -53.8824E-03     107.699E-03    -53.8166E-03     9.71818E-03    -53.8323E-03     107.008E-03    -53.7575E-03     9.68064E-03
             331     1.70574E-03     63.6421E-03    -52.5670E+06    -166.448E+06    -48.0072E+06    -51.9654E+03    -53.8852E-03     107.736E-03    -53.8509E-03     17.8839E-03    -53.8418E-03     107.054E-03    -53.7734E-03     17.8199E-03
             332     2.55868E-03     63.6644E-03    -49.7675E+06    -161.826E+06    -40.9255E+06     286.600E+03    -53.9627E-03     107.827E-03    -53.8641E-03     26.3333E-03    -53.9281E-03     107.160E-03    -53.7619E-03     26.2389E-03
             333     3.41158E-03     63.6950E-03    -46.3148E+06    -155.916E+06    -32.2172E+06     123.044E+03    -54.0651E-03     107.948E-03    -53.8832E-03     34.6912E-03    -54.0433E-03     107.302E-03    -53.7510E-03     34.5554E-03
             334     4.26452E-03     63.7340E-03    -42.6099E+06    -145.985E+06    -23.5859E+06    -161.701E+03    -54.1589E-03     108.051E-03    -53.8917E-03     42.8640E-03    -54.1583E-03     107.449E-03    -53.7362E-03     42.6796E-03
             335     5.11758E-03     63.7810E-03    -39.0555E+06    -137.503E+06    -16.7463E+06    -42.9111E+03    -54.3053E-03     108.196E-03    -53.8904E-03     50.7535E-03    -54.3271E-03     107.639E-03    -53.7182E-03     50.5180E-03
             336     5.97059E-03     63.8357E-03    -35.3637E+06    -131.601E+06    -10.0241E+06     94.8356E+03    -54.5065E-03     108.401E-03    -53.8944E-03     58.3343E-03    -54.5526E-03     107.883E-03    -53.7024E-03     58.0394E-03
             337     6.82360E-03     63.8979E-03    -31.7871E+06    -123.648E+06    -4.68538E+06     102.903E+03    -54.6948E-03     108.586E-03    -53.8910E-03     65.6215E-03    -54.7748E-03     108.128E-03    -53.6890E-03     65.2566E-03
             338     7.67668E-03     63.9671E-03    -28.7845E+06    -113.051E+06    -2.86077E+06     261.237E+03    -54.8896E-03     108.757E-03    -53.8671E-03     72.6090E-03    -55.0154E-03     108.387E-03    -53.6758E-03     72.1661E-03
             339     8.52976E-03     64.0433E-03    -26.2669E+06    -100.440E+06    -2.07527E+06     384.073E+03    -55.1242E-03     108.962E-03    -53.8382E-03     79.3040E-03    -55.3137E-03     108.708E-03    -53.6648E-03     78.7702E-03
             340     9.38276E-03     64.1257E-03    -24.1100E+06    -88.0991E+06    -366.069E+03     362.418E+03    -55.3501E-03     109.168E-03    -53.8176E-03     86.2111E-03    -55.6261E-03     109.046E-03    -53.6568E-03     85.5704E-03
             341     10.2357E-03     64.2159E-03    -22.1647E+06    -73.7443E+06    -603.102E+03     437.907E+03    -55.5221E-03     109.306E-03    -53.7839E-03     93.1832E-03    -55.9123E-03     109.357E-03    -53.6478E-03     92.4221E-03
             342     11.0889E-03     64.3118E-03    -20.6430E+06    -53.8936E+06    -997.925E+03     477.146E+03    -55.6342E-03     109.374E-03    -53.7399E-03     99.0860E-03    -56.1838E-03     109.662E-03    -53.6368E-03     98.1856E-03
             343     11.9421E-03     64.4133E-03    -19.1238E+06    -26.4789E+06     305.468E+03     529.720E+03    -55.7653E-03     109.457E-03    -53.6915E-03     106.795E-03    -56.5557E-03     110.084E-03    -53.6238E-03     105.735E-03
             344     12.7955E-03     64.5247E-03    -17.3439E+06     13.2408E+06    -1.06883E+06     565.993E+03    -55.9161E-03     109.517E-03    -53.6007E-03     120.965E-03    -57.1344E-03     110.724E-03    -53.6001E-03     119.707E-03
             345     13.6486E-03     64.6530E-03    -15.9612E+06     70.6184E+06     4.73987E+06     621.420E+03    -56.5723E-03     110.082E-03    -53.5092E-03     143.226E-03    -58.6358E-03     112.325E-03    -53.5648E-03     141.724E-03
             346     14.5034E-03     64.8106E-03    -13.7932E+06     117.821E+06     38.3486E+06     823.641E+03    -57.4022E-03     110.974E-03    -53.5721E-03     166.136E-03    -60.6582E-03     114.488E-03    -53.5312E-03     164.620E-03
             347     15.3552E-03     64.9824E-03    -10.4009E+06     140.387E+06     81.4224E+06      375.43E+03    -57.5907E-03     111.327E-03    -53.7361E-03     174.019E-03    -61.9692E-03     115.931E-03    -53.5174E-03     173.123E-03
             348     16.2081E-03     65.1600E-03    -5.46758E+06     144.329E+06     96.6804E+06    -272.022E+03    -54.0391E-03     107.816E-03    -53.7771E-03     110.255E-03    -57.0908E-03     111.081E-03    -53.4951E-03     110.137E-03
             349     852.982E-06     64.6838E-03    -54.3070E+06    -169.534E+06    -52.7946E+06    -24.2680E+03    -53.8876E-03     107.671E-03    -53.7837E-03     9.72003E-03    -53.8381E-03     106.981E-03    -53.7231E-03     9.68655E-03
             350     1.70576E-03     64.6975E-03    -52.6552E+06    -166.550E+06    -48.0645E+06    -24.4025E+03    -53.9289E-03     107.777E-03    -53.8483E-03     17.8797E-03    -53.8857E-03     107.095E-03    -53.7707E-03     17.8161E-03
             351     2.55861E-03     64.7196E-03    -49.8664E+06    -161.927E+06    -41.1337E+06    -166.841E+03    -53.9694E-03     107.841E-03    -53.8719E-03     26.3852E-03    -53.9348E-03     107.174E-03    -53.7705E-03     26.2851E-03
             352     3.41156E-03     64.7504E-03    -46.2823E+06    -155.741E+06    -31.9953E+06    -116.016E+03    -54.0439E-03     107.933E-03    -53.8888E-03     34.7563E-03    -54.0225E-03     107.287E-03    -53.7558E-03     34.6176E-03
             353     4.26454E-03     64.7893E-03    -42.6411E+06    -146.055E+06    -23.5264E+06     84.9090E+03    -54.1549E-03     108.048E-03    -53.8930E-03     42.9181E-03    -54.1544E-03     107.446E-03    -53.7371E-03     42.7370E-03
             354     5.11756E-03     64.8363E-03    -38.9778E+06    -137.519E+06    -16.6784E+06     86.2320E+03    -54.3091E-03     108.200E-03    -53.8910E-03     50.8175E-03    -54.3306E-03     107.643E-03    -53.7185E-03     50.5838E-03
             355     5.97059E-03     64.8911E-03    -35.3324E+06    -131.654E+06    -9.94998E+06    -3.29795E+03    -54.4913E-03     108.385E-03    -53.8941E-03     58.3853E-03    -54.5373E-03     107.867E-03    -53.7017E-03     58.0894E-03
             356     6.82366E-03     64.9532E-03    -31.9096E+06    -123.899E+06    -4.63620E+06     212.450E+03    -54.6907E-03     108.580E-03    -53.8897E-03     65.6539E-03    -54.7710E-03     108.121E-03    -53.6870E-03     65.2906E-03
             357     7.67668E-03     65.0224E-03    -28.8650E+06    -113.255E+06    -2.68522E+06     406.036E+03    -54.8972E-03     108.764E-03    -53.8666E-03     72.6476E-03    -55.0235E-03     108.393E-03    -53.6740E-03     72.2065E-03
             358     8.52977E-03     65.0985E-03    -26.2262E+06    -100.507E+06    -1.97198E+06     469.646E+03    -55.1132E-03     108.950E-03    -53.8366E-03     79.4409E-03    -55.3025E-03     108.695E-03    -53.6627E-03     78.9087E-03
             359     9.38273E-03     65.1814E-03    -23.9875E+06    -88.1191E+06    -215.882E+03     481.686E+03    -55.2796E-03     109.092E-03    -53.8122E-03     86.3315E-03    -55.5550E-03     108.970E-03    -53.6507E-03     85.6935E-03
             360     10.2361E-03     65.2708E-03    -22.1532E+06    -74.0107E+06    -561.832E+03     579.730E+03    -55.4405E-03     109.213E-03    -53.7720E-03     93.3242E-03    -55.8301E-03     109.262E-03    -53.6354E-03     92.5666E-03
             361     11.0892E-03     65.3674E-03    -20.5212E+06    -53.9891E+06    -850.174E+03     557.924E+03    -55.5836E-03     109.307E-03    -53.7234E-03     99.2201E-03    -56.1337E-03     109.595E-03    -53.6196E-03     98.3203E-03
             362     11.9423E-03     65.4685E-03    -18.9025E+06    -26.0206E+06     821.590E+03     392.159E+03    -55.5717E-03     109.240E-03    -53.6687E-03     106.580E-03    -56.3596E-03     109.866E-03    -53.5995E-03     105.524E-03
             363     12.7960E-03     65.5795E-03    -17.8774E+06     13.1721E+06    -1.00726E+06     196.853E+03    -55.8007E-03     109.371E-03    -53.5699E-03     120.634E-03    -57.0220E-03     110.578E-03    -53.5681E-03     119.372E-03
             364     13.6496E-03     65.7087E-03    -16.8987E+06     69.9316E+06     3.53299E+06     94.4576E+03    -56.4177E-03     109.886E-03    -53.4683E-03     143.050E-03    -58.4778E-03     112.124E-03    -53.5276E-03     141.547E-03
             365     14.5031E-03     65.8638E-03    -14.4931E+06     117.181E+06     37.4541E+06     884.104E+03    -57.1297E-03     110.653E-03    -53.5229E-03     165.967E-03    -60.3842E-03     114.163E-03    -53.4846E-03     164.460E-03
             366     15.3573E-03     66.0414E-03    -10.3259E+06     141.797E+06     82.8777E+06     1.02819E+06    -56.9407E-03     110.609E-03    -53.6684E-03     175.910E-03    -61.3556E-03     115.250E-03    -53.4446E-03     175.067E-03
             367     16.2093E-03     66.2151E-03    -5.90267E+06     145.379E+06     97.4146E+06    -150.287E+03    -54.7690E-03     108.474E-03    -53.7045E-03     111.182E-03    -57.8356E-03     111.753E-03    -53.4197E-03     111.068E-03
             368     852.841E-06     65.7392E-03    -54.2104E+06    -169.709E+06    -53.0728E+06     140.939E+03    -53.8401E-03     107.686E-03    -53.8461E-03     9.75455E-03    -53.7894E-03     106.995E-03    -53.7868E-03     9.72320E-03
             369     1.70576E-03     65.7528E-03    -52.3197E+06    -166.253E+06    -47.8611E+06    -23.9285E+03    -53.8926E-03     107.739E-03    -53.8468E-03     17.8928E-03    -53.8484E-03     107.058E-03    -53.7692E-03     17.8294E-03
             370     2.55867E-03     65.7750E-03    -49.7927E+06    -161.629E+06    -40.7040E+06    -274.489E+03    -53.9541E-03     107.816E-03    -53.8624E-03     26.4059E-03    -53.9201E-03     107.150E-03    -53.7593E-03     26.3046E-03
             371     3.41162E-03     65.8056E-03    -46.7121E+06    -156.077E+06    -32.2036E+06    -145.608E+03    -54.0305E-03     107.907E-03    -53.8770E-03     34.7760E-03    -54.0104E-03     107.261E-03    -53.7440E-03     34.6370E-03
             372     4.26463E-03     65.8446E-03    -42.8994E+06    -146.212E+06    -23.5289E+06     67.3615E+03    -54.1568E-03     108.040E-03    -53.8830E-03     42.9486E-03    -54.1575E-03     107.437E-03    -53.7264E-03     42.7673E-03
             373     5.11760E-03     65.8916E-03    -38.9632E+06    -137.382E+06    -16.4044E+06     47.6061E+03    -54.3159E-03     108.200E-03    -53.8841E-03     50.8400E-03    -54.3379E-03     107.644E-03    -53.7104E-03     50.6057E-03
             374     5.97063E-03     65.9463E-03    -35.3123E+06    -131.783E+06    -9.78322E+06     129.623E+03    -54.4871E-03     108.375E-03    -53.8883E-03     58.4159E-03    -54.5330E-03     107.857E-03    -53.6950E-03     58.1218E-03
             375     6.82367E-03     66.0085E-03    -31.8388E+06    -124.313E+06    -4.53683E+06     313.001E+03    -54.6804E-03     108.564E-03    -53.8837E-03     65.7013E-03    -54.7599E-03     108.102E-03    -53.6799E-03     65.3394E-03
             376     7.67676E-03     66.0777E-03    -28.6848E+06    -113.339E+06    -2.69258E+06     457.238E+03    -54.8935E-03     108.753E-03    -53.8590E-03     72.7213E-03    -55.0188E-03     108.381E-03    -53.6666E-03     72.2809E-03
             377     8.52977E-03     66.1538E-03    -26.1066E+06    -100.742E+06    -1.99238E+06     545.163E+03    -55.0555E-03     108.882E-03    -53.8267E-03     79.4922E-03    -55.2439E-03     108.626E-03    -53.6527E-03     78.9615E-03
             378     9.38310E-03     66.2365E-03    -23.9119E+06    -88.0760E+06    -152.004E+03     643.819E+03    -55.2173E-03     109.015E-03    -53.7977E-03     86.2889E-03    -55.4922E-03     108.893E-03    -53.6361E-03     85.6538E-03
             379     10.2362E-03     66.3260E-03    -21.9742E+06    -74.2365E+06    -571.892E+03     623.681E+03    -55.4329E-03     109.189E-03    -53.7558E-03     93.2699E-03    -55.8220E-03     109.238E-03    -53.6191E-03     92.5116E-03
             380     11.0893E-03     66.4227E-03    -20.3274E+06    -53.8551E+06    -850.845E+03     611.433E+03    -55.5212E-03     109.227E-03    -53.7055E-03     99.1553E-03    -56.0699E-03     109.515E-03    -53.6022E-03     98.2579E-03
             381     11.9428E-03     66.5237E-03    -19.1755E+06    -25.9842E+06     509.711E+03     471.303E+03    -55.5162E-03     109.164E-03    -53.6479E-03     106.241E-03    -56.3049E-03     109.791E-03    -53.5799E-03     105.186E-03
             382     12.7960E-03     66.6342E-03    -18.0834E+06     13.0353E+06    -1.67632E+06     417.813E+03    -55.7672E-03     109.314E-03    -53.5471E-03     120.342E-03    -56.9877E-03     110.522E-03    -53.5482E-03     119.082E-03
             383     13.6498E-03     66.7634E-03    -16.9736E+06     70.5108E+06     3.46287E+06     346.711E+03    -56.6607E-03     110.117E-03    -53.4564E-03     142.692E-03    -58.7266E-03     112.363E-03    -53.5168E-03     141.181E-03
             384     14.5034E-03     66.9193E-03    -14.6249E+06     116.373E+06     35.6742E+06      9.0655E+03    -57.1255E-03     110.642E-03    -53.5166E-03     164.737E-03    -60.3705E-03     114.145E-03    -53.4858E-03     163.217E-03
             385     15.3577E-03     67.0946E-03    -9.23940E+06     141.847E+06     81.7032E+06     286.717E+03    -56.2240E-03     109.876E-03    -53.6520E-03     172.600E-03    -60.5438E-03     114.429E-03    -53.4358E-03     171.782E-03
             386     16.2161E-03     67.2697E-03    -4.40673E+06     146.092E+06     98.3475E+06     611.575E+03    -54.8510E-03     108.542E-03    -53.6910E-03     108.814E-03    -57.8381E-03     111.747E-03    -53.4047E-03     108.711E-03
             387     852.842E-06     66.7944E-03    -54.0977E+06    -169.651E+06    -53.1151E+06    -193.654E+03    -53.8168E-03     107.671E-03    -53.8545E-03     9.77188E-03    -53.7656E-03     106.980E-03    -53.7957E-03     9.73614E-03
             388     1.70581E-03     66.8081E-03    -52.3515E+06    -166.096E+06    -47.5343E+06    -112.552E+03    -53.8486E-03     107.682E-03    -53.8335E-03     17.9430E-03    -53.8053E-03     107.001E-03    -53.7544E-03     17.8785E-03
             389     2.55874E-03     66.8303E-03    -49.6901E+06    -161.608E+06    -40.5977E+06     25.2432E+03    -53.9313E-03     107.772E-03    -53.8406E-03     26.3907E-03    -53.8971E-03     107.105E-03    -53.7372E-03     26.2933E-03
             390     3.41169E-03     66.8609E-03    -46.5422E+06    -156.163E+06    -32.3903E+06     27.5145E+03    -54.0406E-03     107.898E-03    -53.8572E-03     34.7711E-03    -54.0194E-03     107.251E-03    -53.7252E-03     34.6343E-03
             391     4.26464E-03     66.8999E-03    -42.9356E+06    -146.229E+06    -23.5367E+06    -63.9940E+03    -54.1587E-03     108.028E-03    -53.8693E-03     42.9661E-03    -54.1594E-03     107.425E-03    -53.7127E-03     42.7830E-03
             392     5.11768E-03     66.9469E-03    -39.1424E+06    -137.500E+06    -16.4455E+06     57.7691E+03    -54.3030E-03     108.175E-03    -53.8721E-03     50.8412E-03    -54.3257E-03     107.618E-03    -53.6982E-03     50.6071E-03
             393     5.97070E-03     67.0016E-03    -35.4815E+06    -132.024E+06    -10.0682E+06     217.064E+03    -54.4788E-03     108.354E-03    -53.8755E-03     58.4346E-03    -54.5248E-03     107.835E-03    -53.6830E-03     58.1417E-03
             394     6.82378E-03     67.0637E-03    -31.9732E+06    -124.512E+06    -4.85268E+06     308.455E+03    -54.6723E-03     108.543E-03    -53.8709E-03     65.7434E-03    -54.7518E-03     108.081E-03    -53.6683E-03     65.3815E-03
             395     7.67685E-03     67.1330E-03    -28.8237E+06    -113.609E+06    -2.96180E+06     431.073E+03    -54.8711E-03     108.717E-03    -53.8461E-03     72.7498E-03    -54.9964E-03     108.346E-03    -53.6544E-03     72.3091E-03
             396     8.53000E-03     67.2092E-03    -26.1281E+06    -100.843E+06    -2.08279E+06     595.015E+03    -55.0430E-03     108.857E-03    -53.8139E-03     79.4047E-03    -55.2312E-03     108.600E-03    -53.6402E-03     78.8745E-03
             397     9.38305E-03     67.2915E-03    -23.7963E+06    -88.2682E+06    -253.935E+03     642.912E+03    -55.2185E-03     109.004E-03    -53.7857E-03     86.2177E-03    -55.4926E-03     108.881E-03    -53.6244E-03     85.5822E-03
             398     10.2363E-03     67.3815E-03    -21.7515E+06    -74.1674E+06    -445.517E+03     636.853E+03    -55.4173E-03     109.162E-03    -53.7449E-03     93.2200E-03    -55.8059E-03     109.212E-03    -53.6081E-03     92.4617E-03
             399     11.0895E-03     67.4776E-03    -20.2454E+06    -54.2187E+06    -1.00607E+06     687.250E+03    -55.5212E-03     109.216E-03    -53.6946E-03     99.0175E-03    -56.0682E-03     109.501E-03    -53.5916E-03     98.1217E-03
             400     11.9427E-03     67.5790E-03    -18.9334E+06    -25.6125E+06     806.273E+03     621.372E+03    -55.5953E-03     109.238E-03    -53.6425E-03     105.832E-03    -56.3836E-03     109.866E-03    -53.5739E-03     104.777E-03
             401     12.7964E-03     67.6888E-03    -17.7246E+06     13.4646E+06    -976.439E+03     588.543E+03    -55.9592E-03     109.514E-03    -53.5550E-03     119.702E-03    -57.1810E-03     110.724E-03    -53.5537E-03     118.436E-03
             402     13.6496E-03     67.8186E-03    -16.0762E+06     70.0326E+06     3.35306E+06     391.909E+03    -56.7699E-03     110.241E-03    -53.4711E-03     142.700E-03    -58.8331E-03     112.486E-03    -53.5326E-03     141.184E-03
             403     14.5021E-03     67.9752E-03    -13.8349E+06     116.838E+06     36.7271E+06    -103.640E+03    -57.5331E-03     111.083E-03    -53.5502E-03     164.540E-03    -60.7770E-03     114.586E-03    -53.5159E-03     163.002E-03
             404     15.3553E-03     68.1480E-03    -11.0155E+06     141.165E+06     81.4287E+06     18.5487E+03    -57.3247E-03     111.050E-03    -53.7253E-03     172.667E-03    -61.6844E-03     115.635E-03    -53.5069E-03     171.787E-03
             405     16.2037E-03     68.3243E-03    -5.59567E+06     145.933E+06     97.6059E+06     472.165E+03    -54.1405E-03     107.908E-03    -53.7679E-03     110.597E-03    -57.1808E-03     111.164E-03    -53.4834E-03     110.495E-03
             406     852.944E-06     67.8497E-03    -54.2047E+06    -169.413E+06    -52.6566E+06    -115.773E+03    -53.7860E-03     107.600E-03    -53.8141E-03     9.69627E-03    -53.7363E-03     106.910E-03    -53.7531E-03     9.66184E-03
             407     1.70583E-03     67.8634E-03    -52.4280E+06    -166.161E+06    -47.4990E+06    -19.8318E+03    -53.8426E-03     107.647E-03    -53.8041E-03     17.9356E-03    -53.7996E-03     106.965E-03    -53.7247E-03     17.8723E-03
             408     2.55880E-03     67.8856E-03    -49.7879E+06    -161.815E+06    -40.8612E+06     96.7645E+03    -53.9188E-03     107.736E-03    -53.8176E-03     26.3931E-03    -53.8843E-03     107.069E-03    -53.7151E-03     26.2966E-03
             409     3.41176E-03     67.9162E-03    -46.5196E+06    -156.062E+06    -32.2424E+06     106.402E+03    -54.0348E-03     107.874E-03    -53.8388E-03     34.7808E-03    -54.0138E-03     107.227E-03    -53.7063E-03     34.6451E-03
             410     4.26474E-03     67.9552E-03    -42.8742E+06    -146.214E+06    -23.5228E+06     84.6035E+03    -54.1506E-03     108.003E-03    -53.8527E-03     42.9733E-03    -54.1512E-03     107.401E-03    -53.6962E-03     42.7923E-03
             411     5.11774E-03     68.0021E-03    -39.1718E+06    -137.678E+06    -16.6883E+06     114.007E+03    -54.2940E-03     108.150E-03    -53.8559E-03     50.8517E-03    -54.3163E-03     107.593E-03    -53.6829E-03     50.6184E-03
             412     5.97081E-03     68.0568E-03    -35.4489E+06    -132.153E+06    -10.1019E+06     175.881E+03    -54.4745E-03     108.336E-03    -53.8614E-03     58.4271E-03    -54.5202E-03     107.816E-03    -53.6689E-03     58.1335E-03
             413     6.82387E-03     68.1189E-03    -31.8996E+06    -124.689E+06    -4.81733E+06     282.364E+03    -54.6732E-03     108.532E-03    -53.8587E-03     65.7332E-03    -54.7522E-03     108.069E-03    -53.6557E-03     65.3708E-03
             414     7.67694E-03     68.1883E-03    -28.7486E+06    -113.870E+06    -2.83788E+06     437.465E+03    -54.8607E-03     108.696E-03    -53.8354E-03     72.7030E-03    -54.9854E-03     108.323E-03    -53.6428E-03     72.2625E-03
             415     8.53003E-03     68.2643E-03    -26.0640E+06    -101.062E+06    -2.02466E+06     520.439E+03    -55.0413E-03     108.845E-03    -53.8034E-03     79.3843E-03    -55.2289E-03     108.587E-03    -53.6292E-03     78.8534E-03
             416     9.38318E-03     68.3470E-03    -23.7485E+06    -88.3454E+06    -104.667E+03     562.385E+03    -55.2473E-03     109.025E-03    -53.7777E-03     86.2111E-03    -55.5216E-03     108.902E-03    -53.6157E-03     85.5739E-03
             417     10.2364E-03     68.4363E-03    -21.7919E+06    -74.3498E+06    -315.365E+03     655.580E+03    -55.4519E-03     109.193E-03    -53.7407E-03     93.1273E-03    -55.8404E-03     109.241E-03    -53.6029E-03     92.3689E-03
             418     11.0895E-03     68.5331E-03    -20.1567E+06     -54.121E+06    -622.170E+03     710.897E+03    -55.5448E-03     109.239E-03    -53.6942E-03     98.8788E-03    -56.0916E-03     109.524E-03    -53.5896E-03     97.9832E-03
             419     11.9427E-03     68.6339E-03    -18.7554E+06    -25.4939E+06     1.28877E+06     923.993E+03    -55.7030E-03     109.350E-03    -53.6472E-03     105.920E-03    -56.4908E-03     109.977E-03    -53.5766E-03     104.868E-03
             420     12.7953E-03     68.7445E-03    -17.5421E+06     13.4935E+06    -415.822E+03     602.601E+03    -56.1698E-03     109.740E-03    -53.5699E-03     119.985E-03    -57.3982E-03     110.955E-03    -53.5661E-03     118.712E-03
             421     13.6486E-03     68.8733E-03    -16.4523E+06     69.9578E+06     3.83383E+06    -113.021E+03    -56.8274E-03     110.321E-03    -53.4935E-03     142.892E-03    -58.8911E-03     112.563E-03    -53.5519E-03     141.369E-03
             422     14.5035E-03     69.0304E-03    -14.6279E+06     116.559E+06     36.0283E+06     359.430E+03    -57.5404E-03     111.107E-03    -53.5661E-03     165.263E-03    -60.7886E-03     114.612E-03    -53.5338E-03     163.735E-03
             423     15.3556E-03     69.2058E-03    -10.5861E+06     141.742E+06     81.3374E+06     853.195E+03    -57.0332E-03     110.760E-03    -53.7269E-03     174.275E-03    -61.4126E-03     115.369E-03    -53.5104E-03     173.425E-03
             424     16.2132E-03     69.3808E-03    -5.08386E+06     146.376E+06     97.9764E+06      240.68E+03    -54.0365E-03     107.791E-03    -53.7548E-03     112.069E-03    -57.0907E-03     111.063E-03    -53.4698E-03     111.982E-03
             425     852.940E-06     68.9050E-03    -54.0909E+06    -169.482E+06    -52.8231E+06     233.936E+03    -53.7773E-03     107.552E-03    -53.7746E-03     9.68438E-03    -53.7267E-03     106.861E-03    -53.7145E-03     9.65466E-03
             426     1.70590E-03     68.9186E-03    -52.4018E+06    -166.220E+06    -47.6439E+06     135.873E+03    -53.8281E-03     107.609E-03    -53.7813E-03     17.9048E-03    -53.7847E-03     106.928E-03    -53.7025E-03     17.8436E-03
             427     2.55885E-03     68.9408E-03    -49.8287E+06    -161.879E+06    -40.9560E+06     95.3822E+03    -53.9141E-03     107.713E-03    -53.7992E-03     26.3951E-03    -53.8796E-03     107.046E-03    -53.6970E-03     26.2987E-03
             428     3.41181E-03     68.9714E-03    -46.6069E+06    -156.130E+06    -32.2767E+06     147.889E+03    -54.0160E-03     107.839E-03    -53.8227E-03     34.7698E-03    -53.9952E-03     107.192E-03    -53.6901E-03     34.6347E-03
             429     4.26481E-03     69.0103E-03    -42.8873E+06    -146.253E+06    -23.5534E+06     155.033E+03    -54.1332E-03     107.969E-03    -53.8362E-03     42.9491E-03    -54.1336E-03     107.367E-03    -53.6797E-03     42.7691E-03
             430     5.11785E-03     69.0574E-03    -39.0153E+06    -137.629E+06    -16.6880E+06     92.4808E+03    -54.2905E-03     108.131E-03    -53.8401E-03     50.8340E-03    -54.3121E-03     107.573E-03    -53.6674E-03     50.6004E-03
             431     5.97088E-03     69.1120E-03    -35.3190E+06    -132.332E+06    -10.0008E+06     137.936E+03    -54.4796E-03     108.328E-03    -53.8487E-03     58.4229E-03    -54.5245E-03     107.807E-03    -53.6556E-03     58.1288E-03
             432     6.82392E-03     69.1742E-03    -31.8953E+06    -124.939E+06    -4.65735E+06     346.186E+03    -54.6686E-03     108.517E-03    -53.8483E-03     65.7363E-03    -54.7474E-03     108.052E-03    -53.6441E-03     65.3749E-03
             433     7.67701E-03     69.2434E-03    -28.7913E+06    -114.026E+06    -2.76991E+06     417.692E+03    -54.8547E-03     108.680E-03    -53.8252E-03     72.7028E-03    -54.9794E-03     108.306E-03    -53.6319E-03     72.2623E-03
             434     8.53015E-03     69.3195E-03    -26.1466E+06    -101.265E+06    -1.95155E+06     482.409E+03    -55.0456E-03     108.840E-03    -53.7943E-03     79.3722E-03    -55.2334E-03     108.581E-03    -53.6193E-03     78.8407E-03
             435     9.38332E-03     69.4020E-03    -23.8990E+06    -88.4304E+06     35.7535E+03     598.734E+03    -55.2886E-03     109.060E-03    -53.7718E-03     86.2122E-03    -55.5637E-03     108.937E-03    -53.6088E-03     85.5753E-03
             436     10.2363E-03     69.4919E-03    -22.0203E+06    -74.4781E+06    -256.399E+03     621.143E+03    -55.5182E-03     109.258E-03    -53.7398E-03     93.1058E-03    -55.9080E-03     109.306E-03    -53.6011E-03     92.3459E-03
             437     11.0894E-03     69.5880E-03    -20.3208E+06    -54.3211E+06    -615.566E+03     747.471E+03    -55.5463E-03     109.242E-03    -53.6960E-03     98.8273E-03    -56.0927E-03     109.525E-03    -53.5909E-03     97.9331E-03
             438     11.9427E-03     69.6893E-03    -18.7416E+06    -26.0152E+06     1.11187E+06     891.177E+03    -55.6419E-03     109.288E-03    -53.6458E-03     106.107E-03    -56.4276E-03     109.911E-03    -53.5753E-03     105.057E-03
             439     12.7964E-03     69.7998E-03    -17.6208E+06     13.9349E+06    -584.843E+03     689.463E+03    -56.2151E-03     109.781E-03    -53.5657E-03     120.283E-03    -57.4460E-03     111.000E-03    -53.5633E-03     119.010E-03
             440     13.6494E-03     69.9291E-03    -17.0792E+06     70.8187E+06     4.82763E+06     695.233E+03    -57.0714E-03     110.576E-03    -53.5042E-03     142.899E-03    -59.1480E-03     112.829E-03    -53.5579E-03     141.376E-03
             441     14.5012E-03     70.0852E-03    -15.2278E+06     116.039E+06     36.0909E+06     351.040E+03    -57.4819E-03     111.062E-03    -53.5800E-03     165.263E-03    -60.7369E-03     114.570E-03    -53.5457E-03     163.735E-03
             442     15.3564E-03     70.2608E-03    -10.4662E+06     141.420E+06     80.4165E+06    -69.5288E+03    -56.7795E-03     110.510E-03    -53.7305E-03     171.960E-03    -61.1175E-03     115.080E-03    -53.5183E-03     171.103E-03
             443     16.2087E-03     70.4323E-03    -4.47359E+06     146.816E+06     98.3931E+06     254.002E+03    -53.8604E-03     107.622E-03    -53.7617E-03     108.603E-03    -56.8584E-03     110.840E-03    -53.4761E-03     108.508E-03
             444     852.915E-06     69.9601E-03    -54.3551E+06    -169.861E+06    -53.2183E+06     65.1603E+03    -53.8018E-03     107.531E-03    -53.7290E-03     9.67471E-03    -53.7514E-03     106.839E-03    -53.6700E-03     9.64267E-03
             445     1.70591E-03     69.9738E-03    -52.4648E+06    -166.348E+06    -47.8510E+06     253.999E+03    -53.8182E-03     107.589E-03    -53.7706E-03     17.8971E-03    -53.7746E-03     106.907E-03    -53.6926E-03     17.8375E-03
             446     2.55887E-03     69.9960E-03    -49.9639E+06    -161.883E+06    -40.8582E+06     245.791E+03    -53.8946E-03     107.683E-03    -53.7887E-03     26.3827E-03    -53.8609E-03     107.016E-03    -53.6858E-03     26.2883E-03
             447     3.41185E-03     70.0266E-03    -46.7450E+06    -156.192E+06    -32.2588E+06     184.144E+03    -53.9968E-03     107.807E-03    -53.8100E-03     34.7662E-03    -53.9766E-03     107.160E-03    -53.6771E-03     34.6317E-03
             448     4.26486E-03     70.0656E-03    -42.9434E+06    -146.179E+06    -23.4097E+06     89.6771E+03    -54.1207E-03     107.944E-03    -53.8233E-03     42.9495E-03    -54.1217E-03     107.342E-03    -53.6661E-03     42.7687E-03
             449     5.11789E-03     70.1125E-03    -39.0824E+06    -137.640E+06    -16.6530E+06     41.0439E+03    -54.2825E-03     108.110E-03    -53.8274E-03     50.8306E-03    -54.3044E-03     107.553E-03    -53.6544E-03     50.5965E-03
             450     5.97095E-03     70.1673E-03    -35.4889E+06    -132.632E+06    -10.1201E+06     227.949E+03    -54.4695E-03     108.306E-03    -53.8365E-03     58.4239E-03    -54.5146E-03     107.784E-03    -53.6433E-03     58.1313E-03
             451     6.82402E-03     70.2294E-03    -32.0188E+06    -125.171E+06    -4.68807E+06     388.782E+03    -54.6561E-03     108.493E-03    -53.8365E-03     65.7297E-03    -54.7350E-03     108.027E-03    -53.6320E-03     65.3691E-03
             452     7.67713E-03     70.2987E-03    -28.9188E+06    -114.063E+06    -2.73331E+06     474.603E+03    -54.8603E-03     108.675E-03    -53.8144E-03     72.6987E-03    -54.9857E-03     108.300E-03    -53.6208E-03     72.2591E-03
             453     8.53021E-03     70.3747E-03    -26.3506E+06    -101.424E+06    -2.02470E+06     530.372E+03    -55.0819E-03     108.868E-03    -53.7865E-03     79.3647E-03    -55.2705E-03     108.609E-03    -53.6114E-03     78.8336E-03
             454     9.38323E-03     70.4574E-03    -24.1254E+06    -88.6657E+06    -183.379E+03     650.838E+03    -55.2876E-03     109.053E-03    -53.7658E-03     86.2625E-03    -55.5630E-03     108.929E-03    -53.6032E-03     85.6266E-03
             455     10.2364E-03     70.5471E-03    -22.1680E+06    -74.4564E+06    -313.825E+03     699.613E+03    -55.4845E-03     109.217E-03    -53.7328E-03     93.2258E-03    -55.8745E-03     109.265E-03    -53.5943E-03     92.4684E-03
             456     11.0895E-03     70.6434E-03    -20.6447E+06    -54.6508E+06    -968.015E+03     724.800E+03    -55.5764E-03     109.265E-03    -53.6883E-03     98.9031E-03    -56.1235E-03     109.547E-03    -53.5840E-03     98.0083E-03
             457     11.9428E-03     70.7441E-03    -19.1224E+06    -26.3441E+06     670.194E+03     603.100E+03    -55.6572E-03     109.297E-03    -53.6397E-03     106.168E-03    -56.4446E-03     109.921E-03    -53.5704E-03     105.114E-03
             458     12.7957E-03     70.8552E-03    -17.7487E+06     13.7429E+06    -935.698E+03     930.602E+03    -56.1903E-03     109.749E-03    -53.5588E-03     120.568E-03    -57.4217E-03     110.969E-03    -53.5577E-03     119.300E-03
             459     13.6486E-03     70.9848E-03    -16.6039E+06     70.8504E+06     4.08249E+06     1.33965E+06    -56.8809E-03     110.367E-03    -53.4864E-03     143.225E-03    -58.9534E-03     112.621E-03    -53.5446E-03     141.720E-03
             460     14.5030E-03     71.1411E-03    -14.8006E+06     117.158E+06     37.1186E+06     954.843E+03    -57.4395E-03     110.999E-03    -53.5596E-03     166.434E-03    -60.7064E-03     114.522E-03    -53.5224E-03     164.920E-03
             461     15.3547E-03     71.3157E-03    -11.7296E+06     142.017E+06     81.2418E+06     184.332E+03    -57.3427E-03     111.062E-03    -53.7193E-03     174.875E-03    -61.7650E-03     115.711E-03    -53.5020E-03     174.010E-03
             462     16.2073E-03     71.4904E-03    -5.36450E+06     146.517E+06     97.7540E+06    -575.069E+03    -53.9078E-03     107.661E-03    -53.7528E-03     110.581E-03    -56.9713E-03     110.942E-03    -53.4687E-03     110.474E-03
             463     853.010E-06     71.0153E-03    -54.6128E+06    -170.029E+06    -53.2904E+06     82.7635E+03    -53.7783E-03     107.510E-03    -53.7314E-03     9.70302E-03    -53.7289E-03     106.818E-03    -53.6722E-03     9.67130E-03
             464     1.70588E-03     71.0289E-03    -52.8426E+06    -166.724E+06    -48.1597E+06     187.560E+03    -53.8188E-03     107.581E-03    -53.7623E-03     17.8995E-03    -53.7761E-03     106.899E-03    -53.6847E-03     17.8390E-03
             465     2.55889E-03     71.0512E-03    -50.0490E+06    -162.023E+06    -41.0238E+06     343.848E+03    -53.8774E-03     107.658E-03    -53.7810E-03     26.3792E-03    -53.8436E-03     106.991E-03    -53.6786E-03     26.2861E-03
             466     3.41190E-03     71.0818E-03    -46.6765E+06    -155.990E+06    -31.9633E+06     178.283E+03    -53.9784E-03     107.780E-03    -53.8012E-03     34.7529E-03    -53.9586E-03     107.133E-03    -53.6672E-03     34.6185E-03
             467     4.26492E-03     71.1207E-03    -42.8947E+06    -146.137E+06    -23.3383E+06     62.7723E+03    -54.1060E-03     107.918E-03    -53.8123E-03     42.9485E-03    -54.1069E-03     107.316E-03    -53.6549E-03     42.7676E-03
             468     5.11797E-03     71.1678E-03    -39.2085E+06    -137.820E+06    -16.8060E+06     175.993E+03    -54.2693E-03     108.085E-03    -53.8154E-03     50.8346E-03    -54.2913E-03     107.527E-03    -53.6427E-03     50.6025E-03
             469     5.97102E-03     71.2224E-03    -35.6096E+06    -132.899E+06    -10.3062E+06     284.845E+03    -54.4543E-03     108.278E-03    -53.8240E-03     58.4225E-03    -54.4993E-03     107.755E-03    -53.6312E-03     58.1309E-03
             470     6.82410E-03     71.2846E-03    -32.1665E+06    -125.409E+06    -4.81614E+06     481.936E+03    -54.6555E-03     108.480E-03    -53.8248E-03     65.7237E-03    -54.7346E-03     108.014E-03    -53.6204E-03     65.3645E-03
             471     7.67719E-03     71.3538E-03    -29.1105E+06    -114.158E+06    -2.79243E+06     582.808E+03    -54.8640E-03     108.668E-03    -53.8044E-03     72.7101E-03    -54.9900E-03     108.294E-03    -53.6106E-03     72.2721E-03
             472     8.53025E-03     71.4300E-03    -26.5206E+06    -101.530E+06    -2.10222E+06     600.202E+03    -55.0685E-03     108.845E-03    -53.7768E-03     79.4542E-03    -55.2576E-03     108.586E-03    -53.6017E-03     78.9246E-03
             473     9.38339E-03     71.5126E-03    -24.1900E+06    -88.8917E+06    -319.570E+03     637.147E+03    -55.2591E-03     109.014E-03    -53.7545E-03     86.3375E-03    -55.5343E-03     108.888E-03    -53.5922E-03     85.7021E-03
             474     10.2365E-03     71.6023E-03    -22.1563E+06    -74.6073E+06    -452.074E+03     739.005E+03    -55.4223E-03     109.141E-03    -53.7182E-03     93.2721E-03    -55.8112E-03     109.187E-03    -53.5802E-03     92.5169E-03
             475     11.0899E-03     71.6986E-03    -20.4308E+06    -54.5035E+06    -771.990E+03     735.834E+03    -55.5158E-03     109.186E-03    -53.6706E-03     99.0169E-03    -56.0620E-03     109.469E-03    -53.5658E-03     98.1240E-03
             476     11.9428E-03     71.7996E-03    -19.2460E+06    -26.6052E+06     486.091E+03     809.425E+03    -55.6472E-03     109.266E-03    -53.6189E-03     106.525E-03    -56.4368E-03     109.891E-03    -53.5500E-03     105.473E-03
             477     12.7964E-03     71.9103E-03    -18.0541E+06     13.2915E+06    -1.40836E+06     899.366E+03    -56.0694E-03     109.601E-03    -53.5319E-03     121.378E-03    -57.3017E-03     110.821E-03    -53.5320E-03     120.115E-03
             478     13.6498E-03     72.0407E-03    -16.4289E+06     71.0030E+06     4.25610E+06     1.14439E+06    -56.6230E-03     110.072E-03    -53.4491E-03     143.342E-03    -58.6921E-03     112.323E-03    -53.5069E-03     141.846E-03
             479     14.5034E-03     72.1947E-03    -14.1604E+06     117.512E+06     36.5211E+06     1.30962E+06    -56.8588E-03     110.354E-03    -53.4949E-03     166.351E-03    -60.1119E-03     113.868E-03    -53.4622E-03     164.870E-03
             480     15.3587E-03     72.3735E-03    -9.28588E+06     143.329E+06     82.1448E+06     327.387E+03    -56.4149E-03     110.032E-03    -53.6167E-03     175.805E-03    -60.8163E-03     114.671E-03    -53.4004E-03     175.000E-03
             481     16.2139E-03     72.5446E-03    -4.29180E+06     146.906E+06     98.7294E+06    -366.105E+03    -55.0437E-03     108.703E-03    -53.6594E-03     109.987E-03    -58.0892E-03     111.969E-03    -53.3726E-03     109.871E-03
             482     852.930E-06     72.0704E-03    -54.7994E+06    -170.271E+06    -53.5353E+06     173.530E+03    -53.7395E-03     107.486E-03    -53.7464E-03     9.74994E-03    -53.6903E-03     106.793E-03    -53.6877E-03     9.71937E-03
             483     1.70595E-03     72.0841E-03    -53.0661E+06    -166.952E+06    -48.3092E+06     251.111E+03    -53.8013E-03     107.551E-03    -53.7495E-03     17.9163E-03    -53.7592E-03     106.868E-03    -53.6720E-03     17.8567E-03
             484     2.55889E-03     72.1063E-03    -50.3758E+06    -162.199E+06    -41.0744E+06     190.929E+03    -53.8787E-03     107.649E-03    -53.7700E-03     26.4007E-03    -53.8463E-03     106.981E-03    -53.6671E-03     26.3059E-03
             485     3.41190E-03     72.1369E-03    -46.9257E+06    -155.914E+06    -31.7298E+06     266.631E+03    -53.9725E-03     107.767E-03    -53.7940E-03     34.7616E-03    -53.9544E-03     107.120E-03    -53.6585E-03     34.6285E-03
             486     4.26494E-03     72.1759E-03    -43.2712E+06    -146.144E+06    -23.1034E+06     260.582E+03    -54.0912E-03     107.897E-03    -53.8055E-03     42.9400E-03    -54.0943E-03     107.294E-03    -53.6464E-03     42.7618E-03
             487     5.11802E-03     72.2229E-03    -39.4732E+06    -137.952E+06    -16.8063E+06     221.643E+03    -54.2487E-03     108.055E-03    -53.8063E-03     50.8188E-03    -54.2718E-03     107.497E-03    -53.6331E-03     50.5875E-03
             488     5.97110E-03     72.2776E-03    -35.8991E+06    -133.226E+06    -10.3866E+06     430.750E+03    -54.4438E-03     108.258E-03    -53.8141E-03     58.4065E-03    -54.4895E-03     107.733E-03    -53.6208E-03     58.1169E-03
             489     6.82419E-03     72.3398E-03    -32.4561E+06    -125.605E+06    -4.92489E+06     533.829E+03    -54.6454E-03     108.460E-03    -53.8147E-03     65.7334E-03    -54.7254E-03     107.993E-03    -53.6101E-03     65.3753E-03
             490     7.67724E-03     72.4091E-03    -29.1437E+06    -114.273E+06    -2.84618E+06     515.563E+03    -54.8377E-03     108.631E-03    -53.7932E-03     72.7379E-03    -54.9635E-03     108.256E-03    -53.5995E-03     72.2995E-03
             491     8.53043E-03     72.4851E-03    -26.3254E+06    -101.661E+06    -1.98304E+06     587.269E+03    -55.0289E-03     108.793E-03    -53.7639E-03     79.4836E-03    -55.2168E-03     108.532E-03    -53.5882E-03     78.9544E-03
             492     9.38357E-03     72.5679E-03    -24.0212E+06    -88.9792E+06    -199.180E+03     646.294E+03    -55.2328E-03     108.972E-03    -53.7396E-03     86.3210E-03    -55.5070E-03     108.846E-03    -53.5768E-03     85.6861E-03
             493     10.2367E-03     72.6574E-03    -22.0209E+06    -74.7064E+06    -326.712E+03     666.514E+03    -55.3918E-03     109.094E-03    -53.7024E-03     93.2079E-03    -55.7801E-03     109.140E-03    -53.5638E-03     92.4520E-03
             494     11.0899E-03     72.7538E-03    -20.3707E+06    -54.7460E+06    -700.257E+03     757.888E+03    -55.3980E-03     109.049E-03    -53.6508E-03     98.9295E-03    -55.9430E-03     109.329E-03    -53.5454E-03     98.0388E-03
             495     11.9437E-03     72.8545E-03    -18.7414E+06    -26.7492E+06     931.493E+03     919.228E+03    -55.5523E-03     109.147E-03    -53.5943E-03     106.404E-03    -56.3395E-03     109.770E-03    -53.5237E-03     105.354E-03
             496     12.7968E-03     72.9656E-03    -17.6996E+06     13.6490E+06    -836.576E+03     1.14515E+06    -55.9587E-03     109.462E-03    -53.5037E-03     120.825E-03    -57.1871E-03     110.679E-03    -53.5020E-03     119.568E-03
             497     13.6504E-03     73.0953E-03    -17.0046E+06     70.3997E+06     3.81327E+06     1.01147E+06    -56.5509E-03     109.968E-03    -53.4171E-03     142.767E-03    -58.6186E-03     112.214E-03    -53.4754E-03     141.271E-03
             498     14.5037E-03     73.2506E-03    -13.9491E+06     118.335E+06     36.7253E+06     259.328E+03    -57.0187E-03     110.492E-03    -53.4728E-03     164.659E-03    -60.2598E-03     113.997E-03    -53.4405E-03     163.153E-03
             499     15.3586E-03     73.4239E-03    -9.73336E+06     143.790E+06     82.0762E+06    -251.124E+03    -56.8822E-03     110.507E-03    -53.6252E-03     172.312E-03    -61.2343E-03     115.097E-03    -53.4092E-03     171.452E-03
             500     16.2119E-03     73.6023E-03    -5.75585E+06     146.246E+06     97.9501E+06     276.501E+03    -55.1086E-03     108.802E-03    -53.6932E-03     107.376E-03    -58.1146E-03     112.022E-03    -53.4072E-03     107.235E-03
             501     852.986E-06     73.1255E-03    -54.9623E+06    -170.530E+06    -53.8851E+06     21.1169E+03    -53.6891E-03     107.454E-03    -53.7645E-03     9.75529E-03    -53.6398E-03     106.761E-03    -53.7070E-03     9.72254E-03
             502     1.70597E-03     73.1392E-03    -53.1044E+06    -167.196E+06    -48.7271E+06     130.523E+03    -53.7897E-03     107.523E-03    -53.7328E-03     17.9301E-03    -53.7468E-03     106.839E-03    -53.6570E-03     17.8690E-03
             503     2.55897E-03     73.1614E-03    -50.4127E+06    -162.252E+06    -41.0788E+06     272.859E+03    -53.8726E-03     107.630E-03    -53.7569E-03     26.3986E-03    -53.8403E-03     106.961E-03    -53.6540E-03     26.3050E-03
             504     3.41196E-03     73.1921E-03    -47.0950E+06    -156.213E+06    -31.9890E+06     341.880E+03    -53.9761E-03     107.759E-03    -53.7832E-03     34.7635E-03    -53.9581E-03     107.112E-03    -53.6483E-03     34.6314E-03
             505     4.26498E-03     73.2310E-03    -42.9723E+06    -145.928E+06    -22.8703E+06     282.104E+03    -54.0903E-03     107.888E-03    -53.7981E-03     42.9434E-03    -54.0926E-03     107.286E-03    -53.6385E-03     42.7654E-03
             506     5.11804E-03     73.2780E-03    -38.9992E+06    -138.346E+06    -15.1859E+06     401.042E+03    -54.2479E-03     108.055E-03    -53.8075E-03     50.8069E-03    -54.2704E-03     107.492E-03    -53.6262E-03     50.5779E-03
             507     5.97114E-03     73.3327E-03    -35.3208E+06    -133.558E+06    -8.88474E+06     692.254E+03    -54.4359E-03     108.251E-03    -53.8148E-03     58.3813E-03    -54.4804E-03     107.721E-03    -53.6144E-03     58.0951E-03
             508     6.82420E-03     73.3950E-03    -31.7850E+06    -125.426E+06    -4.52951E+06     551.834E+03    -54.6170E-03     108.425E-03    -53.8075E-03     65.7015E-03    -54.6945E-03     107.957E-03    -53.6022E-03     65.3437E-03
             509     7.67741E-03     73.4641E-03    -28.6838E+06    -114.460E+06    -2.81071E+06     460.692E+03    -54.8173E-03     108.600E-03    -53.7831E-03     72.7057E-03    -54.9406E-03     108.224E-03    -53.5896E-03     72.2667E-03
             510     8.53049E-03     73.5403E-03    -26.1072E+06    -101.854E+06    -1.93777E+06     615.677E+03    -55.0168E-03     108.770E-03    -53.7535E-03     79.4120E-03    -55.2034E-03     108.508E-03    -53.5776E-03     78.8831E-03
             511     9.38367E-03     73.6229E-03    -23.9260E+06    -89.1472E+06    -149.534E+03     756.271E+03    -55.1897E-03     108.918E-03    -53.7281E-03     86.2458E-03    -55.4631E-03     108.790E-03    -53.5649E-03     85.6128E-03
             512     10.2368E-03     73.7126E-03    -22.1244E+06    -74.7990E+06    -365.936E+03     784.503E+03    -55.3487E-03     109.037E-03    -53.6884E-03     93.0984E-03    -55.7370E-03     109.082E-03    -53.5497E-03     92.3447E-03
             513     11.0902E-03     73.8086E-03    -20.5594E+06    -54.9927E+06    -792.132E+03     793.753E+03    -55.4665E-03     109.106E-03    -53.6394E-03     98.7176E-03    -56.0127E-03     109.386E-03    -53.5338E-03     97.8248E-03
             514     11.9433E-03     73.9094E-03    -19.1078E+06    -26.6300E+06     826.097E+03     748.165E+03    -55.6390E-03     109.229E-03    -53.5901E-03     106.108E-03    -56.4277E-03     109.853E-03    -53.5197E-03     105.054E-03
             515     12.7967E-03     74.0209E-03    -17.3748E+06     12.8992E+06    -864.715E+03     997.341E+03    -56.0178E-03     109.525E-03    -53.5070E-03     120.254E-03    -57.2423E-03     110.736E-03    -53.5049E-03     118.993E-03
             516     13.6500E-03     74.1499E-03    -15.5996E+06     70.5126E+06     4.50935E+06     838.211E+03    -56.6235E-03     110.051E-03    -53.4278E-03     141.992E-03    -58.6777E-03     112.287E-03    -53.4848E-03     140.490E-03
             517     14.5044E-03     74.3054E-03    -13.9562E+06     119.546E+06     38.1473E+06     339.610E+03    -57.5780E-03     111.085E-03    -53.5072E-03     164.420E-03    -60.8225E-03     114.594E-03    -53.4695E-03     162.886E-03
             518     15.3546E-03     74.4812E-03    -10.7129E+06     143.909E+06     82.3484E+06     731.210E+03    -57.7870E-03     111.479E-03    -53.6918E-03     174.653E-03    -62.2075E-03     116.133E-03    -53.4732E-03     173.763E-03
             519     16.2057E-03     74.6570E-03    -5.46074E+06     146.268E+06     97.4221E+06     398.783E+03    -54.5285E-03     108.280E-03    -53.7515E-03     110.519E-03    -57.5994E-03     111.568E-03    -53.4685E-03     110.396E-03
             520     853.017E-06     74.1807E-03    -55.1279E+06    -170.601E+06    -53.8121E+06     35.8578E+03    -53.6998E-03     107.445E-03    -53.7450E-03     9.81310E-03    -53.6514E-03     106.751E-03    -53.6867E-03     9.78044E-03
             521     1.70596E-03     74.1943E-03    -53.4634E+06    -167.375E+06    -48.7127E+06    -7.14857E+03    -53.7922E-03     107.523E-03    -53.7310E-03     17.9006E-03    -53.7509E-03     106.839E-03    -53.6544E-03     17.8377E-03
             522     2.55896E-03     74.2165E-03    -50.5673E+06    -162.520E+06    -41.3689E+06     159.808E+03    -53.8600E-03     107.614E-03    -53.7536E-03     26.3678E-03    -53.8277E-03     106.945E-03    -53.6515E-03     26.2727E-03
             523     3.41197E-03     74.2472E-03    -46.8166E+06    -156.195E+06    -32.1224E+06     138.041E+03    -53.9643E-03     107.741E-03    -53.7770E-03     34.7340E-03    -53.9446E-03     107.094E-03    -53.6432E-03     34.5992E-03
             524     4.26501E-03     74.2861E-03    -43.1245E+06    -146.257E+06    -23.2947E+06     334.688E+03    -54.0879E-03     107.879E-03    -53.7910E-03     42.9180E-03    -54.0899E-03     107.276E-03    -53.6328E-03     42.7407E-03
             525     5.11809E-03     74.3332E-03    -39.4390E+06    -138.754E+06    -15.5424E+06     688.798E+03    -54.2502E-03     108.052E-03    -53.8023E-03     50.8039E-03    -54.2739E-03     107.489E-03    -53.6216E-03     50.5785E-03
             526     5.97111E-03     74.3879E-03    -35.4909E+06    -133.638E+06    -8.98855E+06      584.38E+03    -54.4307E-03     108.241E-03    -53.8107E-03     58.3666E-03    -54.4759E-03     107.712E-03    -53.6104E-03     58.0788E-03
             527     6.82430E-03     74.4500E-03    -31.7905E+06    -125.314E+06    -4.59947E+06     564.594E+03    -54.6177E-03     108.421E-03    -53.8034E-03     65.6514E-03    -54.6953E-03     107.954E-03    -53.5986E-03     65.2935E-03
             528     7.67736E-03     74.5193E-03    -28.8169E+06    -114.658E+06    -2.92522E+06     663.322E+03    -54.8202E-03     108.600E-03    -53.7803E-03     72.6348E-03    -54.9437E-03     108.223E-03    -53.5868E-03     72.1981E-03
             529     8.53055E-03     74.5954E-03    -26.2978E+06    -102.037E+06    -2.02123E+06     684.549E+03    -54.9992E-03     108.750E-03    -53.7509E-03     79.3143E-03    -55.1863E-03     108.487E-03    -53.5749E-03     78.7863E-03
             530     9.38369E-03     74.6780E-03    -23.9453E+06    -89.4154E+06    -206.764E+03     738.318E+03    -55.1658E-03     108.890E-03    -53.7244E-03     86.1026E-03    -55.4385E-03     108.761E-03    -53.5611E-03     85.4696E-03
             531     10.2370E-03     74.7675E-03    -21.9299E+06    -74.9794E+06    -285.283E+03     956.561E+03    -55.3814E-03     109.067E-03    -53.6861E-03     92.8920E-03    -55.7683E-03     109.111E-03    -53.5471E-03     92.1397E-03
             532     11.0902E-03     74.8638E-03    -20.3059E+06    -54.8831E+06    -474.914E+03     947.192E+03    -55.6071E-03     109.252E-03    -53.6452E-03     98.5862E-03    -56.1532E-03     109.533E-03    -53.5385E-03     97.6925E-03
             533     11.9432E-03     74.9649E-03    -19.0568E+06    -26.6497E+06     807.261E+03     896.235E+03    -55.7530E-03     109.357E-03    -53.6041E-03     105.940E-03    -56.5413E-03     109.981E-03    -53.5337E-03     104.886E-03
             534     12.7964E-03     75.0756E-03    -17.9295E+06     13.0227E+06    -960.130E+03     310.565E+03    -56.0978E-03     109.625E-03    -53.5274E-03     120.178E-03    -57.3244E-03     110.837E-03    -53.5251E-03     118.906E-03
             535     13.6497E-03     75.2054E-03    -16.2656E+06     70.6713E+06     4.83195E+06    -32.0510E+03    -56.9873E-03     110.450E-03    -53.4628E-03     142.153E-03    -59.0527E-03     112.695E-03    -53.5175E-03     140.624E-03
             536     14.5018E-03     75.3603E-03    -13.7391E+06     118.746E+06     38.4771E+06     1.12336E+06    -57.4535E-03     111.001E-03    -53.5471E-03     164.694E-03    -60.6989E-03     114.507E-03    -53.5070E-03     163.174E-03
             537     15.3582E-03     75.5376E-03    -9.44339E+06     143.760E+06     82.8436E+06     1.18702E+06    -56.5690E-03     110.258E-03    -53.6891E-03     175.139E-03    -60.9651E-03     114.891E-03    -53.4696E-03     174.321E-03
             538     16.2142E-03     75.7138E-03    -4.29377E+06     147.322E+06     98.2195E+06     560.908E+03    -54.4951E-03     108.207E-03    -53.7122E-03     110.811E-03    -57.5487E-03     111.484E-03    -53.4285E-03     110.717E-03
             539     852.948E-06     75.2357E-03    -55.3102E+06    -170.795E+06    -53.8849E+06     211.792E+03    -53.7625E-03     107.470E-03    -53.7071E-03     9.82598E-03    -53.7146E-03     106.776E-03    -53.6487E-03     9.79530E-03
             540     1.70596E-03     75.2495E-03    -53.5362E+06    -167.437E+06    -48.6452E+06     218.197E+03    -53.7892E-03     107.530E-03    -53.7410E-03     17.8973E-03    -53.7482E-03     106.846E-03    -53.6638E-03     17.8372E-03
             541     2.55892E-03     75.2716E-03    -50.8894E+06    -162.486E+06    -41.1571E+06     1.26727E+03    -53.8523E-03     107.612E-03    -53.7598E-03     26.3713E-03    -53.8219E-03     106.944E-03    -53.6562E-03     26.2741E-03
             542     3.41197E-03     75.3023E-03    -47.6715E+06    -156.496E+06    -32.1549E+06     196.063E+03    -53.9533E-03     107.734E-03    -53.7803E-03     34.7332E-03    -53.9374E-03     107.086E-03    -53.6451E-03     34.5993E-03
             543     4.26501E-03     75.3412E-03    -44.0377E+06    -146.999E+06    -23.9258E+06     717.740E+03    -54.0865E-03     107.878E-03    -53.7910E-03     42.8848E-03    -54.0910E-03     107.273E-03    -53.6336E-03     42.7124E-03
             544     5.11806E-03     75.3883E-03    -40.1759E+06    -138.638E+06    -17.3833E+06     648.648E+03    -54.2428E-03     108.037E-03    -53.7944E-03     50.7630E-03    -54.2676E-03     107.478E-03    -53.6220E-03     50.5370E-03
             545     5.97121E-03     75.4430E-03    -36.3395E+06    -133.468E+06    -10.5420E+06     354.081E+03    -54.4401E-03     108.245E-03    -53.8048E-03     58.3164E-03    -54.4875E-03     107.720E-03    -53.6113E-03     58.0254E-03
             546     6.82421E-03     75.5051E-03    -32.7078E+06    -125.756E+06    -4.83932E+06     468.916E+03    -54.6459E-03     108.454E-03    -53.8079E-03     65.5824E-03    -54.7272E-03     107.987E-03    -53.6023E-03     65.2227E-03
             547     7.67736E-03     75.5744E-03    -29.3468E+06    -114.706E+06    -2.92985E+06     641.531E+03    -54.8282E-03     108.615E-03    -53.7871E-03     72.5520E-03    -54.9543E-03     108.239E-03    -53.5929E-03     72.1147E-03
             548     8.53045E-03     75.6505E-03    -26.4563E+06    -102.146E+06    -2.13319E+06     559.173E+03    -55.0008E-03     108.758E-03    -53.7572E-03     79.1964E-03    -55.1883E-03     108.495E-03    -53.5814E-03     78.6666E-03
             549     9.38369E-03     75.7331E-03    -23.9691E+06    -89.5966E+06    -310.651E+03     569.947E+03    -55.2129E-03     108.946E-03    -53.7328E-03     85.9372E-03    -55.4853E-03     108.816E-03    -53.5697E-03     85.3012E-03
             550     10.2367E-03     75.8227E-03    -21.7364E+06    -75.3957E+06    -446.371E+03     779.771E+03    -55.4765E-03     109.176E-03    -53.6999E-03     92.7943E-03    -55.8620E-03     109.218E-03    -53.5613E-03     92.0378E-03
             551     11.0898E-03     75.9190E-03    -19.9663E+06    -55.0012E+06    -508.136E+03     1.00085E+06    -55.6421E-03     109.305E-03    -53.6630E-03     98.5927E-03    -56.1860E-03     109.584E-03    -53.5568E-03     97.6994E-03
             552     11.9430E-03     76.0202E-03    -18.2452E+06    -26.6550E+06     1.07611E+06     944.661E+03    -55.7576E-03     109.380E-03    -53.6226E-03     105.861E-03    -56.5413E-03     110.001E-03    -53.5521E-03     104.808E-03
             553     12.7961E-03     76.1308E-03    -17.2512E+06     13.7844E+06    -595.600E+03     752.111E+03    -56.1420E-03     109.688E-03    -53.5456E-03     120.268E-03    -57.3687E-03     110.904E-03    -53.5435E-03     118.999E-03
             554     13.6493E-03     76.2606E-03    -17.2874E+06     70.4222E+06     4.06149E+06     515.280E+03    -57.0719E-03     110.552E-03    -53.4799E-03     142.996E-03    -59.1465E-03     112.803E-03    -53.5367E-03     141.472E-03
             555     14.5028E-03     76.4172E-03    -15.6022E+06     117.846E+06     36.6528E+06     477.783E+03    -57.6305E-03     111.197E-03    -53.5669E-03     164.378E-03    -60.8805E-03     114.704E-03    -53.5319E-03     162.844E-03
             556     15.3547E-03     76.5892E-03    -11.1707E+06     143.864E+06     81.7408E+06     692.178E+03    -56.6966E-03     110.422E-03    -53.7250E-03     172.573E-03    -61.0586E-03     115.018E-03    -53.5087E-03     171.732E-03
             557     16.2087E-03     76.7671E-03    -5.25080E+06     147.708E+06     98.3684E+06     600.417E+03    -54.0390E-03     107.790E-03    -53.7515E-03     108.975E-03    -57.0601E-03     111.032E-03    -53.4662E-03     108.884E-03
             558     852.980E-06     76.2909E-03    -55.4446E+06    -171.162E+06    -54.3461E+06     177.457E+03    -53.7838E-03     107.493E-03    -53.7096E-03     9.85621E-03    -53.7354E-03     106.798E-03    -53.6527E-03     9.82495E-03
             559     1.70592E-03     76.3045E-03    -53.5114E+06    -167.529E+06    -48.8412E+06     238.808E+03    -53.7924E-03     107.543E-03    -53.7506E-03     17.8833E-03    -53.7509E-03     106.858E-03    -53.6743E-03     17.8235E-03
             560     2.55896E-03     76.3268E-03    -50.9631E+06    -162.627E+06    -41.2478E+06     453.377E+03    -53.8579E-03     107.626E-03    -53.7679E-03     26.3338E-03    -53.8275E-03     106.957E-03    -53.6644E-03     26.2423E-03
             561     3.41195E-03     76.3574E-03    -47.8986E+06    -157.044E+06    -32.7560E+06     675.862E+03    -53.9663E-03     107.753E-03    -53.7869E-03     34.6984E-03    -53.9500E-03     107.104E-03    -53.6535E-03     34.5704E-03
             562     4.26497E-03     76.3964E-03    -43.9654E+06    -147.278E+06    -24.3178E+06     591.930E+03    -54.0956E-03     107.894E-03    -53.7983E-03     42.8546E-03    -54.0988E-03     107.289E-03    -53.6426E-03     42.6803E-03
             563     5.11805E-03     76.4434E-03    -39.8139E+06    -138.459E+06    -17.2580E+06     486.368E+03    -54.2606E-03     108.065E-03    -53.8039E-03     50.7070E-03    -54.2841E-03     107.505E-03    -53.6317E-03     50.4785E-03
             564     5.97106E-03     76.4981E-03    -36.2113E+06    -133.518E+06    -10.5086E+06     547.756E+03    -54.4596E-03     108.275E-03    -53.8158E-03     58.2678E-03    -54.5065E-03     107.750E-03    -53.6223E-03     57.9789E-03
             565     6.82417E-03     76.5603E-03    -32.8944E+06    -125.942E+06    -5.02401E+06     535.566E+03    -54.6589E-03     108.478E-03    -53.8194E-03     65.5306E-03    -54.7407E-03     108.011E-03    -53.6142E-03     65.1714E-03
             566     7.67720E-03     76.6296E-03    -29.6341E+06    -114.641E+06    -3.32220E+06     277.771E+03    -54.8463E-03     108.644E-03    -53.7981E-03     72.4868E-03    -54.9735E-03     108.269E-03    -53.6055E-03     72.0443E-03
             567     8.53037E-03     76.7057E-03    -26.7268E+06    -102.262E+06    -2.72064E+06     293.868E+03    -55.0423E-03     108.812E-03    -53.7695E-03     79.1381E-03    -55.2301E-03     108.550E-03    -53.5961E-03     78.6043E-03
             568     9.38341E-03     76.7882E-03    -24.3919E+06    -89.8704E+06    -1.01106E+06     482.532E+03    -55.2665E-03     109.015E-03    -53.7481E-03     85.9370E-03    -55.5398E-03     108.885E-03    -53.5875E-03     85.2990E-03
             569     10.2365E-03     76.8779E-03    -22.4235E+06    -75.5590E+06    -1.35116E+06     445.837E+03    -55.5103E-03     109.227E-03    -53.7165E-03     92.9134E-03    -55.8978E-03     109.270E-03    -53.5812E-03     92.1523E-03
             570     11.0896E-03     76.9743E-03    -20.3877E+06    -55.3764E+06    -1.50126E+06     473.034E+03    -55.5909E-03     109.267E-03    -53.6766E-03     98.7007E-03    -56.1342E-03     109.546E-03    -53.5742E-03     97.8023E-03
             571     11.9428E-03     77.0755E-03    -18.5709E+06    -26.8179E+06     156.461E+03     676.332E+03    -55.7111E-03     109.342E-03    -53.6306E-03     106.090E-03    -56.4938E-03     109.963E-03    -53.5640E-03     105.036E-03
             572     12.7961E-03     77.1860E-03    -17.2406E+06     13.3101E+06    -1.40643E+06     1.01307E+06    -56.2184E-03     109.772E-03    -53.5533E-03     120.435E-03    -57.4449E-03     110.988E-03    -53.5547E-03     119.166E-03
             573     13.6493E-03     77.3160E-03    -16.0676E+06     69.9420E+06     3.86957E+06     2.02791E+06    -56.9043E-03     110.389E-03    -53.4845E-03     143.151E-03    -58.9640E-03     112.628E-03    -53.5432E-03     141.655E-03
             574     14.5022E-03     77.4727E-03    -15.0294E+06     119.006E+06     36.0683E+06     1.54559E+06    -57.6401E-03     111.200E-03    -53.5598E-03     165.212E-03    -60.8927E-03     114.717E-03    -53.5302E-03     163.695E-03
             575     15.3556E-03     77.6467E-03    -11.7691E+06     144.736E+06     80.8917E+06     61.3148E+03    -57.6750E-03     111.415E-03    -53.7398E-03     174.451E-03    -62.1043E-03     116.082E-03    -53.5282E-03     173.554E-03
             576     16.2077E-03     77.8216E-03    -5.48498E+06     147.612E+06     98.3670E+06    -158.631E+03    -54.0422E-03     107.834E-03    -53.7914E-03     110.904E-03    -57.1195E-03     111.130E-03    -53.5057E-03     110.790E-03
             577     852.938E-06     77.3460E-03    -55.6981E+06    -171.364E+06    -54.4553E+06    -57.2234E+03    -53.8192E-03     107.521E-03    -53.7021E-03     9.86562E-03    -53.7716E-03     106.826E-03    -53.6452E-03     9.83127E-03
             578     1.70592E-03     77.3597E-03    -54.0304E+06    -168.045E+06    -49.2423E+06     338.335E+03    -53.8055E-03     107.570E-03    -53.7645E-03     17.8593E-03    -53.7652E-03     106.884E-03    -53.6887E-03     17.8007E-03
             579     2.55886E-03     77.3818E-03    -51.3505E+06    -163.248E+06    -41.8951E+06     727.430E+03    -53.8802E-03     107.662E-03    -53.7817E-03     26.3172E-03    -53.8499E-03     106.991E-03    -53.6800E-03     26.2291E-03
             580     3.41187E-03     77.4125E-03    -47.6555E+06    -157.106E+06    -32.9276E+06     640.476E+03    -53.9842E-03     107.787E-03    -53.8025E-03     34.6792E-03    -53.9663E-03     107.137E-03    -53.6703E-03     34.5505E-03
             581     4.26490E-03     77.4515E-03    -43.8316E+06    -147.274E+06    -24.3566E+06     484.741E+03    -54.1109E-03     107.925E-03    -53.8145E-03     42.8362E-03    -54.1135E-03     107.320E-03    -53.6592E-03     42.6603E-03
             582     5.11793E-03     77.4986E-03    -40.4123E+06    -138.836E+06    -17.4787E+06     708.828E+03    -54.2803E-03     108.101E-03    -53.8211E-03     50.6994E-03    -54.3060E-03     107.541E-03    -53.6486E-03     50.4735E-03
             583     5.97098E-03     77.5533E-03    -36.9097E+06    -133.433E+06    -10.9674E+06     706.057E+03    -54.4697E-03     108.301E-03    -53.8315E-03     58.2658E-03    -54.5195E-03     107.778E-03    -53.6393E-03     57.9789E-03
             584     6.82402E-03     77.6155E-03    -32.9677E+06    -125.598E+06    -5.72384E+06     196.829E+03    -54.6580E-03     108.489E-03    -53.8312E-03     65.5341E-03    -54.7396E-03     108.024E-03    -53.6299E-03     65.1706E-03
             585     7.67713E-03     77.6848E-03    -29.5301E+06    -114.700E+06    -3.85486E+06     153.365E+03    -54.8634E-03     108.674E-03    -53.8101E-03     72.4948E-03    -54.9892E-03     108.298E-03    -53.6202E-03     72.0506E-03
             586     8.53015E-03     77.7608E-03    -27.1604E+06    -102.584E+06    -3.24675E+06     416.929E+03    -55.0639E-03     108.847E-03    -53.7829E-03     79.1969E-03    -55.2527E-03     108.584E-03    -53.6110E-03     78.6646E-03
             587     9.38329E-03     77.8435E-03    -25.0222E+06    -89.8290E+06    -1.57019E+06     350.804E+03    -55.2814E-03     109.043E-03    -53.7612E-03     86.0619E-03    -55.5572E-03     108.915E-03    -53.6025E-03     85.4221E-03
             588     10.2364E-03     77.9330E-03    -22.8098E+06    -75.4439E+06    -1.63884E+06     106.192E+03    -55.4615E-03     109.189E-03    -53.7276E-03     93.0447E-03    -55.8505E-03     109.234E-03    -53.5933E-03     92.2804E-03
             589     11.0895E-03     78.0298E-03    -21.0051E+06    -55.5541E+06    -1.95883E+06     38.4611E+03    -55.5177E-03     109.199E-03    -53.6816E-03     98.8041E-03    -56.0624E-03     109.478E-03    -53.5804E-03     97.9023E-03
             590     11.9430E-03     78.1301E-03    -19.5924E+06    -27.3367E+06    -568.981E+03     236.152E+03    -55.6835E-03     109.314E-03    -53.6309E-03     106.294E-03    -56.4700E-03     109.936E-03    -53.5657E-03     105.234E-03
             591     12.7960E-03     78.2420E-03    -18.1946E+06     12.6627E+06    -1.96305E+06     986.451E+03    -56.2264E-03     109.779E-03    -53.5527E-03     120.816E-03    -57.4573E-03     110.996E-03    -53.5545E-03     119.548E-03
             592     13.6488E-03     78.3711E-03    -17.0902E+06     68.7508E+06     2.90563E+06     1.63616E+06    -56.7232E-03     110.200E-03    -53.4770E-03     143.174E-03    -58.7867E-03     112.439E-03    -53.5374E-03     141.680E-03
             593     14.5032E-03     78.5276E-03    -13.9250E+06     119.617E+06     39.1057E+06     2.06244E+06    -57.0552E-03     110.598E-03    -53.5427E-03     166.035E-03    -60.3066E-03     114.111E-03    -53.5004E-03     164.551E-03
             594     15.3569E-03     78.7029E-03    -9.57537E+06     146.929E+06     85.2886E+06     1.11076E+06    -57.1817E-03     110.874E-03    -53.6921E-03     175.664E-03    -61.6184E-03     115.551E-03    -53.4648E-03     174.822E-03
             595     16.2102E-03     78.8788E-03    -5.28143E+06     147.751E+06     98.5251E+06    -373.892E+03    -54.6731E-03     108.405E-03    -53.7318E-03     109.679E-03    -57.7454E-03     111.697E-03    -53.4458E-03     109.555E-03
             596     852.928E-06     78.4011E-03    -56.0822E+06    -171.669E+06    -54.6917E+06     183.205E+03    -53.8327E-03     107.558E-03    -53.7253E-03     9.78795E-03    -53.7862E-03     106.862E-03    -53.6686E-03     9.75679E-03
             597     1.70587E-03     78.4148E-03    -54.4668E+06    -168.716E+06    -49.9728E+06     466.575E+03    -53.8184E-03     107.599E-03    -53.7803E-03     17.8653E-03    -53.7783E-03     106.911E-03    -53.7066E-03     17.8083E-03
             598     2.55886E-03     78.4370E-03    -51.5711E+06    -163.588E+06    -42.2812E+06     457.055E+03    -53.8994E-03     107.697E-03    -53.7976E-03     26.3373E-03    -53.8692E-03     107.026E-03    -53.6970E-03     26.2456E-03
             599     3.41181E-03     78.4677E-03    -48.0838E+06    -157.211E+06    -32.8402E+06     528.883E+03    -54.0040E-03     107.826E-03    -53.8215E-03     34.7002E-03    -53.9882E-03     107.176E-03    -53.6880E-03     34.5700E-03
             600     4.26480E-03     78.5067E-03    -44.4707E+06    -147.663E+06    -24.5889E+06     828.026E+03    -54.1290E-03     107.962E-03    -53.8333E-03     42.8490E-03    -54.1338E-03     107.356E-03    -53.6776E-03     42.6774E-03
             601     5.11784E-03     78.5538E-03    -40.7442E+06    -139.276E+06    -17.9426E+06     1.05528E+06    -54.2844E-03     108.122E-03    -53.8373E-03     50.7235E-03    -54.3104E-03     107.561E-03    -53.6660E-03     50.5022E-03
             602     5.97087E-03     78.6085E-03    -36.9638E+06    -132.778E+06    -11.2886E+06     632.018E+03    -54.4665E-03     108.310E-03    -53.8439E-03     58.3007E-03    -54.5170E-03     107.791E-03    -53.6542E-03     58.0130E-03
             603     6.82393E-03     78.6707E-03    -33.5766E+06    -125.035E+06    -6.04075E+06    -30.0551E+03    -54.6614E-03     108.504E-03    -53.8428E-03     65.5800E-03    -54.7464E-03     108.044E-03    -53.6430E-03     65.2136E-03
             604     7.67700E-03     78.7399E-03    -30.6495E+06    -115.502E+06    -4.30344E+06     185.461E+03    -54.8609E-03     108.683E-03    -53.8225E-03     72.5378E-03    -54.9904E-03     108.307E-03    -53.6321E-03     72.0941E-03
             605     8.53013E-03     78.8161E-03    -27.7891E+06    -102.408E+06    -3.21763E+06     343.902E+03    -55.0573E-03     108.852E-03    -53.7942E-03     79.2365E-03    -55.2497E-03     108.591E-03    -53.6215E-03     78.7030E-03
             606     9.38326E-03     78.8985E-03    -24.9403E+06    -89.4785E+06    -1.26234E+06    -136.977E+03    -55.2594E-03     109.030E-03    -53.7704E-03     86.1386E-03    -55.5359E-03     108.904E-03    -53.6108E-03     85.4926E-03
             607     10.2363E-03     78.9886E-03    -22.6765E+06    -75.5845E+06    -1.47489E+06    -79.8882E+03    -55.4074E-03     109.140E-03    -53.7328E-03     93.0058E-03    -55.7959E-03     109.184E-03    -53.5977E-03     92.2392E-03
             608     11.0898E-03     79.0843E-03    -21.1476E+06    -55.6556E+06    -1.73793E+06     89.7440E+03    -55.5242E-03     109.210E-03    -53.6854E-03     98.7831E-03    -56.0706E-03     109.488E-03    -53.5827E-03     97.8806E-03
             609     11.9427E-03     79.1860E-03    -19.9300E+06    -27.5367E+06    -390.699E+03     306.071E+03    -55.7040E-03     109.340E-03    -53.6361E-03     106.202E-03    -56.4943E-03     109.963E-03    -53.5692E-03     105.140E-03
             610     12.7962E-03     79.2964E-03    -18.6627E+06     11.7835E+06    -1.78901E+06     755.822E+03    -55.9889E-03     109.541E-03    -53.5524E-03     120.718E-03    -57.2195E-03     110.753E-03    -53.5514E-03     119.453E-03
             611     13.6498E-03     79.4275E-03    -17.0144E+06     68.4928E+06     3.88227E+06     1.05115E+06    -56.6192E-03     110.089E-03    -53.4697E-03     142.813E-03    -58.6847E-03     112.326E-03    -53.5249E-03     141.312E-03
             612     14.5031E-03     79.5808E-03    -14.4918E+06     119.368E+06     38.9178E+06     794.477E+03    -56.8907E-03     110.418E-03    -53.5271E-03     164.980E-03    -60.1363E-03     113.923E-03    -53.4846E-03     163.483E-03
             613     15.3579E-03     79.7587E-03    -9.22598E+06     147.008E+06     85.3009E+06     845.800E+03    -56.2704E-03     109.921E-03    -53.6502E-03     175.276E-03    -60.6735E-03     114.565E-03    -53.4234E-03     174.472E-03
             614     16.2116E-03     79.9342E-03    -4.99107E+06     148.908E+06     99.1143E+06     908.659E+03    -55.2664E-03     108.950E-03    -53.6833E-03     109.953E-03    -58.3199E-03     112.227E-03    -53.3964E-03     109.846E-03
             615     852.899E-06     79.4563E-03    -56.8619E+06    -172.479E+06    -55.5050E+06     417.681E+03    -53.8007E-03     107.586E-03    -53.7856E-03     9.74407E-03    -53.7558E-03     106.889E-03    -53.7306E-03     9.71644E-03
             616     1.70586E-03     79.4700E-03    -54.7575E+06    -168.855E+06    -50.0614E+06     374.540E+03    -53.8337E-03     107.630E-03    -53.7965E-03     17.8782E-03    -53.7947E-03     106.943E-03    -53.7225E-03     17.8200E-03
             617     2.55878E-03     79.4922E-03    -51.9985E+06    -163.794E+06    -42.2592E+06     287.095E+03    -53.9111E-03     107.725E-03    -53.8142E-03     26.3465E-03    -53.8827E-03     107.053E-03    -53.7126E-03     26.2526E-03
             618     3.41177E-03     79.5229E-03    -48.5762E+06    -157.916E+06    -33.4457E+06     710.342E+03    -54.0189E-03     107.854E-03    -53.8355E-03     34.7090E-03    -54.0036E-03     107.203E-03    -53.7033E-03     34.5811E-03
             619     4.26474E-03     79.5619E-03    -44.5097E+06    -147.813E+06    -24.6442E+06     773.310E+03    -54.1420E-03     107.990E-03    -53.8483E-03     42.8705E-03    -54.1468E-03     107.384E-03    -53.6926E-03     42.6982E-03
             620     5.11776E-03     79.6090E-03    -39.8482E+06    -139.493E+06    -16.4950E+06     507.270E+03    -54.2924E-03     108.150E-03    -53.8576E-03     50.7442E-03    -54.3157E-03     107.584E-03    -53.6800E-03     50.5157E-03
             621     5.97082E-03     79.6637E-03    -35.4940E+06    -132.417E+06    -9.46059E+06     569.481E+03    -54.4730E-03     108.336E-03    -53.8629E-03     58.3057E-03    -54.5194E-03     107.814E-03    -53.6667E-03     58.0170E-03
             622     6.82391E-03     79.7259E-03    -32.2017E+06    -124.891E+06    -4.70603E+06     758.977E+03    -54.6772E-03     108.536E-03    -53.8590E-03     65.5527E-03    -54.7576E-03     108.073E-03    -53.6548E-03     65.1960E-03
             623     7.67694E-03     79.7952E-03    -29.5031E+06    -115.624E+06    -3.56239E+06     514.542E+03    -54.8768E-03     108.713E-03    -53.8366E-03     72.4818E-03    -55.0017E-03     108.333E-03    -53.6440E-03     72.0416E-03
             624     8.53005E-03     79.8712E-03    -26.6926E+06    -101.770E+06    -3.02843E+06    -200.416E+03    -55.0593E-03     108.863E-03    -53.8040E-03     79.2019E-03    -55.2476E-03     108.604E-03    -53.6329E-03     78.6607E-03
             625     9.38309E-03     79.9540E-03    -24.3703E+06    -89.4683E+06    -1.30680E+06    -277.020E+03    -55.2387E-03     109.018E-03    -53.7788E-03     86.0307E-03    -55.5125E-03     108.891E-03    -53.6203E-03     85.3823E-03
             626     10.2365E-03     80.0433E-03    -22.6083E+06    -75.9122E+06    -1.88530E+06    -51.3220E+03    -55.4556E-03     109.197E-03    -53.7414E-03     92.8085E-03    -55.8432E-03     109.240E-03    -53.6079E-03     92.0403E-03
             627     11.0893E-03     80.1399E-03    -21.1337E+06    -55.6903E+06    -2.09086E+06     212.995E+03    -55.6045E-03     109.303E-03    -53.6989E-03     98.5630E-03    -56.1518E-03     109.584E-03    -53.5979E-03     97.6583E-03
             628     11.9428E-03     80.2408E-03    -19.7323E+06    -28.0259E+06    -604.164E+03     712.152E+03    -55.7212E-03     109.375E-03    -53.6541E-03     105.930E-03    -56.5099E-03     109.996E-03    -53.5878E-03     104.872E-03
             629     12.7956E-03     80.3522E-03    -18.9894E+06     11.3218E+06    -2.59319E+06     790.657E+03    -55.9022E-03     109.469E-03    -53.5670E-03     119.914E-03    -57.1309E-03     110.678E-03    -53.5689E-03     118.649E-03
             630     13.6496E-03     80.4808E-03    -17.4290E+06     68.8183E+06     2.13913E+06     186.082E+03    -56.6745E-03     110.153E-03    -53.4787E-03     142.408E-03    -58.7339E-03     112.389E-03    -53.5425E-03     140.893E-03
             631     14.5027E-03     80.6385E-03    -13.9353E+06     119.679E+06     35.9214E+06    -214.476E+03    -57.3111E-03     110.856E-03    -53.5453E-03     163.514E-03    -60.5391E-03     114.356E-03    -53.5190E-03     161.987E-03
             632     15.3563E-03     80.8092E-03    -10.4568E+06     145.478E+06     81.6563E+06     304.923E+03    -56.7855E-03     110.490E-03    -53.7047E-03     172.359E-03    -61.1538E-03     115.101E-03    -53.4922E-03     171.504E-03
             633     16.2128E-03     80.9903E-03    -5.96822E+06     148.645E+06     98.1304E+06     1.16850E+06    -54.5473E-03     108.297E-03    -53.7501E-03     108.886E-03    -57.5779E-03     111.550E-03    -53.4663E-03     108.780E-03
             634     852.926E-06     80.5116E-03    -57.2998E+06    -172.940E+06    -56.0879E+06     130.708E+03    -53.8181E-03     107.617E-03    -53.7987E-03     9.72139E-03    -53.7738E-03     106.918E-03    -53.7453E-03     9.69021E-03
             635     1.70581E-03     80.5252E-03    -55.2565E+06    -169.108E+06    -50.1725E+06     215.772E+03    -53.8446E-03     107.657E-03    -53.8127E-03     17.8848E-03    -53.8076E-03     106.969E-03    -53.7382E-03     17.8245E-03
             636     2.55878E-03     80.5475E-03    -52.4159E+06    -164.160E+06    -42.5165E+06     529.300E+03    -53.9269E-03     107.756E-03    -53.8293E-03     26.3555E-03    -53.8997E-03     107.083E-03    -53.7279E-03     26.2646E-03
             637     3.41170E-03     80.5781E-03    -48.7743E+06    -158.231E+06    -33.8850E+06     447.845E+03    -54.0287E-03     107.878E-03    -53.8489E-03     34.7112E-03    -54.0134E-03     107.226E-03    -53.7182E-03     34.5798E-03
             638     4.26471E-03     80.6172E-03    -44.3977E+06    -147.552E+06    -24.4422E+06     168.352E+03    -54.1488E-03     108.011E-03    -53.8623E-03     42.8811E-03    -54.1537E-03     107.405E-03    -53.7062E-03     42.7009E-03
             639     5.11770E-03     80.6642E-03    -40.3270E+06    -139.527E+06    -16.3328E+06     80.7820E+03    -54.3118E-03     108.185E-03    -53.8727E-03     50.7286E-03    -54.3377E-03     107.619E-03    -53.6936E-03     50.4943E-03
             640     5.97073E-03     80.7189E-03    -36.5758E+06    -132.952E+06    -10.4454E+06     354.590E+03    -54.4940E-03     108.369E-03    -53.8754E-03     58.2753E-03    -54.5437E-03     107.848E-03    -53.6819E-03     57.9833E-03
             641     6.82372E-03     80.7812E-03    -32.6067E+06    -125.230E+06    -5.90552E+06     661.244E+03    -54.6850E-03     108.555E-03    -53.8695E-03     65.5256E-03    -54.7653E-03     108.092E-03    -53.6702E-03     65.1673E-03
             642     7.67682E-03     80.8504E-03    -28.8089E+06    -114.674E+06    -4.21513E+06     249.459E+03    -54.8970E-03     108.743E-03    -53.8461E-03     72.4696E-03    -55.0189E-03     108.368E-03    -53.6592E-03     72.0255E-03
             643     8.52983E-03     80.9266E-03    -26.2652E+06    -101.371E+06    -3.81562E+06    -179.037E+03    -55.0903E-03     108.905E-03    -53.8149E-03     79.1438E-03    -55.2762E-03     108.649E-03    -53.6489E-03     78.6021E-03
             644     9.38309E-03     81.0090E-03    -24.3529E+06    -89.7075E+06    -2.11705E+06    -98.9639E+03    -55.3074E-03     109.102E-03    -53.7944E-03     85.8971E-03    -55.5799E-03     108.976E-03    -53.6396E-03     85.2494E-03
             645     10.2359E-03     81.0988E-03    -22.5679E+06    -75.9687E+06    -2.53174E+06    -9.57237E+03    -55.5553E-03     109.318E-03    -53.7632E-03     92.6987E-03    -55.9424E-03     109.363E-03    -53.6330E-03     91.9284E-03
             646     11.0892E-03     81.1950E-03    -20.8842E+06    -56.1794E+06     -2.8162E+06     187.295E+03    -55.6635E-03     109.389E-03    -53.7252E-03     98.4460E-03    -56.2082E-03     109.668E-03    -53.6276E-03     97.5394E-03
             647     11.9419E-03     81.2963E-03    -19.3203E+06    -28.7426E+06    -1.25836E+06     520.855E+03    -55.7141E-03     109.395E-03    -53.6808E-03     105.831E-03    -56.4969E-03     110.011E-03    -53.6174E-03     104.772E-03
             648     12.7956E-03     81.4070E-03    -17.1572E+06     10.9392E+06    -3.22607E+06     648.024E+03    -56.2667E-03     109.868E-03    -53.6011E-03     119.718E-03    -57.4887E-03     111.077E-03    -53.6082E-03     118.439E-03
             649     13.6483E-03     81.5361E-03    -15.7147E+06     69.8641E+06     3.46220E+06     224.157E+03    -56.8014E-03     110.336E-03    -53.5351E-03     141.861E-03    -58.8524E-03     112.570E-03    -53.5963E-03     140.342E-03
             650     14.5021E-03     81.6933E-03    -15.1560E+06     119.118E+06     36.3339E+06    -120.322E+03    -57.4152E-03     111.022E-03    -53.6070E-03     164.058E-03    -60.6517E-03     114.522E-03    -53.5761E-03     162.523E-03
             651     15.3541E-03     81.8664E-03    -11.3617E+06     144.459E+06     80.3993E+06     1.02041E+06    -57.4462E-03     111.216E-03    -53.7701E-03     174.546E-03    -61.8620E-03     115.871E-03    -53.5611E-03     173.671E-03
             652     16.2023E-03     82.0443E-03    -5.31101E+06     149.597E+06     98.4728E+06     972.763E+03    -53.8214E-03     107.628E-03    -53.8067E-03     112.120E-03    -56.9096E-03     110.943E-03    -53.5235E-03     112.039E-03
             653     852.829E-06     81.5667E-03    -57.3486E+06    -172.914E+06    -56.0856E+06     39.3547E+03    -53.8560E-03     107.644E-03    -53.7877E-03     9.68507E-03    -53.8120E-03     106.945E-03    -53.7342E-03     9.65245E-03
             654     1.70582E-03     81.5805E-03    -55.7001E+06    -169.701E+06    -50.8947E+06     255.080E+03    -53.8668E-03     107.693E-03    -53.8260E-03     17.8916E-03    -53.8301E-03     107.004E-03    -53.7536E-03     17.8319E-03
             655     2.55870E-03     81.6027E-03    -52.7996E+06    -164.541E+06    -43.2750E+06     449.180E+03    -53.9380E-03     107.781E-03    -53.8430E-03     26.3504E-03    -53.9111E-03     107.108E-03    -53.7442E-03     26.2584E-03
             656     3.41168E-03     81.6334E-03    -49.0765E+06    -157.695E+06    -33.7583E+06     85.8014E+03    -54.0380E-03     107.902E-03    -53.8643E-03     34.7144E-03    -54.0252E-03     107.253E-03    -53.7333E-03     34.5783E-03
             657     4.26461E-03     81.6724E-03    -45.3318E+06    -147.709E+06    -24.8330E+06     56.5085E+03    -54.1602E-03     108.037E-03    -53.8767E-03     42.8799E-03    -54.1690E-03     107.432E-03    -53.7210E-03     42.6981E-03
             658     5.11764E-03     81.7195E-03    -41.5895E+06    -139.545E+06    -18.1839E+06     280.725E+03    -54.3264E-03     108.207E-03    -53.8804E-03     50.7414E-03    -54.3560E-03     107.646E-03    -53.7087E-03     50.5094E-03
             659     5.97057E-03     81.7743E-03    -37.7896E+06    -133.223E+06    -12.8273E+06     81.4808E+03    -54.5099E-03     108.391E-03    -53.8811E-03     58.2913E-03    -54.5619E-03     107.873E-03    -53.6973E-03     57.9955E-03
             660     6.82369E-03     81.8364E-03    -33.9006E+06    -124.989E+06    -7.94977E+06    -352.101E+03    -54.7008E-03     108.577E-03    -53.8766E-03     65.5703E-03    -54.7849E-03     108.121E-03    -53.6860E-03     65.1988E-03
             661     7.67668E-03     81.9058E-03     -30.323E+06    -114.265E+06    -5.54275E+06    -617.742E+03    -54.9187E-03     108.776E-03    -53.8576E-03     72.4981E-03    -55.0470E-03     108.407E-03    -53.6757E-03     72.0424E-03
             662     8.52980E-03     81.9818E-03    -27.1695E+06    -101.500E+06    -4.60912E+06    -414.643E+03    -55.1561E-03     108.988E-03    -53.8321E-03     79.1334E-03    -55.3454E-03     108.734E-03    -53.6686E-03     78.5876E-03
             663     9.38260E-03     82.0644E-03    -24.5780E+06    -89.7122E+06    -2.83603E+06    -306.080E+03    -55.3964E-03     109.213E-03    -53.8161E-03     85.9296E-03    -55.6693E-03     109.088E-03    -53.6646E-03     85.2779E-03
             664     10.2358E-03     82.1541E-03    -22.3574E+06    -76.0687E+06    -2.91098E+06    -232.415E+03    -55.5921E-03     109.381E-03    -53.7891E-03     92.8082E-03    -55.9778E-03     109.426E-03    -53.6609E-03     92.0345E-03
             665     11.0885E-03     82.2505E-03    -20.6234E+06    -56.7950E+06    -3.32113E+06    -17.9380E+03    -55.6503E-03     109.400E-03    -53.7493E-03     98.5691E-03    -56.1916E-03     109.676E-03    -53.6537E-03     97.6610E-03
             666     11.9421E-03     82.3514E-03    -18.9050E+06    -28.8051E+06    -1.57104E+06    -189.212E+03    -55.8622E-03     109.569E-03    -53.7070E-03     105.947E-03    -56.6439E-03     110.186E-03    -53.6456E-03     104.875E-03
             667     12.7949E-03     82.4623E-03    -17.1731E+06     11.1560E+06    -3.10943E+06    -529.307E+03    -56.5258E-03     110.165E-03    -53.6397E-03     120.274E-03    -57.7515E-03     111.379E-03    -53.6465E-03     118.975E-03
             668     13.6472E-03     82.5932E-03    -16.2246E+06     68.6525E+06     2.35770E+06     755.498E+03    -57.1679E-03     110.755E-03    -53.5875E-03     141.549E-03    -59.2265E-03     112.993E-03    -53.6517E-03     140.021E-03
             669     14.5012E-03     82.7454E-03    -15.2192E+06     119.249E+06     36.9411E+06     1.89081E+06    -57.0768E-03     110.742E-03    -53.6653E-03     163.902E-03    -60.3235E-03     114.251E-03    -53.6314E-03     162.402E-03
             670     15.3558E-03     82.9256E-03    -11.2884E+06     144.737E+06     81.7797E+06     443.666E+03    -55.5050E-03     109.271E-03    -53.7664E-03     174.335E-03    -59.8655E-03     113.868E-03    -53.5510E-03     173.541E-03
             671     16.2163E-03     83.0972E-03    -5.08598E+06     149.778E+06     98.4166E+06    -71.6499E+03    -53.8219E-03     107.565E-03    -53.7429E-03     113.326E-03    -56.8741E-03     110.845E-03    -53.4606E-03     113.261E-03
             672     852.978E-06     82.6221E-03    -57.7214E+06    -173.279E+06    -56.4262E+06     203.352E+03    -53.8653E-03     107.658E-03    -53.7929E-03     9.73114E-03    -53.8221E-03     106.959E-03    -53.7400E-03     9.70050E-03
             673     1.70573E-03     82.6357E-03    -55.9724E+06    -170.039E+06    -51.4904E+06     348.087E+03    -53.8959E-03     107.732E-03    -53.8360E-03     17.8820E-03    -53.8592E-03     107.042E-03    -53.7658E-03     17.8234E-03
             674     2.55870E-03     82.6580E-03    -53.1286E+06    -164.470E+06    -43.5902E+06     96.7566E+03    -53.9479E-03     107.805E-03    -53.8574E-03     26.3685E-03    -53.9224E-03     107.134E-03    -53.7599E-03     26.2719E-03
             675     3.41159E-03     82.6887E-03    -49.6028E+06    -157.538E+06    -33.8959E+06     149.420E+03    -54.0492E-03     107.928E-03    -53.8789E-03     34.7241E-03    -54.0390E-03     107.281E-03    -53.7481E-03     34.5887E-03
             676     4.26459E-03     82.7277E-03    -45.5631E+06    -147.878E+06    -25.5027E+06     154.051E+03    -54.1754E-03     108.064E-03    -53.8886E-03     42.8858E-03    -54.1841E-03     107.460E-03    -53.7356E-03     42.7050E-03
             677     5.11752E-03     82.7748E-03    -41.1835E+06    -139.539E+06    -18.6888E+06    -95.0693E+03    -54.3305E-03     108.221E-03    -53.8909E-03     50.7688E-03    -54.3573E-03     107.661E-03    -53.7223E-03     50.5321E-03
             678     5.97061E-03     82.8296E-03    -36.8390E+06    -132.709E+06    -12.4123E+06    -399.181E+03    -54.5304E-03     108.424E-03    -53.8939E-03     58.3133E-03    -54.5791E-03     107.907E-03    -53.7101E-03     58.0111E-03
             679     6.82352E-03     82.8917E-03    -33.1010E+06    -124.279E+06    -7.62487E+06    -833.934E+03    -54.7433E-03     108.634E-03    -53.8907E-03     65.5714E-03    -54.8251E-03     108.179E-03    -53.7006E-03     65.1931E-03
             680     7.67659E-03     82.9611E-03    -29.8262E+06    -114.065E+06    -5.54405E+06    -1.13845E+06    -54.9578E-03     108.832E-03    -53.8739E-03     72.5249E-03    -55.0841E-03     108.463E-03    -53.6930E-03     72.0620E-03
             681     8.52946E-03     83.0371E-03    -26.9881E+06    -101.916E+06    -4.82167E+06    -1.07821E+06    -55.1763E-03     109.026E-03    -53.8495E-03     79.2446E-03    -55.3638E-03     108.770E-03    -53.6867E-03     78.6902E-03
             682     9.38261E-03     83.1200E-03    -24.4031E+06    -89.7782E+06    -2.97906E+06    -817.026E+03    -55.4065E-03     109.239E-03    -53.8324E-03     86.1305E-03    -55.6784E-03     109.114E-03    -53.6817E-03     85.4724E-03
             683     10.2354E-03     83.2095E-03    -22.2145E+06    -76.4390E+06    -3.20765E+06    -651.710E+03    -55.5926E-03     109.396E-03    -53.8033E-03     92.9620E-03    -55.9768E-03     109.439E-03    -53.6763E-03     92.1831E-03
             684     11.0888E-03     83.3059E-03    -20.3065E+06    -56.8316E+06    -3.22106E+06    -485.574E+03    -55.7338E-03     109.500E-03    -53.7662E-03     98.6361E-03    -56.2745E-03     109.776E-03    -53.6704E-03     97.7193E-03
             685     11.9416E-03     83.4067E-03    -18.9250E+06    -28.4736E+06    -1.39347E+06    -385.104E+03    -56.0415E-03     109.773E-03    -53.7317E-03     106.216E-03    -56.8281E-03     110.396E-03    -53.6699E-03     105.135E-03
             686     12.7942E-03     83.5189E-03    -18.9143E+06     10.6830E+06    -3.55590E+06     46.2277E+03    -56.3753E-03     110.039E-03    -53.6640E-03     120.543E-03    -57.6073E-03     111.252E-03    -53.6698E-03     119.254E-03
             687     13.6482E-03     83.6477E-03    -18.5022E+06     66.8345E+06    -241.804E+03     322.397E+03    -57.0617E-03     110.653E-03    -53.5911E-03     142.749E-03    -59.1316E-03     112.895E-03    -53.6624E-03     141.221E-03
             688     14.4987E-03     83.8040E-03    -15.0211E+06     119.458E+06     34.8402E+06     685.060E+03    -57.8875E-03     111.569E-03    -53.6816E-03     164.293E-03    -61.1716E-03     115.123E-03    -53.6588E-03     162.742E-03
             689     15.3542E-03     83.9735E-03    -10.2092E+06     146.086E+06     82.1818E+06     1.00496E+06    -56.9417E-03     110.808E-03    -53.8666E-03     168.418E-03    -61.2519E-03     115.362E-03    -53.6527E-03     167.540E-03
             690     16.2074E-03     84.1497E-03    -5.01286E+06     149.576E+06     98.4704E+06     369.986E+03    -52.9514E-03     106.832E-03    -53.8810E-03     106.441E-03    -55.9060E-03     110.015E-03    -53.5983E-03     106.359E-03
             691     852.817E-06     83.6774E-03    -58.2959E+06    -173.751E+06    -57.0262E+06     150.535E+03    -53.8865E-03     107.683E-03    -53.7963E-03     9.80546E-03    -53.8447E-03     106.983E-03    -53.7450E-03     9.77418E-03
             692     1.70579E-03     83.6911E-03    -56.2146E+06    -169.983E+06    -51.5983E+06     68.5394E+03    -53.9047E-03     107.753E-03    -53.8487E-03     17.8673E-03    -53.8692E-03     107.065E-03    -53.7787E-03     17.8048E-03
             693     2.55862E-03     83.7133E-03    -53.3303E+06    -164.413E+06    -43.5675E+06     33.2860E+03    -53.9644E-03     107.835E-03    -53.8708E-03     26.3625E-03    -53.9400E-03     107.164E-03    -53.7729E-03     26.2650E-03
             694     3.41158E-03     83.7441E-03    -49.5342E+06    -157.638E+06    -34.4609E+06     1.41478E+03    -54.0605E-03     107.950E-03    -53.8895E-03     34.7395E-03    -54.0490E-03     107.303E-03    -53.7614E-03     34.6022E-03
             695     4.26448E-03     83.7830E-03    -45.2296E+06    -147.495E+06    -25.8853E+06    -342.973E+03    -54.1858E-03     108.084E-03    -53.8981E-03     42.9027E-03    -54.1929E-03     107.482E-03    -53.7481E-03     42.7154E-03
             696     5.11753E-03     83.8301E-03    -40.9630E+06    -139.048E+06    -18.5699E+06    -780.375E+03    -54.3484E-03     108.251E-03    -53.9030E-03     50.7733E-03    -54.3750E-03     107.693E-03    -53.7348E-03     50.5275E-03
             697     5.97044E-03     83.8849E-03    -36.9957E+06    -132.299E+06    -12.7320E+06    -1.03843E+06    -54.5480E-03     108.453E-03    -53.9052E-03     58.3392E-03    -54.5976E-03     107.939E-03    -53.7234E-03     58.0287E-03
             698     6.82348E-03     83.9472E-03    -33.1794E+06    -123.559E+06    -8.15597E+06    -1.33914E+06    -54.7566E-03     108.657E-03    -53.9007E-03     65.6178E-03    -54.8390E-03     108.207E-03    -53.7142E-03     65.2329E-03
             699     7.67638E-03     84.0164E-03    -29.8079E+06    -113.722E+06    -6.28556E+06    -1.65779E+06    -54.9576E-03     108.840E-03    -53.8822E-03     72.6308E-03    -55.0832E-03     108.474E-03    -53.7056E-03     72.1615E-03
             700     8.52951E-03     84.0927E-03    -26.9076E+06    -102.006E+06    -5.34972E+06    -1.65850E+06    -55.1567E-03     109.013E-03    -53.8567E-03     79.3759E-03    -55.3430E-03     108.758E-03    -53.6965E-03     78.8143E-03
             701     9.38246E-03     84.1752E-03    -24.3533E+06    -90.0772E+06    -3.32777E+06    -1.46797E+06    -55.3630E-03     109.199E-03    -53.8365E-03     86.2462E-03    -55.6338E-03     109.074E-03    -53.6872E-03     85.5803E-03
             702     10.2357E-03     84.2653E-03    -22.1155E+06    -76.6536E+06    -3.48985E+06    -1.13847E+06    -55.6385E-03     109.445E-03    -53.8064E-03     93.0727E-03    -56.0218E-03     109.488E-03    -53.6807E-03     92.2867E-03
             703     11.0883E-03     84.3609E-03    -20.3393E+06    -56.8533E+06    -3.48481E+06    -932.122E+03    -55.8646E-03     109.640E-03    -53.7750E-03     98.8606E-03    -56.4076E-03     109.919E-03    -53.6805E-03     97.9337E-03
             704     11.9412E-03     84.4631E-03    -18.8276E+06    -29.0326E+06    -1.63718E+06    -322.862E+03    -55.9685E-03     109.710E-03    -53.7417E-03     106.614E-03    -56.7544E-03     110.331E-03    -53.6805E-03     105.535E-03
             705     12.7946E-03     84.5738E-03    -16.8845E+06     9.00430E+06    -3.57407E+06     745.454E+03    -56.1608E-03     109.823E-03    -53.6622E-03     120.730E-03    -57.3820E-03     111.027E-03    -53.6687E-03     119.454E-03
             706     13.6472E-03     84.7035E-03    -15.9149E+06     67.3649E+06     2.55934E+06     1.21914E+06    -56.6037E-03     110.181E-03    -53.5770E-03     142.884E-03    -58.6502E-03     112.402E-03    -53.6388E-03     141.389E-03
             707     14.5042E-03     84.8588E-03    -15.2415E+06     120.078E+06     36.5557E+06     24.4021E+03    -58.2572E-03     111.914E-03    -53.6570E-03     166.687E-03    -61.5658E-03     115.489E-03    -53.6263E-03     165.110E-03
             708     15.3500E-03     85.0369E-03    -11.0795E+06     145.552E+06     80.8093E+06    -69.9597E+03    -58.8129E-03     112.688E-03    -53.8755E-03     174.507E-03    -63.2969E-03     117.415E-03    -53.6665E-03     173.541E-03
             709     16.1976E-03     85.2028E-03    -5.12293E+06     150.121E+06     98.3072E+06     629.200E+03    -53.0243E-03     106.953E-03    -53.9282E-03     112.751E-03    -56.1366E-03     110.295E-03    -53.6470E-03     112.678E-03
             710     852.909E-06     84.7327E-03    -58.5877E+06    -173.707E+06    -57.2018E+06    -53.4237E+03    -53.8925E-03     107.725E-03    -53.8321E-03     9.79264E-03    -53.8520E-03     107.026E-03    -53.7813E-03     9.75865E-03
             711     1.70570E-03     84.7465E-03    -56.5634E+06    -169.938E+06    -51.5264E+06    -173.703E+03    -53.9037E-03     107.771E-03    -53.8671E-03     17.8654E-03    -53.8700E-03     107.083E-03    -53.7964E-03     17.7998E-03
             712     2.55862E-03     84.7687E-03    -53.3631E+06    -164.270E+06    -43.6766E+06    -261.059E+03    -53.9733E-03     107.856E-03    -53.8829E-03     26.3596E-03    -53.9491E-03     107.186E-03    -53.7857E-03     26.2583E-03
             713     3.41151E-03     84.7993E-03    -49.4915E+06    -157.373E+06    -34.8094E+06    -492.216E+03    -54.0699E-03     107.969E-03    -53.8992E-03     34.7502E-03    -54.0582E-03     107.324E-03    -53.7733E-03     34.6065E-03
             714     4.26450E-03     84.8384E-03    -45.4572E+06    -146.795E+06    -26.3786E+06    -823.110E+03    -54.1973E-03     108.104E-03    -53.9066E-03     42.9134E-03    -54.2058E-03     107.506E-03    -53.7597E-03     42.7199E-03
             715     5.11740E-03     84.8854E-03    -41.3376E+06    -138.289E+06    -18.9484E+06    -1.31841E+06    -54.3617E-03     108.274E-03    -53.9125E-03     50.7989E-03    -54.3908E-03     107.721E-03    -53.7468E-03     50.5461E-03
             716     5.97040E-03     84.9403E-03    -37.1993E+06    -131.793E+06    -13.2596E+06    -1.73256E+06    -54.5413E-03     108.454E-03    -53.9131E-03     58.3991E-03    -54.5918E-03     107.943E-03    -53.7344E-03     58.0799E-03
             717     6.82337E-03     85.0024E-03    -33.3493E+06    -122.930E+06    -8.93644E+06    -2.03717E+06    -54.7314E-03     108.635E-03    -53.9036E-03     65.7069E-03    -54.8144E-03     108.189E-03    -53.7217E-03     65.3135E-03
             718     7.67646E-03     85.0719E-03    -29.9822E+06    -113.230E+06    -6.76997E+06    -2.28937E+06    -54.9390E-03     108.822E-03    -53.8833E-03     72.6917E-03    -55.0655E-03     108.460E-03    -53.7095E-03     72.2144E-03
             719     8.52943E-03     85.1478E-03    -27.0509E+06    -101.894E+06    -6.00962E+06    -2.41513E+06    -55.1404E-03     108.995E-03    -53.8550E-03     79.4484E-03    -55.3266E-03     108.741E-03    -53.6981E-03     78.8774E-03
             720     9.38250E-03     85.2309E-03    -24.4261E+06    -90.4132E+06    -4.14420E+06    -2.20031E+06    -55.3438E-03     109.176E-03    -53.8325E-03     86.2929E-03    -55.6133E-03     109.050E-03    -53.6867E-03     85.6178E-03
             721     10.2355E-03     85.3201E-03    -22.1227E+06    -77.0258E+06    -4.15919E+06    -1.78111E+06    -55.6017E-03     109.402E-03    -53.8002E-03     93.3537E-03    -55.9835E-03     109.444E-03    -53.6772E-03     92.5609E-03
             722     11.0885E-03     85.4175E-03    -20.3602E+06    -57.2678E+06    -4.22217E+06    -1.21508E+06    -55.7380E-03     109.499E-03    -53.7610E-03     99.3315E-03    -56.2794E-03     109.777E-03    -53.6695E-03     98.4050E-03
             723     11.9416E-03     85.5177E-03    -18.6154E+06    -30.1424E+06    -2.38761E+06    -840.878E+03    -55.7283E-03     109.442E-03    -53.7140E-03     107.079E-03    -56.5100E-03     110.058E-03    -53.6552E-03     106.001E-03
             724     12.7946E-03     85.6300E-03    -17.4121E+06     7.92985E+06    -4.18700E+06    -132.472E+03    -55.9036E-03     109.522E-03    -53.6189E-03     121.306E-03    -57.1190E-03     110.716E-03    -53.6261E-03     120.034E-03
             725     13.6490E-03     85.7578E-03    -15.8280E+06     66.9500E+06    -62.8141E+03     1.63063E+06    -56.5180E-03     110.028E-03    -53.5103E-03     143.730E-03    -58.5707E-03     112.263E-03    -53.5847E-03     142.242E-03
             726     14.4992E-03     85.9141E-03    -13.2741E+06     120.787E+06     36.2332E+06     2.11865E+06    -56.1874E-03     109.717E-03    -53.5293E-03     169.374E-03    -59.4646E-03     113.270E-03    -53.5040E-03     167.931E-03
             727     15.3597E-03     86.0944E-03    -10.1534E+06     146.720E+06     83.1576E+06     515.827E+03    -55.3420E-03     108.936E-03    -53.5936E-03     179.643E-03    -59.7693E-03     113.606E-03    -53.3758E-03     178.901E-03
             728     16.2195E-03     86.2620E-03    -5.51913E+06     150.120E+06     98.1060E+06    -520.964E+03    -55.4606E-03     109.060E-03    -53.5995E-03     113.731E-03    -58.5318E-03     112.360E-03    -53.3187E-03     113.619E-03
             729     852.772E-06     85.7881E-03    -58.5422E+06    -173.404E+06    -57.2937E+06    -212.444E+03    -53.8757E-03     107.753E-03    -53.8768E-03     9.79427E-03    -53.8353E-03     107.055E-03    -53.8270E-03     9.75800E-03
             730     1.70570E-03     85.8018E-03    -56.5926E+06    -169.640E+06    -51.8702E+06    -351.100E+03    -53.9075E-03     107.785E-03    -53.8774E-03     17.8907E-03    -53.8740E-03     107.099E-03    -53.8087E-03     17.8229E-03
             731     2.55858E-03     85.8240E-03    -53.7502E+06    -163.845E+06    -44.2953E+06    -604.011E+03    -53.9811E-03     107.871E-03    -53.8898E-03     26.3784E-03    -53.9585E-03     107.204E-03    -53.7958E-03     26.2728E-03
             732     3.41150E-03     85.8548E-03    -50.2612E+06    -156.833E+06    -35.6013E+06    -854.600E+03    -54.0819E-03     107.988E-03    -53.9061E-03     34.7534E-03    -54.0736E-03     107.348E-03    -53.7838E-03     34.6049E-03
             733     4.26439E-03     85.8937E-03    -46.0215E+06    -145.777E+06    -27.3439E+06    -1.43773E+06    -54.1967E-03     108.108E-03    -53.9114E-03     42.9445E-03    -54.2081E-03     107.518E-03    -53.7700E-03     42.7432E-03
             734     5.11739E-03     85.9409E-03    -41.6056E+06    -137.367E+06    -19.9710E+06    -2.06059E+06    -54.3464E-03     108.260E-03    -53.9140E-03     50.8468E-03    -54.3766E-03     107.713E-03    -53.7543E-03     50.5847E-03
             735     5.97036E-03     85.9955E-03    -37.4758E+06    -130.975E+06    -13.8623E+06    -2.53259E+06    -54.5239E-03     108.437E-03    -53.9134E-03     58.4435E-03    -54.5761E-03     107.932E-03    -53.7385E-03     58.1141E-03
             736     6.82342E-03     86.0579E-03    -33.5924E+06    -122.308E+06    -9.54183E+06    -2.87817E+06    -54.7085E-03     108.610E-03    -53.9011E-03     65.7455E-03    -54.7926E-03     108.168E-03    -53.7228E-03     65.3416E-03
             737     7.67641E-03     86.1271E-03    -30.0679E+06    -112.666E+06    -7.45957E+06    -3.10411E+06    -54.9082E-03     108.785E-03    -53.8771E-03     72.7581E-03    -55.0348E-03     108.427E-03    -53.7074E-03     72.2709E-03
             738     8.52947E-03     86.2034E-03    -27.1137E+06    -101.603E+06    -6.64043E+06    -3.19599E+06    -55.0890E-03     108.934E-03    -53.8453E-03     79.5340E-03    -55.2748E-03     108.682E-03    -53.6918E-03     78.9540E-03
             739     9.38260E-03     86.2858E-03    -24.4686E+06    -90.6419E+06    -4.87708E+06    -3.07575E+06    -55.2900E-03     109.108E-03    -53.8181E-03     86.5125E-03    -55.5581E-03     108.982E-03    -53.6756E-03     85.8277E-03
             740     10.2356E-03     86.3760E-03    -22.2095E+06    -77.7048E+06    -5.05947E+06    -2.54816E+06    -55.4217E-03     109.198E-03    -53.7759E-03     93.6159E-03    -55.8008E-03     109.237E-03    -53.6563E-03     92.8176E-03
             741     11.0891E-03     86.4721E-03    -20.0117E+06    -58.0122E+06    -4.83396E+06    -1.89211E+06    -55.4668E-03     109.187E-03    -53.7206E-03     99.6370E-03    -56.0025E-03     109.460E-03    -53.6316E-03     98.7097E-03
             742     11.9423E-03     86.5738E-03    -18.6420E+06    -30.7366E+06    -2.89728E+06    -1.07868E+06    -55.5005E-03     109.159E-03    -53.6585E-03     107.010E-03    -56.2790E-03     109.771E-03    -53.6014E-03     105.935E-03
             743     12.7964E-03     86.6839E-03    -18.2204E+06     7.10780E+06    -5.11211E+06     14.4147E+03    -55.6132E-03     109.163E-03    -53.5496E-03     121.026E-03    -56.8210E-03     110.346E-03    -53.5590E-03     119.769E-03
             744     13.6495E-03     86.8136E-03    -16.8345E+06     65.6243E+06    -2.27014E+06     210.224E+03    -55.9517E-03     109.365E-03    -53.4135E-03     143.834E-03    -58.0076E-03     111.601E-03    -53.4956E-03     142.350E-03
             745     14.5070E-03     86.9692E-03    -13.2897E+06     119.705E+06     32.6438E+06     790.307E+03    -55.5111E-03     108.913E-03    -53.4020E-03     165.143E-03    -58.7049E-03     112.390E-03    -53.3931E-03     163.720E-03
             746     15.3636E-03     87.1395E-03    -8.38703E+06     148.187E+06     82.9048E+06     1.52940E+06    -55.4439E-03     108.937E-03    -53.4930E-03     171.024E-03    -59.6813E-03     113.430E-03    -53.2812E-03     170.241E-03
             747     16.2161E-03     87.3204E-03    -4.47763E+06     151.486E+06     99.6257E+06     667.438E+03    -56.3653E-03     109.931E-03    -53.5661E-03     105.586E-03    -59.2977E-03     113.097E-03    -53.2811E-03     105.387E-03
             748     852.887E-06     86.8436E-03    -58.5792E+06    -172.831E+06    -57.5475E+06    -451.421E+03    -53.8888E-03     107.745E-03    -53.8564E-03     9.81506E-03    -53.8489E-03     107.051E-03    -53.8085E-03     9.77562E-03
             749     1.70571E-03     86.8572E-03    -56.5950E+06    -168.848E+06    -52.1607E+06    -787.908E+03    -53.9285E-03     107.806E-03    -53.8772E-03     17.9019E-03    -53.8956E-03     107.124E-03    -53.8111E-03     17.8284E-03
             750     2.55857E-03     86.8795E-03    -53.5463E+06    -163.594E+06    -44.3505E+06    -769.977E+03    -53.9937E-03     107.890E-03    -53.8968E-03     26.3740E-03    -53.9704E-03     107.225E-03    -53.8037E-03     26.2661E-03
             751     3.41145E-03     86.9101E-03    -49.9588E+06    -155.807E+06    -36.3250E+06    -1.19028E+06    -54.0783E-03     107.986E-03    -53.9076E-03     34.7724E-03    -54.0689E-03     107.351E-03    -53.7909E-03     34.6196E-03
             752     4.26440E-03     86.9492E-03    -46.1338E+06    -144.109E+06    -28.4453E+06    -2.18727E+06    -54.1825E-03     108.090E-03    -53.9074E-03     42.9847E-03    -54.1953E-03     107.510E-03    -53.7738E-03     42.7737E-03
             753     5.11738E-03     86.9961E-03    -42.0431E+06    -136.345E+06    -20.7542E+06    -2.94542E+06    -54.3296E-03     108.240E-03    -53.9100E-03     50.8835E-03    -54.3624E-03     107.699E-03    -53.7551E-03     50.6101E-03
             754     5.97039E-03     87.0511E-03    -37.8658E+06    -129.950E+06    -14.7361E+06    -3.43351E+06    -54.5043E-03     108.411E-03    -53.9064E-03     58.4726E-03    -54.5586E-03     107.912E-03    -53.7368E-03     58.1318E-03
             755     6.82339E-03     87.1131E-03    -33.9403E+06    -121.453E+06    -10.4020E+06    -3.89555E+06    -54.6742E-03     108.566E-03    -53.8914E-03     65.7915E-03    -54.7600E-03     108.130E-03    -53.7181E-03     65.3749E-03
             756     7.67649E-03     87.1826E-03    -30.3704E+06    -112.110E+06    -8.38052E+06    -4.15205E+06    -54.8417E-03     108.704E-03    -53.8623E-03     72.8380E-03    -54.9690E-03     108.350E-03    -53.6976E-03     72.3386E-03
             757     8.52966E-03     87.2585E-03    -27.2284E+06    -101.216E+06    -7.34172E+06    -4.18530E+06    -55.0184E-03     108.844E-03    -53.8255E-03     79.6064E-03    -55.2041E-03     108.595E-03    -53.6759E-03     79.0149E-03
             758     9.38280E-03     87.3414E-03    -24.5372E+06    -90.6437E+06    -5.54850E+06    -4.03778E+06    -55.1616E-03     108.953E-03    -53.7912E-03     86.5574E-03    -55.4284E-03     108.827E-03    -53.6520E-03     85.8627E-03
             759     10.2362E-03     87.4309E-03    -22.0795E+06    -78.2441E+06    -5.74383E+06    -3.59305E+06    -55.2874E-03     109.028E-03    -53.7405E-03     93.5102E-03    -55.6632E-03     109.064E-03    -53.6237E-03     92.7010E-03
             760     11.0895E-03     87.5273E-03    -20.2123E+06    -59.1829E+06    -5.88738E+06    -2.72297E+06    -55.3829E-03     109.062E-03    -53.6793E-03     99.4067E-03    -55.9157E-03     109.330E-03    -53.5936E-03     98.4702E-03
             761     11.9432E-03     87.6286E-03    -18.5265E+06    -32.0269E+06    -3.63099E+06    -1.38379E+06    -55.4344E-03     109.052E-03    -53.6173E-03     106.323E-03    -56.2038E-03     109.652E-03    -53.5622E-03     105.248E-03
             762     12.7961E-03     87.7389E-03    -16.5840E+06     5.79318E+06    -5.14150E+06    -170.288E+03    -55.6314E-03     109.145E-03    -53.5141E-03     119.809E-03    -56.8265E-03     110.317E-03    -53.5241E-03     118.546E-03
             763     13.6512E-03     87.8673E-03    -15.7811E+06     65.7839E+06     70.5509E+03     183.945E+03    -56.1789E-03     109.585E-03    -53.4058E-03     141.226E-03    -58.1999E-03     111.783E-03    -53.4779E-03     139.738E-03
             764     14.5036E-03     88.0217E-03    -14.9557E+06     120.065E+06     33.3558E+06    -250.078E+03    -57.8181E-03     111.296E-03    -53.4783E-03     161.379E-03    -61.0067E-03     114.761E-03    -53.4639E-03     159.823E-03
             765     15.3529E-03     88.1957E-03    -11.5478E+06     146.376E+06     79.2537E+06     123.425E+03    -58.5279E-03     112.240E-03    -53.7121E-03     170.364E-03    -62.8899E-03     116.851E-03    -53.5113E-03     169.386E-03
             766     16.2032E-03     88.3753E-03    -5.06566E+06     151.493E+06     98.7873E+06     1.19575E+06    -54.0228E-03     107.830E-03    -53.8073E-03     109.592E-03    -57.0829E-03     111.124E-03    -53.5256E-03     109.453E-03
             767     852.843E-06     87.8989E-03    -59.5363E+06    -171.594E+06    -58.0642E+06    -622.178E+03    -53.9119E-03     107.745E-03    -53.8335E-03     9.80640E-03    -53.8779E-03     107.060E-03    -53.7887E-03     9.76498E-03
             768     1.70567E-03     87.9127E-03    -57.5377E+06    -167.914E+06    -52.4695E+06    -1.03311E+06    -53.9299E-03     107.811E-03    -53.8808E-03     17.8918E-03    -53.9027E-03     107.135E-03    -53.8162E-03     17.8151E-03
             769     2.55853E-03     87.9348E-03    -54.4613E+06    -163.012E+06    -45.3576E+06    -1.41421E+06    -53.9797E-03     107.875E-03    -53.8956E-03     26.3922E-03    -53.9604E-03     107.215E-03    -53.8070E-03     26.2760E-03
             770     3.41146E-03     87.9655E-03    -50.5091E+06    -154.396E+06    -37.2349E+06    -1.95503E+06    -54.0602E-03     107.961E-03    -53.9011E-03     34.8004E-03    -54.0543E-03     107.336E-03    -53.7902E-03     34.6378E-03
             771     4.26442E-03     88.0044E-03    -46.4035E+06    -142.153E+06    -29.1676E+06    -2.89357E+06    -54.1672E-03     108.065E-03    -53.8980E-03     43.0010E-03    -54.1831E-03     107.496E-03    -53.7705E-03     42.7810E-03
             772     5.11739E-03     88.0516E-03    -42.2814E+06    -134.955E+06    -21.5553E+06    -3.80679E+06    -54.3111E-03     108.210E-03    -53.8991E-03     50.9083E-03    -54.3459E-03     107.678E-03    -53.7499E-03     50.6239E-03
             773     5.97041E-03     88.1062E-03    -38.2166E+06    -128.714E+06    -15.5189E+06    -4.42056E+06    -54.4646E-03     108.358E-03    -53.8929E-03     58.5112E-03    -54.5212E-03     107.867E-03    -53.7285E-03     58.1581E-03
             774     6.82351E-03     88.1685E-03    -34.3143E+06    -120.200E+06    -11.1799E+06    -4.99186E+06    -54.6215E-03     108.495E-03    -53.8734E-03     65.8313E-03    -54.7098E-03     108.067E-03    -53.7053E-03     65.4012E-03
             775     7.67665E-03     88.2376E-03    -30.6936E+06    -111.348E+06    -9.13357E+06    -5.39962E+06    -54.7927E-03     108.634E-03    -53.8411E-03     72.8453E-03    -54.9216E-03     108.285E-03    -53.6808E-03     72.3303E-03
             776     8.52982E-03     88.3139E-03    -27.5061E+06    -100.861E+06    -8.20960E+06    -5.43168E+06    -54.9605E-03     108.761E-03    -53.8007E-03     79.5921E-03    -55.1466E-03     108.515E-03    -53.6556E-03     78.9853E-03
             777     9.38306E-03     88.3963E-03    -24.6940E+06    -90.5331E+06    -6.32778E+06    -5.18061E+06    -55.1028E-03     108.867E-03    -53.7641E-03     86.3662E-03    -55.3688E-03     108.742E-03    -53.6287E-03     85.6578E-03
             778     10.2364E-03     88.4859E-03    -22.3280E+06    -78.7693E+06    -6.63544E+06    -4.68422E+06    -55.3042E-03     109.019E-03    -53.7148E-03     93.2888E-03    -55.6790E-03     109.054E-03    -53.6013E-03     92.4649E-03
             779     11.0897E-03     88.5823E-03    -20.3563E+06    -60.4079E+06    -6.85121E+06    -3.62804E+06    -55.4237E-03     109.083E-03    -53.6588E-03     99.1152E-03    -55.9523E-03     109.344E-03    -53.5760E-03     98.1677E-03
             780     11.9427E-03     88.6836E-03    -18.4716E+06    -34.0018E+06    -4.82276E+06    -2.37084E+06    -55.4505E-03     109.051E-03    -53.6006E-03     106.060E-03    -56.2108E-03     109.639E-03    -53.5486E-03     104.975E-03
             781     12.7968E-03     88.7936E-03    -17.0351E+06     4.20658E+06    -6.13684E+06    -991.621E+03    -56.0616E-03     109.576E-03    -53.5142E-03     119.712E-03    -57.2554E-03     110.742E-03    -53.5262E-03     118.429E-03
             782     13.6487E-03     88.9221E-03    -16.0881E+06     65.2415E+06    -965.490E+03     862.666E+03    -57.2564E-03     110.706E-03    -53.4497E-03     141.571E-03    -59.2869E-03     112.914E-03    -53.5258E-03     140.048E-03
             783     14.5017E-03     89.0782E-03    -15.0290E+06     120.877E+06     33.9764E+06     1.74506E+06    -58.4147E-03     111.979E-03    -53.5640E-03     165.961E-03    -61.6861E-03     115.527E-03    -53.5476E-03     164.400E-03
             784     15.3538E-03     89.2567E-03    -12.6171E+06     146.466E+06     79.6586E+06     562.031E+03    -57.8708E-03     111.640E-03    -53.7690E-03     177.035E-03    -62.3605E-03     116.374E-03    -53.5648E-03     176.155E-03
             785     16.2093E-03     89.4287E-03    -6.05882E+06     151.018E+06     97.6384E+06    -386.440E+03    -53.1927E-03     106.988E-03    -53.7954E-03     112.079E-03    -56.3089E-03     110.336E-03    -53.5174E-03     112.011E-03
             786     852.829E-06     88.9544E-03    -60.5668E+06    -169.937E+06    -59.0151E+06    -730.169E+03    -53.8674E-03     107.741E-03    -53.8738E-03     9.83539E-03    -53.8395E-03     107.067E-03    -53.8347E-03     9.79275E-03
             787     1.70567E-03     88.9680E-03    -58.0471E+06    -166.607E+06    -53.0627E+06    -1.41753E+06    -53.9059E-03     107.781E-03    -53.8755E-03     17.9206E-03    -53.8822E-03     107.114E-03    -53.8150E-03     17.8389E-03
             788     2.55858E-03     88.9902E-03    -54.6479E+06    -161.465E+06    -45.3421E+06    -2.20242E+06    -53.9676E-03     107.855E-03    -53.8872E-03     26.4022E-03    -53.9514E-03     107.203E-03    -53.8006E-03     26.2757E-03
             789     3.41150E-03     89.0208E-03    -50.7143E+06    -152.887E+06    -37.1055E+06    -2.97550E+06    -54.0472E-03     107.940E-03    -53.8927E-03     34.8048E-03    -54.0447E-03     107.322E-03    -53.7831E-03     34.6291E-03
             790     4.26443E-03     89.0599E-03    -46.5687E+06    -140.225E+06    -29.4601E+06    -3.70965E+06    -54.1433E-03     108.029E-03    -53.8854E-03     43.0185E-03    -54.1624E-03     107.470E-03    -53.7618E-03     42.7881E-03
             791     5.11747E-03     89.1068E-03    -42.5915E+06    -133.078E+06    -22.2110E+06    -4.56708E+06    -54.2748E-03     108.157E-03    -53.8819E-03     50.9235E-03    -54.3129E-03     107.636E-03    -53.7382E-03     50.6295E-03
             792     5.97052E-03     89.1616E-03    -38.5562E+06    -126.976E+06    -16.1383E+06    -5.43387E+06    -54.4211E-03     108.294E-03    -53.8726E-03     58.5091E-03    -54.4811E-03     107.813E-03    -53.7133E-03     58.1432E-03
             793     6.82365E-03     89.2235E-03    -34.5877E+06    -118.630E+06    -11.7923E+06    -6.23137E+06    -54.5824E-03     108.433E-03    -53.8505E-03     65.8182E-03    -54.6734E-03     108.014E-03    -53.6873E-03     65.3725E-03
             794     7.67678E-03     89.2930E-03    -30.9787E+06    -110.383E+06    -9.89909E+06    -6.69127E+06    -54.7677E-03     108.585E-03    -53.8170E-03     72.8268E-03    -54.8982E-03     108.242E-03    -53.6615E-03     72.2952E-03
             795     8.52998E-03     89.3688E-03    -27.8152E+06    -100.342E+06    -9.04142E+06    -6.75469E+06    -54.9232E-03     108.699E-03    -53.7762E-03     79.5377E-03    -55.1101E-03     108.458E-03    -53.6356E-03     78.9145E-03
             796     9.38324E-03     89.4516E-03    -25.0247E+06    -90.5029E+06    -7.21847E+06    -6.46001E+06    -55.1273E-03     108.869E-03    -53.7415E-03     86.3362E-03    -55.3937E-03     108.746E-03    -53.6100E-03     85.6111E-03
             797     10.2365E-03     89.5407E-03    -22.5851E+06    -79.2131E+06    -7.56890E+06    -5.82298E+06    -55.3394E-03     109.036E-03    -53.6965E-03     93.3350E-03    -55.7136E-03     109.071E-03    -53.5868E-03     92.4961E-03
             798     11.0896E-03     89.6376E-03    -20.4487E+06    -61.7257E+06    -7.91384E+06    -4.80185E+06    -55.3484E-03     108.989E-03    -53.6403E-03     99.2118E-03    -55.8718E-03     109.243E-03    -53.5607E-03     98.2531E-03
             799     11.9434E-03     89.7381E-03    -18.7685E+06    -35.5470E+06    -6.05686E+06    -3.32320E+06    -55.5556E-03     109.138E-03    -53.5828E-03     106.334E-03    -56.3153E-03     109.723E-03    -53.5343E-03     105.234E-03
             800     12.7963E-03     89.8488E-03    -17.4195E+06     2.05349E+06    -7.59536E+06    -1.24708E+06    -56.2629E-03     109.768E-03    -53.5049E-03     120.557E-03    -57.4580E-03     110.930E-03    -53.5206E-03     119.264E-03
             801     13.6496E-03     89.9790E-03    -16.6634E+06     62.3744E+06    -4.62362E+06     657.994E+03    -57.0787E-03     110.505E-03    -53.4266E-03     143.391E-03    -59.1298E-03     112.732E-03    -53.5160E-03     141.868E-03
             802     14.5023E-03     90.1336E-03    -14.3405E+06     120.316E+06     30.4397E+06     1.88855E+06    -57.0543E-03     110.539E-03    -53.4851E-03     167.499E-03    -60.3219E-03     114.095E-03    -53.4866E-03     166.009E-03
             803     15.3588E-03     90.3111E-03    -8.89812E+06     149.164E+06     81.0266E+06     1.44193E+06    -56.0670E-03     109.683E-03    -53.6158E-03     177.077E-03    -60.4849E-03     114.364E-03    -53.4141E-03     176.303E-03
             804     16.2115E-03     90.4851E-03    -4.99901E+06     152.158E+06     98.4655E+06    -171.362E+03    -54.8692E-03     108.516E-03    -53.6465E-03     110.582E-03    -57.9378E-03     111.821E-03    -53.3676E-03     110.483E-03
             805     852.832E-06     90.0097E-03    -60.6935E+06    -167.892E+06    -59.4832E+06    -854.248E+03    -53.8431E-03     107.706E-03    -53.8631E-03     9.85805E-03    -53.8182E-03     107.043E-03    -53.8291E-03     9.81370E-03
             806     1.70574E-03     90.0235E-03    -58.7048E+06    -164.393E+06    -54.0238E+06    -2.08260E+06    -53.8893E-03     107.745E-03    -53.8553E-03     17.9236E-03    -53.8708E-03     107.091E-03    -53.8020E-03     17.8333E-03
             807     2.55859E-03     90.0455E-03    -55.3452E+06    -159.290E+06    -46.1186E+06    -3.10265E+06    -53.9553E-03     107.825E-03    -53.8694E-03     26.4022E-03    -53.9447E-03     107.186E-03    -53.7888E-03     26.2641E-03
             808     3.41149E-03     90.0763E-03    -51.3904E+06    -150.957E+06    -37.8964E+06    -3.89644E+06    -54.0260E-03     107.901E-03    -53.8755E-03     34.8010E-03    -54.0285E-03     107.296E-03    -53.7716E-03     34.6133E-03
             809     4.26453E-03     90.1150E-03    -47.3677E+06    -138.433E+06    -30.2383E+06    -4.51744E+06    -54.1083E-03     107.975E-03    -53.8665E-03     43.0135E-03    -54.1329E-03     107.427E-03    -53.7482E-03     42.7729E-03
             810     5.11754E-03     90.1622E-03    -43.2256E+06    -130.809E+06    -22.7687E+06    -5.40977E+06    -54.2352E-03     108.095E-03    -53.8602E-03     50.9045E-03    -54.2789E-03     107.587E-03    -53.7217E-03     50.5998E-03
             811     5.97065E-03     90.2167E-03    -39.0565E+06    -124.730E+06    -16.8394E+06    -6.60952E+06    -54.3873E-03     108.235E-03    -53.8480E-03     58.4843E-03    -54.4520E-03     107.767E-03    -53.6947E-03     58.1035E-03
             812     6.82375E-03     90.2789E-03    -35.0995E+06    -116.837E+06    -12.5592E+06    -7.48732E+06    -54.5538E-03     108.379E-03    -53.8253E-03     65.8061E-03    -54.6487E-03     107.971E-03    -53.6678E-03     65.3444E-03
             813     7.67696E-03     90.3479E-03    -31.5288E+06    -109.039E+06    -10.6721E+06    -8.04774E+06    -54.7252E-03     108.516E-03    -53.7913E-03     72.8215E-03    -54.8592E-03     108.182E-03    -53.6408E-03     72.2730E-03
             814     8.53015E-03     90.4241E-03    -28.2844E+06    -99.6524E+06    -9.99574E+06    -8.20411E+06    -54.8978E-03     108.647E-03    -53.7494E-03     79.5307E-03    -55.0864E-03     108.411E-03    -53.6139E-03     78.8894E-03
             815     9.38345E-03     90.5062E-03    -25.2952E+06    -90.4099E+06    -8.22297E+06    -7.93765E+06    -55.1168E-03     108.832E-03    -53.7152E-03     86.4662E-03    -55.3833E-03     108.712E-03    -53.5885E-03     85.7224E-03
             816     10.2366E-03     90.5964E-03    -22.5980E+06    -79.7180E+06    -8.63729E+06    -7.27428E+06    -55.2772E-03     108.946E-03    -53.6689E-03     93.3930E-03    -55.6487E-03     108.979E-03    -53.5637E-03     92.5370E-03
             817     11.0902E-03     90.6919E-03    -20.3573E+06    -62.9595E+06    -9.04211E+06    -6.14753E+06    -55.3313E-03     108.943E-03    -53.6118E-03     99.1563E-03    -55.8515E-03     109.194E-03    -53.5362E-03     98.1791E-03
             818     11.9435E-03     90.7933E-03    -18.2468E+06    -37.7121E+06    -7.32017E+06    -4.35975E+06    -55.6076E-03     109.164E-03    -53.5564E-03     106.707E-03    -56.3619E-03     109.741E-03    -53.5118E-03     105.592E-03
             819     12.7966E-03     90.9045E-03    -16.7359E+06    -1.49540E+06    -9.17664E+06    -1.69940E+06    -56.0183E-03     109.491E-03    -53.4722E-03     120.915E-03    -57.2051E-03     110.639E-03    -53.4916E-03     119.623E-03
             820     13.6503E-03     91.0332E-03    -15.7739E+06     60.7078E+06    -6.38147E+06     543.006E+03    -56.6532E-03     110.023E-03    -53.3701E-03     143.308E-03    -58.6934E-03     112.242E-03    -53.4671E-03     141.801E-03
             821     14.5051E-03     91.1896E-03    -13.8155E+06     120.701E+06     29.1661E+06     716.903E+03    -56.9943E-03     110.418E-03    -53.4233E-03     164.826E-03    -60.2307E-03     113.949E-03    -53.4324E-03     163.324E-03
             822     15.3582E-03     91.3627E-03    -9.68622E+06     149.226E+06     80.3260E+06     572.927E+03    -56.6218E-03     110.214E-03    -53.5921E-03     172.720E-03    -60.9825E-03     114.837E-03    -53.3928E-03     171.870E-03
             823     16.2157E-03     91.5406E-03    -4.95032E+06     152.728E+06     98.7102E+06     743.589E+03    -55.0564E-03     108.717E-03    -53.6604E-03     108.191E-03    -58.0800E-03     111.979E-03    -53.3811E-03     108.052E-03
             824     852.881E-06     91.0652E-03    -60.7397E+06    -165.616E+06    -59.4908E+06    -1.00648E+06    -53.8596E-03     107.673E-03    -53.8135E-03     9.81554E-03    -53.8382E-03     107.021E-03    -53.7827E-03     9.76912E-03
             825     1.70571E-03     91.0787E-03    -58.8458E+06    -161.205E+06    -54.1502E+06    -2.36930E+06    -53.8723E-03     107.710E-03    -53.8375E-03     17.9130E-03    -53.8590E-03     107.072E-03    -53.7892E-03     17.8191E-03
             826     2.55864E-03     91.1010E-03    -55.9496E+06    -156.660E+06    -46.8450E+06    -3.79995E+06    -53.9265E-03     107.775E-03    -53.8488E-03     26.4020E-03    -53.9216E-03     107.152E-03    -53.7748E-03     26.2550E-03
             827     3.41160E-03     91.1314E-03    -52.3021E+06    -148.792E+06    -38.5422E+06    -4.65662E+06    -54.0029E-03     107.858E-03    -53.8549E-03     34.7815E-03    -54.0122E-03     107.265E-03    -53.7561E-03     34.5840E-03
             828     4.26455E-03     91.1704E-03    -47.9848E+06    -136.101E+06    -30.7042E+06    -5.62205E+06    -54.0820E-03     107.928E-03    -53.8457E-03     42.9780E-03    -54.1123E-03     107.394E-03    -53.7323E-03     42.7231E-03
             829     5.11766E-03     91.2173E-03    -43.4442E+06    -128.396E+06    -23.4020E+06    -6.63991E+06    -54.1993E-03     108.036E-03    -53.8365E-03     50.8698E-03    -54.2466E-03     107.541E-03    -53.7043E-03     50.5495E-03
             830     5.97074E-03     91.2720E-03    -39.2810E+06    -122.146E+06    -17.3709E+06    -7.66444E+06    -54.3524E-03     108.175E-03    -53.8227E-03     58.4535E-03    -54.4211E-03     107.721E-03    -53.6755E-03     58.0593E-03
             831     6.82394E-03     91.3338E-03    -35.4014E+06    -114.651E+06    -13.0706E+06    -8.74580E+06    -54.5118E-03     108.311E-03    -53.7991E-03     65.7848E-03    -54.6106E-03     107.915E-03    -53.6469E-03     65.3073E-03
             832     7.67709E-03     91.4032E-03    -31.7551E+06    -107.322E+06    -11.2508E+06    -9.43562E+06    -54.6786E-03     108.442E-03    -53.7633E-03     72.7980E-03    -54.8151E-03     108.117E-03    -53.6178E-03     72.2324E-03
             833     8.53044E-03     91.4788E-03    -28.5332E+06    -98.6164E+06    -10.7913E+06    -9.78506E+06    -54.8711E-03     108.591E-03    -53.7202E-03     79.5427E-03    -55.0613E-03     108.361E-03    -53.5898E-03     78.8815E-03
             834     9.38362E-03     91.5616E-03    -25.5567E+06    -90.0410E+06    -9.25898E+06    -9.68975E+06    -55.0499E-03     108.734E-03    -53.6839E-03     86.4728E-03    -55.3164E-03     108.617E-03    -53.5626E-03     85.7077E-03
             835     10.2371E-03     91.6508E-03    -22.7270E+06    -80.1598E+06    -9.73670E+06    -9.10954E+06    -55.2427E-03     108.879E-03    -53.6363E-03     93.3253E-03    -55.6121E-03     108.911E-03    -53.5358E-03     92.4465E-03
             836     11.0903E-03     91.7471E-03    -20.1358E+06    -64.2341E+06    -10.1726E+06    -7.82570E+06    -55.4257E-03     109.010E-03    -53.5841E-03     99.1331E-03    -55.9427E-03     109.257E-03    -53.5126E-03     98.1314E-03
             837     11.9436E-03     91.8481E-03    -18.0308E+06    -40.5142E+06    -8.66276E+06    -5.76225E+06    -55.4771E-03     109.007E-03    -53.5302E-03     106.714E-03    -56.2225E-03     109.570E-03    -53.4886E-03     105.586E-03
             838     12.7976E-03     91.9594E-03    -16.4972E+06    -5.81879E+06    -10.8609E+06    -2.85145E+06    -55.9779E-03     109.420E-03    -53.4421E-03     120.742E-03    -57.1544E-03     110.549E-03    -53.4640E-03     119.437E-03
             839     13.6509E-03     92.0880E-03    -14.9401E+06     59.1060E+06    -7.62203E+06    -27.8302E+03    -56.9712E-03     110.320E-03    -53.3484E-03     142.719E-03    -58.9949E-03     112.522E-03    -53.4506E-03     141.197E-03
             840     14.5029E-03     92.2449E-03    -13.4121E+06     120.742E+06     28.7953E+06     1.26220E+06    -57.7142E-03     111.152E-03    -53.4377E-03     164.117E-03    -60.9395E-03     114.675E-03    -53.4494E-03     162.590E-03
             841     15.3562E-03     92.4178E-03    -11.3060E+06     149.333E+06     79.8472E+06     1.12680E+06    -57.8291E-03     111.488E-03    -53.6594E-03     174.327E-03    -62.2394E-03     116.157E-03    -53.4603E-03     173.419E-03
             842     16.2027E-03     92.5968E-03    -5.87874E+06     153.461E+06     98.9410E+06     308.420E+03    -54.1550E-03     107.883E-03    -53.7284E-03     110.584E-03    -57.2257E-03     111.191E-03    -53.4477E-03     110.451E-03
             843     852.847E-06     92.1204E-03    -60.5039E+06    -162.998E+06    -59.1876E+06    -1.30428E+06    -53.8376E-03     107.638E-03    -53.8002E-03     9.81023E-03    -53.8193E-03     106.998E-03    -53.7721E-03     9.75998E-03
             844     1.70577E-03     92.1342E-03    -58.1602E+06    -157.596E+06    -53.4402E+06    -2.74683E+06    -53.8484E-03     107.667E-03    -53.8188E-03     17.9205E-03    -53.8379E-03     107.046E-03    -53.7731E-03     17.8217E-03
             845     2.55868E-03     92.1562E-03    -54.9551E+06    -153.559E+06    -45.3672E+06    -4.11213E+06    -53.9106E-03     107.744E-03    -53.8335E-03     26.3823E-03    -53.9074E-03     107.132E-03    -53.7580E-03     26.2312E-03
             846     3.41161E-03     92.1869E-03    -51.1752E+06    -146.106E+06    -37.7414E+06    -5.32414E+06    -53.9825E-03     107.819E-03    -53.8367E-03     34.7539E-03    -53.9913E-03     107.237E-03    -53.7393E-03     34.5478E-03
             847     4.26467E-03     92.2256E-03    -47.3381E+06    -133.117E+06    -30.9307E+06    -6.56521E+06    -54.0584E-03     107.880E-03    -53.8218E-03     42.9438E-03    -54.0895E-03     107.360E-03    -53.7148E-03     42.6768E-03
             848     5.11770E-03     92.2725E-03    -43.5818E+06    -125.835E+06    -23.9345E+06    -7.66298E+06    -54.1678E-03     107.979E-03    -53.8117E-03     50.8427E-03    -54.2187E-03     107.498E-03    -53.6857E-03     50.5094E-03
             849     5.97089E-03     92.3270E-03    -39.6076E+06    -119.242E+06    -18.0190E+06    -8.80446E+06    -54.3096E-03     108.105E-03    -53.7952E-03     58.4440E-03    -54.3831E-03     107.667E-03    -53.6550E-03     58.0357E-03
             850     6.82402E-03     92.3891E-03    -35.6881E+06    -111.970E+06    -13.5936E+06    -10.0165E+06    -54.4625E-03     108.233E-03    -53.7700E-03     65.7521E-03    -54.5657E-03     107.851E-03    -53.6239E-03     65.2589E-03
             851     7.67738E-03     92.4579E-03    -32.0822E+06    -105.361E+06    -11.8150E+06    -10.9182E+06    -54.6436E-03     108.377E-03    -53.7335E-03     72.7859E-03    -54.7835E-03     108.063E-03    -53.5933E-03     72.2019E-03
             852     8.53053E-03     92.5341E-03    -28.8267E+06    -97.1394E+06    -11.3962E+06    -11.3888E+06    -54.8240E-03     108.514E-03    -53.6897E-03     79.5505E-03    -55.0166E-03     108.292E-03    -53.5640E-03     78.8696E-03
             853     9.38396E-03     92.6162E-03    -25.8826E+06    -89.3554E+06    -9.99157E+06    -11.4822E+06    -54.9937E-03     108.646E-03    -53.6519E-03     86.4363E-03    -55.2611E-03     108.533E-03    -53.5348E-03     85.6498E-03
             854     10.2373E-03     92.7059E-03    -23.2655E+06    -80.3087E+06    -10.7384E+06    -10.9823E+06    -55.2613E-03     108.866E-03    -53.6051E-03     93.4387E-03    -55.6316E-03     108.900E-03    -53.5086E-03     92.5363E-03
             855     11.0906E-03     92.8019E-03    -20.9809E+06    -65.5532E+06    -11.5273E+06    -9.87005E+06    -55.4158E-03     108.971E-03    -53.5554E-03     99.2477E-03    -55.9324E-03     109.214E-03    -53.4876E-03     98.2214E-03
             856     11.9440E-03     92.9032E-03    -18.5305E+06    -43.3694E+06    -10.1438E+06    -7.71644E+06    -55.5408E-03     109.047E-03    -53.5063E-03     106.562E-03    -56.2818E-03     109.598E-03    -53.4672E-03     105.407E-03
             857     12.7974E-03     93.0134E-03    -16.4039E+06    -10.0876E+06    -12.3534E+06    -4.38139E+06    -56.2203E-03     109.650E-03    -53.4300E-03     121.018E-03    -57.3887E-03     110.761E-03    -53.4533E-03     119.688E-03
             858     13.6499E-03     93.1449E-03    -15.6192E+06     55.2149E+06    -10.3112E+06    -559.389E+03    -57.1223E-03     110.464E-03    -53.3420E-03     143.089E-03    -59.1360E-03     112.648E-03    -53.4509E-03     141.556E-03
             859     14.5042E-03     93.2992E-03    -14.6439E+06     119.288E+06     24.2033E+06     1.83741E+06    -57.7821E-03     111.203E-03    -53.4208E-03     165.504E-03    -61.0151E-03     114.737E-03    -53.4515E-03     163.979E-03
             860     15.3565E-03     93.4760E-03    -10.3942E+06     151.202E+06     78.6863E+06     1.60813E+06    -56.9919E-03     110.615E-03    -53.6230E-03     176.086E-03    -61.4203E-03     115.315E-03    -53.4338E-03     175.245E-03
             861     16.2168E-03     93.6528E-03    -4.64931E+06     154.909E+06     100.456E+06     255.219E+03    -54.0825E-03     107.760E-03    -53.6775E-03     110.868E-03    -57.1573E-03     111.077E-03    -53.3931E-03     110.776E-03
             862     852.888E-06     93.1758E-03    -59.7253E+06    -159.674E+06    -58.5861E+06    -1.52244E+06    -53.8208E-03     107.592E-03    -53.7710E-03     9.79311E-03    -53.8043E-03     106.967E-03    -53.7458E-03     9.74007E-03
             863     1.70580E-03     93.1893E-03    -58.0526E+06    -153.992E+06    -53.2415E+06    -2.98817E+06    -53.8268E-03     107.621E-03    -53.7946E-03     17.9137E-03    -53.8213E-03     107.018E-03    -53.7533E-03     17.8118E-03
             864     2.55872E-03     93.2116E-03    -55.1691E+06    -150.006E+06    -45.6795E+06    -4.49036E+06    -53.8825E-03     107.690E-03    -53.8077E-03     26.3678E-03    -53.8851E-03     107.097E-03    -53.7386E-03     26.2120E-03
             865     3.41171E-03     93.2419E-03    -51.4322E+06    -142.584E+06    -38.1017E+06    -6.17601E+06    -53.9468E-03     107.756E-03    -53.8092E-03     34.7493E-03    -53.9614E-03     107.192E-03    -53.7184E-03     34.5324E-03
             866     4.26471E-03     93.2809E-03    -47.3513E+06    -130.158E+06    -31.2022E+06    -7.36511E+06    -54.0187E-03     107.812E-03    -53.7929E-03     42.9323E-03    -54.0537E-03     107.307E-03    -53.6916E-03     42.6554E-03
             867     5.11788E-03     93.3275E-03    -43.3220E+06    -122.854E+06    -24.0546E+06    -8.39591E+06    -54.1297E-03     107.911E-03    -53.7812E-03     50.8406E-03    -54.1834E-03     107.444E-03    -53.6605E-03     50.4983E-03
             868     5.97098E-03     93.3822E-03    -39.4766E+06    -115.828E+06    -18.2174E+06    -9.88987E+06    -54.2589E-03     108.021E-03    -53.7616E-03     58.4710E-03    -54.3361E-03     107.599E-03    -53.6275E-03     58.0495E-03
             869     6.82430E-03     93.4439E-03    -35.6214E+06    -108.900E+06    -13.7282E+06    -11.3498E+06    -54.4208E-03     108.156E-03    -53.7354E-03     65.7935E-03    -54.5277E-03     107.790E-03    -53.5944E-03     65.2840E-03
             870     7.67745E-03     93.5131E-03    -32.0087E+06    -103.034E+06    -11.7698E+06    -12.3080E+06    -54.5978E-03     108.297E-03    -53.6994E-03     72.8501E-03    -54.7406E-03     107.995E-03    -53.5625E-03     72.2493E-03
             871     8.53089E-03     93.5887E-03    -28.9804E+06    -95.4105E+06    -11.5895E+06    -12.8191E+06    -54.7560E-03     108.409E-03    -53.6531E-03     79.6252E-03    -54.9511E-03     108.196E-03    -53.5307E-03     78.9277E-03
             872     9.38420E-03     93.6712E-03    -26.5387E+06    -88.3221E+06    -10.5050E+06    -12.8723E+06    -54.9728E-03     108.587E-03    -53.6144E-03     86.5512E-03    -55.2439E-03     108.481E-03    -53.5003E-03     85.7480E-03
             873     10.2377E-03     93.7605E-03    -24.3403E+06    -79.9946E+06    -11.5362E+06    -12.6524E+06    -55.2385E-03     108.807E-03    -53.5685E-03     93.6709E-03    -55.6131E-03     108.845E-03    -53.4749E-03     92.7487E-03
             874     11.0909E-03     93.8572E-03    -22.1432E+06    -66.3874E+06    -12.6871E+06    -11.8172E+06    -55.4159E-03     108.936E-03    -53.5201E-03     99.3458E-03    -55.9344E-03     109.177E-03    -53.4552E-03     98.2960E-03
             875     11.9445E-03     93.9574E-03    -20.0763E+06    -46.0026E+06    -11.9609E+06    -10.1086E+06    -55.7067E-03     109.185E-03    -53.4785E-03     106.796E-03    -56.4511E-03     109.730E-03    -53.4425E-03     105.607E-03
             876     12.7972E-03     94.0695E-03    -18.1889E+06    -15.4614E+06    -14.7620E+06    -6.36500E+06    -56.2542E-03     109.665E-03    -53.4104E-03     121.664E-03    -57.4210E-03     110.755E-03    -53.4354E-03     120.309E-03
             877     13.6512E-03     94.1992E-03    -16.8729E+06     49.6628E+06    -15.0733E+06    -1.22442E+06    -56.9490E-03     110.253E-03    -53.3039E-03     143.794E-03    -58.9609E-03     112.425E-03    -53.4268E-03     142.257E-03
             878     14.5035E-03     94.3554E-03    -14.4686E+06     118.875E+06     21.8706E+06     1.04847E+06    -57.3850E-03     110.752E-03    -53.3672E-03     166.138E-03    -60.6259E-03     114.300E-03    -53.4092E-03     164.620E-03
             879     15.3581E-03     94.5304E-03    -10.0496E+06     152.305E+06     79.4376E+06     548.671E+03    -56.8245E-03     110.396E-03    -53.5712E-03     174.606E-03    -61.2419E-03     115.088E-03    -53.3803E-03     173.768E-03
             880     16.2082E-03     94.7035E-03    -4.93154E+06     154.850E+06     100.619E+06     580.402E+03    -54.2884E-03     107.925E-03    -53.6364E-03     109.243E-03    -57.3482E-03     111.225E-03    -53.3507E-03     109.141E-03
             881     852.927E-06     94.2310E-03    -59.0221E+06    -155.996E+06    -57.8564E+06    -1.71621E+06    -53.7735E-03     107.548E-03    -53.7740E-03     9.74285E-03    -53.7599E-03     106.939E-03    -53.7515E-03     9.68726E-03
             882     1.70580E-03     94.2448E-03    -57.0594E+06    -150.338E+06    -52.9180E+06    -3.02300E+06    -53.7955E-03     107.564E-03    -53.7680E-03     17.9051E-03    -53.7908E-03     106.976E-03    -53.7319E-03     17.8030E-03
             883     2.55880E-03     94.2667E-03    -54.1215E+06    -145.734E+06    -45.1602E+06    -4.93612E+06    -53.8401E-03     107.617E-03    -53.7764E-03     26.3668E-03    -53.8444E-03     107.042E-03    -53.7125E-03     26.2054E-03
             884     3.41178E-03     94.2973E-03    -50.4358E+06    -138.530E+06    -36.7971E+06    -6.86502E+06    -53.8987E-03     107.677E-03    -53.7781E-03     34.7382E-03    -53.9160E-03     107.130E-03    -53.6880E-03     34.5128E-03
             885     4.26490E-03     94.3358E-03    -46.5013E+06    -126.988E+06    -30.0401E+06    -8.30784E+06    -53.9649E-03     107.724E-03    -53.7590E-03     42.9398E-03    -54.0019E-03     107.232E-03    -53.6576E-03     42.6512E-03
             886     5.11800E-03     94.3828E-03    -42.3905E+06    -119.606E+06    -23.6439E+06    -9.48390E+06    -54.0653E-03     107.804E-03    -53.7392E-03     50.8713E-03    -54.1194E-03     107.352E-03    -53.6225E-03     50.5160E-03
             887     5.97129E-03     94.4370E-03    -38.3671E+06    -112.089E+06    -17.7015E+06    -10.7770E+06    -54.1920E-03     107.907E-03    -53.7152E-03     58.5364E-03    -54.2696E-03     107.502E-03    -53.5855E-03     58.1048E-03
             888     6.82450E-03     94.4990E-03    -34.9079E+06    -105.419E+06    -13.1995E+06    -12.2957E+06    -54.3473E-03     108.033E-03    -53.6861E-03     65.9317E-03    -54.4560E-03     107.682E-03    -53.5486E-03     65.4117E-03
             889     7.67791E-03     94.5678E-03    -31.9315E+06    -100.631E+06    -11.4799E+06    -13.2838E+06    -54.5133E-03     108.161E-03    -53.6475E-03     73.0148E-03    -54.6591E-03     107.869E-03    -53.5127E-03     72.4036E-03
             890     8.53122E-03     94.6436E-03    -29.4397E+06    -93.4123E+06    -11.4562E+06    -13.6972E+06    -54.6941E-03     108.293E-03    -53.5990E-03     79.8340E-03    -54.8941E-03     108.090E-03    -53.4782E-03     79.1275E-03
             891     9.38475E-03     94.7258E-03    -27.0421E+06    -86.8273E+06    -10.4990E+06    -14.0360E+06    -54.9426E-03     108.503E-03    -53.5604E-03     86.8587E-03    -55.2182E-03     108.405E-03    -53.4478E-03     86.0423E-03
             892     10.2380E-03     94.8156E-03    -24.8119E+06     -79.182E+06    -11.8369E+06    -13.9731E+06    -55.1974E-03     108.712E-03    -53.5145E-03     93.9809E-03    -55.5747E-03     108.754E-03    -53.4229E-03     93.0441E-03
             893     11.0916E-03     94.9116E-03    -23.1007E+06    -66.8120E+06    -13.4700E+06    -13.2437E+06    -55.4468E-03     108.915E-03    -53.4683E-03     99.8575E-03    -55.9688E-03     109.157E-03    -53.4053E-03     98.7905E-03
             894     11.9445E-03     95.0131E-03    -21.7894E+06    -48.0010E+06    -13.4841E+06    -11.5967E+06    -55.7187E-03     109.148E-03    -53.4297E-03     107.400E-03    -56.4686E-03     109.690E-03    -53.3959E-03     106.192E-03
             895     12.7982E-03     95.1238E-03    -20.6519E+06    -20.9921E+06    -17.5860E+06    -8.38038E+06    -56.1343E-03     109.493E-03    -53.3590E-03     122.137E-03    -57.3026E-03     110.565E-03    -53.3865E-03     120.761E-03
             896     13.6511E-03     95.2548E-03    -18.2648E+06     43.6977E+06    -20.5992E+06    -4.08977E+06    -56.8729E-03     110.105E-03    -53.2325E-03     144.439E-03    -58.8793E-03     112.262E-03    -53.3723E-03     142.873E-03
             897     14.5056E-03     95.4103E-03    -14.8375E+06     117.453E+06     16.1128E+06    -941.181E+03    -57.3881E-03     110.674E-03    -53.2858E-03     166.064E-03    -60.6131E-03     114.216E-03    -53.3540E-03     164.529E-03
             898     15.3589E-03     95.5854E-03    -10.5166E+06     152.047E+06     77.1250E+06     473.120E+03    -57.1803E-03     110.696E-03    -53.5160E-03     175.442E-03    -61.5992E-03     115.394E-03    -53.3356E-03     174.589E-03
             899     16.2136E-03     95.7633E-03    -5.41343E+06     154.966E+06     100.816E+06     824.315E+03    -54.4100E-03     108.013E-03    -53.6032E-03     110.452E-03    -57.4883E-03     111.330E-03    -53.3160E-03     110.344E-03
             900     852.866E-06     95.2864E-03    -57.8175E+06    -151.861E+06    -56.9684E+06    -2.02973E+06    -53.7374E-03     107.484E-03    -53.7468E-03     9.75990E-03    -53.7250E-03     106.893E-03    -53.7276E-03     9.70042E-03
             901     1.70592E-03     95.2998E-03    -55.9409E+06    -146.454E+06    -51.9362E+06    -3.55531E+06    -53.7422E-03     107.474E-03    -53.7318E-03     17.9133E-03    -53.7389E-03     106.903E-03    -53.6980E-03     17.8046E-03
             902     2.55886E-03     95.3221E-03    -52.9791E+06    -140.973E+06    -43.9783E+06    -5.38471E+06    -53.7758E-03     107.508E-03    -53.7321E-03     26.3834E-03    -53.7829E-03     106.954E-03    -53.6708E-03     26.2166E-03
             903     3.41196E-03     95.3523E-03    -49.2866E+06    -133.985E+06    -35.6651E+06    -7.47439E+06    -53.8211E-03     107.548E-03    -53.7270E-03     34.7751E-03    -53.8408E-03     107.021E-03    -53.6396E-03     34.5426E-03
             904     4.26505E-03     95.3911E-03    -45.1288E+06    -123.187E+06    -28.7284E+06    -9.27154E+06    -53.8798E-03     107.583E-03    -53.7031E-03     43.0059E-03    -53.9172E-03     107.106E-03    -53.6027E-03     42.7060E-03
             905     5.11834E-03     95.4375E-03    -41.0764E+06    -116.229E+06    -22.6225E+06    -10.5665E+06    -53.9697E-03     107.646E-03    -53.6764E-03     50.9694E-03    -54.0234E-03     107.207E-03    -53.5614E-03     50.6016E-03
             906     5.97159E-03     95.4920E-03    -37.3265E+06    -108.457E+06    -17.1386E+06    -11.7241E+06    -54.0855E-03     107.729E-03    -53.6439E-03     58.6967E-03    -54.1636E-03     107.340E-03    -53.5182E-03     58.2551E-03
             907     6.82506E-03     95.5536E-03    -33.7898E+06    -101.876E+06    -12.2695E+06    -12.9088E+06    -54.2211E-03     107.831E-03    -53.6099E-03     66.1284E-03    -54.3302E-03     107.494E-03    -53.4746E-03     65.6032E-03
             908     7.67845E-03     95.6226E-03    -30.8491E+06    -98.3039E+06    -10.2591E+06    -13.6310E+06    -54.3900E-03     107.958E-03    -53.5680E-03     73.2567E-03    -54.5349E-03     107.674E-03    -53.4320E-03     72.6441E-03
             909     8.53203E-03     95.6981E-03    -28.4006E+06    -90.9892E+06    -10.4950E+06    -14.2267E+06    -54.6074E-03     108.122E-03    -53.5143E-03     80.2105E-03    -54.8065E-03     107.927E-03    -53.3936E-03     79.5003E-03
             910     9.38538E-03     95.7807E-03    -26.1459E+06    -84.7170E+06    -9.83003E+06    -14.9642E+06    -54.8532E-03     108.326E-03    -53.4727E-03     87.3456E-03    -55.1277E-03     108.235E-03    -53.3611E-03     86.5211E-03
             911     10.2390E-03     95.8700E-03    -24.2565E+06    -78.5339E+06    -11.7130E+06    -14.8185E+06    -55.1395E-03     108.565E-03    -53.4254E-03     94.5712E-03    -55.5148E-03     108.609E-03    -53.3349E-03     93.6272E-03
             912     11.0923E-03     95.9666E-03    -22.8615E+06    -66.8769E+06    -13.6688E+06    -13.9401E+06    -55.3550E-03     108.732E-03    -53.3773E-03     100.662E-03    -55.8755E-03     108.974E-03    -53.3155E-03     99.5914E-03
             913     11.9460E-03     96.0679E-03    -21.7551E+06    -49.5239E+06    -13.9723E+06    -12.3266E+06    -55.6561E-03     108.993E-03    -53.3369E-03     108.293E-03    -56.4029E-03     109.527E-03    -53.3034E-03     107.082E-03
             914     12.7989E-03     96.1790E-03    -20.3312E+06    -24.4061E+06    -18.4598E+06    -9.70823E+06    -56.2780E-03     109.550E-03    -53.2721E-03     122.730E-03    -57.4424E-03     110.609E-03    -53.2995E-03     121.336E-03
             915     13.6531E-03     96.3092E-03    -18.9784E+06     38.8734E+06    -23.9601E+06    -7.04651E+06    -57.0586E-03     110.209E-03    -53.1499E-03     144.813E-03    -59.0547E-03     112.345E-03    -53.2986E-03     143.207E-03
             916     14.5054E-03     96.4659E-03    -16.6819E+06     113.492E+06     8.36894E+06    -3.86805E+06    -57.6895E-03     110.888E-03    -53.1983E-03     166.324E-03    -60.9071E-03     114.425E-03    -53.2968E-03     164.742E-03
             917     15.3587E-03     96.6403E-03    -12.0600E+06     149.968E+06     71.0806E+06    -839.317E+03    -57.0548E-03     110.497E-03    -53.4426E-03     174.945E-03    -61.4654E-03     115.191E-03    -53.2871E-03     174.084E-03
             918     16.2128E-03     96.8165E-03    -5.47863E+06     154.582E+06     100.292E+06     392.515E+03    -54.0458E-03     107.591E-03    -53.5452E-03     109.150E-03    -57.1054E-03     110.889E-03    -53.2600E-03     109.056E-03
             919     853.008E-06     96.3414E-03    -56.4555E+06    -147.020E+06    -55.4488E+06    -2.36363E+06    -53.7385E-03     107.351E-03    -53.6129E-03     9.78239E-03    -53.7285E-03     106.780E-03    -53.5951E-03     9.71889E-03
             920     1.70593E-03     96.3552E-03    -54.6298E+06    -142.068E+06    -50.4320E+06    -4.12002E+06    -53.6683E-03     107.333E-03    -53.6650E-03     17.9282E-03    -53.6670E-03     106.780E-03    -53.6319E-03     17.8126E-03
             921     2.55907E-03     96.3769E-03    -51.7294E+06    -136.314E+06    -43.2742E+06    -5.83662E+06    -53.6642E-03     107.317E-03    -53.6533E-03     26.4414E-03    -53.6727E-03     106.784E-03    -53.5970E-03     26.2698E-03
             922     3.41220E-03     96.4074E-03    -48.1622E+06    -128.617E+06    -35.1364E+06    -8.13906E+06    -53.6982E-03     107.334E-03    -53.6357E-03     34.8767E-03    -53.7207E-03     106.831E-03    -53.5550E-03     34.6370E-03
             923     4.26549E-03     96.4458E-03    -44.4065E+06    -119.090E+06    -27.7411E+06    -10.0846E+06    -53.7451E-03     107.353E-03    -53.6077E-03     43.1448E-03    -53.7860E-03     106.894E-03    -53.5093E-03     42.8362E-03
             924     5.11878E-03     96.4925E-03    -40.7159E+06    -112.680E+06    -21.3958E+06    -11.2635E+06    -53.8249E-03     107.401E-03    -53.5758E-03     51.1583E-03    -53.8834E-03     106.977E-03    -53.4603E-03     50.7839E-03
             925     5.97228E-03     96.5465E-03    -36.9219E+06    -104.421E+06    -16.3125E+06    -12.7861E+06    -53.9195E-03     107.452E-03    -53.5325E-03     58.9574E-03    -54.0021E-03     107.080E-03    -53.4092E-03     58.5053E-03
             926     6.82574E-03     96.6084E-03    -33.1541E+06    -98.9619E+06    -11.7627E+06    -13.8575E+06    -54.0426E-03     107.532E-03    -53.4896E-03     66.4588E-03    -54.1528E-03     107.207E-03    -53.3568E-03     65.9256E-03
             927     7.67942E-03     96.6769E-03    -29.7079E+06    -95.8689E+06    -9.35820E+06    -14.2954E+06    -54.2222E-03     107.664E-03    -53.4418E-03     73.6919E-03    -54.3654E-03     107.389E-03    -53.3065E-03     73.0756E-03
             928     8.53300E-03     96.7528E-03    -26.6623E+06    -88.1445E+06    -9.34245E+06    -15.0874E+06    -54.4282E-03     107.809E-03    -53.3807E-03     80.7859E-03    -54.6233E-03     107.624E-03    -53.2610E-03     80.0706E-03
             929     9.38678E-03     96.8349E-03    -24.2981E+06    -82.7453E+06    -8.67501E+06    -15.4933E+06    -54.6913E-03     108.025E-03    -53.3338E-03     88.0331E-03    -54.9599E-03     107.939E-03    -53.2219E-03     87.2083E-03
             930     10.2403E-03     96.9246E-03    -22.5116E+06    -77.5250E+06    -10.5599E+06    -15.3181E+06    -55.0064E-03     108.290E-03    -53.2837E-03     95.4125E-03    -55.3751E-03     108.334E-03    -53.1914E-03     94.4689E-03
             931     11.0941E-03     97.0211E-03    -21.0313E+06    -67.1937E+06    -13.0424E+06    -14.5406E+06    -55.2503E-03     108.483E-03    -53.2326E-03     101.503E-03    -55.7612E-03     108.718E-03    -53.1699E-03     100.431E-03
             932     11.9475E-03     97.1223E-03    -19.3132E+06    -50.5157E+06    -12.9016E+06    -13.1866E+06    -55.6437E-03     108.840E-03    -53.1963E-03     109.226E-03    -56.3771E-03     109.363E-03    -53.1596E-03     108.010E-03
             933     12.8012E-03     97.2344E-03    -17.4920E+06    -26.8728E+06    -17.6033E+06    -11.3715E+06    -56.4850E-03     109.628E-03    -53.1428E-03     123.752E-03    -57.6344E-03     110.671E-03    -53.1665E-03     122.337E-03
             934     13.6531E-03     97.3644E-03    -15.8188E+06     35.9454E+06    -22.2378E+06    -8.58622E+06    -57.3183E-03     110.361E-03    -53.0426E-03     145.894E-03    -59.3059E-03     112.484E-03    -53.1830E-03     144.265E-03
             935     14.5073E-03     97.5211E-03    -14.0628E+06     108.727E+06     11.0064E+06    -5.00776E+06    -57.8371E-03     110.948E-03    -53.1104E-03     168.132E-03    -61.0585E-03     114.473E-03    -53.1926E-03     166.539E-03
             936     15.3604E-03     97.6967E-03    -10.5988E+06     146.579E+06     72.1297E+06    -1.31119E+06    -57.1945E-03     110.545E-03    -53.3510E-03     176.644E-03    -61.6004E-03     115.225E-03    -53.1875E-03     175.779E-03
             937     16.2131E-03     97.8712E-03    -5.32404E+06     154.862E+06     100.081E+06     91.6208E+03    -54.1954E-03     107.646E-03    -53.4504E-03     111.029E-03    -57.2610E-03     110.952E-03    -53.1668E-03     110.929E-03
             938     853.049E-06     97.3968E-03    -54.3357E+06    -141.528E+06    -53.4401E+06    -2.67295E+06    -53.6119E-03     107.104E-03    -53.4924E-03     9.79740E-03    -53.6022E-03     106.555E-03    -53.4756E-03     9.73032E-03
             939     1.70618E-03     97.4099E-03    -52.3813E+06    -137.060E+06    -48.4534E+06    -4.67598E+06    -53.5314E-03     107.070E-03    -53.5383E-03     17.9749E-03    -53.5289E-03     106.535E-03    -53.5059E-03     17.8528E-03
             940     2.55935E-03     97.4319E-03    -49.2115E+06    -131.248E+06    -41.5196E+06    -6.82768E+06    -53.5209E-03     107.040E-03    -53.5193E-03     26.5603E-03    -53.5267E-03     106.526E-03    -53.4652E-03     26.3772E-03
             941     3.41270E-03     97.4620E-03    -45.2874E+06    -123.013E+06     -33.146E+06    -8.98710E+06    -53.5297E-03     107.024E-03    -53.4945E-03     35.0172E-03    -53.5486E-03     106.542E-03    -53.4162E-03     34.7684E-03
             942     4.26605E-03     97.5006E-03    -41.5302E+06    -115.411E+06    -25.0016E+06    -10.2713E+06    -53.5583E-03     107.022E-03    -53.4638E-03     43.3154E-03    -53.5938E-03     106.573E-03    -53.3612E-03     43.0069E-03
             943     5.11963E-03     97.5468E-03    -38.1081E+06    -108.587E+06    -18.6893E+06    -11.4596E+06    -53.6062E-03     107.027E-03    -53.4208E-03     51.4157E-03    -53.6609E-03     106.615E-03    -53.3016E-03     51.0423E-03
             944     5.97318E-03     97.6010E-03    -34.9949E+06    -99.9212E+06    -14.5292E+06    -13.2206E+06    -53.6725E-03     107.034E-03    -53.3612E-03     59.3250E-03    -53.7538E-03     106.678E-03    -53.2382E-03     58.8721E-03
             945     6.82703E-03     97.6624E-03    -32.2408E+06    -96.1769E+06    -11.0305E+06    -14.3936E+06    -53.7969E-03     107.102E-03    -53.3055E-03     66.9599E-03    -53.9065E-03     106.788E-03    -53.1745E-03     66.4258E-03
             946     7.68080E-03     97.7312E-03    -29.1011E+06    -92.3743E+06    -8.61528E+06    -15.7007E+06    -53.9697E-03     107.217E-03    -53.2475E-03     74.3432E-03    -54.1146E-03     106.956E-03    -53.1145E-03     73.7160E-03
             947     8.53475E-03     97.8066E-03    -25.6975E+06    -85.7993E+06    -8.33008E+06    -16.5326E+06    -54.1592E-03     107.339E-03    -53.1793E-03     81.5506E-03    -54.3528E-03     107.160E-03    -53.0593E-03     80.8250E-03
             948     9.38864E-03     97.8891E-03    -22.8518E+06    -81.2915E+06    -7.51489E+06    -16.2950E+06    -54.4410E-03     107.566E-03    -53.1246E-03     89.0014E-03    -54.7043E-03     107.481E-03    -53.0112E-03     88.1759E-03
             949     10.2426E-03     97.9787E-03    -20.6427E+06    -76.1651E+06    -9.30720E+06    -16.1606E+06    -54.8120E-03     107.881E-03    -53.0688E-03     96.4874E-03    -55.1734E-03     107.926E-03    -52.9750E-03     95.5428E-03
             950     11.0963E-03     98.0754E-03    -18.5052E+06    -66.9952E+06    -11.7326E+06    -15.7352E+06    -55.2046E-03     108.225E-03    -53.0207E-03     102.721E-03    -55.7041E-03     108.455E-03    -52.9554E-03     101.642E-03
             951     11.9499E-03     98.1770E-03    -16.3546E+06    -51.1703E+06    -11.5479E+06    -14.8853E+06    -55.6853E-03     108.680E-03    -52.9943E-03     110.602E-03    -56.4061E-03     109.194E-03    -52.9541E-03     109.370E-03
             952     12.8030E-03     98.2891E-03    -14.1394E+06    -28.9599E+06    -16.0830E+06    -13.4115E+06    -56.4712E-03     109.422E-03    -52.9507E-03     125.391E-03    -57.6050E-03     110.449E-03    -52.9686E-03     123.959E-03
             953     13.6571E-03     98.4204E-03    -12.6265E+06     32.4596E+06    -19.9904E+06    -10.0042E+06    -57.5589E-03     110.427E-03    -52.8683E-03     147.232E-03    -59.5394E-03     112.536E-03    -52.9970E-03     145.584E-03
             954     14.5097E-03     98.5758E-03    -11.7484E+06     102.750E+06     13.5623E+06    -4.46494E+06    -58.1013E-03     111.065E-03    -52.9633E-03     168.641E-03    -61.3101E-03     114.557E-03    -53.0275E-03     167.050E-03
             955     15.3635E-03     98.7528E-03    -9.49907E+06     143.288E+06     73.8066E+06    -618.524E+03    -57.2492E-03     110.465E-03    -53.2157E-03     175.703E-03    -61.6294E-03     115.106E-03    -53.0406E-03     174.840E-03
             956     16.2194E-03     98.9250E-03    -5.01093E+06     155.557E+06     100.589E+06     71.3962E+03    -54.7132E-03     108.044E-03    -53.3313E-03     109.845E-03    -57.7656E-03     111.340E-03    -53.0466E-03     109.717E-03
             957     853.207E-06     98.4512E-03    -51.4951E+06    -135.297E+06    -50.5702E+06    -3.06204E+06    -53.3330E-03     106.686E-03    -53.3533E-03     9.82420E-03    -53.3223E-03     106.159E-03    -53.3353E-03     9.75264E-03
             958     1.70654E-03     98.4647E-03    -49.5304E+06    -131.168E+06    -45.8271E+06    -5.40333E+06    -53.3182E-03     106.646E-03    -53.3274E-03     18.0805E-03    -53.3137E-03     106.133E-03    -53.2945E-03     17.9502E-03
             959     2.55991E-03     98.4863E-03    -46.6316E+06    -125.154E+06    -38.9675E+06    -8.01293E+06    -53.3140E-03     106.621E-03    -53.3074E-03     26.7088E-03    -53.3193E-03     106.130E-03    -53.2532E-03     26.5121E-03
             960     3.41334E-03     98.5165E-03    -43.0661E+06    -117.938E+06    -31.2799E+06    -10.0240E+06    -53.2936E-03     106.572E-03    -53.2784E-03     35.2329E-03    -53.3112E-03     106.109E-03    -53.2013E-03     34.9734E-03
             961     4.26701E-03     98.5546E-03    -38.9015E+06    -111.976E+06    -23.5535E+06    -11.0706E+06    -53.2848E-03     106.523E-03    -53.2379E-03     43.5962E-03    -53.3138E-03     106.084E-03    -53.1369E-03     43.2812E-03
             962     5.12072E-03     98.6010E-03    -34.4404E+06    -104.040E+06    -16.5864E+06    -12.2343E+06    -53.2886E-03     106.469E-03    -53.1808E-03     51.7979E-03    -53.3339E-03     106.071E-03    -53.0629E-03     51.4197E-03
             963     5.97477E-03     98.6547E-03    -30.7774E+06    -96.5003E+06    -11.5293E+06    -13.0398E+06    -53.3408E-03     106.452E-03    -53.1108E-03     59.8107E-03    -53.4092E-03     106.102E-03    -52.9839E-03     59.3667E-03
             964     6.82876E-03     98.7162E-03    -28.0486E+06    -92.4156E+06    -7.89899E+06    -14.0679E+06    -53.4516E-03     106.492E-03    -53.0409E-03     67.6046E-03    -53.5487E-03     106.185E-03    -52.9057E-03     67.0828E-03
             965     7.68295E-03     98.7847E-03    -25.7131E+06    -87.5709E+06    -5.84173E+06    -16.2026E+06    -53.5979E-03     106.565E-03    -52.9666E-03     75.1864E-03    -53.7349E-03     106.316E-03    -52.8316E-03     74.5627E-03
             966     8.53715E-03     98.8603E-03    -23.7386E+06    -83.8044E+06    -6.50488E+06    -17.3132E+06    -53.8192E-03     106.707E-03    -52.8879E-03     82.5740E-03    -54.0063E-03     106.531E-03    -52.7645E-03     81.8494E-03
             967     9.39147E-03     98.9425E-03    -21.5480E+06    -79.4262E+06    -6.25557E+06    -17.5895E+06    -54.1305E-03     106.954E-03    -52.8238E-03     90.2086E-03    -54.3894E-03     106.873E-03    -52.7086E-03     89.3787E-03
             968     10.2457E-03     99.0326E-03    -18.8308E+06    -74.7111E+06    -7.73808E+06    -17.7478E+06    -54.5911E-03     107.358E-03    -52.7667E-03     97.8701E-03    -54.9455E-03     107.403E-03    -52.6698E-03     96.9173E-03
             969     11.0997E-03     99.1293E-03    -16.5310E+06    -66.3007E+06    -10.5046E+06    -17.4723E+06    -55.0819E-03     107.803E-03    -52.7214E-03     104.316E-03    -55.5732E-03     108.031E-03    -52.6538E-03     103.225E-03
             970     11.9533E-03     99.2317E-03    -14.7085E+06    -50.8384E+06    -10.0710E+06    -16.8266E+06    -55.6488E-03     108.355E-03    -52.7059E-03     112.368E-03    -56.3642E-03     108.867E-03    -52.6612E-03     111.122E-03
             971     12.8072E-03     99.3438E-03    -13.3705E+06    -30.3385E+06    -14.4215E+06    -15.2340E+06    -56.6678E-03     109.352E-03    -52.6844E-03     127.040E-03    -57.8020E-03     110.373E-03    -52.6931E-03     125.588E-03
             972     13.6597E-03     99.4754E-03    -13.3877E+06     25.6130E+06    -19.5975E+06    -10.8976E+06    -57.9397E-03     110.574E-03    -52.6338E-03     148.689E-03    -59.9205E-03     112.655E-03    -52.7495E-03     147.025E-03
             973     14.5122E-03     99.6329E-03    -13.0669E+06     95.8307E+06     8.65074E+06    -4.36313E+06    -58.5432E-03     111.279E-03    -52.7361E-03     169.532E-03    -61.7493E-03     114.754E-03    -52.8129E-03     167.936E-03
             974     15.3650E-03     99.8065E-03    -10.3998E+06     141.768E+06     67.9706E+06    -254.577E+03    -57.9683E-03     110.983E-03    -53.0143E-03     177.214E-03    -62.3928E-03     115.676E-03    -52.8649E-03     176.339E-03
             975     16.2148E-03     99.9819E-03    -5.56048E+06     155.419E+06     99.7699E+06     451.941E+03    -55.0846E-03     108.270E-03    -53.1855E-03     111.640E-03    -58.1836E-03     111.612E-03    -52.9039E-03     111.502E-03
             976     853.524E-06     99.5056E-03    -48.4231E+06    -128.247E+06    -47.4704E+06    -3.44227E+06    -53.0157E-03     106.064E-03    -53.0485E-03     9.89493E-03    -53.0043E-03     105.564E-03    -53.0296E-03     9.81934E-03
             977     1.70705E-03     99.5187E-03    -46.6582E+06    -124.459E+06    -42.9156E+06    -5.97039E+06    -53.0231E-03     106.042E-03    -53.0191E-03     18.1979E-03    -53.0181E-03     105.554E-03    -52.9856E-03     18.0620E-03
             978     2.56065E-03     99.5405E-03    -44.1401E+06    -118.526E+06    -36.5882E+06    -8.57197E+06    -52.9782E-03     105.974E-03    -52.9957E-03     26.8934E-03    -52.9838E-03     105.508E-03    -52.9427E-03     26.6923E-03
             979     3.41446E-03     99.5702E-03    -41.1703E+06    -112.826E+06    -29.9370E+06    -10.6755E+06    -52.9298E-03     105.884E-03    -52.9539E-03     35.5245E-03    -52.9469E-03     105.441E-03    -52.8803E-03     35.2606E-03
             980     4.26833E-03     99.6084E-03    -37.5796E+06    -107.425E+06    -23.2204E+06    -12.5339E+06    -52.8834E-03     105.780E-03    -52.8965E-03     44.0238E-03    -52.9121E-03     105.361E-03    -52.8023E-03     43.6955E-03
             981     5.12256E-03     99.6542E-03    -33.3853E+06    -99.8160E+06    -16.3959E+06    -14.0383E+06    -52.8643E-03     105.689E-03    -52.8245E-03     52.3583E-03    -52.9097E-03     105.309E-03    -52.7134E-03     51.9639E-03
             982     5.97678E-03     99.7080E-03    -28.9173E+06    -94.4338E+06    -10.4012E+06    -14.1881E+06    -52.8870E-03     105.633E-03    -52.7456E-03     60.5098E-03    -52.9493E-03     105.287E-03    -52.6187E-03     60.0598E-03
             983     6.83133E-03     99.7691E-03    -24.7552E+06    -88.1131E+06    -5.78392E+06    -14.7279E+06    -52.9515E-03     105.609E-03    -52.6573E-03     68.5037E-03    -53.0393E-03     105.313E-03    -52.5226E-03     67.9847E-03
             984     7.68596E-03     99.8376E-03    -21.7165E+06    -83.4306E+06    -2.97118E+06    -15.9017E+06    -53.1087E-03     105.677E-03    -52.5684E-03     76.2800E-03    -53.2332E-03     105.437E-03    -52.4308E-03     75.6734E-03
             985     8.54073E-03     99.9129E-03    -19.9659E+06    -81.0066E+06    -3.31244E+06    -16.8152E+06    -53.3797E-03     105.861E-03    -52.4810E-03     83.8894E-03    -53.5535E-03     105.686E-03    -52.3511E-03     83.1859E-03
             986     9.39529E-03     99.9956E-03    -18.4237E+06    -75.8360E+06    -3.41261E+06    -18.3182E+06    -53.7678E-03     106.177E-03    -52.4090E-03     91.7846E-03    -54.0173E-03     106.102E-03    -52.2894E-03     90.9606E-03
             987     10.2499E-03     100.085E-03    -16.5190E+06    -73.2450E+06    -5.57100E+06    -19.2292E+06    -54.3165E-03     106.670E-03    -52.3533E-03     99.7821E-03    -54.6616E-03     106.712E-03    -52.2510E-03     98.8263E-03
             988     11.1041E-03     100.183E-03    -15.0046E+06    -65.4306E+06    -9.16674E+06    -18.6787E+06    -54.9330E-03     107.246E-03    -52.3131E-03     106.368E-03    -55.4176E-03     107.472E-03    -52.2423E-03     105.278E-03
             989     11.9582E-03     100.285E-03    -14.0680E+06    -50.0534E+06    -8.48940E+06    -17.7995E+06    -55.7052E-03     108.023E-03    -52.3177E-03     114.389E-03    -56.4198E-03     108.534E-03    -52.2671E-03     113.142E-03
             990     12.8114E-03     100.399E-03    -13.8316E+06    -32.5159E+06    -14.1216E+06    -15.8635E+06    -56.9201E-03     109.243E-03    -52.3228E-03     129.418E-03    -58.0568E-03     110.256E-03    -52.3262E-03     127.965E-03
             991     13.6640E-03     100.531E-03    -14.2901E+06     18.8565E+06    -19.2585E+06    -10.6243E+06    -58.2622E-03     110.571E-03    -52.3091E-03     151.338E-03    -60.2452E-03     112.626E-03    -52.4120E-03     149.686E-03
             992     14.5173E-03     100.688E-03    -14.0116E+06     88.9626E+06     2.93819E+06    -4.30686E+06    -59.0443E-03     111.458E-03    -52.4135E-03     171.564E-03    -62.2454E-03     114.917E-03    -52.5075E-03     169.970E-03
             993     15.3700E-03     100.864E-03    -10.7284E+06     139.506E+06     59.7929E+06    -829.372E+03    -58.5289E-03     111.237E-03    -52.7085E-03     178.902E-03    -62.9581E-03     115.950E-03    -52.5962E-03     178.014E-03
             994     16.2260E-03     101.039E-03    -5.25331E+06     155.399E+06     98.4731E+06     87.5238E+03    -55.8320E-03     108.784E-03    -52.9521E-03     112.101E-03    -58.9371E-03     112.137E-03    -52.6774E-03     111.942E-03
             995     853.880E-06     100.559E-03    -45.3463E+06    -120.463E+06    -44.2900E+06    -3.65876E+06    -52.6067E-03     105.219E-03    -52.6121E-03     9.98546E-03    -52.5957E-03     104.748E-03    -52.5931E-03     9.90849E-03
             996     1.70772E-03     100.572E-03    -43.5679E+06    -117.197E+06    -40.1071E+06    -6.48777E+06    -52.5735E-03     105.163E-03    -52.5896E-03     18.3607E-03    -52.5676E-03     104.703E-03    -52.5570E-03     18.2205E-03
             997     2.56178E-03     100.594E-03    -40.8832E+06    -111.831E+06    -34.2293E+06    -9.10519E+06    -52.4907E-03     105.041E-03    -52.5501E-03     27.1622E-03    -52.4929E-03     104.600E-03    -52.4998E-03     26.9580E-03
             998     3.41593E-03     100.623E-03    -37.6954E+06    -107.168E+06    -27.2733E+06    -11.2785E+06    -52.4022E-03     104.895E-03    -52.4927E-03     35.9088E-03    -52.4134E-03     104.471E-03    -52.4190E-03     35.6425E-03
             999     4.27043E-03     100.661E-03    -34.3652E+06    -101.759E+06    -20.6723E+06    -13.3408E+06    -52.3314E-03     104.748E-03    -52.4164E-03     44.5623E-03    -52.3550E-03     104.348E-03    -52.3224E-03     44.2309E-03
            1000     5.12495E-03     100.707E-03    -31.2832E+06    -95.4703E+06    -15.4186E+06    -15.0330E+06    -52.2803E-03     104.603E-03    -52.3223E-03     53.1106E-03    -52.3214E-03     104.238E-03    -52.2156E-03     52.7130E-03
            1001     5.97986E-03     100.760E-03    -28.0337E+06    -91.8820E+06    -10.4838E+06    -15.9197E+06    -52.2615E-03     104.485E-03    -52.2234E-03     61.4875E-03    -52.3208E-03     104.149E-03    -52.1019E-03     61.0273E-03
            1002     6.83490E-03     100.821E-03    -24.4260E+06    -84.4272E+06    -5.81339E+06    -16.4205E+06    -52.3022E-03     104.417E-03    -52.1151E-03     69.7289E-03    -52.3908E-03     104.136E-03    -51.9863E-03     69.2030E-03
            1003     7.69016E-03     100.889E-03    -21.0093E+06    -80.8654E+06    -2.11480E+06    -16.6436E+06    -52.4793E-03     104.494E-03    -52.0147E-03     77.7748E-03    -52.6016E-03     104.261E-03    -51.8776E-03     77.1760E-03
            1004     8.54533E-03     100.965E-03    -18.0141E+06    -77.6962E+06    -1.58439E+06    -17.0722E+06    -52.7986E-03     104.715E-03    -51.9166E-03     85.6804E-03    -52.9658E-03     104.547E-03    -51.7857E-03     84.9930E-03
            1005     9.40066E-03     101.047E-03    -15.8188E+06    -71.3674E+06    -1.06298E+06    -18.5309E+06    -53.2675E-03     105.106E-03    -51.8388E-03     93.9206E-03    -53.5091E-03     105.041E-03    -51.7177E-03     93.1150E-03
            1006     10.2556E-03     101.138E-03    -14.8360E+06    -71.3742E+06    -3.58406E+06    -19.4375E+06    -53.9429E-03     105.731E-03    -51.7876E-03     102.270E-03    -54.2808E-03     105.773E-03    -51.6805E-03     101.333E-03
            1007     11.1104E-03     101.236E-03    -14.2232E+06    -64.5718E+06    -8.49766E+06    -19.0930E+06    -54.8092E-03     106.566E-03    -51.7567E-03     109.267E-03    -55.2885E-03     106.790E-03    -51.6849E-03     108.191E-03
            1008     11.9641E-03     101.339E-03    -13.3714E+06    -49.6577E+06    -7.59329E+06    -18.1992E+06    -55.8274E-03     107.618E-03    -51.7903E-03     117.517E-03    -56.5408E-03     108.129E-03    -51.7368E-03     116.280E-03
            1009     12.8176E-03     101.453E-03    -13.0464E+06    -34.9989E+06    -13.6221E+06    -15.5595E+06    -57.1196E-03     108.950E-03    -51.8301E-03     132.541E-03    -58.2512E-03     109.950E-03    -51.8286E-03     131.108E-03
            1010     13.6712E-03     101.587E-03    -13.3149E+06     11.4622E+06    -19.6940E+06    -9.84216E+06    -58.6993E-03     110.555E-03    -51.8554E-03     154.132E-03    -60.6741E-03     112.580E-03    -51.9512E-03     152.496E-03
            1011     14.5226E-03     101.745E-03    -13.1692E+06     83.5241E+06    -413.389E+03    -4.25856E+06    -59.8987E-03     111.893E-03    -51.9947E-03     173.665E-03    -63.1007E-03     115.346E-03    -52.0988E-03     172.054E-03
            1012     15.3747E-03     101.920E-03    -10.9853E+06     137.858E+06     54.3384E+06    -1.85741E+06    -59.7756E-03     112.124E-03    -52.3483E-03     179.767E-03    -64.2177E-03     116.859E-03    -52.2606E-03     178.810E-03
            1013     16.2235E-03     102.094E-03    -5.88525E+06     154.181E+06     96.2685E+06    -784.428E+03    -56.9237E-03     109.610E-03    -52.6859E-03     111.703E-03    -60.0415E-03     112.975E-03    -52.4196E-03     111.483E-03
            1014     854.263E-06     101.611E-03    -41.8903E+06    -112.052E+06    -41.0514E+06    -3.86105E+06    -52.0051E-03     104.021E-03    -52.0155E-03     10.1680E-03    -51.9938E-03     103.582E-03    -51.9976E-03     10.0900E-03
            1015     1.70879E-03     101.625E-03    -40.2922E+06    -109.183E+06    -37.3996E+06    -7.09500E+06    -51.9348E-03     103.914E-03    -51.9790E-03     18.6292E-03    -51.9278E-03     103.485E-03    -51.9493E-03     18.4843E-03
            1016     2.56329E-03     101.646E-03    -37.9278E+06    -104.941E+06    -31.8812E+06    -9.94714E+06    -51.8169E-03     103.739E-03    -51.9222E-03     27.5237E-03    -51.8174E-03     103.325E-03    -51.8745E-03     27.3136E-03
            1017     3.41816E-03     101.675E-03    -34.8477E+06    -101.053E+06    -25.2896E+06    -12.2121E+06    -51.6874E-03     103.532E-03    -51.8450E-03     36.4472E-03    -51.6953E-03     103.131E-03    -51.7744E-03     36.1761E-03
            1018     4.27309E-03     101.713E-03    -31.3577E+06    -95.9204E+06    -19.0178E+06    -14.1913E+06    -51.5689E-03     103.314E-03    -51.7454E-03     45.3051E-03    -51.5870E-03     102.936E-03    -51.6559E-03     44.9725E-03
            1019     5.12850E-03     101.758E-03    -27.9991E+06    -91.0659E+06    -13.6128E+06    -15.4842E+06    -51.4715E-03     103.101E-03    -51.6295E-03     54.0828E-03    -51.5033E-03     102.750E-03    -51.5249E-03     53.6922E-03
            1020     5.98403E-03     101.811E-03    -25.0825E+06    -87.9196E+06    -8.85587E+06    -16.5730E+06    -51.4338E-03     102.941E-03    -51.5071E-03     62.7297E-03    -51.4837E-03     102.615E-03    -51.3875E-03     62.2769E-03
            1021     6.83985E-03     101.872E-03    -22.4100E+06    -81.3733E+06    -5.23748E+06    -17.3649E+06    -51.4770E-03     102.853E-03    -51.3756E-03     71.3208E-03    -51.5571E-03     102.579E-03    -51.2513E-03     70.8018E-03
            1022     7.69579E-03     101.940E-03    -19.7661E+06    -78.4161E+06    -1.65366E+06    -17.6132E+06    -51.6595E-03     102.919E-03    -51.2592E-03     79.7732E-03    -51.7750E-03     102.690E-03    -51.1251E-03     79.1844E-03
            1023     8.55191E-03     102.015E-03    -17.2351E+06    -74.5101E+06    -727.883E+03    -18.1812E+06    -52.0396E-03     103.189E-03    -51.1497E-03     88.1191E-03    -52.2030E-03     103.029E-03    -51.0203E-03     87.4430E-03
            1024     9.40767E-03     102.098E-03    -15.4521E+06    -68.0832E+06     91.6908E+03    -18.5468E+06    -52.6217E-03     103.691E-03    -51.0689E-03     96.7266E-03    -52.8617E-03     103.634E-03    -50.9473E-03     95.9479E-03
            1025     10.2634E-03     102.189E-03    -14.3213E+06    -68.6424E+06    -1.28874E+06    -19.1238E+06    -53.4913E-03     104.521E-03    -51.0301E-03     105.472E-03    -53.8280E-03     104.567E-03    -50.9163E-03     104.566E-03
            1026     11.1184E-03     102.288E-03    -13.4729E+06    -63.5098E+06    -7.57975E+06    -19.2946E+06    -54.5808E-03     105.593E-03    -51.0126E-03     112.978E-03    -55.0547E-03     105.816E-03    -50.9389E-03     111.926E-03
            1027     11.9730E-03     102.393E-03    -12.7565E+06    -49.1678E+06    -6.69211E+06    -18.6955E+06    -55.9060E-03     106.985E-03    -51.0789E-03     121.436E-03    -56.6170E-03     107.496E-03    -51.0226E-03     120.215E-03
            1028     12.8264E-03     102.508E-03    -11.7714E+06    -39.1360E+06    -12.8526E+06     -15.908E+06    -57.7399E-03     108.918E-03    -51.1778E-03     136.235E-03    -58.8670E-03     109.901E-03    -51.1682E-03     134.805E-03
            1029     13.6781E-03     102.642E-03    -11.5085E+06     3.16249E+06    -19.4225E+06    -9.68318E+06    -59.6739E-03     110.954E-03    -51.2799E-03     157.402E-03    -61.6425E-03     112.949E-03    -51.3650E-03     155.762E-03
            1030     14.5309E-03     102.802E-03    -11.6028E+06     79.5565E+06    -1.87712E+06    -3.83475E+06    -61.3084E-03     112.802E-03    -51.4937E-03     176.296E-03    -64.5279E-03     116.268E-03    -51.6017E-03     174.654E-03
            1031     15.3813E-03     102.979E-03    -9.73425E+06     137.912E+06     51.3045E+06    -1.62120E+06    -61.0363E-03     112.961E-03    -51.9245E-03     181.533E-03    -65.4832E-03     117.714E-03    -51.8538E-03     180.534E-03
            1032     16.2334E-03     103.155E-03    -5.87973E+06     153.208E+06     95.3944E+06    -1.09972E+06    -58.3631E-03     110.724E-03    -52.3613E-03     113.671E-03    -61.4866E-03     114.094E-03    -52.0980E-03     113.411E-03
            1033     855.143E-06     102.662E-03    -38.6798E+06    -103.122E+06    -38.0314E+06    -4.13217E+06    -51.1884E-03     102.341E-03    -51.1530E-03     10.3319E-03    -51.1783E-03     101.938E-03    -51.1375E-03     10.2525E-03
            1034     1.71012E-03     102.675E-03    -37.3766E+06    -100.496E+06    -34.7303E+06    -7.57520E+06    -51.0616E-03     102.192E-03    -51.1303E-03     18.9289E-03    -51.0563E-03     101.798E-03    -51.1040E-03     18.7820E-03
            1035     2.56554E-03     102.696E-03    -35.2372E+06    -97.5744E+06    -29.8300E+06    -10.5830E+06    -50.9032E-03     101.959E-03    -51.0560E-03     27.9970E-03    -50.9033E-03     101.574E-03    -51.0126E-03     27.7853E-03
            1036     3.42102E-03     102.725E-03    -32.4945E+06    -94.1391E+06    -24.3342E+06    -13.3072E+06    -50.7238E-03     101.677E-03    -50.9533E-03     37.1592E-03    -50.7304E-03     101.305E-03    -50.8914E-03     36.8833E-03
            1037     4.27702E-03     102.762E-03    -29.4090E+06    -90.1775E+06    -18.4391E+06    -15.4819E+06    -50.5487E-03     101.378E-03    -50.8294E-03     46.2750E-03    -50.5646E-03     101.023E-03    -50.7482E-03     45.9382E-03
            1038     5.13314E-03     102.807E-03    -26.1420E+06    -87.0609E+06    -12.7183E+06    -16.4707E+06    -50.4108E-03     101.102E-03    -50.6912E-03     55.3242E-03    -50.4378E-03     100.764E-03    -50.5906E-03     54.9369E-03
            1039     5.98972E-03     102.860E-03    -22.7872E+06    -83.2257E+06    -7.97303E+06    -17.4923E+06    -50.3405E-03     100.881E-03    -50.5408E-03     64.3329E-03    -50.3833E-03     100.571E-03    -50.4269E-03     63.8883E-03
            1040     6.84648E-03     102.920E-03    -19.6722E+06    -78.7144E+06    -4.41792E+06    -17.9916E+06    -50.3868E-03     100.774E-03    -50.3869E-03     73.3404E-03    -50.4533E-03     100.504E-03    -50.2664E-03     72.8373E-03
            1041     7.70350E-03     102.988E-03    -16.9270E+06    -75.2955E+06    -514.520E+03    -18.2706E+06    -50.6057E-03     100.857E-03    -50.2515E-03     82.2775E-03    -50.7069E-03     100.632E-03    -50.1204E-03     81.7081E-03
            1042     8.56040E-03     103.064E-03    -14.8632E+06    -72.1729E+06     1.34275E+06    -18.3320E+06    -51.0592E-03     101.194E-03    -50.1352E-03     91.1579E-03    -51.2096E-03     101.032E-03    -50.0023E-03     90.5113E-03
            1043     9.41734E-03     103.147E-03    -13.6689E+06    -65.9069E+06     2.03730E+06    -17.9456E+06    -51.8389E-03     101.892E-03    -50.0529E-03     100.321E-03    -52.0680E-03     101.832E-03    -49.9273E-03     99.5836E-03
            1044     10.2736E-03     103.239E-03    -12.8529E+06    -65.0824E+06     1.60971E+06    -18.6627E+06    -52.9810E-03     103.013E-03    -50.0320E-03     109.585E-03    -53.3125E-03     103.063E-03    -49.9110E-03     108.718E-03
            1045     11.1293E-03     103.339E-03    -12.6174E+06    -62.4976E+06    -5.83080E+06    -18.8203E+06    -54.3926E-03     104.438E-03    -50.0457E-03     117.421E-03    -54.8607E-03     104.657E-03    -49.9659E-03     116.407E-03
            1046     11.9839E-03     103.445E-03    -13.0346E+06    -47.5093E+06    -5.23964E+06    -18.3706E+06    -56.2083E-03     106.374E-03    -50.1652E-03     126.102E-03    -56.9239E-03     106.889E-03    -50.1036E-03     124.907E-03
            1047     12.8369E-03     103.562E-03    -13.8384E+06    -43.9835E+06    -12.2106E+06    -16.3780E+06    -58.6416E-03     108.995E-03    -50.3532E-03     140.793E-03    -59.7832E-03     109.967E-03    -50.3304E-03     139.360E-03
            1048     13.6891E-03     103.699E-03    -13.9556E+06    -4.40495E+06    -19.9863E+06    -10.5205E+06    -61.4186E-03     111.987E-03    -50.5685E-03     161.458E-03    -63.4176E-03     113.979E-03    -50.6418E-03     159.771E-03
            1049     14.5386E-03     103.860E-03    -12.8403E+06     76.3610E+06    -4.40161E+06    -5.19285E+06    -63.3970E-03     114.299E-03    -50.9024E-03     179.314E-03    -66.6647E-03     117.806E-03    -51.0165E-03     177.587E-03
            1050     15.3874E-03     104.039E-03    -9.45534E+06     135.968E+06     46.9141E+06    -2.43484E+06    -62.7781E-03     114.231E-03    -51.4526E-03     180.821E-03    -67.2150E-03     118.981E-03    -51.4014E-03     179.743E-03
            1051     16.2383E-03     104.208E-03    -5.09607E+06     151.914E+06     94.7430E+06    -597.389E+03    -60.1229E-03     112.149E-03    -52.0263E-03     112.545E-03    -63.2252E-03     115.498E-03    -51.7655E-03     112.234E-03
            1052     855.849E-06     103.712E-03    -35.6782E+06    -93.4756E+06    -35.3074E+06    -4.55447E+06    -50.0718E-03     100.089E-03    -50.0176E-03     10.5220E-03    -50.0645E-03     99.7262E-03    -50.0069E-03     10.4398E-03
            1053     1.71214E-03     103.724E-03    -34.3594E+06    -91.4332E+06    -32.3134E+06    -8.11431E+06    -49.8795E-03     99.8697E-03    -49.9902E-03     19.2964E-03    -49.8755E-03     99.5127E-03    -49.9693E-03     19.1478E-03
            1054     2.56836E-03     103.745E-03    -32.4033E+06    -89.4636E+06    -28.1226E+06    -11.4422E+06    -49.6856E-03     99.5763E-03    -49.8908E-03     28.6140E-03    -49.6850E-03     99.2246E-03    -49.8547E-03     28.3994E-03
            1055     3.42511E-03     103.773E-03    -29.9140E+06    -86.5781E+06    -23.0397E+06    -14.3776E+06    -49.4602E-03     99.2243E-03    -49.7642E-03     38.0315E-03    -49.4654E-03     98.8827E-03    -49.7104E-03     37.7534E-03
            1056     4.28200E-03     103.810E-03    -27.3542E+06    -84.5417E+06    -17.6359E+06    -16.2743E+06    -49.2308E-03     98.8467E-03    -49.6159E-03     47.4484E-03    -49.2436E-03     98.5132E-03    -49.5418E-03     47.1168E-03
            1057     5.13947E-03     103.854E-03    -24.6487E+06    -82.3964E+06    -12.8107E+06    -17.6807E+06    -49.0353E-03     98.4824E-03    -49.4472E-03     56.8752E-03    -49.0581E-03     98.1622E-03    -49.3560E-03     56.4920E-03
            1058     5.99716E-03     103.907E-03    -21.8292E+06    -78.8336E+06    -8.38146E+06    -18.6624E+06    -48.9286E-03     98.1956E-03    -49.2671E-03     66.3359E-03    -48.9676E-03     97.9014E-03    -49.1630E-03     65.9006E-03
            1059     6.85526E-03     103.967E-03    -19.2592E+06    -76.0926E+06    -4.60959E+06    -18.9408E+06    -48.9798E-03     98.0707E-03    -49.0909E-03     75.8393E-03    -49.0412E-03     97.8068E-03    -48.9757E-03     75.3530E-03
            1060     7.71343E-03     104.035E-03    -17.0807E+06    -72.3565E+06    -1.31938E+06    -18.8681E+06    -49.2528E-03     98.1849E-03    -48.9321E-03     85.3745E-03    -49.3496E-03     97.9678E-03    -48.8090E-03     84.8312E-03
            1061     8.57175E-03     104.111E-03    -15.3910E+06    -71.0086E+06     814.113E+03    -18.2042E+06    -49.8609E-03     98.6711E-03    -48.8102E-03     94.8672E-03    -50.0052E-03     98.5061E-03    -48.6809E-03     94.2595E-03
            1062     9.42960E-03     104.194E-03    -14.0674E+06    -63.9706E+06     1.80511E+06    -17.4882E+06    -50.9096E-03     99.6445E-03    -48.7348E-03     104.703E-03    -51.1330E-03     99.5854E-03    -48.6127E-03     104.010E-03
            1063     10.2869E-03     104.287E-03    -13.8616E+06    -62.3037E+06     2.67947E+06    -17.2499E+06    -52.4589E-03     101.209E-03    -48.7499E-03     114.427E-03    -52.7922E-03     101.264E-03    -48.6261E-03     113.615E-03
            1064     11.1430E-03     104.389E-03    -14.8063E+06    -60.8846E+06    -4.27792E+06    -17.3551E+06    -54.4604E-03     103.290E-03    -48.8296E-03     122.610E-03    -54.9396E-03     103.513E-03    -48.7412E-03     121.643E-03
            1065     11.9976E-03     104.497E-03    -15.9015E+06    -45.9892E+06    -3.52368E+06    -17.0326E+06    -56.8207E-03     105.861E-03    -49.0405E-03     131.522E-03    -57.5575E-03     106.389E-03    -48.9684E-03     130.361E-03
            1066     12.8505E-03     104.617E-03    -16.8695E+06    -46.5465E+06    -10.0755E+06    -15.3384E+06    -59.9126E-03     109.264E-03    -49.3514E-03     146.140E-03    -61.0849E-03     110.241E-03    -49.3099E-03     144.715E-03
            1067     13.7006E-03     104.756E-03    -16.9076E+06    -9.88863E+06    -19.4654E+06    -12.2692E+06    -63.3601E-03     113.061E-03    -49.7010E-03     167.055E-03    -65.4141E-03     115.077E-03    -49.7595E-03     165.305E-03
            1068     14.5487E-03     104.922E-03    -14.4143E+06     72.5800E+06    -4.37968E+06    -7.76509E+06    -65.6074E-03     115.784E-03    -50.1762E-03     184.424E-03    -68.9539E-03     119.349E-03    -50.2824E-03     182.596E-03
            1069     15.3964E-03     105.099E-03    -10.9839E+06     133.288E+06     43.8443E+06    -3.89005E+06    -65.9554E-03     116.833E-03    -50.8780E-03     185.214E-03    -70.5225E-03     121.708E-03    -50.8361E-03     183.988E-03
            1070     16.2401E-03     105.273E-03    -5.63334E+06     148.994E+06     92.2978E+06    -1.51100E+06    -63.3491E-03     114.988E-03    -51.6392E-03     115.695E-03    -66.5556E-03     118.436E-03    -51.3856E-03     115.250E-03
            1071     857.330E-06     104.758E-03    -32.1586E+06    -82.9734E+06    -32.1406E+06    -4.96583E+06    -48.5481E-03     97.0974E-03    -48.5493E-03     10.7847E-03    -48.5429E-03     96.7768E-03    -48.5431E-03     10.7005E-03
            1072     1.71452E-03     104.770E-03    -31.3975E+06    -81.7250E+06    -30.2592E+06    -8.88699E+06    -48.3558E-03     96.8385E-03    -48.4827E-03     19.7685E-03    -48.3536E-03     96.5223E-03    -48.4700E-03     19.6163E-03
            1073     2.57234E-03     104.791E-03    -29.7951E+06    -80.7492E+06    -26.9035E+06    -12.3444E+06    -48.1212E-03     96.4868E-03    -48.3656E-03     29.3562E-03    -48.1212E-03     96.1721E-03    -48.3398E-03     29.1397E-03
            1074     3.43020E-03     104.819E-03    -28.2018E+06    -79.1898E+06    -22.7713E+06    -14.9400E+06    -47.8396E-03     96.0559E-03    -48.2163E-03     39.0501E-03    -47.8458E-03     95.7466E-03    -48.1744E-03     38.7785E-03
            1075     4.28873E-03     104.855E-03    -26.3967E+06    -78.6126E+06    -18.2912E+06    -16.8939E+06    -47.5381E-03     95.5777E-03    -48.0395E-03     48.8446E-03    -47.5511E-03     95.2706E-03    -47.9787E-03     48.5232E-03
            1076     5.14751E-03     104.899E-03    -24.4085E+06    -77.1900E+06    -13.9416E+06    -18.3104E+06    -47.2863E-03     95.1258E-03    -47.8396E-03     58.7117E-03    -47.3096E-03     94.8287E-03    -47.7619E-03     58.3434E-03
            1077     6.00690E-03     104.950E-03    -22.7684E+06    -75.0527E+06    -10.0831E+06    -18.9467E+06    -47.1585E-03     94.7887E-03    -47.6302E-03     68.6895E-03    -47.1992E-03     94.5111E-03    -47.5388E-03     68.2788E-03
            1078     6.86646E-03     105.010E-03    -21.2176E+06    -72.7659E+06    -6.70319E+06    -19.3779E+06    -47.2378E-03     94.6669E-03    -47.4291E-03     78.7793E-03    -47.3029E-03     94.4175E-03    -47.3263E-03     78.3209E-03
            1079     7.72636E-03     105.078E-03    -19.6935E+06    -70.6094E+06    -3.92764E+06    -18.9932E+06    -47.6421E-03     94.8985E-03    -47.2564E-03     88.9440E-03    -47.7407E-03     94.6877E-03    -47.1451E-03     88.4372E-03
            1080     8.58599E-03     105.154E-03    -18.2083E+06    -69.4253E+06    -1.23529E+06    -18.3444E+06    -48.5351E-03     95.6777E-03    -47.1426E-03     99.1091E-03    -48.6815E-03     95.5163E-03    -47.0217E-03     98.5404E-03
            1081     9.44518E-03     105.239E-03    -17.3865E+06    -63.8284E+06     449.411E+03    -16.7137E+06    -49.9865E-03     97.0904E-03    -47.1039E-03     109.522E-03    -50.2133E-03     97.0274E-03    -46.9838E-03     108.880E-03
            1082     10.3033E-03     105.334E-03    -17.3407E+06    -60.3807E+06     2.76683E+06    -15.3622E+06    -52.0711E-03     99.2547E-03    -47.1835E-03     119.771E-03    -52.4155E-03     99.3151E-03    -47.0570E-03     119.020E-03
            1083     11.1597E-03     105.437E-03    -17.4241E+06    -58.5543E+06    -1.50570E+06    -15.7082E+06    -54.7254E-03     102.092E-03    -47.3666E-03     128.437E-03    -55.2222E-03     102.324E-03    -47.2640E-03     127.517E-03
            1084     12.0139E-03     105.549E-03    -17.6886E+06    -45.5752E+06    -712.585E+03    -14.9660E+06    -57.7641E-03     105.466E-03    -47.7017E-03     137.556E-03    -58.5221E-03     106.001E-03    -47.6135E-03     136.432E-03
            1085     12.8659E-03     105.671E-03    -17.0363E+06    -46.0854E+06    -6.52906E+06    -15.0712E+06    -61.5132E-03     109.673E-03    -48.1598E-03     152.581E-03    -62.7186E-03     110.674E-03    -48.1009E-03     151.145E-03
            1086     13.7152E-03     105.816E-03    -15.6905E+06    -12.5022E+06    -15.8704E+06    -13.6446E+06    -65.2693E-03     113.936E-03    -48.6667E-03     172.995E-03    -67.3701E-03     115.983E-03    -48.7052E-03     171.188E-03
            1087     14.5636E-03     105.983E-03    -14.7769E+06     67.6275E+06    -1.04826E+06    -9.48633E+06    -68.0741E-03     117.384E-03    -49.3103E-03     188.734E-03    -71.4931E-03     120.994E-03    -49.3922E-03     186.800E-03
            1088     15.4086E-03     106.165E-03    -10.9813E+06     129.453E+06     46.3916E+06    -5.68009E+06    -68.8693E-03     119.056E-03    -50.1868E-03     187.712E-03    -73.5006E-03     123.974E-03    -50.1266E-03     186.336E-03
            1089     16.2549E-03     106.338E-03    -5.83335E+06     146.731E+06     91.9143E+06    -2.57696E+06    -68.1663E-03     119.328E-03    -51.1613E-03     116.778E-03    -71.4086E-03     122.804E-03    -50.9060E-03     116.150E-03
            1090     858.761E-06     105.801E-03    -29.7131E+06    -71.8927E+06    -30.0836E+06    -5.27501E+06    -46.6140E-03     93.2663E-03    -46.6523E-03     11.0147E-03    -46.6156E-03     92.9944E-03    -46.6554E-03     10.9303E-03
            1091     1.71799E-03     105.813E-03    -29.3127E+06    -71.0925E+06    -28.8449E+06    -9.43155E+06    -46.4285E-03     92.9891E-03    -46.5606E-03     20.2592E-03    -46.4330E-03     92.7204E-03    -46.5592E-03     20.1071E-03
            1092     2.57710E-03     105.833E-03    -28.3636E+06    -71.9570E+06    -26.9008E+06    -13.0238E+06    -46.1522E-03     92.5812E-03    -46.4290E-03     30.1565E-03    -46.1567E-03     92.3072E-03    -46.4180E-03     29.9423E-03
            1093     3.43695E-03     105.860E-03    -27.4379E+06    -72.2967E+06    -23.9934E+06    -15.1965E+06    -45.7999E-03     92.0559E-03    -46.2561E-03     40.1899E-03    -45.8084E-03     91.7796E-03    -46.2314E-03     39.9303E-03
            1094     4.29704E-03     105.896E-03    -26.5334E+06    -72.2739E+06    -20.1029E+06    -16.9915E+06    -45.4370E-03     91.4875E-03    -46.0506E-03     50.3718E-03    -45.4539E-03     91.2116E-03    -46.0078E-03     50.0693E-03
            1095     5.15789E-03     105.939E-03    -25.7653E+06    -72.7988E+06    -16.5063E+06    -17.8981E+06    -45.1450E-03     90.9674E-03    -45.8224E-03     60.7218E-03    -45.1728E-03     90.6928E-03    -45.7620E-03     60.3843E-03
            1096     6.01898E-03     105.990E-03    -25.4043E+06    -71.5037E+06    -13.6190E+06    -17.9660E+06    -45.0300E-03     90.6158E-03    -45.5858E-03     71.2655E-03    -45.0768E-03     90.3577E-03    -45.5134E-03     70.8985E-03
            1097     6.88061E-03     106.049E-03    -26.0635E+06    -69.8273E+06    -10.8114E+06    -17.6928E+06    -45.2344E-03     90.6068E-03    -45.3723E-03     81.9649E-03    -45.3127E-03     90.3756E-03    -45.2874E-03     81.5640E-03
            1098     7.74210E-03     106.118E-03    -27.2284E+06    -68.4691E+06    -8.01987E+06    -17.5908E+06    -45.9147E-03     91.1279E-03    -45.2132E-03     92.7609E-03    -46.0371E-03     90.9334E-03    -45.1145E-03     92.3112E-03
            1099     8.60337E-03     106.194E-03    -27.8878E+06    -67.2924E+06    -5.23351E+06    -17.6548E+06    -47.2054E-03     92.3449E-03    -45.1394E-03     103.606E-03    -47.3854E-03     92.2019E-03    -45.0276E-03     103.087E-03
            1100     9.46354E-03     106.281E-03    -27.2904E+06     -65.005E+06    -3.37861E+06    -16.3928E+06    -49.1942E-03     94.3681E-03    -45.1739E-03     114.619E-03    -49.4519E-03     94.3079E-03    -45.0570E-03     114.020E-03
            1101     10.3223E-03     106.377E-03    -25.0617E+06    -58.0603E+06     388.187E+03    -15.7737E+06    -51.8670E-03     97.2165E-03    -45.3495E-03     125.546E-03    -52.2418E-03     97.2952E-03    -45.2270E-03     124.823E-03
            1102     11.1789E-03     106.485E-03    -22.5349E+06    -57.2776E+06    -1.37223E+06    -15.8812E+06    -55.1524E-03     100.818E-03    -45.6657E-03     134.701E-03    -55.6751E-03     101.062E-03    -45.5568E-03     133.803E-03
            1103     12.0331E-03     106.599E-03    -19.9674E+06    -45.0680E+06     332.367E+03    -15.1462E+06    -59.0016E-03     105.155E-03    -46.1532E-03     144.190E-03    -59.7860E-03     105.708E-03    -46.0572E-03     143.066E-03
            1104     12.8840E-03     106.727E-03    -17.9529E+06    -43.3463E+06    -3.99790E+06    -15.8591E+06    -63.3483E-03     110.136E-03    -46.7873E-03     159.047E-03    -64.5957E-03     111.177E-03    -46.7184E-03     157.580E-03
            1105     13.7323E-03     106.875E-03    -16.0741E+06    -13.9274E+06    -12.0826E+06    -15.8259E+06    -68.1001E-03     115.606E-03    -47.5055E-03     178.652E-03    -70.2734E-03     117.708E-03    -47.5224E-03     176.735E-03
            1106     14.5764E-03     107.047E-03    -12.1854E+06     62.9000E+06     4.57252E+06    -11.9544E+06    -71.8749E-03     120.272E-03    -48.3968E-03     192.190E-03    -75.3845E-03     123.949E-03    -48.4474E-03     190.064E-03
            1107     15.4188E-03     107.232E-03    -8.56788E+06     123.722E+06     50.7539E+06    -6.72008E+06    -73.3600E-03     122.899E-03    -49.5386E-03     187.592E-03    -78.0399E-03     127.841E-03    -49.4518E-03     185.956E-03
            1108     16.2580E-03     107.405E-03    -4.98600E+06     143.715E+06     92.4896E+06    -2.41969E+06    -73.2317E-03     124.007E-03    -50.7755E-03     116.870E-03    -76.4958E-03     127.496E-03    -50.5142E-03     116.010E-03
            1109     860.946E-06     106.839E-03    -25.7834E+06    -60.6899E+06    -26.2288E+06    -5.26556E+06    -44.3027E-03     88.6013E-03    -44.2986E-03     11.2230E-03    -44.3064E-03     88.3739E-03    -44.3044E-03     11.1429E-03
            1110     1.72179E-03     106.851E-03    -26.2649E+06    -60.3453E+06    -26.7613E+06    -9.20925E+06    -44.0526E-03     88.2646E-03    -44.2120E-03     20.7656E-03    -44.0600E-03     88.0416E-03    -44.2202E-03     20.6241E-03
            1111     2.58333E-03     106.870E-03    -27.2849E+06    -63.0742E+06    -26.6307E+06    -12.7949E+06    -43.7254E-03     87.7826E-03    -44.0572E-03     30.9312E-03    -43.7366E-03     87.5498E-03    -44.0594E-03     30.7317E-03
            1112     3.44502E-03     106.897E-03    -27.8905E+06    -65.9166E+06    -26.3199E+06    -14.9672E+06    -43.3224E-03     87.1765E-03    -43.8541E-03     41.3263E-03    -43.3369E-03     86.9337E-03    -43.8497E-03     41.0859E-03
            1113     4.30751E-03     106.932E-03    -28.7981E+06    -67.2944E+06    -25.0677E+06    -15.4393E+06    -42.9223E-03     86.5383E-03    -43.6160E-03     51.9179E-03    -42.9469E-03     86.2938E-03    -43.6020E-03     51.6566E-03
            1114     5.17030E-03     106.974E-03    -30.9093E+06    -69.2530E+06    -22.6420E+06    -15.3275E+06    -42.6459E-03     86.0148E-03    -43.3689E-03     62.7624E-03    -42.6900E-03     85.7685E-03    -43.3369E-03     62.4844E-03
            1115     6.03384E-03     107.025E-03    -33.5045E+06    -68.8776E+06    -19.9623E+06    -14.8304E+06    -42.6554E-03     85.7868E-03    -43.1313E-03     73.8474E-03    -42.7296E-03     85.5549E-03    -43.0827E-03     73.5518E-03
            1116     6.89734E-03     107.085E-03    -35.3961E+06    -67.5917E+06    -16.0581E+06    -14.2993E+06    -43.1412E-03     86.0851E-03    -42.9439E-03     85.1354E-03    -43.2519E-03     85.8763E-03    -42.8749E-03     84.8129E-03
            1117     7.76077E-03     107.153E-03    -36.2113E+06    -65.3537E+06    -11.4936E+06    -14.5677E+06    -44.2444E-03     87.0852E-03    -42.8408E-03     96.5517E-03    -44.3999E-03     86.9131E-03    -42.7510E-03     96.1774E-03
            1118     8.62323E-03     107.231E-03    -36.6247E+06    -65.0609E+06    -8.28281E+06    -15.0114E+06    -46.0332E-03     88.8832E-03    -42.8499E-03     108.026E-03    -46.2440E-03     88.7567E-03    -42.7439E-03     107.577E-03
            1119     9.48452E-03     107.320E-03    -35.7874E+06    -62.8200E+06    -6.56773E+06    -16.5210E+06    -48.5752E-03     91.5655E-03    -42.9903E-03     119.792E-03    -48.8634E-03     91.5227E-03    -42.8802E-03     119.226E-03
            1120     10.3437E-03     107.420E-03    -32.6504E+06    -55.3880E+06    -3.04295E+06    -18.2385E+06    -51.8627E-03     95.1562E-03    -43.2935E-03     131.425E-03    -52.2677E-03     95.2576E-03    -43.1810E-03     130.699E-03
            1121     11.2005E-03     107.530E-03    -28.2200E+06    -56.7137E+06    -3.14533E+06    -18.5642E+06    -55.9051E-03     99.6796E-03    -43.7745E-03     141.151E-03    -56.4562E-03     99.9386E-03    -43.6671E-03     140.234E-03
            1122     12.0538E-03     107.650E-03    -24.0293E+06    -44.1803E+06    -699.591E+03    -18.0976E+06    -60.4406E-03     104.883E-03    -44.4425E-03     150.929E-03    -61.2607E-03     105.464E-03    -44.3471E-03     149.764E-03
            1123     12.9037E-03     107.783E-03    -19.9510E+06    -40.7147E+06    -2.55543E+06    -18.4165E+06    -65.7306E-03     111.019E-03    -45.2887E-03     165.682E-03    -67.0344E-03     112.116E-03    -45.2135E-03     164.138E-03
            1124     13.7497E-03     107.936E-03    -16.4345E+06    -13.1593E+06    -8.44618E+06    -18.7138E+06    -71.6319E-03     117.890E-03    -46.2577E-03     185.584E-03    -73.9051E-03     120.083E-03    -46.2571E-03     183.514E-03
            1125     14.5912E-03     108.116E-03    -14.1502E+06     57.1491E+06     6.76690E+06    -15.0723E+06    -76.4776E-03     123.906E-03    -47.4287E-03     198.178E-03    -80.1306E-03     127.693E-03    -47.4572E-03     195.800E-03
            1126     15.4287E-03     108.301E-03    -10.8613E+06     116.343E+06     49.2619E+06    -7.72427E+06    -79.3594E-03     128.231E-03    -48.8714E-03     193.123E-03    -84.2503E-03     133.354E-03    -48.7781E-03     191.132E-03
            1127     16.2621E-03     108.484E-03    -5.57620E+06     139.639E+06     89.5485E+06    -2.58253E+06    -78.7130E-03     129.121E-03    -50.4083E-03     121.404E-03    -82.1263E-03     132.751E-03    -50.1550E-03     120.261E-03
            1128     863.130E-06     107.873E-03    -24.5625E+06    -50.0902E+06    -24.9424E+06    -4.68976E+06    -41.5117E-03     83.0167E-03    -41.5051E-03     11.4075E-03    -41.5264E-03     82.8384E-03    -41.5215E-03     11.3390E-03
            1129     1.72678E-03     107.884E-03    -26.3018E+06    -51.0466E+06    -27.2887E+06    -7.86850E+06    -41.2173E-03     82.6236E-03    -41.4063E-03     21.2323E-03    -41.2371E-03     82.4471E-03    -41.4305E-03     21.1155E-03
            1130     2.59044E-03     107.903E-03    -29.1034E+06    -55.0311E+06    -29.5119E+06    -10.4227E+06    -40.8540E-03     82.0813E-03    -41.2273E-03     31.6492E-03    -40.8806E-03     81.8941E-03    -41.2529E-03     31.4919E-03
            1131     3.45488E-03     107.929E-03    -32.7381E+06    -60.1730E+06    -32.1426E+06    -12.2280E+06    -40.4311E-03     81.4334E-03    -41.0023E-03     42.3469E-03    -40.4673E-03     81.2322E-03    -41.0282E-03     42.1577E-03
            1132     4.31967E-03     107.963E-03    -36.5496E+06    -64.8422E+06    -33.6149E+06    -12.0574E+06    -40.0711E-03     80.8232E-03    -40.7521E-03     53.3210E-03    -40.1216E-03     80.6106E-03    -40.7732E-03     53.1238E-03
            1133     5.18525E-03     108.005E-03    -39.9134E+06    -67.2269E+06    -30.4340E+06    -10.5891E+06    -39.9585E-03     80.4800E-03    -40.5216E-03     64.5897E-03    -40.0335E-03     80.2623E-03    -40.5184E-03     64.3974E-03
            1134     6.05079E-03     108.055E-03    -42.7308E+06    -67.1193E+06    -24.6787E+06    -9.78414E+06    -40.2698E-03     80.6079E-03    -40.3381E-03     76.1581E-03    -40.3781E-03     80.3972E-03    -40.3022E-03     75.9555E-03
            1135     6.91646E-03     108.115E-03    -44.2468E+06    -64.4444E+06    -19.1326E+06    -10.5188E+06    -41.1589E-03     81.3841E-03    -40.2252E-03     88.0191E-03    -41.3046E-03     81.1990E-03    -40.1633E-03     87.7757E-03
            1136     7.78129E-03     108.184E-03    -44.1431E+06    -62.2216E+06    -14.4543E+06    -11.9469E+06    -42.7377E-03     82.9562E-03    -40.2185E-03     100.081E-03    -42.9225E-03     82.8049E-03    -40.1365E-03     99.7721E-03
            1137     8.64511E-03     108.265E-03    -42.0631E+06    -61.8069E+06    -10.2667E+06    -13.6237E+06    -45.0646E-03     85.4150E-03    -40.3504E-03     112.241E-03    -45.2935E-03     85.3047E-03    -40.2511E-03     111.842E-03
            1138     9.50704E-03     108.356E-03    -38.6953E+06    -56.5128E+06    -6.52266E+06    -16.9446E+06    -48.1639E-03     88.7986E-03    -40.6347E-03     124.771E-03    -48.4664E-03     88.7820E-03    -40.5292E-03     124.228E-03
            1139     10.3668E-03     108.459E-03    -34.8772E+06    -51.4491E+06    -3.44642E+06    -20.5368E+06    -52.1138E-03     93.2128E-03    -41.0989E-03     137.161E-03    -52.5303E-03     93.3331E-03    -40.9910E-03     136.428E-03
            1140     11.2233E-03     108.575E-03    -30.5163E+06    -55.4361E+06    -3.66592E+06    -22.0908E+06    -56.8480E-03     98.6113E-03    -41.7633E-03     147.773E-03    -57.4161E-03     98.8854E-03    -41.6570E-03     146.822E-03
            1141     12.0758E-03     108.701E-03    -25.3375E+06    -42.9715E+06    -1.01186E+06    -22.2035E+06    -62.1259E-03     104.755E-03    -42.6292E-03     158.022E-03    -62.9723E-03     105.363E-03    -42.5352E-03     156.794E-03
            1142     12.9248E-03     108.839E-03    -20.5351E+06    -38.6637E+06    -1.21355E+06    -22.3093E+06    -68.3507E-03     112.052E-03    -43.7012E-03     173.597E-03    -69.7129E-03     113.208E-03    -43.6214E-03     171.950E-03
            1143     13.7678E-03     109.001E-03    -17.2902E+06    -12.3810E+06    -5.35232E+06    -21.5745E+06    -75.2143E-03     120.139E-03    -44.9245E-03     193.951E-03    -77.5968E-03     122.433E-03    -44.9082E-03     191.721E-03
            1144     14.6075E-03     109.185E-03    -14.1696E+06     49.6215E+06     8.42493E+06    -16.1038E+06    -80.8839E-03     127.247E-03    -46.3627E-03     205.946E-03    -84.6865E-03     131.152E-03    -46.3720E-03     203.337E-03
            1145     15.4412E-03     109.382E-03    -11.0826E+06     108.660E+06     47.9512E+06    -8.72513E+06    -84.2891E-03     132.354E-03    -48.0644E-03     201.051E-03    -89.3883E-03     137.661E-03    -47.9662E-03     198.747E-03
            1146     16.2721E-03     109.564E-03    -6.21911E+06     135.619E+06     86.9962E+06    -4.26621E+06    -85.7802E-03     135.691E-03    -49.9105E-03     127.623E-03    -89.3329E-03     139.452E-03    -49.6632E-03     126.130E-03
            1147     866.138E-06     108.900E-03    -29.4754E+06    -40.9532E+06    -29.8853E+06    -4.11687E+06    -38.2459E-03     76.5155E-03    -38.2696E-03     11.5726E-03    -38.2912E-03     76.3969E-03    -38.3169E-03     11.5151E-03
            1148     1.73222E-03     108.911E-03    -31.2254E+06    -44.3857E+06    -32.8351E+06    -5.95132E+06    -37.9664E-03     76.1221E-03    -38.1557E-03     21.5400E-03    -38.0119E-03     75.9934E-03    -38.2102E-03     21.4549E-03
            1149     2.59903E-03     108.929E-03    -34.9569E+06    -50.3060E+06    -36.7044E+06    -6.29998E+06    -37.6093E-03     75.5817E-03    -37.9723E-03     32.1555E-03    -37.6603E-03     75.4354E-03    -38.0322E-03     32.0618E-03
            1150     3.46603E-03     108.954E-03    -40.4868E+06    -56.4278E+06    -39.0880E+06    -6.22919E+06    -37.2684E-03     75.0313E-03    -37.7629E-03     43.0832E-03    -37.3363E-03     74.8676E-03    -37.8178E-03     42.9855E-03
            1151     4.33377E-03     108.987E-03    -46.2770E+06    -63.6643E+06    -38.6084E+06    -5.94573E+06    -37.1230E-03     74.6878E-03    -37.5648E-03     54.3672E-03    -37.2128E-03     74.4985E-03    -37.5984E-03     54.2662E-03
            1152     5.20150E-03     109.029E-03    -50.2447E+06    -66.5481E+06    -34.9357E+06    -5.35023E+06    -37.3316E-03     74.7370E-03    -37.4054E-03     66.0003E-03    -37.4473E-03     74.5388E-03    -37.4108E-03     65.8958E-03
            1153     6.06948E-03     109.080E-03    -51.1274E+06    -64.8216E+06    -28.3979E+06    -5.77974E+06    -38.0458E-03     75.3628E-03    -37.3170E-03     78.0312E-03    -38.1871E-03     75.1743E-03    -37.2909E-03     77.9030E-03
            1154     6.93668E-03     109.140E-03    -50.0591E+06    -60.5586E+06    -21.4117E+06    -7.50744E+06    -39.3787E-03     76.7038E-03    -37.3251E-03     90.4766E-03    -39.5474E-03     76.5415E-03    -37.2718E-03     90.2969E-03
            1155     7.80314E-03     109.212E-03    -48.2933E+06    -58.1564E+06    -16.0595E+06    -9.99081E+06    -41.4262E-03     78.8828E-03    -37.4566E-03     103.229E-03    -41.6256E-03     78.7506E-03    -37.3826E-03     102.973E-03
            1156     8.66789E-03     109.294E-03    -45.3906E+06    -55.6091E+06    -11.1551E+06    -14.2407E+06    -44.2473E-03     81.9863E-03    -37.7390E-03     116.197E-03    -44.4906E-03     81.9033E-03    -37.6483E-03     115.817E-03
            1157     9.53059E-03     109.389E-03    -40.7185E+06    -49.3588E+06    -6.26537E+06    -19.0778E+06    -47.9072E-03     86.0966E-03    -38.1894E-03     129.628E-03    -48.2221E-03     86.1100E-03    -38.0901E-03     129.083E-03
            1158     10.3904E-03     109.497E-03    -35.9528E+06    -46.3653E+06    -3.03050E+06    -22.4084E+06    -52.4676E-03     91.2993E-03    -38.8317E-03     143.085E-03    -52.8935E-03     91.4421E-03    -38.7275E-03     142.348E-03
            1159     11.2466E-03     109.618E-03    -31.3842E+06    -50.8639E+06    -3.24152E+06    -25.7772E+06    -57.7803E-03     97.4616E-03    -39.6813E-03     154.665E-03    -58.3640E-03     97.7632E-03    -39.5782E-03     153.677E-03
            1160     12.0991E-03     109.750E-03    -25.9876E+06    -41.8644E+06    -1.48512E+06    -27.1591E+06    -63.8305E-03     104.575E-03    -40.7442E-03     165.947E-03    -64.7014E-03     105.210E-03    -40.6532E-03     164.645E-03
            1161     12.9456E-03     109.897E-03    -20.3176E+06    -37.4731E+06    -26.1174E+03    -26.7034E+06    -70.9236E-03     112.962E-03    -42.0379E-03     182.430E-03    -72.3419E-03     114.176E-03    -41.9543E-03     180.673E-03
            1162     13.7890E-03     110.065E-03    -15.2252E+06    -12.8597E+06    -1.05404E+06    -24.5745E+06    -78.8353E-03     122.349E-03    -43.5135E-03     203.404E-03    -81.3165E-03     124.735E-03    -43.4780E-03     201.007E-03
            1163     14.6238E-03     110.262E-03    -11.5597E+06     39.0600E+06     10.4633E+06    -17.8488E+06    -85.4379E-03     130.656E-03    -45.2181E-03     214.101E-03    -89.3756E-03     134.663E-03    -45.2056E-03     211.234E-03
            1164     15.4566E-03     110.460E-03    -7.78947E+06     100.991E+06     48.0987E+06    -9.28649E+06    -90.0475E-03     137.255E-03    -47.2073E-03     206.518E-03    -95.2874E-03     142.688E-03    -47.1019E-03     203.813E-03
            1165     16.2834E-03     110.655E-03    -4.87075E+06     132.112E+06     86.0383E+06    -3.94085E+06    -93.6468E-03     143.059E-03    -49.4121E-03     132.385E-03    -97.2869E-03     146.903E-03    -49.1664E-03     130.476E-03
            1166     869.077E-06     109.920E-03    -35.3406E+06    -34.1699E+06    -36.3809E+06    -2.92393E+06    -34.6699E-03     69.3436E-03    -34.6738E-03     11.5787E-03    -34.7448E-03     69.2765E-03    -34.7549E-03     11.5394E-03
            1167     1.73863E-03     109.931E-03    -39.7830E+06    -41.8421E+06    -41.7175E+06    -2.48271E+06    -34.4252E-03     69.0014E-03    -34.5762E-03     21.5602E-03    -34.5038E-03     68.9101E-03    -34.6664E-03     21.5254E-03
            1168     2.60819E-03     109.948E-03    -45.9362E+06    -50.4318E+06    -46.0116E+06    -365.997E+03    -34.1701E-03     68.5978E-03    -34.4277E-03     32.2657E-03    -34.2611E-03     68.4791E-03    -34.5180E-03     32.2568E-03
            1169     3.47843E-03     109.973E-03    -52.2693E+06    -56.1589E+06    -46.4829E+06     1.52707E+06    -34.0688E-03     68.3552E-03    -34.2864E-03     43.3594E-03    -34.1832E-03     68.2185E-03    -34.3616E-03     43.3727E-03
            1170     4.34856E-03     110.006E-03    -56.7589E+06    -62.1861E+06    -42.4097E+06     1.14165E+06    -34.2904E-03     68.4877E-03    -34.1973E-03     54.9147E-03    -34.4260E-03     68.3233E-03    -34.2369E-03     54.9183E-03
            1171     5.21883E-03     110.047E-03    -57.9219E+06    -64.5636E+06    -37.0235E+06    -1.02344E+06    -34.9288E-03     69.0973E-03    -34.1684E-03     66.9219E-03    -35.0784E-03     68.9187E-03    -34.1759E-03     66.8885E-03
            1172     6.08840E-03     110.099E-03    -56.5666E+06    -61.2576E+06    -31.1578E+06    -3.79207E+06    -36.0583E-03     70.2758E-03    -34.2175E-03     79.4271E-03    -36.2221E-03     70.1112E-03    -34.2025E-03     79.3419E-03
            1173     6.95746E-03     110.161E-03    -53.4517E+06    -56.4369E+06    -23.6984E+06    -6.72456E+06    -37.7988E-03     72.1786E-03    -34.3799E-03     92.4632E-03    -37.9797E-03     72.0379E-03    -34.3390E-03     92.3135E-03
            1174     7.82501E-03     110.234E-03    -48.4916E+06    -52.4536E+06    -16.0001E+06    -10.4650E+06    -40.2639E-03     74.9401E-03    -34.6762E-03     105.970E-03    -40.4641E-03     74.8281E-03    -34.6098E-03     105.729E-03
            1175     8.69081E-03     110.320E-03    -42.5556E+06    -46.8515E+06    -9.23865E+06    -15.8810E+06    -43.5153E-03     78.6366E-03    -35.1213E-03     119.840E-03    -43.7504E-03     78.5811E-03    -35.0379E-03     119.463E-03
            1176     9.55413E-03     110.419E-03    -37.7716E+06    -42.7574E+06    -4.53779E+06    -20.6530E+06    -47.6543E-03     83.3927E-03    -35.7385E-03     134.346E-03    -47.9577E-03     83.4236E-03    -35.6444E-03     133.805E-03
            1177     10.4143E-03     110.533E-03    -33.8726E+06    -40.7508E+06    -1.40098E+06    -23.8899E+06    -52.7054E-03     89.2558E-03    -36.5504E-03     148.999E-03    -53.1255E-03     89.4155E-03    -36.4492E-03     148.265E-03
            1178     11.2708E-03     110.660E-03    -30.2366E+06    -43.1282E+06    -591.725E+03    -28.1273E+06    -58.6333E-03     96.2101E-03    -37.5768E-03     161.824E-03    -59.2283E-03     96.5471E-03    -37.4734E-03     160.818E-03
            1179     12.1220E-03     110.799E-03    -26.4291E+06    -39.0364E+06    -515.784E+03    -31.5573E+06    -65.4231E-03     104.250E-03    -38.8267E-03     174.256E-03    -66.3197E-03     104.917E-03    -38.7344E-03     172.890E-03
            1180     12.9694E-03     110.954E-03    -20.8565E+06    -36.1033E+06     1.30034E+06    -32.5709E+06    -73.6015E-03     113.936E-03    -40.3341E-03     191.791E-03    -75.0790E-03     115.209E-03    -40.2450E-03     189.901E-03
            1181     13.8080E-03     111.133E-03    -15.4217E+06    -17.5792E+06     2.42819E+06    -29.0879E+06    -82.3983E-03     124.461E-03    -42.0624E-03     213.061E-03    -84.9705E-03     126.911E-03    -42.0024E-03     210.481E-03
            1182     14.6436E-03     111.338E-03    -11.5622E+06     26.6642E+06     11.4767E+06    -19.8746E+06    -90.5487E-03     134.584E-03    -44.0355E-03     223.615E-03    -94.6450E-03     138.703E-03    -44.0000E-03     220.427E-03
            1183     15.4682E-03     111.547E-03    -9.18200E+06     93.3920E+06     43.9644E+06    -10.5210E+06    -98.0017E-03     144.355E-03    -46.3534E-03     215.769E-03    -103.532E-03     150.060E-03    -46.2557E-03     212.450E-03
            1184     16.2849E-03     111.750E-03    -5.38624E+06     126.624E+06     82.8140E+06    -4.01950E+06    -101.559E-03     150.525E-03    -48.9664E-03     140.557E-03    -105.423E-03     154.582E-03    -48.7281E-03     138.117E-03
            1185     872.564E-06     110.933E-03    -49.6768E+06    -34.9101E+06    -47.3772E+06     3.44275E+06    -30.9037E-03     61.8118E-03    -30.9080E-03     11.4244E-03    -31.0332E-03     61.7776E-03    -31.0223E-03     11.4694E-03
            1186     1.74500E-03     110.943E-03    -57.6766E+06    -44.4609E+06    -53.9452E+06     5.55317E+06    -30.8232E-03     61.6847E-03    -30.8614E-03     21.2677E-03    -30.9693E-03     61.6235E-03    -30.9831E-03     21.3404E-03
            1187     2.61799E-03     110.960E-03    -63.4109E+06    -53.3000E+06    -56.5451E+06     6.59702E+06    -30.8333E-03     61.6467E-03    -30.8134E-03     31.9384E-03    -30.9912E-03     61.5534E-03    -30.9269E-03     32.0249E-03
            1188     3.49070E-03     110.984E-03    -64.9130E+06    -57.9378E+06    -53.4375E+06     6.84074E+06    -31.0943E-03     61.8979E-03    -30.8036E-03     43.1398E-03    -31.2576E-03     61.7792E-03    -30.8926E-03     43.2288E-03
            1189     4.36350E-03     111.018E-03    -63.5036E+06    -59.6709E+06    -46.8664E+06     4.90375E+06    -31.7190E-03     62.5763E-03    -30.8573E-03     54.9017E-03    -31.8831E-03     62.4384E-03    -30.9131E-03     54.9626E-03
            1190     5.23557E-03     111.060E-03    -60.4724E+06    -59.9054E+06    -39.1437E+06     396.294E+03    -32.7625E-03     63.7527E-03    -30.9903E-03     67.2553E-03    -32.9250E-03     63.6009E-03    -31.0114E-03     67.2508E-03
            1191     6.10713E-03     111.113E-03    -55.6784E+06    -56.4470E+06    -30.8609E+06    -4.18765E+06    -34.2881E-03     65.5003E-03    -31.2122E-03     80.2524E-03    -34.4502E-03     65.3535E-03    -31.2039E-03     80.1749E-03
            1192     6.97735E-03     111.177E-03    -49.8482E+06    -51.4534E+06    -22.5435E+06    -8.14421E+06    -36.3915E-03     67.9322E-03    -31.5407E-03     93.9280E-03    -36.5571E-03     67.8033E-03    -31.5065E-03     93.7755E-03
            1193     7.84624E-03     111.253E-03    -43.8239E+06    -44.8766E+06    -14.6329E+06    -13.0889E+06    -39.1662E-03     71.1590E-03    -31.9927E-03     108.240E-03    -39.3479E-03     71.0681E-03    -31.9373E-03     107.985E-03
            1194     8.71298E-03     111.343E-03    -38.4870E+06    -38.7261E+06    -7.81234E+06    -18.1556E+06    -42.7438E-03     75.3343E-03    -32.5905E-03     123.115E-03    -42.9626E-03     75.3017E-03    -32.5176E-03     122.731E-03
            1195     9.57703E-03     111.446E-03    -33.9382E+06    -36.9776E+06    -2.58810E+06    -21.5844E+06    -47.2694E-03     80.6309E-03    -33.3615E-03     138.780E-03    -47.5542E-03     80.6717E-03    -33.2716E-03     138.252E-03
            1196     10.4378E-03     111.565E-03    -29.8169E+06    -33.7331E+06     1.75523E+06    -25.0784E+06    -52.8044E-03     87.1297E-03    -34.3253E-03     154.685E-03    -53.2099E-03     87.3050E-03    -34.2244E-03     153.960E-03
            1197     11.2942E-03     111.700E-03    -25.3957E+06    -35.0344E+06     3.98121E+06    -29.6840E+06    -59.3287E-03     94.8393E-03    -35.5106E-03     168.834E-03    -59.9146E-03     95.2000E-03    -35.4030E-03     167.826E-03
            1198     12.1462E-03     111.847E-03    -21.5083E+06    -33.7108E+06     3.88084E+06    -33.0667E+06    -67.0011E-03     103.936E-03    -36.9351E-03     182.587E-03    -67.8996E-03     104.629E-03    -36.8356E-03     181.197E-03
            1199     12.9904E-03     112.011E-03    -20.3950E+06    -33.0281E+06     3.99557E+06    -34.5315E+06    -76.0993E-03     114.737E-03    -38.6372E-03     201.748E-03    -77.6245E-03     116.062E-03    -38.5397E-03     199.787E-03
            1200     13.8302E-03     112.202E-03    -18.4009E+06    -22.2477E+06     3.99034E+06    -33.3838E+06    -86.1441E-03     126.743E-03    -40.5986E-03     223.523E-03    -88.8115E-03     129.257E-03    -40.5197E-03     220.750E-03
            1201     14.6604E-03     112.416E-03    -13.0367E+06     10.4648E+06     9.96143E+06    -24.2124E+06    -96.3677E-03     139.219E-03    -42.8514E-03     235.040E-03    -100.655E-03     143.471E-03    -42.7979E-03     231.432E-03
            1202     15.4842E-03     112.643E-03    -7.50594E+06     82.9089E+06     38.4552E+06    -10.7465E+06    -105.154E-03     150.629E-03    -45.4745E-03     227.806E-03    -110.994E-03     156.628E-03    -45.3915E-03     223.892E-03
            1203     16.2967E-03     112.858E-03    -4.01153E+06     122.394E+06     79.4494E+06    -3.71583E+06    -109.563E-03     158.026E-03    -48.4634E-03     150.050E-03    -113.655E-03     162.311E-03    -48.2378E-03     147.080E-03
            1204     875.760E-06     111.938E-03    -80.7040E+06    -47.3530E+06    -77.0520E+06     9.47774E+06    -27.2660E-03     54.4839E-03    -27.2179E-03     11.0447E-03    -27.4894E-03     54.4755E-03    -27.4175E-03     11.1687E-03
            1205     1.75163E-03     111.948E-03    -78.1846E+06    -50.6466E+06    -70.3753E+06     11.7474E+06    -27.4845E-03     54.7898E-03    -27.3053E-03     20.6634E-03    -27.7000E-03     54.7512E-03    -27.4704E-03     20.8181E-03
            1206     2.62694E-03     111.965E-03    -75.4420E+06    -55.3396E+06    -64.6325E+06     10.2637E+06    -27.8887E-03     55.3099E-03    -27.4212E-03     31.2391E-03    -28.0915E-03     55.2351E-03    -27.5547E-03     31.3759E-03
            1207     3.50232E-03     111.990E-03    -71.4964E+06    -58.0049E+06    -58.3814E+06     7.14291E+06    -28.5360E-03     56.1156E-03    -27.5796E-03     42.4687E-03    -28.7239E-03     56.0125E-03    -27.6838E-03     42.5653E-03
            1208     4.37693E-03     112.024E-03    -65.5004E+06    -55.9364E+06    -50.7330E+06     3.02173E+06    -29.4823E-03     57.2741E-03    -27.7917E-03     54.3444E-03    -29.6546E-03     57.1619E-03    -27.8693E-03     54.3861E-03
            1209     5.25110E-03     112.068E-03    -57.8337E+06    -52.8949E+06    -40.8140E+06    -2.72228E+06    -30.8250E-03     58.9067E-03    -28.0817E-03     66.9844E-03    -30.9796E-03     58.7862E-03    -28.1252E-03     66.9465E-03
            1210     6.12403E-03     112.122E-03    -49.9306E+06    -51.1586E+06    -30.3652E+06    -7.89638E+06    -32.6638E-03     61.1275E-03    -28.4637E-03     80.4346E-03    -32.8018E-03     60.9944E-03    -28.4689E-03     80.3187E-03
            1211     6.99581E-03     112.189E-03    -42.8294E+06    -46.0346E+06    -20.9975E+06    -11.3539E+06    -35.0387E-03     63.9789E-03    -28.9402E-03     94.7213E-03    -35.1738E-03     63.8593E-03    -28.9164E-03     94.5400E-03
            1212     7.86572E-03     112.268E-03    -37.4286E+06    -37.0608E+06    -12.8558E+06    -15.2396E+06    -38.0495E-03     67.5758E-03    -29.5264E-03     109.840E-03    -38.2052E-03     67.5044E-03    -29.4827E-03     109.573E-03
            1213     8.73354E-03     112.362E-03    -33.5426E+06    -32.1131E+06    -5.83730E+06    -19.0365E+06    -41.8819E-03     72.1371E-03    -30.2551E-03     125.706E-03    -42.0778E-03     72.1169E-03    -30.1891E-03     125.332E-03
            1214     9.59859E-03     112.470E-03    -29.6602E+06    -30.4268E+06     381.027E+03    -23.0283E+06    -46.7366E-03     77.8894E-03    -31.1527E-03     142.573E-03    -47.0007E-03     77.9393E-03    -31.0637E-03     142.052E-03
            1215     10.4599E-03     112.595E-03    -24.6077E+06    -26.7479E+06     5.79914E+06    -27.0285E+06    -52.7230E-03     84.9640E-03    -32.2410E-03     159.885E-03    -53.1043E-03     85.1467E-03    -32.1375E-03     159.163E-03
            1216     11.3169E-03     112.737E-03    -20.5548E+06    -27.1310E+06     8.85223E+06    -30.7209E+06    -59.8595E-03     93.4182E-03    -33.5587E-03     175.571E-03    -60.4278E-03     93.7926E-03    -33.4453E-03     174.574E-03
            1217     12.1677E-03     112.894E-03    -18.9859E+06    -29.7086E+06     7.78456E+06    -32.4817E+06    -68.3762E-03     103.510E-03    -35.1338E-03     191.092E-03    -69.2737E-03     104.214E-03    -35.0243E-03     189.717E-03
            1218     13.0134E-03     113.069E-03    -17.7162E+06    -28.0652E+06     8.57033E+06    -32.6552E+06    -78.4096E-03     115.417E-03    -37.0072E-03     211.339E-03    -79.9525E-03     116.774E-03    -36.8980E-03     209.371E-03
            1219     13.8501E-03     113.271E-03    -16.0722E+06    -19.9720E+06     6.75139E+06    -34.8333E+06    -90.1941E-03     129.370E-03    -39.1762E-03     234.500E-03    -92.9272E-03     131.959E-03    -39.0902E-03     231.559E-03
            1220     14.6790E-03     113.501E-03    -13.7317E+06    -8.24568E+06     5.63656E+06    -28.9760E+06    -102.292E-03     143.994E-03    -41.7019E-03     247.786E-03    -106.760E-03     148.371E-03    -41.6418E-03     243.730E-03
            1221     15.4943E-03     113.741E-03    -10.0979E+06     66.1192E+06     35.3318E+06    -14.0277E+06    -111.562E-03     156.200E-03    -44.6380E-03     239.738E-03    -117.742E-03     162.481E-03    -44.5426E-03     235.165E-03
            1222     16.3050E-03     113.969E-03    -4.51287E+06     117.927E+06     80.4774E+06    -4.21375E+06    -117.865E-03     165.846E-03    -47.9813E-03     160.451E-03    -122.244E-03     170.399E-03    -47.7433E-03     156.845E-03
            1223     878.606E-06     112.936E-03    -113.335E+06    -60.2929E+06    -113.808E+06     4.15136E+06    -24.3217E-03     48.4936E-03    -24.1718E-03     10.3874E-03    -24.6360E-03     48.5213E-03    -24.4891E-03     10.4426E-03
            1224     1.75676E-03     112.946E-03    -101.355E+06    -56.1195E+06    -98.7335E+06     5.19075E+06    -24.6875E-03     49.0350E-03    -24.3475E-03     19.5963E-03    -24.9695E-03     49.0439E-03    -24.6129E-03     19.6665E-03
            1225     2.63481E-03     112.964E-03    -88.2657E+06    -55.1993E+06    -84.4787E+06     3.92110E+06    -25.3838E-03     49.9507E-03    -24.5669E-03     29.9917E-03    -25.6219E-03     49.9240E-03    -24.7812E-03     30.0472E-03
            1226     3.51184E-03     112.990E-03    -76.2386E+06    -54.8273E+06    -71.4586E+06     220.749E+03    -26.3567E-03     51.2131E-03    -24.8563E-03     41.2408E-03    -26.5535E-03     51.1514E-03    -25.0236E-03     41.2494E-03
            1227     4.38841E-03     113.025E-03    -64.8985E+06    -50.0801E+06    -57.7820E+06    -4.91251E+06    -27.5842E-03     52.7964E-03    -25.2122E-03     53.2135E-03    -27.7509E-03     52.7222E-03    -25.3343E-03     53.1550E-03
            1228     5.26393E-03     113.071E-03    -55.0481E+06    -45.9641E+06    -44.8878E+06    -9.76787E+06    -29.1504E-03     54.7862E-03    -25.6358E-03     66.0134E-03    -29.2936E-03     54.7008E-03    -25.7138E-03     65.8886E-03
            1229     6.13850E-03     113.128E-03    -47.6573E+06    -46.1333E+06    -34.1300E+06    -13.0299E+06    -31.1567E-03     57.2939E-03    -26.1372E-03     79.7493E-03    -31.2822E-03     57.1853E-03    -26.1719E-03     79.5738E-03
            1230     7.01141E-03     113.196E-03    -41.4182E+06    -40.6256E+06    -23.8136E+06    -15.9241E+06    -33.6837E-03     60.4063E-03    -26.7226E-03     94.5305E-03    -33.8105E-03     60.3109E-03    -26.7227E-03     94.3007E-03
            1231     7.88268E-03     113.279E-03    -35.0019E+06    -31.4034E+06    -12.8893E+06    -18.3423E+06    -36.8838E-03     64.2999E-03    -27.4161E-03     110.347E-03    -37.0277E-03     64.2455E-03    -27.3843E-03     110.055E-03
            1232     8.75153E-03     113.377E-03    -29.0206E+06    -26.4755E+06    -3.16382E+06    -20.6946E+06    -40.9497E-03     69.1956E-03    -28.2459E-03     127.128E-03    -41.1233E-03     69.1815E-03    -28.1813E-03     126.754E-03
            1233     9.61736E-03     113.491E-03    -24.2932E+06    -22.6502E+06     4.54855E+06    -24.0981E+06    -46.0571E-03     75.2907E-03    -29.2337E-03     145.177E-03    -46.2947E-03     75.3489E-03    -29.1429E-03     144.671E-03
            1234     10.4796E-03     113.622E-03    -21.7774E+06    -20.4094E+06     9.35316E+06    -27.8140E+06    -52.3764E-03     82.7864E-03    -30.4100E-03     163.940E-03    -52.7354E-03     82.9691E-03    -30.3021E-03     163.242E-03
            1235     11.3370E-03     113.772E-03    -20.5513E+06     -21.025E+06     11.9971E+06    -30.0477E+06    -60.0841E-03     91.9064E-03    -31.8223E-03     181.431E-03    -60.6405E-03     92.2816E-03    -31.7021E-03     180.479E-03
            1236     12.1889E-03     113.939E-03    -18.6590E+06    -25.1083E+06     11.7855E+06    -32.0182E+06    -69.4334E-03     102.948E-03    -33.5142E-03     198.865E-03    -70.3185E-03     103.645E-03    -33.3918E-03     197.522E-03
            1237     13.0323E-03     114.126E-03    -14.6423E+06    -24.8211E+06     12.8616E+06    -33.8204E+06    -80.8049E-03     116.338E-03    -35.5336E-03     220.641E-03    -82.3320E-03     117.691E-03    -35.4121E-03     218.640E-03
            1238     13.8688E-03     114.341E-03    -11.7474E+06    -15.0852E+06     12.5633E+06    -33.8252E+06    -94.0634E-03     131.959E-03    -37.8955E-03     246.141E-03    -96.8170E-03     134.584E-03    -37.7938E-03     243.095E-03
            1239     14.6935E-03     114.588E-03    -12.1692E+06    -21.7612E+06      5.3386E+06    -29.0263E+06    -107.245E-03     147.882E-03    -40.6379E-03     261.710E-03    -111.831E-03     152.337E-03    -40.5620E-03     257.342E-03
            1240     15.5106E-03     114.845E-03    -10.9450E+06     48.7691E+06     31.2848E+06    -15.9064E+06    -118.824E-03     162.665E-03    -43.8409E-03     254.220E-03    -125.396E-03     169.287E-03    -43.7393E-03     248.863E-03
            1241     16.3123E-03     115.089E-03    -7.61075E+06     110.756E+06     79.4990E+06    -6.00885E+06    -126.582E-03     174.134E-03    -47.5524E-03     174.309E-03    -131.385E-03     179.078E-03    -47.3044E-03     169.863E-03
            1242     879.952E-06     113.928E-03    -113.594E+06    -60.3855E+06    -113.359E+06    -4.03819E+06    -22.5377E-03     44.9281E-03    -22.3904E-03     9.62273E-03    -22.8536E-03     44.9554E-03    -22.7050E-03     9.57152E-03
            1243     1.76005E-03     113.939E-03    -106.909E+06    -54.9652E+06    -105.781E+06    -6.33545E+06    -22.9000E-03     45.4413E-03    -22.5413E-03     18.0987E-03    -23.2013E-03     45.4746E-03    -22.8355E-03     18.0189E-03
            1244     2.63948E-03     113.958E-03    -97.0285E+06    -51.5670E+06    -95.8269E+06    -8.89029E+06    -23.5718E-03     46.3182E-03    -22.7465E-03     27.8971E-03    -23.8427E-03     46.3394E-03    -23.0101E-03     27.7856E-03
            1245     3.51863E-03     113.986E-03    -85.6825E+06    -48.7207E+06    -85.6201E+06    -12.3370E+06    -24.5741E-03     47.6009E-03    -23.0269E-03     38.7726E-03    -24.8066E-03     47.6045E-03    -23.2601E-03     38.6177E-03
            1246     4.39655E-03     114.022E-03    -75.1896E+06    -42.5004E+06    -74.9116E+06    -16.4810E+06    -25.9124E-03     49.2999E-03    -23.3874E-03     50.7239E-03    -26.1167E-03     49.3035E-03    -23.5913E-03     50.5158E-03
            1247     5.27349E-03     114.070E-03    -65.4398E+06    -40.1989E+06    -60.7223E+06    -19.5793E+06    -27.6389E-03     51.4965E-03    -23.8576E-03     63.7102E-03    -27.8189E-03     51.4775E-03    -24.0080E-03     63.4602E-03
            1248     6.14900E-03     114.129E-03    -54.5087E+06    -40.7972E+06    -44.9949E+06    -22.1368E+06    -29.8007E-03     54.2286E-03    -24.4280E-03     77.7027E-03    -29.9507E-03     54.1708E-03    -24.5148E-03     77.4135E-03
            1249     7.02323E-03     114.201E-03    -42.7400E+06    -35.8550E+06    -29.6590E+06    -24.1078E+06    -32.4629E-03     57.5463E-03    -25.0834E-03     92.7886E-03    -32.5908E-03     57.4813E-03    -25.1177E-03     92.4607E-03
            1250     7.89540E-03     114.287E-03    -32.9938E+06    -28.9527E+06    -14.5735E+06    -23.9960E+06    -35.7708E-03     61.6172E-03    -25.8464E-03     109.077E-03    -35.8981E-03     61.5670E-03    -25.8295E-03     108.726E-03
            1251     8.76525E-03     114.389E-03    -26.9657E+06    -22.7022E+06    -2.47667E+06    -23.1531E+06    -39.9404E-03     66.6726E-03    -26.7322E-03     126.651E-03    -40.0969E-03     66.6602E-03    -26.6725E-03     126.266E-03
            1252     9.63209E-03     114.508E-03    -23.9940E+06    -15.9073E+06     6.56979E+06    -24.5220E+06    -45.2043E-03     72.9724E-03    -27.7681E-03     145.787E-03    -45.4316E-03     73.0395E-03    -27.6774E-03     145.305E-03
            1253     10.4951E-03     114.646E-03    -21.5504E+06    -14.4121E+06     12.8894E+06    -27.0016E+06    -51.8389E-03     80.8380E-03    -28.9991E-03     165.918E-03    -52.1784E-03     81.0132E-03    -28.8825E-03     165.272E-03
            1254     11.3534E-03     114.804E-03    -18.8111E+06    -16.0854E+06     16.5794E+06    -28.9433E+06    -59.9801E-03     90.4489E-03    -30.4688E-03     185.181E-03    -60.4973E-03     90.7952E-03    -30.3353E-03     184.295E-03
            1255     12.2049E-03     114.982E-03    -16.8702E+06    -18.7415E+06     17.6289E+06    -31.3868E+06    -69.9985E-03     102.228E-03    -32.2293E-03     204.853E-03    -70.8350E-03     102.889E-03    -32.0895E-03     203.573E-03
            1256     13.0499E-03     115.181E-03    -16.2725E+06    -19.7472E+06     17.5719E+06    -35.3810E+06    -82.5749E-03     116.916E-03    -34.3411E-03     229.473E-03    -84.0590E-03     118.224E-03    -34.2010E-03     227.483E-03
            1257     13.8836E-03     115.412E-03    -14.0623E+06    -15.5305E+06     17.0723E+06    -35.5433E+06    -96.9866E-03     133.819E-03    -36.8328E-03     257.383E-03    -99.6864E-03     136.368E-03    -36.7046E-03     254.287E-03
            1258     14.7098E-03     115.675E-03    -9.77439E+06    -31.2224E+06     11.0532E+06    -28.8716E+06    -111.327E-03     151.059E-03    -39.7312E-03     275.319E-03    -115.876E-03     155.434E-03    -39.6165E-03     270.767E-03
            1259     15.5208E-03     115.952E-03    -4.17576E+06     31.4277E+06     28.4355E+06    -17.6993E+06    -126.010E-03     169.121E-03    -43.1113E-03     272.601E-03    -132.950E-03     176.083E-03    -43.0087E-03     266.413E-03
            1260     16.3178E-03     116.222E-03     1.17860E+06     98.6905E+06     77.7517E+06    -4.38885E+06    -135.163E-03     182.300E-03    -47.1371E-03     189.216E-03    -140.398E-03     187.670E-03    -46.8932E-03     183.887E-03
            1261     880.723E-06     114.919E-03    -85.0908E+06    -50.2873E+06    -83.5474E+06    -6.12791E+06    -22.0890E-03     44.1091E-03    -22.0201E-03     8.63699E-03    -22.3203E-03     44.1024E-03    -22.2416E-03     8.55757E-03
            1262     1.76082E-03     114.930E-03    -83.1816E+06    -46.6808E+06    -78.7965E+06    -10.6111E+06    -22.4799E-03     44.6188E-03    -22.1389E-03     16.1769E-03    -22.7139E-03     44.6203E-03    -22.3446E-03     16.0396E-03
            1263     2.64095E-03     114.950E-03    -80.7285E+06    -43.2802E+06    -74.1990E+06    -14.8373E+06    -23.0451E-03     45.3723E-03    -22.3272E-03     24.9684E-03    -23.2785E-03     45.3805E-03    -22.5183E-03     24.7766E-03
            1264     3.52037E-03     114.978E-03    -77.6682E+06    -39.4436E+06    -70.8191E+06    -19.5454E+06    -23.8257E-03     46.3833E-03    -22.5576E-03     34.7874E-03    -24.0542E-03     46.4014E-03    -22.7419E-03     34.5351E-03
            1265     4.39952E-03     115.017E-03    -73.3294E+06    -33.7183E+06    -66.5983E+06    -23.8882E+06    -24.9192E-03     47.7642E-03    -22.8450E-03     45.9320E-03    -25.1403E-03     47.7984E-03    -23.0228E-03     45.6240E-03
            1266     5.27758E-03     115.066E-03    -67.3241E+06    -32.7367E+06    -58.2499E+06    -27.8200E+06    -26.4842E-03     49.7183E-03    -23.2340E-03     58.5468E-03    -26.6891E-03     49.7369E-03    -23.3802E-03     58.1873E-03
            1267     6.15430E-03     115.127E-03    -60.0119E+06    -32.9259E+06    -47.7941E+06    -31.9826E+06    -28.6021E-03     52.3334E-03    -23.7314E-03     72.6190E-03    -28.7869E-03     52.3271E-03    -23.8356E-03     72.2024E-03
            1268     7.02907E-03     115.202E-03    -51.9090E+06    -31.3714E+06    -37.0420E+06    -34.5418E+06    -31.3009E-03     55.6399E-03    -24.3389E-03     88.0562E-03    -31.4681E-03     55.6190E-03    -24.4034E-03     87.5977E-03
            1269     7.90205E-03     115.292E-03    -42.1997E+06    -28.6256E+06    -23.5011E+06    -33.5435E+06    -34.6764E-03     59.7563E-03    -25.0799E-03     104.848E-03    -34.8304E-03     59.7272E-03    -25.0947E-03     104.384E-03
            1270     8.77267E-03     115.398E-03    -31.1784E+06    -23.2844E+06    -7.90014E+06    -29.8436E+06    -38.8982E-03     64.8632E-03    -25.9650E-03     123.024E-03    -39.0528E-03     64.8476E-03    -25.9255E-03     122.572E-03
            1271     9.64029E-03     115.522E-03    -22.5361E+06    -13.7035E+06     7.54493E+06    -25.8537E+06    -44.2723E-03     71.2857E-03    -27.0134E-03     142.987E-03    -44.4711E-03     71.3345E-03    -26.9231E-03     142.520E-03
            1272     10.5041E-03     115.667E-03    -19.1823E+06    -9.11407E+06     17.8513E+06    -25.1617E+06    -51.0593E-03     79.3157E-03    -28.2563E-03     164.370E-03    -51.3582E-03     79.4631E-03    -28.1261E-03     163.797E-03
            1273     11.3626E-03     115.834E-03    -18.9053E+06    -10.4140E+06     22.3789E+06    -27.2419E+06    -59.3792E-03     89.1119E-03    -29.7327E-03     185.545E-03    -59.8458E-03     89.4107E-03    -29.5783E-03     184.752E-03
            1274     12.2157E-03     116.021E-03    -17.1585E+06    -11.5185E+06     25.2962E+06    -30.9794E+06    -69.8870E-03     101.392E-03    -31.5048E-03     207.799E-03    -70.6481E-03     101.980E-03    -31.3367E-03     206.615E-03
            1275     13.0596E-03     116.235E-03    -14.6606E+06    -13.4290E+06     26.7792E+06    -32.8665E+06    -83.1723E-03     116.811E-03    -33.6391E-03     235.022E-03    -84.5212E-03     117.986E-03    -33.4645E-03     233.176E-03
            1276     13.8959E-03     116.481E-03    -14.9740E+06    -12.9708E+06     25.8388E+06    -34.6134E+06    -98.2918E-03     134.457E-03    -36.1654E-03     265.163E-03    -100.786E-03     136.781E-03    -35.9957E-03     262.190E-03
            1277     14.7189E-03     116.762E-03    -14.8798E+06    -40.6836E+06     16.6742E+06    -33.5131E+06    -113.697E-03     152.805E-03    -39.1078E-03     287.346E-03    -118.013E-03     156.880E-03    -38.9439E-03     282.754E-03
            1278     15.5329E-03     117.061E-03    -15.2985E+06     12.3292E+06     25.4229E+06    -21.0764E+06    -131.129E-03     173.675E-03    -42.5462E-03     294.885E-03    -138.435E-03     180.906E-03    -42.4148E-03     288.029E-03
            1279     16.3262E-03     117.365E-03    -14.3202E+06     84.4858E+06     71.4349E+06    -9.53641E+06    -143.071E-03     189.832E-03    -46.7615E-03     207.518E-03    -148.906E-03     195.718E-03    -46.5061E-03     201.183E-03
            1280     879.618E-06     115.910E-03    -54.8732E+06    -38.4016E+06    -53.6597E+06    -5.87350E+06    -23.1038E-03     46.1947E-03    -23.0909E-03     7.32397E-03    -23.2448E-03     46.1603E-03    -23.2239E-03     7.24610E-03
            1281     1.75943E-03     115.922E-03    -53.7590E+06    -36.0326E+06    -49.5761E+06    -9.94284E+06    -23.5299E-03     46.7203E-03    -23.1904E-03     13.7363E-03    -23.6751E-03     46.6903E-03    -23.3081E-03     13.6043E-03
            1282     2.63844E-03     115.942E-03    -51.4257E+06    -32.6892E+06    -43.6570E+06    -14.5614E+06    -24.1082E-03     47.5095E-03    -23.4013E-03     21.1473E-03    -24.2556E-03     47.4846E-03    -23.4976E-03     20.9538E-03
            1283     3.51725E-03     115.971E-03    -48.6560E+06    -28.2594E+06    -37.1353E+06    -19.4505E+06    -24.7729E-03     48.4293E-03    -23.6564E-03     29.4181E-03    -24.9231E-03     48.4138E-03    -23.7305E-03     29.1598E-03
            1284     4.39534E-03     116.010E-03    -46.9070E+06    -24.4216E+06    -31.6788E+06    -23.5916E+06    -25.5719E-03     49.5093E-03    -23.9374E-03     38.9036E-03    -25.7276E-03     49.5033E-03    -23.9923E-03     38.5904E-03
            1285     5.27308E-03     116.061E-03    -46.6846E+06    -22.4939E+06    -28.8988E+06    -27.6419E+06    -26.6467E-03     50.8929E-03    -24.2462E-03     49.9431E-03    -26.8090E-03     50.8931E-03    -24.2904E-03     49.5764E-03
            1286     6.14999E-03     116.124E-03    -47.1787E+06    -22.7332E+06    -27.2001E+06    -32.3635E+06    -28.1911E-03     52.8031E-03    -24.6120E-03     62.8367E-03    -28.3593E-03     52.8018E-03    -24.6466E-03     62.4073E-03
            1287     7.02572E-03     116.202E-03    -46.8450E+06    -23.5076E+06    -24.1574E+06    -36.7328E+06    -30.4340E-03     55.5078E-03    -25.0738E-03     77.7638E-03    -30.6068E-03     55.5009E-03    -25.0926E-03     77.2735E-03
            1288     7.89930E-03     116.294E-03    -44.4610E+06    -25.5603E+06    -19.6992E+06    -39.2566E+06    -33.5307E-03     59.1949E-03    -25.6642E-03     94.7109E-03    -33.7021E-03     59.1750E-03    -25.6611E-03     94.1772E-03
            1289     8.77029E-03     116.405E-03    -38.7503E+06    -24.1215E+06    -11.7829E+06    -38.9121E+06    -37.6372E-03     64.0514E-03    -26.4142E-03     113.611E-03    -37.8098E-03     64.0353E-03    -26.3820E-03     113.059E-03
            1290     9.63832E-03     116.533E-03    -28.9221E+06    -18.3823E+06     2.12416E+06    -34.2229E+06    -43.0244E-03     70.3909E-03    -27.3665E-03     134.662E-03    -43.2117E-03     70.4047E-03    -27.2873E-03     134.121E-03
            1291     10.5023E-03     116.685E-03    -18.8645E+06    -9.75334E+06     18.8771E+06    -26.8511E+06    -49.7437E-03     78.2888E-03    -28.5451E-03     157.154E-03    -49.9874E-03     78.3769E-03    -28.4093E-03     156.618E-03
            1292     11.3622E-03     116.859E-03    -12.4145E+06    -4.80683E+06     31.4954E+06    -24.7501E+06    -58.1013E-03     88.0689E-03    -29.9677E-03     180.018E-03    -58.4678E-03     88.2841E-03    -29.7852E-03     179.348E-03
            1293     12.2151E-03     117.058E-03    -10.5663E+06    -3.84306E+06     37.6905E+06    -26.7628E+06    -68.9067E-03     100.592E-03    -31.6855E-03     204.715E-03    -69.5234E-03     101.050E-03    -31.4762E-03     203.717E-03
            1294     13.0611E-03     117.284E-03    -11.7064E+06    -8.88683E+06     38.2924E+06    -28.3789E+06    -82.4542E-03     116.221E-03    -33.7664E-03     234.152E-03    -83.5783E-03     117.163E-03    -33.5450E-03     232.555E-03
            1295     13.8960E-03     117.547E-03    -11.2884E+06    -6.32683E+06     38.4249E+06    -30.0459E+06    -97.4215E-03     133.645E-03    -36.2231E-03     266.174E-03    -99.5277E-03     135.580E-03    -36.0055E-03     263.548E-03
            1296     14.7241E-03     117.844E-03    -10.4810E+06    -41.9812E+06      25.318E+06    -30.5342E+06    -112.988E-03     152.044E-03    -39.0560E-03     292.582E-03    -116.721E-03     155.522E-03    -38.8533E-03     288.375E-03
            1297     15.5376E-03     118.166E-03    -5.46805E+06    -7.50950E+06     26.8351E+06    -20.5809E+06    -131.524E-03     173.865E-03    -42.3415E-03     313.086E-03    -138.532E-03     180.757E-03    -42.1885E-03     306.300E-03
            1298     16.3330E-03     118.511E-03     4.59809E+06     71.2367E+06     75.1667E+06    -5.17473E+06    -147.850E-03     194.358E-03    -46.5081E-03     232.450E-03    -153.889E-03     200.461E-03    -46.2422E-03     225.617E-03
            1299     877.661E-06     116.905E-03    -26.7115E+06    -27.6860E+06    -25.4675E+06    -4.87586E+06    -25.8713E-03     51.6505E-03    -25.7793E-03     5.75092E-03    -25.9283E-03     51.5877E-03    -25.8277E-03     5.68360E-03
            1300     1.75473E-03     116.917E-03    -25.9148E+06    -25.6171E+06    -22.6416E+06    -9.11102E+06    -26.3346E-03     52.2763E-03    -25.9417E-03     10.6810E-03    -26.3954E-03     52.2187E-03    -25.9802E-03     10.5550E-03
            1301     2.63165E-03     116.938E-03    -24.5257E+06    -22.0230E+06    -17.2386E+06    -13.5402E+06    -26.9349E-03     53.1291E-03    -26.1942E-03     16.2946E-03    -27.0028E-03     53.0805E-03    -26.2129E-03     16.1070E-03
            1302     3.50774E-03     116.968E-03    -23.5593E+06    -18.6781E+06    -11.3285E+06    -17.0784E+06    -27.6310E-03     54.1270E-03    -26.4960E-03     22.5964E-03    -27.7088E-03     54.0864E-03    -26.4914E-03     22.3583E-03
            1303     4.38347E-03     117.008E-03    -22.7222E+06    -15.5850E+06    -6.38467E+06    -20.0321E+06    -28.3572E-03     55.1791E-03    -26.8219E-03     29.8868E-03    -28.4442E-03     55.1472E-03    -26.7983E-03     29.6059E-03
            1304     5.25848E-03     117.059E-03    -21.5858E+06    -13.3062E+06    -1.63449E+06    -22.9943E+06    -29.0867E-03     56.2462E-03    -27.1594E-03     38.5078E-03    -29.1803E-03     56.2192E-03    -27.1170E-03     38.1846E-03
            1305     6.13311E-03     117.123E-03    -21.3205E+06    -12.8307E+06     2.74250E+06    -26.1284E+06    -29.9496E-03     57.4567E-03    -27.5070E-03     48.8423E-03    -30.0513E-03     57.4277E-03    -27.4438E-03     48.4753E-03
            1306     7.00714E-03     117.201E-03    -23.3388E+06    -14.0831E+06     4.70414E+06    -29.4698E+06    -31.2250E-03     59.1000E-03    -27.8750E-03     61.4170E-03    -31.3405E-03     59.0678E-03    -27.7972E-03     61.0039E-03
            1307     7.88026E-03     117.297E-03    -27.2713E+06    -17.2083E+06     3.84030E+06    -33.0311E+06    -33.2646E-03     61.5638E-03    -28.2992E-03     76.5986E-03    -33.3982E-03     61.5275E-03    -28.2155E-03     76.1345E-03
            1308     8.75173E-03     117.409E-03    -31.0682E+06    -18.5515E+06     2.89617E+06    -36.7475E+06    -36.4578E-03     65.2939E-03    -28.8361E-03     94.7777E-03    -36.6152E-03     65.2664E-03    -28.7497E-03     94.2547E-03
            1309     9.62011E-03     117.544E-03    -32.3236E+06    -19.7488E+06     4.95400E+06    -38.1911E+06    -41.0584E-03     70.6103E-03    -29.5519E-03     116.143E-03    -41.2412E-03     70.5940E-03    -29.4516E-03     115.577E-03
            1310     10.4849E-03     117.700E-03    -26.8624E+06    -15.8503E+06     15.7393E+06    -35.5352E+06    -47.2457E-03     77.7525E-03    -30.5067E-03     139.832E-03    -47.4616E-03     77.7717E-03    -30.3661E-03     139.246E-03
            1311     11.3445E-03     117.882E-03    -16.7901E+06    -5.62144E+06     34.7647E+06    -30.1220E+06    -55.5354E-03     87.2907E-03    -31.7552E-03     164.726E-03    -55.8269E-03     87.4028E-03    -31.5489E-03     164.095E-03
            1312     12.1987E-03     118.089E-03    -9.96507E+06    -3.47876E+06     47.4658E+06    -24.1978E+06    -66.5014E-03     99.8334E-03    -33.3320E-03     191.472E-03    -66.9573E-03     100.105E-03    -33.0752E-03     190.680E-03
            1313     13.0441E-03     118.329E-03    -9.75965E+06    -4.88544E+06     50.3831E+06    -20.2357E+06    -79.8101E-03     115.080E-03    -35.2697E-03     222.062E-03    -80.6426E-03     115.716E-03    -34.9965E-03     220.851E-03
            1314     13.8821E-03     118.605E-03    -16.0849E+06     1.84969E+06     49.6624E+06    -22.4669E+06    -94.0092E-03     131.576E-03    -37.5664E-03     254.511E-03    -95.6141E-03     132.989E-03    -37.2975E-03     252.443E-03
            1315     14.7096E-03     118.917E-03    -17.6003E+06    -27.4556E+06     39.3133E+06    -32.8862E+06    -107.996E-03     148.176E-03    -40.1804E-03     284.599E-03    -110.884E-03     150.794E-03    -39.9185E-03     281.091E-03
            1316     15.5291E-03     119.260E-03    -11.1545E+06    -31.9394E+06     24.4831E+06    -35.0427E+06    -124.565E-03     167.620E-03    -43.0548E-03     318.422E-03    -130.391E-03     173.228E-03    -42.8699E-03     312.442E-03
            1317     16.3367E-03     119.640E-03    -7.11916E+06     34.3632E+06     54.0741E+06    -14.0103E+06    -142.993E-03     189.696E-03    -46.7030E-03     261.633E-03    -148.907E-03     195.566E-03    -46.4721E-03     254.793E-03
            1318     873.528E-06     117.907E-03    -2.89788E+06    -18.0302E+06    -1.80435E+06    -3.95702E+06    -30.6759E-03     61.1536E-03    -30.4776E-03     3.74127E-03    -30.6631E-03     61.0694E-03    -30.4563E-03     3.68270E-03
            1319     1.74677E-03     117.920E-03    -2.48475E+06    -15.8382E+06     1.23522E+06    -7.98140E+06    -31.1818E-03     61.9161E-03    -30.7343E-03     6.93015E-03    -31.1753E-03     61.8380E-03    -30.7015E-03     6.81250E-03
            1320     2.61921E-03     117.941E-03    -2.11515E+06    -13.2595E+06     5.23165E+06    -11.1243E+06    -31.8906E-03     62.9423E-03    -31.0517E-03     10.3702E-03    -31.8929E-03     62.8716E-03    -31.0032E-03     10.2041E-03
            1321     3.49119E-03     117.972E-03    -1.41695E+06    -10.8197E+06     10.2427E+06    -13.8566E+06    -32.6681E-03     64.1014E-03    -31.4333E-03     14.2567E-03    -32.6793E-03     64.0361E-03    -31.3643E-03     14.0466E-03
            1322     4.36211E-03     118.012E-03    -490.564E+03    -8.33583E+06     15.7523E+06    -16.2606E+06    -33.4246E-03     65.2756E-03    -31.8510E-03     18.9191E-03    -33.4448E-03     65.2153E-03    -31.7595E-03     18.6689E-03
            1323     5.23242E-03     118.064E-03    -445.574E+03    -6.54662E+06     20.7769E+06    -18.0547E+06    -34.0859E-03     66.3661E-03    -32.2802E-03     24.6744E-03    -34.1186E-03     66.3099E-03    -32.1661E-03     24.3923E-03
            1324     6.10208E-03     118.128E-03    -1.77477E+06    -6.35087E+06     24.2594E+06    -19.0768E+06    -34.6632E-03     67.3655E-03    -32.7022E-03     31.8275E-03    -34.7112E-03     67.3103E-03    -32.5692E-03     31.5246E-03
            1325     6.97126E-03     118.207E-03    -4.01725E+06    -6.81060E+06     26.4762E+06    -20.2019E+06    -35.2536E-03     68.3675E-03    -33.1139E-03     40.7538E-03    -35.3192E-03     68.3136E-03    -32.9658E-03     40.4300E-03
            1326     7.84013E-03     118.301E-03    -6.50343E+06    -8.99459E+06     28.0101E+06    -22.3008E+06    -36.1231E-03     69.6564E-03    -33.5333E-03     51.9173E-03    -36.2047E-03     69.5974E-03    -33.3707E-03     51.5608E-03
            1327     8.70808E-03     118.416E-03    -10.1684E+06    -9.88883E+06     28.7352E+06    -24.8632E+06    -37.6495E-03     71.6401E-03    -33.9906E-03     66.1306E-03    -37.7546E-03     71.5868E-03    -33.8179E-03     65.7351E-03
            1328     9.57495E-03     118.551E-03    -14.9309E+06    -12.3168E+06     27.4130E+06    -28.3524E+06    -40.2026E-03     74.7313E-03    -34.5287E-03     83.9844E-03    -40.3341E-03     74.6833E-03    -34.3521E-03     83.5352E-03
            1329     10.4395E-03     118.712E-03    -19.6534E+06    -12.6688E+06     28.0491E+06    -32.5648E+06    -44.3437E-03     79.5604E-03    -35.2166E-03     105.587E-03    -44.5145E-03     79.5328E-03    -35.0295E-03     105.064E-03
            1330     11.3005E-03     118.899E-03    -21.1733E+06    -9.16692E+06     35.8681E+06    -32.8147E+06    -50.9559E-03     87.1106E-03    -36.1547E-03     130.576E-03    -51.1865E-03     87.1289E-03    -35.9314E-03     129.996E-03
            1331     12.1543E-03     119.117E-03    -17.9901E+06    -10.7489E+06     44.6780E+06    -26.5302E+06    -60.7309E-03     98.1531E-03    -37.4223E-03     159.083E-03    -61.0446E-03     98.2366E-03    -37.1572E-03     158.451E-03
            1332     13.0006E-03     119.366E-03    -12.4116E+06    -9.85813E+06     55.9328E+06    -17.8702E+06    -73.1515E-03     112.238E-03    -39.0865E-03     191.228E-03    -73.6633E-03     112.511E-03    -38.7745E-03     190.410E-03
            1333     13.8374E-03     119.654E-03    -7.59783E+06     8.20423E+06     68.5447E+06    -10.8819E+06    -86.5094E-03     127.623E-03    -41.1134E-03     224.488E-03    -87.4782E-03     128.398E-03    -40.7716E-03     223.191E-03
            1334     14.6679E-03     119.977E-03    -12.4304E+06     5.30687E+06     63.3957E+06    -19.5818E+06    -97.2818E-03     140.627E-03    -43.3454E-03     255.079E-03    -99.0927E-03     142.232E-03    -43.0180E-03     252.780E-03
            1335     15.4951E-03     120.330E-03    -24.1302E+06    -33.3040E+06     33.5408E+06    -33.7937E+06    -107.857E-03     153.441E-03    -45.5832E-03     298.968E-03    -111.583E-03     156.871E-03    -45.3322E-03     294.942E-03
            1336     16.3130E-03     120.738E-03    -19.5953E+06    -3.93814E+06     33.4740E+06    -26.2700E+06    -119.681E-03     167.722E-03    -48.0415E-03     285.949E-03    -124.302E-03     172.178E-03    -47.8400E-03     280.758E-03
            1337     867.447E-06     118.921E-03     17.3020E+06    -9.61790E+06     18.1746E+06    -3.23931E+06    -37.7736E-03     75.4855E-03    -37.7120E-03     1.54011E-03    -37.7023E-03     75.3836E-03    -37.6322E-03     1.48781E-03
            1338     1.73447E-03     118.934E-03     17.0418E+06    -8.15937E+06     21.0746E+06    -5.82485E+06    -38.5275E-03     76.4945E-03    -37.9670E-03     2.38830E-03    -38.4647E-03     76.3958E-03    -37.8745E-03     2.29222E-03
            1339     2.60073E-03     118.957E-03     17.4569E+06    -6.42162E+06     25.0510E+06    -8.35247E+06    -39.3003E-03     77.6832E-03    -38.3830E-03     3.14361E-03    -39.2443E-03     77.5874E-03    -38.2737E-03     3.00332E-03
            1340     3.46576E-03     118.988E-03     17.8387E+06    -4.73006E+06     29.7958E+06    -10.2412E+06    -40.1035E-03     78.9590E-03    -38.8555E-03     4.39911E-03    -40.0560E-03     78.8651E-03    -38.7256E-03     4.22203E-03
            1341     4.33011E-03     119.030E-03     17.3995E+06    -3.00383E+06     34.7075E+06    -11.4375E+06    -40.9382E-03     80.3107E-03    -39.3726E-03     6.22578E-03    -40.9041E-03     80.2202E-03    -39.2199E-03     6.02031E-03
            1342     5.19337E-03     119.082E-03     16.1936E+06    -2.62096E+06     38.5698E+06    -11.5451E+06    -41.7833E-03     81.7108E-03    -39.9275E-03     8.74394E-03    -41.7636E-03     81.6199E-03    -39.7543E-03     8.52357E-03
            1343     6.05562E-03     119.147E-03     14.8799E+06    -2.37084E+06     42.0360E+06    -11.6496E+06    -42.5563E-03     83.0717E-03    -40.5154E-03     12.0694E-03    -42.5514E-03     82.9809E-03    -40.3234E-03     11.8339E-03
            1344     6.91689E-03     119.224E-03     13.9834E+06    -2.55098E+06     46.0663E+06    -12.1059E+06    -43.1786E-03     84.3093E-03    -41.1307E-03     16.4775E-03    -43.1875E-03     84.2157E-03    -40.9169E-03     16.2225E-03
            1345     7.77694E-03     119.319E-03     12.4300E+06    -3.44318E+06     49.6255E+06    -12.6573E+06    -43.6584E-03     85.4213E-03    -41.7629E-03     22.3603E-03    -43.6836E-03     85.3238E-03    -41.5278E-03     22.0854E-03
            1346     8.63637E-03     119.431E-03     9.98040E+06    -4.54010E+06     51.1901E+06    -13.2744E+06    -44.0727E-03     86.4779E-03    -42.4052E-03     30.1914E-03    -44.1164E-03     86.3805E-03    -42.1572E-03     29.8967E-03
            1347     9.49474E-03     119.566E-03     7.43108E+06    -3.62704E+06     52.8829E+06    -15.4649E+06    -44.6250E-03     87.7015E-03    -43.0765E-03     40.5007E-03    -44.6919E-03     87.6155E-03    -42.8176E-03     40.1668E-03
            1348     10.3522E-03     119.725E-03     3.68332E+06    -4.90779E+06     53.4676E+06    -17.4030E+06    -45.7022E-03     89.5076E-03    -43.8054E-03     54.0786E-03    -45.7950E-03     89.4276E-03    -43.5362E-03     53.7096E-03
            1349     11.2075E-03     119.914E-03    -2.86575E+06    -4.51139E+06     52.8012E+06    -19.1773E+06    -48.0617E-03     92.6984E-03    -44.6366E-03     72.1658E-03    -48.1989E-03     92.6440E-03    -44.3619E-03     71.7593E-03
            1350     12.0608E-03     120.134E-03    -8.86938E+06    -12.5816E+06     51.5477E+06    -19.1572E+06    -52.8629E-03     98.5274E-03    -45.6645E-03     95.5529E-03    -53.0430E-03     98.4720E-03    -45.3757E-03     95.1069E-03
            1351     12.9079E-03     120.392E-03    -7.28388E+06    -14.5289E+06     59.4613E+06    -17.7754E+06    -60.3756E-03     107.364E-03    -46.9884E-03     123.971E-03    -60.6231E-03     107.356E-03    -46.6595E-03     123.436E-03
            1352     13.7480E-03     120.688E-03     5.25982E+06    -1.78168E+06     74.6142E+06    -13.0109E+06    -68.7911E-03     117.361E-03    -48.5698E-03     155.871E-03    -69.1718E-03     117.537E-03    -48.2017E-03     155.168E-03
            1353     14.5797E-03     121.020E-03     15.6662E+06     14.3360E+06     84.3879E+06     251.129E+03    -75.1486E-03     125.379E-03    -50.2308E-03     185.917E-03    -75.8366E-03     125.933E-03    -49.8524E-03     184.991E-03
            1354     15.4105E-03     121.371E-03     21.0191E+06     1.91739E+06     79.7785E+06    -1.53912E+06    -78.3938E-03     130.125E-03    -51.7313E-03     226.904E-03    -79.8043E-03     131.385E-03    -51.3656E-03     225.351E-03
            1355     16.2574E-03     121.780E-03     15.5663E+06    -8.13191E+06     48.3596E+06    -13.5392E+06    -66.1867E-03     118.654E-03    -52.4672E-03     244.640E-03    -68.1325E-03     120.505E-03    -52.2362E-03     242.613E-03
            1356     859.257E-06     119.951E-03     34.5953E+06    -3.75533E+06     35.5681E+06    -2.28849E+06    -47.9989E-03     96.1290E-03    -48.1301E-03    -2.10677E-03    -47.8780E-03     96.0026E-03    -47.9970E-03    -2.14776E-03
            1357     1.71723E-03     119.967E-03     34.1928E+06    -2.71165E+06     37.6381E+06    -3.62518E+06    -48.4608E-03     96.7170E-03    -48.2562E-03    -3.67957E-03    -48.3461E-03     96.5936E-03    -48.1136E-03    -3.74771E-03
            1358     2.57438E-03     119.990E-03     33.4791E+06    -1.94654E+06     41.3029E+06    -4.71988E+06    -49.1756E-03     97.7792E-03    -48.6036E-03    -5.20388E-03    -49.0708E-03     97.6554E-03    -48.4428E-03    -5.29674E-03
            1359     3.43098E-03     120.023E-03     32.2510E+06    -1.10365E+06     45.3119E+06    -5.22086E+06    -50.1603E-03     99.2559E-03    -49.0955E-03    -6.57651E-03    -50.0690E-03     99.1320E-03    -48.9141E-03    -6.68715E-03
            1360     4.28617E-03     120.065E-03     30.8830E+06    -510.772E+03     49.1721E+06    -5.06973E+06    -51.3770E-03     101.101E-03    -49.7244E-03    -8.00728E-03    -51.2996E-03     100.977E-03    -49.5226E-03    -8.12844E-03
            1361     5.13987E-03     120.119E-03     29.7449E+06    -574.995E+03     53.7850E+06    -4.86314E+06    -52.7291E-03     103.217E-03    -50.4883E-03    -9.45315E-03    -52.6648E-03     103.087E-03    -50.2617E-03    -9.58570E-03
            1362     5.99164E-03     120.184E-03     29.0105E+06    -235.974E+03     59.2042E+06    -4.61185E+06    -54.0888E-03     105.463E-03    -51.3739E-03    -10.8355E-03    -54.0376E-03     105.326E-03    -51.1196E-03    -10.9804E-03
            1363     6.84125E-03     120.263E-03     28.1255E+06     13.1189E+03     64.0981E+06    -4.55348E+06    -55.3126E-03     107.674E-03    -52.3617E-03    -12.0676E-03    -55.2748E-03     107.532E-03    -52.0820E-03    -12.2288E-03
            1364     7.68906E-03     120.356E-03     27.0952E+06    -1.26795E+06     67.4922E+06    -3.97612E+06    -56.2722E-03     109.708E-03    -53.4359E-03    -12.9898E-03    -56.2448E-03     109.555E-03    -53.1359E-03    -13.1621E-03
            1365     8.53428E-03     120.468E-03     26.6616E+06    -825.953E+03     71.2122E+06    -4.31900E+06    -56.8125E-03     111.403E-03    -54.5902E-03    -13.4586E-03    -56.7961E-03     111.246E-03    -54.2716E-03    -13.6548E-03
            1366     9.37740E-03     120.600E-03     25.1881E+06      37.634E+03     74.2827E+06    -4.05214E+06    -56.6794E-03     112.491E-03    -55.8116E-03    -13.1719E-03    -56.6796E-03     112.335E-03    -55.4768E-03    -13.3840E-03
            1367     10.2179E-03     120.756E-03     22.2118E+06     204.349E+03     75.4679E+06    -3.98314E+06    -55.7020E-03     112.783E-03    -57.0806E-03    -11.4069E-03    -55.7236E-03     112.630E-03    -56.7357E-03    -11.6355E-03
            1368     11.0571E-03     120.938E-03     18.6877E+06    -2.43119E+06     74.5668E+06    -2.26554E+06    -53.9746E-03     112.365E-03    -58.3905E-03    -6.88906E-03    -54.0145E-03     112.206E-03    -58.0412E-03    -7.10931E-03
            1369     11.8935E-03     121.154E-03     16.8929E+06    -4.27201E+06     75.7084E+06    -3.91854E+06    -51.8743E-03     111.635E-03    -59.7609E-03     2.28909E-03    -51.9301E-03     111.473E-03    -59.4006E-03     2.03867E-03
            1370     12.7278E-03     121.405E-03     14.8373E+06    -10.5519E+06     76.6392E+06    -6.12158E+06    -49.0247E-03     110.184E-03    -61.1592E-03     18.0206E-03    -49.0938E-03     110.007E-03    -60.7822E-03     17.7410E-03
            1371     13.5597E-03     121.698E-03     11.5480E+06    -3.27476E+06     78.5334E+06    -12.0843E+06    -44.9340E-03     107.378E-03    -62.4443E-03     41.3077E-03    -45.0506E-03     107.266E-03    -62.0636E-03     40.9542E-03
            1372     14.3969E-03     122.023E-03     11.3944E+06    -7.48415E+06     80.5096E+06    -4.50578E+06    -42.4734E-03     106.074E-03    -63.6004E-03     64.6025E-03    -42.6352E-03     105.987E-03    -63.2035E-03     64.2994E-03
            1373     15.2345E-03     122.379E-03     18.6666E+06     7.99497E+06     88.1348E+06     734.966E+03    -31.8357E-03     96.1325E-03    -64.2968E-03     93.6908E-03    -32.1379E-03     96.2729E-03    -63.8948E-03     93.3249E-03
            1374     16.0665E-03     122.753E-03     6.06889E+06     13.6616E+06     52.3630E+06    -5.43953E+06    -1.80105E-03     65.3306E-03    -63.5296E-03     104.881E-03    -2.15658E-03     65.5884E-03    -63.2964E-03     104.580E-03
            1375     16.2069E-03     60.9402E-03    -5.63508E+06     144.017E+06     96.7736E+06     396.192E+03    -54.3417E-03     108.133E-03    -53.7913E-03     110.829E-03    -57.4358E-03     111.438E-03    -53.5081E-03     110.700E-03
            1376     15.3551E-03     60.7648E-03    -11.6224E+06     141.629E+06     82.0206E+06     1.33210E+06    -58.0246E-03     111.765E-03    -53.7399E-03     175.789E-03    -62.4819E-03     116.445E-03    -53.5183E-03     174.885E-03
            1377     14.5039E-03     60.5868E-03    -14.0523E+06     117.726E+06     37.5747E+06     8.09584E+03    -57.5348E-03     111.087E-03    -53.5526E-03     164.662E-03    -60.7687E-03     114.580E-03    -53.5150E-03     163.131E-03
            1378     13.6486E-03     60.4333E-03    -15.1494E+06     70.0664E+06     3.62540E+06    -571.246E+03    -56.6672E-03     110.142E-03    -53.4745E-03     142.722E-03    -58.7156E-03     112.375E-03    -53.5360E-03     141.204E-03
            1379     12.7962E-03     60.3026E-03    -16.9095E+06     13.1680E+06    -997.235E+03     439.954E+03    -55.9620E-03     109.525E-03    -53.5628E-03     120.285E-03    -57.1825E-03     110.735E-03    -53.5624E-03     119.018E-03
            1380     11.9425E-03     60.1922E-03    -18.4987E+06    -25.8094E+06     702.751E+03     588.992E+03    -55.5778E-03     109.232E-03    -53.6539E-03     106.246E-03    -56.3637E-03     109.858E-03    -53.5861E-03     105.192E-03
            1381     11.0892E-03     60.0907E-03    -20.2338E+06    -54.0733E+06    -1.12554E+06     422.744E+03    -55.5885E-03     109.294E-03    -53.7057E-03     98.9282E-03    -56.1353E-03     109.580E-03    -53.6036E-03     98.0274E-03
            1382     10.2362E-03     59.9944E-03    -22.0274E+06    -73.7848E+06    -665.732E+03     438.626E+03    -55.5222E-03     109.271E-03    -53.7485E-03     92.9450E-03    -55.9120E-03     109.322E-03    -53.6129E-03     92.1822E-03
            1383     9.38316E-03     59.9047E-03    -23.9422E+06    -87.5469E+06    -267.546E+03     400.472E+03    -55.3015E-03     109.082E-03    -53.7803E-03     86.0110E-03    -55.5772E-03     108.963E-03    -53.6200E-03     85.3710E-03
            1384     8.53008E-03     59.8220E-03    -26.0812E+06    -99.9104E+06    -1.94719E+06     408.887E+03    -55.0944E-03     108.895E-03    -53.8004E-03     79.1642E-03    -55.2838E-03     108.643E-03    -53.6274E-03     78.6308E-03
            1385     7.67696E-03     59.7460E-03    -28.6722E+06    -112.506E+06    -2.78392E+06     241.882E+03    -54.9048E-03     108.730E-03    -53.8250E-03     72.4662E-03    -55.0310E-03     108.363E-03    -53.6342E-03     72.0224E-03
            1386     6.82403E-03     59.6767E-03    -31.9119E+06    -123.576E+06    -4.66144E+06     107.907E+03    -54.6866E-03     108.530E-03    -53.8433E-03     65.4928E-03    -54.7673E-03     108.072E-03    -53.6411E-03     65.1279E-03
            1387     5.97088E-03     59.6146E-03    -35.4267E+06    -131.353E+06    -9.74303E+06     124.241E+03    -54.4808E-03     108.323E-03    -53.8426E-03     58.2212E-03    -54.5279E-03     107.807E-03    -53.6495E-03     57.9267E-03
            1388     5.11791E-03     59.5599E-03    -39.0557E+06    -137.009E+06    -16.2074E+06     47.7284E+03    -54.2908E-03     108.124E-03    -53.8331E-03     50.6832E-03    -54.3141E-03     107.569E-03    -53.6589E-03     50.4488E-03
            1389     4.26484E-03     59.5129E-03    -42.9586E+06    -145.805E+06    -23.2879E+06    -114.622E+03    -54.1259E-03     107.952E-03    -53.8264E-03     42.8216E-03    -54.1277E-03     107.352E-03    -53.6691E-03     42.6379E-03
            1390     3.41188E-03     59.4740E-03    -46.9055E+06    -155.675E+06    -31.7156E+06    -99.6091E+03    -54.0047E-03     107.818E-03    -53.8133E-03     34.6794E-03    -53.9869E-03     107.173E-03    -53.6781E-03     34.5413E-03
            1391     2.55888E-03     59.4434E-03    -50.4749E+06    -161.801E+06    -40.7875E+06    -104.114E+03    -53.9005E-03     107.688E-03    -53.7875E-03     26.3540E-03    -53.8695E-03     107.022E-03    -53.6836E-03     26.2551E-03
            1392     1.70591E-03     59.4211E-03    -53.3800E+06    -166.977E+06    -48.6858E+06    -169.876E+03    -53.8243E-03     107.585E-03    -53.7603E-03     17.9134E-03    -53.7831E-03     106.902E-03    -53.6842E-03     17.8481E-03
            1393     853.008E-06     59.4075E-03    -55.2638E+06    -170.436E+06    -54.0500E+06    -264.938E+03    -53.7751E-03     107.501E-03    -53.7262E-03     9.69025E-03    -53.7272E-03     106.809E-03    -53.6692E-03     9.65385E-03
            1394     16.2081E-03     59.8865E-03    -5.13885E+06     143.433E+06     96.5796E+06     845.930E+03    -54.6943E-03     108.446E-03    -53.7513E-03     109.643E-03    -57.7279E-03     111.690E-03    -53.4689E-03     109.508E-03
            1395     15.3565E-03     59.7035E-03    -9.41006E+06     142.747E+06     83.8850E+06     28.6206E+03    -57.2738E-03     110.978E-03    -53.7046E-03     172.808E-03    -61.6538E-03     115.588E-03    -53.4785E-03     171.919E-03
            1396     14.5025E-03     59.5352E-03    -13.6090E+06     117.940E+06     37.8167E+06    -485.428E+03    -57.1579E-03     110.693E-03    -53.5353E-03     164.095E-03    -60.3965E-03     114.193E-03    -53.4975E-03     162.571E-03
            1397     13.6495E-03     59.3760E-03    -17.1168E+06     68.5507E+06     2.06623E+06     305.453E+03    -56.5624E-03     110.028E-03    -53.4656E-03     142.633E-03    -58.6213E-03     112.264E-03    -53.5298E-03     141.125E-03
            1398     12.7962E-03     59.2486E-03    -18.5610E+06     13.0072E+06    -1.25328E+06     402.909E+03    -55.8946E-03     109.458E-03    -53.5630E-03     120.574E-03    -57.1235E-03     110.670E-03    -53.5612E-03     119.307E-03
            1399     11.9426E-03     59.1369E-03    -19.4004E+06    -25.8274E+06     708.832E+03     323.725E+03    -55.7252E-03     109.377E-03    -53.6515E-03     106.545E-03    -56.5191E-03     110.008E-03    -53.5824E-03     105.481E-03
            1400     11.0895E-03     59.0355E-03    -20.5422E+06    -53.8643E+06    -888.473E+03     388.176E+03    -55.6473E-03     109.343E-03    -53.6954E-03     98.8242E-03    -56.1960E-03     109.630E-03    -53.5919E-03     97.9218E-03
            1401     10.2364E-03     58.9390E-03    -21.9496E+06    -73.7453E+06    -449.574E+03     269.084E+03    -55.5057E-03     109.241E-03    -53.7348E-03     92.9177E-03    -55.8952E-03     109.292E-03    -53.5983E-03     92.1533E-03
            1402     9.38328E-03     58.8494E-03    -23.8197E+06    -87.4476E+06    -94.9767E+03     287.090E+03    -55.2884E-03     109.055E-03    -53.7661E-03     85.9923E-03    -55.5638E-03     108.935E-03    -53.6052E-03     85.3511E-03
            1403     8.53017E-03     58.7668E-03    -26.0110E+06    -99.8344E+06    -1.88467E+06     213.343E+03    -55.0786E-03     108.864E-03    -53.7858E-03     79.2026E-03    -55.2677E-03     108.612E-03    -53.6127E-03     78.6673E-03
            1404     7.67719E-03     58.6907E-03    -28.5817E+06    -112.375E+06    -2.63283E+06     288.785E+03    -54.8746E-03     108.686E-03    -53.8119E-03     72.4939E-03    -55.0006E-03     108.320E-03    -53.6207E-03     72.0514E-03
            1405     6.82400E-03     58.6215E-03    -31.7282E+06    -123.373E+06    -4.57431E+06     211.240E+03    -54.6625E-03     108.494E-03    -53.8315E-03     65.5304E-03    -54.7426E-03     108.037E-03    -53.6295E-03     65.1673E-03
            1406     5.97103E-03     58.5594E-03    -35.3027E+06    -131.313E+06    -9.73490E+06     37.2154E+03    -54.4659E-03     108.298E-03    -53.8321E-03     58.2733E-03    -54.5124E-03     107.781E-03    -53.6392E-03     57.9781E-03
            1407     5.11792E-03     58.5047E-03    -39.0356E+06    -136.922E+06    -16.0956E+06     33.1925E+03    -54.2746E-03     108.099E-03    -53.8244E-03     50.7170E-03    -54.2980E-03     107.544E-03    -53.6497E-03     50.4828E-03
            1408     4.26493E-03     58.4577E-03    -42.9994E+06    -145.735E+06    -23.1787E+06     46.5310E+03    -54.1091E-03     107.928E-03    -53.8194E-03     42.8614E-03    -54.1113E-03     107.328E-03    -53.6617E-03     42.6802E-03
            1409     3.41185E-03     58.4189E-03    -46.9881E+06    -155.694E+06    -31.7374E+06    -51.3462E+03    -53.9884E-03     107.797E-03    -53.8083E-03     34.7242E-03    -53.9709E-03     107.152E-03    -53.6731E-03     34.5870E-03
            1410     2.55889E-03     58.3881E-03    -50.5237E+06    -161.844E+06    -40.8716E+06    -65.8693E+03    -53.8888E-03     107.674E-03    -53.7853E-03     26.3545E-03    -53.8579E-03     107.008E-03    -53.6817E-03     26.2563E-03
            1411     1.70591E-03     58.3661E-03    -53.3107E+06    -167.045E+06    -48.8794E+06     35.4729E+03    -53.7993E-03     107.567E-03    -53.7676E-03     17.9118E-03    -53.7574E-03     106.884E-03    -53.6925E-03     17.8492E-03
            1412     852.905E-06     58.3522E-03    -55.1601E+06    -170.514E+06    -54.1833E+06     34.5991E+03    -53.7420E-03     107.535E-03    -53.7930E-03     9.72217E-03    -53.6933E-03     106.843E-03    -53.7366E-03     9.68955E-03
            1413     16.2147E-03     58.8270E-03    -4.78695E+06     143.997E+06     97.1085E+06    -89.1812E+03    -55.1580E-03     108.852E-03    -53.6939E-03     110.980E-03    -58.2125E-03     112.119E-03    -53.4102E-03     110.877E-03
            1414     15.3584E-03     58.6554E-03    -8.64610E+06     142.467E+06     83.6017E+06     455.148E+03    -56.2963E-03     109.960E-03    -53.6635E-03     175.128E-03    -60.6939E-03     114.590E-03    -53.4395E-03     174.316E-03
            1415     14.5030E-03     58.4760E-03    -14.1964E+06     117.675E+06     38.6132E+06     1.25822E+06    -57.0102E-03     110.551E-03    -53.5403E-03     165.188E-03    -60.2628E-03     114.058E-03    -53.4973E-03     163.685E-03
            1416     13.6502E-03     58.3238E-03    -16.7447E+06     69.8458E+06     4.47227E+06     767.696E+03    -56.5477E-03     110.031E-03    -53.4831E-03     142.845E-03    -58.6082E-03     112.267E-03    -53.5377E-03     141.344E-03
            1417     12.7949E-03     58.1927E-03    -17.9312E+06     12.8785E+06    -1.10846E+06     53.2765E+03    -56.0386E-03     109.607E-03    -53.5684E-03     121.030E-03    -57.2683E-03     110.822E-03    -53.5666E-03     119.754E-03
            1418     11.9428E-03     58.0813E-03    -19.1835E+06    -26.1643E+06     676.736E+03        -329.619    -55.9118E-03     109.558E-03    -53.6462E-03     106.369E-03    -56.7039E-03     110.187E-03    -53.5771E-03     105.298E-03
            1419     11.0896E-03     57.9803E-03    -20.4398E+06    -53.8004E+06    -912.796E+03     61.2259E+03    -55.6587E-03     109.340E-03    -53.6815E-03     98.7742E-03    -56.2068E-03     109.627E-03    -53.5784E-03     97.8677E-03
            1420     10.2365E-03     57.8837E-03    -21.9441E+06    -73.8168E+06    -664.987E+03     110.954E+03    -55.4618E-03     109.182E-03    -53.7207E-03     92.9824E-03    -55.8501E-03     109.233E-03    -53.5851E-03     92.2180E-03
            1421     9.38341E-03     57.7942E-03    -23.7432E+06    -87.4808E+06    -148.551E+03     149.352E+03    -55.2628E-03     109.018E-03    -53.7550E-03     86.0602E-03    -55.5374E-03     108.898E-03    -53.5944E-03     85.4182E-03
            1422     8.53034E-03     57.7115E-03    -26.0358E+06    -99.7233E+06    -1.99083E+06     244.697E+03    -55.0529E-03     108.829E-03    -53.7761E-03     79.2698E-03    -55.2419E-03     108.577E-03    -53.6038E-03     78.7356E-03
            1423     7.67711E-03     57.6356E-03    -28.7199E+06    -112.441E+06    -2.88581E+06     199.054E+03    -54.8412E-03     108.646E-03    -53.8046E-03     72.5614E-03    -54.9672E-03     108.279E-03    -53.6143E-03     72.1187E-03
            1424     6.82413E-03     57.5663E-03    -31.7542E+06    -123.106E+06    -4.67798E+06     199.630E+03    -54.6451E-03     108.472E-03    -53.8269E-03     65.5905E-03    -54.7254E-03     108.016E-03    -53.6258E-03     65.2278E-03
            1425     5.97096E-03     57.5043E-03    -35.2575E+06    -131.174E+06    -9.80461E+06     96.1349E+03    -54.4533E-03     108.283E-03    -53.8297E-03     58.3266E-03    -54.4996E-03     107.767E-03    -53.6374E-03     58.0325E-03
            1426     5.11796E-03     57.4495E-03    -39.0381E+06    -137.029E+06    -16.2985E+06     87.2676E+03    -54.2630E-03     108.087E-03    -53.8237E-03     50.7603E-03    -54.2860E-03     107.532E-03    -53.6499E-03     50.5271E-03
            1427     4.26485E-03     57.4026E-03    -42.9618E+06    -145.642E+06    -23.0771E+06     145.506E+03    -54.1058E-03     107.927E-03    -53.8217E-03     42.8946E-03    -54.1081E-03     107.327E-03    -53.6636E-03     42.7148E-03
            1428     3.41188E-03     57.3636E-03    -46.9238E+06    -155.510E+06    -31.5378E+06     48.4250E+03    -53.9840E-03     107.796E-03    -53.8125E-03     34.7510E-03    -53.9667E-03     107.152E-03    -53.6766E-03     34.6151E-03
            1429     2.55886E-03     57.3330E-03    -50.5766E+06    -161.980E+06    -41.0779E+06     11.5051E+03    -53.8869E-03     107.677E-03    -53.7905E-03     26.3732E-03    -53.8558E-03     107.011E-03    -53.6877E-03     26.2762E-03
            1430     1.70590E-03     57.3108E-03    -53.4102E+06    -167.102E+06    -48.7821E+06     176.053E+03    -53.8045E-03     107.581E-03    -53.7761E-03     17.8736E-03    -53.7631E-03     106.898E-03    -53.7003E-03     17.8130E-03
            1431     852.890E-06     57.2973E-03    -55.1623E+06    -170.323E+06    -53.8102E+06     163.728E+03    -53.7391E-03     107.552E-03    -53.8133E-03     9.77474E-03    -53.6912E-03     106.860E-03    -53.7554E-03     9.74362E-03
            1432     16.2078E-03     57.7756E-03    -6.28956E+06     143.374E+06     96.0415E+06    -785.817E+03    -54.2457E-03     107.996E-03    -53.7505E-03     111.574E-03    -57.3386E-03     111.297E-03    -53.4691E-03     111.469E-03
            1433     15.3546E-03     57.5971E-03    -11.3646E+06     140.864E+06     81.6852E+06     235.637E+03    -57.2911E-03     111.013E-03    -53.7221E-03     176.170E-03    -61.7304E-03     115.675E-03    -53.5015E-03     175.311E-03
            1434     14.5030E-03     57.4230E-03    -13.9609E+06     117.663E+06     37.8953E+06     1.41087E+06    -57.2885E-03     110.856E-03    -53.5679E-03     165.331E-03    -60.5296E-03     114.356E-03    -53.5288E-03     163.824E-03
            1435     13.6476E-03     57.2674E-03    -15.6055E+06     70.9602E+06     3.83646E+06     791.114E+03    -56.8447E-03     110.338E-03    -53.4929E-03     142.796E-03    -58.9034E-03     112.582E-03    -53.5540E-03     141.286E-03
            1436     12.7969E-03     57.1378E-03    -16.9854E+06     13.4623E+06    -1.11771E+06     107.523E+03    -56.4214E-03     109.982E-03    -53.5602E-03     120.778E-03    -57.6505E-03     111.201E-03    -53.5607E-03     119.493E-03
            1437     11.9427E-03     57.0258E-03    -18.4772E+06    -26.0354E+06     615.509E+03     186.314E+03    -55.7861E-03     109.415E-03    -53.6292E-03     106.212E-03    -56.5713E-03     110.041E-03    -53.5616E-03     105.149E-03
            1438     11.0898E-03     56.9250E-03    -20.1339E+06    -53.7782E+06    -1.13185E+06     184.129E+03    -55.5808E-03     109.252E-03    -53.6708E-03     98.6880E-03    -56.1261E-03     109.538E-03    -53.5693E-03     97.7854E-03
            1439     10.2366E-03     56.8287E-03    -21.9932E+06    -73.6154E+06    -836.014E+03     170.927E+03    -55.4334E-03     109.148E-03    -53.7142E-03     93.0853E-03    -55.8217E-03     109.199E-03    -53.5797E-03     92.3230E-03
            1440     9.38341E-03     56.7389E-03    -24.0583E+06    -87.7048E+06    -598.882E+03     95.2016E+03    -55.2372E-03     108.988E-03    -53.7506E-03     86.1882E-03    -55.5123E-03     108.868E-03    -53.5915E-03     85.5465E-03
            1441     8.53025E-03     56.6564E-03    -26.2133E+06    -99.8147E+06    -2.18086E+06     192.961E+03    -55.0382E-03     108.813E-03    -53.7747E-03     79.3050E-03    -55.2276E-03     108.561E-03    -53.6029E-03     78.7706E-03
            1442     7.67722E-03     56.5803E-03    -28.7759E+06    -112.263E+06    -3.02199E+06     199.907E+03    -54.8258E-03     108.630E-03    -53.8046E-03     72.6112E-03    -54.9521E-03     108.265E-03    -53.6152E-03     72.1690E-03
            1443     6.82399E-03     56.5112E-03    -31.8762E+06    -123.093E+06    -4.90123E+06     85.0295E+03    -54.6336E-03     108.462E-03    -53.8288E-03     65.6402E-03    -54.7143E-03     108.007E-03    -53.6286E-03     65.2763E-03
            1444     5.97100E-03     56.4490E-03    -35.3615E+06    -131.086E+06    -9.88649E+06     157.964E+03    -54.4444E-03     108.278E-03    -53.8341E-03     58.3483E-03    -54.4912E-03     107.763E-03    -53.6422E-03     58.0552E-03
            1445     5.11786E-03     56.3944E-03    -39.1174E+06    -137.022E+06    -16.2578E+06     108.090E+03    -54.2618E-03     108.092E-03    -53.8305E-03     50.7777E-03    -54.2852E-03     107.538E-03    -53.6564E-03     50.5449E-03
            1446     4.26488E-03     56.3474E-03    -42.8763E+06    -145.615E+06    -23.0967E+06     55.4054E+03    -54.1120E-03     107.941E-03    -53.8287E-03     42.9110E-03    -54.1139E-03     107.340E-03    -53.6709E-03     42.7300E-03
            1447     3.41181E-03     56.3085E-03    -46.7080E+06    -155.556E+06    -31.6537E+06     219.025E+03    -53.9905E-03     107.810E-03    -53.8195E-03     34.7501E-03    -53.9719E-03     107.165E-03    -53.6845E-03     34.6163E-03
            1448     2.55883E-03     56.2778E-03    -50.4237E+06    -161.902E+06    -40.8759E+06     334.547E+03    -53.8936E-03     107.693E-03    -53.7997E-03     26.3690E-03    -53.8621E-03     107.027E-03    -53.6962E-03     26.2759E-03
            1449     1.70587E-03     56.2557E-03    -53.3999E+06    -166.892E+06    -48.4156E+06     83.6613E+03    -53.8346E-03     107.614E-03    -53.7792E-03     17.8558E-03    -53.7940E-03     106.932E-03    -53.7018E-03     17.7940E-03
            1450     852.992E-06     56.2420E-03    -55.0753E+06    -170.197E+06    -53.7220E+06    -109.518E+03    -53.7659E-03     107.541E-03    -53.7751E-03     9.82723E-03    -53.7179E-03     106.849E-03    -53.7170E-03     9.79241E-03
            1451     16.2078E-03     56.7184E-03    -4.92325E+06     143.848E+06     96.5920E+06     383.552E+03    -54.0330E-03     107.785E-03    -53.7520E-03     108.930E-03    -57.0579E-03     111.023E-03    -53.4704E-03     108.821E-03
            1452     15.3566E-03     56.5407E-03    -11.2701E+06     140.131E+06     80.0954E+06    -1.03441E+06    -56.9179E-03     110.640E-03    -53.7217E-03     173.035E-03    -61.2920E-03     115.239E-03    -53.5081E-03     172.159E-03
            1453     14.5016E-03     56.3684E-03    -15.0250E+06     116.168E+06     36.9164E+06    -765.068E+03    -57.3968E-03     110.968E-03    -53.5708E-03     164.194E-03    -60.6375E-03     114.460E-03    -53.5329E-03     162.657E-03
            1454     13.6502E-03     56.2117E-03    -16.1814E+06     71.4505E+06     4.77067E+06     568.105E+03    -57.0714E-03     110.559E-03    -53.4871E-03     142.485E-03    -59.1378E-03     112.807E-03    -53.5434E-03     140.963E-03
            1455     12.7954E-03     56.0818E-03    -17.0079E+06     13.7860E+06    -1.20057E+06     758.127E+03    -56.2834E-03     109.827E-03    -53.5440E-03     120.566E-03    -57.5106E-03     111.047E-03    -53.5453E-03     119.294E-03
            1456     11.9434E-03     55.9710E-03    -18.7584E+06    -26.0457E+06     424.062E+03     571.773E+03    -55.6962E-03     109.316E-03    -53.6200E-03     106.296E-03    -56.4825E-03     109.942E-03    -53.5529E-03     105.240E-03
            1457     11.0896E-03     55.8697E-03    -20.3163E+06    -53.4280E+06    -1.04260E+06     462.149E+03    -55.4816E-03     109.151E-03    -53.6696E-03     98.8968E-03    -56.0273E-03     109.438E-03    -53.5679E-03     98.0016E-03
            1458     10.2366E-03     55.7736E-03    -21.9994E+06    -73.4852E+06    -785.831E+03     262.446E+03    -55.4433E-03     109.160E-03    -53.7168E-03     93.1329E-03    -55.8323E-03     109.212E-03    -53.5823E-03     92.3712E-03
            1459     9.38336E-03     55.6838E-03    -23.9790E+06    -87.5825E+06    -552.415E+03     149.068E+03    -55.2335E-03     108.987E-03    -53.7532E-03     86.2239E-03    -55.5084E-03     108.867E-03    -53.5942E-03     85.5832E-03
            1460     8.53029E-03     55.6012E-03    -26.2418E+06    -99.9912E+06    -2.31025E+06     77.5236E+03    -55.0191E-03     108.798E-03    -53.7787E-03     79.3202E-03    -55.2082E-03     108.545E-03    -53.6072E-03     78.7846E-03
            1461     7.67706E-03     55.5253E-03    -28.7941E+06    -112.173E+06    -3.09271E+06     123.869E+03    -54.8327E-03     108.642E-03    -53.8096E-03     72.6492E-03    -54.9592E-03     108.277E-03    -53.6207E-03     72.2059E-03
            1462     6.82406E-03     55.4559E-03    -31.8816E+06    -123.103E+06    -4.92974E+06     151.989E+03    -54.6370E-03     108.471E-03    -53.8344E-03     65.6492E-03    -54.7176E-03     108.016E-03    -53.6343E-03     65.2862E-03
            1463     5.97087E-03     55.3939E-03    -35.4219E+06    -131.113E+06    -9.95584E+06     125.301E+03    -54.4432E-03     108.283E-03    -53.8402E-03     58.3407E-03    -54.4902E-03     107.768E-03    -53.6485E-03     58.0471E-03
            1464     5.11788E-03     55.3391E-03    -39.1055E+06    -136.844E+06    -15.9924E+06     81.8494E+03    -54.2637E-03     108.103E-03    -53.8388E-03     50.7788E-03    -54.2877E-03     107.548E-03    -53.6637E-03     50.5455E-03
            1465     4.26477E-03     55.2923E-03    -43.1354E+06    -145.690E+06    -23.0142E+06     42.1984E+03    -54.1193E-03     107.956E-03    -53.8372E-03     42.9080E-03    -54.1225E-03     107.356E-03    -53.6784E-03     42.7268E-03
            1466     3.41182E-03     55.2532E-03    -47.0959E+06    -155.799E+06    -31.7645E+06     208.637E+03    -54.0050E-03     107.831E-03    -53.8260E-03     34.7273E-03    -53.9879E-03     107.186E-03    -53.6906E-03     34.5932E-03
            1467     2.55883E-03     55.2227E-03    -50.3565E+06    -161.602E+06    -40.4602E+06     248.407E+03    -53.9020E-03     107.707E-03    -53.8053E-03     26.3582E-03    -53.8712E-03     107.041E-03    -53.7002E-03     26.2639E-03
            1468     1.70588E-03     55.2004E-03    -53.0020E+06    -166.542E+06    -48.1873E+06     49.2976E+03    -53.8409E-03     107.623E-03    -53.7817E-03     17.8665E-03    -53.7992E-03     106.941E-03    -53.7043E-03     17.8042E-03
            1469     852.924E-06     55.1869E-03    -55.0432E+06    -170.257E+06    -53.8946E+06    -42.2665E+03    -53.8053E-03     107.544E-03    -53.7387E-03     9.74702E-03    -53.7568E-03     106.852E-03    -53.6815E-03     9.71318E-03
            1470     16.2144E-03     55.6629E-03    -4.35347E+06     144.349E+06     97.2977E+06     731.227E+03    -54.4496E-03     108.160E-03    -53.7105E-03     110.619E-03    -57.4882E-03     111.414E-03    -53.4270E-03     110.527E-03
            1471     15.3564E-03     55.4896E-03    -9.77866E+06     142.041E+06     82.8288E+06     506.356E+03    -56.6042E-03     110.294E-03    -53.6895E-03     174.836E-03    -60.9955E-03     114.914E-03    -53.4671E-03     174.001E-03
            1472     14.5031E-03     55.3106E-03    -15.3389E+06     116.027E+06     37.5651E+06    -960.073E+03    -57.3989E-03     110.945E-03    -53.5459E-03     164.690E-03    -60.6505E-03     114.445E-03    -53.5041E-03     163.149E-03
            1473     13.6491E-03     55.1574E-03    -17.7276E+06     70.0943E+06     3.91324E+06    -496.089E+03    -56.8415E-03     110.306E-03    -53.4650E-03     142.544E-03    -58.9081E-03     112.548E-03    -53.5214E-03     141.019E-03
            1474     12.7969E-03     55.0262E-03    -18.6140E+06     13.3709E+06    -1.55597E+06     687.533E+03    -56.0296E-03     109.568E-03    -53.5381E-03     120.740E-03    -57.2617E-03     110.786E-03    -53.5382E-03     119.475E-03
            1475     11.9426E-03     54.9160E-03    -19.3000E+06    -25.7834E+06     382.690E+03     500.898E+03    -55.5967E-03     109.222E-03    -53.6251E-03     106.268E-03    -56.3857E-03     109.850E-03    -53.5579E-03     105.213E-03
            1476     11.0897E-03     54.8146E-03    -20.5093E+06    -53.3598E+06    -992.449E+03     272.883E+03    -55.5369E-03     109.214E-03    -53.6768E-03     99.0439E-03    -56.0848E-03     109.502E-03    -53.5747E-03     98.1448E-03
            1477     10.2364E-03     54.7183E-03    -21.9900E+06    -73.4198E+06    -705.156E+03     227.487E+03    -55.4572E-03     109.179E-03    -53.7219E-03     93.1273E-03    -55.8468E-03     109.232E-03    -53.5871E-03     92.3644E-03
            1478     9.38342E-03     54.6286E-03    -23.8756E+06    -87.4506E+06    -504.584E+03     171.037E+03    -55.2244E-03     108.982E-03    -53.7580E-03     86.1950E-03    -55.4991E-03     108.863E-03    -53.5991E-03     85.5545E-03
            1479     8.53011E-03     54.5461E-03    -26.2056E+06    -99.9075E+06    -2.33310E+06     113.129E+03    -55.0109E-03     108.796E-03    -53.7847E-03     79.3659E-03    -55.1998E-03     108.544E-03    -53.6135E-03     78.8310E-03
            1480     7.67710E-03     54.4699E-03    -28.8963E+06    -112.245E+06    -3.17342E+06     95.0815E+03    -54.8451E-03     108.661E-03    -53.8163E-03     72.6491E-03    -54.9721E-03     108.297E-03    -53.6275E-03     72.2051E-03
            1481     6.82392E-03     54.4008E-03    -31.9916E+06    -123.085E+06    -5.04897E+06     112.969E+03    -54.6491E-03     108.489E-03    -53.8400E-03     65.6467E-03    -54.7303E-03     108.034E-03    -53.6404E-03     65.2829E-03
            1482     5.97093E-03     54.3386E-03    -35.3573E+06    -131.048E+06    -9.86110E+06     71.6666E+03    -54.4545E-03     108.300E-03    -53.8458E-03     58.3382E-03    -54.5015E-03     107.785E-03    -53.6538E-03     58.0438E-03
            1483     5.11779E-03     54.2841E-03    -39.1466E+06    -136.869E+06    -16.0104E+06     119.095E+03    -54.2752E-03     108.118E-03    -53.8430E-03     50.7623E-03    -54.2994E-03     107.564E-03    -53.6678E-03     50.5293E-03
            1484     4.26481E-03     54.2369E-03    -43.2231E+06    -145.666E+06    -22.9272E+06     217.768E+03    -54.1247E-03     107.966E-03    -53.8409E-03     42.8790E-03    -54.1285E-03     107.365E-03    -53.6816E-03     42.6998E-03
            1485     3.41178E-03     54.1981E-03    -47.1342E+06    -155.620E+06    -31.5953E+06    -61.0569E+03    -54.0035E-03     107.833E-03    -53.8300E-03     34.7225E-03    -53.9871E-03     107.189E-03    -53.6939E-03     34.5850E-03
            1486     2.55883E-03     54.1674E-03    -50.4281E+06    -161.623E+06    -40.6328E+06    -230.992E+03    -53.9053E-03     107.714E-03    -53.8085E-03     26.3767E-03    -53.8746E-03     107.048E-03    -53.7041E-03     26.2763E-03
            1487     1.70586E-03     54.1453E-03    -53.1023E+06    -166.601E+06    -48.1869E+06     87.8461E+03    -53.8378E-03     107.626E-03    -53.7882E-03     17.8825E-03    -53.7965E-03     106.945E-03    -53.7106E-03     17.8207E-03
            1488     852.965E-06     54.1315E-03    -54.9160E+06    -170.071E+06    -53.5905E+06     141.740E+03    -53.8146E-03     107.562E-03    -53.7475E-03     9.70517E-03    -53.7662E-03     106.871E-03    -53.6893E-03     9.67378E-03
            1489     16.2064E-03     54.6106E-03    -4.97079E+06     143.551E+06     96.9373E+06    -22.2160E+03    -54.6316E-03     108.351E-03    -53.7198E-03     109.563E-03    -57.6763E-03     111.607E-03    -53.4360E-03     109.437E-03
            1490     15.3563E-03     54.4308E-03    -9.56271E+06     142.420E+06     82.9344E+06     622.238E+03    -57.1407E-03     110.818E-03    -53.6768E-03     174.497E-03    -61.5384E-03     115.446E-03    -53.4548E-03     173.637E-03
            1491     14.5034E-03     54.2578E-03    -13.3244E+06     117.287E+06     37.1053E+06     984.598E+03    -57.1062E-03     110.625E-03    -53.5190E-03     164.838E-03    -60.3407E-03     114.121E-03    -53.4842E-03     163.338E-03
            1492     13.6499E-03     54.1008E-03    -16.8651E+06     69.0289E+06     2.00659E+06     197.894E+03    -56.5718E-03     110.027E-03    -53.4548E-03     143.149E-03    -58.6339E-03     112.268E-03    -53.5204E-03     141.641E-03
            1493     12.7958E-03     53.9720E-03    -18.4523E+06     13.1534E+06    -1.81310E+06    -174.386E+03    -56.0444E-03     109.591E-03    -53.5461E-03     120.903E-03    -57.2777E-03     110.810E-03    -53.5475E-03     119.624E-03
            1494     11.9429E-03     53.8605E-03    -19.2179E+06    -25.2173E+06     369.119E+03     39.7670E+03    -55.6293E-03     109.262E-03    -53.6328E-03     106.383E-03    -56.4196E-03     109.894E-03    -53.5665E-03     105.321E-03
            1495     11.0895E-03     53.7596E-03    -20.5732E+06    -53.5592E+06    -1.48709E+06     95.5715E+03    -55.5777E-03     109.259E-03    -53.6814E-03     99.0237E-03    -56.1260E-03     109.549E-03    -53.5813E-03     98.1203E-03
            1496     10.2365E-03     53.6629E-03    -22.1129E+06    -73.4449E+06    -913.210E+03     160.323E+03    -55.4502E-03     109.177E-03    -53.7269E-03     93.1462E-03    -55.8401E-03     109.230E-03    -53.5929E-03     92.3825E-03
            1497     9.38321E-03     53.5736E-03    -24.1066E+06    -87.3573E+06    -697.433E+03     213.621E+03    -55.2250E-03     108.989E-03    -53.7639E-03     86.1756E-03    -55.5009E-03     108.871E-03    -53.6057E-03     85.5351E-03
            1498     8.53018E-03     53.4908E-03    -26.4630E+06    -99.7713E+06    -2.49182E+06     151.302E+03    -55.0387E-03     108.828E-03    -53.7897E-03     79.3729E-03    -55.2291E-03     108.578E-03    -53.6191E-03     78.8379E-03
            1499     7.67697E-03     53.4149E-03    -29.0712E+06    -112.202E+06    -3.27815E+06     65.2684E+03    -54.8482E-03     108.669E-03    -53.8204E-03     72.6186E-03    -54.9760E-03     108.304E-03    -53.6319E-03     72.1740E-03
            1500     6.82396E-03     53.3455E-03    -32.0801E+06    -123.016E+06    -5.27578E+06    -60.8364E+03    -54.6524E-03     108.496E-03    -53.8433E-03     65.6216E-03    -54.7338E-03     108.042E-03    -53.6447E-03     65.2554E-03
            1501     5.97081E-03     53.2835E-03    -35.4866E+06    -131.118E+06    -10.1636E+06    -27.4520E+03    -54.4711E-03     108.319E-03    -53.8479E-03     58.3265E-03    -54.5182E-03     107.804E-03    -53.6572E-03     58.0305E-03
            1502     5.11786E-03     53.2287E-03    -39.0969E+06    -137.030E+06    -16.3263E+06     150.927E+03    -54.2904E-03     108.133E-03    -53.8429E-03     50.7532E-03    -54.3137E-03     107.579E-03    -53.6691E-03     50.5204E-03
            1503     4.26479E-03     53.1818E-03    -42.7680E+06    -145.435E+06    -23.0189E+06     74.8867E+03    -54.1251E-03     107.965E-03    -53.8398E-03     42.8789E-03    -54.1268E-03     107.365E-03    -53.6820E-03     42.6979E-03
            1504     3.41180E-03     53.1428E-03    -46.4642E+06    -155.313E+06    -31.5864E+06    -91.9508E+03    -54.0012E-03     107.831E-03    -53.8299E-03     34.7150E-03    -53.9819E-03     107.187E-03    -53.6953E-03     34.5770E-03
            1505     2.55878E-03     53.1123E-03    -50.1778E+06    -161.888E+06    -41.1391E+06    -61.3985E+03    -53.9044E-03     107.714E-03    -53.8091E-03     26.3554E-03    -53.8714E-03     107.047E-03    -53.7073E-03     26.2571E-03
            1506     1.70587E-03     53.0900E-03    -53.0614E+06    -166.807E+06    -48.5930E+06    -52.9192E+03    -53.8301E-03     107.625E-03    -53.7950E-03     17.8806E-03    -53.7877E-03     106.943E-03    -53.7191E-03     17.8170E-03
            1507     852.886E-06     53.0765E-03    -54.5792E+06    -169.838E+06    -53.3717E+06    -5.92269E+03    -53.8117E-03     107.589E-03    -53.7774E-03     9.70587E-03    -53.7622E-03     106.898E-03    -53.7189E-03     9.67267E-03
            1508     16.2137E-03     53.5535E-03    -4.75994E+06     143.536E+06     96.8629E+06    -129.448E+03    -54.7635E-03     108.486E-03    -53.7222E-03     109.653E-03    -57.8176E-03     111.752E-03    -53.4391E-03     109.527E-03
            1509     15.3583E-03     53.3773E-03    -10.4436E+06     141.473E+06     80.5521E+06    -15.2550E+03    -56.9392E-03     110.613E-03    -53.6736E-03     174.955E-03    -61.3471E-03     115.252E-03    -53.4608E-03     174.111E-03
            1510     14.5031E-03     53.2024E-03    -14.2835E+06     116.723E+06     35.7709E+06      1.0467E+06    -57.0118E-03     110.545E-03    -53.5327E-03     165.861E-03    -60.2630E-03     114.056E-03    -53.5024E-03     164.368E-03
            1511     13.6489E-03     53.0466E-03    -15.7822E+06     70.6216E+06     3.78487E+06     1.06817E+06    -56.7224E-03     110.203E-03    -53.4806E-03     143.668E-03    -58.7951E-03     112.459E-03    -53.5412E-03     142.163E-03
            1512     12.7960E-03     52.9160E-03    -17.2056E+06     13.5607E+06    -1.49467E+06     54.8036E+03    -56.1391E-03     109.700E-03    -53.5605E-03     120.793E-03    -57.3667E-03     110.919E-03    -53.5627E-03     119.515E-03
            1513     11.9427E-03     52.8057E-03    -19.1135E+06    -25.6583E+06     108.462E+03    -24.9480E+03    -55.7483E-03     109.389E-03    -53.6405E-03     106.347E-03    -56.5388E-03     110.020E-03    -53.5750E-03     105.280E-03
            1514     11.0896E-03     52.7040E-03    -20.6345E+06    -53.4696E+06    -1.43907E+06     160.005E+03    -55.5679E-03     109.255E-03    -53.6866E-03     99.0312E-03    -56.1169E-03     109.545E-03    -53.5863E-03     98.1282E-03
            1515     10.2363E-03     52.6080E-03    -22.3025E+06    -73.6004E+06    -1.07779E+06     107.911E+03    -55.4402E-03     109.173E-03    -53.7327E-03     93.0963E-03    -55.8305E-03     109.226E-03    -53.5990E-03     92.3318E-03
            1516     9.38325E-03     52.5182E-03    -24.1730E+06    -87.2883E+06    -605.595E+03     170.907E+03    -55.2588E-03     109.028E-03    -53.7696E-03     86.1577E-03    -55.5354E-03     108.911E-03    -53.6110E-03     85.5159E-03
            1517     8.53007E-03     52.4357E-03    -26.2893E+06     -99.608E+06    -2.44235E+06     133.228E+03    -55.0639E-03     108.856E-03    -53.7922E-03     79.3324E-03    -55.2540E-03     108.606E-03    -53.6218E-03     78.7964E-03
            1518     7.67706E-03     52.3595E-03    -28.8541E+06    -112.066E+06    -3.26846E+06    -34.4774E+03    -54.8547E-03     108.676E-03    -53.8211E-03     72.5991E-03    -54.9816E-03     108.312E-03    -53.6331E-03     72.1530E-03
            1519     6.82389E-03     52.2904E-03    -31.9526E+06    -122.945E+06    -5.18184E+06    -55.9492E+03    -54.6602E-03     108.504E-03    -53.8439E-03     65.5986E-03    -54.7411E-03     108.050E-03    -53.6452E-03     65.2323E-03
            1520     5.97090E-03     52.2281E-03    -35.4688E+06    -131.256E+06    -10.3671E+06    -69.9297E+03    -54.4739E-03     108.321E-03    -53.8468E-03     58.3057E-03    -54.5204E-03     107.805E-03    -53.6569E-03     58.0092E-03
            1521     5.11780E-03     52.1736E-03    -38.9804E+06    -137.091E+06    -16.5387E+06    -129.045E+03    -54.2858E-03     108.127E-03    -53.8416E-03     50.7351E-03    -54.3081E-03     107.573E-03    -53.6690E-03     50.4989E-03
            1522     4.26480E-03     52.1265E-03    -42.6164E+06    -145.328E+06    -22.9627E+06    -103.961E+03    -54.1251E-03     107.965E-03    -53.8401E-03     42.8757E-03    -54.1263E-03     107.366E-03    -53.6824E-03     42.6925E-03
            1523     3.41178E-03     52.0877E-03    -46.5678E+06    -155.506E+06    -31.7764E+06     121.821E+03    -54.0073E-03     107.836E-03    -53.8291E-03     34.7106E-03    -53.9879E-03     107.192E-03    -53.6950E-03     34.5753E-03
            1524     2.55885E-03     52.0569E-03    -49.9781E+06    -161.828E+06    -41.0551E+06     257.653E+03    -53.9025E-03     107.711E-03    -53.8083E-03     26.3428E-03    -53.8686E-03     107.044E-03    -53.7065E-03     26.2485E-03
            1525     1.70583E-03     52.0349E-03    -52.6735E+06    -166.627E+06    -48.4543E+06     109.014E+03    -53.8348E-03     107.628E-03    -53.7930E-03     17.8639E-03    -53.7909E-03     106.946E-03    -53.7173E-03     17.8024E-03
            1526     852.914E-06     52.0211E-03    -54.5784E+06    -169.902E+06    -53.5023E+06    -127.952E+03    -53.8080E-03     107.583E-03    -53.7746E-03     9.68669E-03    -53.7582E-03     106.891E-03    -53.7166E-03     9.65186E-03
            1527     16.2069E-03     52.4964E-03    -4.85933E+06     143.338E+06     96.3995E+06     71.3605E+03    -53.9614E-03     107.718E-03    -53.7563E-03     111.156E-03    -57.0325E-03     111.001E-03    -53.4751E-03     111.068E-03
            1528     15.3546E-03     52.3222E-03    -11.2453E+06     141.071E+06     81.5145E+06     621.279E+03    -56.9345E-03     110.677E-03    -53.7425E-03     175.625E-03    -61.3685E-03     115.335E-03    -53.5231E-03     174.795E-03
            1529     14.5017E-03     52.1473E-03    -15.4293E+06     116.564E+06     38.0781E+06     82.4741E+03    -57.6812E-03     111.274E-03    -53.5927E-03     165.903E-03    -60.9596E-03     114.801E-03    -53.5490E-03     164.361E-03
            1530     13.6492E-03     51.9908E-03    -16.9894E+06     71.0160E+06     4.91131E+06     16.2715E+03    -57.0561E-03     110.560E-03    -53.5036E-03     143.113E-03    -59.1383E-03     112.819E-03    -53.5574E-03     141.581E-03
            1531     12.7957E-03     51.8611E-03    -17.7005E+06     13.8541E+06    -1.00563E+06     601.345E+03    -56.1381E-03     109.706E-03    -53.5674E-03     120.536E-03    -57.3656E-03     110.922E-03    -53.5669E-03     119.267E-03
            1532     11.9427E-03     51.7500E-03    -18.9323E+06    -25.8923E+06     381.635E+03     314.803E+03    -55.7168E-03     109.364E-03    -53.6469E-03     106.284E-03    -56.5065E-03     109.993E-03    -53.5800E-03     105.222E-03
            1533     11.0895E-03     51.6491E-03    -20.4182E+06    -53.3693E+06    -1.08569E+06     184.205E+03    -55.6090E-03     109.302E-03    -53.6925E-03     98.9391E-03    -56.1579E-03     109.592E-03    -53.5909E-03     98.0350E-03
            1534     10.2364E-03     51.5526E-03    -22.0361E+06    -73.4276E+06    -850.064E+03     106.282E+03    -55.4649E-03     109.200E-03    -53.7352E-03     93.0498E-03    -55.8543E-03     109.253E-03    -53.6010E-03     92.2848E-03
            1535     9.38316E-03     51.4631E-03    -23.9190E+06    -87.3419E+06    -615.854E+03     12.6141E+03    -55.2702E-03     109.040E-03    -53.7697E-03     86.1115E-03    -55.5454E-03     108.922E-03    -53.6115E-03     85.4675E-03
            1536     8.53016E-03     51.3803E-03    -26.0271E+06    -99.5219E+06    -2.33910E+06     20.8579E+03    -55.0612E-03     108.853E-03    -53.7922E-03     79.2905E-03    -55.2502E-03     108.603E-03    -53.6219E-03     78.7530E-03
            1537     7.67696E-03     51.3045E-03    -28.6116E+06    -111.957E+06    -3.11870E+06     22.0411E+03    -54.8668E-03     108.688E-03    -53.8208E-03     72.5925E-03    -54.9928E-03     108.324E-03    -53.6326E-03     72.1471E-03
            1538     6.82398E-03     51.2350E-03    -31.7488E+06    -122.981E+06    -5.03375E+06    -4.53179E+03    -54.6706E-03     108.513E-03    -53.8424E-03     65.5884E-03    -54.7507E-03     108.058E-03    -53.6432E-03     65.2228E-03
            1539     5.97086E-03     51.1731E-03    -35.2173E+06    -131.149E+06    -10.0838E+06    -59.4043E+03    -54.4709E-03     108.316E-03    -53.8451E-03     58.2985E-03    -54.5166E-03     107.800E-03    -53.6543E-03     58.0023E-03
            1540     5.11786E-03     51.1183E-03    -38.9572E+06    -137.006E+06    -16.4390E+06    -215.513E+03    -54.2820E-03     108.121E-03    -53.8395E-03     50.7125E-03    -54.3043E-03     107.567E-03    -53.6665E-03     50.4754E-03
            1541     4.26479E-03     51.0714E-03    -42.9321E+06    -145.655E+06    -23.2476E+06    -90.2780E+03    -54.1221E-03     107.959E-03    -53.8370E-03     42.8487E-03    -54.1240E-03     107.359E-03    -53.6798E-03     42.6657E-03
            1542     3.41180E-03     51.0324E-03    -46.6838E+06    -155.739E+06    -32.0507E+06     156.778E+03    -54.0005E-03     107.827E-03    -53.8262E-03     34.6967E-03    -53.9810E-03     107.181E-03    -53.6929E-03     34.5619E-03
            1543     2.55879E-03     51.0019E-03    -50.0097E+06    -161.720E+06    -40.7797E+06     242.915E+03    -53.9078E-03     107.714E-03    -53.8066E-03     26.3370E-03    -53.8746E-03     107.048E-03    -53.7035E-03     26.2425E-03
            1544     1.70589E-03     50.9796E-03    -52.7370E+06    -166.268E+06    -47.6527E+06     230.957E+03    -53.8440E-03     107.631E-03    -53.7869E-03     17.8746E-03    -53.8021E-03     106.950E-03    -53.7076E-03     17.8146E-03
            1545     852.983E-06     50.9660E-03    -54.5512E+06    -169.809E+06    -53.2856E+06     41.8722E+03    -53.7643E-03     107.553E-03    -53.7890E-03     9.67354E-03    -53.7148E-03     106.862E-03    -53.7301E-03     9.64105E-03
            1546     16.2109E-03     51.4443E-03    -4.79303E+06     143.074E+06     96.5682E+06     650.495E+03    -53.9534E-03     107.728E-03    -53.7746E-03     109.896E-03    -56.9765E-03     110.962E-03    -53.4923E-03     109.803E-03
            1547     15.3547E-03     51.2660E-03    -10.5409E+06     141.234E+06     81.3764E+06     275.495E+03    -57.1085E-03     110.856E-03    -53.7472E-03     173.382E-03    -61.4826E-03     115.458E-03    -53.5298E-03     172.517E-03
            1548     14.5022E-03     51.0910E-03    -14.1950E+06     117.079E+06     37.5973E+06    -179.222E+03    -57.6856E-03     111.267E-03    -53.5817E-03     164.373E-03    -60.9401E-03     114.778E-03    -53.5429E-03     162.823E-03
            1549     13.6490E-03     50.9352E-03    -16.7031E+06     70.1942E+06     3.99863E+06    -109.388E+03    -56.8861E-03     110.380E-03    -53.4935E-03     142.380E-03    -58.9538E-03     112.626E-03    -53.5511E-03     140.853E-03
            1550     12.7962E-03     50.8060E-03    -17.9017E+06     13.4788E+06    -1.36123E+06     341.563E+03    -56.0447E-03     109.612E-03    -53.5672E-03     120.686E-03    -57.2728E-03     110.828E-03    -53.5676E-03     119.416E-03
            1551     11.9425E-03     50.6949E-03    -18.6976E+06    -25.3204E+06     552.859E+03     391.607E+03    -55.7536E-03     109.403E-03    -53.6497E-03     106.391E-03    -56.5438E-03     110.036E-03    -53.5831E-03     105.328E-03
            1552     11.0895E-03     50.5936E-03    -20.0936E+06    -53.3384E+06    -1.08439E+06     199.064E+03    -55.6346E-03     109.328E-03    -53.6930E-03     98.7984E-03    -56.1817E-03     109.617E-03    -53.5919E-03     97.8939E-03
            1553     10.2363E-03     50.4975E-03    -21.7318E+06    -73.2018E+06    -677.957E+03     131.070E+03    -55.4803E-03     109.215E-03    -53.7344E-03     93.0194E-03    -55.8687E-03     109.268E-03    -53.6002E-03     92.2545E-03
            1554     9.38332E-03     50.4077E-03    -23.7277E+06    -87.2612E+06    -559.212E+03     38.9628E+03    -55.2555E-03     109.024E-03    -53.7688E-03     86.1486E-03    -55.5298E-03     108.906E-03    -53.6106E-03     85.5053E-03
            1555     8.53007E-03     50.3253E-03    -26.0719E+06    -99.5832E+06    -2.38214E+06    -17.6463E+03    -55.0721E-03     108.864E-03    -53.7915E-03     79.3074E-03    -55.2611E-03     108.613E-03    -53.6213E-03     78.7695E-03
            1556     7.67707E-03     50.2490E-03    -28.6534E+06    -111.979E+06    -3.10884E+06     29.3631E+03    -54.8840E-03     108.703E-03    -53.8187E-03     72.5677E-03    -55.0101E-03     108.339E-03    -53.6303E-03     72.1224E-03
            1557     6.82394E-03     50.1800E-03    -31.7204E+06    -122.954E+06    -4.96354E+06     16.6523E+03    -54.6725E-03     108.511E-03    -53.8388E-03     65.5520E-03    -54.7524E-03     108.057E-03    -53.6394E-03     65.1868E-03
            1558     5.97092E-03     50.1177E-03    -35.2302E+06    -131.010E+06    -9.99598E+06    -38.2559E+03    -54.4705E-03     108.311E-03    -53.8406E-03     58.2650E-03    -54.5166E-03     107.796E-03    -53.6496E-03     57.9692E-03
            1559     5.11784E-03     50.0632E-03    -39.0033E+06    -136.961E+06    -16.3035E+06    -32.9382E+03    -54.2836E-03     108.118E-03    -53.8343E-03     50.6887E-03    -54.3063E-03     107.563E-03    -53.6607E-03     50.4540E-03
            1560     4.26485E-03     50.0161E-03    -42.8803E+06    -145.856E+06    -23.4582E+06    -62.8453E+03    -54.1272E-03     107.956E-03    -53.8284E-03     42.8164E-03    -54.1282E-03     107.355E-03    -53.6720E-03     42.6340E-03
            1561     3.41181E-03     49.9773E-03    -46.6199E+06    -155.972E+06    -32.3167E+06     72.2852E+03    -54.0023E-03     107.817E-03    -53.8145E-03     34.6460E-03    -53.9817E-03     107.171E-03    -53.6823E-03     34.5102E-03
            1562     2.55885E-03     49.9466E-03    -49.8569E+06    -161.602E+06    -40.6807E+06     165.097E+03    -53.8968E-03     107.691E-03    -53.7943E-03     26.2978E-03    -53.8631E-03     107.025E-03    -53.6911E-03     26.2025E-03
            1563     1.70588E-03     49.9244E-03    -52.5018E+06    -166.087E+06    -47.5960E+06     70.4206E+03    -53.8128E-03     107.593E-03    -53.7803E-03     17.8614E-03    -53.7701E-03     106.912E-03    -53.7013E-03     17.7994E-03
            1564     852.897E-06     49.9107E-03    -54.2956E+06    -169.615E+06    -53.0465E+06     153.656E+03    -53.7824E-03     107.555E-03    -53.7723E-03     9.66475E-03    -53.7323E-03     106.864E-03    -53.7128E-03     9.63374E-03
            1565     16.2080E-03     50.3857E-03    -4.80923E+06     143.162E+06     96.9218E+06     584.757E+03    -54.8087E-03     108.540E-03    -53.7316E-03     109.518E-03    -57.8186E-03     111.760E-03    -53.4476E-03     109.406E-03
            1566     15.3579E-03     50.2129E-03    -9.19559E+06     142.333E+06     81.7047E+06     236.923E+03    -56.8956E-03     110.577E-03    -53.6815E-03     173.653E-03    -61.2468E-03     115.164E-03    -53.4660E-03     172.794E-03
            1567     14.5031E-03     50.0348E-03    -13.7829E+06     116.832E+06     35.0582E+06     334.919E+03    -57.0273E-03     110.559E-03    -53.5315E-03     165.293E-03    -60.2699E-03     114.066E-03    -53.5056E-03     163.780E-03
            1568     13.6497E-03     49.8809E-03    -16.2488E+06     70.0585E+06     2.52216E+06     484.422E+03    -56.6043E-03     110.083E-03    -53.4787E-03     142.553E-03    -58.6637E-03     112.326E-03    -53.5441E-03     141.045E-03
            1569     12.7952E-03     49.7506E-03    -17.5724E+06     13.5649E+06    -1.39774E+06     138.316E+03    -56.0916E-03     109.659E-03    -53.5672E-03     120.702E-03    -57.3207E-03     110.878E-03    -53.5683E-03     119.425E-03
            1570     11.9427E-03     49.6394E-03    -18.8990E+06    -25.2128E+06     560.906E+03     136.280E+03    -55.7565E-03     109.405E-03    -53.6488E-03     106.302E-03    -56.5464E-03     110.037E-03    -53.5820E-03     105.238E-03
            1571     11.0895E-03     49.5385E-03    -20.1916E+06    -53.2476E+06    -980.715E+03     140.053E+03    -55.6082E-03     109.301E-03    -53.6930E-03     98.7699E-03    -56.1555E-03     109.591E-03    -53.5915E-03     97.8654E-03
            1572     10.2364E-03     49.4421E-03    -21.7470E+06    -73.2321E+06    -584.502E+03     131.780E+03    -55.4624E-03     109.199E-03    -53.7362E-03     93.0415E-03    -55.8508E-03     109.252E-03    -53.6014E-03     92.2772E-03
            1573     9.38311E-03     49.3527E-03    -23.6959E+06    -87.1124E+06    -386.903E+03     105.670E+03    -55.2853E-03     109.056E-03    -53.7702E-03     86.1761E-03    -55.5599E-03     108.938E-03    -53.6115E-03     85.5336E-03
            1574     8.53015E-03     49.2698E-03    -25.8965E+06    -99.5664E+06    -2.22911E+06     24.6714E+03    -55.1082E-03     108.898E-03    -53.7897E-03     79.2699E-03    -55.2964E-03     108.647E-03    -53.6189E-03     78.7324E-03
            1575     7.67704E-03     49.1940E-03    -28.5409E+06    -112.016E+06    -2.99390E+06     28.2679E+03    -54.8982E-03     108.712E-03    -53.8136E-03     72.5042E-03    -55.0237E-03     108.347E-03    -53.6248E-03     72.0589E-03
            1576     6.82404E-03     49.1246E-03    -31.6867E+06    -122.907E+06    -4.79717E+06     66.0389E+03    -54.6825E-03     108.514E-03    -53.8316E-03     65.4973E-03    -54.7625E-03     108.059E-03    -53.6314E-03     65.1328E-03
            1577     5.97095E-03     49.0626E-03    -35.2156E+06    -130.939E+06    -9.85965E+06     46.9812E+03    -54.4770E-03     108.308E-03    -53.8306E-03     58.1928E-03    -54.5232E-03     107.793E-03    -53.6389E-03     57.8982E-03
            1578     5.11793E-03     49.0079E-03    -38.9638E+06    -136.993E+06    -16.3310E+06     6.31859E+03    -54.2818E-03     108.103E-03    -53.8211E-03     50.6202E-03    -54.3042E-03     107.548E-03    -53.6476E-03     50.3862E-03
            1579     4.26487E-03     48.9610E-03    -42.9072E+06    -145.891E+06    -23.4148E+06     93.6739E+03    -54.1256E-03     107.939E-03    -53.8130E-03     42.7549E-03    -54.1266E-03     107.337E-03    -53.6563E-03     42.5746E-03
            1580     3.41193E-03     48.9220E-03    -46.7438E+06    -155.938E+06    -32.1806E+06        -633.832    -53.9962E-03     107.792E-03    -53.7962E-03     34.6134E-03    -53.9764E-03     107.146E-03    -53.6632E-03     34.4769E-03
            1581     2.55893E-03     48.8915E-03    -49.9203E+06    -161.606E+06    -40.7571E+06    -114.583E+03    -53.8700E-03     107.644E-03    -53.7742E-03     26.2912E-03    -53.8365E-03     106.978E-03    -53.6713E-03     26.1925E-03
            1582     1.70590E-03     48.8692E-03    -52.4067E+06    -166.135E+06    -47.7774E+06     22.4710E+03    -53.7858E-03     107.549E-03    -53.7635E-03     17.8375E-03    -53.7423E-03     106.869E-03    -53.6856E-03     17.7749E-03
            1583     852.924E-06     48.8556E-03    -54.2147E+06    -169.472E+06    -52.9429E+06     125.689E+03    -53.8066E-03     107.529E-03    -53.7228E-03     9.70940E-03    -53.7565E-03     106.839E-03    -53.6631E-03     9.67779E-03
            1584     16.2137E-03     49.3322E-03    -5.98081E+06     142.262E+06     95.8534E+06    -391.421E+03    -54.6257E-03     108.343E-03    -53.7173E-03     110.558E-03    -57.6594E-03     111.583E-03    -53.4356E-03     110.444E-03
            1585     15.3563E-03     49.1569E-03    -9.92349E+06     142.222E+06     83.2574E+06     706.282E+03    -56.7945E-03     110.485E-03    -53.6910E-03     175.026E-03    -61.1721E-03     115.091E-03    -53.4665E-03     174.187E-03
            1586     14.5029E-03     48.9815E-03    -13.8894E+06     117.398E+06     37.8509E+06     1.27359E+06    -57.0375E-03     110.591E-03    -53.5535E-03     166.288E-03    -60.2875E-03     114.099E-03    -53.5143E-03     164.796E-03
            1587     13.6483E-03     48.8248E-03    -16.2787E+06     70.5925E+06     3.81821E+06     606.549E+03    -56.7563E-03     110.249E-03    -53.4927E-03     143.183E-03    -58.8233E-03     112.498E-03    -53.5523E-03     141.672E-03
            1588     12.7967E-03     48.6957E-03    -17.5385E+06     14.2458E+06    -639.201E+03     45.2207E+03    -56.2427E-03     109.813E-03    -53.5699E-03     120.645E-03    -57.4747E-03     111.035E-03    -53.5683E-03     119.363E-03
            1589     11.9426E-03     48.5841E-03    -18.6406E+06    -25.3822E+06     750.627E+03        -560.385    -55.6911E-03     109.338E-03    -53.6469E-03     106.423E-03    -56.4779E-03     109.966E-03    -53.5793E-03     105.360E-03
            1590     11.0895E-03     48.4831E-03    -20.0063E+06    -53.4202E+06    -852.754E+03     129.713E+03    -55.5700E-03     109.265E-03    -53.6952E-03     98.7788E-03    -56.1156E-03     109.553E-03    -53.5930E-03     97.8757E-03
            1591     10.2362E-03     48.3871E-03    -21.6376E+06    -73.1666E+06    -503.284E+03     158.591E+03    -55.5189E-03     109.256E-03    -53.7371E-03     92.9992E-03    -55.9071E-03     109.309E-03    -53.6022E-03     92.2345E-03
            1592     9.38329E-03     48.2972E-03    -23.5735E+06    -87.0415E+06    -308.222E+03     97.1278E+03    -55.3429E-03     109.109E-03    -53.7656E-03     86.0621E-03    -55.6171E-03     108.991E-03    -53.6068E-03     85.4186E-03
            1593     8.53018E-03     48.2147E-03    -25.9071E+06    -99.5077E+06    -2.23209E+06     95.9526E+03    -55.1184E-03     108.899E-03    -53.7806E-03     79.1626E-03    -55.3065E-03     108.648E-03    -53.6099E-03     78.6261E-03
            1594     7.67717E-03     48.1386E-03    -28.5983E+06    -112.058E+06    -2.98278E+06     108.128E+03    -54.9067E-03     108.709E-03    -53.8024E-03     72.4150E-03    -55.0323E-03     108.344E-03    -53.6133E-03     71.9709E-03
            1595     6.82409E-03     48.0695E-03    -31.7597E+06    -122.848E+06    -4.90567E+06     96.7404E+03    -54.6976E-03     108.514E-03    -53.8162E-03     65.4115E-03    -54.7778E-03     108.059E-03    -53.6166E-03     65.0475E-03
            1596     5.97109E-03     48.0073E-03    -35.2401E+06    -130.914E+06    -9.83315E+06     60.7117E+03    -54.4872E-03     108.299E-03    -53.8115E-03     58.1067E-03    -54.5335E-03     107.784E-03    -53.6197E-03     57.8123E-03
            1597     5.11805E-03     47.9528E-03    -38.9939E+06    -137.005E+06    -16.3605E+06     119.223E+03    -54.2822E-03     108.079E-03    -53.7973E-03     50.5391E-03    -54.3047E-03     107.525E-03    -53.6239E-03     50.3067E-03
            1598     4.26503E-03     47.9058E-03    -42.8087E+06    -145.888E+06    -23.5535E+06     82.0687E+03    -54.1045E-03     107.890E-03    -53.7855E-03     42.6879E-03    -54.1048E-03     107.289E-03    -53.6297E-03     42.5077E-03
            1599     3.41196E-03     47.8669E-03    -46.4049E+06    -155.709E+06    -32.0731E+06    -4.44668E+03    -53.9626E-03     107.732E-03    -53.7696E-03     34.5458E-03    -53.9415E-03     107.087E-03    -53.6369E-03     34.4094E-03
            1600     2.55894E-03     47.8363E-03    -49.8694E+06    -161.644E+06    -40.8249E+06    -75.3089E+03    -53.8504E-03     107.598E-03    -53.7472E-03     26.2373E-03    -53.8165E-03     106.931E-03    -53.6446E-03     26.1392E-03
            1601     1.70596E-03     47.8142E-03    -52.7516E+06    -166.289E+06    -47.8394E+06    -125.495E+03    -53.7771E-03     107.506E-03    -53.7291E-03     17.8148E-03    -53.7350E-03     106.825E-03    -53.6507E-03     17.7504E-03
            1602     852.996E-06     47.8004E-03    -54.4575E+06    -169.475E+06    -52.9570E+06    -147.530E+03    -53.7400E-03     107.445E-03    -53.7049E-03     9.73715E-03    -53.6910E-03     106.755E-03    -53.6450E-03     9.70198E-03
            1603     16.2063E-03     48.2768E-03    -5.20796E+06     141.509E+06     95.4054E+06    -304.586E+03    -54.0392E-03     107.787E-03    -53.7475E-03     110.788E-03    -57.0719E-03     111.027E-03    -53.4681E-03     110.690E-03
            1604     15.3559E-03     48.1007E-03    -10.5753E+06     140.359E+06     81.5091E+06     73.6957E+03    -57.0274E-03     110.755E-03    -53.7278E-03     174.453E-03    -61.4078E-03     115.360E-03    -53.5084E-03     173.598E-03
            1605     14.5021E-03     47.9271E-03    -13.7021E+06     117.850E+06     39.1773E+06     753.847E+03    -57.5072E-03     111.086E-03    -53.5791E-03     165.647E-03    -60.7625E-03     114.598E-03    -53.5342E-03     164.130E-03
            1606     13.6495E-03     47.7691E-03    -15.1305E+06     71.3742E+06     5.40437E+06     699.060E+03    -56.8586E-03     110.358E-03    -53.4993E-03     143.023E-03    -58.9201E-03     112.603E-03    -53.5538E-03     141.511E-03
            1607     12.7950E-03     47.6401E-03    -16.4280E+06     14.3967E+06    -566.979E+03     322.067E+03    -56.1454E-03     109.715E-03    -53.5698E-03     120.521E-03    -57.3698E-03     110.934E-03    -53.5697E-03     119.247E-03
            1608     11.9428E-03     47.5289E-03    -18.1946E+06    -25.2202E+06     791.792E+03     299.137E+03    -55.7768E-03     109.425E-03    -53.6477E-03     106.339E-03    -56.5631E-03     110.054E-03    -53.5808E-03     105.277E-03
            1609     11.0893E-03     47.4280E-03    -19.9656E+06    -53.3691E+06    -1.01980E+06     195.314E+03    -55.6240E-03     109.314E-03    -53.6902E-03     98.7041E-03    -56.1694E-03     109.602E-03    -53.5889E-03     97.8007E-03
            1610     10.2365E-03     47.3315E-03    -21.6806E+06    -73.0849E+06    -614.920E+03     225.092E+03    -55.5704E-03     109.298E-03    -53.7272E-03     92.8509E-03    -55.9587E-03     109.351E-03    -53.5929E-03     92.0858E-03
            1611     9.38336E-03     47.2420E-03    -23.7330E+06    -87.0097E+06    -439.464E+03     195.388E+03    -55.3556E-03     109.107E-03    -53.7516E-03     85.9613E-03    -55.6303E-03     108.990E-03    -53.5932E-03     85.3189E-03
            1612     8.53036E-03     47.1593E-03    -26.0382E+06    -99.4855E+06    -2.32957E+06     162.471E+03    -55.1315E-03     108.895E-03    -53.7636E-03     79.0639E-03    -55.3199E-03     108.645E-03    -53.5932E-03     78.5284E-03
            1613     7.67728E-03     47.0834E-03    -28.6302E+06    -112.033E+06    -3.07172E+06     162.438E+03    -54.9213E-03     108.703E-03    -53.7813E-03     72.3068E-03    -55.0467E-03     108.338E-03    -53.5927E-03     71.8635E-03
            1614     6.82430E-03     47.0142E-03    -31.7410E+06    -122.780E+06    -4.87601E+06     114.778E+03    -54.7028E-03     108.494E-03    -53.7913E-03     65.2868E-03    -54.7828E-03     108.040E-03    -53.5916E-03     64.9232E-03
            1615     5.97124E-03     46.9522E-03    -35.3532E+06    -130.963E+06    -10.0117E+06     171.289E+03    -54.4812E-03     108.263E-03    -53.7818E-03     57.9998E-03    -54.5276E-03     107.748E-03    -53.5907E-03     57.7071E-03
            1616     5.11822E-03     46.8976E-03    -39.0892E+06    -136.911E+06    -16.2950E+06     120.417E+03    -54.2696E-03     108.034E-03    -53.7648E-03     50.4551E-03    -54.2926E-03     107.480E-03    -53.5910E-03     50.2230E-03
            1617     4.26516E-03     46.8507E-03    -42.8534E+06    -145.769E+06    -23.4070E+06    -38.0724E+03    -54.0814E-03     107.831E-03    -53.7499E-03     42.6097E-03    -54.0822E-03     107.230E-03    -53.5934E-03     42.4282E-03
            1618     3.41214E-03     46.8118E-03    -46.6390E+06    -155.773E+06    -32.0077E+06     12.6251E+03    -53.9331E-03     107.664E-03    -53.7309E-03     34.4712E-03    -53.9131E-03     107.018E-03    -53.5975E-03     34.3354E-03
            1619     2.55909E-03     46.7813E-03    -49.9817E+06    -161.462E+06    -40.4782E+06     45.4088E+03    -53.8208E-03     107.526E-03    -53.7051E-03     26.1715E-03    -53.7883E-03     106.860E-03    -53.6009E-03     26.0751E-03
            1620     1.70606E-03     46.7590E-03    -52.7289E+06    -166.273E+06    -47.9706E+06    -188.331E+03    -53.7336E-03     107.415E-03    -53.6809E-03     17.7773E-03    -53.6912E-03     106.734E-03    -53.6032E-03     17.7122E-03
            1621     853.024E-06     46.7455E-03    -54.7008E+06    -169.858E+06    -53.5450E+06    -233.717E+03    -53.6785E-03     107.346E-03    -53.6674E-03     9.72347E-03    -53.6293E-03     106.655E-03    -53.6095E-03     9.68722E-03
            1622     16.2121E-03     47.2204E-03    -4.59098E+06     142.097E+06     96.1992E+06     389.328E+03    -54.1961E-03     107.944E-03    -53.7483E-03     109.957E-03    -57.2199E-03     111.177E-03    -53.4667E-03     109.863E-03
            1623     15.3554E-03     47.0475E-03    -10.8141E+06     140.224E+06     80.0548E+06    -158.439E+03    -57.0559E-03     110.766E-03    -53.7099E-03     173.390E-03    -61.4264E-03     115.363E-03    -53.4973E-03     172.529E-03
            1624     14.5026E-03     46.8693E-03    -14.9841E+06     116.856E+06     35.9769E+06    -777.900E+03    -57.4869E-03     111.036E-03    -53.5495E-03     164.813E-03    -60.7396E-03     114.546E-03    -53.5173E-03     163.270E-03
            1625     13.6492E-03     46.7155E-03    -16.5189E+06     70.9506E+06     3.63595E+06     6.91932E+03    -56.6714E-03     110.150E-03    -53.4785E-03     142.803E-03    -58.7378E-03     112.399E-03    -53.5392E-03     141.288E-03
            1626     12.7964E-03     46.5843E-03    -17.6094E+06     14.2977E+06    -1.47941E+06     719.829E+03    -56.0757E-03     109.635E-03    -53.5591E-03     120.600E-03    -57.3047E-03     110.856E-03    -53.5617E-03     119.332E-03
            1627     11.9425E-03     46.4739E-03    -18.9120E+06    -24.9374E+06     554.500E+03     446.664E+03    -55.8127E-03     109.452E-03    -53.6389E-03     105.964E-03    -56.6036E-03     110.085E-03    -53.5725E-03     104.901E-03
            1628     11.0898E-03     46.3724E-03    -20.4246E+06    -53.1206E+06    -1.15799E+06     241.310E+03    -55.6872E-03     109.363E-03    -53.6757E-03     98.6376E-03    -56.2348E-03     109.653E-03    -53.5749E-03     97.7338E-03
            1629     10.2366E-03     46.2764E-03    -22.0420E+06    -73.1518E+06    -826.847E+03     195.130E+03    -55.5645E-03     109.273E-03    -53.7089E-03     92.8097E-03    -55.9537E-03     109.327E-03    -53.5750E-03     92.0446E-03
            1630     9.38355E-03     46.1865E-03    -23.9397E+06    -86.9125E+06    -469.202E+03     194.227E+03    -55.3731E-03     109.104E-03    -53.7312E-03     85.8682E-03    -55.6484E-03     108.987E-03    -53.5728E-03     85.2260E-03
            1631     8.53053E-03     46.1042E-03    -26.1449E+06    -99.4248E+06    -2.30809E+06     164.076E+03    -55.1658E-03     108.904E-03    -53.7380E-03     78.9157E-03    -55.3545E-03     108.653E-03    -53.5675E-03     78.3802E-03
            1632     7.67757E-03     46.0281E-03    -28.7361E+06    -111.978E+06    -3.13797E+06     102.602E+03    -54.9347E-03     108.684E-03    -53.7492E-03     72.1595E-03    -55.0603E-03     108.319E-03    -53.5608E-03     71.7157E-03
            1633     6.82452E-03     45.9591E-03    -31.8337E+06    -122.859E+06    -4.86294E+06     165.927E+03    -54.6925E-03     108.447E-03    -53.7548E-03     65.1479E-03    -54.7726E-03     107.992E-03    -53.5549E-03     64.7854E-03
            1634     5.97150E-03     45.8970E-03    -35.3006E+06    -130.923E+06    -9.83986E+06     193.943E+03    -54.4616E-03     108.204E-03    -53.7420E-03     57.8683E-03    -54.5078E-03     107.688E-03    -53.5502E-03     57.5764E-03
            1635     5.11842E-03     45.8426E-03    -39.0165E+06    -136.762E+06    -16.0995E+06     125.491E+03    -54.2374E-03     107.959E-03    -53.7219E-03     50.3345E-03    -54.2604E-03     107.405E-03    -53.5475E-03     50.1028E-03
            1636     4.26537E-03     45.7956E-03    -43.0616E+06    -145.707E+06    -23.1822E+06     63.0392E+03    -54.0506E-03     107.755E-03    -53.7044E-03     42.5029E-03    -54.0528E-03     107.154E-03    -53.5466E-03     42.3230E-03
            1637     3.41228E-03     45.7569E-03    -46.9564E+06    -155.651E+06    -31.7396E+06    -124.828E+03    -53.9016E-03     107.582E-03    -53.6808E-03     34.4044E-03    -53.8837E-03     106.937E-03    -53.5457E-03     34.2671E-03
            1638     2.55923E-03     45.7262E-03    -50.2461E+06    -161.438E+06    -40.4815E+06    -275.964E+03    -53.7679E-03     107.418E-03    -53.6500E-03     26.1342E-03    -53.7366E-03     106.752E-03    -53.5454E-03     26.0340E-03
            1639     1.70615E-03     45.7042E-03    -52.8713E+06    -166.407E+06    -48.1305E+06    -68.4154E+03    -53.6730E-03     107.299E-03    -53.6256E-03     17.7446E-03    -53.6309E-03     106.618E-03    -53.5483E-03     17.6812E-03
            1640     853.048E-06     45.6905E-03    -54.8301E+06    -170.023E+06    -53.6500E+06     124.624E+03    -53.6440E-03     107.238E-03    -53.5941E-03     9.70679E-03    -53.5951E-03     106.547E-03    -53.5363E-03     9.67524E-03
            1641     16.2084E-03     46.1678E-03    -5.02550E+06     142.101E+06     96.2639E+06     256.121E+03    -54.8262E-03     108.545E-03    -53.7188E-03     109.763E-03    -57.8595E-03     111.786E-03    -53.4363E-03     109.639E-03
            1642     15.3572E-03     45.9898E-03    -9.75387E+06     141.495E+06     82.4663E+06     613.648E+03    -56.8825E-03     110.558E-03    -53.6759E-03     173.772E-03    -61.2605E-03     115.165E-03    -53.4546E-03     172.926E-03
            1643     14.5037E-03     45.8161E-03    -15.0354E+06     116.706E+06     36.2995E+06    -10.9104E+03    -57.0291E-03     110.556E-03    -53.5265E-03     165.109E-03    -60.2802E-03     114.062E-03    -53.4925E-03     163.595E-03
            1644     13.6493E-03     45.6596E-03    -18.2674E+06     70.0199E+06     2.20165E+06    -316.012E+03    -56.6754E-03     110.139E-03    -53.4639E-03     143.200E-03    -58.7552E-03     112.396E-03    -53.5279E-03     141.678E-03
            1645     12.7957E-03     45.5295E-03    -18.9521E+06     14.3158E+06    -1.67206E+06     41.0437E+03    -56.1646E-03     109.710E-03    -53.5455E-03     120.717E-03    -57.3999E-03     110.934E-03    -53.5472E-03     119.438E-03
            1646     11.9432E-03     45.4182E-03    -19.5138E+06    -25.0875E+06     315.153E+03     118.920E+03    -55.7754E-03     109.397E-03    -53.6218E-03     106.103E-03    -56.5670E-03     110.030E-03    -53.5555E-03     105.038E-03
            1647     11.0898E-03     45.3174E-03    -20.5764E+06    -52.9617E+06    -1.11990E+06     201.727E+03    -55.7204E-03     109.378E-03    -53.6578E-03     98.5956E-03    -56.2680E-03     109.668E-03    -53.5568E-03     97.6917E-03
            1648     10.2368E-03     45.2209E-03    -22.1093E+06    -73.0964E+06    -844.880E+03     84.0532E+03    -55.6338E-03     109.318E-03    -53.6846E-03     92.7103E-03    -56.0229E-03     109.372E-03    -53.5508E-03     91.9436E-03
            1649     9.38384E-03     45.1314E-03    -23.9799E+06    -86.8978E+06    -477.115E+03     100.229E+03    -55.4213E-03     109.120E-03    -53.6988E-03     85.6487E-03    -55.6962E-03     109.003E-03    -53.5404E-03     85.0054E-03
            1650     8.53088E-03     45.0488E-03    -26.2195E+06    -99.3208E+06    -2.28004E+06     107.848E+03    -55.1692E-03     108.868E-03    -53.6990E-03     78.7203E-03    -55.3579E-03     108.618E-03    -53.5284E-03     78.1846E-03
            1651     7.67789E-03     44.9730E-03    -28.8508E+06    -111.977E+06    -3.18387E+06     87.2235E+03    -54.9236E-03     108.629E-03    -53.7052E-03     71.9795E-03    -55.0493E-03     108.264E-03    -53.5169E-03     71.5361E-03
            1652     6.82487E-03     44.9039E-03    -31.8926E+06    -122.897E+06    -5.03525E+06     87.6466E+03    -54.6733E-03     108.379E-03    -53.7059E-03     65.0115E-03    -54.7531E-03     107.924E-03    -53.5066E-03     64.6488E-03
            1653     5.97180E-03     44.8420E-03    -35.3007E+06    -130.894E+06    -9.76771E+06     93.4350E+03    -54.4359E-03     108.126E-03    -53.6898E-03     57.7306E-03    -54.4820E-03     107.610E-03    -53.4976E-03     57.4380E-03
            1654     5.11875E-03     44.7875E-03    -39.0088E+06    -136.755E+06    -16.0601E+06     166.629E+03    -54.2003E-03     107.866E-03    -53.6653E-03     50.1998E-03    -54.2232E-03     107.311E-03    -53.4907E-03     49.9691E-03
            1655     4.26560E-03     44.7408E-03    -42.7973E+06    -145.460E+06    -23.0208E+06     121.434E+03    -54.0048E-03     107.649E-03    -53.6441E-03     42.3929E-03    -54.0062E-03     107.049E-03    -53.4863E-03     42.2142E-03
            1656     3.41254E-03     44.7019E-03    -46.6739E+06    -155.345E+06    -31.5232E+06    -181.008E+03    -53.8471E-03     107.465E-03    -53.6178E-03     34.3026E-03    -53.8285E-03     106.821E-03    -53.4825E-03     34.1649E-03
            1657     2.55938E-03     44.6715E-03    -50.3172E+06    -161.690E+06    -40.8709E+06    -289.440E+03    -53.7086E-03     107.291E-03    -53.5828E-03     26.0463E-03    -53.6767E-03     106.625E-03    -53.4798E-03     25.9463E-03
            1658     1.70624E-03     44.6493E-03    -53.2405E+06    -166.754E+06    -48.4348E+06    -98.2379E+03    -53.6161E-03     107.170E-03    -53.5544E-03     17.6829E-03    -53.5748E-03     106.489E-03    -53.4776E-03     17.6194E-03
            1659     853.152E-06     44.6358E-03    -54.9644E+06    -169.932E+06    -53.3952E+06    -13.7633E+03    -53.5856E-03     107.089E-03    -53.5035E-03     9.66043E-03    -53.5378E-03     106.398E-03    -53.4444E-03     9.62724E-03
            1660     16.2126E-03     45.1109E-03    -4.80567E+06     141.381E+06     95.8609E+06    -93.7715E+03    -54.7208E-03     108.441E-03    -53.7201E-03     110.169E-03    -57.7559E-03     111.683E-03    -53.4388E-03     110.055E-03
            1661     15.3575E-03     44.9361E-03    -9.43798E+06     140.617E+06     81.6025E+06     584.177E+03    -56.7788E-03     110.463E-03    -53.6841E-03     174.809E-03    -61.1677E-03     115.081E-03    -53.4663E-03     173.973E-03
            1662     14.5022E-03     44.7613E-03    -13.5172E+06     117.984E+06     38.0246E+06     1.24977E+06    -57.2428E-03     110.789E-03    -53.5457E-03     166.330E-03    -60.5062E-03     114.312E-03    -53.5070E-03     164.823E-03
            1663     13.6495E-03     44.6041E-03    -15.6976E+06     70.8330E+06     4.46803E+06     587.550E+03    -57.0252E-03     110.498E-03    -53.4725E-03     143.499E-03    -59.0959E-03     112.751E-03    -53.5301E-03     141.976E-03
            1664     12.7968E-03     44.4745E-03    -17.3471E+06     13.9870E+06    -1.28826E+06    -75.7463E+03    -56.2451E-03     109.780E-03    -53.5354E-03     120.741E-03    -57.4718E-03     110.999E-03    -53.5370E-03     119.459E-03
            1665     11.9428E-03     44.3629E-03    -18.9932E+06    -25.1470E+06     423.119E+03      86.802E+03    -55.8833E-03     109.488E-03    -53.6046E-03     106.174E-03    -56.6703E-03     110.117E-03    -53.5385E-03     105.109E-03
            1666     11.0901E-03     44.2620E-03    -20.4811E+06    -52.9399E+06    -1.14759E+06     66.4950E+03    -55.8382E-03     109.469E-03    -53.6304E-03     98.3787E-03    -56.3852E-03     109.758E-03    -53.5297E-03     97.4709E-03
            1667     10.2372E-03     44.1655E-03    -22.0749E+06    -72.9666E+06    -877.452E+03     24.6341E+03    -55.7177E-03     109.363E-03    -53.6454E-03     92.4336E-03    -56.1060E-03     109.417E-03    -53.5120E-03     91.6656E-03
            1668     9.38435E-03     44.0760E-03    -23.9914E+06    -86.9854E+06    -584.491E+03     46.1241E+03    -55.4287E-03     109.080E-03    -53.6509E-03     85.4074E-03    -55.7026E-03     108.961E-03    -53.4929E-03     84.7641E-03
            1669     8.53135E-03     43.9937E-03    -26.1865E+06    -99.3022E+06    -2.30533E+06     70.6544E+03    -55.1475E-03     108.794E-03    -53.6465E-03     78.5391E-03    -55.3354E-03     108.543E-03    -53.4761E-03     78.0041E-03
            1670     7.67832E-03     43.9178E-03    -28.7483E+06    -111.918E+06    -3.12651E+06     55.8165E+03    -54.8929E-03     108.542E-03    -53.6493E-03     71.8005E-03    -55.0177E-03     108.177E-03    -53.4609E-03     71.3577E-03
            1671     6.82526E-03     43.8489E-03    -31.8375E+06    -122.854E+06    -5.07214E+06     34.9618E+03    -54.6471E-03     108.292E-03    -53.6453E-03     64.8452E-03    -54.7262E-03     107.837E-03    -53.4464E-03     64.4826E-03
            1672     5.97220E-03     43.7870E-03    -35.3358E+06    -130.964E+06    -10.0398E+06     53.0358E+03    -54.4009E-03     108.024E-03    -53.6234E-03     57.5700E-03    -54.4463E-03     107.508E-03    -53.4324E-03     57.2777E-03
            1673     5.11907E-03     43.7327E-03    -38.9291E+06    -136.707E+06    -16.0906E+06     35.9461E+03    -54.1583E-03     107.753E-03    -53.5946E-03     50.0422E-03    -54.1806E-03     107.198E-03    -53.4204E-03     49.8105E-03
            1674     4.26597E-03     43.6859E-03    -42.6719E+06    -145.233E+06    -22.8206E+06    -44.4279E+03    -53.9408E-03     107.511E-03    -53.5702E-03     42.2714E-03    -53.9420E-03     106.911E-03    -53.4119E-03     42.0911E-03
            1675     3.41275E-03     43.6472E-03    -46.5575E+06    -155.337E+06    -31.5233E+06     24.5197E+03    -53.7771E-03     107.318E-03    -53.5409E-03     34.1982E-03    -53.7579E-03     106.673E-03    -53.4058E-03     34.0636E-03
            1676     2.55960E-03     43.6168E-03    -50.2532E+06    -161.742E+06    -40.8236E+06     84.4511E+03    -53.6488E-03     107.150E-03    -53.5016E-03     25.9507E-03    -53.6165E-03     106.484E-03    -53.3983E-03     25.8558E-03
            1677     1.70644E-03     43.5947E-03    -53.1677E+06    -166.772E+06    -48.5276E+06    -103.928E+03    -53.5440E-03     107.008E-03    -53.4642E-03     17.6180E-03    -53.5022E-03     106.326E-03    -53.3879E-03     17.5547E-03
            1678     853.211E-06     43.5811E-03    -55.0726E+06    -170.210E+06    -53.9051E+06    -236.024E+03    -53.4775E-03     106.899E-03    -53.4217E-03     9.61631E-03    -53.4291E-03     106.208E-03    -53.3646E-03     9.58052E-03
            1679     16.2075E-03     44.0538E-03    -5.61630E+06     140.743E+06     95.1601E+06    -126.171E+03    -53.8916E-03     107.670E-03    -53.7780E-03     112.078E-03    -56.9395E-03     110.921E-03    -53.4981E-03     111.988E-03
            1680     15.3547E-03     43.8820E-03    -10.7272E+06     139.642E+06     79.8769E+06     21.7580E+03    -57.4589E-03     111.204E-03    -53.7456E-03     174.790E-03    -61.8467E-03     115.818E-03    -53.5331E-03     173.903E-03
            1681     14.5025E-03     43.7048E-03    -13.7520E+06     117.973E+06     36.9739E+06     414.233E+03    -57.9438E-03     111.514E-03    -53.5702E-03     166.061E-03    -61.2115E-03     115.044E-03    -53.5364E-03     164.512E-03
            1682     13.6494E-03     43.5487E-03    -15.4554E+06     71.0080E+06     4.25442E+06     952.637E+03    -57.2514E-03     110.723E-03    -53.4719E-03     143.119E-03    -59.3182E-03     112.975E-03    -53.5312E-03     141.594E-03
            1683     12.7958E-03     43.4189E-03    -17.0953E+06     14.6363E+06    -1.08568E+06     714.190E+03    -56.4985E-03     110.017E-03    -53.5185E-03     120.330E-03    -57.7264E-03     111.239E-03    -53.5204E-03     119.052E-03
            1684     11.9436E-03     43.3076E-03    -18.6443E+06    -24.6460E+06     720.626E+03     281.194E+03    -56.0600E-03     109.630E-03    -53.5700E-03     105.764E-03    -56.8461E-03     110.260E-03    -53.5036E-03     104.698E-03
            1685     11.0906E-03     43.2063E-03    -20.2362E+06    -52.9841E+06    -1.08803E+06     108.678E+03    -55.8882E-03     109.471E-03    -53.5828E-03     98.0528E-03    -56.4329E-03     109.759E-03    -53.4821E-03     97.1453E-03
            1686     10.2379E-03     43.1102E-03    -21.9314E+06    -72.9094E+06    -818.720E+03     82.8996E+03    -55.6907E-03     109.283E-03    -53.5920E-03     92.1942E-03    -56.0773E-03     109.335E-03    -53.4585E-03     91.4283E-03
            1687     9.38483E-03     43.0208E-03    -23.8771E+06    -86.9841E+06    -568.152E+03     19.3051E+03    -55.4087E-03     109.003E-03    -53.5939E-03     85.2591E-03    -55.6812E-03     108.883E-03    -53.4360E-03     84.6167E-03
            1688     8.53188E-03     42.9385E-03    -26.0803E+06    -99.3451E+06    -2.29092E+06     57.1727E+03    -55.1412E-03     108.726E-03    -53.5845E-03     78.3550E-03    -55.3279E-03     108.474E-03    -53.4140E-03     77.8208E-03
            1689     7.67883E-03     42.8629E-03    -28.6851E+06    -111.838E+06    -3.03606E+06     56.7476E+03    -54.8774E-03     108.458E-03    -53.5810E-03     71.6182E-03    -55.0016E-03     108.093E-03    -53.3925E-03     71.1765E-03
            1690     6.82579E-03     42.7939E-03    -31.7997E+06    -122.852E+06    -4.97528E+06     40.1839E+03    -54.6109E-03     108.182E-03    -53.5711E-03     64.6317E-03    -54.6894E-03     107.726E-03    -53.3718E-03     64.2701E-03
            1691     5.97266E-03     42.7322E-03    -35.1889E+06    -130.911E+06    -9.98268E+06    -9.44945E+03    -54.3439E-03     107.888E-03    -53.5439E-03     57.3882E-03    -54.3884E-03     107.372E-03    -53.3530E-03     57.0961E-03
            1692     5.11955E-03     42.6779E-03    -38.8550E+06    -136.635E+06    -16.0321E+06    -72.6937E+03    -54.0939E-03     107.605E-03    -53.5114E-03     49.8915E-03    -54.1157E-03     107.051E-03    -53.3371E-03     49.6594E-03
            1693     4.26630E-03     42.6313E-03    -42.8526E+06    -145.301E+06    -22.7419E+06    -19.5991E+03    -53.8693E-03     107.353E-03    -53.4838E-03     42.1261E-03    -53.8712E-03     106.753E-03    -53.3247E-03     41.9468E-03
            1694     3.41310E-03     42.5926E-03    -46.8550E+06    -155.475E+06    -31.5392E+06     92.6352E+03    -53.6923E-03     107.143E-03    -53.4512E-03     34.0986E-03    -53.6742E-03     106.499E-03    -53.3155E-03     33.9655E-03
            1695     2.55984E-03     42.5623E-03    -50.2198E+06    -161.586E+06    -40.6648E+06     130.989E+03    -53.5595E-03     106.970E-03    -53.4100E-03     25.8778E-03    -53.5275E-03     106.304E-03    -53.3062E-03     25.7839E-03
            1696     1.70658E-03     42.5402E-03    -52.9767E+06    -166.627E+06    -48.3843E+06     153.508E+03    -53.4533E-03     106.824E-03    -53.3710E-03     17.5641E-03    -53.4110E-03     106.143E-03    -53.2945E-03     17.5044E-03
            1697     853.323E-06     42.5268E-03    -55.0554E+06    -170.328E+06    -53.9917E+06     159.765E+03    -53.3693E-03     106.711E-03    -53.3415E-03     9.53160E-03    -53.3205E-03     106.019E-03    -53.2846E-03     9.50129E-03
            1698     16.2080E-03     43.0001E-03    -5.22352E+06     140.837E+06     95.4179E+06     164.604E+03    -53.9818E-03     107.740E-03    -53.7585E-03     109.163E-03    -56.9655E-03     110.929E-03    -53.4780E-03     109.065E-03
            1699     15.3549E-03     42.8234E-03    -10.6146E+06     139.317E+06     79.6570E+06    -214.798E+03    -57.0889E-03     110.811E-03    -53.7219E-03     172.152E-03    -61.4158E-03     115.364E-03    -53.5103E-03     171.267E-03
            1700     14.5026E-03     42.6499E-03    -14.7969E+06     116.808E+06     35.7202E+06    -13.4404E+03    -57.9922E-03     111.534E-03    -53.5423E-03     164.563E-03    -61.2562E-03     115.057E-03    -53.5116E-03     162.999E-03
            1701     13.6493E-03     42.4927E-03    -17.4804E+06     70.7554E+06     3.08321E+06     535.849E+03    -57.2905E-03     110.724E-03    -53.4331E-03     142.032E-03    -59.3639E-03     112.977E-03    -53.4949E-03     140.498E-03
            1702     12.7976E-03     42.3633E-03    -17.9560E+06     15.5777E+06    -1.07198E+06     435.402E+03    -56.5469E-03     110.019E-03    -53.4724E-03     119.793E-03    -57.7762E-03     111.243E-03    -53.4743E-03     118.511E-03
            1703     11.9441E-03     42.2521E-03    -18.6635E+06    -24.4251E+06     801.093E+03     240.320E+03    -56.1256E-03     109.640E-03    -53.5146E-03     105.467E-03    -56.9127E-03     110.272E-03    -53.4481E-03     104.398E-03
            1704     11.0915E-03     42.1510E-03    -20.0796E+06    -52.8399E+06    -939.333E+03     238.212E+03    -55.8144E-03     109.337E-03    -53.5229E-03     97.9021E-03    -56.3565E-03     109.623E-03    -53.4219E-03     97.0000E-03
            1705     10.2383E-03     42.0551E-03    -21.7111E+06    -72.8156E+06    -617.307E+03     177.428E+03    -55.6412E-03     109.173E-03    -53.5320E-03     92.0722E-03    -56.0260E-03     109.224E-03    -53.3980E-03     91.3096E-03
            1706     9.38547E-03     41.9656E-03    -23.6949E+06    -86.8905E+06    -444.849E+03     82.7476E+03    -55.4116E-03     108.941E-03    -53.5295E-03     85.0643E-03    -55.6827E-03     108.821E-03    -53.3713E-03     84.4238E-03
            1707     8.53246E-03     41.8835E-03    -26.0223E+06    -99.3606E+06    -2.23721E+06     48.6192E+03    -55.1409E-03     108.653E-03    -53.5126E-03     78.1318E-03    -55.3265E-03     108.401E-03    -53.3420E-03     77.5984E-03
            1708     7.67948E-03     41.8078E-03    -28.6527E+06    -111.821E+06    -2.96221E+06     100.723E+03    -54.8598E-03     108.361E-03    -53.5013E-03     71.4132E-03    -54.9834E-03     107.995E-03    -53.3125E-03     70.9731E-03
            1709     6.82639E-03     41.7392E-03    -31.7341E+06    -122.701E+06    -4.86015E+06     21.6457E+03    -54.5619E-03     108.047E-03    -53.4848E-03     64.4491E-03    -54.6400E-03     107.591E-03    -53.2851E-03     64.0887E-03
            1710     5.97326E-03     41.6775E-03    -35.2092E+06    -130.850E+06    -9.94666E+06    -92.6807E+03    -54.2771E-03     107.730E-03    -53.4525E-03     57.2225E-03    -54.3215E-03     107.213E-03    -53.2615E-03     56.9306E-03
            1711     5.11997E-03     41.6234E-03    -38.9127E+06    -136.753E+06    -16.2452E+06    -24.2180E+03    -54.0178E-03     107.433E-03    -53.4149E-03     49.7326E-03    -54.0391E-03     106.878E-03    -53.2414E-03     49.5022E-03
            1712     4.26676E-03     41.5768E-03    -42.8419E+06    -145.393E+06    -22.9653E+06     103.129E+03    -53.7953E-03     107.178E-03    -53.3823E-03     41.9561E-03    -53.7965E-03     106.577E-03    -53.2241E-03     41.7794E-03
            1713     3.41343E-03     41.5383E-03    -46.6867E+06    -155.392E+06    -31.6151E+06     55.4576E+03    -53.5989E-03     106.944E-03    -53.3452E-03     33.9594E-03    -53.5798E-03     106.299E-03    -53.2102E-03     33.8265E-03
            1714     2.56009E-03     41.5079E-03    -50.1922E+06    -161.700E+06    -40.9468E+06     89.2200E+03    -53.4398E-03     106.744E-03    -53.3042E-03     25.7751E-03    -53.4070E-03     106.078E-03    -53.2017E-03     25.6812E-03
            1715     1.70674E-03     41.4861E-03    -52.9501E+06    -166.585E+06    -48.2825E+06     277.578E+03    -53.3389E-03     106.612E-03    -53.2730E-03     17.4819E-03    -53.2966E-03     105.930E-03    -53.1961E-03     17.4242E-03
            1716     853.363E-06     41.4724E-03    -54.6271E+06    -169.840E+06    -53.3350E+06     328.460E+03    -53.2729E-03     106.524E-03    -53.2508E-03     9.47091E-03    -53.2237E-03     105.833E-03    -53.1920E-03     9.44290E-03
            1717     16.2146E-03     41.9459E-03    -4.78053E+06     141.215E+06     95.8581E+06     94.6873E+03    -54.9163E-03     108.600E-03    -53.6835E-03     109.578E-03    -57.9306E-03     111.820E-03    -53.4020E-03     109.466E-03
            1718     15.3583E-03     41.7719E-03    -10.0406E+06     139.517E+06     80.0587E+06     470.982E+03    -56.7962E-03     110.429E-03    -53.6330E-03     174.418E-03    -61.1643E-03     115.025E-03    -53.4204E-03     173.569E-03
            1719     14.5034E-03     41.5920E-03    -14.7948E+06     116.788E+06     36.2260E+06     660.381E+03    -57.7380E-03     111.209E-03    -53.4714E-03     164.582E-03    -60.9910E-03     114.719E-03    -53.4382E-03     163.036E-03
            1720     13.6518E-03     41.4383E-03    -16.5768E+06     71.5726E+06     4.33713E+06     30.3488E+03    -57.1078E-03     110.480E-03    -53.3725E-03     141.804E-03    -59.1704E-03     112.725E-03    -53.4305E-03     140.272E-03
            1721     12.7971E-03     41.3075E-03    -17.4201E+06     15.0859E+06    -1.12493E+06     40.1231E+03    -56.4572E-03     109.870E-03    -53.4130E-03     120.207E-03    -57.6834E-03     111.091E-03    -53.4152E-03     118.924E-03
            1722     11.9451E-03     41.1964E-03    -18.7193E+06    -24.7332E+06     609.324E+03     232.496E+03    -56.0579E-03     109.515E-03    -53.4574E-03     105.322E-03    -56.8432E-03     110.145E-03    -53.3913E-03     104.255E-03
            1723     11.0919E-03     41.0960E-03    -20.0544E+06    -52.6610E+06    -866.786E+03     215.732E+03    -55.8221E-03     109.286E-03    -53.4636E-03     97.8278E-03    -56.3637E-03     109.572E-03    -53.3625E-03     96.9262E-03
            1724     10.2391E-03     40.9997E-03    -21.6402E+06    -72.7084E+06    -515.761E+03     204.863E+03    -55.6735E-03     109.139E-03    -53.4657E-03     91.9380E-03    -56.0575E-03     109.190E-03    -53.3315E-03     91.1762E-03
            1725     9.38615E-03     40.9106E-03    -23.6319E+06    -86.7182E+06    -275.321E+03     190.510E+03    -55.4063E-03     108.862E-03    -53.4556E-03     84.8491E-03    -55.6766E-03     108.741E-03    -53.2969E-03     84.2112E-03
            1726     8.53321E-03     40.8285E-03    -25.9659E+06    -99.3041E+06    -2.18212E+06     111.343E+03    -55.1218E-03     108.553E-03    -53.4313E-03     77.9453E-03    -55.3065E-03     108.299E-03    -53.2605E-03     77.4142E-03
            1727     7.68016E-03     40.7531E-03    -28.6058E+06    -111.805E+06    -2.96762E+06     58.9388E+03    -54.8225E-03     108.236E-03    -53.4131E-03     71.2104E-03    -54.9451E-03     107.868E-03    -53.2243E-03     70.7714E-03
            1728     6.82703E-03     40.6845E-03    -31.6846E+06    -122.562E+06    -4.80031E+06     25.5823E+03    -54.5135E-03     107.904E-03    -53.3901E-03     64.2539E-03    -54.5911E-03     107.448E-03    -53.1905E-03     63.8951E-03
            1729     5.97380E-03     40.6230E-03    -35.2308E+06    -130.800E+06    -9.99514E+06    -27.8415E+03    -54.2255E-03     107.576E-03    -53.3502E-03     57.0173E-03    -54.2696E-03     107.059E-03    -53.1594E-03     56.7275E-03
            1730     5.12061E-03     40.5689E-03    -38.9340E+06    -136.892E+06    -16.5038E+06    -26.1094E+03    -53.9475E-03     107.252E-03    -53.3041E-03     49.5339E-03    -53.9681E-03     106.696E-03    -53.1316E-03     49.3046E-03
            1731     4.26721E-03     40.5225E-03    -42.6242E+06    -145.405E+06    -23.2396E+06     8.77881E+03    -53.7057E-03     106.970E-03    -53.2641E-03     41.7733E-03    -53.7052E-03     106.369E-03    -53.1077E-03     41.5964E-03
            1732     3.41389E-03     40.4841E-03    -46.4117E+06    -155.487E+06    -31.9416E+06     189.993E+03    -53.5017E-03     106.722E-03    -53.2205E-03     33.7719E-03    -53.4805E-03     106.077E-03    -53.0874E-03     33.6414E-03
            1733     2.56043E-03     40.4539E-03    -49.9045E+06    -161.714E+06    -41.0339E+06     364.763E+03    -53.3190E-03     106.495E-03    -53.1760E-03     25.6322E-03    -53.2845E-03     105.828E-03    -53.0743E-03     25.5424E-03
            1734     1.70694E-03     40.4319E-03    -52.6908E+06    -166.358E+06    -48.0903E+06     180.960E+03    -53.2008E-03     106.349E-03    -53.1479E-03     17.3854E-03    -53.1577E-03     105.667E-03    -53.0707E-03     17.3269E-03
            1735     853.479E-06     40.4186E-03    -54.3942E+06    -169.484E+06    -53.0130E+06    -21.8730E+03    -53.1474E-03     106.280E-03    -53.1324E-03     9.40721E-03    -53.0979E-03     105.590E-03    -53.0728E-03     9.37476E-03
            1736     16.2082E-03     40.8918E-03    -5.38545E+06     140.860E+06     95.4010E+06     188.524E+03    -55.1885E-03     108.895E-03    -53.7065E-03     110.292E-03    -58.2557E-03     112.166E-03    -53.4259E-03     110.141E-03
            1737     15.3567E-03     40.7147E-03    -10.4952E+06     139.226E+06     80.5206E+06     668.508E+03    -58.0919E-03     111.713E-03    -53.6212E-03     175.770E-03    -62.5192E-03     116.364E-03    -53.4053E-03     174.857E-03
            1738     14.5058E-03     40.5376E-03    -13.6486E+06     117.682E+06     37.4581E+06     278.160E+03    -57.7827E-03     111.207E-03    -53.4248E-03     165.299E-03    -61.0275E-03     114.713E-03    -53.3883E-03     163.755E-03
            1739     13.6503E-03     40.3828E-03    -15.3223E+06     71.6933E+06     4.52602E+06     97.8840E+03    -57.0631E-03     110.386E-03    -53.3224E-03     142.366E-03    -59.1210E-03     112.630E-03    -53.3815E-03     140.840E-03
            1740     12.7991E-03     40.2520E-03    -17.0072E+06     14.5844E+06    -1.07053E+06     401.928E+03    -56.5130E-03     109.875E-03    -53.3623E-03     120.184E-03    -57.7382E-03     111.095E-03    -53.3642E-03     118.903E-03
            1741     11.9453E-03     40.1413E-03    -18.4961E+06    -24.4688E+06     901.814E+03     341.139E+03    -55.9847E-03     109.389E-03    -53.4042E-03     105.248E-03    -56.7672E-03     110.016E-03    -53.3374E-03     104.186E-03
            1742     11.0927E-03     40.0406E-03    -20.0651E+06    -52.6265E+06    -888.156E+03     229.659E+03    -55.9069E-03     109.311E-03    -53.4043E-03     97.7064E-03    -56.4486E-03     109.597E-03    -53.3034E-03     96.8036E-03
            1743     10.2398E-03     39.9447E-03    -21.6656E+06    -72.6909E+06    -569.003E+03     205.546E+03    -55.7193E-03     109.115E-03    -53.3955E-03     91.7943E-03    -56.1024E-03     109.165E-03    -53.2615E-03     91.0333E-03
            1744     9.38695E-03     39.8556E-03    -23.6087E+06    -86.6673E+06    -273.627E+03     251.815E+03    -55.4065E-03     108.783E-03    -53.3766E-03     84.7334E-03    -55.6758E-03     108.662E-03    -53.2181E-03     84.0980E-03
            1745     8.53392E-03     39.7737E-03    -25.8863E+06    -99.1770E+06    -2.14886E+06     200.863E+03    -55.1130E-03     108.457E-03    -53.3442E-03     77.7586E-03    -55.2967E-03     108.203E-03    -53.1736E-03     77.2302E-03
            1746     7.68088E-03     39.6984E-03    -28.5091E+06    -111.696E+06    -2.95912E+06     69.4943E+03    -54.8078E-03     108.124E-03    -53.3166E-03     70.9594E-03    -54.9293E-03     107.757E-03    -53.1281E-03     70.5219E-03
            1747     6.82774E-03     39.6300E-03    -31.6649E+06    -122.559E+06    -4.75074E+06     39.1196E+03    -54.4886E-03     107.772E-03    -53.2834E-03     63.9624E-03    -54.5656E-03     107.315E-03    -53.0835E-03     63.6048E-03
            1748     5.97455E-03     39.5686E-03    -35.1957E+06    -130.736E+06    -9.86778E+06     84.4626E+03    -54.1665E-03     107.400E-03    -53.2332E-03     56.7331E-03    -54.2101E-03     106.883E-03    -53.0419E-03     56.4461E-03
            1749     5.12118E-03     39.5148E-03    -38.9402E+06    -136.772E+06    -16.3765E+06    -36.3578E+03    -53.8606E-03     107.039E-03    -53.1784E-03     49.2865E-03    -53.8812E-03     106.483E-03    -53.0055E-03     49.0582E-03
            1750     4.26784E-03     39.4685E-03    -42.8399E+06    -145.615E+06    -23.4232E+06    -28.1212E+03    -53.5965E-03     106.727E-03    -53.1310E-03     41.5780E-03    -53.5962E-03     106.126E-03    -52.9748E-03     41.4016E-03
            1751     3.41432E-03     39.4302E-03    -46.6352E+06    -155.779E+06    -32.2466E+06     271.430E+03    -53.3898E-03     106.470E-03    -53.0801E-03     33.5956E-03    -53.3688E-03     105.824E-03    -52.9478E-03     33.4670E-03
            1752     2.56083E-03     39.4001E-03    -49.8658E+06    -161.448E+06    -40.6141E+06     369.432E+03    -53.2043E-03     106.232E-03    -53.0278E-03     25.4771E-03    -53.1706E-03     105.566E-03    -52.9244E-03     25.3879E-03
            1753     1.70724E-03     39.3783E-03    -52.4552E+06    -165.899E+06    -47.5558E+06     157.357E+03    -53.0546E-03     106.044E-03    -52.9895E-03     17.2847E-03    -53.0118E-03     105.364E-03    -52.9106E-03     17.2262E-03
            1754     853.600E-06     39.3648E-03    -54.3778E+06    -169.492E+06    -53.2143E+06    -77.2052E+03    -52.9881E-03     105.951E-03    -52.9629E-03     9.37378E-03    -52.9382E-03     105.261E-03    -52.9044E-03     9.34105E-03
            1755     16.2098E-03     39.8341E-03    -4.98347E+06     140.332E+06     95.2122E+06     163.223E+03    -55.2526E-03     108.956E-03    -53.7034E-03     108.839E-03    -58.2756E-03     112.183E-03    -53.4236E-03     108.677E-03
            1756     15.3587E-03     39.6569E-03    -9.21810E+06     139.313E+06     80.4894E+06     25.8458E+03    -57.9803E-03     111.591E-03    -53.6104E-03     173.589E-03    -62.3591E-03     116.198E-03    -53.3966E-03     172.675E-03
            1757     14.5039E-03     39.4835E-03    -13.2843E+06     117.514E+06     36.7180E+06     137.845E+03    -57.9182E-03     111.323E-03    -53.4053E-03     165.132E-03    -61.1650E-03     114.834E-03    -53.3729E-03     163.585E-03
            1758     13.6527E-03     39.3265E-03    -16.2096E+06     71.2531E+06     3.48699E+06     642.788E+03    -57.3380E-03     110.628E-03    -53.2895E-03     142.576E-03    -59.4057E-03     112.880E-03    -53.3519E-03     141.047E-03
            1759     12.7986E-03     39.1970E-03    -17.4459E+06     15.1291E+06    -1.28413E+06     603.318E+03    -56.5347E-03     109.855E-03    -53.3202E-03     120.224E-03    -57.7608E-03     111.076E-03    -53.3233E-03     118.947E-03
            1760     11.9463E-03     39.0861E-03    -18.6210E+06    -24.2975E+06     828.809E+03     313.175E+03    -56.1314E-03     109.485E-03    -53.3541E-03     105.406E-03    -56.9146E-03     110.114E-03    -53.2877E-03     104.342E-03
            1761     11.0933E-03     38.9852E-03    -19.9928E+06    -52.4554E+06    -855.111E+03     318.571E+03    -55.9668E-03     109.310E-03    -53.3430E-03     97.5697E-03    -56.5069E-03     109.595E-03    -53.2422E-03     96.6689E-03
            1762     10.2406E-03     38.8896E-03    -21.6641E+06    -72.7421E+06    -695.451E+03     237.601E+03    -55.7661E-03     109.090E-03    -53.3236E-03     91.5880E-03    -56.1478E-03     109.138E-03    -53.1902E-03     90.8283E-03
            1763     9.38761E-03     38.8006E-03    -23.5922E+06    -86.7189E+06    -368.608E+03     223.255E+03    -55.4699E-03     108.762E-03    -53.2924E-03     84.4693E-03    -55.7380E-03     108.640E-03    -53.1343E-03     83.8340E-03
            1764     8.53474E-03     38.7189E-03    -25.8138E+06    -99.0084E+06    -2.06847E+06     234.697E+03    -55.1344E-03     108.381E-03    -53.2466E-03     77.3968E-03    -55.3171E-03     108.127E-03    -53.0760E-03     76.8700E-03
            1765     7.68170E-03     38.6438E-03    -28.5024E+06    -111.515E+06    -2.90823E+06     169.372E+03    -54.7963E-03     108.002E-03    -53.2061E-03     70.6143E-03    -54.9173E-03     107.635E-03    -53.0176E-03     70.1794E-03
            1766     6.82862E-03     38.5756E-03    -31.7036E+06    -122.537E+06    -4.72396E+06     129.132E+03    -54.4507E-03     107.611E-03    -53.1607E-03     63.6359E-03    -54.5273E-03     107.154E-03    -52.9607E-03     63.2809E-03
            1767     5.97534E-03     38.5145E-03    -35.2823E+06    -130.670E+06    -9.73052E+06     104.064E+03    -54.0967E-03     107.197E-03    -53.0998E-03     56.4377E-03    -54.1406E-03     106.679E-03    -52.9078E-03     56.1523E-03
            1768     5.12199E-03     38.4608E-03    -39.0873E+06    -136.641E+06    -16.1910E+06     79.5548E+03    -53.7598E-03     106.795E-03    -53.0357E-03     49.0049E-03    -53.7812E-03     106.240E-03    -52.8618E-03     48.7795E-03
            1769     4.26842E-03     38.4147E-03    -43.0949E+06    -145.812E+06    -23.5984E+06     100.937E+03    -53.4753E-03     106.454E-03    -52.9791E-03     41.3183E-03    -53.4755E-03     105.852E-03    -52.8231E-03     41.1448E-03
            1770     3.41489E-03     38.3766E-03    -46.8306E+06    -155.853E+06    -32.3099E+06     85.4495E+03    -53.2472E-03     106.169E-03    -52.9223E-03     33.3926E-03    -53.2267E-03     105.523E-03    -52.7899E-03     33.2627E-03
            1771     2.56124E-03     38.3466E-03    -49.9569E+06    -161.233E+06    -40.4263E+06     7.21170E+03    -53.0588E-03     105.923E-03    -52.8646E-03     25.3307E-03    -53.0260E-03     105.258E-03    -52.7605E-03     25.2376E-03
            1772     1.70757E-03     38.3249E-03    -52.5504E+06    -165.788E+06     -47.449E+06     47.0048E+03    -52.9011E-03     105.718E-03    -52.8171E-03     17.1971E-03    -52.8591E-03     105.039E-03    -52.7378E-03     17.1377E-03
            1773     853.796E-06     38.3116E-03    -54.3468E+06    -169.354E+06    -53.0818E+06     182.733E+03    -52.7994E-03     105.595E-03    -52.7955E-03     9.39202E-03    -52.7498E-03     104.906E-03    -52.7365E-03     9.36299E-03
            1774     16.2127E-03     38.7757E-03    -4.96497E+06     140.344E+06     95.1919E+06    -493.588E+03    -55.3560E-03     109.014E-03    -53.6576E-03     109.625E-03    -58.3821E-03     112.244E-03    -53.3779E-03     109.470E-03
            1775     15.3575E-03     38.6044E-03    -9.74703E+06     138.850E+06     80.0382E+06    -177.086E+03    -57.3078E-03     110.888E-03    -53.5800E-03     174.011E-03    -61.6898E-03     115.496E-03    -53.3670E-03     173.134E-03
            1776     14.5053E-03     38.4257E-03    -14.3008E+06     116.709E+06     35.8897E+06     1.03536E+06    -57.9712E-03     111.362E-03    -53.3911E-03     165.119E-03    -61.2163E-03     114.867E-03    -53.3602E-03     163.581E-03
            1777     13.6517E-03     38.2718E-03    -16.5758E+06     71.8115E+06     3.58535E+06     952.450E+03    -57.4451E-03     110.716E-03    -53.2713E-03     142.632E-03    -59.5145E-03     112.972E-03    -53.3335E-03     141.104E-03
            1778     12.7995E-03     38.1414E-03    -17.5002E+06     15.8647E+06    -1.11448E+06     296.699E+03    -56.8099E-03     110.097E-03    -53.2873E-03     120.096E-03    -58.0387E-03     111.323E-03    -53.2905E-03     118.808E-03
            1779     11.9465E-03     38.0304E-03    -18.5979E+06    -24.2965E+06     699.969E+03     224.549E+03    -56.3122E-03     109.613E-03    -53.3012E-03     105.077E-03    -57.0930E-03     110.240E-03    -53.2355E-03     104.010E-03
            1780     11.0941E-03     37.9300E-03    -19.9937E+06    -52.4442E+06    -864.231E+03     281.411E+03    -56.0655E-03     109.340E-03    -53.2747E-03     97.2243E-03    -56.6040E-03     109.624E-03    -53.1740E-03     96.3228E-03
            1781     10.2412E-03     37.8345E-03    -21.6708E+06    -72.5507E+06    -615.010E+03     305.222E+03    -55.8674E-03     109.107E-03    -53.2400E-03     91.1804E-03    -56.2483E-03     109.156E-03    -53.1064E-03     90.4211E-03
            1782     9.38866E-03     37.7456E-03    -23.6347E+06    -86.6282E+06    -378.180E+03     207.410E+03    -55.5285E-03     108.720E-03    -53.1917E-03     83.9921E-03    -55.7956E-03     108.597E-03    -53.0337E-03     83.3573E-03
            1783     8.53575E-03     37.6642E-03    -25.8808E+06    -98.9678E+06    -2.08882E+06     200.760E+03    -55.1355E-03     108.267E-03    -53.1311E-03     76.9789E-03    -55.3174E-03     108.011E-03    -52.9605E-03     76.4531E-03
            1784     7.68275E-03     37.5894E-03    -28.4980E+06    -111.415E+06    -2.80349E+06     252.596E+03    -54.7548E-03     107.834E-03    -53.0787E-03     70.2434E-03    -54.8752E-03     107.465E-03    -52.8899E-03     69.8114E-03
            1785     6.82951E-03     37.5214E-03    -31.6536E+06    -122.472E+06    -4.66925E+06     227.153E+03    -54.3811E-03     107.404E-03    -53.0225E-03     63.2823E-03    -54.4568E-03     106.946E-03    -52.8224E-03     62.9304E-03
            1786     5.97624E-03     37.4606E-03    -35.2441E+06    -130.590E+06    -9.66467E+06     195.053E+03    -54.0170E-03     106.968E-03    -52.9509E-03     56.0902E-03    -54.0603E-03     106.451E-03    -52.7588E-03     55.8076E-03
            1787     5.12275E-03     37.4072E-03    -39.1070E+06    -136.643E+06    -16.2133E+06     223.065E+03    -53.6591E-03     106.534E-03    -52.8752E-03     48.6978E-03    -53.6801E-03     105.978E-03    -52.7014E-03     48.4758E-03
            1788     4.26924E-03     37.3612E-03    -43.0068E+06     -145.69E+06    -23.5524E+06     178.236E+03    -53.3430E-03     106.152E-03    -52.8086E-03     41.0512E-03    -53.3427E-03     105.550E-03    -52.6527E-03     40.8800E-03
            1789     3.41549E-03     37.3233E-03    -46.7744E+06    -155.581E+06    -32.0695E+06    -81.4326E+03    -53.0787E-03     105.825E-03    -52.7467E-03     33.1830E-03    -53.0585E-03     105.180E-03    -52.6136E-03     33.0522E-03
            1790     2.56168E-03     37.2935E-03    -50.1076E+06    -161.297E+06    -40.6815E+06    -263.681E+03    -52.8733E-03     105.560E-03    -52.6868E-03     25.1776E-03    -52.8406E-03     104.895E-03    -52.5836E-03     25.0820E-03
            1791     1.70781E-03     37.2719E-03      -52.76E+06    -166.009E+06    -47.9037E+06    -165.465E+03    -52.7323E-03     105.369E-03    -52.6369E-03     17.0578E-03    -52.6903E-03     104.689E-03    -52.5592E-03     16.9961E-03
            1792     853.907E-06     37.2586E-03    -54.4589E+06    -169.258E+06    -53.0039E+06     61.8136E+03    -52.6264E-03     105.231E-03    -52.6050E-03     9.32287E-03    -52.5775E-03     104.542E-03    -52.5456E-03     9.29244E-03
            1793     16.2111E-03     37.7257E-03    -5.24428E+06     140.841E+06     95.3215E+06    -159.071E+03    -55.3004E-03     108.987E-03    -53.6867E-03     110.419E-03    -58.3582E-03     112.250E-03    -53.4067E-03     110.255E-03
            1794     15.3582E-03     37.5449E-03    -11.4295E+06     137.757E+06     79.3780E+06     53.6356E+03    -58.0182E-03     111.616E-03    -53.5973E-03     175.078E-03    -62.4356E-03     116.251E-03    -53.3835E-03     174.168E-03
            1795     14.5054E-03     37.3727E-03    -15.0768E+06     116.116E+06     36.4799E+06     510.740E+03    -58.2094E-03     111.597E-03    -53.3881E-03     165.128E-03    -61.4539E-03     115.095E-03    -53.3522E-03     163.573E-03
            1796     13.6521E-03     37.2147E-03    -16.3314E+06     72.3133E+06     4.61706E+06     395.645E+03    -57.7966E-03     111.045E-03    -53.2480E-03     142.427E-03    -59.8687E-03     113.302E-03    -53.3061E-03     140.877E-03
            1797     12.7999E-03     37.0858E-03    -17.2912E+06     16.0340E+06    -827.509E+03     123.852E+03    -57.0968E-03     110.332E-03    -53.2353E-03     119.134E-03    -58.3231E-03     111.556E-03    -53.2376E-03     117.835E-03
            1798     11.9477E-03     36.9749E-03    -18.4387E+06    -24.0059E+06     859.113E+03     321.020E+03    -56.3993E-03     109.628E-03    -53.2282E-03     104.509E-03    -57.1768E-03     110.252E-03    -53.1623E-03     103.443E-03
            1799     11.0949E-03     36.8748E-03    -20.0716E+06    -52.5087E+06    -945.309E+03     305.290E+03    -56.1689E-03     109.355E-03    -53.1863E-03     96.7220E-03    -56.7059E-03     109.637E-03    -53.0858E-03     95.8200E-03
            1800     10.2426E-03     36.7792E-03    -21.6930E+06    -72.3617E+06    -540.074E+03     303.530E+03    -55.9349E-03     109.070E-03    -53.1354E-03     90.7224E-03    -56.3145E-03     109.118E-03    -53.0017E-03     89.9639E-03
            1801     9.38974E-03     36.6909E-03    -23.6770E+06    -86.5099E+06    -398.503E+03     285.775E+03    -55.5225E-03     108.595E-03    -53.0728E-03     83.5552E-03    -55.7881E-03     108.471E-03    -52.9150E-03     82.9236E-03
            1802     8.53687E-03     36.6096E-03    -25.9588E+06    -98.9736E+06    -2.21771E+06     215.833E+03    -55.1134E-03     108.113E-03    -52.9996E-03     76.5768E-03    -55.2941E-03     107.857E-03    -52.8295E-03     76.0533E-03
            1803     7.68378E-03     36.5352E-03    -28.6093E+06    -111.412E+06    -2.88733E+06     256.014E+03    -54.7118E-03     107.647E-03    -52.9347E-03     69.8163E-03    -54.8314E-03     107.277E-03    -52.7461E-03     69.3866E-03
            1804     6.83063E-03     36.4674E-03    -31.7543E+06    -122.366E+06    -4.74653E+06     253.032E+03    -54.3011E-03     107.167E-03    -52.8663E-03     62.8674E-03    -54.3763E-03     106.709E-03    -52.6666E-03     62.5181E-03
            1805     5.97721E-03     36.4069E-03    -35.2578E+06    -130.619E+06    -9.80721E+06     267.525E+03    -53.9088E-03     106.693E-03    -52.7838E-03     55.6985E-03    -53.9512E-03     106.175E-03    -52.5923E-03     55.4188E-03
            1806     5.12372E-03     36.3537E-03    -38.9419E+06    -136.551E+06    -16.2381E+06     288.513E+03    -53.5310E-03     106.230E-03    -52.6985E-03     48.3468E-03    -53.5508E-03     105.673E-03    -52.5253E-03     48.1275E-03
            1807     4.26995E-03     36.3081E-03    -42.7455E+06    -145.425E+06    -23.3971E+06     146.449E+03    -53.1933E-03     105.817E-03    -52.6236E-03     40.7614E-03    -53.1919E-03     105.215E-03    -52.4677E-03     40.5913E-03
            1808     3.41615E-03     36.2704E-03    -46.5377E+06    -155.246E+06    -31.8031E+06    -28.8065E+03    -52.9181E-03     105.471E-03    -52.5534E-03     32.9261E-03    -52.8973E-03     104.827E-03    -52.4198E-03     32.7971E-03
            1809     2.56220E-03     36.2408E-03    -50.1299E+06    -161.327E+06    -40.8292E+06    -164.742E+03    -52.6877E-03     105.172E-03    -52.4845E-03     24.9480E-03    -52.6547E-03     104.507E-03    -52.3820E-03     24.8546E-03
            1810     1.70818E-03     36.2192E-03    -52.9603E+06    -166.303E+06    -48.4798E+06    -231.959E+03    -52.5234E-03     104.954E-03    -52.4308E-03     16.8953E-03    -52.4811E-03     104.274E-03    -52.3553E-03     16.8334E-03
            1811     854.159E-06     36.2061E-03    -54.6092E+06    -169.428E+06    -53.4941E+06    -182.118E+03    -52.4424E-03     104.823E-03    -52.3806E-03     9.23904E-03    -52.3933E-03     104.134E-03    -52.3232E-03     9.20556E-03
            1812     16.2077E-03     36.6642E-03    -4.97295E+06     140.829E+06     95.2994E+06     607.238E+03    -55.4560E-03     109.160E-03    -53.7039E-03     109.476E-03    -58.4879E-03     112.398E-03    -53.4244E-03     109.296E-03
            1813     15.3575E-03     36.4900E-03    -10.3817E+06     138.208E+06     79.9385E+06     240.071E+03    -58.4395E-03     112.030E-03    -53.5908E-03     172.512E-03    -62.8076E-03     116.620E-03    -53.3765E-03     171.567E-03
            1814     14.5045E-03     36.3156E-03    -14.1405E+06     116.120E+06     36.4028E+06    -412.438E+03    -58.6278E-03     111.973E-03    -53.3452E-03     163.818E-03    -61.8599E-03     115.462E-03    -53.3111E-03     162.226E-03
            1815     13.6535E-03     36.1586E-03    -15.9170E+06     71.7181E+06     4.17724E+06    -299.576E+03    -57.9948E-03     111.173E-03    -53.1778E-03     141.487E-03    -60.0580E-03     113.422E-03    -53.2378E-03     139.919E-03
            1816     12.8013E-03     36.0297E-03    -17.0079E+06     15.7854E+06    -644.809E+03     419.647E+03    -57.0326E-03     110.189E-03    -53.1561E-03     118.657E-03    -58.2514E-03     111.405E-03    -53.1575E-03     117.365E-03
            1817     11.9486E-03     35.9196E-03    -18.5976E+06    -23.8581E+06     782.326E+03     538.721E+03    -56.5394E-03     109.677E-03    -53.1373E-03     104.072E-03    -57.3165E-03     110.301E-03    -53.0719E-03     103.007E-03
            1818     11.0964E-03     35.8193E-03    -19.9564E+06    -52.3660E+06    -954.977E+03     328.453E+03    -56.2161E-03     109.296E-03    -53.0799E-03     96.4282E-03    -56.7503E-03     109.576E-03    -52.9798E-03     95.5284E-03
            1819     10.2436E-03     35.7243E-03    -21.5715E+06    -72.3683E+06    -608.438E+03     350.936E+03    -55.9465E-03     108.963E-03    -53.0164E-03     90.3360E-03    -56.3232E-03     109.008E-03    -52.8833E-03     89.5805E-03
            1820     9.39100E-03     35.6361E-03    -23.5779E+06    -86.3993E+06    -374.725E+03     343.744E+03    -55.5344E-03     108.475E-03    -52.9406E-03     83.0968E-03    -55.7979E-03     108.349E-03    -52.7830E-03     82.4681E-03
            1821     8.53809E-03     35.5553E-03    -25.8783E+06    -98.8861E+06    -2.23294E+06     331.629E+03    -55.0975E-03     107.950E-03    -52.8524E-03     76.0679E-03    -55.2762E-03     107.692E-03    -52.6826E-03     75.5483E-03
            1822     7.68510E-03     35.4810E-03    -28.5274E+06    -111.353E+06    -2.94995E+06     287.453E+03    -54.6537E-03     107.427E-03    -52.7731E-03     69.3249E-03    -54.7715E-03     107.057E-03    -52.5850E-03     68.8982E-03
            1823     6.83179E-03     35.4138E-03    -31.6564E+06    -122.328E+06    -4.72953E+06     286.309E+03    -54.2120E-03     106.904E-03    -52.6921E-03     62.4150E-03    -54.2858E-03     106.445E-03    -52.4925E-03     62.0685E-03
            1824     5.97835E-03     35.3535E-03    -35.1894E+06    -130.568E+06    -9.88498E+06     296.419E+03    -53.7842E-03     106.382E-03    -52.5978E-03     55.2736E-03    -53.8254E-03     105.863E-03    -52.4069E-03     54.9967E-03
            1825     5.12465E-03     35.3007E-03    -38.8735E+06    -136.426E+06    -16.2876E+06     229.533E+03    -53.3775E-03     105.880E-03    -52.5030E-03     47.9368E-03    -53.3964E-03     105.324E-03    -52.3302E-03     47.7187E-03
            1826     4.27087E-03     35.2554E-03    -42.6944E+06    -145.191E+06    -23.2339E+06     177.014E+03    -53.0241E-03     105.444E-03    -52.4204E-03     40.4017E-03    -53.0227E-03     104.843E-03    -52.2641E-03     40.2337E-03
            1827     3.41688E-03     35.2179E-03    -46.6472E+06    -155.090E+06    -31.5947E+06     117.610E+03    -52.7357E-03     105.078E-03    -52.3419E-03     32.6470E-03    -52.7158E-03     104.433E-03    -52.2074E-03     32.5213E-03
            1828     2.56282E-03     35.1884E-03    -50.2201E+06    -161.222E+06    -40.7031E+06     50.1813E+03    -52.4910E-03     104.754E-03    -52.2633E-03     24.7421E-03    -52.4588E-03     104.090E-03    -52.1603E-03     24.6525E-03
            1829     1.70860E-03     35.1672E-03    -52.9881E+06    -166.290E+06    -48.5170E+06    -75.6145E+03    -52.3065E-03     104.507E-03    -52.2005E-03     16.7600E-03    -52.2641E-03     103.827E-03    -52.1251E-03     16.7007E-03
            1830     854.225E-06     35.1540E-03    -55.0115E+06    -169.720E+06    -53.8432E+06    -63.6119E+03    -52.2207E-03     104.353E-03    -52.1322E-03     9.10223E-03    -52.1727E-03     103.664E-03    -52.0756E-03     9.07065E-03
            1831     16.2137E-03     35.6069E-03    -4.98370E+06     140.661E+06     95.2853E+06     176.593E+03    -56.1062E-03     109.741E-03    -53.6352E-03     108.541E-03    -59.0848E-03     112.925E-03    -53.3555E-03     108.333E-03
            1832     15.3593E-03     35.4353E-03    -9.17343E+06     138.943E+06     81.0335E+06     388.066E+03    -58.2180E-03     111.725E-03    -53.5066E-03     171.321E-03    -62.5220E-03     116.254E-03    -53.2896E-03     170.378E-03
            1833     14.5080E-03     35.2579E-03    -12.9213E+06     116.372E+06     36.1008E+06     171.066E+03    -58.5116E-03     111.769E-03    -53.2576E-03     163.595E-03    -61.7296E-03     115.250E-03    -53.2271E-03     162.018E-03
            1834     13.6550E-03     35.1039E-03    -15.6980E+06     71.3699E+06     2.82832E+06     323.893E+03    -57.8207E-03     110.912E-03    -53.0917E-03     141.742E-03    -59.8763E-03     113.158E-03    -53.1583E-03     140.194E-03
            1835     12.8018E-03     34.9736E-03    -17.4672E+06     15.6483E+06    -1.25628E+06     538.753E+03    -57.1919E-03     110.262E-03    -53.0702E-03     118.669E-03    -58.4086E-03     111.476E-03    -53.0739E-03     117.378E-03
            1836     11.9500E-03     34.8640E-03    -18.4355E+06    -23.6717E+06     764.702E+03     412.732E+03    -56.6239E-03     109.662E-03    -53.0378E-03     103.586E-03    -57.3975E-03     110.284E-03    -52.9730E-03     102.520E-03
            1837     11.0974E-03     34.7642E-03    -19.7626E+06    -52.2128E+06    -955.213E+03     437.904E+03    -56.2845E-03     109.250E-03    -52.9654E-03     96.0398E-03    -56.8156E-03     109.528E-03    -52.8658E-03     95.1429E-03
            1838     10.2450E-03     34.6692E-03    -21.5866E+06    -72.3427E+06    -701.658E+03     447.924E+03    -55.9762E-03     108.863E-03    -52.8868E-03     89.8936E-03    -56.3505E-03     108.906E-03    -52.7541E-03     89.1415E-03
            1839     9.39234E-03     34.5815E-03    -23.5356E+06    -86.3221E+06    -436.584E+03     429.840E+03    -55.5609E-03     108.356E-03    -52.7948E-03     82.5886E-03    -55.8222E-03     108.228E-03    -52.6377E-03     81.9630E-03
            1840     8.53958E-03     34.5010E-03    -25.8339E+06    -98.7290E+06    -2.26559E+06     411.479E+03    -55.0768E-03     107.767E-03    -52.6898E-03     75.5546E-03    -55.2537E-03     107.508E-03    -52.5205E-03     75.0387E-03
            1841     7.68641E-03     34.4274E-03    -28.4609E+06    -111.245E+06    -3.02613E+06     359.858E+03    -54.5906E-03     107.185E-03    -52.5949E-03     68.8242E-03    -54.7067E-03     106.814E-03    -52.4075E-03     68.4011E-03
            1842     6.83312E-03     34.3603E-03    -31.6037E+06    -122.274E+06    -4.81633E+06     358.944E+03    -54.1187E-03     106.618E-03    -52.4995E-03     61.9043E-03    -54.1911E-03     106.158E-03    -52.3004E-03     61.5614E-03
            1843     5.97956E-03     34.3006E-03    -35.1216E+06    -130.431E+06    -9.85925E+06     307.743E+03    -53.6539E-03     106.046E-03    -52.3919E-03     54.7736E-03    -53.6941E-03     105.527E-03    -52.2011E-03     54.4992E-03
            1844     5.12583E-03     34.2480E-03    -38.8710E+06    -136.307E+06    -16.2741E+06     269.813E+03    -53.2119E-03     105.497E-03    -52.2854E-03     47.4841E-03    -53.2304E-03     104.941E-03    -52.1128E-03     47.2686E-03
            1845     4.27181E-03     34.2030E-03    -42.8129E+06    -145.087E+06    -23.2162E+06     253.982E+03    -52.8297E-03     105.023E-03    -52.1935E-03     40.0102E-03    -52.8286E-03     104.422E-03    -52.0371E-03     39.8450E-03
            1846     3.41767E-03     34.1658E-03    -46.7049E+06    -154.971E+06    -31.5844E+06     211.068E+03    -52.5132E-03     104.622E-03    -52.1086E-03     32.3252E-03    -52.4935E-03     103.978E-03    -51.9741E-03     32.2022E-03
            1847     2.56334E-03     34.1366E-03    -50.2036E+06    -161.087E+06    -40.6199E+06     120.987E+03    -52.2628E-03     104.289E-03    -52.0259E-03     24.4787E-03    -52.2306E-03     103.624E-03    -51.9226E-03     24.3910E-03
            1848     1.70898E-03     34.1155E-03    -53.0448E+06    -166.158E+06    -48.3378E+06     147.537E+03    -52.0839E-03     104.039E-03    -51.9549E-03     16.5883E-03    -52.0422E-03     103.359E-03    -51.8787E-03     16.5327E-03
            1849     854.650E-06     34.1025E-03     -55.017E+06    -169.614E+06    -53.6513E+06     42.1623E+03    -51.9323E-03     103.847E-03    -51.9146E-03     9.00739E-03    -51.8847E-03     103.158E-03    -51.8572E-03     8.97758E-03
            1850     16.2119E-03     34.5543E-03    -4.85207E+06     140.623E+06     95.3741E+06    -390.285E+03    -56.6551E-03     110.234E-03    -53.5790E-03     108.087E-03    -59.6256E-03     113.410E-03    -53.2990E-03     107.857E-03
            1851     15.3608E-03     34.3757E-03    -9.67476E+06     138.418E+06     80.4398E+06    -171.407E+03    -57.9773E-03     111.422E-03    -53.4445E-03     173.132E-03    -62.2960E-03     115.964E-03    -53.2290E-03     172.202E-03
            1852     14.5076E-03     34.2047E-03    -14.0024E+06     116.147E+06     36.4152E+06     749.450E+03    -58.4812E-03     111.693E-03    -53.2119E-03     164.748E-03    -61.7182E-03     115.187E-03    -53.1779E-03     163.182E-03
            1853     13.6542E-03     34.0465E-03    -16.5179E+06     71.7638E+06     3.21249E+06     874.894E+03    -58.2394E-03     111.272E-03    -53.0325E-03     141.904E-03    -60.3064E-03     113.526E-03    -53.0965E-03     140.347E-03
            1854     12.8038E-03     33.9180E-03     -17.478E+06     15.6673E+06    -1.64490E+06     278.062E+03    -57.3847E-03     110.366E-03    -52.9814E-03     118.075E-03    -58.5965E-03     111.576E-03    -52.9870E-03     116.777E-03
            1855     11.9510E-03     33.8084E-03    -18.6558E+06    -23.7053E+06     540.734E+03     348.546E+03    -56.7095E-03     109.642E-03    -52.9323E-03     103.244E-03    -57.4808E-03     110.261E-03    -52.8682E-03     102.177E-03
            1856     11.0990E-03     33.7090E-03    -20.2609E+06    -52.0864E+06    -1.37747E+06     487.922E+03    -56.4060E-03     109.247E-03    -52.8412E-03     95.5369E-03    -56.9370E-03     109.525E-03    -52.7432E-03     94.6403E-03
            1857     10.2464E-03     33.6145E-03    -21.7879E+06    -72.3424E+06    -985.704E+03     464.544E+03    -56.0405E-03     108.784E-03    -52.7432E-03     89.3874E-03    -56.4129E-03     108.825E-03    -52.6116E-03     88.6375E-03
            1858     9.39387E-03     33.5269E-03    -23.6761E+06    -86.2159E+06    -650.028E+03     474.935E+03    -55.5401E-03     108.174E-03    -52.6343E-03     82.0176E-03    -55.7994E-03     108.046E-03    -52.4782E-03     81.3959E-03
            1859     8.54095E-03     33.4471E-03    -25.8583E+06    -98.6146E+06    -2.40686E+06     423.220E+03    -55.0457E-03     107.559E-03    -52.5137E-03     74.9848E-03    -55.2207E-03     107.300E-03    -52.3453E-03     74.4721E-03
            1860     7.68794E-03     33.3737E-03    -28.5069E+06    -111.134E+06    -3.13322E+06     456.960E+03    -54.5490E-03     106.950E-03    -52.4012E-03     68.2396E-03    -54.6638E-03     106.578E-03    -52.2144E-03     67.8205E-03
            1861     6.83457E-03     33.3073E-03    -31.6421E+06    -122.129E+06    -4.95265E+06     419.962E+03    -54.0236E-03     106.311E-03    -52.2875E-03     61.3279E-03    -54.0949E-03     105.851E-03    -52.0893E-03     60.9888E-03
            1862     5.98095E-03     33.2478E-03    -35.1387E+06    -130.341E+06    -9.94746E+06     364.183E+03    -53.5133E-03     105.678E-03    -52.1645E-03     54.2256E-03    -53.5526E-03     105.158E-03    -51.9743E-03     53.9547E-03
            1863     5.12702E-03     33.1958E-03    -38.8821E+06    -136.205E+06    -16.2388E+06     341.632E+03    -53.0372E-03     105.082E-03    -52.0447E-03     46.9854E-03    -53.0552E-03     104.525E-03    -51.8720E-03     46.7733E-03
            1864     4.27291E-03     33.1511E-03    -42.7841E+06    -144.948E+06    -23.2187E+06     300.970E+03    -52.6249E-03     104.565E-03    -51.9401E-03     39.5538E-03    -52.6235E-03     103.964E-03    -51.7840E-03     39.3912E-03
            1865     3.41857E-03     33.1143E-03    -46.6483E+06    -154.801E+06    -31.5729E+06     232.282E+03    -52.2822E-03     104.127E-03    -51.8443E-03     31.9182E-03    -52.2622E-03     103.483E-03    -51.7101E-03     31.7969E-03
            1866     2.56410E-03     33.0852E-03     -50.188E+06    -160.953E+06    -40.5871E+06     226.727E+03    -52.0001E-03     103.755E-03    -51.7546E-03     24.1529E-03    -51.9679E-03     103.091E-03    -51.6514E-03     24.0677E-03
            1867     1.70947E-03     33.0643E-03    -53.0333E+06    -166.077E+06    -48.4065E+06     178.577E+03    -51.7848E-03     103.474E-03    -51.6888E-03     16.3715E-03    -51.7430E-03     102.794E-03    -51.6132E-03     16.3171E-03
            1868     854.650E-06     33.0514E-03    -54.6116E+06    -169.249E+06    -53.5268E+06    -7.89436E+03    -51.6393E-03     103.332E-03    -51.6924E-03     8.90260E-03    -51.5904E-03     102.644E-03    -51.6354E-03     8.87249E-03
            1869     16.2141E-03     33.4945E-03    -4.77721E+06     140.798E+06     95.4513E+06    -97.8804E+03    -56.5941E-03     110.218E-03    -53.6242E-03     109.027E-03    -59.6046E-03     113.435E-03    -53.3441E-03     108.789E-03
            1870     15.3602E-03     33.3232E-03    -10.9839E+06     137.342E+06     79.0518E+06    -3.40305E+03    -58.9300E-03     112.392E-03    -53.4621E-03     173.307E-03    -63.2873E-03     116.969E-03    -53.2501E-03     172.327E-03
            1871     14.5068E-03     33.1464E-03    -15.0691E+06     115.636E+06     36.3075E+06     88.4044E+03    -59.2217E-03     112.407E-03    -53.1849E-03     164.439E-03    -62.4690E-03     115.906E-03    -53.1492E-03     162.825E-03
            1872     13.6576E-03     32.9904E-03    -16.3451E+06     72.4037E+06     4.40226E+06     368.792E+03    -58.6131E-03     111.583E-03    -52.9696E-03     141.233E-03    -60.6776E-03     113.833E-03    -53.0288E-03     139.655E-03
            1873     12.8040E-03     32.8621E-03    -17.3607E+06     15.9006E+06    -1.71187E+06     616.600E+03    -57.5112E-03     110.401E-03    -52.8896E-03     117.713E-03    -58.7181E-03     111.608E-03    -52.8961E-03     116.419E-03
            1874     11.9526E-03     32.7526E-03    -18.9966E+06    -23.8811E+06     49.5059E+03     541.213E+03    -56.8872E-03     109.708E-03    -52.8208E-03     102.798E-03    -57.6561E-03     110.325E-03    -52.7584E-03     101.732E-03
            1875     11.1002E-03     32.6538E-03    -20.4192E+06    -52.0096E+06    -1.60230E+06     470.658E+03    -56.5420E-03     109.250E-03    -52.7082E-03     95.0339E-03    -57.0709E-03     109.527E-03    -52.6112E-03     94.1371E-03
            1876     10.2482E-03     32.5595E-03    -21.9581E+06    -72.1381E+06    -1.23105E+06     426.917E+03    -56.1192E-03     108.707E-03    -52.5877E-03     88.7581E-03    -56.4896E-03     108.747E-03    -52.4575E-03     88.0094E-03
            1877     9.39549E-03     32.4729E-03    -23.8495E+06    -86.1896E+06    -870.703E+03     389.246E+03    -55.5437E-03     108.003E-03    -52.4591E-03     81.4001E-03    -55.8009E-03     107.872E-03    -52.3039E-03     80.7807E-03
            1878     8.54267E-03     32.3932E-03    -26.0627E+06    -98.5921E+06    -2.63258E+06     465.225E+03    -55.0219E-03     107.341E-03    -52.3195E-03     74.3148E-03    -55.1954E-03     107.080E-03    -52.1519E-03     73.8059E-03
            1879     7.68953E-03     32.3205E-03    -28.6515E+06    -111.047E+06    -3.30136E+06     449.921E+03    -54.4835E-03     106.671E-03    -52.1877E-03     67.5446E-03    -54.5970E-03     106.298E-03    -52.0016E-03     67.1288E-03
            1880     6.83615E-03     32.2544E-03    -31.6971E+06    -121.976E+06    -5.00454E+06     439.472E+03    -53.9188E-03     105.974E-03    -52.0555E-03     60.6577E-03    -53.9890E-03     105.513E-03    -51.8577E-03     60.3218E-03
            1881     5.98242E-03     32.1956E-03    -35.1603E+06    -130.233E+06    -10.0380E+06     399.697E+03    -53.3672E-03     105.281E-03    -51.9143E-03     53.5956E-03    -53.4055E-03     104.762E-03    -51.7246E-03     53.3280E-03
            1882     5.12841E-03     32.1439E-03    -38.8213E+06    -136.108E+06    -16.2871E+06     366.483E+03    -52.8603E-03     104.637E-03    -51.7772E-03     46.4034E-03    -52.8774E-03     104.081E-03    -51.6050E-03     46.1940E-03
            1883     4.27411E-03     32.0998E-03    -42.6820E+06    -144.783E+06    -23.1486E+06     353.415E+03    -52.4106E-03     104.067E-03    -51.6562E-03     39.0266E-03    -52.4084E-03     103.466E-03    -51.5001E-03     38.8668E-03
            1884     3.41961E-03     32.0632E-03    -46.5975E+06    -154.615E+06    -31.5337E+06     349.892E+03    -52.0226E-03     103.569E-03    -51.5465E-03     31.4866E-03    -52.0023E-03     102.926E-03    -51.4124E-03     31.3685E-03
            1885     2.56487E-03     32.0345E-03    -50.1543E+06    -160.778E+06    -40.6470E+06     266.771E+03    -51.7039E-03     103.152E-03    -51.4483E-03     23.8319E-03    -51.6715E-03     102.489E-03    -51.3457E-03     23.7485E-03
            1886     1.70997E-03     32.0138E-03    -52.8495E+06    -165.803E+06    -48.3069E+06     141.391E+03    -51.4776E-03     102.857E-03    -51.3798E-03     16.1129E-03    -51.4354E-03     102.179E-03    -51.3043E-03     16.0588E-03
            1887     855.006E-06     32.0011E-03    -54.7154E+06    -169.141E+06    -53.5164E+06     116.665E+03    -51.3707E-03     102.711E-03    -51.3399E-03     8.78637E-03    -51.3224E-03     102.023E-03    -51.2829E-03     8.75851E-03
            1888     16.2064E-03     32.4338E-03    -4.72917E+06     140.012E+06     94.9612E+06     82.9247E+03    -56.5153E-03     110.173E-03    -53.6581E-03     108.048E-03    -59.4942E-03     113.357E-03    -53.3795E-03     107.774E-03
            1889     15.3589E-03     32.2646E-03    -10.3359E+06     137.456E+06     79.5649E+06     453.101E+03    -59.9668E-03     113.429E-03    -53.4617E-03     170.159E-03    -64.2708E-03     117.953E-03    -53.2482E-03     169.109E-03
            1890     14.5103E-03     32.0894E-03    -14.2480E+06     116.055E+06     35.9167E+06     100.537E+03    -59.6860E-03     112.813E-03    -53.1271E-03     163.771E-03    -62.9200E-03     116.304E-03    -53.0952E-03     162.134E-03
            1891     13.6559E-03     31.9342E-03    -16.7669E+06     71.8239E+06     2.68813E+06     112.409E+03    -58.7016E-03     111.588E-03    -52.8861E-03     140.845E-03    -60.7573E-03     113.831E-03    -52.9525E-03     139.263E-03
            1892     12.8060E-03     31.8054E-03    -17.9242E+06     16.1353E+06    -1.95692E+06     641.823E+03    -57.8013E-03     110.594E-03    -52.7925E-03     116.989E-03    -59.0041E-03     111.796E-03    -52.7997E-03     115.691E-03
            1893     11.9537E-03     31.6975E-03    -18.9387E+06    -23.7497E+06     76.2074E+03     590.111E+03    -57.0568E-03     109.755E-03    -52.6984E-03     102.076E-03    -57.8203E-03     110.367E-03    -52.6361E-03     101.011E-03
            1894     11.1020E-03     31.5981E-03    -20.2140E+06    -51.8109E+06    -1.54394E+06     547.035E+03    -56.6256E-03     109.190E-03    -52.5642E-03     94.4229E-03    -57.1500E-03     109.463E-03    -52.4674E-03     93.5292E-03
            1895     10.2497E-03     31.5051E-03    -21.8415E+06    -71.9427E+06    -1.22513E+06     471.526E+03    -56.1948E-03     108.617E-03    -52.4226E-03     88.0659E-03    -56.5614E-03     108.655E-03    -52.2927E-03     87.3204E-03
            1896     9.39726E-03     31.4186E-03    -23.8503E+06    -86.1269E+06    -1.03974E+06     436.667E+03    -55.6216E-03     107.890E-03    -52.2687E-03     80.6859E-03    -55.8758E-03     107.757E-03    -52.1144E-03     80.0697E-03
            1897     8.54450E-03     31.3397E-03    -26.0991E+06    -98.5398E+06    -2.77829E+06     468.266E+03    -55.0087E-03     107.113E-03    -52.1043E-03     73.5722E-03    -55.1797E-03     106.850E-03    -51.9375E-03     73.0671E-03
            1898     7.69138E-03     31.2674E-03    -28.6595E+06    -110.929E+06    -3.40328E+06     465.594E+03    -54.4100E-03     106.361E-03    -51.9506E-03     66.7771E-03    -54.5215E-03     105.986E-03    -51.7652E-03     66.3651E-03
            1899     6.83789E-03     31.2021E-03    -31.7141E+06    -121.897E+06    -5.13812E+06     385.459E+03    -53.8026E-03     105.600E-03    -51.7974E-03     59.8648E-03    -53.8713E-03     105.138E-03    -51.6003E-03     59.5317E-03
            1900     5.98409E-03     31.1437E-03    -35.1231E+06    -130.113E+06    -10.0503E+06     406.336E+03    -53.2124E-03     104.848E-03    -51.6359E-03     52.8623E-03    -53.2495E-03     104.328E-03    -51.4466E-03     52.5979E-03
            1901     5.12993E-03     31.0927E-03    -38.8712E+06    -136.007E+06    -16.3699E+06     424.015E+03    -52.6598E-03     104.139E-03    -51.4789E-03     45.7417E-03    -52.6762E-03     103.582E-03    -51.3071E-03     45.5359E-03
            1902     4.27549E-03     31.0489E-03    -42.7254E+06    -144.676E+06    -23.1996E+06     425.469E+03    -52.1560E-03     103.497E-03    -51.3412E-03     38.4455E-03    -52.1536E-03     102.897E-03    -51.1855E-03     38.2889E-03
            1903     3.42073E-03     31.0128E-03    -46.5782E+06    -154.433E+06    -31.5075E+06     386.937E+03    -51.7291E-03     102.948E-03    -51.2192E-03     31.0142E-03    -51.7086E-03     102.306E-03    -51.0853E-03     30.8985E-03
            1904     2.56573E-03     30.9844E-03    -50.0301E+06    -160.506E+06    -40.5423E+06     270.570E+03    -51.3955E-03     102.506E-03    -51.1101E-03     23.4566E-03    -51.3629E-03     101.843E-03    -51.0076E-03     23.3746E-03
            1905     1.71059E-03     30.9640E-03    -52.7974E+06    -165.546E+06    -48.2030E+06     224.867E+03    -51.1724E-03     102.195E-03    -51.0221E-03     15.8676E-03    -51.1303E-03     101.517E-03    -50.9465E-03     15.8156E-03
            1906     855.368E-06     30.9513E-03    -54.7748E+06    -168.954E+06    -53.3928E+06     198.773E+03    -51.0266E-03     101.967E-03    -50.9400E-03     8.66711E-03    -50.9790E-03     101.280E-03    -50.8826E-03     8.64091E-03
            1907     16.2152E-03     31.3771E-03    -4.62969E+06     139.659E+06     94.9789E+06     267.874E+03    -57.2115E-03     110.802E-03    -53.5908E-03     107.783E-03    -60.1298E-03     113.924E-03    -53.3117E-03     107.491E-03
            1908     15.3622E-03     31.2054E-03    -9.67282E+06     137.239E+06     79.0727E+06     367.171E+03    -59.1744E-03     112.563E-03    -53.3882E-03     168.785E-03    -63.3862E-03     116.998E-03    -53.1778E-03     167.755E-03
            1909     14.5085E-03     31.0335E-03    -14.1773E+06     116.458E+06     35.8254E+06     544.333E+03    -59.7932E-03     112.863E-03    -53.0699E-03     163.827E-03    -63.0230E-03     116.352E-03    -53.0391E-03     162.188E-03
            1910     13.6595E-03     30.8767E-03    -16.4545E+06     71.8224E+06     3.22399E+06     509.589E+03    -59.2785E-03     112.084E-03    -52.8057E-03     140.037E-03    -61.3285E-03     114.321E-03    -52.8698E-03     138.439E-03
            1911     12.8068E-03     30.7497E-03    -17.6642E+06     15.9491E+06    -2.03788E+06     390.477E+03    -57.9497E-03     110.627E-03    -52.6768E-03     116.049E-03    -59.1397E-03     111.816E-03    -52.6845E-03     114.750E-03
            1912     11.9557E-03     30.6412E-03    -18.7634E+06    -23.5398E+06     113.973E+03     539.360E+03    -57.1631E-03     109.726E-03    -52.5628E-03     101.461E-03    -57.9199E-03     110.332E-03    -52.5009E-03     100.398E-03
            1913     11.1036E-03     30.5435E-03    -20.1792E+06    -51.6801E+06    -1.69929E+06     585.114E+03    -56.7486E-03     109.155E-03    -52.4065E-03     93.7613E-03    -57.2682E-03     109.424E-03    -52.3108E-03     92.8705E-03
            1914     10.2515E-03     30.4501E-03    -21.7669E+06    -71.9212E+06    -1.35632E+06     578.908E+03    -56.3127E-03     108.552E-03    -52.2393E-03     87.2488E-03    -56.6750E-03     108.586E-03    -52.1102E-03     86.5073E-03
            1915     9.39929E-03     30.3647E-03    -23.7055E+06    -85.9359E+06    -1.12243E+06     580.037E+03    -55.6872E-03     107.744E-03    -52.0570E-03     79.7127E-03    -55.9374E-03     107.608E-03    -51.9036E-03     79.1014E-03
            1916     8.54649E-03     30.2863E-03    -26.0235E+06    -98.4642E+06    -2.97564E+06     518.460E+03    -55.0062E-03     106.871E-03    -51.8645E-03     72.6559E-03    -55.1739E-03     106.605E-03    -51.6989E-03     72.1551E-03
            1917     7.69338E-03     30.2148E-03    -28.6006E+06    -110.759E+06    -3.57180E+06     474.559E+03    -54.3420E-03     106.027E-03    -51.6846E-03     65.8553E-03    -54.4510E-03     105.651E-03    -51.5004E-03     65.4473E-03
            1918     6.83989E-03     30.1500E-03    -31.6842E+06    -121.718E+06    -5.23671E+06     411.405E+03    -53.6714E-03     105.179E-03    -51.5074E-03     58.9641E-03    -53.7383E-03     104.716E-03    -51.3112E-03     58.6351E-03
            1919     5.98594E-03     30.0924E-03    -35.2235E+06    -130.109E+06    -10.3127E+06     447.102E+03    -53.0287E-03     104.352E-03    -51.3231E-03     52.0309E-03    -53.0647E-03     103.831E-03    -51.1350E-03     51.7706E-03
            1920     5.13166E-03     30.0418E-03    -38.9039E+06    -135.878E+06    -16.5231E+06     499.323E+03    -52.4096E-03     103.557E-03    -51.1472E-03     44.9855E-03    -52.4252E-03     103.000E-03    -50.9764E-03     44.7838E-03
            1921     4.27694E-03     29.9987E-03    -42.7130E+06    -144.524E+06    -23.3323E+06     428.078E+03    -51.8666E-03     102.861E-03    -50.9943E-03     37.8012E-03    -51.8635E-03     102.261E-03    -50.8395E-03     37.6472E-03
            1922     3.42194E-03     29.9630E-03    -46.4812E+06    -154.244E+06    -31.5182E+06     357.370E+03    -51.4209E-03     102.279E-03    -50.8580E-03     30.4629E-03    -51.3999E-03     101.637E-03    -50.7246E-03     30.3489E-03
            1923     2.56670E-03     29.9351E-03    -49.9793E+06    -160.266E+06    -40.4159E+06     335.350E+03    -51.0612E-03     101.795E-03    -50.7339E-03     23.0471E-03    -51.0286E-03     101.133E-03    -50.6311E-03     22.9676E-03
            1924     1.71127E-03     29.9148E-03    -52.7942E+06    -165.283E+06    -48.0927E+06     278.273E+03    -50.7982E-03     101.432E-03    -50.6335E-03     15.5916E-03    -50.7565E-03     100.755E-03    -50.5578E-03     15.5412E-03
            1925     855.681E-06     29.9025E-03    -54.6231E+06    -168.608E+06    -53.3296E+06     215.279E+03    -50.6137E-03     101.179E-03    -50.5654E-03     8.47730E-03    -50.5659E-03     100.494E-03    -50.5083E-03     8.45189E-03
            1926     16.2122E-03     30.3145E-03    -5.19106E+06     139.257E+06     94.4503E+06    -104.833E+03    -57.4668E-03     111.032E-03    -53.5650E-03     109.879E-03    -60.3833E-03     114.150E-03    -53.2872E-03     109.580E-03
            1927     15.3614E-03     30.1532E-03    -9.62825E+06     136.740E+06     79.5686E+06     866.993E+03    -59.6143E-03     112.965E-03    -53.3508E-03     169.563E-03    -63.8005E-03     117.372E-03    -53.1373E-03     168.516E-03
            1928     14.5104E-03     29.9733E-03    -13.1851E+06     116.877E+06     36.7746E+06     1.10238E+06    -60.3384E-03     113.343E-03    -53.0044E-03     163.759E-03    -63.5574E-03     116.823E-03    -52.9709E-03     162.100E-03
            1929     13.6591E-03     29.8197E-03    -15.6220E+06     72.0595E+06     3.24571E+06     762.298E+03    -59.5054E-03     112.211E-03    -52.7059E-03     138.715E-03    -61.5313E-03     114.428E-03    -52.7715E-03     137.118E-03
            1930     12.8092E-03     29.6932E-03    -17.1819E+06     15.9389E+06    -2.18992E+06     705.336E+03    -58.1404E-03     110.693E-03    -52.5530E-03     115.393E-03    -59.3204E-03     111.875E-03    -52.5621E-03     114.097E-03
            1931     11.9570E-03     29.5859E-03    -18.5981E+06    -23.5313E+06    -151.663E+03     603.449E+03    -57.3709E-03     109.784E-03    -52.4135E-03     100.719E-03    -58.1205E-03     110.385E-03    -52.3532E-03     99.6575E-03
            1932     11.1055E-03     29.4880E-03    -20.1246E+06    -51.6406E+06    -1.84721E+06     628.305E+03    -56.9722E-03     109.199E-03    -52.2269E-03     92.8119E-03    -57.4871E-03     109.465E-03    -52.1320E-03     91.9213E-03
            1933     10.2538E-03     29.3957E-03    -21.6859E+06    -71.7127E+06    -1.43798E+06     677.471E+03    -56.4266E-03     108.454E-03    -52.0271E-03     86.1694E-03    -56.7843E-03     108.484E-03    -51.8988E-03     85.4315E-03
            1934     9.40145E-03     29.3106E-03    -23.6540E+06    -85.8004E+06    -1.22527E+06     658.816E+03    -55.7072E-03     107.523E-03    -51.8155E-03     78.6451E-03    -55.9533E-03     107.384E-03    -51.6630E-03     78.0390E-03
            1935     8.54885E-03     29.2333E-03    -25.8513E+06    -98.2510E+06    -3.02646E+06     634.044E+03    -55.0042E-03     106.598E-03    -51.5939E-03     71.5779E-03    -55.1683E-03     106.330E-03    -51.4290E-03     71.0824E-03
            1936     7.69573E-03     29.1623E-03    -28.4553E+06    -110.609E+06    -3.69079E+06     511.745E+03    -54.2458E-03     105.631E-03    -51.3852E-03     64.7939E-03    -54.3515E-03     105.254E-03    -51.2020E-03     64.3910E-03
            1937     6.84209E-03     29.0986E-03    -31.5615E+06    -121.645E+06    -5.22256E+06     547.534E+03    -53.5104E-03     104.694E-03    -51.1835E-03     57.9917E-03    -53.5748E-03     104.230E-03    -50.9875E-03     57.6690E-03
            1938     5.98806E-03     29.0415E-03    -35.0928E+06    -130.005E+06    -10.2735E+06     577.500E+03    -52.8060E-03     103.783E-03    -50.9767E-03     51.1096E-03    -52.8400E-03     103.260E-03    -50.7887E-03     50.8549E-03
            1939     5.13352E-03     28.9918E-03    -38.7444E+06    -135.694E+06    -16.6087E+06     516.191E+03    -52.1347E-03     102.915E-03    -50.7802E-03     44.1515E-03    -52.1486E-03     102.358E-03    -50.6103E-03     43.9536E-03
            1940     4.27858E-03     28.9491E-03    -42.5591E+06    -144.307E+06    -23.3814E+06     482.755E+03    -51.5590E-03     102.168E-03    -50.6090E-03     37.0613E-03    -51.5547E-03     101.568E-03    -50.4550E-03     36.9110E-03
            1941     3.42335E-03     28.9141E-03    -46.4525E+06    -154.046E+06    -31.6017E+06     449.584E+03    -51.0733E-03     101.529E-03    -50.4555E-03     29.8385E-03    -51.0518E-03     100.887E-03    -50.3228E-03     29.7279E-03
            1942     2.56777E-03     28.8865E-03    -49.9519E+06    -160.036E+06    -40.5331E+06     398.251E+03    -50.6688E-03     100.987E-03    -50.3184E-03     22.5797E-03    -50.6360E-03     100.327E-03    -50.2166E-03     22.5026E-03
            1943     1.71200E-03     28.8666E-03    -52.7331E+06    -165.008E+06    -48.1091E+06     297.896E+03    -50.3645E-03     100.582E-03    -50.2176E-03     15.2786E-03    -50.3228E-03     99.9069E-03    -50.1424E-03     15.2297E-03
            1944     856.025E-06     28.8545E-03    -54.4347E+06    -168.133E+06    -53.1421E+06     162.660E+03    -50.1960E-03     100.355E-03    -50.1591E-03     8.31835E-03    -50.1483E-03     99.6719E-03    -50.1021E-03     8.29277E-03
            1945     16.2114E-03     29.2568E-03    -5.10399E+06     139.489E+06     94.3357E+06    -156.440E+03    -57.6833E-03     111.256E-03    -53.5725E-03     108.260E-03    -60.5783E-03     114.354E-03    -53.2957E-03     107.916E-03
            1946     15.3617E-03     29.0925E-03    -10.6624E+06     135.868E+06     79.6411E+06    -409.120E+03    -60.7897E-03     114.105E-03    -53.3157E-03     167.487E-03    -64.9631E-03     118.492E-03    -53.0991E-03     166.338E-03
            1947     14.5125E-03     28.9165E-03    -13.6436E+06     115.913E+06     37.2327E+06     764.827E+03    -60.8255E-03     113.738E-03    -52.9125E-03     162.664E-03    -64.0277E-03     117.195E-03    -52.8746E-03     160.977E-03
            1948     13.6619E-03     28.7623E-03    -15.5840E+06     72.2627E+06     3.04320E+06     1.36740E+06    -59.3885E-03     111.976E-03    -52.5873E-03     137.828E-03    -61.3942E-03     114.174E-03    -52.6542E-03     136.249E-03
            1949     12.8099E-03     28.6368E-03    -17.1451E+06     16.2506E+06    -2.36524E+06     1.04518E+06    -58.4523E-03     110.868E-03    -52.4156E-03     114.160E-03    -59.6255E-03     112.045E-03    -52.4261E-03     112.862E-03
            1950     11.9595E-03     28.5299E-03    -18.5719E+06    -23.1275E+06    -147.018E+03     868.753E+03    -57.6923E-03     109.932E-03    -52.2401E-03     99.6690E-03    -58.4373E-03     110.530E-03    -52.1804E-03     98.6066E-03
            1951     11.1080E-03     28.4327E-03    -20.1418E+06    -51.4065E+06    -1.99169E+06     746.489E+03    -57.1375E-03     109.155E-03    -52.0173E-03     91.7917E-03    -57.6474E-03     109.417E-03    -51.9236E-03     90.9041E-03
            1952     10.2562E-03     28.3411E-03    -21.8033E+06    -71.7086E+06    -1.69978E+06     741.402E+03    -56.4920E-03     108.279E-03    -51.7867E-03     85.0918E-03    -56.8447E-03     108.304E-03    -51.6596E-03     84.3591E-03
            1953     9.40409E-03     28.2573E-03    -23.6219E+06    -85.5685E+06    -1.35936E+06     778.999E+03    -55.7504E-03     107.295E-03    -51.5446E-03     77.5948E-03    -55.9924E-03     107.153E-03    -51.3930E-03     76.9947E-03
            1954     8.55142E-03     28.1802E-03    -25.8507E+06    -98.0558E+06    -3.19511E+06     692.206E+03    -54.9580E-03     106.250E-03    -51.2919E-03     70.4322E-03    -55.1186E-03     105.980E-03    -51.1282E-03     69.9427E-03
            1955     7.69828E-03     28.1107E-03    -28.4288E+06    -110.433E+06    -3.81373E+06     681.744E+03    -54.1320E-03     105.187E-03    -51.0546E-03     63.6944E-03    -54.2349E-03     104.808E-03    -50.8723E-03     63.2989E-03
            1956     6.84456E-03     28.0473E-03    -31.5699E+06    -121.591E+06    -5.45767E+06     653.868E+03    -53.3319E-03     104.157E-03    -50.8255E-03     56.9515E-03    -53.3939E-03     103.692E-03    -50.6307E-03     56.6350E-03
            1957     5.99032E-03     27.9914E-03    -34.9422E+06    -129.877E+06    -10.3177E+06     643.970E+03    -52.5659E-03     103.160E-03    -50.5941E-03     50.0823E-03    -52.5977E-03     102.637E-03    -50.4067E-03     49.8328E-03
            1958     5.13559E-03     27.9423E-03    -38.5933E+06    -135.493E+06    -16.7125E+06     654.160E+03    -51.8473E-03     102.221E-03    -50.3734E-03     43.2152E-03    -51.8594E-03     101.663E-03    -50.2046E-03     43.0228E-03
            1959     4.28046E-03     27.9004E-03    -42.4933E+06    -144.117E+06    -23.5329E+06     646.747E+03    -51.2093E-03     101.391E-03    -50.1812E-03     36.2542E-03    -51.2039E-03     100.791E-03    -50.0283E-03     36.1091E-03
            1960     3.42484E-03     27.8659E-03    -46.3541E+06    -153.744E+06    -31.6860E+06     585.225E+03    -50.6756E-03     100.687E-03    -50.0116E-03     29.1827E-03    -50.6535E-03     100.047E-03    -49.8799E-03     29.0763E-03
            1961     2.56897E-03     27.8388E-03    -49.8146E+06    -159.726E+06    -40.6233E+06     457.075E+03    -50.2317E-03     100.095E-03    -49.8637E-03     22.0458E-03    -50.1983E-03     99.4359E-03    -49.7630E-03     21.9714E-03
            1962     1.71273E-03     27.8193E-03    -52.4565E+06    -164.644E+06    -48.2407E+06     347.284E+03    -49.9111E-03     99.6675E-03    -49.7564E-03     14.9133E-03    -49.8682E-03     98.9938E-03    -49.6828E-03     14.8662E-03
            1963     856.379E-06     27.8073E-03    -54.0233E+06    -167.622E+06    -53.0614E+06     129.933E+03    -49.7547E-03     99.4310E-03    -49.6763E-03     8.11879E-03    -49.7058E-03     98.7496E-03    -49.6202E-03     8.09329E-03
            1964     16.2142E-03     28.2000E-03    -4.59388E+06     140.516E+06     95.1506E+06     396.904E+03    -58.8429E-03     112.376E-03    -53.5331E-03     108.223E-03    -61.7338E-03     115.473E-03    -53.2544E-03     107.825E-03
            1965     15.3637E-03     28.0315E-03    -10.2572E+06     135.798E+06     79.0102E+06    -197.747E+03    -61.0034E-03     114.235E-03    -53.2315E-03     166.926E-03    -65.1452E-03     118.593E-03    -53.0185E-03     165.754E-03
            1966     14.5137E-03     27.8591E-03    -14.6872E+06     113.832E+06     35.9284E+06    -168.120E+03    -60.8896E-03     113.704E-03    -52.8143E-03     161.735E-03    -64.0687E-03     117.131E-03    -52.7784E-03     160.035E-03
            1967     13.6625E-03     27.7050E-03    -16.7151E+06     72.4672E+06     3.20147E+06     1.17044E+06    -59.8410E-03     112.309E-03    -52.4682E-03     137.609E-03    -61.8500E-03     114.507E-03    -52.5330E-03     136.013E-03
            1968     12.8130E-03     27.5800E-03    -17.9094E+06     17.0926E+06    -2.86391E+06     1.52909E+06    -58.7785E-03     111.034E-03    -52.2559E-03     113.286E-03    -59.9453E-03     112.207E-03    -52.2690E-03     111.990E-03
            1969     11.9616E-03     27.4740E-03    -19.0812E+06    -22.6639E+06    -621.982E+03     1.02764E+06    -57.9523E-03     109.998E-03    -52.0455E-03     98.8279E-03    -58.6939E-03     110.593E-03    -51.9881E-03     97.7667E-03
            1970     11.1106E-03     27.3774E-03    -20.3811E+06    -51.0488E+06    -2.33708E+06     810.292E+03    -57.3002E-03     109.089E-03    -51.7889E-03     90.8258E-03    -57.8049E-03     109.347E-03    -51.6971E-03     89.9425E-03
            1971     10.2589E-03     27.2870E-03    -21.8581E+06    -71.7141E+06    -2.07994E+06     784.454E+03    -56.6117E-03     108.136E-03    -51.5241E-03     83.9946E-03    -56.9587E-03     108.157E-03    -51.3988E-03     83.2666E-03
            1972     9.40683E-03     27.2034E-03    -23.6956E+06    -85.4392E+06    -1.70781E+06     835.292E+03    -55.7802E-03     107.028E-03    -51.2474E-03     76.4011E-03    -56.0177E-03     106.883E-03    -51.0977E-03     75.8070E-03
            1973     8.55428E-03     27.1281E-03    -25.8334E+06    -97.8717E+06    -3.49108E+06     837.846E+03    -54.8901E-03     105.853E-03    -50.9628E-03     69.2183E-03    -55.0466E-03     105.580E-03    -50.8009E-03     68.7365E-03
            1974     7.70099E-03     27.0590E-03    -28.4797E+06    -110.244E+06    -4.13492E+06     837.476E+03    -54.0241E-03     104.718E-03    -50.6942E-03     62.4939E-03    -54.1242E-03     104.338E-03    -50.5137E-03     62.1056E-03
            1975     6.84725E-03     26.9971E-03    -31.5611E+06    -121.274E+06    -5.66922E+06     756.847E+03    -53.1514E-03     103.585E-03    -50.4340E-03     55.7543E-03    -53.2113E-03     103.119E-03    -50.2407E-03     55.4441E-03
            1976     5.99284E-03     26.9417E-03    -35.0585E+06    -129.851E+06    -10.7741E+06     733.826E+03    -52.3059E-03     102.479E-03    -50.1732E-03     48.9858E-03    -52.3360E-03     101.955E-03    -49.9880E-03     48.7421E-03
            1977     5.13797E-03     26.8937E-03    -38.6953E+06    -135.337E+06    -17.0437E+06     834.834E+03    -51.5173E-03     101.445E-03    -49.9281E-03     42.2261E-03    -51.5286E-03     100.888E-03    -49.7610E-03     42.0399E-03
            1978     4.28239E-03     26.8525E-03    -42.4402E+06    -143.856E+06    -23.7628E+06     791.367E+03    -50.8226E-03     100.538E-03    -49.7153E-03     35.4103E-03    -50.8162E-03     99.9391E-03    -49.5640E-03     35.2704E-03
            1979     3.42654E-03     26.8186E-03    -46.1834E+06    -153.435E+06    -31.8059E+06     676.044E+03    -50.2449E-03     99.7738E-03    -49.5289E-03     28.4639E-03    -50.2217E-03     99.1342E-03    -49.3985E-03     28.3613E-03
            1980     2.57020E-03     26.7921E-03    -49.5618E+06    -159.290E+06    -40.5594E+06     558.617E+03    -49.7775E-03     99.1430E-03    -49.3656E-03     21.4641E-03    -49.7432E-03     98.4850E-03    -49.2655E-03     21.3928E-03
            1981     1.71367E-03     26.7730E-03    -52.2767E+06    -164.195E+06    -48.0716E+06     461.060E+03    -49.4383E-03     98.6768E-03    -49.2385E-03     14.5081E-03    -49.3953E-03     98.0047E-03    -49.1650E-03     14.4636E-03
            1982     856.928E-06     26.7612E-03    -53.8893E+06    -167.194E+06    -52.9594E+06     430.860E+03    -49.2209E-03     98.3695E-03    -49.1486E-03     7.91494E-03    -49.1720E-03     97.6898E-03    -49.0928E-03     7.89415E-03
            1983     16.2126E-03     27.1365E-03    -4.44185E+06     140.460E+06     95.1221E+06     163.083E+03    -59.4600E-03     112.956E-03    -53.4956E-03     108.090E-03    -62.3288E-03     116.031E-03    -53.2172E-03     107.658E-03
            1984     15.3651E-03     26.9738E-03    -9.33319E+06     136.195E+06     79.7493E+06     737.910E+03    -61.1045E-03     114.277E-03    -53.1726E-03     166.125E-03    -65.2046E-03     118.596E-03    -52.9578E-03     164.957E-03
            1985     14.5140E-03     26.8007E-03    -14.6844E+06     112.696E+06     34.8102E+06     842.184E+03    -61.2900E-03     114.020E-03    -52.7305E-03     161.527E-03    -64.4534E-03     117.431E-03    -52.6986E-03     159.823E-03
            1986     13.6652E-03     26.6470E-03    -17.7232E+06     71.7780E+06     1.40063E+06     1.08114E+06    -60.4969E-03     112.839E-03    -52.3418E-03     136.617E-03    -62.4945E-03     115.024E-03    -52.4132E-03     135.000E-03
            1987     12.8141E-03     26.5232E-03    -18.5681E+06     18.1451E+06    -3.21324E+06     1.25981E+06    -59.1326E-03     111.221E-03    -52.0888E-03     112.327E-03    -60.2919E-03     112.389E-03    -52.1043E-03     111.025E-03
            1988     11.9641E-03     26.4177E-03    -19.2609E+06    -22.1456E+06    -937.886E+03     850.195E+03    -58.2367E-03     110.077E-03    -51.8406E-03     97.7669E-03    -58.9712E-03     110.668E-03    -51.7853E-03     96.7038E-03
            1989     11.1131E-03     26.3224E-03    -20.3345E+06    -50.8312E+06    -2.60018E+06     773.148E+03    -57.5618E-03     109.106E-03    -51.5438E-03     89.5598E-03    -58.0595E-03     109.358E-03    -51.4536E-03     88.6776E-03
            1990     10.2619E-03     26.2325E-03    -21.9298E+06    -71.5188E+06    -2.44265E+06     795.285E+03    -56.7530E-03     107.990E-03    -51.2371E-03     82.6513E-03    -57.0945E-03     108.007E-03    -51.1138E-03     81.9272E-03
            1991     9.40993E-03     26.1506E-03    -23.6929E+06    -85.4082E+06    -2.14562E+06     802.925E+03    -55.7655E-03     106.689E-03    -50.9238E-03     75.0254E-03    -55.9972E-03     106.540E-03    -50.7763E-03     74.4370E-03
            1992     8.55720E-03     26.0759E-03    -25.7788E+06    -97.9115E+06    -3.90547E+06     984.262E+03    -54.8255E-03     105.432E-03    -50.6063E-03     67.9047E-03    -54.9771E-03     105.156E-03    -50.4465E-03     67.4305E-03
            1993     7.70408E-03     26.0082E-03    -28.3039E+06    -109.907E+06    -4.45506E+06     1.04198E+06    -53.9014E-03     104.205E-03    -50.3037E-03     61.1885E-03    -53.9975E-03     103.824E-03    -50.1256E-03     60.8083E-03
            1994     6.85014E-03     25.9471E-03    -31.4262E+06    -120.975E+06    -5.84072E+06     969.172E+03    -52.9438E-03     102.956E-03    -50.0118E-03     54.4972E-03    -53.0008E-03     102.488E-03    -49.8200E-03     54.1949E-03
            1995     5.99562E-03     25.8930E-03    -34.9581E+06    -129.742E+06    -10.9181E+06     1.01083E+06    -52.0141E-03     101.737E-03    -49.7226E-03     47.8363E-03    -52.0418E-03     101.211E-03    -49.5384E-03     47.6010E-03
            1996     5.14030E-03     25.8457E-03    -38.7059E+06    -135.140E+06    -17.2519E+06     977.967E+03    -51.1584E-03     100.611E-03    -49.4524E-03     41.1905E-03    -51.1684E-03     100.054E-03    -49.2865E-03     41.0104E-03
            1997     4.28462E-03     25.8056E-03    -42.4653E+06    -143.451E+06    -23.8637E+06     876.944E+03    -50.4111E-03     99.6291E-03    -49.2179E-03     34.5026E-03    -50.4045E-03     99.0316E-03    -49.0677E-03     34.3672E-03
            1998     3.42827E-03     25.7723E-03    -46.1712E+06    -153.069E+06    -31.9652E+06     759.702E+03    -49.7840E-03     98.7968E-03    -49.0128E-03     27.7291E-03    -49.7605E-03     98.1587E-03    -48.8837E-03     27.6304E-03
            1999     2.57165E-03     25.7465E-03    -49.5325E+06    -158.951E+06    -40.5533E+06     680.570E+03    -49.2935E-03     98.1264E-03    -48.8330E-03     20.9128E-03    -49.2593E-03     97.4697E-03    -48.7334E-03     20.8450E-03
            2000     1.71462E-03     25.7277E-03    -52.2009E+06    -163.636E+06    -47.7108E+06     566.794E+03    -48.9158E-03     97.6062E-03    -48.6905E-03     14.1164E-03    -48.8736E-03     96.9362E-03    -48.6161E-03     14.0745E-03
            2001     857.363E-06     25.7163E-03    -53.8633E+06    -166.545E+06    -52.4651E+06     412.515E+03    -48.6595E-03     97.2553E-03    -48.5958E-03     7.70394E-03    -48.6121E-03     96.5781E-03    -48.5385E-03     7.68367E-03
            2002     16.2157E-03     26.0748E-03    -4.70389E+06     140.048E+06     94.7697E+06     170.528E+03    -59.5518E-03     113.043E-03    -53.4915E-03     107.978E-03    -62.3898E-03     116.087E-03    -53.2139E-03     107.537E-03
            2003     15.3645E-03     25.9157E-03    -10.9391E+06     134.740E+06     78.5526E+06     775.355E+03    -61.6791E-03     114.827E-03    -53.1484E-03     165.896E-03    -65.7729E-03     119.133E-03    -52.9351E-03     164.685E-03
            2004     14.5158E-03     25.7409E-03    -15.0683E+06     112.741E+06     35.7650E+06     1.74369E+06    -62.4215E-03     115.081E-03    -52.6599E-03     160.993E-03    -65.5854E-03     118.488E-03    -52.6227E-03     159.241E-03
            2005     13.6660E-03     25.5887E-03    -16.6425E+06     72.7478E+06     2.90120E+06     1.51630E+06    -61.1111E-03     113.319E-03    -52.2078E-03     134.948E-03    -63.0807E-03     115.479E-03    -52.2747E-03     133.320E-03
            2006     12.8174E-03     25.4660E-03    -17.5419E+06     18.5997E+06    -3.00216E+06     600.434E+03    -59.5271E-03     111.428E-03    -51.9006E-03     110.676E-03    -60.6707E-03     112.584E-03    -51.9172E-03     109.359E-03
            2007     11.9666E-03     25.3615E-03    -18.5892E+06    -21.9721E+06    -923.832E+03     831.164E+03    -58.5014E-03     110.112E-03    -51.6104E-03     96.3305E-03    -59.2223E-03     110.691E-03    -51.5562E-03     95.2692E-03
            2008     11.1163E-03     25.2670E-03    -20.1731E+06    -50.8395E+06    -3.00582E+06     961.497E+03    -57.7544E-03     109.027E-03    -51.2726E-03     88.1729E-03    -58.2441E-03     109.273E-03    -51.1847E-03     87.2951E-03
            2009     10.2651E-03     25.1785E-03    -21.7593E+06    -71.2360E+06    -2.67624E+06     827.913E+03    -56.8431E-03     107.771E-03    -50.9274E-03     81.2191E-03    -57.1777E-03     107.783E-03    -50.8059E-03     80.5002E-03
            2010     9.41314E-03     25.0978E-03    -23.6341E+06    -85.3279E+06    -2.46611E+06     919.764E+03    -55.7781E-03     106.355E-03    -50.5765E-03     73.5861E-03    -56.0040E-03     106.201E-03    -50.4308E-03     73.0051E-03
            2011     8.56061E-03     25.0243E-03    -25.8351E+06    -98.0520E+06    -4.56069E+06     1.08424E+06    -54.7419E-03     104.964E-03    -50.2219E-03     66.5190E-03    -54.8884E-03     104.684E-03    -50.0651E-03     66.0526E-03
            2012     7.70721E-03     24.9577E-03    -28.2936E+06    -109.633E+06    -5.09070E+06     1.23534E+06    -53.7166E-03     103.603E-03    -49.8865E-03     59.8224E-03    -53.8087E-03     103.220E-03    -49.7120E-03     59.4513E-03
            2013     6.85323E-03     24.8979E-03    -31.3158E+06    -120.771E+06    -6.17189E+06     1.28363E+06    -52.6903E-03     102.257E-03    -49.5670E-03     53.2045E-03    -52.7440E-03     101.789E-03    -49.3773E-03     52.9122E-03
            2014     5.99839E-03     24.8449E-03    -34.8624E+06    -129.587E+06    -10.9462E+06     1.31623E+06    -51.7057E-03     100.957E-03    -49.2517E-03     46.6428E-03    -51.7313E-03     100.431E-03    -49.0680E-03     46.4165E-03
            2015     5.14302E-03     24.7988E-03    -38.5569E+06    -134.655E+06    -17.1809E+06     1.22368E+06    -50.7846E-03     99.7402E-03    -48.9556E-03     40.1343E-03    -50.7934E-03     99.1839E-03    -48.7903E-03     39.9618E-03
            2016     4.28679E-03     24.7595E-03    -42.4114E+06    -143.019E+06    -23.8418E+06     1.02181E+06    -49.9723E-03     98.6717E-03    -48.6994E-03     33.5842E-03    -49.9652E-03     98.0754E-03    -48.5498E-03     33.4545E-03
            2017     3.43018E-03     24.7272E-03    -46.1662E+06    -152.656E+06    -31.9608E+06     905.092E+03    -49.3000E-03     97.7768E-03    -48.4768E-03     26.9886E-03    -49.2766E-03     97.1402E-03    -48.3483E-03     26.8946E-03
            2018     2.57300E-03     24.7018E-03    -49.5318E+06    -158.479E+06    -40.5369E+06     710.838E+03    -48.7624E-03     97.0476E-03    -48.2852E-03     20.3538E-03    -48.7287E-03     96.3930E-03    -48.1863E-03     20.2885E-03
            2019     1.71559E-03     24.6837E-03    -52.0447E+06    -163.013E+06    -47.5621E+06     413.996E+03    -48.3672E-03     96.5043E-03    -48.1371E-03     13.7125E-03    -48.3252E-03     95.8368E-03    -48.0631E-03     13.6699E-03
            2020     857.868E-06     24.6725E-03    -53.5361E+06    -165.876E+06    -52.2896E+06     95.7692E+03    -48.1186E-03     96.1442E-03    -48.0256E-03     7.46637E-03    -48.0707E-03     95.4695E-03    -47.9689E-03     7.44258E-03
            2021     16.2121E-03     25.0170E-03    -5.16584E+06     138.748E+06     93.6870E+06     549.351E+03    -60.0678E-03     113.581E-03    -53.5128E-03     107.218E-03    -62.8932E-03     116.609E-03    -53.2380E-03     106.724E-03
            2022     15.3641E-03     24.8530E-03    -10.5874E+06     134.265E+06     78.7005E+06     1.44720E+06    -63.0113E-03     116.133E-03    -53.1216E-03     165.112E-03    -67.0927E-03     120.425E-03    -52.9074E-03     163.811E-03
            2023     14.5169E-03     24.6810E-03    -13.9244E+06     113.833E+06     38.0763E+06     1.31708E+06    -63.4435E-03     116.007E-03    -52.5636E-03     158.760E-03    -66.5758E-03     119.384E-03    -52.5181E-03     156.951E-03
            2024     13.6694E-03     24.5295E-03    -15.5813E+06     73.2811E+06     4.41999E+06     789.554E+03    -61.5915E-03     113.638E-03    -52.0470E-03     133.048E-03    -63.5373E-03     115.776E-03    -52.1085E-03     131.398E-03
            2025     12.8196E-03     24.4088E-03    -16.4533E+06     18.6189E+06    -3.08384E+06     1.13665E+06    -59.9088E-03     111.595E-03    -51.6865E-03     109.199E-03    -61.0362E-03     112.739E-03    -51.7051E-03     107.883E-03
            2026     11.9701E-03     24.3053E-03    -18.1295E+06    -22.0519E+06    -1.29191E+06     1.36825E+06    -58.7302E-03     110.085E-03    -51.3546E-03     95.0249E-03    -59.4395E-03     110.655E-03    -51.3028E-03     93.9720E-03
            2027     11.1194E-03     24.2119E-03    -19.7682E+06    -50.5034E+06    -3.14226E+06     1.18711E+06    -57.8220E-03     108.805E-03    -50.9827E-03     86.8943E-03    -58.3019E-03     109.044E-03    -50.8965E-03     86.0255E-03
            2028     10.2684E-03     24.1247E-03    -21.3270E+06    -71.1155E+06    -2.92440E+06     1.15671E+06    -56.9129E-03     107.516E-03    -50.6030E-03     79.7891E-03    -57.2386E-03     107.522E-03    -50.4836E-03     79.0802E-03
            2029     9.41666E-03     24.0452E-03    -23.4246E+06    -85.2708E+06    -2.63467E+06     1.22539E+06    -55.7982E-03     106.013E-03    -50.2148E-03     72.1400E-03    -56.0177E-03     105.854E-03    -50.0704E-03     71.5688E-03
            2030     8.56402E-03     23.9732E-03    -25.6788E+06    -97.9774E+06    -4.97259E+06     1.34939E+06    -54.6465E-03     104.469E-03    -49.8222E-03     65.1215E-03    -54.7874E-03     104.185E-03    -49.6678E-03     64.6655E-03
            2031     7.71065E-03     23.9079E-03    -28.1832E+06    -109.623E+06    -5.76704E+06     1.51381E+06    -53.5059E-03     102.960E-03    -49.4540E-03     58.4586E-03    -53.5930E-03     102.575E-03    -49.2830E-03     58.0983E-03
            2032     6.85633E-03     23.8494E-03    -31.2741E+06    -120.558E+06    -6.59465E+06     1.66144E+06    -52.4077E-03     101.516E-03    -49.1081E-03     51.8770E-03    -52.4584E-03     101.047E-03    -48.9210E-03     51.5958E-03
            2033     6.00137E-03     23.7977E-03    -34.8347E+06    -129.198E+06    -11.0719E+06     1.61725E+06    -51.3626E-03     100.132E-03    -48.7691E-03     45.4247E-03    -51.3866E-03     99.6054E-03    -48.5866E-03     45.2078E-03
            2034     5.14552E-03     23.7528E-03    -38.4858E+06    -134.070E+06    -17.0990E+06     1.42151E+06    -50.3833E-03     98.8346E-03    -48.4513E-03     39.0630E-03    -50.3914E-03     98.2797E-03    -48.2866E-03     38.8977E-03
            2035     4.28913E-03     23.7145E-03    -42.2746E+06    -142.499E+06    -23.8420E+06     1.24376E+06    -49.5276E-03     97.7023E-03    -48.1747E-03     32.6697E-03    -49.5197E-03     97.1076E-03    -48.0260E-03     32.5466E-03
            2036     3.43201E-03     23.6830E-03    -46.0154E+06    -152.146E+06    -31.9978E+06     1.07610E+06    -48.8013E-03     96.7373E-03    -47.9359E-03     26.2309E-03    -48.7773E-03     96.1026E-03    -47.8086E-03     26.1422E-03
            2037     2.57451E-03     23.6584E-03    -49.2613E+06    -157.751E+06    -40.4641E+06     759.608E+03    -48.2117E-03     95.9493E-03    -47.7376E-03     19.7972E-03    -48.1775E-03     95.2976E-03    -47.6398E-03     19.7349E-03
            2038     1.71649E-03     23.6407E-03    -51.8380E+06    -162.442E+06    -47.6810E+06     296.203E+03    -47.8075E-03     95.3996E-03    -47.5921E-03     13.3545E-03    -47.7650E-03     94.7348E-03    -47.5198E-03     13.3119E-03
            2039     858.346E-06     23.6299E-03    -53.5620E+06    -165.477E+06    -52.4578E+06     69.6674E+03    -47.5978E-03     95.0619E-03    -47.4642E-03     7.25071E-03    -47.5503E-03     94.3895E-03    -47.4089E-03     7.22712E-03
            2040     16.2135E-03     23.9541E-03    -4.81854E+06     138.151E+06     93.3945E+06     649.787E+03    -61.4357E-03     114.921E-03    -53.4851E-03     105.615E-03    -64.2353E-03     117.923E-03    -53.2115E-03     105.024E-03
            2041     15.3667E-03     23.7916E-03    -9.79651E+06     134.243E+06     79.7617E+06     1.07773E+06    -64.0288E-03     117.054E-03    -53.0252E-03     162.656E-03    -68.0503E-03     121.286E-03    -52.8069E-03     161.276E-03
            2042     14.5197E-03     23.6189E-03    -13.2914E+06     113.579E+06     37.5238E+06     874.122E+03    -63.5005E-03     115.915E-03    -52.4146E-03     156.789E-03    -66.5810E-03     119.243E-03    -52.3724E-03     154.975E-03
            2043     13.6712E-03     23.4714E-03    -15.5437E+06     72.9144E+06     2.54584E+06     1.18722E+06    -61.9279E-03     113.793E-03    -51.8647E-03     131.775E-03    -63.8548E-03     115.916E-03    -51.9352E-03     130.124E-03
            2044     12.8227E-03     23.3505E-03    -17.3005E+06     19.1563E+06    -3.91698E+06     1.74253E+06    -60.2612E-03     111.732E-03    -51.4704E-03     107.847E-03    -61.3782E-03     112.867E-03    -51.4927E-03     106.537E-03
            2045     11.9731E-03     23.2493E-03    -18.3921E+06    -21.7146E+06    -1.96487E+06     1.52854E+06    -58.9888E-03     110.086E-03    -51.0976E-03     93.8391E-03    -59.6905E-03     110.651E-03    -51.0493E-03     92.7886E-03
            2046     11.1228E-03     23.1569E-03    -19.5788E+06    -50.0532E+06    -3.37888E+06     1.48394E+06    -58.0184E-03     108.705E-03    -50.6863E-03     85.5945E-03    -58.4890E-03     108.938E-03    -50.6022E-03     84.7347E-03
            2047     10.2718E-03     23.0709E-03    -21.3380E+06    -71.0134E+06    -3.35393E+06     1.54752E+06    -56.9398E-03     107.208E-03    -50.2684E-03     78.2878E-03    -57.2576E-03     107.208E-03    -50.1513E-03     77.5913E-03
            2048     9.42004E-03     22.9931E-03    -23.2225E+06    -85.3040E+06    -2.84912E+06     1.58762E+06    -55.7524E-03     105.599E-03    -49.8469E-03     70.6273E-03    -55.9647E-03     105.435E-03    -49.7038E-03     70.0680E-03
            2049     8.56750E-03     22.9225E-03    -25.5097E+06    -97.7078E+06    -5.00126E+06     1.76131E+06    -54.5204E-03     103.942E-03    -49.4220E-03     63.6516E-03    -54.6563E-03     103.655E-03    -49.2684E-03     63.2083E-03
            2050     7.71393E-03     22.8588E-03    -28.0957E+06    -109.640E+06    -6.32397E+06     1.93503E+06    -53.2995E-03     102.321E-03    -49.0212E-03     57.0945E-03    -53.3819E-03     101.933E-03    -48.8531E-03     56.7467E-03
            2051     6.85957E-03     22.8017E-03    -31.0872E+06    -120.170E+06    -6.97479E+06     2.03862E+06    -52.1206E-03     100.769E-03    -48.6484E-03     50.5839E-03    -52.1676E-03     100.299E-03    -48.4639E-03     50.3143E-03
            2052     6.00424E-03     22.7514E-03    -34.4143E+06    -128.596E+06    -11.1863E+06     1.84888E+06    -51.0011E-03     99.2880E-03    -48.2870E-03     44.2045E-03    -51.0217E-03     98.7625E-03    -48.1065E-03     43.9963E-03
            2053     5.14819E-03     22.7076E-03    -38.0516E+06    -133.614E+06    -17.3854E+06     1.72186E+06    -49.9677E-03     97.9172E-03    -47.9495E-03     37.9719E-03    -49.9725E-03     97.3630E-03    -47.7875E-03     37.8154E-03
            2054     4.29130E-03     22.6704E-03    -41.8899E+06    -141.789E+06    -23.9619E+06     1.61818E+06    -49.0675E-03     96.7255E-03    -47.6580E-03     31.7480E-03    -49.0576E-03     96.1330E-03    -47.5115E-03     31.6338E-03
            2055     3.43390E-03     22.6399E-03    -45.6854E+06    -151.390E+06    -32.1587E+06     1.26898E+06    -48.3095E-03     95.7161E-03    -47.4066E-03     25.4715E-03    -48.2841E-03     95.0843E-03    -47.2817E-03     25.3884E-03
            2056     2.57580E-03     22.6161E-03    -48.9175E+06    -157.047E+06    -40.5766E+06     916.955E+03    -47.6904E-03     94.8901E-03    -47.1997E-03     19.2042E-03    -47.6550E-03     94.2412E-03    -47.1040E-03     19.1463E-03
            2057     1.71743E-03     22.5989E-03    -51.5579E+06    -161.759E+06    -47.7624E+06     617.951E+03    -47.2556E-03     94.3103E-03    -47.0547E-03     12.9571E-03    -47.2125E-03     93.6484E-03    -46.9842E-03     12.9203E-03
            2058     858.725E-06     22.5884E-03    -53.5802E+06    -164.956E+06    -52.5742E+06     392.170E+03    -47.0802E-03     93.9946E-03    -46.9144E-03     7.03805E-03    -47.0334E-03     93.3250E-03    -46.8604E-03     7.01955E-03
            2059     16.2146E-03     22.8898E-03    -4.92589E+06     138.160E+06     93.7076E+06     702.069E+03    -62.9114E-03     116.304E-03    -53.3923E-03     104.704E-03    -65.6639E-03     119.258E-03    -53.1170E-03     104.055E-03
            2060     15.3697E-03     22.7278E-03    -9.77621E+06     134.034E+06     79.1432E+06     584.186E+03    -63.9679E-03     116.849E-03    -52.8809E-03     161.036E-03    -67.9245E-03     121.017E-03    -52.6654E-03     159.647E-03
            2061     14.5214E-03     22.5609E-03    -14.0603E+06     112.514E+06     35.8244E+06     1.13042E+06    -63.5272E-03     115.784E-03    -52.2565E-03     155.914E-03    -66.5729E-03     119.075E-03    -52.2201E-03     154.103E-03
            2062     13.6733E-03     22.4098E-03    -16.3849E+06     72.8890E+06     1.67180E+06     1.96588E+06    -62.1460E-03     113.834E-03    -51.6883E-03     130.224E-03    -64.0424E-03     115.927E-03    -51.7619E-03     128.582E-03
            2063     12.8253E-03     22.2937E-03    -17.5117E+06     19.6331E+06    -4.35432E+06     1.50075E+06    -60.5636E-03     111.824E-03    -51.2605E-03     106.281E-03    -61.6660E-03     112.947E-03    -51.2854E-03     104.966E-03
            2064     11.9757E-03     22.1924E-03    -18.6633E+06    -21.4777E+06    -2.52122E+06     1.45983E+06    -59.3607E-03     110.204E-03    -50.8436E-03     92.3190E-03    -60.0523E-03     110.761E-03    -50.7980E-03     91.2679E-03
            2065     11.1262E-03     22.1020E-03    -19.9321E+06    -49.9279E+06    -3.96882E+06     1.67211E+06    -58.1993E-03     108.586E-03    -50.3870E-03     83.9668E-03    -58.6620E-03     108.813E-03    -50.3055E-03     83.1141E-03
            2066     10.2753E-03     22.0177E-03    -21.2427E+06    -70.8406E+06    -3.52754E+06     1.71836E+06    -56.9717E-03     106.904E-03    -49.9321E-03     76.7891E-03    -57.2816E-03     106.897E-03    -49.8162E-03     76.1022E-03
            2067     9.42361E-03     21.9412E-03    -23.1280E+06    -85.1494E+06    -3.08514E+06     1.98216E+06    -55.6472E-03     105.126E-03    -49.4785E-03     69.0541E-03    -55.8527E-03     104.956E-03    -49.3369E-03     68.5088E-03
            2068     8.57087E-03     21.8725E-03    -25.3984E+06    -97.5786E+06    -5.10118E+06     2.24408E+06    -54.3359E-03     103.363E-03    -49.0273E-03     62.1320E-03    -54.4663E-03     103.072E-03    -48.8744E-03     61.7034E-03
            2069     7.71723E-03     21.8102E-03    -28.1464E+06    -109.549E+06    -6.76314E+06     2.49542E+06    -53.0640E-03     101.664E-03    -48.5999E-03     55.6887E-03    -53.1425E-03     101.273E-03    -48.4341E-03     55.3557E-03
            2070     6.86259E-03     21.7547E-03    -31.0200E+06    -119.250E+06    -7.89333E+06     2.16262E+06    -51.8253E-03     100.025E-03    -48.1998E-03     49.2832E-03    -51.8692E-03     99.5584E-03    -48.0213E-03     49.0224E-03
            2071     6.00709E-03     21.7058E-03    -33.9352E+06    -128.219E+06    -11.1917E+06     1.79218E+06    -50.6600E-03     98.4814E-03    -47.8213E-03     42.9943E-03    -50.6768E-03     97.9549E-03    -47.6422E-03     42.7915E-03
            2072     5.15065E-03     21.6635E-03    -37.3081E+06    -133.603E+06    -16.8073E+06     2.22265E+06    -49.5743E-03     97.0416E-03    -47.4673E-03     36.8531E-03    -49.5748E-03     96.4841E-03    -47.3035E-03     36.7081E-03
            2073     4.29347E-03     21.6274E-03    -41.2085E+06    -140.661E+06    -23.8814E+06     2.24127E+06    -48.6182E-03     95.7744E-03    -47.1562E-03     30.7483E-03    -48.6056E-03     95.1855E-03    -47.0119E-03     30.6464E-03
            2074     3.43555E-03     21.5979E-03    -45.0720E+06    -150.484E+06    -32.2304E+06     1.70455E+06    -47.8353E-03     94.7274E-03    -46.8921E-03     24.6264E-03    -47.8075E-03     94.0989E-03    -46.7697E-03     24.5521E-03
            2075     2.57725E-03     21.5748E-03    -48.5324E+06    -156.222E+06    -40.8277E+06     1.39400E+06    -47.2059E-03     93.8771E-03    -46.6712E-03     18.5441E-03    -47.1691E-03     93.2318E-03    -46.5784E-03     18.4946E-03
            2076     1.71836E-03     21.5583E-03    -51.2497E+06    -160.850E+06    -47.6943E+06     1.16155E+06    -46.7437E-03     93.2555E-03    -46.5118E-03     12.5174E-03    -46.7003E-03     92.5975E-03    -46.4427E-03     12.4891E-03
            2077     859.263E-06     21.5480E-03    -53.0904E+06    -163.775E+06    -52.0728E+06     816.613E+03    -46.5218E-03     92.8946E-03    -46.3727E-03     6.82628E-03    -46.4749E-03     92.2293E-03    -46.3187E-03     6.81430E-03
            2078     16.2192E-03     21.8237E-03    -5.14813E+06     137.810E+06     93.3426E+06     483.707E+03    -63.6338E-03     116.995E-03    -53.3617E-03     105.592E-03    -66.3887E-03     119.951E-03    -53.0874E-03     104.901E-03
            2079     15.3703E-03     21.6691E-03    -9.26795E+06     133.978E+06     79.3760E+06     882.852E+03    -64.8131E-03     117.623E-03    -52.8096E-03     161.413E-03    -68.7574E-03     121.780E-03    -52.5935E-03     159.971E-03
            2080     14.5235E-03     21.4970E-03    -13.6083E+06     112.528E+06     37.7098E+06     1.83414E+06    -64.3915E-03     116.531E-03    -52.1395E-03     154.915E-03    -67.3982E-03     119.780E-03    -52.0944E-03     153.077E-03
            2081     13.6768E-03     21.3527E-03    -15.7021E+06     72.7766E+06     2.76369E+06     1.92722E+06    -62.5448E-03     114.063E-03    -51.5177E-03     128.902E-03    -64.4022E-03     116.115E-03    -51.5867E-03     127.258E-03
            2082     12.8272E-03     21.2343E-03    -16.9630E+06     19.5648E+06    -5.04228E+06     1.77508E+06    -60.9821E-03     112.020E-03    -51.0379E-03     104.540E-03    -62.0642E-03     113.126E-03    -51.0669E-03     103.225E-03
            2083     11.9797E-03     21.1362E-03    -18.4202E+06    -20.6960E+06    -2.56080E+06     1.67008E+06    -59.5257E-03     110.107E-03    -50.5817E-03     90.3320E-03    -60.2030E-03     110.653E-03    -50.5378E-03     89.2898E-03
            2084     11.1293E-03     21.0472E-03    -19.7410E+06    -49.8363E+06    -4.40973E+06     1.64635E+06    -58.2247E-03     108.316E-03    -50.0917E-03     82.5356E-03    -58.6763E-03     108.534E-03    -50.0129E-03     81.6914E-03
            2085     10.2787E-03     20.9645E-03    -21.2313E+06    -71.0039E+06    -4.17134E+06     2.03370E+06    -56.9930E-03     106.599E-03    -49.6056E-03     75.2620E-03    -57.2941E-03     106.584E-03    -49.4928E-03     74.5872E-03
            2086     9.42700E-03     20.8900E-03    -23.1720E+06    -85.1456E+06    -3.59793E+06     2.41682E+06    -55.5428E-03     104.665E-03    -49.1226E-03     67.5442E-03    -55.7411E-03     104.490E-03    -48.9835E-03     67.0140E-03
            2087     8.57417E-03     20.8229E-03    -25.4343E+06    -97.7620E+06    -5.75359E+06     2.75242E+06    -54.1574E-03     102.803E-03    -48.6453E-03     60.6667E-03    -54.2819E-03     102.507E-03    -48.4954E-03     60.2535E-03
            2088     7.72032E-03     20.7624E-03    -27.7834E+06    -109.176E+06    -7.32523E+06     2.90729E+06    -52.8368E-03     101.030E-03    -48.1931E-03     54.2049E-03    -52.9092E-03     100.637E-03    -48.0311E-03     53.8855E-03
            2089     6.86550E-03     20.7085E-03    -30.3988E+06    -117.655E+06    -8.85970E+06     2.29754E+06    -51.5475E-03     99.3131E-03    -47.7656E-03     47.8383E-03    -51.5860E-03     98.8518E-03    -47.5952E-03     47.5867E-03
            2090     6.00970E-03     20.6611E-03    -33.5892E+06    -128.280E+06    -11.6643E+06     1.92008E+06    -50.3437E-03     97.7134E-03    -47.3697E-03     41.6070E-03    -50.3556E-03     97.1846E-03    -47.1933E-03     41.4121E-03
            2091     5.15308E-03     20.6201E-03    -37.1686E+06    -133.951E+06    -16.5118E+06     2.59427E+06    -49.2158E-03     96.2133E-03    -46.9975E-03     35.5588E-03    -49.2140E-03     95.6519E-03    -46.8319E-03     35.4238E-03
            2092     4.29555E-03     20.5853E-03    -40.8483E+06    -139.412E+06    -24.1139E+06     2.85646E+06    -48.2127E-03     94.8720E-03    -46.6592E-03     29.5992E-03    -48.1988E-03     94.2880E-03    -46.5184E-03     29.5094E-03
            2093     3.43739E-03     20.5569E-03    -44.7112E+06    -149.425E+06    -32.3894E+06     2.58539E+06    -47.3792E-03     93.7559E-03    -46.3767E-03     23.6499E-03    -47.3502E-03     93.1316E-03    -46.2571E-03     23.5903E-03
            2094     2.57847E-03     20.5346E-03    -48.3253E+06    -154.898E+06    -40.4190E+06     2.12458E+06    -46.7193E-03     92.8605E-03    -46.1411E-03     17.7767E-03    -46.6836E-03     92.2205E-03    -46.0485E-03     17.7390E-03
            2095     1.71931E-03     20.5187E-03    -50.9856E+06    -159.502E+06    -47.1381E+06     1.46200E+06    -46.2375E-03     92.1986E-03    -45.9611E-03     11.9864E-03    -46.1954E-03     91.5460E-03    -45.8916E-03     11.9637E-03
            2096     859.726E-06     20.5088E-03    -52.4141E+06    -162.012E+06    -51.2716E+06     776.564E+03    -45.9414E-03     91.7665E-03    -45.8251E-03     6.57414E-03    -45.8948E-03     91.1079E-03    -45.7705E-03     6.56248E-03
            2097     16.2116E-03     20.7608E-03    -5.08287E+06     136.686E+06     92.4475E+06     142.438E+03    -63.8050E-03     117.189E-03    -53.3844E-03     103.630E-03    -66.5237E-03     120.107E-03    -53.1130E-03     102.880E-03
            2098     15.3696E-03     20.6009E-03    -9.75691E+06     133.091E+06     79.6734E+06     1.03846E+06    -66.1632E-03     118.957E-03    -52.7942E-03     159.739E-03    -70.0634E-03     123.064E-03    -52.5747E-03     158.213E-03
            2099     14.5256E-03     20.4373E-03    -13.4378E+06     112.127E+06     38.4300E+06     2.11826E+06    -65.4815E-03     117.527E-03    -52.0450E-03     152.573E-03    -68.4366E-03     120.721E-03    -51.9960E-03     150.696E-03
            2100     13.6772E-03     20.2915E-03    -16.3666E+06     73.5936E+06     1.68042E+06     2.51269E+06    -63.3768E-03     114.718E-03    -51.3409E-03     127.282E-03    -65.2161E-03     116.755E-03    -51.4155E-03     125.628E-03
            2101     12.8320E-03     20.1760E-03    -17.7858E+06     20.6404E+06    -6.21879E+06     1.99114E+06    -61.2006E-03     112.010E-03    -50.8092E-03     102.619E-03    -62.2622E-03     113.100E-03    -50.8445E-03     101.316E-03
            2102     11.9819E-03     20.0801E-03    -18.4234E+06    -20.7385E+06    -3.55383E+06     1.69856E+06    -59.4765E-03     109.804E-03    -50.3280E-03     89.0417E-03    -60.1383E-03     110.338E-03    -50.2890E-03     88.0121E-03
            2103     11.1325E-03     19.9925E-03    -19.6548E+06    -49.7183E+06    -5.00191E+06     2.01439E+06    -58.3446E-03     108.158E-03    -49.8139E-03     81.1313E-03    -58.7853E-03     108.368E-03    -49.7383E-03     80.2992E-03
            2104     10.2818E-03     19.9116E-03    -21.2011E+06    -71.0851E+06    -4.88839E+06     2.40898E+06    -56.9609E-03     106.258E-03    -49.2969E-03     73.5801E-03    -57.2513E-03     106.235E-03    -49.1875E-03     72.9208E-03
            2105     9.43005E-03     19.8391E-03    -22.9724E+06    -85.3240E+06    -4.32395E+06     2.84812E+06    -55.4915E-03     104.276E-03    -48.7849E-03     65.8401E-03    -55.6804E-03     104.093E-03    -48.6494E-03     65.3246E-03
            2106     8.57720E-03     19.7738E-03    -24.9338E+06    -97.7214E+06    -6.31203E+06     3.07282E+06    -54.0725E-03     102.349E-03    -48.2761E-03     58.9352E-03    -54.1881E-03     102.047E-03    -48.1298E-03     58.5347E-03
            2107     7.72333E-03     19.7150E-03    -26.8705E+06    -108.436E+06    -8.00006E+06     2.97411E+06    -52.6851E-03     100.474E-03    -47.7894E-03     52.4231E-03    -52.7484E-03     100.081E-03    -47.6332E-03     52.1129E-03
            2108     6.86838E-03     19.6628E-03    -29.3689E+06    -116.492E+06    -9.38110E+06     2.79415E+06    -51.3346E-03     98.6645E-03    -47.3299E-03     46.0410E-03    -51.3654E-03     98.2047E-03    -47.1653E-03     45.8034E-03
            2109     6.01244E-03     19.6170E-03    -32.8756E+06    -128.189E+06    -12.5049E+06     2.92812E+06    -50.0606E-03     96.9641E-03    -46.9035E-03     39.8416E-03    -50.0651E-03     96.4331E-03    -46.7325E-03     39.6667E-03
            2110     5.15550E-03     19.5776E-03    -36.9536E+06    -134.052E+06    -17.7236E+06     3.25395E+06    -48.8749E-03     95.3756E-03    -46.5007E-03     33.9129E-03    -48.8681E-03     94.8131E-03    -46.3414E-03     33.7923E-03
            2111     4.29773E-03     19.5441E-03    -40.9963E+06    -138.490E+06    -24.6193E+06     3.59622E+06    -47.8148E-03     93.9505E-03    -46.1357E-03     28.1199E-03    -47.8009E-03     93.3708E-03    -45.9986E-03     28.0445E-03
            2112     3.43913E-03     19.5168E-03    -44.8195E+06    -147.843E+06    -31.9273E+06     3.30156E+06    -46.9246E-03     92.7528E-03    -45.8283E-03     22.3981E-03    -46.8983E-03     92.1352E-03    -45.7086E-03     22.3516E-03
            2113     2.58004E-03     19.4955E-03    -47.9877E+06    -153.007E+06    -39.3046E+06     2.41519E+06    -46.1976E-03     91.7678E-03    -45.5702E-03     16.7954E-03    -46.1641E-03     91.1348E-03    -45.4753E-03     16.7644E-03
            2114     1.72027E-03     19.4801E-03    -50.3830E+06    -157.627E+06    -46.1500E+06     1.48078E+06    -45.6663E-03     91.0388E-03    -45.3725E-03     11.3023E-03    -45.6251E-03     90.3930E-03    -45.3017E-03     11.2817E-03
            2115     860.277E-06     19.4708E-03    -51.9455E+06    -160.411E+06    -51.0478E+06     759.757E+03    -45.3530E-03     90.5706E-03    -45.2176E-03     6.18927E-03    -45.3067E-03     89.9189E-03    -45.1649E-03     6.17835E-03
            2116     16.2185E-03     19.6976E-03    -4.68567E+06     136.344E+06     92.6238E+06     412.771E+03    -64.8262E-03     118.162E-03    -53.3357E-03     100.333E-03    -67.4687E-03     121.003E-03    -53.0635E-03     99.5327E-03
            2117     15.3713E-03     19.5341E-03    -10.6233E+06     131.754E+06     78.1056E+06     854.711E+03    -66.0386E-03     118.747E-03    -52.7084E-03     157.391E-03    -69.8672E-03     122.779E-03    -52.4935E-03     155.850E-03
            2118     14.5254E-03     19.3751E-03    -15.4306E+06     110.447E+06     37.1583E+06     1.92439E+06    -66.1540E-03     118.085E-03    -51.9309E-03     149.534E-03    -69.0651E-03     121.226E-03    -51.8829E-03     147.625E-03
            2119     13.6822E-03     19.2291E-03    -17.1505E+06     74.5100E+06     2.25535E+06     2.44421E+06    -63.7854E-03     114.965E-03    -51.1794E-03     124.937E-03    -65.5997E-03     116.976E-03    -51.2513E-03     123.274E-03
            2120     12.8330E-03     19.1190E-03    -17.1577E+06     21.9595E+06    -6.47231E+06     2.08034E+06    -61.1774E-03     111.789E-03    -50.6111E-03     100.986E-03    -62.2107E-03     112.858E-03    -50.6505E-03     99.7010E-03
            2121     11.9849E-03     19.0234E-03    -18.3763E+06    -20.7947E+06    -4.49060E+06     2.12134E+06    -59.7955E-03     109.896E-03    -50.1005E-03     87.6498E-03    -60.4425E-03     110.417E-03    -50.0662E-03     86.6292E-03
            2122     11.1353E-03     18.9378E-03    -19.7254E+06    -49.6143E+06    -5.56503E+06     2.34034E+06    -58.5047E-03     108.053E-03    -49.5484E-03     79.2005E-03    -58.9328E-03     108.251E-03    -49.4756E-03     78.3802E-03
            2123     10.2848E-03     18.8591E-03    -20.9503E+06    -71.3320E+06    -5.64162E+06     2.58459E+06    -57.0649E-03     106.057E-03    -48.9919E-03     71.5262E-03    -57.3419E-03     106.023E-03    -48.8863E-03     70.8785E-03
            2124     9.43312E-03     18.7884E-03    -22.4023E+06    -85.5153E+06    -5.10399E+06     3.02856E+06    -55.5807E-03     104.018E-03    -48.4370E-03     63.5695E-03    -55.7566E-03     103.825E-03    -48.3060E-03     63.0655E-03
            2125     8.58042E-03     18.7250E-03    -24.1580E+06    -97.3431E+06    -6.84935E+06     3.38964E+06    -54.0955E-03     101.977E-03    -47.8818E-03     56.4921E-03    -54.1995E-03     101.670E-03    -47.7399E-03     56.1051E-03
            2126     7.72653E-03     18.6683E-03    -26.5176E+06    -107.601E+06    -8.94430E+06     3.38407E+06    -52.6106E-03     99.9561E-03    -47.3454E-03     49.9481E-03    -52.6660E-03     99.5613E-03    -47.1957E-03     49.6530E-03
            2127     6.87156E-03     18.6178E-03    -29.3220E+06    -116.290E+06    -10.8553E+06     3.54462E+06    -51.1612E-03     97.9995E-03    -46.8382E-03     43.5819E-03    -51.1851E-03     97.5380E-03    -46.6814E-03     43.3634E-03
            2128     6.01547E-03     18.5739E-03    -32.6729E+06    -128.049E+06    -13.6792E+06     4.24191E+06    -49.8038E-03     96.1715E-03    -46.3677E-03     37.4695E-03    -49.8023E-03     95.6391E-03    -46.2030E-03     37.3201E-03
            2129     5.15837E-03     18.5359E-03    -36.6615E+06    -133.337E+06    -17.8326E+06     4.54072E+06    -48.5228E-03     94.4476E-03    -45.9248E-03     31.6710E-03    -48.5129E-03     93.8860E-03    -45.7675E-03     31.5743E-03
            2130     4.30027E-03     18.5039E-03    -40.5543E+06    -137.278E+06    -23.9175E+06     4.13000E+06    -47.3652E-03     92.8868E-03    -45.5216E-03     26.1163E-03    -47.3502E-03     92.3099E-03    -45.3833E-03     26.0538E-03
            2131     3.44139E-03     18.4778E-03    -43.7394E+06    -145.721E+06    -30.8513E+06     3.38229E+06    -46.3784E-03     91.5571E-03    -45.1787E-03     20.7230E-03    -46.3503E-03     90.9459E-03    -45.0583E-03     20.6824E-03
            2132     2.58166E-03     18.4575E-03    -46.7488E+06    -150.894E+06    -38.5991E+06     2.51065E+06    -45.5657E-03     90.4601E-03    -44.8944E-03     15.5330E-03    -45.5295E-03     89.8342E-03    -44.8008E-03     15.5070E-03
            2133     1.72146E-03     18.4430E-03    -49.3980E+06    -155.724E+06    -45.5290E+06     1.77116E+06    -44.9868E-03     89.6726E-03    -44.6858E-03     10.4663E-03    -44.9441E-03     89.0337E-03    -44.6160E-03     10.4520E-03
            2134     860.795E-06     18.4340E-03    -51.1925E+06    -158.488E+06    -50.1718E+06     1.03952E+06    -44.6630E-03     89.1926E-03    -44.5296E-03     5.73339E-03    -44.6169E-03     88.5480E-03    -44.4764E-03     5.72714E-03
            2135     16.2177E-03     18.6305E-03    -4.30684E+06     135.762E+06     92.6110E+06     937.593E+03    -66.1449E-03     119.471E-03    -53.3260E-03     100.475E-03    -68.7935E-03     122.318E-03    -53.0536E-03     99.6134E-03
            2136     15.3730E-03     18.4734E-03    -10.1006E+06     131.150E+06     78.2310E+06     2.14640E+06    -67.1379E-03     119.776E-03    -52.6384E-03     158.888E-03    -70.9676E-03     123.809E-03    -52.4228E-03     157.302E-03
            2137     14.5293E-03     18.3074E-03    -14.4696E+06     110.579E+06     37.2802E+06     1.88781E+06    -66.4693E-03     118.287E-03    -51.8174E-03     148.199E-03    -69.3219E-03     121.373E-03    -51.7703E-03     146.279E-03
            2138     13.6822E-03     18.1707E-03    -16.0914E+06     74.0958E+06     1.80639E+06     1.78869E+06    -63.9234E-03     114.961E-03    -51.0377E-03     122.429E-03    -65.6827E-03     116.921E-03    -51.1128E-03     120.765E-03
            2139     12.8355E-03     18.0597E-03    -17.5505E+06     21.9097E+06    -7.37350E+06     2.42633E+06    -61.7107E-03     112.141E-03    -50.4300E-03     98.8871E-03    -62.7213E-03     113.188E-03    -50.4731E-03     97.6025E-03
            2140     11.9875E-03     17.9669E-03    -18.3424E+06    -19.8731E+06    -4.71927E+06     2.39535E+06    -60.2380E-03     110.105E-03    -49.8669E-03     85.2640E-03    -60.8672E-03     110.612E-03    -49.8351E-03     84.2500E-03
            2141     11.1383E-03     17.8832E-03    -19.2168E+06    -49.7179E+06    -5.87056E+06     2.40508E+06    -58.8570E-03     108.117E-03    -49.2600E-03     76.5946E-03    -59.2658E-03     108.298E-03    -49.1894E-03     75.7822E-03
            2142     10.2880E-03     17.8066E-03    -20.4346E+06    -71.5998E+06    -6.23054E+06     2.72046E+06    -57.4246E-03     106.066E-03    -48.6410E-03     68.5042E-03    -57.6836E-03     106.016E-03    -48.5387E-03     67.8666E-03
            2143     9.43688E-03     17.7378E-03    -21.7643E+06    -85.8292E+06    -5.47408E+06     3.09744E+06    -55.8450E-03     103.863E-03    -48.0184E-03     60.2997E-03    -56.0044E-03     103.657E-03    -47.8897E-03     59.8075E-03
            2144     8.58437E-03     17.6767E-03    -23.4878E+06    -97.3401E+06    -6.98810E+06     3.80423E+06    -54.2323E-03     101.625E-03    -47.3928E-03     53.0423E-03    -54.3227E-03     101.307E-03    -47.2526E-03     52.6726E-03
            2145     7.73069E-03     17.6218E-03    -25.4545E+06    -106.750E+06    -8.90414E+06     4.06621E+06    -52.5971E-03     99.3820E-03    -46.7848E-03     46.4191E-03    -52.6403E-03     98.9818E-03    -46.6376E-03     46.1451E-03
            2146     6.87566E-03     17.5736E-03    -28.0515E+06    -116.736E+06    -10.7420E+06     4.60699E+06    -50.9848E-03     97.1969E-03    -46.2121E-03     40.1106E-03    -50.9955E-03     96.7249E-03    -46.0559E-03     39.9179E-03
            2147     6.01944E-03     17.5313E-03    -31.5638E+06    -128.018E+06    -13.2109E+06     5.73355E+06    -49.4721E-03     95.1528E-03    -45.6807E-03     34.2101E-03    -49.4612E-03     94.6137E-03    -45.5153E-03     34.0910E-03
            2148     5.16211E-03     17.4953E-03    -35.2035E+06    -131.269E+06    -16.4357E+06     5.42790E+06    -48.0420E-03     93.2255E-03    -45.1835E-03     28.7364E-03    -48.0267E-03     92.6668E-03    -45.0243E-03     28.6606E-03
            2149     4.30364E-03     17.4649E-03    -38.4811E+06    -135.471E+06    -22.9354E+06     4.32337E+06    -46.7421E-03     91.4745E-03    -44.7324E-03     23.6224E-03    -46.7188E-03     90.9001E-03    -44.5948E-03     23.5701E-03
            2150     3.44416E-03     17.4402E-03    -41.9343E+06    -143.794E+06    -30.7936E+06     3.83813E+06    -45.6431E-03     89.9958E-03    -44.3528E-03     18.7073E-03    -45.6076E-03     89.3903E-03    -44.2374E-03     18.6787E-03
            2151     2.58386E-03     17.4211E-03    -45.4132E+06    -148.597E+06    -38.1900E+06     3.24302E+06    -44.7698E-03     88.8177E-03    -44.0479E-03     13.9852E-03    -44.7302E-03     88.2000E-03    -43.9575E-03     13.9731E-03
            2152     1.72287E-03     17.4073E-03    -48.2671E+06    -153.485E+06    -44.6380E+06     2.29022E+06    -44.1519E-03     87.9764E-03    -43.8244E-03     9.40435E-03    -44.1078E-03     87.3455E-03    -43.7551E-03     9.39962E-03
            2153     861.567E-06     17.3989E-03    -49.7879E+06    -155.965E+06    -48.8854E+06     1.05536E+06    -43.7752E-03     87.4550E-03    -43.6798E-03     5.12158E-03    -43.7275E-03     86.8191E-03    -43.6259E-03     5.11694E-03
            2154     16.2131E-03     17.5637E-03    -4.99421E+06     133.837E+06     91.4214E+06     821.471E+03    -66.9254E-03     120.293E-03    -53.3679E-03     97.5141E-03    -69.5194E-03     123.080E-03    -53.0976E-03     96.5867E-03
            2155     15.3726E-03     17.4027E-03    -9.40066E+06     130.803E+06     79.0609E+06     1.98169E+06    -68.5046E-03     121.126E-03    -52.6218E-03     156.429E-03    -72.2640E-03     125.088E-03    -52.4025E-03     154.756E-03
            2156     14.5290E-03     17.2458E-03    -12.9424E+06     111.154E+06     37.5699E+06     2.79754E+06    -67.0852E-03     118.815E-03    -51.7298E-03     145.731E-03    -69.8617E-03     121.831E-03    -51.6844E-03     143.793E-03
            2157     13.6843E-03     17.1078E-03    -16.8729E+06     74.0574E+06    -349.919E+03     2.72353E+06    -64.6919E-03     115.577E-03    -50.8847E-03     118.922E-03    -66.3973E-03     117.486E-03    -50.9694E-03     117.256E-03
            2158     12.8385E-03     17.0013E-03    -18.1403E+06     22.7783E+06    -8.32011E+06     2.03303E+06    -62.4545E-03     112.666E-03    -50.2114E-03     95.7454E-03    -63.4357E-03     113.688E-03    -50.2597E-03     94.4493E-03
            2159     11.9905E-03     16.9099E-03    -18.2500E+06    -20.3040E+06    -5.67739E+06     1.94174E+06    -60.8924E-03     110.468E-03    -49.5755E-03     82.2196E-03    -61.4939E-03     110.949E-03    -49.5480E-03     81.2027E-03
            2160     11.1422E-03     16.8284E-03    -19.0292E+06    -49.9609E+06    -6.21951E+06     2.54152E+06    -59.6089E-03     108.495E-03    -48.8859E-03     72.9240E-03    -59.9948E-03     108.654E-03    -48.8169E-03     72.1175E-03
            2161     10.2929E-03     16.7537E-03    -20.1114E+06    -71.5157E+06    -6.35550E+06     2.91353E+06    -58.0404E-03     106.209E-03    -48.1686E-03     64.3089E-03    -58.2787E-03     106.141E-03    -48.0675E-03     63.6839E-03
            2162     9.44204E-03     16.6876E-03    -21.7510E+06     -86.242E+06    -5.74717E+06     3.51684E+06    -56.2643E-03     103.709E-03    -47.4447E-03     55.8417E-03    -56.4066E-03     103.485E-03    -47.3168E-03     55.3691E-03
            2163     8.59004E-03     16.6285E-03    -23.5359E+06    -97.4108E+06    -6.95308E+06     3.98079E+06    -54.4421E-03     101.161E-03    -46.7190E-03     48.4281E-03    -54.5198E-03     100.830E-03    -46.5784E-03     48.0763E-03
            2164     7.73652E-03     16.5763E-03    -25.4343E+06    -106.419E+06    -8.84026E+06     4.47913E+06    -52.5506E-03     98.5643E-03    -46.0137E-03     41.8257E-03    -52.5843E-03     98.1556E-03    -45.8667E-03     41.5730E-03
            2165     6.88156E-03     16.5301E-03    -28.2860E+06    -117.914E+06    -10.5644E+06     6.00331E+06    -50.6749E-03     96.0325E-03    -45.3576E-03     35.7737E-03    -50.6780E-03     95.5473E-03    -45.1985E-03     35.6143E-03
            2166     6.02511E-03     16.4903E-03    -31.4112E+06    -126.651E+06    -13.7866E+06     6.61944E+06    -48.9014E-03     93.6488E-03    -44.7473E-03     30.3165E-03    -48.8857E-03     93.1119E-03    -44.5871E-03     30.2227E-03
            2167     5.16718E-03     16.4561E-03    -33.9066E+06    -128.494E+06    -17.7946E+06     5.40671E+06    -47.2757E-03     91.4653E-03    -44.1896E-03     25.3530E-03    -47.2525E-03     90.9172E-03    -44.0431E-03     25.2886E-03
            2168     4.30803E-03     16.4277E-03    -37.0091E+06    -134.319E+06    -23.5606E+06     5.14516E+06    -45.8555E-03     89.5611E-03    -43.7056E-03     20.7317E-03    -45.8233E-03     88.9890E-03    -43.5750E-03     20.6992E-03
            2169     3.44770E-03     16.4045E-03    -40.8637E+06    -141.559E+06    -30.3027E+06     5.10513E+06    -44.6825E-03     87.9824E-03    -43.2999E-03     16.3704E-03    -44.6443E-03     87.3844E-03    -43.1869E-03     16.3652E-03
            2170     2.58658E-03     16.3865E-03    -44.1629E+06    -145.804E+06    -36.8592E+06     4.02299E+06    -43.7590E-03     86.7291E-03    -42.9701E-03     12.1812E-03    -43.7184E-03     86.1210E-03    -42.8790E-03     12.1842E-03
            2171     1.72482E-03     16.3737E-03    -46.5920E+06    -150.443E+06    -43.0206E+06     2.69902E+06    -43.0831E-03     85.8070E-03    -42.7239E-03     8.20651E-03    -43.0371E-03     85.1862E-03    -42.6533E-03     8.21029E-03
            2172     862.537E-06     16.3656E-03    -48.3260E+06    -153.139E+06    -47.5580E+06     1.32884E+06    -42.6772E-03     85.2318E-03    -42.5546E-03     4.44204E-03    -42.6281E-03     84.6058E-03    -42.5002E-03     4.44287E-03
            2173     16.2179E-03     16.4915E-03    -4.52539E+06     133.114E+06     91.3467E+06     580.853E+03    -68.1189E-03     121.466E-03    -53.3472E-03     94.8561E-03    -70.6211E-03     124.160E-03    -53.0769E-03     93.8606E-03
            2174     15.3743E-03     16.3385E-03    -9.61254E+06     129.264E+06     78.4682E+06     1.65065E+06    -68.7610E-03     121.314E-03    -52.5533E-03     153.185E-03    -72.3988E-03     125.149E-03    -52.3344E-03     151.467E-03
            2175     14.5306E-03     16.1786E-03    -14.3852E+06     109.985E+06     38.4509E+06     3.52188E+06    -68.0308E-03     119.651E-03    -51.6199E-03     142.159E-03    -70.7253E-03     122.573E-03    -51.5662E-03     140.193E-03
            2176     13.6877E-03     16.0464E-03    -15.8057E+06     75.9882E+06     2.25602E+06     3.04679E+06    -65.7097E-03     116.405E-03    -50.6950E-03     115.017E-03    -67.3539E-03     118.256E-03    -50.7710E-03     113.335E-03
            2177     12.8413E-03     15.9414E-03    -16.2189E+06     24.1334E+06    -8.02202E+06     2.12919E+06    -63.5411E-03     113.457E-03    -49.9158E-03     91.9876E-03    -64.4729E-03     114.440E-03    -49.9674E-03     90.6852E-03
            2178     11.9953E-03     15.8526E-03    -17.6245E+06    -20.9018E+06    -6.41657E+06     2.29369E+06    -62.1318E-03     111.297E-03    -49.1653E-03     77.9303E-03    -62.6969E-03     111.744E-03    -49.1415E-03     76.9133E-03
            2179     11.1480E-03     15.7727E-03    -18.8504E+06    -50.0748E+06    -6.66182E+06     2.70929E+06    -60.6674E-03     109.013E-03    -48.3457E-03     67.9950E-03    -61.0241E-03     109.145E-03    -48.2791E-03     67.1966E-03
            2180     10.2995E-03     15.7010E-03    -20.2526E+06    -71.7529E+06    -7.00290E+06     3.39202E+06    -58.8708E-03     106.362E-03    -47.4909E-03     58.7864E-03    -59.0848E-03     106.270E-03    -47.3925E-03     58.1810E-03
            2181     9.44965E-03     15.6372E-03    -21.9978E+06    -86.5199E+06    -6.41088E+06     4.12524E+06    -56.7717E-03     103.402E-03    -46.6303E-03     50.1603E-03    -56.8948E-03     103.159E-03    -46.5050E-03     49.7139E-03
            2182     8.59805E-03     15.5811E-03    -24.1628E+06    -96.9791E+06    -7.44365E+06     4.50089E+06    -54.5596E-03     100.337E-03    -45.7778E-03     42.7674E-03    -54.6256E-03     99.9952E-03    -45.6394E-03     42.4426E-03
            2183     7.74471E-03     15.5315E-03    -26.9072E+06    -107.041E+06    -9.84421E+06     5.33096E+06    -52.2962E-03     97.2575E-03    -44.9613E-03     36.4115E-03    -52.3240E-03     96.8385E-03    -44.8163E-03     36.1898E-03
            2184     6.88943E-03     15.4884E-03    -29.4688E+06    -118.725E+06    -12.0758E+06     6.63047E+06    -50.0882E-03     94.2983E-03    -44.2101E-03     30.8167E-03    -50.0862E-03     93.8053E-03    -44.0556E-03     30.6835E-03
            2185     6.03234E-03     15.4510E-03    -31.1909E+06    -123.707E+06    -15.5550E+06     6.21245E+06    -48.0426E-03     91.5615E-03    -43.5189E-03     25.9125E-03    -48.0221E-03     91.0363E-03    -43.3721E-03     25.8293E-03
            2186     5.17368E-03     15.4191E-03    -33.2141E+06    -126.810E+06    -19.1873E+06     5.42612E+06    -46.2256E-03     89.1358E-03    -42.9103E-03     21.4709E-03    -46.1958E-03     88.5936E-03    -42.7742E-03     21.4199E-03
            2187     4.31351E-03     15.3926E-03    -36.0159E+06    -133.913E+06    -23.0470E+06     6.12492E+06    -44.7002E-03     87.0951E-03    -42.3949E-03     17.3943E-03    -44.6622E-03     86.5207E-03    -42.2638E-03     17.3846E-03
            2188     3.45235E-03     15.3710E-03    -39.0009E+06    -138.417E+06    -28.1246E+06     6.03306E+06    -43.4387E-03     85.3954E-03    -41.9567E-03     13.6546E-03    -43.3976E-03     84.8059E-03    -41.8400E-03     13.6690E-03
            2189     2.59013E-03     15.3543E-03    -41.9744E+06    -142.439E+06    -34.9064E+06     4.58349E+06    -42.4395E-03     84.0372E-03    -41.5977E-03     10.1293E-03    -42.3951E-03     83.4391E-03    -41.5048E-03     10.1451E-03
            2190     1.72716E-03     15.3425E-03    -44.5260E+06    -147.037E+06    -41.2768E+06     3.19158E+06    -41.7253E-03     83.0538E-03    -41.3285E-03     6.80128E-03    -41.6761E-03     82.4441E-03    -41.2571E-03     6.81517E-03
            2191     863.683E-06     15.3351E-03    -46.2798E+06    -149.542E+06    -45.3835E+06     1.80395E+06    -41.2895E-03     82.4199E-03    -41.1304E-03     3.64712E-03    -41.2385E-03     81.8057E-03    -41.0733E-03     3.65627E-03
            2192     16.2164E-03     15.4237E-03    -4.56616E+06     131.835E+06     90.5318E+06     926.968E+03    -69.2851E-03     122.637E-03    -53.3517E-03     94.4465E-03    -71.7468E-03     125.288E-03    -53.0835E-03     93.3525E-03
            2193     15.3747E-03     15.2699E-03    -10.4422E+06     127.204E+06     78.3156E+06     2.58387E+06    -70.6011E-03     123.083E-03    -52.4822E-03     152.213E-03    -74.1661E-03     126.836E-03    -52.2600E-03     150.388E-03
            2194     14.5339E-03     15.1125E-03    -13.6188E+06     110.027E+06     40.7425E+06     2.51869E+06    -69.4410E-03     120.893E-03    -51.4525E-03     138.764E-03    -72.0426E-03     123.719E-03    -51.3885E-03     136.731E-03
            2195     13.6900E-03     14.9831E-03    -14.7919E+06     76.8401E+06     3.04243E+06     2.49897E+06    -67.1852E-03     117.592E-03    -50.4067E-03     110.428E-03    -68.7537E-03     119.372E-03    -50.4814E-03     108.709E-03
            2196     12.8471E-03     14.8805E-03    -15.9664E+06     24.9216E+06    -8.52687E+06     3.00262E+06    -65.3984E-03     114.877E-03    -49.4787E-03     86.8151E-03    -66.2807E-03     115.816E-03    -49.5343E-03     85.4987E-03
            2197     12.0023E-03     14.7940E-03    -17.0080E+06    -20.2454E+06    -6.70936E+06     2.95934E+06    -63.7718E-03     112.332E-03    -48.5598E-03     72.3071E-03    -64.2962E-03     112.744E-03    -48.5393E-03     71.2923E-03
            2198     11.1565E-03     14.7166E-03    -18.2404E+06    -50.4641E+06    -7.05026E+06     3.27035E+06    -61.9953E-03     109.562E-03    -47.5665E-03     61.7499E-03    -62.3150E-03     109.658E-03    -47.5021E-03     60.9669E-03
            2199     10.3094E-03     14.6478E-03    -19.6623E+06    -72.0109E+06    -7.30178E+06     4.09457E+06    -59.7531E-03     106.293E-03    -46.5397E-03     52.0372E-03    -59.9367E-03     106.172E-03    -46.4433E-03     51.4585E-03
            2200     9.46018E-03     14.5874E-03    -21.3278E+06    -86.5635E+06    -6.76546E+06     4.78438E+06    -57.1602E-03     102.679E-03    -45.5184E-03     43.4284E-03    -57.2589E-03     102.414E-03    -45.3958E-03     43.0132E-03
            2201     8.60888E-03     14.5347E-03    -23.3980E+06    -96.8093E+06    -7.29070E+06     5.56388E+06    -54.4557E-03     98.9833E-03    -44.5276E-03     36.2798E-03    -54.5032E-03     98.6255E-03    -44.3897E-03     35.9928E-03
            2202     7.75527E-03     14.4885E-03    -25.7642E+06    -107.337E+06    -9.60776E+06     6.33609E+06    -51.7878E-03     95.3801E-03    -43.5923E-03     30.2404E-03    -51.7988E-03     94.9467E-03    -43.4474E-03     30.0543E-03
            2203     6.89949E-03     14.4486E-03    -27.7626E+06    -117.960E+06    -11.5900E+06     6.43234E+06    -49.2531E-03     91.9927E-03    -42.7396E-03     25.1129E-03    -49.2367E-03     91.4927E-03    -42.5863E-03     24.9972E-03
            2204     6.04168E-03     14.4141E-03    -29.8023E+06    -121.149E+06    -14.8457E+06     5.92992E+06    -46.9267E-03     88.8913E-03    -41.9646E-03     20.7509E-03    -46.8988E-03     88.3706E-03    -41.8199E-03     20.6810E-03
            2205     5.18197E-03     14.3849E-03    -32.3974E+06    -126.220E+06    -18.3626E+06     5.93708E+06    -44.9018E-03     86.1954E-03    -41.2935E-03     16.9454E-03    -44.8665E-03     85.6501E-03    -41.1554E-03     16.9149E-03
            2206     4.32081E-03     14.3604E-03    -35.1021E+06    -132.952E+06    -22.4976E+06     6.36935E+06    -43.2086E-03     83.9329E-03    -40.7243E-03     13.6083E-03    -43.1660E-03     83.3588E-03    -40.5931E-03     13.6128E-03
            2207     3.45819E-03     14.3406E-03    -37.3846E+06    -135.268E+06    -27.1281E+06     5.98117E+06    -41.8166E-03     82.0647E-03    -40.2480E-03     10.6113E-03    -41.7722E-03     81.4858E-03    -40.1333E-03     10.6334E-03
            2208     2.59456E-03     14.3254E-03    -39.7409E+06    -138.988E+06    -32.9332E+06     5.11412E+06    -40.7577E-03     80.6259E-03    -39.8682E-03     7.84587E-03    -40.7093E-03     80.0383E-03    -39.7737E-03     7.87443E-03
            2209     1.73019E-03     14.3144E-03    -42.0272E+06    -143.077E+06    -38.9218E+06     3.78929E+06    -40.0111E-03     79.5900E-03    -39.5789E-03     5.23044E-03    -39.9583E-03     78.9927E-03    -39.5051E-03     5.25596E-03
            2210     865.332E-06     14.3077E-03    -43.5741E+06    -145.479E+06    -42.7104E+06     2.08278E+06    -39.5428E-03     78.8993E-03    -39.3565E-03     2.74428E-03    -39.4880E-03     78.2974E-03    -39.2959E-03     2.75921E-03
            2211     16.2131E-03     14.3510E-03    -4.90078E+06     130.683E+06     90.1008E+06     1.54518E+06    -71.1457E-03     124.505E-03    -53.3596E-03     91.4680E-03    -73.5292E-03     127.074E-03    -53.0915E-03     90.2573E-03
            2212     15.3764E-03     14.1972E-03    -9.69066E+06     127.106E+06     78.7722E+06     1.47127E+06    -72.8305E-03     125.199E-03    -52.3686E-03     147.334E-03    -76.2784E-03     128.836E-03    -52.1450E-03     145.336E-03
            2213     14.5366E-03     14.0461E-03    -13.2637E+06     108.993E+06     39.8139E+06     1.67977E+06    -71.6015E-03     122.785E-03    -51.1830E-03     133.708E-03    -74.1048E-03     125.512E-03    -51.1227E-03     131.560E-03
            2214     13.6968E-03     13.9173E-03    -16.0708E+06     76.6640E+06     1.29250E+06     2.90351E+06    -69.6403E-03     119.599E-03    -49.9585E-03     104.979E-03    -71.1355E-03     121.306E-03    -50.0399E-03     103.200E-03
            2215     12.8550E-03     13.8182E-03    -16.8567E+06     26.0223E+06    -9.53786E+06     2.96310E+06    -67.6232E-03     116.455E-03    -48.8320E-03     80.4822E-03    -68.4541E-03     117.347E-03    -48.8929E-03     79.1359E-03
            2216     12.0125E-03     13.7341E-03    -16.8453E+06    -20.1460E+06    -7.49256E+06     2.96671E+06    -65.6862E-03     113.392E-03    -47.7054E-03     65.7264E-03    -66.1661E-03     113.762E-03    -47.6893E-03     64.7068E-03
            2217     11.1685E-03     13.6600E-03    -17.5503E+06    -50.7081E+06    -7.18990E+06     3.86870E+06    -63.3969E-03     109.904E-03    -46.5071E-03     54.5299E-03    -63.6784E-03     109.965E-03    -46.4441E-03     53.7655E-03
            2218     10.3224E-03     13.5949E-03    -18.8383E+06    -72.1668E+06    -7.39741E+06     4.76247E+06    -60.5039E-03     105.791E-03    -45.2868E-03     44.5950E-03    -60.6559E-03     105.642E-03    -45.1918E-03     44.0477E-03
            2219     9.47382E-03     13.5387E-03    -20.5285E+06    -86.5937E+06    -6.71506E+06     5.58252E+06    -57.3251E-03     101.421E-03    -44.0955E-03     36.1048E-03    -57.3998E-03     101.135E-03    -43.9737E-03     35.7261E-03
            2220     8.62251E-03     13.4900E-03    -22.4290E+06    -96.8453E+06    -6.92083E+06     6.25160E+06    -54.1445E-03     97.1010E-03    -42.9565E-03     29.2637E-03    -54.1731E-03     96.7266E-03    -42.8182E-03     29.0115E-03
            2221     7.76864E-03     13.4478E-03    -24.1195E+06    -106.586E+06    -8.10686E+06     6.56253E+06    -51.0766E-03     92.9699E-03    -41.8933E-03     23.5923E-03    -51.0722E-03     92.5253E-03    -41.7444E-03     23.4328E-03
            2222     6.91222E-03     13.4115E-03    -26.0618E+06    -116.548E+06    -9.59392E+06     6.56278E+06    -48.1838E-03     89.1118E-03    -40.9280E-03     19.0059E-03    -48.1567E-03     88.6063E-03    -40.7692E-03     18.9121E-03
            2223     6.05343E-03     13.3804E-03    -28.5976E+06    -119.652E+06    -13.7605E+06     6.48376E+06    -45.5393E-03     85.5929E-03    -40.0536E-03     15.3264E-03    -45.5043E-03     85.0715E-03    -39.9075E-03     15.2807E-03
            2224     5.19252E-03     13.3539E-03    -31.4231E+06    -125.396E+06    -18.4688E+06     6.65035E+06    -43.2546E-03     82.5571E-03    -39.3025E-03     12.3224E-03    -43.2124E-03     82.0116E-03    -39.1675E-03     12.3149E-03
            2225     4.32973E-03     13.3319E-03    -33.9483E+06    -130.878E+06    -22.5898E+06     6.34877E+06    -41.3541E-03     80.0303E-03    -38.6761E-03     9.78358E-03    -41.3069E-03     79.4631E-03    -38.5501E-03     9.79863E-03
            2226     3.46551E-03     13.3141E-03    -36.1314E+06    -132.651E+06    -26.6307E+06     5.55617E+06    -39.8326E-03     77.9970E-03    -38.1644E-03     7.57239E-03    -39.7854E-03     77.4276E-03    -38.0528E-03     7.59707E-03
            2227     2.60013E-03     13.3002E-03    -37.9655E+06    -135.974E+06    -31.3219E+06     4.94134E+06    -38.6977E-03     76.4620E-03    -37.7643E-03     5.57033E-03    -38.6466E-03     75.8839E-03    -37.6687E-03     5.60217E-03
            2228     1.73391E-03     13.2903E-03    -39.4394E+06    -138.811E+06    -36.1283E+06     3.92004E+06    -37.8957E-03     75.3630E-03    -37.4673E-03     3.69174E-03    -37.8401E-03     74.7789E-03    -37.3894E-03     3.72256E-03
            2229     867.051E-06     13.2843E-03    -40.6155E+06    -140.986E+06    -39.7544E+06     2.28756E+06    -37.4414E-03     74.6717E-03    -37.2303E-03     1.86601E-03    -37.3826E-03     74.0836E-03    -37.1657E-03     1.88561E-03
            2230     16.2190E-03     13.2759E-03    -4.56691E+06     130.307E+06     90.4223E+06     1.13945E+06    -73.8889E-03     127.192E-03    -53.3033E-03     89.4507E-03    -76.2077E-03     129.695E-03    -53.0335E-03     88.0957E-03
            2231     15.3802E-03     13.1257E-03    -7.98588E+06     127.630E+06     80.1156E+06     1.63050E+06    -75.1458E-03     127.315E-03    -52.1692E-03     144.629E-03    -78.4913E-03     130.853E-03    -51.9421E-03     142.462E-03
            2232     14.5428E-03     12.9756E-03    -13.2330E+06     107.774E+06     40.1110E+06     2.83492E+06    -74.9511E-03     125.748E-03    -50.7964E-03     128.943E-03    -77.3572E-03     128.373E-03    -50.7330E-03     126.663E-03
            2233     13.7049E-03     12.8495E-03    -15.8008E+06     77.0108E+06     1.95633E+06     3.14452E+06    -72.7693E-03     122.102E-03    -49.3322E-03     98.6562E-03    -74.1808E-03     123.725E-03    -49.4112E-03     96.8024E-03
            2234     12.8665E-03     12.7540E-03    -16.3794E+06      27.552E+06    -9.58111E+06     2.62339E+06    -70.1514E-03     118.107E-03    -47.9560E-03     73.5741E-03    -70.9219E-03     118.946E-03    -48.0201E-03     72.1966E-03
            2235     12.0260E-03     12.6730E-03    -16.9835E+06    -20.4346E+06    -8.21218E+06     2.95548E+06    -67.6679E-03     114.260E-03    -46.5922E-03     58.4677E-03    -68.1031E-03     114.587E-03    -46.5790E-03     57.4480E-03
            2236     11.1836E-03     12.6031E-03    -17.8995E+06    -51.3539E+06    -7.48701E+06     4.10002E+06    -64.6019E-03     109.777E-03    -45.1748E-03     46.7863E-03    -64.8495E-03     109.801E-03    -45.1118E-03     46.0430E-03
            2237     10.3385E-03     12.5427E-03     -18.912E+06    -72.1699E+06    -7.23551E+06     5.07424E+06    -60.9940E-03     104.754E-03    -43.7598E-03     36.8525E-03    -61.1207E-03     104.579E-03    -43.6639E-03     36.3365E-03
            2238     9.49020E-03     12.4915E-03    -19.8832E+06    -86.8225E+06    -5.99654E+06     5.88388E+06    -57.2519E-03     99.6516E-03    -42.3997E-03     28.7578E-03    -57.3059E-03     99.3447E-03    -42.2750E-03     28.4111E-03
            2239     8.63886E-03     12.4474E-03    -21.2055E+06    -96.1495E+06    -5.59930E+06     6.46852E+06    -53.5904E-03     94.7021E-03    -41.1117E-03     22.4225E-03    -53.6032E-03     94.3149E-03    -40.9695E-03     22.1993E-03
            2240     7.78444E-03     12.4098E-03    -23.0286E+06    -105.768E+06    -6.38427E+06     6.64383E+06    -50.0844E-03     90.0057E-03    -39.9213E-03     17.4132E-03    -50.0698E-03     89.5527E-03    -39.7665E-03     17.2775E-03
            2241     6.92714E-03     12.3776E-03    -25.3605E+06    -115.517E+06    -8.24852E+06     7.06141E+06    -46.8195E-03     85.6656E-03    -38.8461E-03     13.5599E-03    -46.7868E-03     85.1568E-03    -38.6831E-03     13.4913E-03
            2242     6.06705E-03     12.3503E-03    -28.0453E+06    -118.486E+06    -13.6128E+06     7.27842E+06    -43.8734E-03     81.7509E-03    -37.8774E-03     10.6897E-03    -43.8342E-03     81.2308E-03    -37.7330E-03     10.6691E-03
            2243     5.20455E-03     12.3271E-03    -30.4047E+06    -123.658E+06    -18.0158E+06     7.03532E+06    -41.3474E-03     78.4038E-03    -37.0564E-03     8.47531E-03    -41.3012E-03     77.8628E-03    -36.9231E-03     8.48402E-03
            2244     4.34007E-03     12.3077E-03    -32.4082E+06    -128.167E+06    -21.0650E+06     6.19715E+06    -39.2553E-03     75.6364E-03    -36.3811E-03     6.69047E-03    -39.2053E-03     75.0771E-03    -36.2536E-03     6.71192E-03
            2245     3.47389E-03     12.2919E-03    -34.4102E+06    -130.190E+06    -25.4303E+06     5.27581E+06    -37.6083E-03     73.4397E-03    -35.8314E-03     5.19831E-03    -37.5573E-03     72.8777E-03    -35.7199E-03     5.22534E-03
            2246     2.60648E-03     12.2797E-03    -36.2193E+06    -133.130E+06    -30.5048E+06     4.38787E+06    -36.3797E-03     71.7870E-03    -35.4073E-03     3.84659E-03    -36.3249E-03     71.2191E-03    -35.3143E-03     3.87538E-03
            2247     1.73814E-03     12.2709E-03    -37.4267E+06    -135.081E+06    -34.2195E+06     3.31291E+06    -35.5272E-03     70.6365E-03    -35.1093E-03     2.54106E-03    -35.4696E-03     70.0653E-03    -35.0303E-03     2.56660E-03
            2248     869.267E-06     12.2656E-03    -38.0844E+06    -136.447E+06    -36.9335E+06     2.07252E+06    -35.0851E-03     69.9620E-03    -34.8768E-03     1.25590E-03    -35.0243E-03     69.3887E-03    -34.8084E-03     1.27402E-03
            2249     16.2162E-03     12.2007E-03    -5.12524E+06     128.535E+06     89.2022E+06     278.932E+03    -76.6005E-03     129.831E-03    -53.2303E-03     87.1506E-03    -78.8592E-03     132.269E-03    -52.9632E-03     85.6002E-03
            2250     15.3818E-03     12.0495E-03    -9.28216E+06     125.498E+06     80.1015E+06     1.97071E+06    -79.0841E-03     130.998E-03    -51.9139E-03     142.098E-03    -82.3365E-03     134.431E-03    -51.6819E-03     139.688E-03
            2251     14.5498E-03     11.9003E-03    -12.6038E+06     107.900E+06     43.9093E+06     3.30881E+06    -79.2555E-03     129.547E-03    -50.2910E-03     123.589E-03    -81.5632E-03     132.066E-03    -50.2097E-03     121.134E-03
            2252     13.7169E-03     11.7796E-03    -15.0636E+06     78.3258E+06     3.52373E+06     3.64271E+06    -76.4183E-03     124.939E-03    -48.5207E-03     90.9764E-03    -77.7419E-03     126.478E-03    -48.5948E-03     89.0448E-03
            2253     12.8806E-03     11.6875E-03    -16.6124E+06     29.3374E+06    -10.3019E+06     3.48001E+06    -72.7900E-03     119.646E-03    -46.8564E-03     66.0418E-03    -73.4990E-03     120.431E-03    -46.9263E-03     64.6589E-03
            2254     12.0425E-03     11.6114E-03    -18.1846E+06    -20.2847E+06    -9.07776E+06     3.51761E+06    -69.3725E-03     114.623E-03    -45.2504E-03     50.7989E-03    -69.7696E-03     114.911E-03    -45.2400E-03     49.7965E-03
            2255     11.2014E-03     11.5463E-03    -19.4279E+06    -51.7040E+06    -8.81441E+06     4.05469E+06    -65.3848E-03     109.007E-03    -43.6218E-03     39.0679E-03    -65.6047E-03     109.000E-03    -43.5628E-03     38.3522E-03
            2256     10.3568E-03     11.4921E-03    -19.9846E+06    -72.0284E+06    -7.67608E+06     4.68144E+06    -61.0453E-03     103.081E-03    -42.0358E-03     29.6220E-03    -61.1546E-03     102.887E-03    -41.9408E-03     29.1321E-03
            2257     9.50853E-03     11.4462E-03    -20.5121E+06    -86.8171E+06    -6.07630E+06     5.17849E+06    -56.7454E-03     97.2785E-03    -40.5331E-03     22.3705E-03    -56.7878E-03     96.9581E-03    -40.4079E-03     22.0439E-03
            2258     8.65668E-03     11.4076E-03    -20.9313E+06    -95.7602E+06    -5.12919E+06     5.74574E+06    -52.5975E-03     91.7263E-03    -39.1288E-03     16.8692E-03    -52.6009E-03     91.3307E-03    -38.9852E-03     16.6617E-03
            2259     7.80125E-03     11.3750E-03    -22.0396E+06    -105.630E+06    -5.42923E+06     6.82522E+06    -48.6969E-03     86.5458E-03    -37.8489E-03     12.7691E-03    -48.6733E-03     86.0850E-03    -37.6909E-03     12.6560E-03
            2260     6.94256E-03     11.3475E-03    -24.4171E+06    -114.674E+06    -5.74592E+06     7.64421E+06    -45.1521E-03     81.8628E-03    -36.7107E-03     9.75943E-03    -45.1164E-03     81.3500E-03    -36.5377E-03     9.71350E-03
            2261     6.08094E-03     11.3243E-03    -26.9933E+06    -116.997E+06    -9.04870E+06     7.55669E+06    -42.0063E-03     77.7030E-03    -35.6966E-03     7.70299E-03    -41.9689E-03     77.1805E-03    -35.5331E-03     7.69691E-03
            2262     5.21678E-03     11.3046E-03    -29.3089E+06    -121.281E+06    -14.6593E+06     6.92547E+06    -39.3244E-03     74.1503E-03    -34.8260E-03     6.22422E-03    -39.2802E-03     73.6139E-03    -34.6809E-03     6.23923E-03
            2263     4.35039E-03     11.2882E-03    -31.5323E+06    -125.381E+06    -19.4968E+06     5.90658E+06    -37.1226E-03     71.2319E-03    -34.1093E-03     5.07595E-03    -37.0741E-03     70.6827E-03    -33.9793E-03     5.09901E-03
            2264     3.48226E-03     11.2746E-03    -33.4889E+06    -127.659E+06    -24.3504E+06     4.84627E+06    -35.3875E-03     68.9221E-03    -33.5346E-03     4.06557E-03    -35.3369E-03     68.3697E-03    -33.4227E-03     4.09071E-03
            2265     2.61279E-03     11.2641E-03    -34.9125E+06    -130.191E+06    -29.5081E+06     3.79149E+06    -34.0976E-03     67.1933E-03    -33.0957E-03     3.08108E-03    -34.0419E-03     66.6367E-03    -33.0038E-03     3.10452E-03
            2266     1.74236E-03     11.2564E-03    -35.8569E+06    -131.893E+06    -33.0976E+06     2.56040E+06    -33.2144E-03     66.0082E-03    -32.7938E-03     2.09078E-03    -33.1552E-03     65.4491E-03    -32.7161E-03     2.10794E-03
            2267     871.268E-06     11.2518E-03    -36.4613E+06    -133.009E+06    -35.3893E+06     1.38292E+06    -32.7466E-03     65.3362E-03    -32.5897E-03     1.09846E-03    -32.6848E-03     64.7756E-03    -32.5209E-03     1.10817E-03
            2268     16.2191E-03     11.1174E-03    -4.72037E+06     127.669E+06     89.1697E+06     520.166E+03    -80.8227E-03     133.906E-03    -53.0832E-03     83.0538E-03    -82.9898E-03     136.251E-03    -52.8156E-03     81.2671E-03
            2269     15.3898E-03     10.9715E-03    -10.3776E+06     123.366E+06     79.1008E+06     1.04391E+06    -83.6731E-03     135.179E-03    -51.5057E-03     136.896E-03    -86.7985E-03     138.476E-03    -51.2740E-03     134.190E-03
            2270     14.5597E-03     10.8198E-03    -14.2210E+06     105.875E+06     44.2757E+06     2.60260E+06    -83.4713E-03     133.068E-03    -49.5970E-03     117.025E-03    -85.6708E-03     135.466E-03    -49.5085E-03     114.391E-03
            2271     13.7305E-03     10.7059E-03    -16.4810E+06     79.4922E+06     4.05554E+06     3.95228E+06    -79.9371E-03     127.461E-03    -47.5235E-03     81.9582E-03    -81.1729E-03     128.910E-03    -47.5946E-03     79.9618E-03
            2272     12.8978E-03     10.6200E-03    -17.6811E+06     31.0300E+06    -11.2729E+06     4.60282E+06    -75.0939E-03     120.671E-03    -45.5768E-03     57.8475E-03    -75.7463E-03     121.404E-03    -45.6525E-03     56.4751E-03
            2273     12.0611E-03     10.5492E-03    -18.8297E+06    -19.3851E+06    -9.44014E+06     4.58703E+06    -70.3345E-03     114.092E-03    -43.7579E-03     43.2742E-03    -70.6935E-03     114.344E-03    -43.7496E-03     42.3142E-03
            2274     11.2207E-03     10.4911E-03    -20.2133E+06    -50.5078E+06    -9.48795E+06     4.30625E+06    -65.4119E-03     107.380E-03    -41.9680E-03     32.2234E-03    -65.6079E-03     107.353E-03    -41.9129E-03     31.5496E-03
            2275     10.3758E-03     10.4432E-03    -21.5086E+06    -71.9049E+06    -8.50039E+06     4.21346E+06    -60.3857E-03     100.654E-03    -40.2685E-03     23.8507E-03    -60.4839E-03     100.446E-03    -40.1755E-03     23.3905E-03
            2276     9.52681E-03     10.4037E-03    -22.3715E+06    -85.9367E+06    -6.42602E+06     4.13381E+06    -55.5475E-03     94.2372E-03    -38.6897E-03     17.7916E-03    -55.5899E-03     93.9143E-03    -38.5648E-03     17.4815E-03
            2277     8.67365E-03     10.3710E-03    -23.2504E+06    -96.2036E+06    -5.49847E+06     4.36745E+06    -51.0057E-03     88.2492E-03    -37.2435E-03     13.3905E-03    -51.0139E-03     87.8497E-03    -37.0978E-03     13.1888E-03
            2278     7.81678E-03     10.3440E-03    -24.2791E+06    -106.872E+06    -5.48116E+06     6.15927E+06    -46.8696E-03     82.8182E-03    -35.9486E-03     10.3615E-03    -46.8527E-03     82.3519E-03    -35.7859E-03     10.2567E-03
            2279     6.95644E-03     10.3214E-03    -25.5427E+06    -113.282E+06    -4.57810E+06     7.16877E+06    -43.2151E-03     78.0266E-03    -34.8115E-03     8.32610E-03    -43.1875E-03     77.5196E-03    -34.6331E-03     8.28587E-03
            2280     6.09311E-03     10.3024E-03    -27.1449E+06    -115.240E+06    -5.28388E+06     6.59564E+06    -40.0662E-03     73.8835E-03    -33.8173E-03     7.02048E-03    -40.0372E-03     73.3644E-03    -33.6373E-03     7.00971E-03
            2281     5.22710E-03     10.2864E-03    -29.0377E+06    -119.336E+06    -10.9393E+06     6.28604E+06    -37.4155E-03     70.3699E-03    -32.9545E-03     6.05150E-03    -37.3782E-03     69.8376E-03    -32.7940E-03     6.06320E-03
            2282     4.35899E-03     10.2729E-03    -31.2179E+06    -122.434E+06    -17.2476E+06     5.48097E+06    -35.2359E-03     67.4712E-03    -32.2353E-03     5.23758E-03    -35.1935E-03     66.9332E-03    -32.0987E-03     5.25830E-03
            2283     3.48916E-03     10.2617E-03    -33.2267E+06    -124.969E+06    -22.3105E+06     3.91904E+06    -33.5193E-03     65.1819E-03    -31.6626E-03     4.40713E-03    -33.4743E-03     64.6399E-03    -31.5447E-03     4.42221E-03
            2284     2.61797E-03     10.2529E-03    -34.4633E+06    -127.617E+06    -27.7801E+06     2.61746E+06    -32.2379E-03     63.4578E-03    -31.2199E-03     3.44547E-03    -32.1863E-03     62.9112E-03    -31.1238E-03     3.45489E-03
            2285     1.74581E-03     10.2465E-03    -35.1068E+06    -129.496E+06    -32.0397E+06     1.68717E+06    -31.3458E-03     62.2545E-03    -30.9087E-03     2.37476E-03    -31.2878E-03     61.7049E-03    -30.8302E-03     2.38124E-03
            2286     873.085E-06     10.2424E-03    -35.4288E+06    -130.596E+06    -34.6671E+06     827.831E+03    -30.8559E-03     61.5586E-03    -30.7027E-03     1.29627E-03    -30.7935E-03     61.0076E-03    -30.6353E-03     1.29901E-03
            2287     16.2244E-03     10.0326E-03    -4.30376E+06     127.277E+06     89.8356E+06     1.10941E+06    -86.7424E-03     139.599E-03    -52.8568E-03     81.4338E-03    -88.8545E-03     141.887E-03    -52.5859E-03     79.3632E-03
            2288     15.3974E-03     9.88670E-03    -9.59134E+06     122.886E+06     79.7721E+06     2.10340E+06    -89.2904E-03     140.241E-03    -50.9509E-03     133.296E-03    -92.3151E-03     143.437E-03    -50.7164E-03     130.274E-03
            2289     14.5737E-03     9.73752E-03    -14.5026E+06     104.199E+06     44.3842E+06     2.77620E+06    -87.6830E-03     136.401E-03    -48.7179E-03     109.774E-03    -89.7511E-03     138.660E-03    -48.6260E-03     107.001E-03
            2290     13.7468E-03     9.62886E-03    -17.1041E+06     78.7750E+06     4.03999E+06     3.97096E+06    -82.4128E-03     128.782E-03    -46.3690E-03     72.6505E-03    -83.5368E-03     130.115E-03    -46.4383E-03     70.6492E-03
            2291     12.9162E-03     9.55131E-03    -18.2778E+06     32.1373E+06    -11.4281E+06     5.28395E+06    -76.2790E-03     120.489E-03    -44.2103E-03     49.5271E-03    -76.8731E-03     121.167E-03    -44.2876E-03     48.1919E-03
            2292     12.0802E-03     9.48846E-03    -19.4646E+06    -17.4773E+06    -8.81404E+06     5.46329E+06    -70.1704E-03     112.426E-03    -42.2554E-03     36.8914E-03    -70.4975E-03     112.649E-03    -42.2459E-03     35.9963E-03
            2293     11.2390E-03     9.43739E-03    -20.7623E+06    -48.8702E+06     -8.3582E+06     4.84379E+06    -64.3738E-03     104.771E-03    -40.3974E-03     27.1158E-03    -64.5536E-03     104.729E-03    -40.3382E-03     26.4994E-03
            2294     10.3932E-03     9.39730E-03    -21.9795E+06    -70.7653E+06    -7.06145E+06     4.18185E+06    -58.7622E-03     97.4430E-03    -38.6808E-03     20.1546E-03    -58.8541E-03     97.2270E-03    -38.5817E-03     19.7350E-03
            2295     9.54247E-03     9.36436E-03    -23.5856E+06    -84.8168E+06    -4.96098E+06     3.72232E+06    -53.4873E-03     90.6165E-03    -37.1292E-03     15.6256E-03    -53.5335E-03     90.2928E-03    -36.9969E-03     15.3419E-03
            2296     8.68755E-03     9.33824E-03    -25.7767E+06    -96.6428E+06    -4.33266E+06     3.99217E+06    -48.7704E-03     84.5186E-03    -35.7482E-03     12.6250E-03    -48.7900E-03     84.1166E-03    -35.5924E-03     12.4411E-03
            2297     7.82856E-03     9.31665E-03    -27.8137E+06    -107.872E+06    -4.81354E+06     4.70616E+06    -44.6763E-03     79.2131E-03    -34.5369E-03     10.7599E-03    -44.6761E-03     78.7455E-03    -34.3642E-03     10.6514E-03
            2298     6.96624E-03     9.29905E-03    -28.6483E+06    -111.806E+06    -4.92083E+06     4.76378E+06    -41.1860E-03     74.6676E-03    -33.4816E-03     9.57806E-03    -41.1760E-03     74.1735E-03    -33.3026E-03     9.51650E-03
            2299     6.10100E-03     9.28408E-03    -29.3554E+06    -113.957E+06    -5.98110E+06     4.48843E+06    -38.2849E-03     70.8564E-03    -32.5715E-03     8.74626E-03    -38.2684E-03     70.3486E-03    -32.3936E-03     8.71402E-03
            2300     5.23361E-03     9.27153E-03    -30.5888E+06    -118.141E+06    -9.30667E+06     4.36279E+06    -35.8860E-03     67.6783E-03    -31.7923E-03     7.97180E-03    -35.8611E-03     67.1525E-03    -31.6232E-03     7.96190E-03
            2301     4.36418E-03     9.26086E-03    -31.6719E+06    -119.707E+06    -13.8662E+06     3.64186E+06    -33.9101E-03     65.0428E-03    -31.1327E-03     7.18093E-03    -33.8792E-03     64.5148E-03    -30.9826E-03     7.17985E-03
            2302     3.49316E-03     9.25192E-03    -32.7814E+06    -122.380E+06    -19.5572E+06     2.25472E+06    -32.3458E-03     62.9377E-03    -30.5919E-03     6.15119E-03    -32.3065E-03     62.4043E-03    -30.4647E-03     6.14590E-03
            2303     2.62095E-03     9.24478E-03    -34.1019E+06    -125.868E+06    -26.2420E+06     1.05617E+06    -31.1530E-03     61.3162E-03    -30.1632E-03     4.86891E-03    -31.1044E-03     60.7758E-03    -30.0624E-03     4.85887E-03
            2304     1.74786E-03     9.23956E-03    -35.0896E+06    -128.243E+06    -31.1774E+06     442.103E+03    -30.3068E-03     60.1573E-03    -29.8505E-03     3.40369E-03    -30.2517E-03     59.6128E-03    -29.7695E-03     3.39451E-03
            2305     874.050E-06     9.23631E-03    -35.6117E+06    -129.433E+06    -34.0558E+06     183.960E+03    -29.7946E-03     59.4278E-03    -29.6332E-03     1.90228E-03    -29.7357E-03     58.8821E-03    -29.5641E-03     1.89691E-03
            2306     16.2256E-03     8.94121E-03    -4.63569E+06     125.733E+06     89.5087E+06     956.846E+03    -93.5570E-03     146.133E-03    -52.5764E-03     77.9906E-03    -95.6076E-03     148.355E-03    -52.3045E-03     75.5936E-03
            2307     15.4084E-03     8.79333E-03    -9.06855E+06     122.009E+06     81.1392E+06     2.29399E+06    -95.4309E-03     145.737E-03    -50.3057E-03     127.751E-03    -98.3380E-03     148.810E-03    -50.0638E-03     124.392E-03
            2308     14.5890E-03     8.65214E-03    -13.4992E+06     103.270E+06     46.2692E+06     3.98919E+06    -91.4431E-03     139.185E-03    -47.7414E-03     101.245E-03    -93.3514E-03     141.279E-03    -47.6402E-03     98.4065E-03
            2309     13.7647E-03     8.55101E-03    -17.4239E+06     77.4686E+06     4.25746E+06     5.56211E+06    -83.5284E-03     128.695E-03    -45.1670E-03     64.0223E-03    -84.5303E-03     129.900E-03    -45.2327E-03     62.1122E-03
            2310     12.9339E-03     8.48364E-03    -19.8231E+06     33.2256E+06    -11.0596E+06     6.41253E+06    -75.6944E-03     118.600E-03    -42.9052E-03     42.4517E-03    -76.2350E-03     119.221E-03    -42.9800E-03     41.2157E-03
            2311     12.0970E-03     8.42961E-03    -21.5309E+06    -15.0554E+06    -7.05520E+06     5.88453E+06    -68.6363E-03     109.573E-03    -40.9366E-03     32.1880E-03    -68.9466E-03     109.775E-03    -40.9188E-03     31.3751E-03
            2312     11.2544E-03     8.38715E-03    -22.6261E+06    -46.6825E+06    -5.59385E+06     4.74538E+06    -62.0071E-03     101.140E-03    -39.1330E-03     24.3538E-03    -62.1856E-03     101.090E-03    -39.0604E-03     23.8014E-03
            2313     10.4061E-03     8.35459E-03    -23.6659E+06    -69.1088E+06    -3.96026E+06     3.79552E+06    -55.9361E-03     93.4677E-03    -37.5316E-03     19.3206E-03    -56.0354E-03     93.2498E-03    -37.4169E-03     18.9453E-03
            2314     9.55299E-03     8.32929E-03    -24.9142E+06    -84.0016E+06    -1.36335E+06     3.27094E+06    -50.5824E-03     86.7244E-03    -36.1420E-03     16.5816E-03    -50.6391E-03     86.3989E-03    -35.9909E-03     16.3263E-03
            2315     8.69513E-03     8.30906E-03    -26.2349E+06    -96.9388E+06    -186.557E+03     3.38893E+06    -46.0852E-03     81.0329E-03    -34.9477E-03     14.9736E-03    -46.1125E-03     80.6239E-03    -34.7700E-03     14.8044E-03
            2316     7.83392E-03     8.29291E-03    -27.4173E+06    -106.742E+06    -765.361E+03     2.87772E+06    -42.4181E-03     76.3385E-03    -33.9204E-03     13.9810E-03    -42.4244E-03     75.8710E-03    -33.7297E-03     13.8627E-03
            2317     6.96968E-03     8.27953E-03    -28.4949E+06    -110.741E+06    -1.45376E+06     1.72130E+06    -39.4140E-03     72.4533E-03    -33.0393E-03     13.2977E-03    -39.4109E-03     71.9604E-03    -32.8446E-03     13.2051E-03
            2318     6.10320E-03     8.26820E-03    -29.4985E+06    -113.801E+06    -3.35625E+06     1.67197E+06    -36.9748E-03     69.2594E-03    -32.2846E-03     12.5959E-03    -36.9641E-03     68.7498E-03    -32.0936E-03     12.5321E-03
            2319     5.23460E-03     8.25860E-03    -30.5169E+06    -116.748E+06    -7.30620E+06     1.32082E+06    -35.0062E-03     66.6411E-03    -31.6350E-03     11.6858E-03    -34.9866E-03     66.1201E-03    -31.4580E-03     11.6394E-03
            2320     4.36454E-03     8.25038E-03    -31.3250E+06    -118.160E+06    -11.5371E+06     236.757E+03    -33.4037E-03     64.4870E-03    -31.0833E-03     10.5619E-03    -33.3772E-03     63.9633E-03    -30.9242E-03     10.5187E-03
            2321     3.49324E-03     8.24338E-03    -32.2339E+06    -121.181E+06    -17.8524E+06    -189.360E+03    -32.1095E-03     62.7282E-03    -30.6187E-03     9.05575E-03    -32.0720E-03     62.1978E-03    -30.4855E-03     9.02025E-03
            2322     2.62089E-03     8.23786E-03    -33.5353E+06    -125.118E+06    -25.1296E+06    -415.217E+03    -31.0965E-03     61.3408E-03    -30.2443E-03     7.16789E-03    -31.0479E-03     60.8018E-03    -30.1399E-03     7.13989E-03
            2323     1.74767E-03     8.23373E-03    -34.9071E+06    -128.023E+06    -30.5960E+06    -692.883E+03    -30.3559E-03     60.3276E-03    -29.9717E-03     5.06289E-03    -30.3012E-03     59.7832E-03    -29.8884E-03     5.03984E-03
            2324     874.104E-06     8.23114E-03    -35.9913E+06    -129.989E+06    -34.3319E+06    -659.753E+03    -29.9237E-03     59.7021E-03    -29.7784E-03     2.82997E-03    -29.8655E-03     59.1546E-03    -29.7093E-03     2.81422E-03
            2325     16.2352E-03     7.84097E-03    -4.79843E+06     124.679E+06     89.3187E+06     869.452E+03    -100.911E-03     153.183E-03    -52.2728E-03     77.4973E-03    -102.916E-03     155.355E-03    -52.0000E-03     74.7515E-03
            2326     15.4200E-03     7.69579E-03    -9.82265E+06     119.461E+06     81.2628E+06     1.81120E+06    -101.434E-03     151.066E-03    -49.6314E-03     122.314E-03    -104.199E-03     153.986E-03    -49.3841E-03     118.662E-03
            2327     14.6041E-03     7.56231E-03    -13.9495E+06     100.247E+06     48.6852E+06     5.22363E+06    -93.6692E-03     140.468E-03    -46.7985E-03     91.6922E-03    -95.3910E-03     142.357E-03    -46.6802E-03     88.9041E-03
            2328     13.7809E-03     7.47479E-03    -17.6984E+06     77.0261E+06     8.80817E+06     8.26922E+06    -82.7239E-03     126.846E-03    -44.1221E-03     56.1497E-03    -83.6087E-03     127.918E-03    -44.1641E-03     54.4299E-03
            2329     12.9485E-03     7.41846E-03    -21.2693E+06     35.7373E+06    -7.15272E+06     8.35368E+06    -73.2871E-03     115.176E-03    -41.8888E-03     38.0843E-03    -73.7869E-03     115.749E-03    -41.9455E-03     37.0081E-03
            2330     12.1093E-03     7.37400E-03    -24.0408E+06    -11.5682E+06    -3.05900E+06     6.84869E+06    -65.3447E-03     105.396E-03    -40.0508E-03     30.4914E-03    -65.6517E-03     105.586E-03    -40.0145E-03     29.7934E-03
            2331     11.2635E-03     7.34107E-03    -26.5758E+06    -43.6128E+06    -1.24868E+06     4.36559E+06    -58.1231E-03     96.5822E-03    -38.4591E-03     25.2273E-03    -58.3192E-03     96.5337E-03    -38.3636E-03     24.7501E-03
            2332     10.4116E-03     7.31651E-03    -27.5853E+06    -67.2277E+06     299.283E+03     1.94841E+06    -52.0528E-03     89.1780E-03    -37.1252E-03     22.5417E-03    -52.1760E-03     88.9645E-03    -36.9863E-03     22.1986E-03
            2333     9.55481E-03     7.29795E-03    -27.5038E+06    -83.6173E+06     3.43983E+06     920.565E+03    -47.2499E-03     83.2773E-03    -36.0273E-03     21.3054E-03    -47.3263E-03     82.9498E-03    -35.8490E-03     21.0553E-03
            2334     8.69449E-03     7.28322E-03    -27.2625E+06    -96.4316E+06     5.80609E+06     387.854E+03    -43.4687E-03     78.5877E-03    -35.1190E-03     20.5895E-03    -43.5114E-03     78.1749E-03    -34.9106E-03     20.4037E-03
            2335     7.83102E-03     7.27135E-03    -26.9956E+06    -105.294E+06     6.12220E+06    -553.348E+03    -40.5444E-03     74.9007E-03    -34.3563E-03     19.9567E-03    -40.5618E-03     74.4310E-03    -34.1338E-03     19.8075E-03
            2336     6.96547E-03     7.26144E-03    -27.5543E+06    -110.237E+06     4.02420E+06    -1.09458E+06    -38.2813E-03     71.9862E-03    -33.7049E-03     19.2047E-03    -38.2832E-03     71.4875E-03    -33.4850E-03     19.0837E-03
            2337     6.09798E-03     7.25302E-03    -28.7478E+06    -113.630E+06    -325.835E+03    -1.75932E+06    -36.4915E-03     69.6349E-03    -33.1434E-03     18.1417E-03    -36.4824E-03     69.1214E-03    -32.9385E-03     18.0386E-03
            2338     5.22930E-03     7.24563E-03    -29.1633E+06    -115.843E+06    -5.93779E+06    -2.61033E+06    -35.0705E-03     67.7276E-03    -32.6571E-03     16.6757E-03    -35.0480E-03     67.2074E-03    -32.4765E-03     16.5820E-03
            2339     4.35946E-03     7.23932E-03    -29.9860E+06    -118.258E+06    -11.2121E+06    -2.79652E+06    -33.9140E-03     66.1602E-03    -32.2462E-03     14.8291E-03    -33.8814E-03     65.6337E-03    -32.0873E-03     14.7493E-03
            2340     3.48864E-03     7.23391E-03    -31.6913E+06    -121.794E+06    -17.6069E+06    -2.53134E+06    -32.9718E-03     64.8723E-03    -31.9005E-03     12.5485E-03    -32.9312E-03     64.3377E-03    -31.7660E-03     12.4849E-03
            2341     2.61714E-03     7.22960E-03    -33.2096E+06    -125.808E+06    -24.6143E+06    -2.01667E+06    -32.2341E-03     63.8529E-03    -31.6188E-03     9.82650E-03    -32.1838E-03     63.3091E-03    -31.5113E-03     9.77951E-03
            2342     1.74512E-03     7.22645E-03    -34.4773E+06    -128.894E+06    -30.1152E+06    -1.46194E+06    -31.6792E-03     63.0935E-03    -31.4143E-03     6.83728E-03    -31.6219E-03     62.5432E-03    -31.3280E-03     6.80548E-03
            2343     872.462E-06     7.22443E-03    -35.8490E+06    -131.599E+06    -34.5848E+06    -940.707E+03    -31.3692E-03     62.6439E-03    -31.2746E-03     3.83583E-03    -31.3077E-03     62.0883E-03    -31.2047E-03     3.81710E-03
            2344     16.2334E-03     6.72940E-03    -5.05895E+06     123.627E+06     88.9986E+06     1.62981E+06    -108.326E-03     160.299E-03    -51.9725E-03     74.0508E-03    -110.219E-03     162.355E-03    -51.6994E-03     71.0670E-03
            2345     15.4301E-03     6.58938E-03    -11.2616E+06     116.293E+06     80.6578E+06     2.27552E+06    -105.104E-03     154.122E-03    -49.0180E-03     113.411E-03    -107.640E-03     156.800E-03    -48.7670E-03     109.678E-03
            2346     14.6177E-03     6.47299E-03    -16.3688E+06     95.5230E+06     51.4361E+06     5.45471E+06    -93.0441E-03     139.118E-03    -46.0740E-03     81.4386E-03    -94.5577E-03     140.767E-03    -45.9316E-03     78.8486E-03
            2347     13.7916E-03     6.40138E-03    -19.7422E+06     74.5146E+06     15.5216E+06     9.98552E+06    -79.2066E-03     122.696E-03    -43.4894E-03     51.1314E-03    -79.9934E-03     123.635E-03    -43.4912E-03     49.6749E-03
            2348     12.9561E-03     6.35718E-03    -23.8090E+06     38.6262E+06    -217.669E+03     11.9314E+06    -68.6141E-03     110.089E-03    -41.4754E-03     38.2654E-03    -69.0938E-03     110.624E-03    -41.4979E-03     37.4134E-03
            2349     12.1125E-03     6.32346E-03    -28.5345E+06    -5.36223E+06     3.22433E+06     8.32063E+06    -60.1304E-03     100.081E-03    -39.9509E-03     34.0854E-03    -60.4577E-03     100.280E-03    -39.8857E-03     33.5329E-03
            2350     11.2618E-03     6.30002E-03    -30.0489E+06    -38.4111E+06     5.72705E+06     2.15767E+06    -53.2217E-03     91.9589E-03    -38.7371E-03     31.4473E-03    -53.4442E-03     91.9227E-03    -38.6092E-03     31.0283E-03
            2351     10.4056E-03     6.28281E-03    -29.4425E+06    -64.9672E+06     6.93210E+06    -1.76886E+06    -48.0518E-03     85.8404E-03    -37.7885E-03     30.4215E-03    -48.1945E-03     85.6285E-03    -37.6170E-03     30.0852E-03
            2352     9.54569E-03     6.26943E-03    -28.8066E+06    -83.4100E+06     9.45944E+06    -3.31715E+06    -44.3178E-03     81.3726E-03    -37.0548E-03     29.8013E-03    -44.4092E-03     81.0387E-03    -36.8448E-03     29.5306E-03
            2353     8.68292E-03     6.25896E-03    -28.4309E+06    -95.5335E+06     11.3645E+06    -4.32293E+06    -41.6407E-03     78.1125E-03    -36.4719E-03     29.0880E-03    -41.6988E-03     77.6979E-03    -36.2353E-03     28.8622E-03
            2354     7.81834E-03     6.25019E-03    -28.3727E+06    -105.029E+06     10.6240E+06    -5.27775E+06    -39.7163E-03     75.7066E-03    -35.9904E-03     27.9884E-03    -39.7478E-03     75.2338E-03    -35.7438E-03     27.7915E-03
            2355     6.95220E-03     6.24269E-03    -27.9966E+06    -110.696E+06     6.54128E+06     -5.6262E+06    -38.3090E-03     73.8799E-03    -35.5708E-03     26.3746E-03    -38.3164E-03     73.3757E-03    -35.3370E-03     26.2038E-03
            2356     6.08526E-03     6.23613E-03    -27.3265E+06    -113.251E+06     600.298E+03    -6.08424E+06    -37.2296E-03     72.4290E-03    -35.1994E-03     24.3295E-03    -37.2154E-03     71.9136E-03    -34.9925E-03     24.1767E-03
            2357     5.21732E-03     6.23032E-03    -27.8050E+06    -116.979E+06    -6.52944E+06    -6.16675E+06    -36.3582E-03     71.2333E-03    -34.8751E-03     21.8348E-03    -36.3263E-03     70.7060E-03    -34.6978E-03     21.6998E-03
            2358     4.34875E-03     6.22529E-03    -28.9993E+06    -120.105E+06    -12.1528E+06    -5.16110E+06    -35.6336E-03     70.2362E-03    -34.6026E-03     18.9550E-03    -35.5920E-03     69.7000E-03    -34.4472E-03     18.8481E-03
            2359     3.47971E-03     6.22094E-03    -30.5953E+06    -123.553E+06    -17.9639E+06    -4.14005E+06    -35.0389E-03     69.4109E-03    -34.3720E-03     15.6873E-03    -34.9898E-03     68.8661E-03    -34.2383E-03     15.6056E-03
            2360     2.61019E-03     6.21750E-03    -32.4426E+06    -127.869E+06    -24.9470E+06    -3.24521E+06    -34.5643E-03     68.7435E-03    -34.1792E-03     12.0843E-03    -34.5068E-03     68.1885E-03    -34.0715E-03     12.0233E-03
            2361     1.74030E-03     6.21495E-03    -34.0604E+06    -131.073E+06    -30.0540E+06    -2.05521E+06    -34.2233E-03     68.2570E-03    -34.0337E-03     8.30852E-03    -34.1610E-03     67.6948E-03    -33.9445E-03     8.27017E-03
            2362     870.418E-06     6.21338E-03    -35.2248E+06    -133.511E+06    -34.0234E+06    -836.515E+03    -33.9395E-03     67.9214E-03    -33.9820E-03     4.61690E-03    -33.8731E-03     67.3544E-03    -33.9074E-03     4.60012E-03
            2363     16.2491E-03     5.61690E-03    -4.26469E+06     122.347E+06     88.6098E+06     2.94380E+06    -115.071E-03     166.910E-03    -51.8382E-03     73.4326E-03    -116.832E-03     168.835E-03    -51.5664E-03     70.3313E-03
            2364     15.4395E-03     5.48032E-03    -9.92198E+06     114.547E+06     82.0281E+06     5.46559E+06    -105.108E-03     153.823E-03    -48.7148E-03     107.938E-03    -107.368E-03     156.221E-03    -48.4564E-03     104.449E-03
            2365     14.6230E-03     5.38679E-03    -18.2773E+06     91.4158E+06     53.4795E+06     7.75035E+06    -88.2916E-03     134.192E-03    -45.8999E-03     75.2693E-03    -89.5892E-03     135.598E-03    -45.7386E-03     73.1010E-03
            2366     13.7926E-03     5.33363E-03    -25.7061E+06     68.0699E+06     19.8031E+06     12.9599E+06    -72.6205E-03     116.287E-03    -43.6663E-03     52.8374E-03    -73.3400E-03     117.102E-03    -43.6288E-03     51.7250E-03
            2367     12.9505E-03     5.30187E-03    -30.3724E+06     42.5834E+06     7.78584E+06     14.2761E+06    -61.7159E-03     103.820E-03    -42.1043E-03     45.9182E-03    -62.2083E-03     104.335E-03    -42.0830E-03     45.3028E-03
            2368     12.1005E-03     5.27903E-03    -30.9416E+06     6.20278E+06     12.9694E+06     5.67985E+06    -54.1514E-03     95.2103E-03    -41.0589E-03     44.3540E-03    -54.5050E-03     95.4400E-03    -40.9582E-03     43.8961E-03
            2369     11.2446E-03     5.26310E-03    -29.2668E+06    -33.2697E+06     14.7211E+06    -2.83748E+06    -48.8355E-03     89.1465E-03    -40.3110E-03     43.0001E-03    -49.0667E-03     89.1138E-03    -40.1467E-03     42.5955E-03
            2370     10.3854E-03     5.25122E-03    -28.4822E+06    -62.8873E+06     14.9309E+06    -6.38043E+06    -45.3232E-03     85.0928E-03    -39.7696E-03     41.9413E-03    -45.4715E-03     84.8739E-03    -39.5625E-03     41.5932E-03
            2371     9.52341E-03     5.24169E-03    -28.1188E+06    -83.2258E+06     16.5700E+06    -8.52143E+06    -43.0116E-03     82.3902E-03    -39.3786E-03     40.5104E-03    -43.1075E-03     82.0427E-03    -39.1343E-03     40.2028E-03
            2372     8.66002E-03     5.23364E-03    -27.5437E+06    -95.5434E+06     15.8309E+06    -9.61312E+06    -41.5640E-03     80.6295E-03    -39.0655E-03     38.4638E-03    -41.6222E-03     80.2045E-03    -38.8078E-03     38.1894E-03
            2373     7.79568E-03     5.22662E-03    -26.8064E+06    -105.228E+06     10.9118E+06    -10.6763E+06    -40.6455E-03     79.4333E-03    -38.7878E-03     35.8550E-03    -40.6678E-03     78.9546E-03    -38.5418E-03     35.6016E-03
            2374     6.93094E-03     5.22047E-03    -25.9243E+06    -112.084E+06     4.85691E+06    -11.4334E+06    -39.9879E-03     78.5238E-03    -38.5359E-03     32.8022E-03    -39.9792E-03     78.0103E-03    -38.3115E-03     32.5660E-03
            2375     6.06552E-03     5.21493E-03    -25.6311E+06    -115.631E+06    -1.62997E+06    -10.3170E+06    -39.4566E-03     77.7583E-03    -38.3017E-03     29.3625E-03    -39.4263E-03     77.2303E-03    -38.1050E-03     29.1619E-03
            2376     5.19993E-03     5.21008E-03    -26.3194E+06    -119.852E+06    -8.47057E+06    -8.45176E+06    -38.9857E-03     77.0736E-03    -38.0879E-03     25.6349E-03    -38.9388E-03     76.5314E-03    -37.9183E-03     25.4752E-03
            2377     4.33394E-03     5.20583E-03    -27.6947E+06    -123.232E+06    -13.9597E+06    -7.00577E+06    -38.5552E-03     76.4566E-03    -37.9014E-03     21.7701E-03    -38.4996E-03     75.9046E-03    -37.7523E-03     21.6430E-03
            2378     3.46756E-03     5.20214E-03    -29.2256E+06    -126.708E+06    -19.4471E+06    -5.21404E+06    -38.1797E-03     75.9177E-03    -37.7380E-03     17.6701E-03    -38.1169E-03     75.3566E-03    -37.6091E-03     17.5769E-03
            2379     2.60096E-03     5.19929E-03    -30.9703E+06    -130.703E+06    -25.5908E+06    -3.44402E+06    -37.8667E-03     75.4638E-03    -37.5971E-03     13.3979E-03    -37.7968E-03     74.8930E-03    -37.4906E-03     13.3359E-03
            2380     1.73413E-03     5.19715E-03    -32.7562E+06    -133.876E+06    -30.4570E+06    -2.07484E+06    -37.6218E-03     75.1106E-03    -37.4888E-03     9.12654E-03    -37.5484E-03     74.5328E-03    -37.3994E-03     9.08884E-03
            2381     866.985E-06     5.19577E-03    -33.6941E+06    -135.553E+06    -33.2171E+06    -869.355E+03    -37.4217E-03     74.8756E-03    -37.4539E-03     4.95304E-03    -37.3460E-03     74.2947E-03    -37.3746E-03     4.93622E-03
            2382     16.2333E-03     4.48552E-03    -5.10355E+06     118.837E+06     85.3228E+06     3.30920E+06    -116.820E-03     169.115E-03    -52.2947E-03     77.4776E-03    -118.465E-03     170.919E-03    -52.0330E-03     74.4193E-03
            2383     15.4351E-03     4.37588E-03    -10.7621E+06     110.251E+06     80.2937E+06     8.07662E+06    -101.369E-03     150.632E-03    -49.2635E-03     106.104E-03    -103.346E-03     152.737E-03    -49.0063E-03     103.064E-03
            2384     14.6126E-03     4.30619E-03    -18.6231E+06     86.2041E+06     56.4292E+06     14.0115E+06    -79.7423E-03     126.593E-03    -46.8507E-03     77.4450E-03    -80.8340E-03     127.766E-03    -46.6665E-03     75.8669E-03
            2385     13.7736E-03     4.27415E-03    -25.8808E+06     65.1351E+06     31.3300E+06     16.7507E+06    -64.0707E-03     109.292E-03    -45.2210E-03     63.4795E-03    -64.7226E-03     109.995E-03    -45.1213E-03     62.7350E-03
            2386     12.9238E-03     4.25310E-03    -27.1736E+06     53.1490E+06     22.8741E+06     10.2445E+06    -55.1152E-03     99.3433E-03    -44.2282E-03     60.8853E-03    -55.5948E-03     99.8504E-03    -44.1514E-03     60.4024E-03
            2387     12.0686E-03     4.23819E-03    -24.7853E+06     17.8899E+06     22.6354E+06    -798.659E+03    -50.0848E-03     93.7351E-03    -43.6503E-03     59.0106E-03    -50.4176E-03     93.9784E-03    -43.5271E-03     58.5763E-03
            2388     11.2103E-03     4.22711E-03    -24.5894E+06    -30.8116E+06     20.5395E+06    -7.16585E+06    -47.1397E-03     90.4317E-03    -43.2920E-03     56.2657E-03    -47.3457E-03     90.3813E-03    -43.1090E-03     55.8698E-03
            2389     10.3500E-03     4.21826E-03    -25.5044E+06    -60.8958E+06     19.0153E+06    -10.5103E+06    -45.4588E-03     88.4937E-03    -43.0349E-03     53.0010E-03    -45.5913E-03     88.2636E-03    -42.8145E-03     52.6405E-03
            2390     9.48899E-03     4.21062E-03    -25.7543E+06    -82.6858E+06     18.5265E+06    -13.8303E+06    -44.5207E-03     87.3597E-03    -42.8390E-03     49.2568E-03    -44.6011E-03     87.0004E-03    -42.5892E-03     48.9080E-03
            2391     8.62748E-03     4.20367E-03    -24.5974E+06    -96.3270E+06     14.3029E+06    -15.8768E+06    -43.9811E-03     86.6266E-03    -42.6455E-03     45.0619E-03    -44.0158E-03     86.1893E-03    -42.3987E-03     44.7260E-03
            2392     7.76581E-03     4.19742E-03    -22.9529E+06    -106.822E+06     7.36668E+06    -16.3930E+06    -43.6343E-03     86.0822E-03    -42.4479E-03     40.5495E-03    -43.6260E-03     85.5904E-03    -42.2229E-03     40.2364E-03
            2393     6.90378E-03     4.19190E-03    -22.7128E+06    -115.510E+06     605.401E+03    -15.2530E+06    -43.3333E-03     85.5886E-03    -42.2553E-03     35.9684E-03    -43.2946E-03     85.0562E-03    -42.0519E-03     35.6929E-03
            2394     6.04183E-03     4.18693E-03    -23.5681E+06    -120.713E+06     -7.0908E+06    -12.8875E+06    -43.0115E-03     85.0696E-03    -42.0581E-03     31.3815E-03    -42.9537E-03     84.5188E-03    -41.8843E-03     31.1549E-03
            2395     5.17942E-03     4.18272E-03    -24.4028E+06    -124.329E+06    -12.3537E+06    -10.1113E+06    -42.6697E-03     84.5468E-03    -41.8772E-03     26.8484E-03    -42.5999E-03     83.9836E-03    -41.7233E-03     26.6725E-03
            2396     4.31676E-03     4.17900E-03    -25.6462E+06    -127.259E+06    -16.6550E+06    -7.58410E+06    -42.3147E-03     84.0274E-03    -41.7126E-03     22.4014E-03    -42.2385E-03     83.4552E-03    -41.5742E-03     22.2703E-03
            2397     3.45387E-03     4.17589E-03    -27.5333E+06    -131.005E+06    -22.1644E+06    -5.27467E+06    -41.9794E-03     83.5418E-03    -41.5623E-03     17.9497E-03    -41.8976E-03     82.9601E-03    -41.4433E-03     17.8580E-03
            2398     2.59067E-03     4.17342E-03    -29.2822E+06    -134.162E+06    -26.7554E+06    -2.91023E+06    -41.7020E-03     83.1385E-03    -41.4365E-03     13.4857E-03    -41.6168E-03     82.5494E-03    -41.3333E-03     13.4319E-03
            2399     1.72727E-03     4.17170E-03    -30.6362E+06    -136.158E+06    -29.7497E+06    -1.26915E+06    -41.4726E-03     82.8125E-03    -41.3399E-03     9.08289E-03    -41.3862E-03     82.2191E-03    -41.2468E-03     9.05634E-03
            2400     863.748E-06     4.17061E-03    -31.6005E+06    -137.282E+06    -31.4701E+06    -673.512E+03    -41.2957E-03     82.5918E-03    -41.2961E-03     4.92335E-03    -41.2095E-03     81.9967E-03    -41.2085E-03     4.90939E-03
            2401     16.2212E-03     3.35425E-03    -5.43448E+06     114.185E+06     80.9308E+06     5.00388E+06    -109.832E-03     163.552E-03    -53.7202E-03     84.4344E-03    -111.271E-03     165.148E-03    -53.4732E-03     81.8343E-03
            2402     15.4071E-03     3.27401E-03    -13.3844E+06     100.842E+06     73.6741E+06     10.8471E+06    -90.8375E-03     142.039E-03    -51.2014E-03     106.434E-03    -92.4253E-03     143.732E-03    -50.9598E-03     104.152E-03
            2403     14.5757E-03     3.23733E-03    -18.1378E+06     80.8440E+06     60.3933E+06     16.0306E+06    -69.6315E-03     119.119E-03    -49.4878E-03     87.5080E-03    -70.5200E-03     120.060E-03    -49.2768E-03     86.4514E-03
            2404     13.7277E-03     3.22007E-03    -16.9238E+06     72.3934E+06     48.3462E+06     12.0837E+06    -58.0324E-03     106.536E-03    -48.5034E-03     80.6130E-03    -58.5980E-03     107.159E-03    -48.3421E-03     80.0535E-03
            2405     12.8743E-03     3.20650E-03    -13.8407E+06     65.2481E+06     32.1507E+06     3.50623E+06    -53.3322E-03     101.223E-03    -47.8911E-03     76.2902E-03    -53.7307E-03     101.710E-03    -47.8049E-03     75.8508E-03
            2406     12.0184E-03     3.19534E-03    -15.1974E+06     23.5054E+06     18.0024E+06    -2.98232E+06    -51.0739E-03     98.5923E-03    -47.5184E-03     70.2103E-03    -51.3254E-03     98.8194E-03    -47.4404E-03     69.8338E-03
            2407     11.1617E-03     3.18655E-03    -18.2425E+06    -28.3399E+06     12.5231E+06    -8.62815E+06    -49.9889E-03     97.2757E-03    -47.2868E-03     63.4509E-03    -50.1313E-03     97.2144E-03    -47.1566E-03     63.0914E-03
            2408     10.3051E-03     3.17880E-03    -19.5337E+06    -58.4817E+06     8.55903E+06    -13.6241E+06    -49.3620E-03     96.4254E-03    -47.0634E-03     57.0396E-03    -49.4361E-03     96.1957E-03    -46.9075E-03     56.6773E-03
            2409     9.44803E-03     3.17191E-03    -19.3259E+06    -81.1194E+06     5.14022E+06    -18.0495E+06    -48.9752E-03     95.8170E-03    -46.8418E-03     50.8899E-03    -48.9945E-03     95.4628E-03    -46.6705E-03     50.5146E-03
            2410     8.59090E-03     3.16554E-03    -19.0967E+06    -98.1833E+06     573.534E+03    -20.3871E+06    -48.5854E-03     95.1946E-03    -46.6093E-03     44.9800E-03    -48.5615E-03     94.7510E-03    -46.4363E-03     44.6070E-03
            2411     7.73339E-03     3.15991E-03    -19.6799E+06    -111.259E+06    -5.29709E+06    -19.4039E+06    -48.1517E-03     94.5213E-03    -46.3696E-03     39.3831E-03    -48.0962E-03     94.0148E-03    -46.2062E-03     39.0473E-03
            2412     6.87572E-03     3.15493E-03    -20.3570E+06    -121.188E+06    -10.7116E+06    -16.7927E+06    -47.6976E-03     93.8324E-03    -46.1348E-03     34.1681E-03    -47.6184E-03     93.2804E-03    -45.9831E-03     33.8850E-03
            2413     6.01736E-03     3.15071E-03    -21.1400E+06    -126.932E+06    -14.8047E+06    -13.4669E+06    -47.2215E-03     93.1326E-03    -45.9111E-03     29.2965E-03    -47.1287E-03     92.5557E-03    -45.7704E-03     29.0715E-03
            2414     5.15878E-03     3.14705E-03    -22.5894E+06    -129.922E+06    -18.1494E+06    -10.0872E+06    -46.7490E-03     92.4516E-03    -45.7026E-03     24.7303E-03    -46.6519E-03     91.8645E-03    -45.5722E-03     24.5612E-03
            2415     4.29980E-03     3.14399E-03    -24.3982E+06    -132.473E+06    -21.0843E+06    -6.81179E+06    -46.2892E-03     91.8043E-03    -45.5152E-03     20.3929E-03    -46.1916E-03     91.2098E-03    -45.3931E-03     20.2762E-03
            2416     3.44032E-03     3.14148E-03    -26.3223E+06    -135.262E+06    -24.6837E+06    -3.86195E+06    -45.8629E-03     91.2141E-03    -45.3512E-03     16.2095E-03    -45.7645E-03     90.6126E-03    -45.2404E-03     16.1389E-03
            2417     2.58056E-03     3.13948E-03    -27.9955E+06    -137.283E+06    -27.3966E+06    -1.95338E+06    -45.5160E-03     90.7380E-03    -45.2219E-03     12.1434E-03    -45.4185E-03     90.1321E-03    -45.1192E-03     12.1038E-03
            2418     1.72053E-03     3.13811E-03    -28.7650E+06    -137.762E+06    -27.9578E+06    -824.021E+03    -45.2688E-03     90.3996E-03    -45.1308E-03     8.17373E-03    -45.1732E-03     89.7928E-03    -45.0291E-03     8.15400E-03
            2419     860.311E-06     3.13727E-03    -29.1001E+06    -138.273E+06    -28.8777E+06    -252.286E+03    -45.0831E-03     90.1752E-03    -45.0921E-03     4.44071E-03    -44.9866E-03     89.5678E-03    -44.9938E-03     4.43274E-03
            2420     16.1719E-03     2.23415E-03    -4.54684E+06     107.952E+06     76.9945E+06     8.50653E+06    -95.5078E-03     152.164E-03    -56.6563E-03     102.971E-03    -96.7304E-03     153.538E-03    -56.4212E-03     101.072E-03
            2421     15.3493E-03     2.18538E-03    -11.1775E+06     93.1621E+06     71.6128E+06     12.7982E+06    -78.8792E-03     133.826E-03    -54.9466E-03     114.374E-03    -80.0306E-03     135.067E-03    -54.7075E-03     112.908E-03
            2422     14.5063E-03     2.17557E-03    -10.2448E+06     85.5473E+06     67.3175E+06     8.55144E+06    -65.8124E-03     119.661E-03    -53.8490E-03     98.3653E-03    -66.4679E-03     120.388E-03    -53.6216E-03     97.6000E-03
            2423     13.6576E-03     2.16229E-03    -6.52303E+06     81.1708E+06     48.5582E+06     1.98121E+06    -61.2921E-03     114.352E-03    -53.0595E-03     89.1265E-03    -61.7164E-03     114.896E-03    -52.9250E-03     88.6141E-03
            2424     12.8094E-03     2.15240E-03    -5.96465E+06     67.3451E+06     16.0290E+06     1.25526E+06    -59.5726E-03     111.922E-03    -52.3495E-03     77.0362E-03    -59.8402E-03     112.357E-03    -52.3583E-03     76.6846E-03
            2425     11.9605E-03     2.14290E-03    -7.91955E+06     26.6977E+06    -4.14895E+06    -625.027E+03    -57.9730E-03     109.774E-03    -51.8008E-03     66.0757E-03    -58.1139E-03     109.990E-03    -51.8488E-03     65.8105E-03
            2426     11.1112E-03     2.13540E-03    -9.83178E+06    -22.7887E+06    -12.3375E+06    -7.72697E+06    -56.7892E-03     108.160E-03    -51.3713E-03     56.7886E-03    -56.8304E-03     108.119E-03    -51.3857E-03     56.5012E-03
            2427     10.2607E-03     2.12894E-03    -10.6377E+06    -55.2562E+06    -19.2083E+06    -14.4473E+06    -55.8655E-03     106.813E-03    -50.9479E-03     49.0700E-03    -55.8386E-03     106.606E-03    -50.9484E-03     48.7427E-03
            2428     9.40954E-03     2.12282E-03    -11.3257E+06    -80.0718E+06    -24.1940E+06    -18.1730E+06    -54.9022E-03     105.444E-03    -50.5419E-03     42.3429E-03    -54.8261E-03     105.112E-03    -50.5303E-03     42.0013E-03
            2429     8.55755E-03     2.11775E-03    -13.2383E+06    -101.371E+06    -26.5941E+06    -19.0387E+06    -53.9013E-03     104.071E-03    -50.1701E-03     36.5168E-03    -53.7943E-03     103.633E-03    -50.1369E-03     36.1888E-03
            2430     7.70470E-03     2.11320E-03    -15.3990E+06    -116.817E+06    -27.6108E+06    -17.7131E+06    -52.9163E-03     102.744E-03    -49.8276E-03     31.4431E-03    -52.7922E-03     102.229E-03    -49.7740E-03     31.1509E-03
            2431     6.85076E-03     2.10942E-03    -17.5011E+06    -127.606E+06    -26.6046E+06    -15.0349E+06    -52.0064E-03     101.528E-03    -49.5214E-03     26.9174E-03    -51.8760E-03     100.958E-03    -49.4440E-03     26.6739E-03
            2432     5.99633E-03     2.10610E-03    -19.7815E+06    -133.816E+06    -24.1934E+06    -11.4755E+06    -51.1767E-03     100.426E-03    -49.2492E-03     22.8043E-03    -51.0504E-03     99.8236E-03    -49.1475E-03     22.6177E-03
            2433     5.14104E-03     2.10344E-03    -22.0391E+06    -135.731E+06    -24.4264E+06    -7.71999E+06    -50.4202E-03     99.4134E-03    -48.9932E-03     19.0764E-03    -50.3008E-03     98.8040E-03    -48.8866E-03     18.9474E-03
            2434     4.28512E-03     2.10117E-03    -24.3526E+06    -137.641E+06    -25.7450E+06    -4.55638E+06    -49.7719E-03     98.5414E-03    -48.7694E-03     15.6422E-03    -49.6585E-03     97.9268E-03    -48.6633E-03     15.5615E-03
            2435     3.42880E-03     2.09942E-03    -25.9884E+06    -138.611E+06    -26.3209E+06    -2.26555E+06    -49.2342E-03     97.8192E-03    -48.5850E-03     12.3762E-03    -49.1261E-03     97.2024E-03    -48.4779E-03     12.3308E-03
            2436     2.57195E-03     2.09803E-03    -26.6712E+06    -138.927E+06    -26.6967E+06    -1.25693E+06    -48.7981E-03     97.2382E-03    -48.4401E-03     9.22846E-03    -48.6921E-03     96.6210E-03    -48.3335E-03     9.20101E-03
            2437     1.71477E-03     2.09699E-03    -26.9255E+06    -139.046E+06    -26.9730E+06    -900.415E+03    -48.4834E-03     96.8246E-03    -48.3412E-03     6.17519E-03    -48.3778E-03     96.2074E-03    -48.2354E-03     6.15639E-03
            2438     857.406E-06     2.09643E-03    -26.9637E+06    -139.045E+06    -27.0224E+06    -311.822E+03    -48.3387E-03     96.6076E-03    -48.2689E-03     3.34425E-03    -48.2326E-03     95.9908E-03    -48.1633E-03     3.33657E-03
            2439     16.0939E-03     1.12536E-03    -1.45281E+06     105.792E+06     81.2502E+06     9.26848E+06    -94.2116E-03     155.612E-03    -61.4000E-03     118.441E-03    -95.1354E-03     156.664E-03    -61.1450E-03     117.071E-03
            2440     15.2579E-03     1.10658E-03    -809.440E+03     99.2517E+06     80.3847E+06     5.30361E+06    -83.5193E-03     143.311E-03    -59.7914E-03     99.6420E-03    -84.1780E-03     144.081E-03    -59.5322E-03     98.7716E-03
            2441     14.4225E-03     1.09963E-03     260.955E+03     92.9397E+06     65.0302E+06    -789.915E+03    -76.4660E-03     134.925E-03    -58.4592E-03     75.6687E-03    -76.8471E-03     135.444E-03    -58.2692E-03     75.1745E-03
            2442     13.5892E-03     1.08924E-03    -1.16351E+06     81.1343E+06     30.8657E+06    -1.15435E+06    -72.8867E-03     130.121E-03    -57.2341E-03     61.3346E-03    -73.1330E-03     130.558E-03    -57.1958E-03     61.0054E-03
            2443     12.7537E-03     1.08150E-03    -2.22259E+06     63.3375E+06    -4.52578E+06     1.26823E+06    -69.4848E-03     125.606E-03    -56.1215E-03     49.2640E-03    -69.6229E-03     125.972E-03    -56.2327E-03     49.0673E-03
            2444     11.9151E-03     1.07685E-03    -1.06102E+06     29.8855E+06    -26.0895E+06     508.315E+03    -66.5276E-03     121.728E-03    -55.2007E-03     40.6870E-03    -66.5631E-03     121.940E-03    -55.3729E-03     40.5447E-03
            2445     11.0724E-03     1.07211E-03    -479.893E+03    -15.5136E+06    -39.0989E+06    -4.84518E+06    -64.0246E-03     118.456E-03    -54.4310E-03     34.0127E-03    -63.9627E-03     118.449E-03    -54.6033E-03     33.8459E-03
            2446     10.2284E-03     1.06770E-03    -1.99787E+06    -52.4155E+06    -48.2735E+06    -9.75730E+06    -61.8608E-03     115.608E-03    -53.7476E-03     28.5118E-03    -61.7342E-03     115.428E-03    -53.9101E-03     28.3078E-03
            2447     9.38225E-03     1.06441E-03    -5.35653E+06    -80.7006E+06    -52.5666E+06    -11.4526E+06    -59.8597E-03     113.009E-03    -53.1491E-03     24.1369E-03    -59.6994E-03     112.695E-03    -53.2872E-03     23.9302E-03
            2448     8.53421E-03     1.06128E-03    -9.29618E+06    -103.920E+06    -51.6623E+06    -11.8052E+06    -58.0716E-03     110.711E-03    -52.6390E-03     20.5326E-03    -57.8965E-03     110.283E-03    -52.7332E-03     20.3353E-03
            2449     7.68463E-03     1.05891E-03    -13.0526E+06    -121.690E+06    -47.6806E+06    -10.8599E+06    -56.5078E-03     108.709E-03    -52.2013E-03     17.4704E-03    -56.3302E-03     108.191E-03    -52.2443E-03     17.2956E-03
            2450     6.83392E-03     1.05663E-03    -16.9556E+06    -132.866E+06    -41.7429E+06    -8.66482E+06    -55.1383E-03     106.964E-03    -51.8256E-03     14.8475E-03    -54.9718E-03     106.386E-03    -51.8171E-03     14.7089E-03
            2451     5.98188E-03     1.05490E-03    -20.3311E+06    -139.014E+06    -35.5195E+06    -6.60405E+06    -53.9638E-03     105.465E-03    -51.5017E-03     12.5035E-03    -53.8136E-03     104.852E-03    -51.4483E-03     12.3973E-03
            2452     5.12901E-03     1.05346E-03    -22.7683E+06    -141.059E+06    -31.1875E+06    -4.04790E+06    -52.9787E-03     104.195E-03    -51.2162E-03     10.4113E-03    -52.8437E-03     103.568E-03    -51.1346E-03     10.3430E-03
            2453     4.27534E-03     1.05232E-03    -24.3172E+06    -140.722E+06    -28.5229E+06    -1.86221E+06    -52.1700E-03     103.139E-03    -50.9694E-03     8.48494E-03    -52.0468E-03     102.513E-03    -50.8727E-03     8.44880E-03
            2454     3.42093E-03     1.05132E-03    -25.1251E+06    -140.276E+06    -27.0576E+06    -1.23769E+06    -51.5296E-03     102.294E-03    -50.7641E-03     6.69295E-03    -51.4129E-03     101.668E-03    -50.6595E-03     6.66806E-03
            2455     2.56621E-03     1.05061E-03    -25.3431E+06    -139.809E+06    -26.2008E+06    -866.883E+03    -51.0347E-03     101.636E-03    -50.6012E-03     4.98173E-03    -50.9210E-03     101.012E-03    -50.4927E-03     4.96424E-03
            2456     1.71103E-03     1.05014E-03    -25.6598E+06    -139.840E+06    -26.1824E+06    -526.824E+03    -50.6783E-03     101.159E-03    -50.4809E-03     3.33845E-03    -50.5660E-03     100.535E-03    -50.3718E-03     3.32760E-03
            2457     855.584E-06     1.04975E-03    -25.9859E+06    -139.885E+06    -26.1349E+06    -406.869E+03    -50.5016E-03     100.867E-03    -50.3650E-03     1.82301E-03    -50.3903E-03     100.243E-03    -50.2551E-03     1.81576E-03


