********************************************************************************
Field Output Report, written Tue May 28 23:04:03 2024

Source 1
---------

   ODB: G:/Abaqus_calc_2019/1740/Vel_10/odb/zeides_2a_8_red_500_cal_50_vel_10_fric_025.odb
   Step: Step-1
   Frame: Increment   7482204: Step Time =   0.9524

Loc 1 : Nodal values from source 1

Output sorted by column "Nodal Label".

Field Output reported at nodes for region: DIE_2A_8_D0_36-1.Region_1
   Computation algorithm: EXTRAPOLATE_COMPUTE_AVERAGE
   Averaged at nodes
   Averaging regions: ODB_REGIONS

      Node Label     COORD.COOR1     COORD.COOR2
                          @Loc 1          @Loc 1
-------------------------------------------------
               1     18.2928E-03     125.330E-03


Field Output reported at nodes for region: DIE_2A_8_D0_36-1.Region_2
   Computation algorithm: EXTRAPOLATE_COMPUTE_AVERAGE
   Averaged at nodes
   Averaging regions: ODB_REGIONS

      Node Label     COORD.COOR1     COORD.COOR2
                          @Loc 1          @Loc 1
-------------------------------------------------
               1     18.2928E-03     125.330E-03


Field Output reported at nodes for part: WIRE-1
   Computation algorithm: EXTRAPOLATE_COMPUTE_AVERAGE
   Averaged at nodes
   Averaging regions: ODB_REGIONS

      Node Label     COORD.COOR1     COORD.COOR2           S.S11           S.S22           S.S33           S.S12         PE.PE11         PE.PE22         PE.PE33         PE.PE12         LE.LE11         LE.LE22         LE.LE33         LE.LE12
                          @Loc 1          @Loc 1          @Loc 1          @Loc 1          @Loc 1          @Loc 1          @Loc 1          @Loc 1          @Loc 1          @Loc 1          @Loc 1          @Loc 1          @Loc 1          @Loc 1
-------------------------------------------------------------------------------------------------------------------------------------------------------------------------------------------------------------------------------------------------
               1     48.4209E-09     60.4681E-03    -87.5348E+06    -195.473E+06    -87.5386E+06     13.1831E+03    -51.7009E-03     103.280E-03    -51.5796E-03     5.23205E-03    -51.7287E-03     102.557E-03    -51.6069E-03     5.21309E-03
               2     17.0986E-03     61.1974E-03    -2.04906E+06     113.240E+06     80.3103E+06     1.82581E+03    -50.7695E-03     102.393E-03    -51.6235E-03    -982.981E-06    -51.0806E-03     102.866E-03    -51.3832E-03    -1.23929E-03
               3     17.1037E-03     122.479E-03    -14.6435E+06     17.0228E+06     17.2944E+06    -8.07160E+06    -58.4985E-03     109.287E-03    -50.7889E-03     8.33776E-03    -58.6191E-03     109.374E-03    -50.7059E-03     8.19420E-03
               4    -2.40516E-06     121.116E-03     40.6831E+06    -3.98337E+06     36.3747E+06    -1.73164E+06    -48.9720E-03     99.6334E-03    -50.6614E-03    -2.14733E-03    -48.8208E-03     99.4963E-03    -50.5327E-03    -2.17579E-03
               5    -71.6854E-09     402.456E-18    -51.6038E+06    -160.044E+06    -51.9532E+06     171.041E+03    -55.7669E-03     111.689E-03    -55.9220E-03     433.297E-06    -55.7175E-03     111.039E-03    -55.8748E-03     434.559E-06
               6     17.0072E-03     402.456E-18    -784.183E+03     104.609E+06     79.8407E+06     731.100E+03    -51.4351E-03     107.184E-03    -55.7488E-03     39.6383E-03    -51.7492E-03     107.632E-03    -55.5002E-03     39.4499E-03
               7     854.683E-06     60.4733E-03    -86.3611E+06    -193.143E+06    -84.0005E+06     3.62956E+03    -51.6754E-03     103.293E-03    -51.6175E-03     8.66269E-03    -51.7068E-03     102.576E-03    -51.6322E-03     8.63062E-03
               8     1.70938E-03     60.4854E-03    -83.1163E+06    -186.895E+06    -74.8028E+06        -274.178    -51.6604E-03     103.330E-03    -51.6693E-03     15.7496E-03    -51.7009E-03     102.629E-03    -51.6518E-03     15.6893E-03
               9     2.56411E-03     60.5048E-03    -78.3224E+06    -177.774E+06    -62.0109E+06         988.775    -51.6881E-03     103.388E-03    -51.6998E-03     22.9326E-03    -51.7416E-03     102.712E-03    -51.6385E-03     22.8405E-03
              10     3.41887E-03     60.5312E-03    -72.5223E+06    -167.180E+06    -47.8618E+06    -3.06746E+03    -51.7339E-03     103.465E-03    -51.7307E-03     29.7547E-03    -51.8018E-03     102.820E-03    -51.6225E-03     29.6277E-03
              11     4.27366E-03     60.5642E-03    -66.3018E+06    -156.254E+06    -34.9123E+06     2.79243E+03    -51.7998E-03     103.554E-03    -51.7537E-03     36.0597E-03    -51.8815E-03     102.946E-03    -51.6056E-03     35.8947E-03
              12     5.12848E-03     60.6031E-03    -60.1843E+06    -142.575E+06    -24.4209E+06     8.12797E+03    -51.8713E-03     103.632E-03    -51.7607E-03     41.7599E-03    -51.9708E-03     103.083E-03    -51.5888E-03     41.5540E-03
              13     5.98333E-03     60.6475E-03    -54.4652E+06    -127.003E+06    -15.9635E+06     13.5056E+03    -51.9404E-03     103.696E-03    -51.7557E-03     46.7592E-03    -52.0623E-03     103.220E-03    -51.5724E-03     46.5100E-03
              14     6.83819E-03     60.6964E-03    -49.1753E+06    -111.701E+06    -8.53181E+06     30.0949E+03    -52.0020E-03     103.749E-03    -51.7474E-03     50.9548E-03    -52.1493E-03     103.350E-03    -51.5568E-03     50.6610E-03
              15     7.69308E-03     60.7491E-03    -44.2626E+06    -95.5639E+06     -1.7049E+06     54.2707E+03    -52.0427E-03     103.779E-03    -51.7361E-03     54.2535E-03    -52.2196E-03     103.464E-03    -51.5419E-03     53.9154E-03
              16     8.54799E-03     60.8045E-03    -39.6696E+06    -78.9013E+06     4.92966E+06     73.1228E+03    -52.0552E-03     103.779E-03    -51.7242E-03     56.5302E-03    -52.2647E-03     103.554E-03    -51.5277E-03     56.1500E-03
              17     9.40292E-03     60.8617E-03    -35.3119E+06    -60.0752E+06     11.5432E+06     78.8098E+03    -52.0279E-03     103.738E-03    -51.7098E-03     57.6560E-03    -52.2731E-03     103.611E-03    -51.5138E-03     57.2388E-03
              18     10.2579E-03     60.9193E-03    -31.1254E+06    -42.2308E+06     18.1043E+06     79.7001E+03    -51.9654E-03     103.662E-03    -51.6971E-03     57.4059E-03    -52.2415E-03     103.626E-03    -51.5002E-03     56.9601E-03
              19     11.1128E-03     60.9759E-03    -27.0991E+06    -21.8783E+06     24.0235E+06     84.5853E+03    -51.8539E-03     103.532E-03    -51.6780E-03     55.5646E-03    -52.1570E-03     103.591E-03    -51.4868E-03     55.1018E-03
              20     11.9678E-03     61.0298E-03    -23.1852E+06     496.569E+03     30.9118E+06     91.8885E+03    -51.6912E-03     103.352E-03    -51.6606E-03     51.9430E-03    -52.0167E-03     103.507E-03    -51.4732E-03     51.4754E-03
              21     12.8229E-03     61.0791E-03    -19.4066E+06     21.4606E+06     35.2017E+06     105.611E+03    -51.5116E-03     103.144E-03    -51.6324E-03     46.5166E-03    -51.8450E-03     103.383E-03    -51.4594E-03     46.0541E-03
              22     13.6779E-03     61.1221E-03    -15.6610E+06     64.3792E+06     45.0089E+06     144.301E+03    -51.2295E-03     102.828E-03    -51.5983E-03     39.7570E-03    -51.6034E-03     103.244E-03    -51.4439E-03     39.3079E-03
              23     14.5331E-03     61.1579E-03    -11.8620E+06     99.7215E+06     53.9172E+06     123.476E+03    -50.9862E-03     102.554E-03    -51.5682E-03     31.4774E-03    -51.3815E-03     103.105E-03    -51.4260E-03     31.0486E-03
              24     15.3882E-03     61.1844E-03    -8.08565E+06     109.238E+06     61.1917E+06     26.1344E+03    -50.8478E-03     102.415E-03    -51.5674E-03     20.7311E-03    -51.2247E-03     102.974E-03    -51.4081E-03     20.3118E-03
              25     16.2434E-03     61.1986E-03    -4.12422E+06     114.024E+06     74.8213E+06    -10.1363E+03    -50.7659E-03     102.372E-03    -51.6061E-03     6.82849E-03    -51.1099E-03     102.889E-03    -51.3914E-03     6.48974E-03
              26     17.0986E-03     62.2484E-03    -2.05957E+06     113.265E+06     80.3646E+06     16.6505E+03    -50.7610E-03     102.385E-03    -51.6240E-03    -974.103E-06    -51.0723E-03     102.858E-03    -51.3834E-03    -1.23022E-03
              27     17.0986E-03     63.2994E-03    -2.07796E+06     113.287E+06     80.5038E+06     5.77808E+03    -50.7525E-03     102.377E-03    -51.6246E-03    -966.818E-06    -51.0641E-03     102.850E-03    -51.3833E-03    -1.22306E-03
              28     17.0986E-03     64.3504E-03    -2.05948E+06     113.289E+06     80.6127E+06         326.235    -50.7455E-03     102.370E-03    -51.6250E-03    -963.239E-06    -51.0572E-03     102.843E-03    -51.3832E-03    -1.21953E-03
              29     17.0986E-03     65.4014E-03    -2.04648E+06     113.341E+06     80.6725E+06     40.6172E+03    -50.7394E-03     102.365E-03    -51.6253E-03    -958.654E-06    -51.0512E-03     102.838E-03    -51.3833E-03    -1.21442E-03
              30     17.0986E-03     66.4524E-03    -2.12078E+06     113.398E+06     80.6309E+06     6.38342E+03    -50.7360E-03     102.361E-03    -51.6253E-03    -953.530E-06    -51.0482E-03     102.835E-03    -51.3835E-03    -1.20974E-03
              31     17.0986E-03     67.5034E-03    -2.07502E+06     113.324E+06     80.5508E+06    -67.4951E+03    -50.7345E-03     102.360E-03    -51.6251E-03    -949.229E-06    -51.0462E-03     102.833E-03    -51.3836E-03    -1.20638E-03
              32     17.0986E-03     68.5543E-03    -2.05951E+06     113.150E+06     80.4799E+06    -71.7640E+03    -50.7323E-03     102.357E-03    -51.6249E-03    -944.208E-06    -51.0436E-03     102.830E-03    -51.3836E-03    -1.20141E-03
              33     17.0986E-03     69.6053E-03    -2.08285E+06     112.949E+06     80.3655E+06    -89.7684E+03    -50.7311E-03     102.356E-03    -51.6246E-03    -941.513E-06    -51.0421E-03     102.827E-03    -51.3836E-03    -1.19894E-03
              34     17.0986E-03     70.6563E-03    -1.88104E+06     112.965E+06     80.3824E+06     102.699E+03    -50.7290E-03     102.354E-03    -51.6245E-03    -938.869E-06    -51.0391E-03     102.825E-03    -51.3836E-03    -1.19378E-03
              35     17.0986E-03     71.7073E-03    -2.08116E+06     113.457E+06     80.6189E+06     307.109E+03    -50.7198E-03     102.345E-03    -51.6254E-03    -937.590E-06    -51.0319E-03     102.819E-03    -51.3838E-03    -1.18982E-03
              36     17.0986E-03     72.7582E-03    -2.18509E+06     114.028E+06     80.8753E+06     157.150E+03    -50.7095E-03     102.336E-03    -51.6264E-03    -936.553E-06    -51.0233E-03     102.812E-03    -51.3842E-03    -1.19072E-03
              37     17.0986E-03     73.8092E-03    -2.07162E+06     114.253E+06     80.6912E+06     29.0942E+03    -50.7116E-03     102.337E-03    -51.6255E-03    -934.151E-06    -51.0249E-03     102.815E-03    -51.3847E-03    -1.18996E-03
              38     17.0986E-03     74.8602E-03    -2.13869E+06     114.202E+06     80.4139E+06    -73.4714E+03    -50.7128E-03     102.338E-03    -51.6248E-03    -931.753E-06    -51.0259E-03     102.815E-03    -51.3852E-03    -1.18887E-03
              39     17.0986E-03     75.9111E-03    -1.99974E+06     114.009E+06     80.7655E+06    -85.8891E+03    -50.6930E-03     102.320E-03    -51.6267E-03    -925.931E-06    -51.0058E-03     102.796E-03    -51.3853E-03    -1.18319E-03
              40     17.0986E-03     76.9620E-03    -2.10712E+06     113.853E+06     80.8144E+06    -21.0979E+03    -50.6848E-03     102.312E-03    -51.6270E-03    -925.302E-06    -50.9979E-03     102.787E-03    -51.3849E-03    -1.18167E-03
              41     17.0986E-03     78.0130E-03    -2.00505E+06     113.859E+06     80.6827E+06     9.02324E+03    -50.6907E-03     102.317E-03    -51.6259E-03    -923.442E-06    -51.0031E-03     102.792E-03    -51.3846E-03    -1.17941E-03
              42     17.0986E-03     79.0639E-03    -2.04475E+06     113.989E+06     81.0348E+06     121.413E+03    -50.6750E-03     102.302E-03    -51.6271E-03    -923.234E-06    -50.9883E-03     102.778E-03    -51.3843E-03    -1.17770E-03
              43     17.0986E-03     80.1148E-03    -2.17079E+06     114.211E+06     81.0706E+06     63.3602E+03    -50.6624E-03     102.290E-03    -51.6277E-03    -932.128E-06    -50.9767E-03     102.767E-03    -51.3848E-03    -1.18731E-03
              44     17.0986E-03     81.1657E-03    -2.00689E+06     114.351E+06     80.6898E+06     28.9327E+03    -50.6660E-03     102.293E-03    -51.6269E-03    -933.234E-06    -50.9791E-03     102.771E-03    -51.3863E-03    -1.18882E-03
              45     17.0986E-03     82.2167E-03    -2.08324E+06     114.457E+06     80.5708E+06     71.5032E+03    -50.6508E-03     102.279E-03    -51.6279E-03    -933.534E-06    -50.9643E-03     102.758E-03    -51.3880E-03    -1.18852E-03
              46     17.0985E-03     83.2675E-03    -2.15595E+06     114.516E+06     80.3567E+06    -44.1251E+03    -50.6426E-03     102.271E-03    -51.6283E-03    -932.893E-06    -50.9563E-03     102.750E-03    -51.3894E-03    -1.18932E-03
              47     17.0985E-03     84.3184E-03    -1.97954E+06     114.347E+06     79.9607E+06    -81.8931E+03    -50.6491E-03     102.276E-03    -51.6271E-03    -930.129E-06    -50.9611E-03     102.755E-03    -51.3902E-03    -1.18696E-03
              48     17.0985E-03     85.3693E-03    -2.02556E+06     114.261E+06     79.9932E+06     25.0431E+03    -50.6266E-03     102.255E-03    -51.6281E-03    -937.223E-06    -50.9387E-03     102.733E-03    -51.3908E-03    -1.19259E-03
              49     17.0985E-03     86.4202E-03    -2.09607E+06     114.315E+06     79.9533E+06     9.91088E+03    -50.6012E-03     102.231E-03    -51.6293E-03    -946.218E-06    -50.9137E-03     102.710E-03    -51.3923E-03    -1.20166E-03
              50     17.0985E-03     87.4710E-03    -2.10568E+06     114.164E+06     79.5059E+06    -134.090E+03    -50.5828E-03     102.212E-03    -51.6293E-03    -952.923E-06    -50.8944E-03     102.691E-03    -51.3942E-03    -1.21009E-03
              51     17.0985E-03     88.5218E-03    -2.06117E+06     113.696E+06     79.0819E+06    -249.847E+03    -50.5545E-03     102.184E-03    -51.6296E-03    -960.515E-06    -50.8646E-03     102.661E-03    -51.3960E-03    -1.21901E-03
              52     17.0985E-03     89.5726E-03    -1.88223E+06     113.232E+06     78.9375E+06    -128.143E+03    -50.5151E-03     102.146E-03    -51.6307E-03    -969.467E-06    -50.8234E-03     102.621E-03    -51.3975E-03    -1.22614E-03
              53     17.0985E-03     90.6233E-03    -2.10259E+06     113.027E+06     79.2376E+06    -46.4003E+03    -50.4518E-03     102.086E-03    -51.6342E-03    -985.518E-06    -50.7614E-03     102.560E-03    -51.3988E-03    -1.24086E-03
              54     17.0985E-03     91.6740E-03    -2.06314E+06     112.797E+06     79.5338E+06    -147.648E+03    -50.3802E-03     102.018E-03    -51.6375E-03    -1.00232E-03    -50.6896E-03     102.490E-03    -51.4004E-03    -1.25864E-03
              55     17.0985E-03     92.7245E-03    -1.96478E+06     112.488E+06     79.5456E+06    -87.9954E+03    -50.3071E-03     101.946E-03    -51.6390E-03    -1.01697E-03    -50.6156E-03     102.416E-03    -51.4016E-03    -1.27213E-03
              56     17.0985E-03     93.7750E-03    -2.08326E+06     112.311E+06     79.7017E+06    -49.4127E+03    -50.2193E-03     101.860E-03    -51.6407E-03    -1.03299E-03    -50.5283E-03     102.329E-03    -51.4020E-03    -1.28718E-03
              57     17.0986E-03     94.8254E-03    -2.07186E+06     112.120E+06     79.9940E+06    -120.398E+03    -50.1230E-03     101.765E-03    -51.6420E-03    -1.04142E-03    -50.4320E-03     102.233E-03    -51.4016E-03    -1.29603E-03
              58     17.0986E-03     95.8757E-03    -2.19308E+06     111.596E+06     80.0581E+06    -292.421E+03    -50.0395E-03     101.681E-03    -51.6414E-03    -1.03326E-03    -50.3485E-03     102.146E-03    -51.3997E-03    -1.28963E-03
              59     17.0987E-03     96.9259E-03    -1.97003E+06     110.750E+06     79.7130E+06    -357.022E+03    -49.9908E-03     101.627E-03    -51.6364E-03    -1.00076E-03    -50.2969E-03     102.088E-03    -51.3956E-03    -1.25763E-03
              60     17.0988E-03     97.9761E-03    -2.05201E+06     109.914E+06     79.4737E+06    -286.958E+03    -49.9621E-03     101.591E-03    -51.6292E-03    -942.354E-06    -50.2671E-03     102.049E-03    -51.3882E-03    -1.19813E-03
              61     17.0990E-03     99.0262E-03    -2.16884E+06     108.974E+06     79.3684E+06    -439.345E+03    -49.9582E-03     101.577E-03    -51.6187E-03    -849.793E-06    -50.2623E-03     102.030E-03    -51.3767E-03    -1.10757E-03
              62     17.0993E-03     100.076E-03    -2.20739E+06     107.400E+06     78.9489E+06    -788.805E+03    -50.0071E-03     101.608E-03    -51.6013E-03    -707.644E-06    -50.3086E-03     102.054E-03    -51.3590E-03    -970.316E-06
              63     17.0997E-03     101.127E-03    -1.99086E+06     105.194E+06     79.0318E+06    -938.289E+03    -50.1290E-03     101.707E-03    -51.5783E-03    -499.606E-06    -50.4265E-03     102.142E-03    -51.3328E-03    -765.023E-06
              64     17.1002E-03     102.177E-03    -2.12892E+06     102.732E+06     79.6180E+06    -944.641E+03    -50.3639E-03     101.911E-03    -51.5475E-03    -204.231E-06    -50.6597E-03     102.333E-03    -51.2953E-03    -471.263E-06
              65     17.1009E-03     103.228E-03    -2.82500E+06     99.0563E+06     78.6208E+06    -1.89073E+06    -50.8590E-03     102.359E-03    -51.4999E-03     172.839E-06    -51.1518E-03     102.765E-03    -51.2463E-03    -109.266E-06
              66     17.1014E-03     104.279E-03    -1.97048E+06     93.2425E+06     75.1500E+06    -2.71956E+06    -51.8396E-03     103.272E-03    -51.4321E-03     616.315E-06    -52.1151E-03     103.653E-03    -51.1887E-03     318.526E-06
              67     17.1018E-03     105.332E-03    -1.41790E+06     87.1107E+06     71.6128E+06    -2.10981E+06    -53.3182E-03     104.678E-03    -51.3599E-03     1.16986E-03    -53.5776E-03     105.034E-03    -51.1260E-03     872.429E-06
              68     17.1021E-03     106.386E-03    -1.74099E+06     82.5068E+06     70.0085E+06    -1.47512E+06    -55.1088E-03     106.405E-03    -51.2964E-03     1.87135E-03    -55.3618E-03     106.742E-03    -51.0634E-03     1.57203E-03
              69     17.1023E-03     107.443E-03    -1.73735E+06     78.8982E+06     69.6174E+06    -1.37131E+06    -57.0318E-03     108.272E-03    -51.2402E-03     2.78075E-03    -57.2802E-03     108.592E-03    -51.0040E-03     2.47067E-03
              70     17.1024E-03     108.501E-03    -1.96411E+06     75.2235E+06     69.4251E+06    -1.54665E+06    -59.0379E-03     110.224E-03    -51.1857E-03     3.88078E-03    -59.2832E-03     110.528E-03    -50.9448E-03     3.55516E-03
              71     17.1025E-03     109.562E-03    -1.69405E+06     71.0961E+06     69.5476E+06    -1.69344E+06    -61.1428E-03     112.273E-03    -51.1298E-03     5.07256E-03    -61.3825E-03     112.557E-03    -50.8827E-03     4.72983E-03
              72     17.1027E-03     110.625E-03    -1.99574E+06     66.6433E+06     69.5668E+06    -1.87348E+06    -63.3459E-03     114.416E-03    -51.0698E-03     6.34729E-03    -63.5824E-03     114.680E-03    -50.8157E-03     5.98609E-03
              73     17.1030E-03     111.690E-03    -1.71723E+06     61.6506E+06     69.8987E+06    -2.02539E+06    -65.7397E-03     116.743E-03    -51.0029E-03     7.72157E-03    -65.9700E-03     116.983E-03    -50.7403E-03     7.34037E-03
              74     17.1033E-03     112.758E-03    -2.42050E+06     55.4875E+06     69.3488E+06    -2.79613E+06    -68.3199E-03     119.244E-03    -50.9239E-03     9.18782E-03    -68.5462E-03     119.457E-03    -50.6541E-03     8.77511E-03
              75     17.1038E-03     113.829E-03    -807.035E+03     48.8725E+06     69.9530E+06    -2.26457E+06    -71.1668E-03     121.998E-03    -50.8312E-03     11.0831E-03    -71.3785E-03     122.178E-03    -50.5511E-03     10.6590E-03
              76     17.1046E-03     114.903E-03    -3.49231E+06     41.6760E+06     68.4652E+06    -3.44304E+06    -74.7181E-03     125.425E-03    -50.7070E-03     14.1380E-03    -74.9326E-03     125.577E-03    -50.4200E-03     13.6863E-03
              77     17.1053E-03     115.982E-03     898.664E+03     35.6464E+06     69.7639E+06    -3.72122E+06    -78.2451E-03     128.821E-03    -50.5759E-03     17.1321E-03    -78.4314E-03     128.935E-03    -50.2801E-03     16.6753E-03
              78     17.1066E-03     117.064E-03    -499.604E+03     28.4623E+06     67.9537E+06    -1.83803E+06    -81.2214E-03     131.672E-03    -50.4501E-03     19.1205E-03    -81.4019E-03     131.754E-03    -50.1509E-03     18.6861E-03
              79     17.1071E-03     118.147E-03     425.245E+03     25.6926E+06     66.6229E+06     1.02692E+06    -84.3451E-03     134.660E-03    -50.3152E-03     20.9729E-03    -84.5132E-03     134.728E-03    -50.0199E-03     20.5872E-03
              80     17.1085E-03     119.236E-03    -4.13687E+06     25.9670E+06     61.6796E+06    -764.849E+03    -86.7794E-03     136.968E-03    -50.1886E-03     22.5663E-03    -86.9595E-03     137.047E-03    -49.9118E-03     22.1873E-03
              81     17.1084E-03     120.324E-03     503.979E+03     22.8607E+06     53.0238E+06    -2.51819E+06    -87.3097E-03     137.412E-03    -50.1022E-03     25.0022E-03    -87.4409E-03     137.473E-03    -49.8709E-03     24.6831E-03
              82     17.1092E-03     121.417E-03     3.97736E+06     19.4536E+06     35.8021E+06    -3.64412E+06    -72.7791E-03     123.212E-03    -50.4331E-03     17.5644E-03    -72.8465E-03     123.263E-03    -50.2881E-03     17.3895E-03
              83     16.2336E-03     122.436E-03    -9.74620E+06    -6.48632E+06     20.7667E+06    -6.16294E+06    -55.0023E-03     105.682E-03    -50.6792E-03     8.22268E-03    -55.0704E-03     105.640E-03    -50.5518E-03     8.08349E-03
              84     15.3688E-03     122.355E-03    -783.552E+03    -7.36844E+06     41.5025E+06     869.490E+03    -48.3538E-03     98.9362E-03    -50.5824E-03     5.65535E-03    -48.4063E-03     98.8493E-03    -50.3631E-03     5.59097E-03
              85     14.5027E-03     122.259E-03     5.59207E+06     6.01331E+06     62.0752E+06     1.80836E+06    -43.9601E-03     94.6249E-03    -50.6648E-03     1.46770E-03    -44.0307E-03     94.5647E-03    -50.3712E-03     1.41642E-03
              86     13.6409E-03     122.154E-03     8.95174E+06     371.852E+03     68.2860E+06    -2.55794E+06    -42.0229E-03     92.8400E-03    -50.8171E-03    -1.18995E-03    -42.0793E-03     92.7358E-03    -50.4891E-03    -1.30079E-03
              87     12.7810E-03     122.044E-03     11.3924E+06    -473.028E+03     71.8348E+06    -2.30215E+06    -41.4837E-03     92.4784E-03    -50.9948E-03    -3.21313E-03    -41.5328E-03     92.3595E-03    -50.6514E-03    -3.32059E-03
              88     11.9233E-03     121.936E-03     14.0269E+06    -1.07003E+06     74.8451E+06    -2.18402E+06    -42.2959E-03     93.4565E-03    -51.1606E-03    -5.17248E-03    -42.3358E-03     93.3246E-03    -50.8052E-03    -5.27840E-03
              89     11.0676E-03     121.830E-03     16.7238E+06     734.867E+03     76.7898E+06    -2.72215E+06    -43.7539E-03     95.0124E-03    -51.2584E-03    -6.80161E-03    -43.7860E-03     94.8808E-03    -50.8998E-03    -6.91453E-03
              90     10.2143E-03     121.729E-03     19.7115E+06    -1.24779E+06     76.5756E+06    -2.49761E+06    -45.3358E-03     96.6053E-03    -51.2695E-03    -8.04159E-03    -45.3500E-03     96.4581E-03    -50.9134E-03    -8.15061E-03
              91     9.36264E-03     121.633E-03     22.0483E+06    -997.439E+03     76.0854E+06    -1.54500E+06    -46.6862E-03     97.8857E-03    -51.1995E-03    -8.79263E-03    -46.6885E-03     97.7358E-03    -50.8496E-03    -8.88607E-03
              92     8.51182E-03     121.545E-03     23.3128E+06     18.2527E+03     74.4114E+06    -1.45994E+06    -47.6889E-03     98.7537E-03    -51.0648E-03    -9.18720E-03    -47.6839E-03     98.6086E-03    -50.7266E-03    -9.27469E-03
              93     7.66136E-03     121.465E-03     24.4752E+06    -164.607E+03     71.4006E+06    -2.08735E+06    -48.4157E-03     99.3017E-03    -50.8860E-03    -9.24397E-03    -48.4002E-03     99.1577E-03    -50.5643E-03    -9.33378E-03
              94     6.81110E-03     121.392E-03     25.9222E+06    -458.370E+03     67.2932E+06    -2.29112E+06    -48.8894E-03     99.5696E-03    -50.6803E-03    -8.97367E-03    -48.8604E-03     99.4277E-03    -50.3807E-03    -9.05957E-03
              95     5.96059E-03     121.328E-03     27.3645E+06    -289.452E+03     62.8030E+06    -2.40300E+06    -49.1621E-03     99.6307E-03    -50.4686E-03    -8.44425E-03    -49.1198E-03     99.4939E-03    -50.1938E-03    -8.52474E-03
              96     5.10980E-03     121.273E-03     28.9535E+06     -283.02E+03     58.2006E+06    -2.68443E+06    -49.2948E-03     99.5637E-03    -50.2689E-03    -7.72671E-03    -49.2379E-03     99.4311E-03    -50.0194E-03    -7.80399E-03
              97     4.25860E-03     121.226E-03     30.9022E+06    -403.109E+03     53.4532E+06    -2.93165E+06    -49.3528E-03     99.4468E-03    -50.0940E-03    -6.86964E-03    -49.2792E-03     99.3177E-03    -49.8710E-03    -6.94328E-03
              98     3.40705E-03     121.187E-03     33.1958E+06    -601.589E+03     48.5012E+06    -2.99324E+06    -49.3848E-03     99.3399E-03    -49.9550E-03    -5.90196E-03    -49.2925E-03     99.2136E-03    -49.7598E-03    -5.96960E-03
              99     2.55525E-03     121.157E-03     35.6528E+06    -961.607E+03     44.1850E+06    -2.83223E+06    -49.4269E-03     99.2945E-03    -49.8676E-03    -4.84396E-03    -49.3157E-03     99.1692E-03    -49.6970E-03    -4.90281E-03
             100     1.70317E-03     121.136E-03     37.8462E+06    -920.053E+03     41.7577E+06    -2.47205E+06    -49.5552E-03     99.3925E-03    -49.8373E-03    -3.72903E-03    -49.4298E-03     99.2676E-03    -49.6821E-03    -3.77658E-03
             101     851.210E-06     121.122E-03     39.7517E+06    -2.01209E+06     38.8144E+06    -1.99436E+06    -49.3130E-03     99.5612E-03    -50.2482E-03    -2.65321E-03    -49.1726E-03     99.4320E-03    -50.1089E-03    -2.68816E-03
             102     971.669E-09     120.068E-03     32.6624E+06    -5.19925E+06     32.8083E+06    -1.33496E+06    -44.8490E-03     90.0042E-03    -45.1552E-03    -84.7346E-06    -44.7294E-03     89.8797E-03    -45.0310E-03    -108.234E-06
             103    -6.34078E-09     119.041E-03     16.8316E+06    -11.5848E+06     18.6500E+06    -2.45135E+06    -37.5784E-03     74.5606E-03    -36.9822E-03     2.44036E-03    -37.5060E-03     74.4501E-03    -36.8966E-03     2.40202E-03
             104     103.654E-09     118.026E-03    -3.46395E+06    -22.3838E+06    -3.09204E+06    -3.36699E+06    -32.8106E-03     65.5022E-03    -32.6916E-03     3.61464E-03    -32.7916E-03     65.3995E-03    -32.6696E-03     3.56515E-03
             105     9.43615E-09     117.017E-03    -29.1610E+06    -34.5913E+06    -28.2302E+06    -3.63245E+06    -30.6155E-03     61.1598E-03    -30.5443E-03     4.81670E-03    -30.6704E-03     61.0702E-03    -30.5930E-03     4.76559E-03
             106     2.43390E-09     116.010E-03    -57.3988E+06    -48.2641E+06    -57.0047E+06    -4.28308E+06    -30.4218E-03     60.8194E-03    -30.3976E-03     5.69691E-03    -30.5563E-03     60.7441E-03    -30.5294E-03     5.63893E-03
             107     18.3575E-09     115.002E-03    -87.2285E+06    -62.6464E+06    -87.0343E+06    -4.11399E+06    -31.9326E-03     63.8157E-03    -31.8831E-03     6.31643E-03    -32.1520E-03     63.7551E-03    -32.1010E-03     6.26162E-03
             108     33.5682E-09     113.989E-03    -118.030E+06    -76.0586E+06    -118.146E+06    -3.56573E+06    -34.6471E-03     69.2010E-03    -34.5539E-03     6.61160E-03    -34.9562E-03     69.1629E-03    -34.8632E-03     6.56401E-03
             109     59.6247E-09     112.970E-03    -133.455E+06    -87.2101E+06    -133.615E+06    -2.75521E+06    -38.0297E-03     75.9339E-03    -37.9041E-03     6.61093E-03    -38.3774E-03     75.8847E-03    -38.2523E-03     6.57278E-03
             110     48.1203E-09     111.943E-03    -119.743E+06    -96.1138E+06    -120.058E+06    -2.10380E+06    -41.5780E-03     83.0246E-03    -41.4466E-03     6.41473E-03    -41.8639E-03     82.8915E-03    -41.7339E-03     6.38297E-03
             111     53.4058E-09     110.909E-03    -98.3895E+06    -102.966E+06    -98.5568E+06    -1.65644E+06    -44.8190E-03     89.5165E-03    -44.6975E-03     6.14124E-03    -45.0193E-03     89.2872E-03    -44.8984E-03     6.11260E-03
             112     38.4732E-09     109.869E-03    -85.8315E+06    -109.270E+06    -85.9114E+06    -1.78601E+06    -47.4779E-03     94.8442E-03    -47.3663E-03     5.86782E-03    -47.6245E-03     94.5470E-03    -47.5130E-03     5.83460E-03
             113     46.9465E-09     108.825E-03    -79.4182E+06    -116.391E+06    -79.4907E+06    -2.10690E+06    -49.4985E-03     98.8906E-03    -49.3921E-03     5.63378E-03    -49.6120E-03     98.5393E-03    -49.5056E-03     5.59365E-03
             114     35.9599E-09     107.776E-03    -76.5630E+06    -124.272E+06    -76.7351E+06    -2.19206E+06    -50.9290E-03     101.753E-03    -50.8243E-03     5.45360E-03    -51.0207E-03     101.355E-03    -50.9168E-03     5.41002E-03
             115     45.4573E-09     106.725E-03    -76.0110E+06    -132.306E+06    -76.0750E+06    -2.19001E+06    -51.8699E-03     103.634E-03    -51.7643E-03     5.32611E-03    -51.9482E-03     103.194E-03    -51.8426E-03     5.28073E-03
             116     40.4690E-09     105.673E-03    -76.6981E+06    -140.322E+06    -76.8310E+06    -2.16937E+06    -52.4330E-03     104.758E-03    -52.3254E-03     5.24337E-03    -52.5020E-03     104.280E-03    -52.3949E-03     5.19694E-03
             117     43.8796E-09     104.620E-03    -78.5322E+06    -148.026E+06    -78.6133E+06    -2.01844E+06    -52.7222E-03     105.334E-03    -52.6122E-03     5.19566E-03    -52.7867E-03     104.823E-03    -52.6767E-03     5.15033E-03
             118     46.9172E-09     103.567E-03    -80.7036E+06    -155.177E+06    -80.8066E+06    -1.86643E+06    -52.8261E-03     105.540E-03    -52.7136E-03     5.17284E-03    -52.8878E-03     104.998E-03    -52.7756E-03     5.12896E-03
             119     41.4546E-09     102.514E-03    -82.9672E+06    -161.603E+06      -83.06E+06    -1.62337E+06    -52.8129E-03     105.511E-03    -52.6982E-03     5.16592E-03    -52.8734E-03     104.944E-03    -52.7589E-03     5.12494E-03
             120     53.2642E-09     101.461E-03    -85.2987E+06    -167.346E+06    -85.3269E+06    -1.49849E+06    -52.7320E-03     105.347E-03    -52.6153E-03     5.16897E-03    -52.7925E-03     104.758E-03    -52.6756E-03     5.12951E-03
             121     39.1680E-09     100.408E-03    -87.4423E+06    -172.453E+06    -87.5686E+06    -1.27322E+06    -52.6173E-03     105.116E-03    -52.4992E-03     5.17732E-03    -52.6779E-03     104.508E-03    -52.5602E-03     5.14078E-03
             122     56.8866E-09     99.3552E-03      -89.35E+06    -176.798E+06    -89.3506E+06    -1.09254E+06    -52.4925E-03     104.866E-03    -52.3733E-03     5.18817E-03    -52.5538E-03     104.241E-03    -52.4341E-03     5.15404E-03
             123     38.8716E-09     98.3028E-03    -91.0566E+06    -180.561E+06    -91.1427E+06    -952.898E+03    -52.3704E-03     104.621E-03    -52.2503E-03     5.19999E-03    -52.4321E-03     103.983E-03    -52.3122E-03     5.16777E-03
             124     57.5811E-09     97.2508E-03    -91.9931E+06    -183.711E+06    -92.0257E+06    -762.152E+03    -52.2624E-03     104.404E-03    -52.1417E-03     5.21111E-03    -52.3230E-03     103.753E-03    -52.2021E-03     5.18146E-03
             125     39.7884E-09     96.1989E-03    -93.0161E+06    -186.219E+06    -93.0993E+06    -608.970E+03    -52.1680E-03     104.215E-03    -52.0470E-03     5.22104E-03    -52.2285E-03     103.554E-03    -52.1076E-03     5.19347E-03
             126     56.6159E-09     95.1473E-03    -93.3333E+06    -188.066E+06    -93.3755E+06    -399.435E+03    -52.0909E-03     104.061E-03    -51.9697E-03     5.22917E-03    -52.1499E-03     103.392E-03    -52.0286E-03     5.20440E-03
             127     41.5294E-09     94.0958E-03    -93.9424E+06    -189.574E+06    -93.9149E+06    -393.468E+03    -52.0246E-03     103.928E-03    -51.9032E-03     5.23515E-03    -52.0837E-03     103.253E-03    -51.9616E-03     5.21052E-03
             128     55.9667E-09     93.0445E-03    -94.2889E+06    -191.074E+06    -94.2637E+06    -426.304E+03    -51.9725E-03     103.823E-03    -51.8509E-03     5.24163E-03    -52.0307E-03     103.142E-03    -51.9084E-03     5.21663E-03
             129     42.5440E-09     91.9932E-03    -93.1421E+06    -192.617E+06    -93.2342E+06    -365.427E+03    -51.9385E-03     103.755E-03    -51.8166E-03     5.24605E-03    -51.9901E-03     103.063E-03    -51.8684E-03     5.22189E-03
             130     54.0908E-09     90.9421E-03    -93.0301E+06    -193.818E+06    -93.0421E+06    -271.458E+03    -51.9056E-03     103.690E-03    -51.7839E-03     5.24833E-03    -51.9553E-03     102.991E-03    -51.8332E-03     5.22543E-03
             131     44.9226E-09     89.8910E-03    -92.9178E+06    -194.652E+06    -92.8925E+06    -213.818E+03    -51.8763E-03     103.631E-03    -51.7545E-03     5.25024E-03    -51.9244E-03     102.927E-03    -51.8020E-03     5.22812E-03
             132     52.3933E-09     88.8399E-03    -92.4892E+06    -195.418E+06    -92.5819E+06    -195.191E+03    -51.8539E-03     103.586E-03    -51.7318E-03     5.25264E-03    -51.8992E-03     102.877E-03    -51.7773E-03     5.23079E-03
             133     45.6536E-09     87.7889E-03    -91.8992E+06    -195.956E+06    -91.9086E+06    -84.4005E+03    -51.8369E-03     103.552E-03    -51.7146E-03     5.25301E-03    -51.8794E-03     102.839E-03    -51.7568E-03     5.23262E-03
             134     52.9239E-09     86.7380E-03    -91.5165E+06    -196.281E+06    -91.5236E+06    -76.4531E+03    -51.8210E-03     103.520E-03    -51.6987E-03     5.25345E-03    -51.8617E-03     102.804E-03    -51.7390E-03     5.23318E-03
             135     45.1597E-09     85.6870E-03    -91.0282E+06    -196.527E+06    -91.0570E+06    -160.789E+03    -51.8090E-03     103.496E-03    -51.6868E-03     5.25458E-03    -51.8476E-03     102.778E-03    -51.7252E-03     5.23322E-03
             136     53.0220E-09     84.6362E-03    -90.5097E+06    -196.663E+06    -90.5462E+06    -26.8520E+03    -51.8000E-03     103.478E-03    -51.6778E-03     5.25380E-03    -51.8365E-03     102.757E-03    -51.7141E-03     5.23419E-03
             137     44.9933E-09     83.5853E-03     -90.103E+06    -196.706E+06    -90.1222E+06     43.5183E+03    -51.7914E-03     103.461E-03    -51.6693E-03     5.25409E-03    -51.8265E-03     102.739E-03    -51.7040E-03     5.23541E-03
             138     53.2092E-09     82.5344E-03    -89.7192E+06    -196.707E+06    -89.7212E+06    -1.02274E+03    -51.7849E-03     103.447E-03    -51.6625E-03     5.25416E-03    -51.8186E-03     102.725E-03    -51.6958E-03     5.23490E-03
             139     45.4166E-09     81.4836E-03    -89.3091E+06    -196.689E+06    -89.3320E+06    -19.7133E+03    -51.7801E-03     103.438E-03    -51.6580E-03     5.25419E-03    -51.8123E-03     102.714E-03    -51.6899E-03     5.23470E-03
             140     52.1619E-09     80.4327E-03    -88.8871E+06    -196.623E+06    -88.9198E+06     27.9781E+03    -51.7761E-03     103.430E-03    -51.6542E-03     5.25384E-03    -51.8069E-03     102.705E-03    -51.6848E-03     5.23499E-03
             141     45.9518E-09     79.3819E-03    -88.5525E+06    -196.541E+06    -88.5787E+06     54.9639E+03    -51.7719E-03     103.422E-03    -51.6499E-03     5.25297E-03    -51.8017E-03     102.696E-03    -51.6794E-03     5.23445E-03
             142     51.9033E-09     78.3311E-03     -88.376E+06    -196.415E+06    -88.4064E+06     11.7693E+03    -51.7674E-03     103.413E-03    -51.6455E-03     5.25205E-03    -51.7967E-03     102.688E-03    -51.6746E-03     5.23298E-03
             143     46.0161E-09     77.2802E-03    -88.2622E+06    -196.268E+06    -88.2597E+06     43.6880E+03    -51.7638E-03     103.406E-03    -51.6417E-03     5.25145E-03    -51.7930E-03     102.681E-03    -51.6705E-03     5.23280E-03
             144     52.4517E-09     76.2294E-03    -88.0920E+06    -196.122E+06    -88.1240E+06     23.2726E+03    -51.7602E-03     103.398E-03    -51.6381E-03     5.25098E-03    -51.7890E-03     102.674E-03    -51.6666E-03     5.23206E-03
             145     45.1637E-09     75.1786E-03    -87.9965E+06    -196.013E+06    -87.9889E+06     17.6703E+03    -51.7569E-03     103.392E-03    -51.6347E-03     5.25061E-03    -51.7855E-03     102.667E-03    -51.6629E-03     5.23163E-03
             146     53.7941E-09     74.1278E-03      -87.85E+06    -195.868E+06    -87.8651E+06     27.3157E+03    -51.7542E-03     103.386E-03    -51.6320E-03     5.24956E-03    -51.7824E-03     102.662E-03    -51.6599E-03     5.23071E-03
             147     43.6579E-09     73.0770E-03    -87.7365E+06    -195.771E+06    -87.7835E+06     19.2431E+03    -51.7513E-03     103.381E-03    -51.6293E-03     5.24852E-03    -51.7792E-03     102.657E-03    -51.6571E-03     5.22956E-03
             148     54.6262E-09     72.0263E-03    -87.6591E+06    -195.673E+06    -87.6733E+06     60.2283E+03    -51.7486E-03     103.375E-03    -51.6268E-03     5.24783E-03    -51.7765E-03     102.652E-03    -51.6543E-03     5.22942E-03
             149     43.0258E-09     70.9755E-03    -87.5787E+06    -195.568E+06    -87.5704E+06     33.5359E+03    -51.7463E-03     103.371E-03    -51.6244E-03     5.24701E-03    -51.7741E-03     102.647E-03    -51.6517E-03     5.22825E-03
             150     55.6647E-09     69.9247E-03    -87.5657E+06    -195.538E+06    -87.5682E+06    -17.7092E+03    -51.7437E-03     103.366E-03    -51.6218E-03     5.24628E-03    -51.7715E-03     102.642E-03    -51.6492E-03     5.22686E-03
             151     41.7083E-09     68.8739E-03    -87.5372E+06    -195.506E+06    -87.5593E+06    -19.7250E+03    -51.7410E-03     103.361E-03    -51.6196E-03     5.24530E-03    -51.7687E-03     102.638E-03    -51.6470E-03     5.22586E-03
             152     55.9367E-09     67.8232E-03    -87.4727E+06    -195.433E+06    -87.4681E+06     7.54131E+03    -51.7384E-03     103.355E-03    -51.6170E-03     5.24407E-03    -51.7660E-03     102.632E-03    -51.6441E-03     5.22499E-03
             153     41.7835E-09     66.7724E-03    -87.4980E+06    -195.485E+06    -87.5427E+06    -5.70261E+03    -51.7345E-03     103.347E-03    -51.6130E-03     5.24325E-03    -51.7620E-03     102.624E-03    -51.6404E-03     5.22400E-03
             154     55.4479E-09     65.7217E-03    -87.5233E+06    -195.486E+06    -87.5219E+06     7.83869E+03    -51.7309E-03     103.340E-03    -51.6093E-03     5.24196E-03    -51.7586E-03     102.617E-03    -51.6366E-03     5.22289E-03
             155     42.9756E-09     64.6709E-03    -87.4736E+06    -195.444E+06    -87.5100E+06     5.23278E+03    -51.7267E-03     103.332E-03    -51.6050E-03     5.24008E-03    -51.7542E-03     102.609E-03    -51.6324E-03     5.22099E-03
             156     53.9360E-09     63.6202E-03    -87.5366E+06    -195.459E+06    -87.5147E+06    -18.4081E+03    -51.7214E-03     103.321E-03    -51.5997E-03     5.23856E-03    -51.7492E-03     102.598E-03    -51.6269E-03     5.21916E-03
             157     45.2686E-09     62.5695E-03    -87.4925E+06    -195.465E+06    -87.5447E+06    -13.5758E+03    -51.7157E-03     103.310E-03    -51.5940E-03     5.23686E-03    -51.7432E-03     102.587E-03    -51.6214E-03     5.21753E-03
             158     50.7081E-09     61.5188E-03    -87.5295E+06    -195.493E+06    -87.5413E+06    -6.19983E+03    -51.7088E-03     103.296E-03    -51.5875E-03     5.23457E-03    -51.7365E-03     102.573E-03    -51.6148E-03     5.21536E-03
             159     47.7373E-09     59.4174E-03    -87.5260E+06    -195.462E+06    -87.5588E+06    -3.35597E+03    -51.6925E-03     103.264E-03    -51.5710E-03     5.22951E-03    -51.7202E-03     102.541E-03    -51.5985E-03     5.21035E-03
             160     51.1743E-09     58.3668E-03    -87.5180E+06    -195.441E+06    -87.5253E+06     18.2445E+03    -51.6831E-03     103.245E-03    -51.5620E-03     5.22672E-03    -51.7108E-03     102.522E-03    -51.5893E-03     5.20786E-03
             161     44.7953E-09     57.3161E-03    -87.5344E+06    -195.475E+06    -87.5597E+06     5.06589E+03    -51.6718E-03     103.223E-03    -51.5509E-03     5.22374E-03    -51.6995E-03     102.500E-03    -51.5784E-03     5.20472E-03
             162     53.3575E-09     56.2655E-03    -87.5839E+06    -195.495E+06    -87.5757E+06    -45.6216E+03    -51.6593E-03     103.198E-03    -51.5384E-03     5.22073E-03    -51.6873E-03     102.475E-03    -51.5658E-03     5.20107E-03
             163     43.2211E-09     55.2149E-03     -87.568E+06    -195.495E+06    -87.6337E+06     23.3902E+03    -51.6450E-03     103.169E-03    -51.5240E-03     5.21635E-03    -51.6728E-03     102.446E-03    -51.5517E-03     5.19760E-03
             164     54.2696E-09     54.1644E-03    -87.6817E+06    -195.543E+06    -87.5908E+06     22.6397E+03    -51.6285E-03     103.136E-03    -51.5075E-03     5.21193E-03    -51.6568E-03     102.413E-03    -51.5347E-03     5.19319E-03
             165     44.0563E-09     53.1139E-03    -87.6006E+06    -195.563E+06    -87.6655E+06    -33.3144E+03    -51.6101E-03     103.099E-03    -51.4893E-03     5.20721E-03    -51.6379E-03     102.376E-03    -51.5170E-03     5.18777E-03
             166     51.5011E-09     52.0634E-03    -87.6380E+06    -195.586E+06    -87.6605E+06    -9.28581E+03    -51.5908E-03     103.061E-03    -51.4699E-03     5.20188E-03    -51.6187E-03     102.337E-03    -51.4975E-03     5.18277E-03
             167     47.2930E-09     51.0130E-03    -87.6759E+06    -195.616E+06    -87.6894E+06     10.2046E+03    -51.5698E-03     103.019E-03    -51.4489E-03     5.19667E-03    -51.5978E-03     102.295E-03    -51.4766E-03     5.17784E-03
             168     48.4611E-09     49.9626E-03    -87.7134E+06    -195.652E+06    -87.7393E+06     17.6419E+03    -51.5462E-03     102.972E-03    -51.4255E-03     5.19005E-03    -51.5743E-03     102.248E-03    -51.4533E-03     5.17134E-03
             169     49.8826E-09     48.9123E-03    -87.7988E+06    -195.705E+06    -87.7543E+06    -52.6558E+03    -51.5200E-03     102.919E-03    -51.3992E-03     5.18353E-03    -51.5484E-03     102.196E-03    -51.4269E-03     5.16394E-03
             170     46.8741E-09     47.8620E-03    -87.6949E+06    -195.671E+06    -87.7672E+06    -19.2667E+03    -51.4916E-03     102.862E-03    -51.3708E-03     5.17568E-03    -51.5196E-03     102.139E-03    -51.3987E-03     5.15655E-03
             171     50.3120E-09     46.8118E-03    -87.7229E+06    -195.672E+06    -87.7241E+06     37.7361E+03    -51.4603E-03     102.800E-03    -51.3393E-03     5.16664E-03    -51.4885E-03     102.076E-03    -51.3670E-03     5.14828E-03
             172     47.5757E-09     45.7617E-03    -87.7618E+06    -195.686E+06    -87.7487E+06     18.5946E+03    -51.4255E-03     102.730E-03    -51.3044E-03     5.15772E-03    -51.4538E-03     102.006E-03    -51.3322E-03     5.13916E-03
             173     49.9399E-09     44.7116E-03    -87.7916E+06    -195.729E+06    -87.7679E+06    -20.0317E+03    -51.3870E-03     102.654E-03    -51.2668E-03     5.14735E-03    -51.4153E-03     101.930E-03    -51.2946E-03     5.12834E-03
             174     46.6113E-09     43.6616E-03    -87.7372E+06    -195.697E+06    -87.7802E+06    -9.58936E+03    -51.3432E-03     102.567E-03    -51.2240E-03     5.13477E-03    -51.3712E-03     101.844E-03    -51.2519E-03     5.11594E-03
             175     48.4022E-09     42.6117E-03    -87.7229E+06    -195.690E+06    -87.7589E+06     27.8140E+03    -51.2929E-03     102.467E-03    -51.1739E-03     5.12119E-03    -51.3210E-03     101.743E-03    -51.2018E-03     5.10290E-03
             176     48.0393E-09     41.5620E-03    -87.7794E+06    -195.730E+06    -87.7724E+06    -9.59325E+03    -51.2357E-03     102.352E-03    -51.1166E-03     5.10726E-03    -51.2640E-03     101.629E-03    -51.1444E-03     5.08855E-03
             177     47.7670E-09     40.5123E-03    -87.7506E+06    -195.694E+06    -87.7623E+06    -15.5414E+03    -51.1701E-03     102.222E-03    -51.0519E-03     5.09066E-03    -51.1983E-03     101.498E-03    -51.0797E-03     5.07194E-03
             178     47.1094E-09     39.4629E-03    -87.7654E+06    -195.734E+06    -87.7688E+06     2.35450E+03    -51.0944E-03     102.071E-03    -50.9762E-03     5.07032E-03    -51.1226E-03     101.347E-03    -51.0040E-03     5.05191E-03
             179     48.7928E-09     38.4135E-03    -87.7003E+06    -195.711E+06    -87.7505E+06    -2.52188E+03    -51.0067E-03     101.895E-03    -50.8884E-03     5.04686E-03    -51.0346E-03     101.171E-03    -50.9162E-03     5.02850E-03
             180     45.9003E-09     37.3644E-03    -87.7211E+06    -195.686E+06    -87.7297E+06     11.0654E+03    -50.9059E-03     101.694E-03    -50.7884E-03     5.01941E-03    -50.9340E-03     100.971E-03    -50.8161E-03     5.00134E-03
             181     49.2402E-09     36.3155E-03    -87.7798E+06    -195.680E+06    -87.7633E+06     26.3985E+03    -50.7890E-03     101.462E-03    -50.6733E-03     4.98562E-03    -50.8173E-03     100.739E-03    -50.7011E-03     4.96790E-03
             182     42.7467E-09     35.2669E-03    -87.7431E+06    -195.659E+06    -87.7765E+06     2.64872E+03    -50.6541E-03     101.194E-03    -50.5399E-03     4.94791E-03    -50.6823E-03     100.471E-03    -50.5678E-03     4.93004E-03
             183     49.6179E-09     34.2186E-03    -87.6581E+06    -195.575E+06    -87.6869E+06     28.9494E+03    -50.5008E-03     100.887E-03    -50.3864E-03     4.90582E-03    -50.5288E-03     100.164E-03    -50.4142E-03     4.88846E-03
             184     42.8213E-09     33.1706E-03    -87.7612E+06    -195.555E+06    -87.7660E+06     48.7633E+03    -50.3270E-03     100.538E-03    -50.2110E-03     4.86042E-03    -50.3553E-03     99.8152E-03    -50.2391E-03     4.84352E-03
             185     52.6768E-09     32.1230E-03    -87.7453E+06    -195.484E+06    -87.7202E+06    -34.0465E+03    -50.1378E-03     100.156E-03    -50.0182E-03     4.81534E-03    -50.1663E-03     99.4334E-03    -50.0461E-03     4.79756E-03
             186     46.6153E-09     31.0759E-03    -87.6662E+06    -195.480E+06    -87.7135E+06    -50.4003E+03    -49.9363E-03     99.7506E-03    -49.8143E-03     4.76938E-03    -49.9644E-03     99.0279E-03    -49.8423E-03     4.75158E-03
             187     52.4869E-09     30.0291E-03    -87.9185E+06    -195.638E+06    -87.9148E+06     17.9732E+03    -49.7252E-03     99.3266E-03    -49.6014E-03     4.71948E-03    -49.7540E-03     98.6038E-03    -49.6298E-03     4.70278E-03
             188     50.6705E-09     28.9828E-03    -87.9944E+06    -195.626E+06    -88.0086E+06    -28.1429E+03    -49.5097E-03     98.8905E-03    -49.3808E-03     4.66452E-03    -49.5387E-03     98.1679E-03    -49.4096E-03     4.64745E-03
             189     57.2116E-09     27.9370E-03    -88.2028E+06    -195.701E+06    -88.2234E+06    -59.2235E+03    -49.2913E-03     98.4493E-03    -49.1580E-03     4.61037E-03    -49.3210E-03     97.7271E-03    -49.1875E-03     4.59311E-03
             190     53.7383E-09     26.8917E-03    -88.2994E+06    -195.662E+06    -88.3334E+06     38.0141E+03    -49.0718E-03     98.0081E-03    -48.9363E-03     4.54644E-03    -49.1019E-03     97.2863E-03    -48.9662E-03     4.53067E-03
             191     58.0615E-09     25.8468E-03    -88.3161E+06    -195.503E+06    -88.3223E+06     54.4751E+03    -48.8512E-03     97.5623E-03    -48.7112E-03     4.47594E-03    -48.8816E-03     96.8413E-03    -48.7412E-03     4.46062E-03
             192     61.2968E-09     24.8024E-03    -88.4284E+06    -195.377E+06    -88.4009E+06     1.28320E+03    -48.6283E-03     97.1132E-03    -48.4849E-03     4.40189E-03    -48.6593E-03     96.3931E-03    -48.5153E-03     4.38613E-03
             193     57.1626E-09     23.7585E-03    -88.2561E+06    -194.988E+06    -88.3688E+06     102.100E+03    -48.4027E-03     96.6579E-03    -48.2552E-03     4.31486E-03    -48.4335E-03     95.9394E-03    -48.2863E-03     4.30069E-03
             194     68.0291E-09     22.7150E-03    -88.1288E+06    -194.397E+06    -88.1744E+06     280.131E+03    -48.1648E-03     96.1803E-03    -48.0155E-03     4.21512E-03    -48.1960E-03     95.4643E-03    -48.0467E-03     4.20356E-03
             195     54.4898E-09     21.6721E-03    -87.5898E+06    -193.305E+06    -87.6436E+06     395.734E+03    -47.8951E-03     95.6472E-03    -47.7521E-03     4.08842E-03    -47.9260E-03     94.9351E-03    -47.7830E-03     4.07874E-03
             196     60.5659E-09     20.6297E-03    -87.2120E+06    -191.502E+06    -87.2705E+06     461.159E+03    -47.5610E-03     94.9845E-03    -47.4235E-03     3.92399E-03    -47.5931E-03     94.2803E-03    -47.4557E-03     3.91565E-03
             197     52.9660E-09     19.5882E-03    -86.6991E+06    -189.463E+06    -86.8578E+06     655.833E+03    -47.1228E-03     94.1154E-03    -46.9926E-03     3.71957E-03    -47.1559E-03     93.4200E-03    -47.0265E-03     3.71436E-03
             198     49.2660E-09     18.5477E-03    -85.3789E+06    -187.055E+06    -85.3830E+06     699.001E+03    -46.5404E-03     92.9633E-03    -46.4229E-03     3.46402E-03    -46.5726E-03     92.2759E-03    -46.4547E-03     3.46014E-03
             199     45.4135E-09     17.5085E-03    -83.8756E+06    -184.091E+06    -84.1492E+06     930.143E+03    -45.7543E-03     91.3940E-03    -45.6397E-03     3.14034E-03    -45.7850E-03     90.7174E-03    -45.6719E-03     3.14051E-03
             200     49.9665E-09     16.4712E-03    -81.7679E+06    -180.518E+06    -81.7805E+06     1.10520E+06    -44.6851E-03     89.2504E-03    -44.5652E-03     2.75147E-03    -44.7139E-03     88.5851E-03    -44.5938E-03     2.75519E-03
             201     58.2883E-09     15.4365E-03    -79.7574E+06    -177.563E+06    -79.6506E+06     498.480E+03    -43.2274E-03     86.3711E-03    -43.1437E-03     2.31733E-03    -43.2535E-03     85.7145E-03    -43.1688E-03     2.31455E-03
             202    -22.2362E-09     14.4053E-03    -78.6019E+06    -175.381E+06    -79.0982E+06     676.239E+03    -41.3147E-03     82.5859E-03    -41.2712E-03     1.76754E-03    -41.3390E-03     81.9376E-03    -41.2984E-03     1.76866E-03
             203     56.5310E-09     13.3784E-03      -76.69E+06    -171.985E+06    -76.7281E+06     1.23270E+06    -38.9964E-03     77.9077E-03    -38.9113E-03     1.23285E-03    -39.0196E-03     77.2701E-03    -38.9344E-03     1.24258E-03
             204     58.2742E-09     12.3568E-03    -70.5463E+06    -167.842E+06    -70.4862E+06     1.02854E+06    -36.4493E-03     72.7506E-03    -36.3012E-03     848.093E-06    -36.4568E-03     72.1157E-03    -36.3080E-03     855.939E-06
             205     87.3726E-09     11.3405E-03    -65.9383E+06    -164.754E+06    -65.5985E+06     577.921E+03    -34.0033E-03     67.8300E-03    -33.8266E-03     634.412E-06    -33.9993E-03     67.1968E-03    -33.8201E-03     636.707E-06
             206     80.4583E-09     10.3290E-03    -66.5091E+06    -163.815E+06    -66.0015E+06    -76.7392E+03    -32.2004E-03     64.2356E-03    -32.0352E-03     756.331E-06    -32.1998E-03     63.6087E-03    -32.0313E-03     750.190E-06
             207     45.9615E-09     9.32012E-03    -67.5985E+06    -164.572E+06    -67.1432E+06    -303.262E+03    -31.6753E-03     63.2423E-03    -31.5670E-03     1.22547E-03    -31.6774E-03     62.6149E-03    -31.5661E-03     1.21651E-03
             208     21.3038E-09     8.31060E-03    -67.2550E+06    -165.449E+06    -66.8998E+06    -99.6904E+03    -32.7693E-03     65.4902E-03    -32.7209E-03     1.83789E-03    -32.7689E-03     64.8575E-03    -32.7180E-03     1.83181E-03
             209     74.7516E-12     7.29690E-03    -64.1459E+06    -165.012E+06    -64.1787E+06     424.934E+03    -35.2951E-03     70.5824E-03    -35.2873E-03     2.33715E-03    -35.2840E-03     69.9431E-03    -35.2760E-03     2.33795E-03
             210    -6.53534E-09     6.27682E-03    -62.1431E+06    -162.472E+06    -62.1512E+06     1.10591E+06    -38.7513E-03     77.5203E-03    -38.7690E-03     2.62486E-03    -38.7370E-03     76.8876E-03    -38.7540E-03     2.63439E-03
             211    -14.6676E-09     5.24888E-03    -59.3196E+06    -159.241E+06    -59.0613E+06     819.284E+03    -42.6698E-03     85.3802E-03    -42.7103E-03     2.69669E-03    -42.6506E-03     84.7550E-03    -42.6887E-03     2.70234E-03
             212    -27.5471E-09     4.21260E-03    -55.0848E+06    -157.751E+06    -54.9578E+06    -19.8717E+03    -46.6503E-03     93.3668E-03    -46.7164E-03     2.54857E-03    -46.6180E-03     92.7370E-03    -46.6826E-03     2.54332E-03
             213    -38.9133E-09     3.16811E-03    -53.1510E+06    -158.403E+06    -53.3404E+06    -381.135E+03    -50.2960E-03     100.687E-03    -50.3914E-03     2.17767E-03    -50.2553E-03     100.049E-03    -50.3514E-03     2.16810E-03
             214    -57.3149E-09     2.11649E-03    -52.1186E+06    -159.676E+06    -52.4272E+06    -266.402E+03    -53.2252E-03     106.576E-03    -53.3505E-03     1.59243E-03    -53.1785E-03     105.929E-03    -53.3055E-03     1.58532E-03
             215    -62.2209E-09     1.05963E-03    -51.7201E+06    -160.147E+06    -52.1386E+06     24.3611E+03    -55.1151E-03     110.377E-03    -55.2614E-03     842.255E-06    -55.0660E-03     109.726E-03    -55.2149E-03     840.618E-06
             216     850.873E-06     402.456E-18    -51.5898E+06    -159.880E+06    -51.5871E+06     150.066E+03    -55.8133E-03     111.700E-03    -55.8869E-03     724.621E-06    -55.7647E-03     111.050E-03    -55.8382E-03     724.868E-06
             217     1.70172E-03     402.456E-18    -51.3224E+06    -159.369E+06    -50.7268E+06    -15.5874E+03    -55.8726E-03     111.731E-03    -55.8581E-03     1.33113E-03    -55.8246E-03     111.082E-03    -55.8062E-03     1.32762E-03
             218     2.55257E-03     402.456E-18    -51.1107E+06    -158.473E+06    -49.8981E+06     299.430E+03    -55.9001E-03     111.772E-03    -55.8715E-03     1.96329E-03    -55.8536E-03     111.126E-03    -55.8171E-03     1.96211E-03
             219     3.40336E-03     402.456E-18    -51.4286E+06    -158.472E+06    -49.5710E+06     655.629E+03    -55.9280E-03     111.815E-03    -55.8867E-03     2.60189E-03    -55.8836E-03     111.169E-03    -55.8302E-03     2.60345E-03
             220     4.25415E-03     402.456E-18    -51.4870E+06    -159.365E+06    -49.9573E+06    -14.0240E+03    -55.9439E-03     111.843E-03    -55.8987E-03     3.22401E-03    -55.8980E-03     111.193E-03    -55.8428E-03     3.21468E-03
             221     5.10496E-03     402.456E-18    -50.5931E+06    -158.495E+06    -50.5708E+06    -798.625E+03    -55.9359E-03     111.838E-03    -55.9020E-03     3.84319E-03    -55.8859E-03     111.192E-03    -55.8517E-03     3.82128E-03
             222     5.95573E-03     402.456E-18    -48.9876E+06    -150.650E+06    -51.6746E+06    -1.39769E+06    -55.8860E-03     111.771E-03    -55.8851E-03     4.45668E-03    -55.8378E-03     111.164E-03    -55.8540E-03     4.42431E-03
             223     6.80665E-03     402.456E-18    -46.6985E+06    -135.934E+06    -53.2551E+06    -2.12698E+06    -55.7979E-03     111.644E-03    -55.8464E-03     5.07232E-03    -55.7574E-03     111.110E-03    -55.8479E-03     5.02749E-03
             224     7.65754E-03     402.456E-18    -43.5316E+06    -118.766E+06    -53.9307E+06    -2.96235E+06    -55.6921E-03     111.491E-03    -55.7990E-03     5.72648E-03    -55.6598E-03     111.039E-03    -55.8333E-03     5.66763E-03
             225     8.50858E-03     402.456E-18    -39.5694E+06    -99.2285E+06    -53.7516E+06    -3.52347E+06    -55.5831E-03     111.328E-03    -55.7445E-03     6.41107E-03    -55.5597E-03     110.967E-03    -55.8120E-03     6.34124E-03
             226     9.35965E-03     402.456E-18    -34.7334E+06    -76.5698E+06    -52.8471E+06    -4.27457E+06    -55.4894E-03     111.173E-03    -55.6834E-03     7.20120E-03    -55.4762E-03     110.918E-03    -55.7862E-03     7.11775E-03
             227     10.2107E-03     402.456E-18    -28.7998E+06    -50.4055E+06    -50.3803E+06    -5.18537E+06    -55.4132E-03     111.035E-03    -55.6218E-03     8.09741E-03    -55.4122E-03     110.899E-03    -55.7588E-03     7.99734E-03
             228     11.0618E-03     402.456E-18    -21.7483E+06    -19.7573E+06    -46.9583E+06    -5.75634E+06    -55.3678E-03     110.925E-03    -55.5576E-03     9.15835E-03    -55.3813E-03     110.928E-03    -55.7322E-03     9.04525E-03
             229     11.9126E-03     402.456E-18    -15.4561E+06     21.8834E+06    -40.2415E+06    -4.16104E+06    -55.3478E-03     110.846E-03    -55.4987E-03     10.5658E-03    -55.4005E-03     111.039E-03    -55.7092E-03     10.4664E-03
             230     12.7633E-03     402.456E-18    -12.0221E+06     62.1301E+06    -21.2634E+06    -1.44677E+06    -55.3043E-03     110.817E-03    -55.5123E-03     12.2469E-03    -55.4265E-03     111.178E-03    -55.6913E-03     12.1729E-03
             231     13.6138E-03     402.456E-18    -8.94456E+06     85.7255E+06     4.35535E+06    -1.56852E+06    -55.3031E-03     110.892E-03    -55.5894E-03     14.8520E-03    -55.4830E-03     111.332E-03    -55.6789E-03     14.7617E-03
             232     14.4632E-03     402.456E-18    -4.72831E+06     99.0184E+06     34.5832E+06    -427.322E+03    -55.0280E-03     110.729E-03    -55.7009E-03     19.0585E-03    -55.2524E-03     111.187E-03    -55.6647E-03     18.9675E-03
             233     15.3117E-03     402.456E-18    -1.42788E+06     105.887E+06     66.6654E+06     1.60422E+06    -54.4268E-03     110.242E-03    -55.8156E-03     26.2139E-03    -54.6996E-03     110.691E-03    -55.6337E-03     26.1101E-03
             234     16.1595E-03     402.456E-18    -495.632E+03     106.187E+06     80.0005E+06     1.16089E+06    -52.7845E-03     108.587E-03    -55.8030E-03     35.2644E-03    -53.0895E-03     109.033E-03    -55.5562E-03     35.1019E-03
             235     17.0520E-03     1.05341E-03    -1.87360E+06     104.631E+06     79.2953E+06     3.27866E+06    -50.3682E-03     105.056E-03    -54.6879E-03     33.6468E-03    -50.6870E-03     105.509E-03    -54.4404E-03     33.4784E-03
             236     17.0795E-03     2.10323E-03    -2.65999E+06     106.510E+06     80.2024E+06     4.92112E+06    -54.8159E-03     107.712E-03    -52.8964E-03     19.4382E-03    -55.1381E-03     108.172E-03    -52.6460E-03     19.2328E-03
             237     17.0918E-03     3.16690E-03    -2.41945E+06     110.129E+06     82.4272E+06     2.29977E+06    -64.1951E-03     116.019E-03    -51.8237E-03     7.37919E-03    -64.5187E-03     116.486E-03    -51.5678E-03     7.05323E-03
             238     17.0960E-03     4.23813E-03    -1.72590E+06     112.166E+06     83.6373E+06     188.383E+03    -69.2818E-03     120.654E-03    -51.3725E-03     2.37248E-03    -69.6046E-03     121.127E-03    -51.1144E-03     1.96409E-03
             239     17.0971E-03     5.31079E-03    -2.02645E+06     112.382E+06     83.6163E+06    -375.489E+03    -70.2861E-03     121.534E-03    -51.2474E-03     908.353E-06    -70.6089E-03     122.006E-03    -50.9894E-03     483.633E-06
             240     17.0974E-03     6.38179E-03    -1.87489E+06     112.083E+06     83.0992E+06    -337.119E+03    -69.4405E-03     120.682E-03    -51.2411E-03     107.579E-06    -69.7588E-03     121.150E-03    -50.9855E-03    -302.552E-06
             241     17.0974E-03     7.45102E-03    -2.08757E+06     111.632E+06     82.4041E+06    -173.951E+03    -68.0496E-03     119.318E-03    -51.2685E-03    -987.838E-06    -68.3644E-03     119.783E-03    -51.0153E-03    -1.37672E-03
             242     17.0974E-03     8.51864E-03    -1.91319E+06     111.252E+06     81.4207E+06    -121.456E+03    -66.4071E-03     117.711E-03    -51.3036E-03    -2.13068E-03    -66.7165E-03     118.172E-03    -51.0550E-03    -2.49860E-03
             243     17.0975E-03     9.58445E-03    -2.10673E+06     110.883E+06     80.4265E+06    -127.972E+03    -64.5174E-03     115.862E-03    -51.3442E-03    -3.20310E-03    -64.8235E-03     116.321E-03    -51.0998E-03    -3.55024E-03
             244     17.0975E-03     10.6482E-03    -1.94797E+06     110.460E+06     79.8454E+06    -188.847E+03    -62.4441E-03     113.836E-03    -51.3914E-03    -4.21540E-03    -62.7460E-03     114.291E-03    -51.1496E-03    -4.54219E-03
             245     17.0976E-03     11.7098E-03    -2.11536E+06     109.942E+06     79.2976E+06    -247.833E+03    -60.2663E-03     111.710E-03    -51.4439E-03    -5.20432E-03    -60.5657E-03     112.162E-03    -51.2037E-03    -5.51085E-03
             246     17.0975E-03     12.7689E-03    -1.97701E+06     109.324E+06     78.7854E+06    -266.707E+03    -58.1497E-03     109.646E-03    -51.4965E-03    -6.13780E-03    -58.4452E-03     110.094E-03    -51.2582E-03    -6.42509E-03
             247     17.0975E-03     13.8260E-03    -2.05543E+06     108.831E+06     78.3861E+06    -99.4222E+03    -56.3605E-03     107.902E-03    -51.5416E-03    -6.85964E-03    -56.6539E-03     108.347E-03    -51.3045E-03    -7.12908E-03
             248     17.0975E-03     14.8816E-03    -2.06944E+06     108.608E+06     78.1925E+06     40.8538E+03    -55.1640E-03     106.734E-03    -51.5699E-03    -7.23315E-03    -55.4562E-03     107.178E-03    -51.3334E-03    -7.49100E-03
             249     17.0976E-03     15.9365E-03    -2.04541E+06     108.630E+06     78.1122E+06     162.474E+03    -54.6480E-03     106.226E-03    -51.5777E-03    -7.22835E-03    -54.9400E-03     106.670E-03    -51.3417E-03    -7.48116E-03
             250     17.0978E-03     16.9915E-03    -2.06967E+06     108.817E+06     78.2177E+06     165.321E+03    -54.6370E-03     106.208E-03    -51.5709E-03    -6.93923E-03    -54.9300E-03     106.653E-03    -51.3346E-03    -7.19318E-03
             251     17.0979E-03     18.0468E-03    -1.97765E+06     109.037E+06     78.3509E+06     130.392E+03    -54.8411E-03     106.399E-03    -51.5579E-03    -6.49049E-03    -55.1347E-03     106.845E-03    -51.3214E-03    -6.74818E-03
             252     17.0980E-03     19.1024E-03    -2.03045E+06     109.235E+06     78.4621E+06     81.2676E+03    -55.0239E-03     106.570E-03    -51.5463E-03    -5.97948E-03    -55.3190E-03     107.018E-03    -51.3094E-03    -6.24126E-03
             253     17.0981E-03     20.1582E-03    -1.95601E+06     109.383E+06     78.4815E+06     49.0035E+03    -55.0882E-03     106.627E-03    -51.5384E-03    -5.47152E-03    -55.3839E-03     107.076E-03    -51.3017E-03    -5.73635E-03
             254     17.0982E-03     21.2139E-03    -1.91118E+06     109.663E+06     78.6206E+06     175.249E+03    -55.0252E-03     106.560E-03    -51.5352E-03    -5.00173E-03    -55.3219E-03     107.012E-03    -51.2984E-03    -5.26658E-03
             255     17.0983E-03     22.2694E-03    -2.08248E+06     110.108E+06     78.9713E+06     178.142E+03    -54.8591E-03     106.396E-03    -51.5365E-03    -4.58312E-03    -55.1584E-03     106.849E-03    -51.2983E-03    -4.84874E-03
             256     17.0983E-03     23.3247E-03    -2.01452E+06     110.433E+06     79.1098E+06     80.8678E+03    -54.6267E-03     106.166E-03    -51.5392E-03    -4.21857E-03    -54.9269E-03     106.622E-03    -51.3008E-03    -4.48552E-03
             257     17.0984E-03     24.3797E-03    -2.00488E+06     110.644E+06     79.1781E+06     86.2742E+03    -54.3392E-03     105.883E-03    -51.5439E-03    -3.89163E-03    -54.6402E-03     106.340E-03    -51.3055E-03    -4.15809E-03
             258     17.0984E-03     25.4344E-03    -2.06410E+06     110.829E+06     79.2375E+06     59.7081E+03    -54.0225E-03     105.572E-03    -51.5500E-03    -3.58737E-03    -54.3247E-03     106.031E-03    -51.3115E-03    -3.85349E-03
             259     17.0984E-03     26.4887E-03    -1.95454E+06     111.030E+06     79.2912E+06     99.4478E+03    -53.7050E-03     105.261E-03    -51.5563E-03    -3.30911E-03    -54.0074E-03     105.721E-03    -51.3180E-03    -3.57386E-03
             260     17.0985E-03     27.5427E-03    -2.11596E+06     111.273E+06     79.3773E+06     90.2815E+03    -53.3936E-03     104.957E-03    -51.5633E-03    -3.06069E-03    -53.6977E-03     105.418E-03    -51.3247E-03    -3.32464E-03
             261     17.0985E-03     28.5963E-03    -1.97084E+06     111.481E+06     79.5209E+06     69.6989E+03    -53.1014E-03     104.671E-03    -51.5700E-03    -2.83978E-03    -53.4056E-03     105.134E-03    -51.3312E-03    -3.10306E-03
             262     17.0985E-03     29.6497E-03    -2.11357E+06     111.652E+06     79.5940E+06     66.3395E+03    -52.8329E-03     104.409E-03    -51.5764E-03    -2.64669E-03    -53.1385E-03     104.873E-03    -51.3373E-03    -2.90909E-03
             263     17.0985E-03     30.7028E-03    -1.95362E+06     111.849E+06     79.7504E+06     88.5410E+03    -52.5925E-03     104.175E-03    -51.5822E-03    -2.47660E-03    -52.8980E-03     104.639E-03    -51.3428E-03    -2.73788E-03
             264     17.0985E-03     31.7556E-03    -2.14295E+06     112.074E+06     79.8398E+06     88.9897E+03    -52.3787E-03     103.966E-03    -51.5876E-03    -2.32496E-03    -52.6858E-03     104.432E-03    -51.3478E-03    -2.58549E-03
             265     17.0985E-03     32.8082E-03    -1.94584E+06     112.309E+06     79.9653E+06     101.606E+03    -52.1951E-03     103.787E-03    -51.5919E-03    -2.19014E-03    -52.5020E-03     104.254E-03    -51.3521E-03    -2.44984E-03
             266     17.0985E-03     33.8606E-03    -2.15459E+06     112.571E+06     80.1415E+06     109.235E+03    -52.0299E-03     103.626E-03    -51.5964E-03    -2.06912E-03    -52.3387E-03     104.095E-03    -51.3558E-03    -2.32819E-03
             267     17.0985E-03     34.9129E-03    -2.07986E+06     112.667E+06     80.1883E+06    -34.2341E+03    -51.8914E-03     103.491E-03    -51.5997E-03    -1.96192E-03    -52.2002E-03     103.960E-03    -51.3591E-03    -2.22239E-03
             268     17.0985E-03     35.9651E-03    -2.03455E+06     112.578E+06     80.0256E+06    -41.8842E+03    -51.7753E-03     103.377E-03    -51.6018E-03    -1.86459E-03    -52.0836E-03     103.846E-03    -51.3620E-03    -2.12475E-03
             269     17.0985E-03     37.0171E-03    -1.92291E+06     112.697E+06     80.1400E+06     138.638E+03    -51.6676E-03     103.272E-03    -51.6045E-03    -1.77536E-03    -51.9758E-03     103.741E-03    -51.3644E-03    -2.03284E-03
             270     17.0985E-03     38.0690E-03    -2.19332E+06     113.035E+06     80.3149E+06     139.145E+03    -51.5676E-03     103.175E-03    -51.6075E-03    -1.69806E-03    -51.8781E-03     103.646E-03    -51.3666E-03    -1.95524E-03
             271     17.0985E-03     39.1208E-03    -2.05209E+06     113.200E+06     80.3327E+06    -13.2405E+03    -51.4832E-03     103.093E-03    -51.6094E-03    -1.62662E-03    -51.7933E-03     103.564E-03    -51.3689E-03    -1.88551E-03
             272     17.0985E-03     40.1726E-03    -2.05796E+06     113.183E+06     80.2681E+06    -2.43291E+03    -51.4086E-03     103.020E-03    -51.6109E-03    -1.55725E-03    -51.7187E-03     103.491E-03    -51.3707E-03    -1.81577E-03
             273     17.0985E-03     41.2242E-03    -2.07287E+06     113.153E+06     80.3422E+06    -14.8957E+03    -51.3440E-03     102.957E-03    -51.6129E-03    -1.50006E-03    -51.6543E-03     103.429E-03    -51.3723E-03    -1.75853E-03
             274     17.0985E-03     42.2759E-03    -2.05029E+06     113.123E+06     80.4188E+06    -24.7429E+03    -51.2763E-03     102.891E-03    -51.6149E-03    -1.44651E-03    -51.5867E-03     103.363E-03    -51.3739E-03    -1.70492E-03
             275     17.0985E-03     43.3273E-03    -2.03895E+06     113.121E+06     80.3958E+06     24.1510E+03    -51.2100E-03     102.826E-03    -51.6157E-03    -1.39023E-03    -51.5204E-03     103.297E-03    -51.3747E-03    -1.64782E-03
             276     17.0986E-03     44.3788E-03    -2.08953E+06     113.156E+06     80.4001E+06     18.9586E+03    -51.1559E-03     102.772E-03    -51.6157E-03    -1.34542E-03    -51.4667E-03     103.244E-03    -51.3748E-03    -1.60292E-03
             277     17.0986E-03     45.4302E-03    -2.05360E+06     113.170E+06     80.4497E+06    -6.11197E+03    -51.1022E-03     102.718E-03    -51.6160E-03    -1.30213E-03    -51.4130E-03     103.190E-03    -51.3749E-03    -1.55976E-03
             278     17.0986E-03     46.4816E-03    -2.07241E+06     113.149E+06     80.4367E+06    -2.24711E+03    -51.0515E-03     102.668E-03    -51.6168E-03    -1.26455E-03    -51.3623E-03     103.140E-03    -51.3756E-03    -1.52194E-03
             279     17.0986E-03     47.5329E-03    -2.07247E+06     113.130E+06     80.4144E+06    -24.1506E+03    -51.0096E-03     102.628E-03    -51.6180E-03    -1.21605E-03    -51.3204E-03     103.100E-03    -51.3770E-03    -1.47349E-03
             280     17.0986E-03     48.5841E-03    -2.05280E+06     113.088E+06     80.3129E+06    -20.6811E+03    -50.9807E-03     102.599E-03    -51.6186E-03    -1.16999E-03    -51.2913E-03     103.071E-03    -51.3780E-03    -1.42720E-03
             281     17.0986E-03     49.6354E-03    -1.98435E+06     113.149E+06     80.3509E+06     76.6198E+03    -50.9564E-03     102.575E-03    -51.6191E-03    -1.14660E-03    -51.2668E-03     103.047E-03    -51.3785E-03    -1.40255E-03
             282     17.0986E-03     50.6866E-03    -2.14550E+06     113.334E+06     80.5398E+06     72.4709E+03    -50.9249E-03     102.545E-03    -51.6206E-03    -1.12070E-03    -51.2367E-03     103.018E-03    -51.3791E-03    -1.37665E-03
             283     17.0986E-03     51.7377E-03    -2.05889E+06     113.411E+06     80.5908E+06    -11.6026E+03    -50.8986E-03     102.520E-03    -51.6212E-03    -1.09889E-03    -51.2102E-03     102.993E-03    -51.3797E-03    -1.35582E-03
             284     17.0986E-03     52.7889E-03    -2.06892E+06     113.390E+06     80.5438E+06    -5.70119E+03    -50.8754E-03     102.497E-03    -51.6216E-03    -1.07917E-03    -51.1870E-03     102.970E-03    -51.3803E-03    -1.33594E-03
             285     17.0986E-03     53.8400E-03    -2.06536E+06     113.376E+06     80.5372E+06    -6.51806E+03    -50.8542E-03     102.476E-03    -51.6221E-03    -1.06129E-03    -51.1658E-03     102.950E-03    -51.3809E-03    -1.31801E-03
             286     17.0986E-03     54.8911E-03    -2.06683E+06     113.360E+06     80.5125E+06    -7.62112E+03    -50.8356E-03     102.458E-03    -51.6225E-03    -1.04574E-03    -51.1472E-03     102.931E-03    -51.3813E-03    -1.30239E-03
             287     17.0986E-03     55.9422E-03    -2.06581E+06     113.341E+06     80.5069E+06    -8.71220E+03    -50.8188E-03     102.442E-03    -51.6229E-03    -1.03138E-03    -51.1303E-03     102.915E-03    -51.3818E-03    -1.28800E-03
             288     17.0986E-03     56.9932E-03    -2.06791E+06     113.316E+06     80.4965E+06    -12.1721E+03    -50.8046E-03     102.428E-03    -51.6233E-03    -1.01883E-03    -51.1161E-03     102.901E-03    -51.3821E-03    -1.27545E-03
             289     17.0986E-03     58.0443E-03    -2.06388E+06     113.284E+06     80.4784E+06    -13.4238E+03    -50.7931E-03     102.417E-03    -51.6235E-03    -1.00846E-03    -51.1045E-03     102.889E-03    -51.3824E-03    -1.26506E-03
             290     17.0986E-03     59.0953E-03    -2.05950E+06     113.259E+06     80.4612E+06    -7.03067E+03    -50.7829E-03     102.407E-03    -51.6237E-03    -998.840E-06    -51.0943E-03     102.879E-03    -51.3826E-03    -1.25532E-03
             291     17.0986E-03     60.1464E-03    -2.06787E+06     113.244E+06     80.4033E+06    -5.46490E+03    -50.7750E-03     102.399E-03    -51.6237E-03    -990.254E-06    -51.0864E-03     102.872E-03    -51.3829E-03    -1.24669E-03
             292     854.676E-06     61.5240E-03    -86.3485E+06    -193.156E+06    -84.0133E+06     3.77649E+03    -51.6830E-03     103.308E-03    -51.6252E-03     8.66678E-03    -51.7143E-03     102.591E-03    -51.6400E-03     8.63470E-03
             293     1.70937E-03     61.5361E-03    -83.0997E+06    -186.895E+06    -74.8119E+06     9.04348E+03    -51.6674E-03     103.344E-03    -51.6767E-03     15.7568E-03    -51.7078E-03     102.643E-03    -51.6592E-03     15.6966E-03
             294     2.56409E-03     61.5555E-03    -78.3132E+06    -177.769E+06    -61.9915E+06     2.48785E+03    -51.6947E-03     103.402E-03    -51.7070E-03     22.9430E-03    -51.7481E-03     102.726E-03    -51.6457E-03     22.8509E-03
             295     3.41885E-03     61.5819E-03    -72.5090E+06    -167.183E+06    -47.8374E+06     1.90868E+03    -51.7399E-03     103.478E-03    -51.7378E-03     29.7686E-03    -51.8078E-03     102.833E-03    -51.6294E-03     29.6416E-03
             296     4.27363E-03     61.6149E-03    -66.2911E+06    -156.268E+06    -34.8929E+06     7.76331E+03    -51.8053E-03     103.566E-03    -51.7604E-03     36.0768E-03    -51.8870E-03     102.959E-03    -51.6122E-03     35.9118E-03
             297     5.12845E-03     61.6539E-03    -60.1806E+06    -142.590E+06    -24.4034E+06     20.8990E+03    -51.8760E-03     103.643E-03    -51.7671E-03     41.7798E-03    -51.9755E-03     103.093E-03    -51.5951E-03     41.5739E-03
             298     5.98329E-03     61.6982E-03    -54.4581E+06    -127.014E+06    -15.9535E+06     29.0623E+03    -51.9439E-03     103.706E-03    -51.7617E-03     46.7818E-03    -52.0658E-03     103.230E-03    -51.5783E-03     46.5328E-03
             299     6.83816E-03     61.7472E-03    -49.1817E+06    -111.729E+06    -8.53117E+06     35.7698E+03    -52.0045E-03     103.757E-03    -51.7529E-03     50.9800E-03    -52.1518E-03     103.358E-03    -51.5622E-03     50.6862E-03
             300     7.69305E-03     61.7999E-03    -44.2884E+06    -95.6039E+06    -1.71169E+06     54.9826E+03    -52.0446E-03     103.786E-03    -51.7412E-03     54.2806E-03    -52.2216E-03     103.471E-03    -51.5469E-03     53.9424E-03
             301     8.54795E-03     61.8553E-03      -39.69E+06    -78.9248E+06     4.92746E+06     71.2154E+03    -52.0561E-03     103.785E-03    -51.7289E-03     56.5590E-03    -52.2658E-03     103.559E-03    -51.5322E-03     56.1786E-03
             302     9.40288E-03     61.9125E-03    -35.3213E+06    -60.0850E+06     11.5437E+06     74.8449E+03    -52.0274E-03     103.741E-03    -51.7140E-03     57.6860E-03    -52.2727E-03     103.615E-03    -51.5179E-03     57.2686E-03
             303     10.2578E-03     61.9702E-03    -31.1377E+06    -42.2445E+06     18.1015E+06     76.5863E+03    -51.9634E-03     103.664E-03    -51.7007E-03     57.4356E-03    -52.2397E-03     103.627E-03    -51.5038E-03     56.9896E-03
             304     11.1128E-03     62.0268E-03    -27.1160E+06    -21.8879E+06     24.0196E+06     74.5960E+03    -51.8508E-03     103.532E-03    -51.6811E-03     55.5932E-03    -52.1542E-03     103.592E-03    -51.4899E-03     55.1301E-03
             305     11.9678E-03     62.0807E-03    -23.2049E+06     483.315E+03     30.9041E+06     69.6860E+03    -51.6872E-03     103.350E-03    -51.6632E-03     51.9700E-03    -52.0130E-03     103.506E-03    -51.4758E-03     51.5021E-03
             306     12.8228E-03     62.1300E-03    -19.4266E+06     21.4409E+06     35.1914E+06     66.2550E+03    -51.5070E-03     103.141E-03    -51.6345E-03     46.5423E-03    -51.8406E-03     103.380E-03    -51.4614E-03     46.0791E-03
             307     13.6779E-03     62.1731E-03    -15.6564E+06     64.3056E+06     44.9897E+06     84.0557E+03    -51.2244E-03     102.824E-03    -51.5999E-03     39.7813E-03    -51.5982E-03     103.240E-03    -51.4455E-03     39.3314E-03
             308     14.5331E-03     62.2089E-03    -11.7644E+06     99.7139E+06     53.9478E+06     150.611E+03    -50.9803E-03     102.550E-03    -51.5694E-03     31.4990E-03    -51.3753E-03     103.100E-03    -51.4272E-03     31.0705E-03
             309     15.3882E-03     62.2354E-03    -7.94994E+06     109.336E+06     61.2542E+06     161.418E+03    -50.8424E-03     102.410E-03    -51.5681E-03     20.7472E-03    -51.2189E-03     102.969E-03    -51.4088E-03     20.3297E-03
             310     16.2434E-03     62.2496E-03    -4.07699E+06     114.074E+06     74.8651E+06     71.4280E+03    -50.7593E-03     102.366E-03    -51.6066E-03     6.83914E-03    -51.1033E-03     102.883E-03    -51.3917E-03     6.50145E-03
             311     854.671E-06     62.5747E-03    -86.3419E+06    -193.165E+06    -84.0257E+06    -9.45394E+03    -51.6897E-03     103.321E-03    -51.6317E-03     8.67045E-03    -51.7209E-03     102.604E-03    -51.6466E-03     8.63818E-03
             312     1.70936E-03     62.5868E-03    -83.1101E+06    -186.909E+06    -74.8243E+06    -2.07601E+03    -51.6737E-03     103.357E-03    -51.6832E-03     15.7634E-03    -51.7140E-03     102.656E-03    -51.6658E-03     15.7030E-03
             313     2.56407E-03     62.6062E-03    -78.3107E+06    -177.762E+06    -62.0071E+06     1.23780E+03    -51.7004E-03     103.414E-03    -51.7132E-03     22.9526E-03    -51.7538E-03     102.738E-03    -51.6520E-03     22.8604E-03
             314     3.41883E-03     62.6326E-03    -72.5132E+06    -167.193E+06    -47.8556E+06     6.94337E+03    -51.7451E-03     103.489E-03    -51.7437E-03     29.7812E-03    -51.8130E-03     102.845E-03    -51.6354E-03     29.6543E-03
             315     4.27361E-03     62.6656E-03    -66.2943E+06    -156.285E+06     -34.897E+06     18.0525E+03    -51.8099E-03     103.576E-03    -51.7662E-03     36.0925E-03    -51.8916E-03     102.969E-03    -51.6180E-03     35.9276E-03
             316     5.12842E-03     62.7046E-03    -60.1739E+06    -142.611E+06    -24.3993E+06     27.2398E+03    -51.8799E-03     103.652E-03    -51.7726E-03     41.7978E-03    -51.9793E-03     103.103E-03    -51.6006E-03     41.5919E-03
             317     5.98326E-03     62.7490E-03    -54.4447E+06    -127.031E+06    -15.9403E+06     39.9081E+03    -51.9471E-03     103.714E-03    -51.7669E-03     46.8018E-03    -52.0689E-03     103.238E-03    -51.5835E-03     46.5528E-03
             318     6.83813E-03     62.7979E-03    -49.1632E+06    -111.756E+06    -8.51423E+06     58.2860E+03    -52.0070E-03     103.765E-03    -51.7577E-03     51.0016E-03    -52.1542E-03     103.365E-03    -51.5670E-03     50.7080E-03
             319     7.69301E-03     62.8506E-03    -44.2714E+06    -95.6326E+06    -1.70095E+06     70.6702E+03    -52.0461E-03     103.792E-03    -51.7456E-03     54.3041E-03    -52.2231E-03     103.477E-03    -51.5513E-03     53.9661E-03
             320     8.54792E-03     62.9061E-03    -39.6887E+06    -78.9400E+06     4.92876E+06     73.6188E+03    -52.0566E-03     103.789E-03    -51.7329E-03     56.5851E-03    -52.2663E-03     103.564E-03    -51.5362E-03     56.2046E-03
             321     9.40285E-03     62.9633E-03    -35.3385E+06    -60.1015E+06     11.5379E+06     78.7811E+03    -52.0271E-03     103.745E-03    -51.7175E-03     57.7137E-03    -52.2726E-03     103.618E-03    -51.5215E-03     57.2962E-03
             322     10.2578E-03     63.0210E-03    -31.1640E+06    -42.2531E+06     18.0928E+06     81.3063E+03    -51.9620E-03     103.666E-03    -51.7039E-03     57.4635E-03    -52.2385E-03     103.629E-03    -51.5069E-03     57.0175E-03
             323     11.1128E-03     63.0777E-03    -27.1528E+06    -21.8887E+06     24.0076E+06     75.9954E+03    -51.8483E-03     103.532E-03    -51.6837E-03     55.6205E-03    -52.1519E-03     103.592E-03    -51.4926E-03     55.1574E-03
             324     11.9678E-03     63.1316E-03    -23.2609E+06     488.915E+03     30.8853E+06     63.4112E+03    -51.6839E-03     103.349E-03    -51.6654E-03     51.9959E-03    -52.0100E-03     103.505E-03    -51.4780E-03     51.5278E-03
             325     12.8228E-03     63.1810E-03    -19.5158E+06     21.4399E+06     35.1570E+06     50.9382E+03    -51.5031E-03     103.139E-03    -51.6363E-03     46.5668E-03    -51.8372E-03     103.378E-03    -51.4633E-03     46.1034E-03
             326     13.6779E-03     63.2240E-03    -15.8022E+06     64.2893E+06     44.9283E+06     34.0884E+03    -51.2199E-03     102.821E-03    -51.6013E-03     39.8046E-03    -51.5944E-03     103.238E-03    -51.4470E-03     39.3540E-03
             327     14.5330E-03     63.2599E-03    -11.9917E+06     99.5016E+06     53.7980E+06     138.294E+03    -50.9751E-03     102.545E-03    -51.5704E-03     31.5194E-03    -51.3707E-03     103.096E-03    -51.4283E-03     31.0908E-03
             328     15.3882E-03     63.2864E-03    -8.16822E+06     109.351E+06     61.2296E+06     263.424E+03    -50.8330E-03     102.402E-03    -51.5689E-03     20.7625E-03    -51.2107E-03     102.961E-03    -51.4095E-03     20.3463E-03
             329     16.2434E-03     63.3006E-03    -4.16779E+06     114.302E+06     75.0214E+06     137.919E+03    -50.7485E-03     102.356E-03    -51.6073E-03     6.84881E-03    -51.0935E-03     102.874E-03    -51.3919E-03     6.51199E-03
             330     854.664E-06     63.6254E-03    -86.3521E+06    -193.146E+06    -83.9784E+06    -8.90527E+03    -51.6955E-03     103.333E-03    -51.6376E-03     8.67330E-03    -51.7268E-03     102.616E-03    -51.6522E-03     8.64103E-03
             331     1.70935E-03     63.6375E-03    -83.0941E+06    -186.903E+06    -74.8056E+06    -8.22928E+03    -51.6792E-03     103.368E-03    -51.6889E-03     15.7689E-03    -51.7196E-03     102.667E-03    -51.6715E-03     15.7084E-03
             332     2.56406E-03     63.6569E-03    -78.3054E+06    -177.782E+06    -62.0322E+06    -2.99565E+03    -51.7055E-03     103.424E-03    -51.7187E-03     22.9609E-03    -51.7588E-03     102.748E-03    -51.6575E-03     22.8687E-03
             333     3.41881E-03     63.6833E-03    -72.5130E+06    -167.209E+06    -47.8696E+06     15.0105E+03    -51.7498E-03     103.499E-03    -51.7490E-03     29.7925E-03    -51.8176E-03     102.854E-03    -51.6408E-03     29.6656E-03
             334     4.27359E-03     63.7164E-03    -66.2971E+06    -156.298E+06    -34.9057E+06     19.7913E+03    -51.8139E-03     103.585E-03    -51.7713E-03     36.1065E-03    -51.8956E-03     102.978E-03    -51.6231E-03     35.9415E-03
             335     5.12840E-03     63.7554E-03    -60.1800E+06    -142.636E+06    -24.4060E+06     31.7055E+03    -51.8833E-03     103.661E-03    -51.7774E-03     41.8137E-03    -51.9827E-03     103.111E-03    -51.6054E-03     41.6079E-03
             336     5.98323E-03     63.7998E-03    -54.4595E+06    -127.065E+06    -15.9455E+06     53.7353E+03    -51.9500E-03     103.721E-03    -51.7714E-03     46.8197E-03    -52.0719E-03     103.245E-03    -51.5880E-03     46.5708E-03
             337     6.83810E-03     63.8487E-03    -49.1812E+06    -111.790E+06    -8.52383E+06     73.7637E+03    -52.0091E-03     103.771E-03    -51.7620E-03     51.0215E-03    -52.1564E-03     103.372E-03    -51.5712E-03     50.7280E-03
             338     7.69298E-03     63.9015E-03    -44.2860E+06    -95.6530E+06    -1.70670E+06     86.7252E+03    -52.0471E-03     103.797E-03    -51.7495E-03     54.3255E-03    -52.2242E-03     103.482E-03    -51.5551E-03     53.9876E-03
             339     8.54789E-03     63.9570E-03    -39.7046E+06    -78.9545E+06     4.92280E+06     93.7448E+03    -52.0567E-03     103.793E-03    -51.7363E-03     56.6081E-03    -52.2666E-03     103.567E-03    -51.5397E-03     56.2279E-03
             340     9.40282E-03     64.0142E-03    -35.3613E+06    -60.1191E+06     11.5271E+06     97.3450E+03    -52.0264E-03     103.747E-03    -51.7206E-03     57.7379E-03    -52.2721E-03     103.620E-03    -51.5245E-03     57.3206E-03
             341     10.2578E-03     64.0719E-03    -31.1975E+06    -42.2607E+06     18.0803E+06     98.3835E+03    -51.9606E-03     103.667E-03    -51.7065E-03     57.4884E-03    -52.2373E-03     103.631E-03    -51.5096E-03     57.0425E-03
             342     11.1128E-03     64.1286E-03    -27.1990E+06    -21.8911E+06     23.9909E+06     96.6736E+03    -51.8461E-03     103.532E-03    -51.6860E-03     55.6454E-03    -52.1501E-03     103.592E-03    -51.4949E-03     55.1825E-03
             343     11.9678E-03     64.1825E-03    -23.3312E+06     492.774E+03     30.8606E+06     95.4369E+03    -51.6811E-03     103.348E-03    -51.6673E-03     52.0198E-03    -52.0077E-03     103.504E-03    -51.4799E-03     51.5521E-03
             344     12.8228E-03     64.2319E-03    -19.6222E+06     21.4469E+06     35.1183E+06     89.1134E+03    -51.4997E-03     103.138E-03    -51.6378E-03     46.5898E-03    -51.8344E-03     103.377E-03    -51.4649E-03     46.1269E-03
             345     13.6779E-03     64.2750E-03    -15.9811E+06     64.2818E+06     44.8573E+06     98.3280E+03    -51.2160E-03     102.819E-03    -51.6025E-03     39.8264E-03    -51.5914E-03     103.235E-03    -51.4483E-03     39.3766E-03
             346     14.5330E-03     64.3108E-03    -12.2212E+06     99.2600E+06     53.6355E+06     186.833E+03    -50.9707E-03     102.542E-03    -51.5712E-03     31.5390E-03    -51.3670E-03     103.092E-03    -51.4292E-03     31.1110E-03
             347     15.3882E-03     64.3373E-03    -8.31521E+06     109.376E+06     61.2243E+06     209.673E+03    -50.8247E-03     102.394E-03    -51.5697E-03     20.7768E-03    -51.2032E-03     102.954E-03    -51.4101E-03     20.3600E-03
             348     16.2434E-03     64.3516E-03    -4.19233E+06     114.560E+06     75.1858E+06     80.4591E+03    -50.7390E-03     102.347E-03    -51.6079E-03     6.85583E-03    -51.0848E-03     102.866E-03    -51.3920E-03     6.51829E-03
             349     854.663E-06     64.6762E-03    -86.3163E+06    -193.130E+06    -83.9840E+06        -306.265    -51.7005E-03     103.343E-03    -51.6427E-03     8.67579E-03    -51.7316E-03     102.626E-03    -51.6575E-03     8.64362E-03
             350     1.70934E-03     64.6883E-03    -83.0832E+06    -186.900E+06    -74.8014E+06    -4.04774E+03    -51.6841E-03     103.378E-03    -51.6939E-03     15.7736E-03    -51.7244E-03     102.677E-03    -51.6765E-03     15.7132E-03
             351     2.56405E-03     64.7077E-03    -78.3027E+06    -177.809E+06    -62.0136E+06     4.05908E+03    -51.7102E-03     103.434E-03    -51.7237E-03     22.9682E-03    -51.7635E-03     102.758E-03    -51.6624E-03     22.8760E-03
             352     3.41879E-03     64.7341E-03    -72.5161E+06    -167.226E+06    -47.8847E+06     14.7902E+03    -51.7538E-03     103.508E-03    -51.7537E-03     29.8025E-03    -51.8216E-03     102.863E-03    -51.6455E-03     29.6756E-03
             353     4.27357E-03     64.7671E-03    -66.3028E+06    -156.312E+06    -34.9458E+06     26.1014E+03    -51.8173E-03     103.593E-03    -51.7756E-03     36.1191E-03    -51.8991E-03     102.986E-03    -51.6275E-03     35.9542E-03
             354     5.12837E-03     64.8061E-03    -60.1985E+06    -142.674E+06    -24.4328E+06     44.7045E+03    -51.8863E-03     103.668E-03    -51.7816E-03     41.8287E-03    -51.9858E-03     103.118E-03    -51.6096E-03     41.6229E-03
             355     5.98321E-03     64.8505E-03    -54.4772E+06    -127.105E+06    -15.9604E+06     68.5399E+03    -51.9525E-03     103.728E-03    -51.7754E-03     46.8369E-03    -52.0744E-03     103.252E-03    -51.5919E-03     46.5881E-03
             356     6.83807E-03     64.8995E-03    -49.1948E+06    -111.826E+06    -8.53237E+06     89.3621E+03    -52.0110E-03     103.777E-03    -51.7657E-03     51.0402E-03    -52.1583E-03     103.377E-03    -51.5749E-03     50.7468E-03
             357     7.69296E-03     64.9523E-03    -44.3030E+06    -95.6807E+06    -1.70971E+06     105.407E+03    -52.0483E-03     103.801E-03    -51.7530E-03     54.3454E-03    -52.2255E-03     103.486E-03    -51.5585E-03     54.0076E-03
             358     8.54786E-03     65.0078E-03    -39.7231E+06    -78.9776E+06     4.91812E+06     117.212E+03    -52.0571E-03     103.797E-03    -51.7394E-03     56.6294E-03    -52.2671E-03     103.571E-03    -51.5427E-03     56.2493E-03
             359     9.40279E-03     65.0650E-03    -35.3803E+06    -60.1351E+06     11.5188E+06     124.074E+03    -52.0258E-03     103.749E-03    -51.7233E-03     57.7599E-03    -52.2716E-03     103.622E-03    -51.5273E-03     57.3429E-03
             360     10.2578E-03     65.1228E-03    -31.2205E+06    -42.2762E+06     18.0697E+06     129.245E+03    -51.9592E-03     103.668E-03    -51.7089E-03     57.5105E-03    -52.2361E-03     103.632E-03    -51.5120E-03     57.0649E-03
             361     11.1127E-03     65.1794E-03    -27.2324E+06    -21.9055E+06     23.9776E+06     137.507E+03    -51.8441E-03     103.532E-03    -51.6880E-03     55.6674E-03    -52.1483E-03     103.592E-03    -51.4969E-03     55.2050E-03
             362     11.9677E-03     65.2334E-03    -23.3667E+06     476.170E+03     30.8444E+06     147.946E+03    -51.6786E-03     103.348E-03    -51.6690E-03     52.0413E-03    -52.0054E-03     103.504E-03    -51.4816E-03     51.5742E-03
             363     12.8228E-03     65.2828E-03    -19.6623E+06     21.4286E+06     35.0991E+06     168.573E+03    -51.4968E-03     103.136E-03    -51.6391E-03     46.6107E-03    -51.8317E-03     103.375E-03    -51.4662E-03     46.1487E-03
             364     13.6778E-03     65.3259E-03    -16.0080E+06     64.2186E+06     44.8290E+06     212.258E+03    -51.2127E-03     102.816E-03    -51.6036E-03     39.8466E-03    -51.5881E-03     103.233E-03    -51.4493E-03     39.3982E-03
             365     14.5330E-03     65.3618E-03    -12.1689E+06     99.2384E+06     53.6442E+06     173.451E+03    -50.9670E-03     102.539E-03    -51.5720E-03     31.5577E-03    -51.3631E-03     103.089E-03    -51.4300E-03     31.1295E-03
             366     15.3882E-03     65.3883E-03    -8.20508E+06     109.469E+06     61.2748E+06     67.6364E+03    -50.8213E-03     102.391E-03    -51.5701E-03     20.7909E-03    -51.1995E-03     102.951E-03    -51.4106E-03     20.3721E-03
             367     16.2434E-03     65.4026E-03    -4.13023E+06     114.644E+06     75.2398E+06     34.6255E+03    -50.7345E-03     102.343E-03    -51.6082E-03     6.86318E-03    -51.0802E-03     102.863E-03    -51.3923E-03     6.52504E-03
             368     854.655E-06     65.7269E-03    -86.3340E+06    -193.147E+06    -83.9874E+06     4.13740E+03    -51.7048E-03     103.352E-03    -51.6470E-03     8.67856E-03    -51.7360E-03     102.634E-03    -51.6617E-03     8.64643E-03
             369     1.70933E-03     65.7390E-03    -83.0986E+06    -186.898E+06    -74.8130E+06     5.06323E+03    -51.6884E-03     103.387E-03    -51.6982E-03     15.7783E-03    -51.7287E-03     102.685E-03    -51.6808E-03     15.7179E-03
             370     2.56404E-03     65.7584E-03    -78.3289E+06     -177.82E+06    -62.0307E+06     9.44237E+03    -51.7142E-03     103.442E-03    -51.7279E-03     22.9750E-03    -51.7676E-03     102.766E-03    -51.6667E-03     22.8829E-03
             371     3.41878E-03     65.7848E-03    -72.5276E+06    -167.246E+06    -47.8991E+06     15.2560E+03    -51.7574E-03     103.515E-03    -51.7578E-03     29.8118E-03    -51.8253E-03     102.871E-03    -51.6496E-03     29.6848E-03
             372     4.27355E-03     65.8179E-03    -66.3166E+06    -156.344E+06    -34.9708E+06     33.3798E+03    -51.8205E-03     103.600E-03    -51.7795E-03     36.1307E-03    -51.9022E-03     102.993E-03    -51.6315E-03     35.9659E-03
             373     5.12835E-03     65.8569E-03    -60.2066E+06    -142.715E+06    -24.4515E+06     58.0392E+03    -51.8889E-03     103.674E-03    -51.7853E-03     41.8424E-03    -51.9884E-03     103.124E-03    -51.6133E-03     41.6367E-03
             374     5.98319E-03     65.9013E-03    -54.4858E+06    -127.148E+06    -15.9683E+06     81.8602E+03    -51.9545E-03     103.733E-03    -51.7789E-03     46.8524E-03    -52.0765E-03     103.257E-03    -51.5954E-03     46.6037E-03
             375     6.83805E-03     65.9503E-03    -49.2061E+06    -111.869E+06    -8.53893E+06     106.496E+03    -52.0126E-03     103.781E-03    -51.7689E-03     51.0574E-03    -52.1599E-03     103.382E-03    -51.5781E-03     50.7642E-03
             376     7.69293E-03     66.0031E-03    -44.3136E+06    -95.7173E+06    -1.71572E+06     128.487E+03    -52.0495E-03     103.805E-03    -51.7559E-03     54.3642E-03    -52.2268E-03     103.491E-03    -51.5615E-03     54.0266E-03
             377     8.54784E-03     66.0586E-03    -39.7345E+06    -79.0063E+06     4.91399E+06     142.495E+03    -52.0577E-03     103.800E-03    -51.7422E-03     56.6496E-03    -52.2678E-03     103.574E-03    -51.5454E-03     56.2698E-03
             378     9.40277E-03     66.1159E-03    -35.3928E+06    -60.1613E+06     11.5137E+06     154.035E+03    -52.0255E-03     103.751E-03    -51.7258E-03     57.7812E-03    -52.2714E-03     103.625E-03    -51.5297E-03     57.3645E-03
             379     10.2577E-03     66.1736E-03    -31.2338E+06    -42.3008E+06     18.0631E+06     165.509E+03    -51.9581E-03     103.669E-03    -51.7110E-03     57.5322E-03    -52.2351E-03     103.633E-03    -51.5141E-03     57.0871E-03
             380     11.1127E-03     66.2303E-03    -27.2359E+06    -21.9360E+06     23.9722E+06     178.464E+03    -51.8425E-03     103.532E-03    -51.6898E-03     55.6891E-03    -52.1467E-03     103.592E-03    -51.4987E-03     55.2271E-03
             381     11.9677E-03     66.2843E-03    -23.3594E+06     444.538E+03     30.8425E+06     195.376E+03    -51.6764E-03     103.347E-03    -51.6705E-03     52.0623E-03    -52.0032E-03     103.503E-03    -51.4831E-03     51.5958E-03
             382     12.8228E-03     66.3337E-03    -19.6227E+06     21.3687E+06     35.1012E+06     225.878E+03    -51.4942E-03     103.135E-03    -51.6404E-03     46.6309E-03    -51.8289E-03     103.374E-03    -51.4674E-03     46.1696E-03
             383     13.6778E-03     66.3769E-03    -15.8932E+06     64.1651E+06     44.8605E+06     247.400E+03    -51.2098E-03     102.814E-03    -51.6045E-03     39.8660E-03    -51.5847E-03     103.230E-03    -51.4502E-03     39.4181E-03
             384     14.5330E-03     66.4127E-03    -12.0752E+06     99.3984E+06     53.7354E+06     170.101E+03    -50.9635E-03     102.536E-03    -51.5727E-03     31.5754E-03    -51.3596E-03     103.086E-03    -51.4306E-03     31.1471E-03
             385     15.3882E-03     66.4393E-03    -8.27208E+06     109.581E+06     61.2819E+06     38.3925E+03    -50.8185E-03     102.389E-03    -51.5705E-03     20.8044E-03    -51.1972E-03     102.950E-03    -51.4110E-03     20.3853E-03
             386     16.2434E-03     66.4536E-03    -4.24835E+06     114.619E+06     75.1643E+06    -4.64809E+03    -50.7320E-03     102.340E-03    -51.6083E-03     6.87114E-03    -51.0781E-03     102.860E-03    -51.3925E-03     6.53249E-03
             387     854.658E-06     66.7777E-03    -86.3393E+06    -193.165E+06    -83.9944E+06         134.116    -51.7086E-03     103.359E-03    -51.6508E-03     8.68065E-03    -51.7398E-03     102.642E-03    -51.6655E-03     8.64846E-03
             388     1.70932E-03     66.7897E-03    -83.0956E+06    -186.912E+06    -74.8082E+06     12.3740E+03    -51.6921E-03     103.394E-03    -51.7020E-03     15.7822E-03    -51.7325E-03     102.693E-03    -51.6845E-03     15.7219E-03
             389     2.56403E-03     66.8092E-03    -78.3057E+06    -177.822E+06    -62.0365E+06     18.7032E+03    -51.7178E-03     103.449E-03    -51.7316E-03     22.9811E-03    -51.7711E-03     102.773E-03    -51.6704E-03     22.8890E-03
             390     3.41876E-03     66.8356E-03    -72.5257E+06    -167.266E+06    -47.8857E+06     19.8446E+03    -51.7608E-03     103.522E-03    -51.7615E-03     29.8201E-03    -51.8287E-03     102.878E-03    -51.6532E-03     29.6932E-03
             391     4.27354E-03     66.8686E-03    -66.3141E+06    -156.389E+06    -34.9297E+06     38.5633E+03    -51.8236E-03     103.607E-03    -51.7832E-03     36.1410E-03    -51.9053E-03     102.999E-03    -51.6350E-03     35.9761E-03
             392     5.12834E-03     66.9077E-03    -60.2042E+06    -142.766E+06    -24.4327E+06     71.7766E+03    -51.8914E-03     103.680E-03    -51.7888E-03     41.8542E-03    -51.9908E-03     103.130E-03    -51.6166E-03     41.6487E-03
             393     5.98317E-03     66.9521E-03    -54.4871E+06    -127.194E+06    -15.9753E+06     100.886E+03    -51.9563E-03     103.738E-03    -51.7821E-03     46.8660E-03    -52.0782E-03     103.262E-03    -51.5985E-03     46.6174E-03
             394     6.83803E-03     67.0011E-03    -49.2126E+06    -111.921E+06    -8.55027E+06     127.569E+03    -52.0139E-03     103.786E-03    -51.7718E-03     51.0728E-03    -52.1613E-03     103.386E-03    -51.5809E-03     50.7798E-03
             395     7.69291E-03     67.0539E-03    -44.3242E+06    -95.7622E+06    -1.72528E+06     152.640E+03    -52.0504E-03     103.809E-03    -51.7586E-03     54.3810E-03    -52.2277E-03     103.494E-03    -51.5641E-03     54.0436E-03
             396     8.54782E-03     67.1095E-03    -39.7468E+06    -79.0411E+06     4.90855E+06     171.123E+03    -52.0580E-03     103.803E-03    -51.7446E-03     56.6676E-03    -52.2681E-03     103.577E-03    -51.5478E-03     56.2880E-03
             397     9.40275E-03     67.1667E-03    -35.4049E+06    -60.1945E+06     11.5085E+06     183.302E+03    -52.0253E-03     103.753E-03    -51.7279E-03     57.8005E-03    -52.2712E-03     103.626E-03    -51.5318E-03     57.3841E-03
             398     10.2577E-03     67.2245E-03    -31.2375E+06    -42.3342E+06     18.0586E+06     195.283E+03    -51.9573E-03     103.670E-03    -51.7129E-03     57.5524E-03    -52.2343E-03     103.634E-03    -51.5159E-03     57.1076E-03
             399     11.1127E-03     67.2812E-03    -27.2300E+06    -21.9657E+06     23.9719E+06     203.344E+03    -51.8411E-03     103.533E-03    -51.6914E-03     55.7095E-03    -52.1453E-03     103.593E-03    -51.5002E-03     55.2478E-03
             400     11.9677E-03     67.3352E-03    -23.3323E+06     396.407E+03     30.8449E+06     219.657E+03    -51.6747E-03     103.347E-03    -51.6719E-03     52.0823E-03    -52.0013E-03     103.502E-03    -51.4844E-03     51.6160E-03
             401     12.8228E-03     67.3847E-03    -19.5701E+06     21.3237E+06     35.1147E+06     233.034E+03    -51.4922E-03     103.134E-03    -51.6415E-03     46.6502E-03    -51.8266E-03     103.372E-03    -51.4684E-03     46.1890E-03
             402     13.6778E-03     67.4278E-03    -15.8319E+06     64.1557E+06     44.8892E+06     220.706E+03    -51.2073E-03     102.813E-03    -51.6054E-03     39.8845E-03    -51.5820E-03     103.229E-03    -51.4510E-03     39.4361E-03
             403     14.5330E-03     67.4637E-03    -11.9796E+06     99.4876E+06     53.8045E+06     202.240E+03    -50.9605E-03     102.534E-03    -51.5733E-03     31.5913E-03    -51.3563E-03     103.084E-03    -51.4311E-03     31.1634E-03
             404     15.3882E-03     67.4902E-03    -8.12394E+06     109.748E+06     61.3748E+06     109.176E+03    -50.8159E-03     102.387E-03    -51.5708E-03     20.8160E-03    -51.1943E-03     102.948E-03    -51.4113E-03     20.3978E-03
             405     16.2434E-03     67.5046E-03    -4.14216E+06     114.662E+06     75.1649E+06    -21.9370E+03    -50.7303E-03     102.339E-03    -51.6083E-03     6.87781E-03    -51.0760E-03     102.859E-03    -51.3927E-03     6.53895E-03
             406     854.648E-06     67.8284E-03    -86.3104E+06    -193.148E+06    -83.9746E+06     11.6378E+03    -51.7121E-03     103.367E-03    -51.6545E-03     8.68234E-03    -51.7432E-03     102.649E-03    -51.6691E-03     8.65029E-03
             407     1.70932E-03     67.8405E-03    -83.0864E+06    -186.950E+06    -74.8356E+06     16.9609E+03    -51.6953E-03     103.401E-03    -51.7053E-03     15.7856E-03    -51.7354E-03     102.699E-03    -51.6879E-03     15.7254E-03
             408     2.56402E-03     67.8599E-03    -78.3212E+06    -177.848E+06    -62.0541E+06     27.1901E+03    -51.7209E-03     103.456E-03    -51.7348E-03     22.9864E-03    -51.7742E-03     102.780E-03    -51.6736E-03     22.8945E-03
             409     3.41875E-03     67.8864E-03    -72.5443E+06    -167.274E+06    -47.8984E+06     34.7492E+03    -51.7639E-03     103.529E-03    -51.7647E-03     29.8274E-03    -51.8318E-03     102.884E-03    -51.6564E-03     29.7006E-03
             410     4.27352E-03     67.9194E-03    -66.3334E+06    -156.436E+06    -34.9229E+06     45.7389E+03    -51.8264E-03     103.613E-03    -51.7865E-03     36.1500E-03    -51.9082E-03     103.005E-03    -51.6381E-03     35.9852E-03
             411     5.12832E-03     67.9585E-03    -60.2137E+06    -142.832E+06    -24.4255E+06     81.6362E+03    -51.8937E-03     103.686E-03    -51.7919E-03     41.8649E-03    -51.9931E-03     103.135E-03    -51.6196E-03     41.6595E-03
             412     5.98315E-03     68.0029E-03    -54.4921E+06    -127.255E+06    -15.9867E+06     123.900E+03    -51.9581E-03     103.743E-03    -51.7849E-03     46.8783E-03    -52.0799E-03     103.266E-03    -51.6013E-03     46.6301E-03
             413     6.83801E-03     68.0519E-03    -49.2245E+06    -111.978E+06    -8.56216E+06     157.436E+03    -52.0153E-03     103.790E-03    -51.7745E-03     51.0866E-03    -52.1626E-03     103.390E-03    -51.5836E-03     50.7939E-03
             414     7.69290E-03     68.1047E-03    -44.3417E+06    -95.8095E+06    -1.73607E+06     179.538E+03    -52.0511E-03     103.812E-03    -51.7610E-03     54.3957E-03    -52.2284E-03     103.497E-03    -51.5665E-03     54.0587E-03
             415     8.54780E-03     68.1603E-03    -39.7621E+06    -79.0847E+06     4.89846E+06     196.998E+03    -52.0582E-03     103.805E-03    -51.7468E-03     56.6834E-03    -52.2683E-03     103.579E-03    -51.5500E-03     56.3041E-03
             416     9.40274E-03     68.2176E-03    -35.4149E+06    -60.2283E+06     11.5029E+06     210.154E+03    -52.0250E-03     103.755E-03    -51.7299E-03     57.8174E-03    -52.2710E-03     103.628E-03    -51.5337E-03     57.4012E-03
             417     10.2577E-03     68.2754E-03    -31.2429E+06    -42.3630E+06     18.0556E+06     212.371E+03    -51.9566E-03     103.671E-03    -51.7146E-03     57.5700E-03    -52.2336E-03     103.635E-03    -51.5176E-03     57.1253E-03
             418     11.1127E-03     68.3321E-03    -27.2288E+06    -21.9996E+06     23.9695E+06     220.197E+03    -51.8400E-03     103.533E-03    -51.6929E-03     55.7275E-03    -52.1442E-03     103.593E-03    -51.5017E-03     55.2660E-03
             419     11.9677E-03     68.3861E-03    -23.3278E+06     369.222E+03     30.8460E+06     218.653E+03    -51.6733E-03     103.346E-03    -51.6731E-03     52.1001E-03    -51.9999E-03     103.502E-03    -51.4856E-03     51.6337E-03
             420     12.8227E-03     68.4356E-03    -19.5509E+06     21.3015E+06     35.1212E+06     210.099E+03    -51.4904E-03     103.133E-03    -51.6425E-03     46.6676E-03    -51.8248E-03     103.372E-03    -51.4694E-03     46.2061E-03
             421     13.6778E-03     68.4787E-03    -15.8156E+06     64.1533E+06     44.9009E+06     208.562E+03    -51.2051E-03     102.811E-03    -51.6062E-03     39.9012E-03    -51.5798E-03     103.227E-03    -51.4517E-03     39.4526E-03
             422     14.5330E-03     68.5146E-03    -12.0049E+06     99.4614E+06     53.7946E+06     220.850E+03    -50.9579E-03     102.532E-03    -51.5739E-03     31.6061E-03    -51.3538E-03     103.082E-03    -51.4317E-03     31.1784E-03
             423     15.3882E-03     68.5412E-03    -8.17088E+06     109.945E+06     61.4511E+06     149.675E+03    -50.8111E-03     102.382E-03    -51.5713E-03     20.8272E-03    -51.1901E-03     102.945E-03    -51.4116E-03     20.4095E-03
             424     16.2434E-03     68.5555E-03    -4.15569E+06     114.807E+06     75.2224E+06    -4.37283E+03    -50.7258E-03     102.334E-03    -51.6084E-03     6.88472E-03    -51.0718E-03     102.855E-03    -51.3928E-03     6.54610E-03
             425     854.652E-06     68.8792E-03    -86.3502E+06    -193.186E+06    -84.0122E+06         536.576    -51.7149E-03     103.372E-03    -51.6573E-03     8.68428E-03    -51.7461E-03     102.655E-03    -51.6720E-03     8.65208E-03
             426     1.70931E-03     68.8913E-03    -83.1043E+06    -186.973E+06    -74.8359E+06     26.3081E+03    -51.6983E-03     103.407E-03    -51.7083E-03     15.7890E-03    -51.7386E-03     102.705E-03    -51.6908E-03     15.7289E-03
             427     2.56401E-03     68.9107E-03    -78.3386E+06    -177.883E+06    -62.0727E+06     39.2999E+03    -51.7239E-03     103.462E-03    -51.7377E-03     22.9915E-03    -51.7772E-03     102.785E-03    -51.6766E-03     22.8996E-03
             428     3.41874E-03     68.9371E-03    -72.5593E+06    -167.298E+06    -47.9164E+06     55.4915E+03    -51.7666E-03     103.534E-03    -51.7676E-03     29.8342E-03    -51.8345E-03     102.890E-03    -51.6594E-03     29.7076E-03
             429     4.27351E-03     68.9702E-03    -66.3595E+06    -156.468E+06    -34.9573E+06     66.5500E+03    -51.8288E-03     103.618E-03    -51.7893E-03     36.1585E-03    -51.9106E-03     103.010E-03    -51.6409E-03     35.9939E-03
             430     5.12831E-03     69.0093E-03    -60.2583E+06    -142.907E+06    -24.4677E+06     90.9721E+03    -51.8959E-03     103.691E-03    -51.7946E-03     41.8748E-03    -51.9954E-03     103.140E-03    -51.6224E-03     41.6695E-03
             431     5.98314E-03     69.0537E-03    -54.5387E+06    -127.341E+06    -16.0130E+06     143.701E+03    -51.9601E-03     103.748E-03    -51.7876E-03     46.8898E-03    -52.0820E-03     103.270E-03    -51.6039E-03     46.6418E-03
             432     6.83799E-03     69.1027E-03    -49.2580E+06    -112.033E+06    -8.58001E+06     181.981E+03    -52.0166E-03     103.794E-03    -51.7770E-03     51.0995E-03    -52.1641E-03     103.393E-03    -51.5860E-03     50.8071E-03
             433     7.69288E-03     69.1555E-03    -44.3605E+06    -95.8593E+06    -1.74945E+06     201.074E+03    -52.0519E-03     103.815E-03    -51.7633E-03     54.4095E-03    -52.2292E-03     103.500E-03    -51.5688E-03     54.0727E-03
             434     8.54778E-03     69.2111E-03    -39.7729E+06    -79.1299E+06     4.88742E+06     217.052E+03    -52.0586E-03     103.807E-03    -51.7489E-03     56.6982E-03    -52.2687E-03     103.581E-03    -51.5520E-03     56.3191E-03
             435     9.40272E-03     69.2684E-03    -35.4170E+06    -60.2646E+06     11.4975E+06     227.050E+03    -52.0250E-03     103.757E-03    -51.7318E-03     57.8330E-03    -52.2710E-03     103.630E-03    -51.5355E-03     57.4170E-03
             436     10.2577E-03     69.3262E-03    -31.2463E+06    -42.3904E+06     18.0536E+06     236.055E+03    -51.9561E-03     103.672E-03    -51.7163E-03     57.5860E-03    -52.2332E-03     103.636E-03    -51.5192E-03     57.1416E-03
             437     11.1127E-03     69.3830E-03    -27.2378E+06    -22.0206E+06     23.9665E+06     229.097E+03    -51.8390E-03     103.533E-03    -51.6943E-03     55.7441E-03    -52.1433E-03     103.593E-03    -51.5031E-03     55.2826E-03
             438     11.9677E-03     69.4370E-03    -23.3341E+06     361.437E+03     30.8464E+06     217.381E+03    -51.6719E-03     103.346E-03    -51.6743E-03     52.1167E-03    -51.9986E-03     103.502E-03    -51.4868E-03     51.6503E-03
             439     12.8227E-03     69.4865E-03    -19.5772E+06     21.3105E+06     35.1192E+06     190.859E+03    -51.4887E-03     103.132E-03    -51.6435E-03     46.6837E-03    -51.8233E-03     103.371E-03    -51.4704E-03     46.2219E-03
             440     13.6778E-03     69.5297E-03    -15.8280E+06     64.1258E+06     44.8916E+06     176.121E+03    -51.2030E-03     102.810E-03    -51.6070E-03     39.9164E-03    -51.5778E-03     103.226E-03    -51.4526E-03     39.4674E-03
             441     14.5330E-03     69.5656E-03    -11.9715E+06     99.3421E+06     53.7729E+06     254.133E+03    -50.9552E-03     102.530E-03    -51.5745E-03     31.6198E-03    -51.3509E-03     103.080E-03    -51.4323E-03     31.1925E-03
             442     15.3882E-03     69.5922E-03    -8.13995E+06     110.166E+06     61.5619E+06     212.362E+03    -50.8058E-03     102.378E-03    -51.5718E-03     20.8373E-03    -51.1853E-03     102.941E-03    -51.4120E-03     20.4204E-03
             443     16.2434E-03     69.6065E-03    -4.16029E+06     115.015E+06     75.2925E+06     6.67511E+03    -50.7214E-03     102.330E-03    -51.6086E-03     6.88984E-03    -51.0679E-03     102.852E-03    -51.3929E-03     6.55137E-03
             444     854.644E-06     69.9299E-03    -86.3940E+06    -193.228E+06    -84.0337E+06    -4.44641E+03    -51.7176E-03     103.377E-03    -51.6597E-03     8.68587E-03    -51.7489E-03     102.660E-03    -51.6744E-03     8.65360E-03
             445     1.70931E-03     69.9420E-03    -83.1507E+06    -187.017E+06    -74.8666E+06     23.4704E+03    -51.7012E-03     103.412E-03    -51.7109E-03     15.7919E-03    -51.7415E-03     102.711E-03    -51.6935E-03     15.7318E-03
             446     2.56400E-03     69.9615E-03    -78.3717E+06    -177.928E+06    -62.1148E+06     54.6846E+03    -51.7266E-03     103.467E-03    -51.7404E-03     22.9960E-03    -51.7800E-03     102.791E-03    -51.6793E-03     22.9044E-03
             447     3.41873E-03     69.9879E-03    -72.5987E+06    -167.336E+06    -47.9941E+06     75.1113E+03    -51.7690E-03     103.539E-03    -51.7700E-03     29.8403E-03    -51.8369E-03     102.894E-03    -51.6620E-03     29.7140E-03
             448     4.27350E-03     70.0210E-03    -66.3976E+06    -156.498E+06    -35.0143E+06     84.5972E+03    -51.8311E-03     103.623E-03    -51.7917E-03     36.1659E-03    -51.9129E-03     103.015E-03    -51.6435E-03     36.0015E-03
             449     5.12830E-03     70.0601E-03    -60.2898E+06    -142.986E+06    -24.4806E+06     115.983E+03    -51.8984E-03     103.696E-03    -51.7972E-03     41.8832E-03    -51.9979E-03     103.144E-03    -51.6249E-03     41.6781E-03
             450     5.98312E-03     70.1045E-03    -54.5718E+06    -127.431E+06    -16.0307E+06     159.790E+03    -51.9621E-03     103.752E-03    -51.7901E-03     46.8998E-03    -52.0841E-03     103.275E-03    -51.6064E-03     46.6518E-03
             451     6.83798E-03     70.1536E-03    -49.2822E+06    -112.087E+06    -8.60188E+06     189.555E+03    -52.0179E-03     103.797E-03    -51.7793E-03     51.1113E-03    -52.1654E-03     103.397E-03    -51.5883E-03     50.8189E-03
             452     7.69286E-03     70.2064E-03    -44.3735E+06    -95.9142E+06    -1.76753E+06     209.827E+03    -52.0529E-03     103.818E-03    -51.7655E-03     54.4224E-03    -52.2303E-03     103.503E-03    -51.5709E-03     54.0856E-03
             453     8.54777E-03     70.2620E-03    -39.7770E+06    -79.1785E+06     4.87404E+06     229.394E+03    -52.0593E-03     103.810E-03    -51.7509E-03     56.7121E-03    -52.2695E-03     103.584E-03    -51.5540E-03     56.3332E-03
             454     9.40270E-03     70.3193E-03    -35.4242E+06    -60.3032E+06     11.4862E+06     243.430E+03    -52.0253E-03     103.759E-03    -51.7336E-03     57.8474E-03    -52.2713E-03     103.632E-03    -51.5373E-03     57.4316E-03
             455     10.2577E-03     70.3771E-03    -31.2446E+06    -42.4259E+06     18.0466E+06     250.248E+03    -51.9559E-03     103.674E-03    -51.7179E-03     57.6008E-03    -52.2330E-03     103.637E-03    -51.5209E-03     57.1565E-03
             456     11.1126E-03     70.4339E-03    -27.2344E+06    -22.0309E+06     23.9676E+06     253.004E+03    -51.8384E-03     103.534E-03    -51.6958E-03     55.7595E-03    -52.1427E-03     103.594E-03    -51.5045E-03     55.2983E-03
             457     11.9677E-03     70.4879E-03    -23.3557E+06     369.389E+03     30.8448E+06     229.160E+03    -51.6708E-03     103.346E-03    -51.6756E-03     52.1322E-03    -51.9977E-03     103.502E-03    -51.4880E-03     51.6658E-03
             458     12.8227E-03     70.5374E-03    -19.6087E+06     21.3339E+06     35.1174E+06     197.801E+03    -51.4871E-03     103.132E-03    -51.6445E-03     46.6987E-03    -51.8219E-03     103.371E-03    -51.4715E-03     46.2369E-03
             459     13.6778E-03     70.5806E-03    -15.8993E+06     64.1432E+06     44.8725E+06     150.971E+03    -51.2008E-03     102.809E-03    -51.6078E-03     39.9308E-03    -51.5760E-03     103.225E-03    -51.4534E-03     39.4814E-03
             460     14.5330E-03     70.6165E-03    -11.9543E+06     99.2415E+06     53.7443E+06     111.951E+03    -50.9524E-03     102.527E-03    -51.5751E-03     31.6327E-03    -51.3478E-03     103.077E-03    -51.4330E-03     31.2035E-03
             461     15.3882E-03     70.6431E-03    -7.87949E+06     110.230E+06     61.6586E+06     152.051E+03    -50.8025E-03     102.375E-03    -51.5723E-03     20.8463E-03    -51.1809E-03     102.938E-03    -51.4124E-03     20.4286E-03
             462     16.2434E-03     70.6575E-03    -3.87067E+06     115.182E+06     75.4057E+06     147.800E+03    -50.7187E-03     102.327E-03    -51.6087E-03     6.89440E-03    -51.0641E-03     102.849E-03    -51.3930E-03     6.55777E-03
             463     854.647E-06     70.9807E-03    -86.4149E+06    -193.261E+06    -84.0423E+06     35.7268E+03    -51.7202E-03     103.382E-03    -51.6622E-03     8.68748E-03    -51.7516E-03     102.665E-03    -51.6769E-03     8.65573E-03
             464     1.70930E-03     70.9928E-03    -83.1939E+06    -187.070E+06    -74.9001E+06     45.8792E+03    -51.7037E-03     103.417E-03    -51.7135E-03     15.7949E-03    -51.7442E-03     102.715E-03    -51.6961E-03     15.7350E-03
             465     2.56400E-03     71.0122E-03    -78.4323E+06    -177.986E+06    -62.1596E+06     64.1843E+03    -51.7291E-03     103.472E-03    -51.7429E-03     23.0000E-03    -51.7826E-03     102.796E-03    -51.6819E-03     22.9085E-03
             466     3.41872E-03     71.0387E-03    -72.6454E+06    -167.377E+06    -48.0273E+06     81.2480E+03    -51.7715E-03     103.544E-03    -51.7725E-03     29.8454E-03    -51.8395E-03     102.899E-03    -51.6646E-03     29.7192E-03
             467     4.27349E-03     71.0718E-03    -66.4331E+06    -156.544E+06    -35.0293E+06     100.580E+03    -51.8334E-03     103.628E-03    -51.7943E-03     36.1724E-03    -51.9154E-03     103.020E-03    -51.6461E-03     36.0082E-03
             468     5.12828E-03     71.1109E-03    -60.3203E+06    -143.070E+06    -24.4901E+06     133.873E+03    -51.9006E-03     103.700E-03    -51.7999E-03     41.8907E-03    -52.0002E-03     103.149E-03    -51.6274E-03     41.6859E-03
             469     5.98311E-03     71.1553E-03    -54.5847E+06    -127.504E+06    -16.0489E+06     169.496E+03    -51.9640E-03     103.757E-03    -51.7926E-03     46.9086E-03    -52.0860E-03     103.279E-03    -51.6088E-03     46.6608E-03
             470     6.83796E-03     71.2044E-03    -49.2922E+06    -112.141E+06    -8.62834E+06     190.466E+03    -52.0194E-03     103.801E-03    -51.7816E-03     51.1218E-03    -52.1668E-03     103.400E-03    -51.5906E-03     50.8294E-03
             471     7.69285E-03     71.2572E-03    -44.3853E+06    -95.9755E+06    -1.79618E+06     212.166E+03    -52.0541E-03     103.822E-03    -51.7676E-03     54.4343E-03    -52.2314E-03     103.506E-03    -51.5730E-03     54.0975E-03
             472     8.54775E-03     71.3128E-03    -39.7889E+06    -79.2311E+06     4.85023E+06     233.990E+03    -52.0602E-03     103.813E-03    -51.7528E-03     56.7251E-03    -52.2703E-03     103.587E-03    -51.5560E-03     56.3461E-03
             473     9.40268E-03     71.3701E-03    -35.4253E+06    -60.3555E+06     11.4667E+06     255.536E+03    -52.0259E-03     103.761E-03    -51.7354E-03     57.8611E-03    -52.2718E-03     103.634E-03    -51.5392E-03     57.4454E-03
             474     10.2576E-03     71.4280E-03    -31.2538E+06    -42.4526E+06     18.0337E+06     265.086E+03    -51.9560E-03     103.676E-03    -51.7196E-03     57.6153E-03    -52.2331E-03     103.639E-03    -51.5225E-03     57.1711E-03
             475     11.1126E-03     71.4847E-03    -27.2352E+06    -22.0585E+06     23.9593E+06     261.492E+03    -51.8380E-03     103.535E-03    -51.6973E-03     55.7745E-03    -52.1423E-03     103.595E-03    -51.5060E-03     55.3133E-03
             476     11.9677E-03     71.5388E-03    -23.3422E+06     365.478E+03     30.8483E+06     271.025E+03    -51.6699E-03     103.347E-03    -51.6769E-03     52.1470E-03    -51.9968E-03     103.503E-03    -51.4893E-03     51.6812E-03
             477     12.8227E-03     71.5883E-03    -19.6412E+06     21.3638E+06     35.1168E+06     247.436E+03    -51.4855E-03     103.131E-03    -51.6457E-03     46.7130E-03    -51.8206E-03     103.371E-03    -51.4726E-03     46.2518E-03
             478     13.6778E-03     71.6315E-03    -15.9535E+06     64.2358E+06     44.8792E+06     166.858E+03    -51.1984E-03     102.807E-03    -51.6087E-03     39.9444E-03    -51.5741E-03     103.224E-03    -51.4544E-03     39.4952E-03
             479     14.5330E-03     71.6675E-03    -12.1441E+06     99.3882E+06     53.7172E+06    -9.98506E+03    -50.9493E-03     102.525E-03    -51.5758E-03     31.6450E-03    -51.3459E-03     103.076E-03    -51.4337E-03     31.2142E-03
             480     15.3882E-03     71.6941E-03    -8.27579E+06     109.990E+06     61.4559E+06     11.4845E+03    -50.7984E-03     102.371E-03    -51.5727E-03     20.8550E-03    -51.1781E-03     102.934E-03    -51.4129E-03     20.4355E-03
             481     16.2434E-03     71.7084E-03    -4.19986E+06     115.127E+06     75.3619E+06     233.600E+03    -50.7115E-03     102.321E-03    -51.6093E-03     6.89808E-03    -51.0585E-03     102.843E-03    -51.3933E-03     6.56258E-03
             482     854.640E-06     72.0315E-03    -86.4891E+06    -193.351E+06    -84.1486E+06     63.3206E+03    -51.7225E-03     103.387E-03    -51.6645E-03     8.68890E-03    -51.7539E-03     102.669E-03    -51.6795E-03     8.65749E-03
             483     1.70930E-03     72.0436E-03    -83.2586E+06    -187.130E+06    -74.9615E+06     81.7105E+03    -51.7061E-03     103.422E-03    -51.7158E-03     15.7975E-03    -51.7467E-03     102.720E-03    -51.6986E-03     15.7381E-03
             484     2.56399E-03     72.0630E-03    -78.4889E+06    -178.028E+06    -62.1578E+06     89.8297E+03    -51.7317E-03     103.477E-03    -51.7456E-03     23.0039E-03    -51.7854E-03     102.801E-03    -51.6844E-03     22.9126E-03
             485     3.41872E-03     72.0895E-03    -72.7108E+06    -167.433E+06    -48.0162E+06     95.6243E+03    -51.7740E-03     103.549E-03    -51.7753E-03     29.8504E-03    -51.8424E-03     102.904E-03    -51.6672E-03     29.7243E-03
             486     4.27348E-03     72.1226E-03    -66.5038E+06    -156.601E+06    -35.0658E+06     118.725E+03    -51.8357E-03     103.633E-03    -51.7968E-03     36.1787E-03    -51.9179E-03     103.024E-03    -51.6487E-03     36.0147E-03
             487     5.12827E-03     72.1617E-03    -60.3821E+06    -143.136E+06    -24.5586E+06     138.335E+03    -51.9026E-03     103.705E-03    -51.8022E-03     41.8982E-03    -52.0022E-03     103.153E-03    -51.6299E-03     41.6934E-03
             488     5.98309E-03     72.2061E-03    -54.6403E+06    -127.572E+06    -16.0987E+06     161.200E+03    -51.9659E-03     103.761E-03    -51.7949E-03     46.9171E-03    -52.0879E-03     103.283E-03    -51.6112E-03     46.6691E-03
             489     6.83795E-03     72.2552E-03    -49.3356E+06    -112.193E+06    -8.67083E+06     184.936E+03    -52.0210E-03     103.805E-03    -51.7838E-03     51.1313E-03    -52.1685E-03     103.404E-03    -51.5929E-03     50.8388E-03
             490     7.69283E-03     72.3080E-03    -44.4159E+06    -96.0340E+06    -1.83985E+06     201.039E+03    -52.0554E-03     103.825E-03    -51.7697E-03     54.4450E-03    -52.2327E-03     103.509E-03    -51.5752E-03     54.1080E-03
             491     8.54773E-03     72.3637E-03    -39.8014E+06    -79.2920E+06     4.81365E+06     224.495E+03    -52.0611E-03     103.816E-03    -51.7548E-03     56.7368E-03    -52.2712E-03     103.589E-03    -51.5580E-03     56.3576E-03
             492     9.40267E-03     72.4210E-03    -35.4240E+06    -60.4122E+06     11.4396E+06     246.663E+03    -52.0264E-03     103.764E-03    -51.7372E-03     57.8735E-03    -52.2722E-03     103.636E-03    -51.5410E-03     57.4576E-03
             493     10.2576E-03     72.4788E-03    -31.2225E+06    -42.5008E+06     18.0213E+06     272.002E+03    -51.9562E-03     103.677E-03    -51.7212E-03     57.6286E-03    -52.2331E-03     103.640E-03    -51.5242E-03     57.1844E-03
             494     11.1126E-03     72.5356E-03    -27.2213E+06    -22.0837E+06     23.9530E+06     288.383E+03    -51.8378E-03     103.537E-03    -51.6988E-03     55.7887E-03    -52.1421E-03     103.596E-03    -51.5075E-03     55.3278E-03
             495     11.9676E-03     72.5897E-03    -23.3459E+06     316.147E+03     30.8313E+06     295.916E+03    -51.6692E-03     103.347E-03    -51.6782E-03     52.1612E-03    -51.9960E-03     103.503E-03    -51.4907E-03     51.6956E-03
             496     12.8227E-03     72.6393E-03    -19.5930E+06     21.3761E+06     35.1333E+06     309.333E+03    -51.4839E-03     103.131E-03    -51.6468E-03     46.7266E-03    -51.8189E-03     103.370E-03    -51.4737E-03     46.2661E-03
             497     13.6778E-03     72.6825E-03    -15.9495E+06     64.3425E+06     44.9123E+06     260.175E+03    -51.1960E-03     102.806E-03    -51.6097E-03     39.9572E-03    -51.5719E-03     103.223E-03    -51.4553E-03     39.5091E-03
             498     14.5330E-03     72.7184E-03    -12.2360E+06     99.6824E+06     53.7672E+06     93.8752E+03    -50.9457E-03     102.522E-03    -51.5765E-03     31.6564E-03    -51.3433E-03     103.074E-03    -51.4344E-03     31.2270E-03
             499     15.3881E-03     72.7451E-03    -8.44440E+06     109.768E+06     61.2615E+06     18.2612E+03    -50.7981E-03     102.371E-03    -51.5729E-03     20.8636E-03    -51.1781E-03     102.933E-03    -51.4135E-03     20.4442E-03
             500     16.2434E-03     72.7594E-03    -4.36070E+06     114.945E+06     75.2516E+06     107.775E+03    -50.7083E-03     102.318E-03    -51.6097E-03     6.90179E-03    -51.0557E-03     102.840E-03    -51.3938E-03     6.56467E-03
             501     854.643E-06     73.0823E-03    -86.5723E+06    -193.454E+06    -84.2631E+06     49.6837E+03    -51.7250E-03     103.392E-03    -51.6670E-03     8.69003E-03    -51.7566E-03     102.674E-03    -51.6822E-03     8.65844E-03
             502     1.70930E-03     73.0944E-03    -83.3483E+06    -187.239E+06    -75.0897E+06     98.4736E+03    -51.7084E-03     103.427E-03    -51.7181E-03     15.7998E-03    -51.7492E-03     102.724E-03    -51.7012E-03     15.7406E-03
             503     2.56399E-03     73.1138E-03    -78.5933E+06    -178.085E+06    -62.2918E+06     127.907E+03    -51.7340E-03     103.482E-03    -51.7477E-03     23.0073E-03    -51.7879E-03     102.805E-03    -51.6870E-03     22.9166E-03
             504     3.41871E-03     73.1403E-03    -72.8187E+06    -167.470E+06    -48.1028E+06     128.759E+03    -51.7764E-03     103.554E-03    -51.7777E-03     29.8551E-03    -51.8451E-03     102.909E-03    -51.6698E-03     29.7294E-03
             505     4.27347E-03     73.1734E-03    -66.5920E+06    -156.652E+06    -35.1245E+06     122.698E+03    -51.8380E-03     103.637E-03    -51.7993E-03     36.1845E-03    -51.9205E-03     103.029E-03    -51.6512E-03     36.0205E-03
             506     5.12826E-03     73.2125E-03    -60.4582E+06    -143.190E+06    -24.6292E+06     136.703E+03    -51.9047E-03     103.709E-03    -51.8046E-03     41.9050E-03    -52.0046E-03     103.158E-03    -51.6324E-03     41.7001E-03
             507     5.98308E-03     73.2569E-03    -54.7172E+06    -127.627E+06    -16.1602E+06     151.949E+03    -51.9679E-03     103.765E-03    -51.7973E-03     46.9246E-03    -52.0902E-03     103.287E-03    -51.6137E-03     46.6765E-03
             508     6.83793E-03     73.3060E-03    -49.4050E+06    -112.237E+06    -8.72812E+06     157.285E+03    -52.0229E-03     103.809E-03    -51.7861E-03     51.1397E-03    -52.1707E-03     103.408E-03    -51.5953E-03     50.8467E-03
             509     7.69281E-03     73.3589E-03    -44.4647E+06    -96.0844E+06    -1.89747E+06     167.862E+03    -52.0569E-03     103.829E-03    -51.7719E-03     54.4544E-03    -52.2344E-03     103.513E-03    -51.5776E-03     54.1169E-03
             510     8.54771E-03     73.4145E-03    -39.8298E+06    -79.3504E+06     4.75890E+06     182.905E+03    -52.0622E-03     103.819E-03    -51.7568E-03     56.7471E-03    -52.2723E-03     103.592E-03    -51.5602E-03     56.3673E-03
             511     9.40265E-03     73.4719E-03    -35.4233E+06    -60.4754E+06     11.3965E+06     209.048E+03    -52.0270E-03     103.766E-03    -51.7391E-03     57.8843E-03    -52.2728E-03     103.638E-03    -51.5431E-03     57.4678E-03
             512     10.2576E-03     73.5297E-03    -31.1986E+06    -42.5605E+06     17.9897E+06     232.384E+03    -51.9564E-03     103.679E-03    -51.7230E-03     57.6398E-03    -52.2331E-03     103.642E-03    -51.5261E-03     57.1951E-03
             513     11.1126E-03     73.5865E-03    -27.1371E+06    -22.1904E+06     23.9367E+06     301.969E+03    -51.8377E-03     103.538E-03    -51.7004E-03     55.7997E-03    -52.1414E-03     103.597E-03    -51.5092E-03     55.3389E-03
             514     11.9676E-03     73.6406E-03    -23.2639E+06     284.565E+03     30.8420E+06     358.515E+03    -51.6684E-03     103.348E-03    -51.6797E-03     52.1722E-03    -51.9949E-03     103.504E-03    -51.4922E-03     51.7074E-03
             515     12.8227E-03     73.6902E-03    -19.5448E+06     21.3917E+06     35.1446E+06     310.491E+03    -51.4822E-03     103.130E-03    -51.6480E-03     46.7380E-03    -51.8170E-03     103.370E-03    -51.4750E-03     46.2775E-03
             516     13.6777E-03     73.7334E-03    -15.7437E+06     64.3749E+06     44.9815E+06     278.362E+03    -51.1936E-03     102.804E-03    -51.6107E-03     39.9680E-03    -51.5685E-03     103.221E-03    -51.4563E-03     39.5202E-03
             517     14.5329E-03     73.7694E-03    -11.8737E+06     99.8975E+06     53.9577E+06     214.330E+03    -50.9437E-03     102.521E-03    -51.5773E-03     31.6659E-03    -51.3401E-03     103.073E-03    -51.4352E-03     31.2380E-03
             518     15.3881E-03     73.7960E-03    -8.07077E+06     109.766E+06     61.3206E+06     108.011E+03    -50.7989E-03     102.372E-03    -51.5733E-03     20.8710E-03    -51.1772E-03     102.934E-03    -51.4141E-03     20.4528E-03
             519     16.2434E-03     73.8104E-03    -4.12252E+06     114.899E+06     75.0984E+06     49.6282E+03    -50.7108E-03     102.320E-03    -51.6092E-03     6.90617E-03    -51.0567E-03     102.841E-03    -51.3944E-03     6.56832E-03
             520     854.635E-06     74.1331E-03    -86.6891E+06    -193.569E+06    -84.3487E+06     45.9083E+03    -51.7278E-03     103.398E-03    -51.6698E-03     8.69142E-03    -51.7597E-03     102.679E-03    -51.6851E-03     8.65978E-03
             521     1.70929E-03     74.1452E-03    -83.4599E+06    -187.376E+06    -75.2060E+06     96.5277E+03    -51.7111E-03     103.432E-03    -51.7209E-03     15.8020E-03    -51.7520E-03     102.729E-03    -51.7042E-03     15.7428E-03
             522     2.56398E-03     74.1646E-03    -78.6942E+06    -178.186E+06    -62.4809E+06     153.211E+03    -51.7363E-03     103.486E-03    -51.7499E-03     23.0104E-03    -51.7904E-03     102.810E-03    -51.6898E-03     22.9200E-03
             523     3.41870E-03     74.1911E-03    -72.9347E+06    -167.477E+06    -48.3477E+06     153.591E+03    -51.7785E-03     103.558E-03    -51.7793E-03     29.8591E-03    -51.8474E-03     102.913E-03    -51.6725E-03     29.7337E-03
             524     4.27345E-03     74.2242E-03    -66.7326E+06    -156.676E+06    -35.3044E+06     121.083E+03    -51.8403E-03     103.642E-03    -51.8013E-03     36.1896E-03    -51.9232E-03     103.034E-03    -51.6539E-03     36.0255E-03
             525     5.12824E-03     74.2633E-03    -60.5969E+06    -143.247E+06    -24.7241E+06     122.514E+03    -51.9071E-03     103.714E-03    -51.8070E-03     41.9111E-03    -52.0075E-03     103.163E-03    -51.6351E-03     41.7060E-03
             526     5.98306E-03     74.3078E-03    -54.8274E+06    -127.654E+06    -16.2445E+06     125.382E+03    -51.9702E-03     103.770E-03    -51.7997E-03     46.9317E-03    -52.0929E-03     103.292E-03    -51.6163E-03     46.6832E-03
             527     6.83791E-03     74.3569E-03    -49.4953E+06    -112.260E+06    -8.80842E+06     115.486E+03    -52.0250E-03     103.813E-03    -51.7885E-03     51.1476E-03    -52.1731E-03     103.413E-03    -51.5980E-03     50.8540E-03
             528     7.69279E-03     74.4097E-03    -44.5440E+06    -96.1185E+06    -1.97889E+06     108.167E+03    -52.0587E-03     103.833E-03    -51.7742E-03     54.4631E-03    -52.2364E-03     103.517E-03    -51.5801E-03     54.1248E-03
             529     8.54770E-03     74.4654E-03    -39.8916E+06    -79.3939E+06     4.67707E+06     113.940E+03    -52.0634E-03     103.822E-03    -51.7590E-03     56.7570E-03    -52.2737E-03     103.596E-03    -51.5627E-03     56.3763E-03
             530     9.40262E-03     74.5227E-03    -35.4652E+06    -60.5328E+06     11.3188E+06     126.138E+03    -52.0279E-03     103.769E-03    -51.7412E-03     57.8949E-03    -52.2737E-03     103.641E-03    -51.5454E-03     57.4773E-03
             531     10.2576E-03     74.5806E-03    -31.2212E+06    -42.6405E+06     17.9157E+06     169.512E+03    -51.9569E-03     103.682E-03    -51.7249E-03     57.6507E-03    -52.2336E-03     103.644E-03    -51.5282E-03     57.2051E-03
             532     11.1126E-03     74.6374E-03    -27.1333E+06    -22.3088E+06     23.8638E+06     211.519E+03    -51.8375E-03     103.540E-03    -51.7022E-03     55.8108E-03    -52.1409E-03     103.598E-03    -51.5112E-03     55.3488E-03
             533     11.9676E-03     74.6915E-03    -23.1176E+06     118.368E+03     30.8077E+06     331.232E+03    -51.6673E-03     103.348E-03    -51.6812E-03     52.1831E-03    -51.9928E-03     103.503E-03    -51.4938E-03     51.7179E-03
             534     12.8227E-03     74.7411E-03    -19.4060E+06     21.4167E+06     35.1758E+06     440.898E+03    -51.4803E-03     103.130E-03    -51.6494E-03     46.7484E-03    -51.8145E-03     103.369E-03    -51.4764E-03     46.2896E-03
             535     13.6777E-03     74.7843E-03    -15.8485E+06     64.5587E+06     44.9870E+06     256.940E+03    -51.1908E-03     102.803E-03    -51.6118E-03     39.9778E-03    -51.5666E-03     103.221E-03    -51.4574E-03     39.5297E-03
             536     14.5329E-03     74.8203E-03    -12.0122E+06     99.8317E+06     53.8708E+06     191.873E+03    -50.9399E-03     102.518E-03    -51.5781E-03     31.6740E-03    -51.3368E-03     103.070E-03    -51.4361E-03     31.2458E-03
             537     15.3881E-03     74.8470E-03    -8.19297E+06     109.850E+06     61.2938E+06     258.419E+03    -50.7948E-03     102.369E-03    -51.5739E-03     20.8766E-03    -51.1737E-03     102.931E-03    -51.4148E-03     20.4603E-03
             538     16.2434E-03     74.8613E-03    -4.24880E+06     115.097E+06     74.9976E+06     70.9072E+03    -50.7094E-03     102.319E-03    -51.6092E-03     6.90942E-03    -51.0561E-03     102.841E-03    -51.3949E-03     6.57187E-03
             539     854.637E-06     75.1839E-03    -86.8193E+06    -193.702E+06    -84.4626E+06     56.4755E+03    -51.7307E-03     103.403E-03    -51.6726E-03     8.69259E-03    -51.7628E-03     102.685E-03    -51.6882E-03     8.66108E-03
             540     1.70929E-03     75.1960E-03    -83.5907E+06    -187.497E+06    -75.3159E+06     110.958E+03    -51.7140E-03     103.438E-03    -51.7238E-03     15.8040E-03    -51.7552E-03     102.735E-03    -51.7073E-03     15.7449E-03
             541     2.56397E-03     75.2154E-03    -78.8315E+06    -178.314E+06    -62.6252E+06     152.649E+03    -51.7390E-03     103.492E-03    -51.7527E-03     23.0135E-03    -51.7934E-03     102.815E-03    -51.6929E-03     22.9230E-03
             542     3.41869E-03     75.2419E-03    -73.0652E+06    -167.487E+06    -48.6023E+06     159.847E+03    -51.7808E-03     103.562E-03    -51.7813E-03     29.8629E-03    -51.8500E-03     102.918E-03    -51.6755E-03     29.7376E-03
             543     4.27344E-03     75.2750E-03    -66.8677E+06    -156.659E+06    -35.5281E+06     115.271E+03    -51.8426E-03     103.646E-03    -51.8033E-03     36.1943E-03    -51.9259E-03     103.039E-03    -51.6568E-03     36.0302E-03
             544     5.12823E-03     75.3141E-03    -60.7252E+06    -143.294E+06    -24.8341E+06     93.9246E+03    -51.9097E-03     103.719E-03    -51.8096E-03     41.9169E-03    -52.0105E-03     103.168E-03    -51.6380E-03     41.7113E-03
             545     5.98305E-03     75.3586E-03    -54.9533E+06    -127.653E+06    -16.3540E+06     84.4666E+03    -51.9726E-03     103.775E-03    -51.8022E-03     46.9384E-03    -52.0957E-03     103.297E-03    -51.6192E-03     46.6892E-03
             546     6.83789E-03     75.4077E-03    -49.6148E+06    -112.261E+06    -8.91886E+06     58.2304E+03    -52.0271E-03     103.818E-03    -51.7909E-03     51.1549E-03    -52.1757E-03     103.418E-03    -51.6008E-03     50.8606E-03
             547     7.69277E-03     75.4605E-03    -44.6532E+06    -96.1184E+06    -2.08624E+06     35.5574E+03    -52.0605E-03     103.837E-03    -51.7766E-03     54.4712E-03    -52.2386E-03     103.521E-03    -51.5829E-03     54.1319E-03
             548     8.54767E-03     75.5162E-03    -39.9915E+06    -79.4161E+06     4.56507E+06     18.7707E+03    -52.0648E-03     103.826E-03    -51.7613E-03     56.7660E-03    -52.2754E-03     103.600E-03    -51.5653E-03     56.3840E-03
             549     9.40260E-03     75.5736E-03    -35.5611E+06    -60.5740E+06     11.2024E+06     28.9130E+03    -52.0288E-03     103.772E-03    -51.7433E-03     57.9052E-03    -52.2749E-03     103.644E-03    -51.5479E-03     57.4863E-03
             550     10.2576E-03     75.6315E-03    -31.2875E+06    -42.7161E+06     17.7997E+06     47.0021E+03    -51.9573E-03     103.684E-03    -51.7269E-03     57.6617E-03    -52.2340E-03     103.647E-03    -51.5306E-03     57.2144E-03
             551     11.1126E-03     75.6883E-03    -27.1720E+06    -22.3933E+06     23.7591E+06     96.1143E+03    -51.8372E-03     103.541E-03    -51.7040E-03     55.8219E-03    -52.1406E-03     103.600E-03    -51.5133E-03     55.3583E-03
             552     11.9676E-03     75.7424E-03    -23.1675E+06    -54.6527E+03     30.6821E+06     136.816E+03    -51.6661E-03     103.349E-03    -51.6829E-03     52.1938E-03    -51.9914E-03     103.503E-03    -51.4958E-03     51.7260E-03
             553     12.8226E-03     75.7920E-03    -19.1755E+06     21.0968E+06     35.1023E+06     368.309E+03    -51.4782E-03     103.129E-03    -51.6507E-03     46.7579E-03    -51.8108E-03     103.367E-03    -51.4780E-03     46.2981E-03
             554     13.6777E-03     75.8353E-03    -15.5117E+06     64.7432E+06     45.1077E+06     605.323E+03    -51.1877E-03     102.801E-03    -51.6129E-03     39.9871E-03    -51.5624E-03     103.219E-03    -51.4587E-03     39.5435E-03
             555     14.5329E-03     75.8713E-03    -12.1409E+06     99.9054E+06     53.8646E+06     430.338E+03    -50.9396E-03     102.519E-03    -51.5792E-03     31.6821E-03    -51.3372E-03     103.072E-03    -51.4372E-03     31.2570E-03
             556     15.3881E-03     75.8979E-03    -8.34115E+06     109.964E+06     61.3131E+06     178.330E+03    -50.7910E-03     102.366E-03    -51.5749E-03     20.8815E-03    -51.1709E-03     102.929E-03    -51.4157E-03     20.4642E-03
             557     16.2433E-03     75.9123E-03    -4.11885E+06     115.391E+06     75.3125E+06     6.99855E+03    -50.6944E-03     102.305E-03    -51.6105E-03     6.91397E-03    -51.0413E-03     102.828E-03    -51.3953E-03     6.57562E-03
             558     854.630E-06     76.2347E-03    -86.9348E+06    -193.837E+06    -84.6192E+06     62.6497E+03    -51.7339E-03     103.410E-03    -51.6758E-03     8.69307E-03    -51.7662E-03     102.691E-03    -51.6918E-03     8.66162E-03
             559     1.70928E-03     76.2468E-03    -83.7054E+06    -187.620E+06    -75.4446E+06     117.336E+03    -51.7170E-03     103.444E-03    -51.7269E-03     15.8054E-03    -51.7585E-03     102.741E-03    -51.7107E-03     15.7463E-03
             560     2.56396E-03     76.2662E-03    -78.9154E+06    -178.414E+06    -62.6536E+06     137.295E+03    -51.7422E-03     103.498E-03    -51.7562E-03     23.0161E-03    -51.7968E-03     102.821E-03    -51.6963E-03     22.9254E-03
             561     3.41868E-03     76.2927E-03    -73.1183E+06    -167.516E+06    -48.6305E+06     134.967E+03    -51.7838E-03     103.568E-03    -51.7846E-03     29.8664E-03    -51.8532E-03     102.925E-03    -51.6789E-03     29.7407E-03
             562     4.27343E-03     76.3258E-03    -66.9235E+06    -156.650E+06    -35.6311E+06     123.019E+03    -51.8453E-03     103.651E-03    -51.8061E-03     36.1988E-03    -51.9288E-03     103.045E-03    -51.6601E-03     36.0347E-03
             563     5.12821E-03     76.3649E-03    -60.8322E+06    -143.292E+06    -24.9645E+06     91.5835E+03    -51.9124E-03     103.725E-03    -51.8123E-03     41.9222E-03    -52.0135E-03     103.174E-03    -51.6412E-03     41.7166E-03
             564     5.98303E-03     76.4094E-03    -55.0792E+06    -127.622E+06    -16.4852E+06     40.5293E+03    -51.9752E-03     103.780E-03    -51.8049E-03     46.9443E-03    -52.0988E-03     103.303E-03    -51.6224E-03     46.6946E-03
             565     6.83787E-03     76.4585E-03    -49.7363E+06    -112.228E+06    -9.04733E+06    -8.12437E+03    -52.0294E-03     103.823E-03    -51.7935E-03     51.1615E-03    -52.1785E-03     103.423E-03    -51.6039E-03     50.8662E-03
             566     7.69275E-03     76.5114E-03    -44.7737E+06    -96.0994E+06    -2.21880E+06    -43.7683E+03    -52.0625E-03     103.842E-03    -51.7791E-03     54.4783E-03    -52.2410E-03     103.526E-03    -51.5859E-03     54.1378E-03
             567     8.54765E-03     76.5671E-03    -40.1274E+06    -79.4000E+06     4.42755E+06    -67.2783E+03    -52.0663E-03     103.830E-03    -51.7637E-03     56.7736E-03    -52.2774E-03     103.604E-03    -51.5683E-03     56.3904E-03
             568     9.40257E-03     76.6245E-03    -35.7030E+06    -60.5980E+06     11.0493E+06    -82.7240E+03    -52.0296E-03     103.775E-03    -51.7456E-03     57.9138E-03    -52.2762E-03     103.648E-03    -51.5507E-03     57.4934E-03
             569     10.2575E-03     76.6823E-03    -31.4519E+06    -42.7318E+06     17.6427E+06    -83.4844E+03    -51.9575E-03     103.686E-03    -51.7290E-03     57.6706E-03    -52.2348E-03     103.649E-03    -51.5333E-03     57.2216E-03
             570     11.1125E-03     76.7392E-03    -27.3354E+06    -22.4849E+06     23.5837E+06    -66.2915E+03    -51.8368E-03     103.543E-03    -51.7060E-03     55.8297E-03    -52.1407E-03     103.601E-03    -51.5158E-03     55.3640E-03
             571     11.9675E-03     76.7934E-03    -23.3264E+06    -99.1232E+03     30.5174E+06    -24.0545E+03    -51.6648E-03     103.349E-03    -51.6846E-03     52.2015E-03    -51.9907E-03     103.504E-03    -51.4980E-03     51.7316E-03
             572     12.8226E-03     76.8429E-03    -19.4304E+06     20.7845E+06     34.8247E+06    -9.01289E+03    -51.4759E-03     103.128E-03    -51.6522E-03     46.7659E-03    -51.8089E-03     103.365E-03    -51.4800E-03     46.3012E-03
             573     13.6777E-03     76.8862E-03    -15.2794E+06     64.1083E+06     44.8913E+06     456.491E+03    -51.1848E-03     102.799E-03    -51.6140E-03     39.9926E-03    -51.5571E-03     103.214E-03    -51.4604E-03     39.5471E-03
             574     14.5329E-03     76.9222E-03    -11.2434E+06     100.098E+06     54.1423E+06     909.371E+03    -50.9367E-03     102.517E-03    -51.5802E-03     31.6874E-03    -51.3306E-03     103.069E-03    -51.4384E-03     31.2685E-03
             575     15.3881E-03     76.9489E-03    -7.85832E+06     110.606E+06     61.6781E+06     425.241E+03    -50.7810E-03     102.357E-03    -51.5758E-03     20.8897E-03    -51.1599E-03     102.922E-03    -51.4164E-03     20.4756E-03
             576     16.2434E-03     76.9632E-03    -4.19646E+06     115.516E+06     75.4232E+06    -27.3038E+03    -50.6815E-03     102.292E-03    -51.6110E-03     6.91893E-03    -51.0291E-03     102.817E-03    -51.3953E-03     6.58018E-03
             577     854.630E-06     77.2855E-03    -87.0834E+06    -193.971E+06    -84.7413E+06     56.6884E+03    -51.7375E-03     103.417E-03    -51.6795E-03     8.69408E-03    -51.7702E-03     102.698E-03    -51.6957E-03     8.66255E-03
             578     1.70927E-03     77.2976E-03    -83.8355E+06    -187.751E+06    -75.5571E+06     105.130E+03    -51.7206E-03     103.451E-03    -51.7306E-03     15.8072E-03    -51.7623E-03     102.748E-03    -51.7146E-03     15.7480E-03
             579     2.56395E-03     77.3170E-03    -79.0533E+06    -178.458E+06    -62.8277E+06     114.439E+03    -51.7454E-03     103.505E-03    -51.7594E-03     23.0185E-03    -51.8003E-03     102.828E-03    -51.7002E-03     22.9275E-03
             580     3.41866E-03     77.3435E-03    -73.2832E+06    -167.565E+06    -48.8290E+06     106.783E+03    -51.7868E-03     103.574E-03    -51.7877E-03     29.8696E-03    -51.8567E-03     102.931E-03    -51.6826E-03     29.7436E-03
             581     4.27341E-03     77.3766E-03    -67.0947E+06    -156.693E+06    -35.7845E+06     132.209E+03    -51.8482E-03     103.658E-03    -51.8093E-03     36.2028E-03    -51.9323E-03     103.051E-03    -51.6638E-03     36.0389E-03
             582     5.12819E-03     77.4158E-03    -60.9587E+06    -143.216E+06    -25.1097E+06     83.6078E+03    -51.9151E-03     103.730E-03    -51.8153E-03     41.9270E-03    -52.0168E-03     103.180E-03    -51.6448E-03     41.7212E-03
             583     5.98301E-03     77.4603E-03    -55.1821E+06    -127.551E+06    -16.6336E+06    -11.4083E+03    -51.9778E-03     103.785E-03    -51.8077E-03     46.9497E-03    -52.1018E-03     103.309E-03    -51.6259E-03     46.6992E-03
             584     6.83785E-03     77.5094E-03    -49.8487E+06    -112.180E+06    -9.19683E+06    -67.2931E+03    -52.0319E-03     103.828E-03    -51.7963E-03     51.1675E-03    -52.1813E-03     103.429E-03    -51.6074E-03     50.8714E-03
             585     7.69272E-03     77.5623E-03    -44.9095E+06    -96.0514E+06    -2.37197E+06    -108.945E+03    -52.0645E-03     103.846E-03    -51.7818E-03     54.4847E-03    -52.2436E-03     103.532E-03    -51.5893E-03     54.1434E-03
             586     8.54762E-03     77.6179E-03    -40.2782E+06    -79.3798E+06     4.26491E+06    -135.177E+03    -52.0679E-03     103.834E-03    -51.7663E-03     56.7806E-03    -52.2797E-03     103.609E-03    -51.5715E-03     56.3964E-03
             587     9.40255E-03     77.6753E-03    -35.8905E+06    -60.5545E+06     10.8815E+06    -165.125E+03    -52.0307E-03     103.779E-03    -51.7481E-03     57.9215E-03    -52.2781E-03     103.652E-03    -51.5538E-03     57.4999E-03
             588     10.2575E-03     77.7332E-03    -31.6852E+06    -42.7658E+06     17.4341E+06    -165.247E+03    -51.9577E-03     103.689E-03    -51.7313E-03     57.6783E-03    -52.2360E-03     103.652E-03    -51.5362E-03     57.2282E-03
             589     11.1125E-03     77.7901E-03    -27.6556E+06    -22.4495E+06     23.3568E+06    -180.878E+03    -51.8358E-03     103.544E-03    -51.7080E-03     55.8380E-03    -52.1410E-03     103.603E-03    -51.5186E-03     55.3707E-03
             590     11.9675E-03     77.8442E-03    -23.7015E+06    -182.633E+03     30.2330E+06    -187.076E+03    -51.6628E-03     103.349E-03    -51.6864E-03     52.2095E-03    -51.9901E-03     103.504E-03    -51.5006E-03     51.7374E-03
             591     12.8226E-03     77.8938E-03    -19.9413E+06     20.7579E+06     34.5120E+06    -118.285E+03    -51.4732E-03     103.127E-03    -51.6537E-03     46.7727E-03    -51.8083E-03     103.365E-03    -51.4824E-03     46.3065E-03
             592     13.6777E-03     77.9371E-03    -16.5551E+06     63.0034E+06     44.0183E+06     311.466E+03    -51.1812E-03     102.797E-03    -51.6153E-03     39.9989E-03    -51.5571E-03     103.210E-03    -51.4625E-03     39.5515E-03
             593     14.5329E-03     77.9731E-03    -12.8213E+06     99.9404E+06     53.0187E+06     776.089E+03    -50.9116E-03     102.490E-03    -51.5786E-03     31.6920E-03    -51.3116E-03     103.046E-03    -51.4398E-03     31.2714E-03
             594     15.3881E-03     77.9998E-03    -8.43153E+06     111.689E+06     61.3131E+06     426.220E+03    -50.7559E-03     102.329E-03    -51.5735E-03     20.8927E-03    -51.1388E-03     102.901E-03    -51.4166E-03     20.4787E-03
             595     16.2434E-03     78.0141E-03    -4.07951E+06     115.478E+06     75.3726E+06     9.98624E+03    -50.6825E-03     102.293E-03    -51.6104E-03     6.92118E-03    -51.0294E-03     102.817E-03    -51.3950E-03     6.58294E-03
             596     854.624E-06     78.3363E-03    -87.2190E+06    -194.107E+06    -84.8698E+06     52.0422E+03    -51.7414E-03     103.425E-03    -51.6834E-03     8.69517E-03    -51.7744E-03     102.705E-03    -51.6998E-03     8.66357E-03
             597     1.70927E-03     78.3484E-03    -83.9740E+06    -187.876E+06    -75.6722E+06     99.6775E+03    -51.7246E-03     103.459E-03    -51.7346E-03     15.8091E-03    -51.7667E-03     102.756E-03    -51.7188E-03     15.7498E-03
             598     2.56394E-03     78.3679E-03    -79.1951E+06    -178.475E+06    -63.0276E+06     101.093E+03    -51.7489E-03     103.512E-03    -51.7628E-03     23.0210E-03    -51.8042E-03     102.835E-03    -51.7044E-03     22.9298E-03
             599     3.41865E-03     78.3944E-03    -73.4463E+06    -167.629E+06    -48.9316E+06     109.891E+03    -51.7904E-03     103.582E-03    -51.7916E-03     29.8726E-03    -51.8609E-03     102.939E-03    -51.6867E-03     29.7465E-03
             600     4.27339E-03     78.4275E-03    -67.2342E+06    -156.734E+06    -35.8181E+06     112.917E+03    -51.8517E-03     103.665E-03    -51.8135E-03     36.2067E-03    -51.9363E-03     103.059E-03    -51.6679E-03     36.0424E-03
             601     5.12817E-03     78.4666E-03    -61.0781E+06    -143.084E+06    -25.2771E+06     35.3937E+03    -51.9177E-03     103.736E-03    -51.8185E-03     41.9320E-03    -52.0199E-03     103.187E-03    -51.6488E-03     41.7256E-03
             602     5.98298E-03     78.5111E-03    -55.3108E+06    -127.464E+06    -16.8213E+06    -60.5373E+03    -51.9802E-03     103.791E-03    -51.8107E-03     46.9552E-03    -52.1048E-03     103.315E-03    -51.6298E-03     46.7040E-03
             603     6.83782E-03     78.5602E-03    -49.9876E+06    -112.114E+06    -9.37181E+06    -122.968E+03    -52.0343E-03     103.834E-03    -51.7993E-03     51.1730E-03    -52.1843E-03     103.435E-03    -51.6111E-03     50.8762E-03
             604     7.69269E-03     78.6131E-03    -45.0453E+06    -95.9986E+06    -2.54311E+06    -163.357E+03    -52.0666E-03     103.851E-03    -51.7847E-03     54.4904E-03    -52.2463E-03     103.538E-03    -51.5929E-03     54.1483E-03
             605     8.54759E-03     78.6688E-03    -40.4180E+06    -79.3364E+06     4.09409E+06    -196.054E+03    -52.0697E-03     103.839E-03    -51.7691E-03     56.7867E-03    -52.2820E-03     103.614E-03    -51.5750E-03     56.4017E-03
             606     9.40251E-03     78.7262E-03    -36.0423E+06    -60.5357E+06     10.7014E+06    -195.305E+03    -52.0319E-03     103.783E-03    -51.7507E-03     57.9285E-03    -52.2798E-03     103.657E-03    -51.5572E-03     57.5064E-03
             607     10.2575E-03     78.7841E-03    -31.8697E+06    -42.7550E+06     17.2428E+06    -197.394E+03    -51.9579E-03     103.692E-03    -51.7338E-03     57.6856E-03    -52.2369E-03     103.656E-03    -51.5394E-03     57.2350E-03
             608     11.1125E-03     78.8410E-03    -27.8847E+06    -22.4496E+06     23.1438E+06    -170.319E+03    -51.8347E-03     103.545E-03    -51.7102E-03     55.8456E-03    -52.1409E-03     103.605E-03    -51.5215E-03     55.3784E-03
             609     11.9675E-03     78.8952E-03    -24.0835E+06    -114.637E+03     29.9948E+06    -198.814E+03    -51.6607E-03     103.349E-03    -51.6883E-03     52.2166E-03    -51.9897E-03     103.505E-03    -51.5033E-03     51.7443E-03
             610     12.8225E-03     78.9447E-03    -20.4361E+06     20.4477E+06     34.1285E+06    -51.5855E+03    -51.4702E-03     103.126E-03    -51.6554E-03     46.7785E-03    -51.8068E-03     103.363E-03    -51.4848E-03     46.3132E-03
             611     13.6776E-03     78.9880E-03    -16.5039E+06     62.2942E+06     43.6871E+06     338.578E+03    -51.1769E-03     102.794E-03    -51.6166E-03     40.0066E-03    -51.5510E-03     103.203E-03    -51.4646E-03     39.5596E-03
             612     14.5329E-03     79.0240E-03    -12.1680E+06     100.106E+06     53.1973E+06     235.961E+03    -50.9070E-03     102.487E-03    -51.5798E-03     31.6984E-03    -51.3041E-03     103.042E-03    -51.4413E-03     31.2708E-03
             613     15.3881E-03     79.0507E-03    -8.03874E+06     112.092E+06     61.5152E+06     34.2602E+03    -50.7446E-03     102.319E-03    -51.5742E-03     20.8911E-03    -51.1264E-03     102.892E-03    -51.4175E-03     20.4720E-03
             614     16.2434E-03     79.0651E-03    -4.07458E+06     115.476E+06     75.5041E+06     108.251E+03    -50.6654E-03     102.276E-03    -51.6111E-03     6.91834E-03    -51.0125E-03     102.800E-03    -51.3951E-03     6.58142E-03
             615     854.623E-06     79.3871E-03    -87.3771E+06    -194.240E+06    -85.0441E+06     64.2510E+03    -51.7457E-03     103.433E-03    -51.6877E-03     8.69609E-03    -51.7790E-03     102.714E-03    -51.7045E-03     8.66464E-03
             616     1.70926E-03     79.3992E-03    -84.1162E+06    -187.938E+06    -75.8595E+06     59.1916E+03    -51.7285E-03     103.467E-03    -51.7386E-03     15.8105E-03    -51.7709E-03     102.764E-03    -51.7234E-03     15.7507E-03
             617     2.56393E-03     79.4187E-03    -79.3162E+06    -178.551E+06    -63.0709E+06     86.2522E+03    -51.7530E-03     103.520E-03    -51.7674E-03     23.0231E-03    -51.8088E-03     102.844E-03    -51.7089E-03     22.9317E-03
             618     3.41863E-03     79.4452E-03    -73.5465E+06    -167.719E+06    -48.8939E+06     147.431E+03    -51.7947E-03     103.591E-03    -51.7966E-03     29.8754E-03    -51.8656E-03     102.947E-03    -51.6913E-03     29.7498E-03
             619     4.27338E-03     79.4783E-03    -67.3600E+06    -156.681E+06    -35.9496E+06     107.384E+03    -51.8552E-03     103.673E-03    -51.8175E-03     36.2104E-03    -51.9403E-03     103.067E-03    -51.6724E-03     36.0460E-03
             620     5.12815E-03     79.5174E-03    -61.2400E+06    -142.946E+06    -25.4988E+06    -7.36934E+03    -51.9206E-03     103.742E-03    -51.8218E-03     41.9367E-03    -52.0235E-03     103.194E-03    -51.6532E-03     41.7296E-03
             621     5.98296E-03     79.5620E-03    -55.4791E+06    -127.347E+06    -17.0321E+06    -119.239E+03    -51.9830E-03     103.797E-03    -51.8139E-03     46.9601E-03    -52.1083E-03     103.323E-03    -51.6340E-03     46.7081E-03
             622     6.83780E-03     79.6111E-03    -50.1353E+06    -112.030E+06    -9.56976E+06    -199.112E+03    -52.0368E-03     103.839E-03    -51.8025E-03     51.1778E-03    -52.1874E-03     103.442E-03    -51.6152E-03     50.8799E-03
             623     7.69266E-03     79.6640E-03    -45.1634E+06    -95.9344E+06    -2.72892E+06    -250.381E+03    -52.0689E-03     103.857E-03    -51.7878E-03     54.4953E-03    -52.2490E-03     103.544E-03    -51.5968E-03     54.1519E-03
             624     8.54756E-03     79.7197E-03    -40.5105E+06    -79.3077E+06     3.91554E+06    -261.505E+03    -52.0715E-03     103.844E-03    -51.7721E-03     56.7918E-03    -52.2841E-03     103.619E-03    -51.5788E-03     56.4058E-03
             625     9.40248E-03     79.7771E-03    -36.1070E+06    -60.5466E+06     10.5306E+06     -246.29E+03    -52.0330E-03     103.787E-03    -51.7536E-03     57.9336E-03    -52.2810E-03     103.661E-03    -51.5608E-03     57.5108E-03
             626     10.2574E-03     79.8350E-03     -31.919E+06    -42.7811E+06     17.0868E+06    -186.664E+03    -51.9581E-03     103.695E-03    -51.7365E-03     57.6900E-03    -52.2371E-03     103.659E-03    -51.5427E-03     57.2395E-03
             627     11.1124E-03     79.8919E-03    -27.9312E+06    -22.4861E+06     22.9933E+06    -139.828E+03    -51.8337E-03     103.546E-03    -51.7126E-03     55.8499E-03    -52.1399E-03     103.607E-03    -51.5245E-03     55.3831E-03
             628     11.9674E-03     79.9460E-03    -24.1368E+06    -175.507E+03     29.8418E+06    -8.35639E+03    -51.6585E-03     103.349E-03    -51.6904E-03     52.2213E-03    -51.9874E-03     103.505E-03    -51.5060E-03     51.7514E-03
             629     12.8225E-03     79.9956E-03    -20.4741E+06     20.3548E+06     33.9851E+06    -15.4811E+03    -51.4668E-03     103.124E-03    -51.6572E-03     46.7837E-03    -51.8032E-03     103.361E-03    -51.4871E-03     46.3189E-03
             630     13.6776E-03     80.0389E-03    -16.4521E+06     62.3160E+06     43.6169E+06    -376.952E+03    -51.1725E-03     102.791E-03    -51.6180E-03     40.0107E-03    -51.5463E-03     103.201E-03    -51.4665E-03     39.5543E-03
             631     14.5328E-03     80.0749E-03    -12.1769E+06     100.024E+06     53.1363E+06    -271.710E+03    -50.9034E-03     102.485E-03    -51.5812E-03     31.7015E-03    -51.3005E-03     103.039E-03    -51.4429E-03     31.2673E-03
             632     15.3881E-03     80.1016E-03    -8.27727E+06     111.891E+06     61.3966E+06     134.652E+03    -50.7389E-03     102.314E-03    -51.5755E-03     20.8945E-03    -51.1215E-03     102.887E-03    -51.4188E-03     20.4767E-03
             633     16.2433E-03     80.1160E-03    -4.31038E+06     115.551E+06     75.4618E+06     145.520E+03    -50.6546E-03     102.266E-03    -51.6119E-03     6.91530E-03    -51.0030E-03     102.791E-03    -51.3959E-03     6.57890E-03
             634     854.615E-06     80.4380E-03    -87.6969E+06    -194.326E+06    -85.3813E+06     29.8115E+03    -51.7496E-03     103.441E-03    -51.6918E-03     8.69723E-03    -51.7839E-03     102.722E-03    -51.7098E-03     8.66533E-03
             635     1.70925E-03     80.4501E-03    -84.4530E+06    -187.950E+06    -76.2024E+06     22.0792E+03    -51.7322E-03     103.475E-03    -51.7425E-03     15.8121E-03    -51.7758E-03     102.772E-03    -51.7285E-03     15.7518E-03
             636     2.56391E-03     80.4695E-03    -79.6907E+06    -178.690E+06    -63.4077E+06     73.3847E+03    -51.7569E-03     103.528E-03    -51.7715E-03     23.0251E-03    -51.8139E-03     102.852E-03    -51.7139E-03     22.9335E-03
             637     3.41862E-03     80.4960E-03    -73.8861E+06    -167.821E+06    -49.3146E+06     140.684E+03    -51.7983E-03     103.598E-03    -51.8001E-03     29.8779E-03    -51.8701E-03     102.955E-03    -51.6962E-03     29.7521E-03
             638     4.27336E-03     80.5292E-03    -67.6345E+06    -156.548E+06    -36.3456E+06     76.8542E+03    -51.8586E-03     103.679E-03    -51.8206E-03     36.2133E-03    -51.9448E-03     103.075E-03    -51.6772E-03     36.0484E-03
             639     5.12813E-03     80.5683E-03    -61.4627E+06    -142.778E+06    -25.7488E+06    -77.5594E+03    -51.9241E-03     103.749E-03    -51.8254E-03     41.9399E-03    -52.0280E-03     103.203E-03    -51.6580E-03     41.7319E-03
             640     5.98293E-03     80.6128E-03    -55.6501E+06    -127.176E+06    -17.2611E+06    -225.586E+03    -51.9861E-03     103.804E-03    -51.8175E-03     46.9637E-03    -52.1122E-03     103.331E-03    -51.6387E-03     46.7103E-03
             641     6.83777E-03     80.6619E-03    -50.2561E+06    -111.919E+06    -9.78972E+06    -333.270E+03    -52.0396E-03     103.846E-03    -51.8060E-03     51.1817E-03    -52.1907E-03     103.449E-03    -51.6197E-03     50.8820E-03
             642     7.69263E-03     80.7148E-03    -45.2456E+06    -95.8598E+06    -2.93095E+06    -383.913E+03    -52.0714E-03     103.863E-03    -51.7912E-03     54.4990E-03    -52.2518E-03     103.551E-03    -51.6012E-03     54.1539E-03
             643     8.54752E-03     80.7705E-03    -40.5458E+06    -79.3004E+06     3.72777E+06    -390.924E+03    -52.0737E-03     103.849E-03    -51.7754E-03     56.7951E-03    -52.2862E-03     103.625E-03    -51.5830E-03     56.4074E-03
             644     9.40244E-03     80.8280E-03    -36.1000E+06    -60.5833E+06     10.3624E+06    -341.246E+03    -52.0344E-03     103.791E-03    -51.7567E-03     57.9362E-03    -52.2821E-03     103.666E-03    -51.5647E-03     57.5121E-03
             645     10.2574E-03     80.8859E-03     -31.841E+06    -42.8846E+06     16.9387E+06    -256.785E+03    -51.9582E-03     103.698E-03    -51.7394E-03     57.6921E-03    -52.2365E-03     103.661E-03    -51.5463E-03     57.2406E-03
             646     11.1124E-03     80.9427E-03    -27.7897E+06    -22.5795E+06     22.8874E+06    -124.359E+03    -51.8325E-03     103.548E-03    -51.7153E-03     55.8517E-03    -52.1377E-03     103.608E-03    -51.5278E-03     55.3850E-03
             647     11.9674E-03     80.9970E-03    -23.8339E+06    -396.991E+03     29.7719E+06     6.11242E+03    -51.6560E-03     103.349E-03    -51.6927E-03     52.2232E-03    -51.9831E-03     103.503E-03    -51.5087E-03     51.7535E-03
             648     12.8225E-03     81.0465E-03    -20.0516E+06     20.5394E+06     34.1005E+06     34.7336E+03    -51.4631E-03     103.122E-03    -51.6591E-03     46.7852E-03    -51.7980E-03     103.360E-03    -51.4894E-03     46.3210E-03
             649     13.6776E-03     81.0898E-03    -16.7667E+06     63.0081E+06     43.6712E+06    -309.963E+03    -51.1677E-03     102.787E-03    -51.6196E-03     40.0131E-03    -51.5441E-03     103.201E-03    -51.4683E-03     39.5576E-03
             650     14.5328E-03     81.1258E-03    -13.1822E+06     99.7106E+06     52.6407E+06    -678.095E+03    -50.8967E-03     102.479E-03    -51.5823E-03     31.7038E-03    -51.2976E-03     103.034E-03    -51.4445E-03     31.2644E-03
             651     15.3881E-03     81.1525E-03    -8.68406E+06     111.300E+06     60.9662E+06    -324.960E+03    -50.7385E-03     102.315E-03    -51.5762E-03     20.8918E-03    -51.1216E-03     102.885E-03    -51.4202E-03     20.4681E-03
             652     16.2433E-03     81.1669E-03    -4.13521E+06     115.634E+06     75.2410E+06     42.2837E+03    -50.6600E-03     102.272E-03    -51.6119E-03     6.91188E-03    -51.0072E-03     102.797E-03    -51.3974E-03     6.57418E-03
             653     854.614E-06     81.4888E-03    -88.1400E+06    -194.361E+06    -85.7928E+06    -18.8288E+03    -51.7537E-03     103.449E-03    -51.6957E-03     8.69816E-03    -51.7896E-03     102.731E-03    -51.7151E-03     8.66562E-03
             654     1.70924E-03     81.5009E-03    -84.8738E+06    -187.980E+06    -76.5563E+06     3.51397E+03    -51.7364E-03     103.483E-03    -51.7468E-03     15.8138E-03    -51.7816E-03     102.782E-03    -51.7340E-03     15.7532E-03
             655     2.56390E-03     81.5204E-03    -80.0172E+06    -178.787E+06    -63.6336E+06     35.7918E+03    -51.7615E-03     103.538E-03    -51.7766E-03     23.0271E-03    -51.8196E-03     102.862E-03    -51.7195E-03     22.9349E-03
             656     3.41860E-03     81.5469E-03    -74.1327E+06    -167.885E+06    -49.4757E+06     54.0774E+03    -51.8030E-03     103.608E-03    -51.8054E-03     29.8799E-03    -51.8757E-03     102.965E-03    -51.7018E-03     29.7530E-03
             657     4.27333E-03     81.5800E-03    -67.8444E+06    -156.401E+06    -36.5732E+06    -8.07202E+03    -51.8629E-03     103.688E-03    -51.8251E-03     36.2153E-03    -51.9499E-03     103.085E-03    -51.6828E-03     36.0494E-03
             658     5.12810E-03     81.6192E-03    -61.6555E+06    -142.503E+06    -26.0278E+06    -202.775E+03    -51.9280E-03     103.757E-03    -51.8293E-03     41.9422E-03    -52.0329E-03     103.213E-03    -51.6634E-03     41.7325E-03
             659     5.98290E-03     81.6637E-03    -55.8050E+06    -126.952E+06    -17.5256E+06    -410.255E+03    -51.9897E-03     103.811E-03    -51.8214E-03     46.9661E-03    -52.1165E-03     103.340E-03    -51.6440E-03     46.7102E-03
             660     6.83773E-03     81.7128E-03    -50.3665E+06    -111.759E+06    -10.0406E+06    -537.452E+03    -52.0429E-03     103.853E-03    -51.8098E-03     51.1841E-03    -52.1944E-03     103.458E-03    -51.6249E-03     50.8816E-03
             661     7.69259E-03     81.7657E-03    -45.2989E+06    -95.7778E+06    -3.16577E+06    -601.014E+03    -52.0744E-03     103.869E-03    -51.7949E-03     54.5010E-03    -52.2548E-03     103.558E-03    -51.6062E-03     54.1530E-03
             662     8.54748E-03     81.8214E-03    -40.5466E+06    -79.2844E+06     3.51485E+06    -597.458E+03    -52.0763E-03     103.855E-03    -51.7790E-03     56.7963E-03    -52.2885E-03     103.632E-03    -51.5877E-03     56.4059E-03
             663     9.40240E-03     81.8789E-03    -36.0313E+06    -60.6596E+06     10.1692E+06    -536.603E+03    -52.0359E-03     103.796E-03    -51.7602E-03     57.9363E-03    -52.2830E-03     103.670E-03    -51.5692E-03     57.5096E-03
             664     10.2574E-03     81.9368E-03    -31.7089E+06    -42.9853E+06     16.7836E+06    -435.053E+03    -51.9584E-03     103.701E-03    -51.7427E-03     57.6913E-03    -52.2356E-03     103.664E-03    -51.5504E-03     57.2374E-03
             665     11.1123E-03     81.9937E-03    -27.5215E+06    -22.7966E+06     22.7705E+06    -288.796E+03    -51.8314E-03     103.550E-03    -51.7182E-03     55.8502E-03    -52.1347E-03     103.608E-03    -51.5314E-03     55.3814E-03
             666     11.9674E-03     82.0478E-03    -23.4445E+06    -459.805E+03     29.7696E+06    -195.937E+03    -51.6535E-03     103.349E-03    -51.6954E-03     52.2212E-03    -51.9785E-03     103.503E-03    -51.5119E-03     51.7489E-03
             667     12.8225E-03     82.0974E-03    -19.5259E+06     20.3897E+06     34.1482E+06    -67.4144E+03    -51.4592E-03     103.121E-03    -51.6614E-03     46.7832E-03    -51.7913E-03     103.357E-03    -51.4919E-03     46.3176E-03
             668     13.6775E-03     82.1407E-03    -15.3737E+06     63.7769E+06     44.2888E+06    -228.337E+03    -51.1625E-03     102.784E-03    -51.6215E-03     40.0111E-03    -51.5340E-03     103.199E-03    -51.4702E-03     39.5567E-03
             669     14.5328E-03     82.1767E-03    -11.3168E+06     100.019E+06     53.7300E+06    -670.591E+03    -50.9093E-03     102.495E-03    -51.5862E-03     31.7034E-03    -51.3029E-03     103.048E-03    -51.4461E-03     31.2641E-03
             670     15.3880E-03     82.2034E-03    -7.90246E+06     110.401E+06     61.2173E+06    -489.121E+03    -50.7535E-03     102.333E-03    -51.5796E-03     20.8911E-03    -51.1317E-03     102.898E-03    -51.4222E-03     20.4653E-03
             671     16.2433E-03     82.2178E-03    -4.19974E+06     115.533E+06     74.9663E+06    -36.8624E+03    -50.6518E-03     102.265E-03    -51.6127E-03     6.91041E-03    -50.9989E-03     102.789E-03    -51.3993E-03     6.57172E-03
             672     854.606E-06     82.5396E-03    -88.5266E+06    -194.343E+06    -86.1269E+06    -11.9551E+03    -51.7587E-03     103.459E-03    -51.7007E-03     8.69851E-03    -51.7960E-03     102.742E-03    -51.7212E-03     8.66605E-03
             673     1.70923E-03     82.5518E-03    -85.2139E+06    -187.989E+06    -76.7749E+06    -22.2084E+03    -51.7418E-03     103.494E-03    -51.7526E-03     15.8147E-03    -51.7883E-03     102.794E-03    -51.7403E-03     15.7538E-03
             674     2.56388E-03     82.5712E-03    -80.3085E+06    -178.786E+06    -63.7765E+06    -43.3686E+03    -51.7670E-03     103.550E-03    -51.7828E-03     23.0282E-03    -51.8264E-03     102.874E-03    -51.7260E-03     22.9350E-03
             675     3.41858E-03     82.5978E-03    -74.3780E+06    -167.912E+06    -49.4968E+06    -52.2576E+03    -51.8085E-03     103.621E-03    -51.8122E-03     29.8813E-03    -51.8824E-03     102.978E-03    -51.7084E-03     29.7530E-03
             676     4.27330E-03     82.6309E-03    -68.0409E+06    -156.218E+06    -36.6885E+06    -128.207E+03    -51.8679E-03     103.699E-03    -51.8310E-03     36.2167E-03    -51.9561E-03     103.097E-03    -51.6893E-03     36.0492E-03
             677     5.12807E-03     82.6700E-03    -61.8021E+06    -142.088E+06    -26.3396E+06    -388.618E+03    -51.9323E-03     103.766E-03    -51.8338E-03     41.9432E-03    -52.0382E-03     103.224E-03    -51.6698E-03     41.7311E-03
             678     5.98286E-03     82.7146E-03    -55.9249E+06    -126.650E+06    -17.8258E+06    -660.261E+03    -51.9940E-03     103.820E-03    -51.8259E-03     46.9668E-03    -52.1215E-03     103.351E-03    -51.6502E-03     46.7076E-03
             679     6.83769E-03     82.7637E-03    -50.4512E+06    -111.544E+06    -10.3297E+06    -822.087E+03    -52.0469E-03     103.861E-03    -51.8142E-03     51.1844E-03    -52.1988E-03     103.468E-03    -51.6309E-03     50.8782E-03
             680     7.69255E-03     82.8166E-03    -45.3467E+06    -95.6471E+06    -3.44378E+06    -905.669E+03    -52.0778E-03     103.877E-03    -51.7992E-03     54.5010E-03    -52.2583E-03     103.567E-03    -51.6120E-03     54.1489E-03
             681     8.54743E-03     82.8723E-03    -40.5395E+06    -79.2704E+06     3.24988E+06    -905.224E+03    -52.0789E-03     103.862E-03    -51.7832E-03     56.7953E-03    -52.2908E-03     103.639E-03    -51.5932E-03     56.4008E-03
             682     9.40235E-03     82.9297E-03    -35.9670E+06    -60.6989E+06     9.93677E+06    -847.146E+03    -52.0376E-03     103.802E-03    -51.7642E-03     57.9334E-03    -52.2839E-03     103.676E-03    -51.5744E-03     57.5026E-03
             683     10.2573E-03     82.9877E-03    -31.5668E+06    -43.1212E+06     16.5778E+06    -734.391E+03    -51.9588E-03     103.705E-03    -51.7464E-03     57.6870E-03    -52.2348E-03     103.668E-03    -51.5552E-03     57.2291E-03
             684     11.1123E-03     83.0445E-03    -27.3253E+06    -22.9090E+06     22.6186E+06    -636.326E+03    -51.8302E-03     103.552E-03    -51.7217E-03     55.8455E-03    -52.1323E-03     103.610E-03    -51.5357E-03     55.3721E-03
             685     11.9673E-03     83.0987E-03    -23.2059E+06    -608.900E+03     29.6480E+06    -498.066E+03    -51.6508E-03     103.349E-03    -51.6984E-03     52.2161E-03    -51.9742E-03     103.502E-03    -51.5156E-03     51.7399E-03
             686     12.8224E-03     83.1483E-03      -19.11E+06     20.4293E+06     34.1625E+06    -536.786E+03    -51.4549E-03     103.119E-03    -51.6640E-03     46.7777E-03    -51.7850E-03     103.355E-03    -51.4951E-03     46.3061E-03
             687     13.6775E-03     83.1916E-03    -15.2368E+06     64.0494E+06     44.3083E+06    -633.148E+03    -51.1569E-03     102.780E-03    -51.6236E-03     40.0036E-03    -51.5281E-03     103.197E-03    -51.4729E-03     39.5439E-03
             688     14.5327E-03     83.2277E-03    -11.7201E+06     99.9278E+06     53.4217E+06    -294.357E+03    -50.9009E-03     102.488E-03    -51.5875E-03     31.6963E-03    -51.2960E-03     103.042E-03    -51.4482E-03     31.2619E-03
             689     15.3880E-03     83.2543E-03    -8.15173E+06     110.046E+06     60.8368E+06    -44.1559E+03    -50.7510E-03     102.331E-03    -51.5803E-03     20.8903E-03    -51.1294E-03     102.895E-03    -51.4239E-03     20.4704E-03
             690     16.2432E-03     83.2687E-03    -4.21375E+06     115.362E+06     74.7194E+06    -58.6529E+03    -50.6506E-03     102.264E-03    -51.6132E-03     6.91235E-03    -50.9971E-03     102.788E-03    -51.4008E-03     6.57345E-03
             691     854.602E-06     83.5905E-03    -88.9102E+06    -194.287E+06    -86.5152E+06     6.42185E+03    -51.7649E-03     103.472E-03    -51.7073E-03     8.69833E-03    -51.8037E-03     102.757E-03    -51.7292E-03     8.66609E-03
             692     1.70922E-03     83.6026E-03    -85.5900E+06    -187.945E+06    -77.1098E+06    -53.0341E+03    -51.7480E-03     103.507E-03    -51.7592E-03     15.8148E-03    -51.7959E-03     102.808E-03    -51.7482E-03     15.7535E-03
             693     2.56387E-03     83.6221E-03    -80.6762E+06    -178.715E+06    -64.0609E+06    -101.258E+03    -51.7731E-03     103.563E-03    -51.7895E-03     23.0287E-03    -51.8340E-03     102.889E-03    -51.7337E-03     22.9348E-03
             694     3.41855E-03     83.6486E-03    -74.7121E+06    -167.854E+06    -49.6415E+06    -161.042E+03    -51.8146E-03     103.634E-03    -51.8196E-03     29.8817E-03    -51.8901E-03     102.993E-03    -51.7161E-03     29.7519E-03
             695     4.27327E-03     83.6818E-03    -68.2918E+06    -155.923E+06    -36.8852E+06    -329.846E+03    -51.8736E-03     103.711E-03    -51.8377E-03     36.2169E-03    -51.9632E-03     103.112E-03    -51.6970E-03     36.0466E-03
             696     5.12803E-03     83.7209E-03    -61.9828E+06    -141.537E+06    -26.7183E+06    -664.575E+03    -51.9375E-03     103.776E-03    -51.8389E-03     41.9429E-03    -52.0444E-03     103.238E-03    -51.6774E-03     41.7271E-03
             697     5.98282E-03     83.7655E-03    -56.0589E+06    -126.251E+06    -18.1939E+06    -987.083E+03    -51.9991E-03     103.830E-03    -51.8310E-03     46.9658E-03    -52.1273E-03     103.364E-03    -51.6576E-03     46.7023E-03
             698     6.83764E-03     83.8146E-03    -50.5515E+06    -111.243E+06    -10.6758E+06    -1.18741E+06    -52.0517E-03     103.871E-03    -51.8193E-03     51.1827E-03    -52.2040E-03     103.480E-03    -51.6381E-03     50.8716E-03
             699     7.69249E-03     83.8675E-03    -45.4114E+06    -95.4665E+06    -3.77893E+06    -1.29007E+06    -52.0819E-03     103.886E-03    -51.8043E-03     54.4980E-03    -52.2625E-03     103.578E-03    -51.6189E-03     54.1409E-03
             700     8.54738E-03     83.9232E-03    -40.5689E+06    -79.1908E+06     2.92657E+06    -1.31607E+06    -52.0820E-03     103.870E-03    -51.7881E-03     56.7905E-03    -52.2936E-03     103.648E-03    -51.5998E-03     56.3906E-03
             701     9.40230E-03     83.9806E-03    -35.9478E+06    -60.7280E+06     9.62730E+06    -1.25918E+06    -52.0393E-03     103.808E-03    -51.7689E-03     57.9267E-03    -52.2851E-03     103.683E-03    -51.5806E-03     57.4904E-03
             702     10.2573E-03     84.0386E-03    -31.5035E+06    -43.2015E+06     16.2988E+06    -1.16062E+06    -51.9590E-03     103.710E-03    -51.7508E-03     57.6787E-03    -52.2342E-03     103.673E-03    -51.5610E-03     57.2153E-03
             703     11.1122E-03     84.0954E-03    -27.2611E+06    -23.0261E+06     22.3583E+06    -1.00726E+06    -51.8289E-03     103.555E-03    -51.7257E-03     55.8367E-03    -52.1300E-03     103.612E-03    -51.5410E-03     55.3585E-03
             704     11.9673E-03     84.1497E-03    -23.1375E+06    -696.904E+03     29.4225E+06    -913.501E+03    -51.6477E-03     103.350E-03    -51.7020E-03     52.2070E-03    -51.9704E-03     103.502E-03    -51.5203E-03     51.7253E-03
             705     12.8224E-03     84.1992E-03    -19.3403E+06     20.5341E+06     33.9162E+06    -837.669E+03    -51.4501E-03     103.117E-03    -51.6671E-03     46.7676E-03    -51.7812E-03     103.354E-03    -51.4992E-03     46.2920E-03
             706     13.6775E-03     84.2425E-03    -15.8161E+06     63.7553E+06     43.8389E+06    -521.167E+03    -51.1502E-03     102.776E-03    -51.6261E-03     39.9938E-03    -51.5232E-03     103.192E-03    -51.4765E-03     39.5357E-03
             707     14.5327E-03     84.2786E-03    -12.0136E+06     99.4308E+06     52.8935E+06    -165.633E+03    -50.8878E-03     102.477E-03    -51.5888E-03     31.6867E-03    -51.2829E-03     103.029E-03    -51.4511E-03     31.2541E-03
             708     15.3880E-03     84.3052E-03    -8.06251E+06     110.064E+06     60.6463E+06    -13.9886E+03    -50.7320E-03     102.313E-03    -51.5810E-03     20.8801E-03    -51.1098E-03     102.877E-03    -51.4257E-03     20.4606E-03
             709     16.2433E-03     84.3196E-03    -4.05483E+06     115.403E+06     74.5458E+06    -39.0299E+03    -50.6441E-03     102.257E-03    -51.6131E-03     6.90871E-03    -50.9896E-03     102.782E-03    -51.4018E-03     6.57014E-03
             710     854.590E-06     84.6414E-03    -89.3080E+06    -194.238E+06    -86.9638E+06    -43.0578E+03    -51.7730E-03     103.488E-03    -51.7154E-03     8.69831E-03    -51.8132E-03     102.774E-03    -51.7391E-03     8.66542E-03
             711     1.70920E-03     84.6535E-03    -85.9715E+06    -187.858E+06    -77.5238E+06    -83.8381E+03    -51.7555E-03     103.523E-03    -51.7672E-03     15.8148E-03    -51.8049E-03     102.825E-03    -51.7577E-03     15.7530E-03
             712     2.56384E-03     84.6730E-03    -81.0321E+06    -178.571E+06    -64.3219E+06    -157.405E+03    -51.7806E-03     103.579E-03    -51.7979E-03     23.0283E-03    -51.8432E-03     102.906E-03    -51.7431E-03     22.9336E-03
             713     3.41852E-03     84.6995E-03    -75.0112E+06    -167.643E+06    -49.7867E+06    -298.250E+03    -51.8220E-03     103.650E-03    -51.8284E-03     29.8810E-03    -51.8991E-03     103.010E-03    -51.7254E-03     29.7493E-03
             714     4.27323E-03     84.7327E-03    -68.5414E+06    -155.413E+06    -37.1765E+06    -603.408E+03    -51.8802E-03     103.725E-03    -51.8450E-03     36.2157E-03    -51.9714E-03     103.129E-03    -51.7062E-03     36.0418E-03
             715     5.12798E-03     84.7718E-03    -62.2028E+06    -140.868E+06    -27.1727E+06    -1.03450E+06    -51.9435E-03     103.788E-03    -51.8449E-03     41.9409E-03    -52.0519E-03     103.255E-03    -51.6863E-03     41.7202E-03
             716     5.98277E-03     84.8164E-03    -56.2516E+06    -125.729E+06    -18.6348E+06    -1.40345E+06    -52.0050E-03     103.842E-03    -51.8371E-03     46.9628E-03    -52.1343E-03     103.379E-03    -51.6664E-03     46.6937E-03
             717     6.83758E-03     84.8655E-03    -50.7062E+06    -110.855E+06    -11.0992E+06    -1.63975E+06    -52.0573E-03     103.883E-03    -51.8254E-03     51.1780E-03    -52.2103E-03     103.494E-03    -51.6466E-03     50.8610E-03
             718     7.69243E-03     84.9184E-03    -45.5181E+06    -95.2003E+06    -4.18279E+06    -1.77388E+06    -52.0869E-03     103.897E-03    -51.8103E-03     54.4912E-03    -52.2678E-03     103.591E-03    -51.6272E-03     54.1277E-03
             719     8.54731E-03     84.9741E-03    -40.6290E+06    -79.0489E+06     2.53296E+06    -1.81035E+06    -52.0856E-03     103.880E-03    -51.7940E-03     56.7815E-03    -52.2972E-03     103.659E-03    -51.6078E-03     56.3751E-03
             720     9.40222E-03     85.0315E-03    -35.9770E+06    -60.7047E+06     9.24196E+06    -1.76787E+06    -52.0411E-03     103.816E-03    -51.7745E-03     57.9153E-03    -52.2865E-03     103.691E-03    -51.5881E-03     57.4724E-03
             721     10.2572E-03     85.0895E-03    -31.5333E+06    -43.2798E+06     15.9183E+06    -1.62781E+06    -51.9591E-03     103.715E-03    -51.7560E-03     57.6655E-03    -52.2338E-03     103.678E-03    -51.5679E-03     57.1959E-03
             722     11.1122E-03     85.1463E-03    -27.2683E+06    -23.1713E+06     21.9967E+06    -1.44480E+06    -51.8272E-03     103.558E-03    -51.7305E-03     55.8225E-03    -52.1277E-03     103.615E-03    -51.5473E-03     55.3385E-03
             723     11.9672E-03     85.2005E-03    -23.2518E+06    -804.944E+03     29.0660E+06    -1.20979E+06    -51.6442E-03     103.350E-03    -51.7063E-03     52.1920E-03    -51.9667E-03     103.503E-03    -51.5261E-03     51.7065E-03
             724     12.8223E-03     85.2501E-03    -19.5274E+06     20.2382E+06     33.5016E+06     -847.17E+03    -51.4444E-03     103.115E-03    -51.6708E-03     46.7526E-03    -51.7753E-03     103.351E-03    -51.5043E-03     46.2769E-03
             725     13.6774E-03     85.2934E-03    -15.8233E+06     63.3160E+06     43.4579E+06    -484.397E+03    -51.1422E-03     102.771E-03    -51.6292E-03     39.9796E-03    -51.5141E-03     103.186E-03    -51.4808E-03     39.5220E-03
             726     14.5327E-03     85.3294E-03    -12.0508E+06     99.1863E+06     52.5846E+06    -253.457E+03    -50.8772E-03     102.468E-03    -51.5912E-03     31.6746E-03    -51.2716E-03     103.020E-03    -51.4546E-03     31.2409E-03
             727     15.3879E-03     85.3561E-03    -8.19213E+06     110.006E+06     60.4066E+06    -161.336E+03    -50.7139E-03     102.297E-03    -51.5826E-03     20.8688E-03    -51.0919E-03     102.861E-03    -51.4282E-03     20.4475E-03
             728     16.2432E-03     85.3705E-03    -4.11396E+06     115.367E+06     74.4777E+06    -56.4363E+03    -50.6208E-03     102.235E-03    -51.6142E-03     6.89910E-03    -50.9665E-03     102.760E-03    -51.4031E-03     6.56040E-03
             729     854.583E-06     85.6923E-03    -89.7937E+06    -194.124E+06    -87.3880E+06    -121.776E+03    -51.7827E-03     103.508E-03    -51.7251E-03     8.69869E-03    -51.8248E-03     102.795E-03    -51.7504E-03     8.66476E-03
             730     1.70918E-03     85.7044E-03    -86.3960E+06    -187.702E+06    -77.8439E+06    -144.185E+03    -51.7654E-03     103.543E-03    -51.7775E-03     15.8142E-03    -51.8167E-03     102.847E-03    -51.7692E-03     15.7516E-03
             731     2.56381E-03     85.7239E-03    -81.3946E+06    -178.381E+06    -64.6033E+06    -245.470E+03    -51.7900E-03     103.598E-03    -51.8083E-03     23.0268E-03    -51.8542E-03     102.928E-03    -51.7546E-03     22.9309E-03
             732     3.41848E-03     85.7504E-03    -75.3332E+06    -167.219E+06    -50.1469E+06    -470.105E+03    -51.8305E-03     103.668E-03    -51.8377E-03     29.8787E-03    -51.9093E-03     103.031E-03    -51.7367E-03     29.7448E-03
             733     4.27319E-03     85.7836E-03    -68.8399E+06    -154.632E+06    -37.6735E+06    -942.944E+03    -51.8879E-03     103.741E-03    -51.8529E-03     36.2127E-03    -51.9809E-03     103.150E-03    -51.7172E-03     36.0344E-03
             734     5.12793E-03     85.8227E-03    -62.4815E+06    -140.057E+06    -27.6958E+06    -1.48264E+06    -51.9509E-03     103.803E-03    -51.8523E-03     41.9365E-03    -52.0611E-03     103.275E-03    -51.6971E-03     41.7099E-03
             735     5.98270E-03     85.8673E-03    -56.5064E+06    -125.073E+06    -19.1467E+06    -1.90367E+06    -52.0122E-03     103.857E-03    -51.8445E-03     46.9566E-03    -52.1430E-03     103.398E-03    -51.6769E-03     46.6810E-03
             736     6.83751E-03     85.9164E-03    -50.9245E+06    -110.344E+06    -11.6036E+06    -2.19322E+06    -52.0639E-03     103.897E-03    -51.8328E-03     51.1701E-03    -52.2181E-03     103.512E-03    -51.6570E-03     50.8458E-03
             737     7.69235E-03     85.9693E-03    -45.6934E+06    -94.8396E+06    -4.67543E+06    -2.36063E+06    -52.0925E-03     103.910E-03    -51.8176E-03     54.4808E-03    -52.2741E-03     103.606E-03    -51.6372E-03     54.1095E-03
             738     8.54723E-03     86.0250E-03    -40.7559E+06    -78.8425E+06     2.05359E+06    -2.41211E+06    -52.0897E-03     103.891E-03    -51.8011E-03     56.7679E-03    -52.3016E-03     103.672E-03    -51.6174E-03     56.3535E-03
             739     9.40214E-03     86.0825E-03    -36.0700E+06    -60.6466E+06     8.76855E+06    -2.34143E+06    -52.0435E-03     103.825E-03    -51.7813E-03     57.8983E-03    -52.2888E-03     103.701E-03    -51.5972E-03     57.4479E-03
             740     10.2571E-03     86.1404E-03    -31.5787E+06    -43.3739E+06     15.4525E+06    -2.17402E+06    -51.9596E-03     103.722E-03    -51.7624E-03     57.6461E-03    -52.2337E-03     103.685E-03    -51.5764E-03     57.1694E-03
             741     11.1121E-03     86.1972E-03    -27.3210E+06    -23.3589E+06     21.5374E+06    -1.90208E+06    -51.8254E-03     103.562E-03    -51.7363E-03     55.8019E-03    -52.1252E-03     103.619E-03    -51.5552E-03     55.3120E-03
             742     11.9671E-03     86.2514E-03    -23.2530E+06    -1.19950E+06     28.5998E+06    -1.48275E+06    -51.6399E-03     103.351E-03    -51.7115E-03     52.1708E-03    -51.9612E-03     103.503E-03    -51.5331E-03     51.6817E-03
             743     12.8222E-03     86.3010E-03    -19.3999E+06     19.7379E+06     33.0838E+06    -986.334E+03    -51.4375E-03     103.113E-03    -51.6754E-03     46.7311E-03    -51.7665E-03     103.347E-03    -51.5104E-03     46.2536E-03
             744     13.6773E-03     86.3443E-03    -15.7925E+06     62.8146E+06     43.0504E+06    -461.626E+03    -51.1325E-03     102.765E-03    -51.6330E-03     39.9592E-03    -51.5029E-03     103.178E-03    -51.4859E-03     39.5019E-03
             745     14.5326E-03     86.3803E-03    -12.0943E+06     99.1817E+06     52.2897E+06    -253.929E+03    -50.8623E-03     102.456E-03    -51.5939E-03     31.6567E-03    -51.2565E-03     103.008E-03    -51.4587E-03     31.2231E-03
             746     15.3879E-03     86.4070E-03    -8.23664E+06     109.973E+06     60.0990E+06    -299.769E+03    -50.6990E-03     102.283E-03    -51.5842E-03     20.8534E-03    -51.0767E-03     102.848E-03    -51.4312E-03     20.4304E-03
             747     16.2432E-03     86.4213E-03    -4.20069E+06     115.080E+06     74.2210E+06    -137.609E+03    -50.6026E-03     102.218E-03    -51.6154E-03     6.88741E-03    -50.9479E-03     102.742E-03    -51.4051E-03     6.54778E-03
             748     854.571E-06     86.7432E-03    -90.2833E+06    -193.888E+06    -87.8108E+06    -138.198E+03    -51.7947E-03     103.532E-03    -51.7373E-03     8.69752E-03    -51.8390E-03     102.822E-03    -51.7643E-03     8.66335E-03
             749     1.70916E-03     86.7554E-03    -86.8487E+06    -187.465E+06    -78.2015E+06    -244.457E+03    -51.7773E-03     103.567E-03    -51.7900E-03     15.8125E-03    -51.8307E-03     102.874E-03    -51.7833E-03     15.7485E-03
             750     2.56378E-03     86.7748E-03    -81.7784E+06    -178.124E+06    -64.9003E+06    -365.334E+03    -51.8015E-03     103.622E-03    -51.8209E-03     23.0240E-03    -51.8676E-03     102.954E-03    -51.7686E-03     22.9265E-03
             751     3.41843E-03     86.8014E-03    -75.6584E+06    -166.528E+06    -50.6032E+06    -712.359E+03    -51.8409E-03     103.689E-03    -51.8486E-03     29.8748E-03    -51.9216E-03     103.057E-03    -51.7504E-03     29.7377E-03
             752     4.27313E-03     86.8345E-03    -69.1406E+06    -153.549E+06    -38.2978E+06    -1.36185E+06    -51.8972E-03     103.759E-03    -51.8620E-03     36.2074E-03    -51.9924E-03     103.175E-03    -51.7306E-03     36.0235E-03
             753     5.12786E-03     86.8737E-03    -62.7709E+06    -139.088E+06    -28.2767E+06    -2.00886E+06    -51.9601E-03     103.822E-03    -51.8615E-03     41.9291E-03    -52.0724E-03     103.299E-03    -51.7102E-03     41.6956E-03
             754     5.98263E-03     86.9182E-03    -56.7751E+06    -124.256E+06    -19.7121E+06    -2.48586E+06    -52.0210E-03     103.875E-03    -51.8537E-03     46.9469E-03    -52.1536E-03     103.422E-03    -51.6898E-03     46.6635E-03
             755     6.83743E-03     86.9674E-03    -51.1751E+06    -109.686E+06    -12.1668E+06    -2.82927E+06    -52.0718E-03     103.914E-03    -51.8419E-03     51.1579E-03    -52.2274E-03     103.534E-03    -51.6695E-03     50.8252E-03
             756     7.69226E-03     87.0203E-03    -45.9224E+06    -94.3635E+06    -5.23898E+06    -3.04036E+06    -52.0991E-03     103.926E-03    -51.8266E-03     54.4650E-03    -52.2818E-03     103.626E-03    -51.6493E-03     54.0848E-03
             757     8.54713E-03     87.0760E-03    -40.9639E+06    -78.5645E+06     1.48551E+06    -3.10288E+06    -52.0948E-03     103.905E-03    -51.8098E-03     56.7478E-03    -52.3073E-03     103.688E-03    -51.6291E-03     56.3243E-03
             758     9.40203E-03     87.1334E-03    -36.2283E+06    -60.5650E+06     8.19915E+06    -3.02642E+06    -52.0466E-03     103.836E-03    -51.7896E-03     57.8746E-03    -52.2919E-03     103.714E-03    -51.6083E-03     57.4152E-03
             759     10.2570E-03     87.1913E-03    -31.6946E+06    -43.4592E+06     14.8880E+06    -2.81740E+06    -51.9601E-03     103.730E-03    -51.7703E-03     57.6196E-03    -52.2339E-03     103.694E-03    -51.5869E-03     57.1345E-03
             760     11.1120E-03     87.2482E-03    -27.3544E+06    -23.6864E+06     20.9713E+06    -2.44783E+06    -51.8232E-03     103.567E-03    -51.7436E-03     55.7737E-03    -52.1218E-03     103.623E-03    -51.5647E-03     55.2766E-03
             761     11.9670E-03     87.3023E-03    -23.1813E+06    -1.72189E+06     28.0585E+06    -1.94368E+06    -51.6347E-03     103.353E-03    -51.7181E-03     52.1417E-03    -51.9540E-03     103.502E-03    -51.5417E-03     51.6466E-03
             762     12.8221E-03     87.3519E-03    -19.2512E+06     19.0257E+06     32.5619E+06    -1.28089E+06    -51.4290E-03     103.110E-03    -51.6810E-03     46.7018E-03    -51.7554E-03     103.341E-03    -51.5179E-03     46.2206E-03
             763     13.6773E-03     87.3952E-03    -15.4143E+06     62.0563E+06     42.6400E+06    -530.338E+03    -51.1205E-03     102.758E-03    -51.6377E-03     39.9310E-03    -51.4872E-03     103.167E-03    -51.4922E-03     39.4729E-03
             764     14.5325E-03     87.4312E-03    -11.6944E+06     99.2335E+06     52.1587E+06    -143.627E+03    -50.8457E-03     102.443E-03    -51.5974E-03     31.6312E-03    -51.2377E-03     102.995E-03    -51.4636E-03     31.1992E-03
             765     15.3878E-03     87.4578E-03    -8.11385E+06     110.118E+06     59.8730E+06    -235.842E+03    -50.6814E-03     102.268E-03    -51.5863E-03     20.8321E-03    -51.0583E-03     102.833E-03    -51.4348E-03     20.4101E-03
             766     16.2431E-03     87.4722E-03    -4.20423E+06     114.777E+06     73.7568E+06    -239.983E+03    -50.5854E-03     102.201E-03    -51.6160E-03     6.87462E-03    -50.9296E-03     102.724E-03    -51.4075E-03     6.53381E-03
             767     854.555E-06     87.7942E-03    -90.6573E+06    -193.574E+06    -88.2225E+06    -145.888E+03    -51.8099E-03     103.563E-03    -51.7528E-03     8.69631E-03    -51.8560E-03     102.856E-03    -51.7818E-03     8.66202E-03
             768     1.70913E-03     87.8063E-03    -87.2421E+06    -187.127E+06    -78.5542E+06    -303.346E+03    -51.7917E-03     103.597E-03    -51.8054E-03     15.8099E-03    -51.8470E-03     102.906E-03    -51.8003E-03     15.7452E-03
             769     2.56373E-03     87.8258E-03    -82.1427E+06    -177.688E+06    -65.1033E+06    -541.487E+03    -51.8156E-03     103.652E-03    -51.8366E-03     23.0201E-03    -51.8839E-03     102.987E-03    -51.7854E-03     22.9202E-03
             770     3.41838E-03     87.8523E-03    -75.9379E+06    -165.524E+06    -50.9990E+06    -1.05832E+06    -51.8537E-03     103.716E-03    -51.8622E-03     29.8692E-03    -51.9367E-03     103.090E-03    -51.7670E-03     29.7274E-03
             771     4.27306E-03     87.8855E-03    -69.3964E+06    -152.178E+06    -38.9472E+06    -1.86068E+06    -51.9088E-03     103.782E-03    -51.8734E-03     36.1996E-03    -52.0064E-03     103.206E-03    -51.7468E-03     36.0091E-03
             772     5.12778E-03     87.9247E-03    -63.0462E+06    -137.935E+06    -28.9099E+06    -2.59879E+06    -51.9715E-03     103.844E-03    -51.8730E-03     41.9185E-03    -52.0859E-03     103.329E-03    -51.7261E-03     41.6771E-03
             773     5.98254E-03     87.9692E-03    -57.0621E+06    -123.264E+06    -20.3226E+06    -3.13679E+06    -52.0319E-03     103.897E-03    -51.8652E-03     46.9326E-03    -52.1664E-03     103.450E-03    -51.7053E-03     46.6406E-03
             774     6.83732E-03     88.0183E-03    -51.4547E+06    -108.866E+06    -12.7712E+06     -3.5346E+06    -52.0816E-03     103.935E-03    -51.8533E-03     51.1394E-03    -52.2389E-03     103.560E-03    -51.6847E-03     50.7973E-03
             775     7.69215E-03     88.0712E-03    -46.1936E+06    -93.7510E+06    -5.85854E+06    -3.78768E+06    -52.1073E-03     103.945E-03    -51.8378E-03     54.4418E-03    -52.2914E-03     103.649E-03    -51.6641E-03     54.0517E-03
             776     8.54701E-03     88.1269E-03    -41.2084E+06    -78.1916E+06     847.610E+03    -3.88229E+06    -52.1010E-03     103.922E-03    -51.8207E-03     56.7196E-03    -52.3144E-03     103.709E-03    -51.6433E-03     56.2858E-03
             777     9.40191E-03     88.1843E-03    -36.4452E+06    -60.4117E+06     7.54918E+06    -3.81702E+06    -52.0503E-03     103.850E-03    -51.8001E-03     57.8421E-03    -52.2960E-03     103.730E-03    -51.6219E-03     57.3722E-03
             778     10.2569E-03     88.2422E-03    -31.8576E+06    -43.5657E+06     14.2246E+06    -3.57636E+06    -51.9608E-03     103.741E-03    -51.7801E-03     57.5835E-03    -52.2343E-03     103.705E-03    -51.5996E-03     57.0884E-03
             779     11.1119E-03     88.2991E-03    -27.4489E+06    -24.0451E+06     20.3028E+06    -3.17009E+06    -51.8204E-03     103.573E-03    -51.7527E-03     55.7355E-03    -52.1180E-03     103.629E-03    -51.5765E-03     55.2289E-03
             780     11.9669E-03     88.3532E-03    -23.2059E+06    -2.36097E+06     27.3815E+06    -2.56066E+06    -51.6280E-03     103.354E-03    -51.7263E-03     52.1028E-03    -51.9456E-03     103.502E-03    -51.5523E-03     51.5997E-03
             781     12.8220E-03     88.4028E-03    -19.1455E+06     18.1610E+06     31.9143E+06    -1.79608E+06    -51.4183E-03     103.106E-03    -51.6882E-03     46.6627E-03    -51.7419E-03     103.334E-03    -51.5272E-03     46.1748E-03
             782     13.6771E-03     88.4460E-03    -15.2048E+06     61.0359E+06     42.0382E+06    -915.254E+03    -51.1055E-03     102.749E-03    -51.6436E-03     39.8929E-03    -51.4688E-03     103.153E-03    -51.4999E-03     39.4299E-03
             783     14.5325E-03     88.4820E-03    -11.2955E+06     98.7927E+06     51.8004E+06    -97.0376E+03    -50.8244E-03     102.426E-03    -51.6018E-03     31.5961E-03    -51.2132E-03     102.975E-03    -51.4697E-03     31.1648E-03
             784     15.3878E-03     88.5087E-03    -7.64887E+06     110.467E+06     59.7789E+06     74.6748E+03    -50.6559E-03     102.245E-03    -51.5890E-03     20.8032E-03    -51.0309E-03     102.811E-03    -51.4392E-03     20.3854E-03
             785     16.2431E-03     88.5230E-03    -3.99949E+06     114.760E+06     73.5106E+06    -169.323E+03    -50.5585E-03     102.176E-03    -51.6171E-03     6.85841E-03    -50.9012E-03     102.698E-03    -51.4102E-03     6.51872E-03
             786     854.539E-06     88.8452E-03    -91.2097E+06    -193.146E+06    -88.7397E+06    -247.090E+03    -51.8276E-03     103.598E-03    -51.7708E-03     8.69480E-03    -51.8763E-03     102.895E-03    -51.8022E-03     8.65916E-03
             787     1.70910E-03     88.8573E-03    -87.6533E+06    -186.705E+06    -78.8134E+06    -400.330E+03    -51.8099E-03     103.634E-03    -51.8245E-03     15.8064E-03    -51.8675E-03     102.947E-03    -51.8207E-03     15.7403E-03
             788     2.56368E-03     88.8768E-03    -82.4029E+06    -176.939E+06    -65.2575E+06    -777.071E+03    -51.8329E-03     103.688E-03    -51.8554E-03     23.0147E-03    -51.9034E-03     103.027E-03    -51.8057E-03     22.9116E-03
             789     3.41831E-03     88.9034E-03    -76.1394E+06    -164.173E+06    -51.4050E+06    -1.50071E+06    -51.8694E-03     103.748E-03    -51.8784E-03     29.8613E-03    -51.9548E-03     103.129E-03    -51.7870E-03     29.7137E-03
             790     4.27298E-03     88.9365E-03    -69.6265E+06    -150.582E+06    -39.6051E+06    -2.40762E+06    -51.9235E-03     103.811E-03    -51.8877E-03     36.1884E-03    -52.0236E-03     103.244E-03    -51.7664E-03     35.9906E-03
             791     5.12768E-03     88.9757E-03    -63.3416E+06    -136.564E+06    -29.5607E+06    -3.21233E+06    -51.9858E-03     103.873E-03    -51.8873E-03     41.9032E-03    -52.1028E-03     103.366E-03    -51.7453E-03     41.6537E-03
             792     5.98242E-03     89.0202E-03    -57.3984E+06    -122.076E+06    -20.9681E+06    -3.83093E+06    -52.0454E-03     103.925E-03    -51.8796E-03     46.9123E-03    -52.1825E-03     103.486E-03    -51.7242E-03     46.6111E-03
             793     6.83720E-03     89.0693E-03    -51.8096E+06    -107.871E+06    -13.4232E+06    -4.29276E+06    -52.0938E-03     103.961E-03    -51.8677E-03     51.1134E-03    -52.2534E-03     103.593E-03    -51.7033E-03     50.7612E-03
             794     7.69201E-03     89.1222E-03    -46.5422E+06    -92.9808E+06    -6.53371E+06    -4.60332E+06    -52.1175E-03     103.969E-03    -51.8519E-03     54.4098E-03    -52.3035E-03     103.679E-03    -51.6822E-03     54.0089E-03
             795     8.54686E-03     89.1779E-03    -41.5416E+06    -77.6773E+06     142.977E+03    -4.74840E+06    -52.1087E-03     103.943E-03    -51.8344E-03     56.6815E-03    -52.3235E-03     103.734E-03    -51.6608E-03     56.2363E-03
             796     9.40175E-03     89.2353E-03    -36.7448E+06    -60.1787E+06     6.81562E+06    -4.70272E+06    -52.0549E-03     103.868E-03    -51.8132E-03     57.7984E-03    -52.3014E-03     103.751E-03    -51.6386E-03     57.3169E-03
             797     10.2567E-03     89.2932E-03    -32.1099E+06    -43.6128E+06     13.4679E+06    -4.47457E+06    -51.9615E-03     103.754E-03    -51.7925E-03     57.5357E-03    -52.2350E-03     103.720E-03    -51.6154E-03     57.0287E-03
             798     11.1117E-03     89.3500E-03    -27.6501E+06    -24.4269E+06     19.5131E+06    -4.01934E+06    -51.8166E-03     103.581E-03    -51.7641E-03     55.6852E-03    -52.1134E-03     103.636E-03    -51.5910E-03     55.1675E-03
             799     11.9667E-03     89.4041E-03    -23.3423E+06    -3.07054E+06     26.5694E+06    -3.34286E+06    -51.6193E-03     103.356E-03    -51.7365E-03     52.0519E-03    -51.9353E-03     103.501E-03    -51.5654E-03     51.5386E-03
             800     12.8219E-03     89.4537E-03    -19.2791E+06     17.1707E+06     31.0743E+06    -2.44653E+06    -51.4044E-03     103.101E-03    -51.6971E-03     46.6122E-03    -51.7260E-03     103.325E-03    -51.5386E-03     46.1160E-03
             801     13.6770E-03     89.4969E-03    -15.4043E+06     59.7998E+06     41.1600E+06    -1.36156E+06    -51.0863E-03     102.737E-03    -51.6510E-03     39.8443E-03    -51.4475E-03     103.137E-03    -51.5096E-03     39.3757E-03
             802     14.5323E-03     89.5329E-03    -11.5604E+06     97.7523E+06     50.9450E+06    -287.978E+03    -50.7967E-03     102.404E-03    -51.6071E-03     31.5515E-03    -51.1840E-03     102.949E-03    -51.4773E-03     31.1179E-03
             803     15.3877E-03     89.5595E-03    -7.73887E+06     110.645E+06     59.4882E+06     215.630E+03    -50.6134E-03     102.206E-03    -51.5927E-03     20.7654E-03    -50.9885E-03     102.774E-03    -51.4445E-03     20.3498E-03
             804     16.2431E-03     89.5738E-03    -3.85247E+06     115.086E+06     73.5602E+06     43.0481E+03    -50.5131E-03     102.132E-03    -51.6194E-03     6.83730E-03    -50.8556E-03     102.657E-03    -51.4129E-03     6.50063E-03
             805     854.518E-06     89.8962E-03    -91.5821E+06    -192.502E+06    -88.9923E+06    -351.833E+03    -51.8504E-03     103.644E-03    -51.7941E-03     8.69176E-03    -51.9015E-03     102.945E-03    -51.8271E-03     8.65471E-03
             806     1.70905E-03     89.9084E-03    -87.9061E+06    -186.136E+06    -78.9758E+06    -611.833E+03    -51.8325E-03     103.681E-03    -51.8482E-03     15.8014E-03    -51.8920E-03     102.996E-03    -51.8457E-03     15.7325E-03
             807     2.56362E-03     89.9279E-03    -82.5892E+06    -175.840E+06    -65.6236E+06    -1.09611E+06    -51.8534E-03     103.730E-03    -51.8768E-03     23.0070E-03    -51.9259E-03     103.076E-03    -51.8302E-03     22.8997E-03
             808     3.41823E-03     89.9544E-03    -76.3726E+06    -162.464E+06    -52.0506E+06    -1.99171E+06    -51.8880E-03     103.785E-03    -51.8970E-03     29.8503E-03    -51.9762E-03     103.176E-03    -51.8110E-03     29.6962E-03
             809     4.27288E-03     89.9875E-03    -69.9284E+06    -148.815E+06    -40.2668E+06    -2.98413E+06    -51.9418E-03     103.848E-03    -51.9057E-03     36.1726E-03    -52.0451E-03     103.291E-03    -51.7899E-03     35.9672E-03
             810     5.12756E-03     90.0267E-03    -63.6827E+06    -134.963E+06    -30.1955E+06    -3.83785E+06    -52.0039E-03     103.909E-03    -51.9056E-03     41.8814E-03    -52.1240E-03     103.412E-03    -51.7685E-03     41.6236E-03
             811     5.98229E-03     90.0712E-03    -57.7746E+06    -120.667E+06    -21.6119E+06    -4.54082E+06    -52.0625E-03     103.960E-03    -51.8979E-03     46.8840E-03    -52.2026E-03     103.530E-03    -51.7472E-03     46.5734E-03
             812     6.83704E-03     90.1204E-03    -52.2050E+06    -106.675E+06    -14.0867E+06    -5.08678E+06    -52.1092E-03     103.995E-03    -51.8859E-03     51.0777E-03    -52.2715E-03     103.634E-03    -51.7259E-03     50.7150E-03
             813     7.69184E-03     90.1733E-03    -46.9460E+06    -92.0210E+06    -7.22811E+06    -5.47104E+06    -52.1304E-03     104.000E-03    -51.8698E-03     54.3664E-03    -52.3187E-03     103.716E-03    -51.7044E-03     53.9540E-03
             814     8.54668E-03     90.2289E-03    -41.9472E+06    -77.0030E+06    -601.434E+03    -5.67296E+06    -52.1182E-03     103.970E-03    -51.8518E-03     56.6307E-03    -52.3349E-03     103.766E-03    -51.6823E-03     56.1732E-03
             815     9.40156E-03     90.2863E-03    -37.1376E+06    -59.8047E+06     6.02078E+06    -5.68720E+06    -52.0601E-03     103.890E-03    -51.8298E-03     57.7415E-03    -52.3079E-03     103.776E-03    -51.6591E-03     57.2469E-03
             816     10.2565E-03     90.3441E-03    -32.4787E+06    -43.5807E+06     12.6214E+06    -5.47251E+06    -51.9616E-03     103.770E-03    -51.8081E-03     57.4738E-03    -52.2358E-03     103.737E-03    -51.6347E-03     56.9538E-03
             817     11.1115E-03     90.4009E-03    -27.9723E+06    -24.7896E+06     18.6136E+06    -5.00904E+06    -51.8110E-03     103.589E-03    -51.7784E-03     55.6207E-03    -52.1076E-03     103.645E-03    -51.6089E-03     55.0901E-03
             818     11.9665E-03     90.4550E-03    -23.6210E+06    -3.84167E+06     25.6181E+06    -4.24790E+06    -51.6075E-03     103.357E-03    -51.7493E-03     51.9874E-03    -51.9223E-03     103.500E-03    -51.5814E-03     51.4624E-03
             819     12.8217E-03     90.5045E-03    -19.5288E+06     15.9534E+06     30.0595E+06    -3.14947E+06    -51.3861E-03     103.094E-03    -51.7081E-03     46.5490E-03    -51.7055E-03     103.314E-03    -51.5526E-03     46.0437E-03
             820     13.6769E-03     90.5477E-03    -15.7424E+06     58.1754E+06     40.0605E+06    -1.69645E+06    -51.0613E-03     102.721E-03    -51.6601E-03     39.7845E-03    -51.4201E-03     103.115E-03    -51.5213E-03     39.3118E-03
             821     14.5322E-03     90.5836E-03    -12.0989E+06     96.5249E+06     49.8599E+06    -374.336E+03    -50.7607E-03     102.374E-03    -51.6134E-03     31.4985E-03    -51.1473E-03     102.916E-03    -51.4866E-03     31.0641E-03
             822     15.3876E-03     90.6102E-03    -8.35902E+06     110.676E+06     58.9166E+06     69.5811E+03    -50.5597E-03     102.157E-03    -51.5970E-03     20.7212E-03    -50.9371E-03     102.726E-03    -51.4508E-03     20.3040E-03
             823     16.2430E-03     90.6245E-03    -4.26725E+06     115.338E+06     73.6480E+06    -14.5507E+03    -50.4495E-03     102.073E-03    -51.6231E-03     6.80928E-03    -50.7945E-03     102.598E-03    -51.4159E-03     6.47218E-03
             824     854.490E-06     90.9473E-03    -91.6682E+06    -191.590E+06    -89.1340E+06    -473.981E+03    -51.8788E-03     103.702E-03    -51.8230E-03     8.68855E-03    -51.9315E-03     103.007E-03    -51.8580E-03     8.64987E-03
             825     1.70900E-03     90.9595E-03     -87.993E+06    -185.301E+06    -79.1145E+06    -853.193E+03    -51.8595E-03     103.736E-03    -51.8765E-03     15.7952E-03    -51.9205E-03     103.056E-03    -51.8758E-03     15.7231E-03
             826     2.56354E-03     90.9790E-03    -82.7478E+06    -174.439E+06    -66.0488E+06    -1.46075E+06    -51.8783E-03     103.781E-03    -51.9022E-03     22.9968E-03    -51.9529E-03     103.134E-03    -51.8596E-03     22.8846E-03
             827     3.41813E-03     91.0055E-03    -76.6246E+06    -160.404E+06    -52.7166E+06    -2.48908E+06    -51.9113E-03     103.831E-03    -51.9198E-03     29.8348E-03    -52.0027E-03     103.234E-03    -51.8397E-03     29.6740E-03
             828     4.27276E-03     91.0386E-03    -70.2640E+06    -146.872E+06     -40.878E+06    -3.57377E+06    -51.9651E-03     103.894E-03    -51.9288E-03     36.1506E-03    -52.0720E-03     103.348E-03    -51.8183E-03     35.9373E-03
             829     5.12742E-03     91.0778E-03    -64.0606E+06    -133.141E+06    -30.7886E+06     -4.4832E+06    -52.0267E-03     103.955E-03    -51.9288E-03     41.8516E-03    -52.1505E-03     103.468E-03    -51.7968E-03     41.5851E-03
             830     5.98212E-03     91.1223E-03    -58.1672E+06    -119.024E+06    -22.2150E+06    -5.26691E+06    -52.0841E-03     104.005E-03    -51.9211E-03     46.8455E-03    -52.2276E-03     103.584E-03    -51.7753E-03     46.5252E-03
             831     6.83686E-03     91.1715E-03    -52.6158E+06    -105.256E+06    -14.7232E+06    -5.90024E+06    -52.1284E-03     104.037E-03    -51.9089E-03     51.0300E-03    -52.2940E-03     103.685E-03    -51.7536E-03     50.6564E-03
             832     7.69163E-03     91.2243E-03    -47.3764E+06    -90.8573E+06    -7.91318E+06    -6.36286E+06    -52.1463E-03     104.039E-03    -51.8924E-03     54.3094E-03    -52.3375E-03     103.762E-03    -51.7315E-03     53.8851E-03
             833     8.54646E-03     91.2800E-03    -42.3815E+06    -76.1317E+06    -1.34329E+06    -6.64600E+06    -52.1296E-03     104.003E-03    -51.8737E-03     56.5651E-03    -52.3486E-03     103.805E-03    -51.7086E-03     56.0947E-03
             834     9.40132E-03     91.3373E-03    -37.5760E+06    -59.2568E+06     5.21307E+06    -6.72144E+06    -52.0657E-03     103.916E-03    -51.8507E-03     57.6687E-03    -52.3153E-03     103.807E-03    -51.6842E-03     57.1605E-03
             835     10.2563E-03     91.3951E-03    -32.9080E+06    -43.4321E+06     11.7380E+06    -6.55820E+06    -51.9606E-03     103.788E-03    -51.8276E-03     57.3958E-03    -52.2357E-03     103.758E-03    -51.6582E-03     56.8615E-03
             836     11.1112E-03     91.4519E-03    -28.3895E+06    -25.0880E+06     17.6483E+06    -6.09346E+06    -51.8025E-03     103.599E-03    -51.7963E-03     55.5407E-03    -52.0992E-03     103.654E-03    -51.6305E-03     54.9959E-03
             837     11.9663E-03     91.5059E-03    -24.0009E+06    -4.67267E+06     24.5641E+06    -5.28187E+06    -51.5910E-03     103.356E-03    -51.7652E-03     51.9080E-03    -51.9049E-03     103.497E-03    -51.6008E-03     51.3696E-03
             838     12.8215E-03     91.5554E-03    -19.8215E+06     14.4581E+06     28.9037E+06    -3.99972E+06    -51.3615E-03     103.083E-03    -51.7217E-03     46.4719E-03    -51.6785E-03     103.297E-03    -51.5694E-03     45.9558E-03
             839     13.6767E-03     91.5985E-03    -15.8584E+06     55.9436E+06     38.8200E+06    -2.12534E+06    -51.0289E-03     102.700E-03    -51.6711E-03     39.7124E-03    -51.3831E-03     103.084E-03    -51.5351E-03     39.2344E-03
             840     14.5320E-03     91.6344E-03    -11.9712E+06     95.2701E+06     48.9269E+06    -518.598E+03    -50.7154E-03     102.336E-03    -51.6210E-03     31.4356E-03    -51.0980E-03     102.873E-03    -51.4971E-03     30.9998E-03
             841     15.3875E-03     91.6610E-03    -8.11288E+06     110.853E+06     58.4874E+06    -96.5204E+03    -50.5024E-03     102.104E-03    -51.6013E-03     20.6708E-03    -50.8781E-03     102.674E-03    -51.4578E-03     20.2519E-03
             842     16.2429E-03     91.6752E-03    -4.12054E+06     115.348E+06     73.6660E+06    -171.707E+03    -50.3836E-03     102.010E-03    -51.6264E-03     6.77905E-03    -50.7279E-03     102.536E-03    -51.4193E-03     6.44030E-03
             843     854.461E-06     91.9985E-03    -91.9137E+06    -190.421E+06    -89.4037E+06    -582.925E+03    -51.9110E-03     103.766E-03    -51.8553E-03     8.68458E-03    -51.9662E-03     103.079E-03    -51.8930E-03     8.64442E-03
             844     1.70894E-03     92.0106E-03    -88.3365E+06    -184.171E+06    -79.3336E+06    -1.07084E+06    -51.8914E-03     103.801E-03    -51.9092E-03     15.7869E-03    -51.9554E-03     103.127E-03    -51.9107E-03     15.7118E-03
             845     2.56346E-03     92.0301E-03    -83.0254E+06    -172.665E+06    -66.3617E+06    -1.86890E+06    -51.9091E-03     103.843E-03    -51.9334E-03     22.9826E-03    -51.9873E-03     103.205E-03    -51.8945E-03     22.8650E-03
             846     3.41801E-03     92.0567E-03    -76.8933E+06    -158.087E+06    -53.2381E+06    -3.00834E+06    -51.9409E-03     103.890E-03    -51.9490E-03     29.8134E-03    -52.0362E-03     103.305E-03    -51.8745E-03     29.6457E-03
             847     4.27261E-03     92.0898E-03    -70.5808E+06    -144.708E+06    -41.3800E+06    -4.14199E+06    -51.9946E-03     103.953E-03    -51.9582E-03     36.1205E-03    -52.1055E-03     103.419E-03    -51.8529E-03     35.8995E-03
             848     5.12724E-03     92.1290E-03    -64.4186E+06    -131.090E+06    -31.2937E+06    -5.13716E+06    -52.0553E-03     104.014E-03    -51.9583E-03     41.8117E-03    -52.1831E-03     103.538E-03    -51.8313E-03     41.5364E-03
             849     5.98192E-03     92.1735E-03    -58.5495E+06    -117.149E+06    -22.7446E+06    -6.00313E+06    -52.1107E-03     104.061E-03    -51.9506E-03     46.7949E-03    -52.2581E-03     103.651E-03    -51.8096E-03     46.4646E-03
             850     6.83663E-03     92.2226E-03    -53.0173E+06    -103.607E+06    -15.2941E+06    -6.71877E+06    -52.1519E-03     104.090E-03    -51.9381E-03     50.9683E-03    -52.3210E-03     103.747E-03    -51.7874E-03     50.5837E-03
             851     7.69138E-03     92.2754E-03    -47.7885E+06    -89.4687E+06    -8.53880E+06    -7.27229E+06    -52.1651E-03     104.086E-03    -51.9209E-03     54.2371E-03    -52.3595E-03     103.818E-03    -51.7646E-03     53.8005E-03
             852     8.54618E-03     92.3311E-03    -42.8107E+06    -75.0402E+06    -2.03445E+06    -7.64088E+06    -52.1423E-03     104.044E-03    -51.9012E-03     56.4830E-03    -52.3640E-03     103.853E-03    -51.7405E-03     55.9993E-03
             853     9.40104E-03     92.3884E-03    -38.0096E+06    -58.5221E+06     4.44568E+06    -7.79597E+06    -52.0709E-03     103.948E-03    -51.8767E-03     57.5788E-03    -52.3226E-03     103.844E-03    -51.7145E-03     57.0563E-03
             854     10.2560E-03     92.4461E-03    -33.3547E+06    -43.1204E+06     10.8801E+06    -7.68274E+06    -51.9570E-03     103.809E-03    -51.8518E-03     57.3007E-03    -52.2335E-03     103.782E-03    -51.6865E-03     56.7516E-03
             855     11.1110E-03     92.5028E-03    -28.8383E+06    -25.3012E+06     16.6809E+06    -7.24877E+06    -51.7895E-03     103.608E-03    -51.8182E-03     55.4440E-03    -52.0866E-03     103.664E-03    -51.6563E-03     54.8842E-03
             856     11.9660E-03     92.5568E-03    -24.4429E+06    -5.49118E+06     23.4777E+06    -6.41168E+06    -51.5682E-03     103.353E-03    -51.7845E-03     51.8133E-03    -51.8813E-03     103.491E-03    -51.6237E-03     51.2604E-03
             857     12.8212E-03     92.6062E-03    -20.2091E+06     12.8020E+06     27.6577E+06    -5.06341E+06    -51.3290E-03     103.067E-03    -51.7381E-03     46.3814E-03    -51.6435E-03     103.275E-03    -51.5890E-03     45.8518E-03
             858     13.6764E-03     92.6493E-03    -16.0226E+06     53.2215E+06     37.4122E+06    -2.99760E+06    -50.9873E-03     102.672E-03    -51.6843E-03     39.6291E-03    -51.3362E-03     103.044E-03    -51.5512E-03     39.1402E-03
             859     14.5319E-03     92.6851E-03    -11.8746E+06     93.7276E+06     47.8233E+06    -1.01557E+06    -50.6572E-03     102.287E-03    -51.6295E-03     31.3631E-03    -51.0354E-03     102.817E-03    -51.5091E-03     30.9213E-03
             860     15.3873E-03     92.7116E-03    -7.94484E+06     110.971E+06     57.9544E+06    -279.922E+03    -50.4298E-03     102.036E-03    -51.6057E-03     20.6144E-03    -50.8040E-03     102.607E-03    -51.4654E-03     20.1937E-03
             861     16.2429E-03     92.7258E-03    -4.00542E+06     115.226E+06     73.5075E+06    -181.701E+03    -50.3097E-03     101.938E-03    -51.6288E-03     6.74827E-03    -50.6529E-03     102.463E-03    -51.4226E-03     6.40988E-03
             862     854.427E-06     93.0497E-03    -92.7954E+06    -189.016E+06    -90.0396E+06    -691.913E+03    -51.9476E-03     103.840E-03    -51.8922E-03     8.67761E-03    -52.0084E-03     103.161E-03    -51.9337E-03     8.63596E-03
             863     1.70887E-03     93.0619E-03    -88.8089E+06    -182.617E+06    -79.5358E+06    -1.38491E+06    -51.9304E-03     103.879E-03    -51.9485E-03     15.7742E-03    -51.9988E-03     103.214E-03    -51.9526E-03     15.6949E-03
             864     2.56335E-03     93.0814E-03    -83.3050E+06    -170.494E+06    -66.6273E+06    -2.38607E+06    -51.9473E-03     103.919E-03    -51.9717E-03     22.9627E-03    -52.0297E-03     103.294E-03    -51.9368E-03     22.8381E-03
             865     3.41787E-03     93.1079E-03    -77.1329E+06    -155.624E+06    -53.5942E+06    -3.54897E+06    -51.9784E-03     103.965E-03    -51.9864E-03     29.7841E-03    -52.0781E-03     103.394E-03    -51.9169E-03     29.6091E-03
             866     4.27243E-03     93.1411E-03    -70.8332E+06    -142.312E+06    -41.7242E+06    -4.70341E+06    -52.0316E-03     104.027E-03    -51.9958E-03     36.0804E-03    -52.1467E-03     103.507E-03    -51.8953E-03     35.8518E-03
             867     5.12703E-03     93.1802E-03    -64.6857E+06    -128.796E+06    -31.6476E+06    -5.77985E+06    -52.0905E-03     104.086E-03    -51.9959E-03     41.7596E-03    -52.2225E-03     103.623E-03    -51.8736E-03     41.4755E-03
             868     5.98167E-03     93.2247E-03    -58.8365E+06    -115.047E+06    -23.1334E+06    -6.73195E+06    -52.1429E-03     104.131E-03    -51.9879E-03     46.7297E-03    -52.2943E-03     103.732E-03    -51.8514E-03     46.3895E-03
             869     6.83635E-03     93.2738E-03    -53.3194E+06    -101.722E+06    -15.7304E+06    -7.53550E+06    -52.1794E-03     104.154E-03    -51.9747E-03     50.8903E-03    -52.3522E-03     103.822E-03    -51.8286E-03     50.4947E-03
             870     7.69107E-03     93.3266E-03    -48.1151E+06    -87.8466E+06    -9.03824E+06    -8.17838E+06    -52.1863E-03     104.143E-03    -51.9565E-03     54.1471E-03    -52.3838E-03     103.884E-03    -51.8045E-03     53.6984E-03
             871     8.54586E-03     93.3822E-03    -43.1602E+06    -73.7236E+06    -2.60762E+06    -8.63479E+06    -52.1553E-03     104.090E-03    -51.9352E-03     56.3828E-03    -52.3797E-03     103.908E-03    -51.7788E-03     55.8859E-03
             872     9.40070E-03     93.4394E-03    -38.3957E+06    -57.5673E+06     3.78522E+06    -8.87633E+06    -52.0741E-03     103.983E-03    -51.9087E-03     57.4706E-03    -52.3280E-03     103.885E-03    -51.7507E-03     56.9338E-03
             873     10.2556E-03     93.4971E-03    -33.7512E+06    -42.6396E+06     10.1152E+06    -8.83892E+06    -51.9492E-03     103.830E-03    -51.8813E-03     57.1878E-03    -52.2271E-03     103.808E-03    -51.7199E-03     56.6236E-03
             874     11.1106E-03     93.5538E-03    -29.2396E+06    -25.3753E+06     15.7977E+06    -8.44342E+06    -51.7698E-03     103.615E-03    -51.8447E-03     55.3311E-03    -52.0674E-03     103.672E-03    -51.6865E-03     54.7559E-03
             875     11.9657E-03     93.6077E-03    -24.8440E+06    -6.27072E+06     22.4433E+06    -7.60800E+06    -51.5364E-03     103.344E-03    -51.8075E-03     51.7046E-03    -51.8487E-03     103.481E-03    -51.6502E-03     51.1364E-03
             876     12.8209E-03     93.6570E-03    -20.6268E+06     11.1722E+06     26.4420E+06    -6.22839E+06    -51.2860E-03     103.043E-03    -51.7573E-03     46.2800E-03    -51.5983E-03     103.245E-03    -51.6113E-03     45.7357E-03
             877     13.6762E-03     93.7000E-03    -16.5210E+06     50.3292E+06     35.8804E+06    -4.11226E+06    -50.9346E-03     102.634E-03    -51.6994E-03     39.5380E-03    -51.2793E-03     102.995E-03    -51.5690E-03     39.0353E-03
             878     14.5317E-03     93.7357E-03    -12.3049E+06     91.6859E+06     46.3750E+06    -1.87508E+06    -50.5860E-03     102.225E-03    -51.6390E-03     31.2862E-03    -50.9610E-03     102.747E-03    -51.5222E-03     30.8340E-03
             879     15.3872E-03     93.7622E-03    -8.16150E+06     110.607E+06     57.1099E+06    -609.452E+03    -50.3423E-03     101.953E-03    -51.6103E-03     20.5546E-03    -50.7156E-03     102.524E-03    -51.4733E-03     20.1303E-03
             880     16.2429E-03     93.7763E-03    -4.11860E+06     114.962E+06     73.3150E+06    -175.561E+03    -50.2208E-03     101.852E-03    -51.6312E-03     6.71496E-03    -50.5639E-03     102.376E-03    -51.4254E-03     6.37726E-03
             881     854.385E-06     94.1011E-03    -92.5630E+06    -187.342E+06    -89.8533E+06    -793.076E+03    -51.9985E-03     103.942E-03    -51.9433E-03     8.66772E-03    -52.0608E-03     103.271E-03    -51.9867E-03     8.62466E-03
             882     1.70878E-03     94.1132E-03    -88.7545E+06    -180.488E+06    -79.6182E+06    -1.76081E+06    -51.9792E-03     103.977E-03    -51.9974E-03     15.7569E-03    -52.0502E-03     103.323E-03    -52.0051E-03     15.6726E-03
             883     2.56322E-03     94.1327E-03    -83.3591E+06    -167.995E+06    -66.8104E+06    -2.92516E+06    -51.9949E-03     104.014E-03    -52.0195E-03     22.9360E-03    -52.0809E-03     103.402E-03    -51.9890E-03     22.8042E-03
             884     3.41769E-03     94.1593E-03    -77.2331E+06    -153.040E+06    -53.7577E+06    -4.09978E+06    -52.0254E-03     104.059E-03    -52.0341E-03     29.7458E-03    -52.1291E-03     103.502E-03    -51.9690E-03     29.5633E-03
             885     4.27221E-03     94.1924E-03    -70.9380E+06    -139.699E+06    -41.8683E+06    -5.26619E+06    -52.0769E-03     104.120E-03    -52.0433E-03     36.0291E-03    -52.1962E-03     103.613E-03    -51.9473E-03     35.7928E-03
             886     5.12677E-03     94.2316E-03    -64.7972E+06    -126.267E+06    -31.8020E+06    -6.41133E+06    -52.1329E-03     104.176E-03    -52.0431E-03     41.6940E-03    -52.2689E-03     103.726E-03    -51.9251E-03     41.4012E-03
             887     5.98137E-03     94.2761E-03    -58.9604E+06    -112.718E+06    -23.3241E+06    -7.44352E+06    -52.1806E-03     104.215E-03    -52.0345E-03     46.6492E-03    -52.3357E-03     103.828E-03    -51.9021E-03     46.2993E-03
             888     6.83601E-03     94.3251E-03    -53.4721E+06    -99.6029E+06    -15.9761E+06    -8.33005E+06    -52.2102E-03     104.230E-03    -52.0201E-03     50.7957E-03    -52.3864E-03     103.909E-03    -51.8780E-03     50.3893E-03
             889     7.69071E-03     94.3779E-03    -48.3044E+06    -86.0028E+06    -9.35397E+06    -9.05156E+06    -52.2081E-03     104.208E-03    -52.0001E-03     54.0395E-03    -52.4088E-03     103.959E-03    -51.8522E-03     53.5791E-03
             890     8.54546E-03     94.4334E-03    -43.3954E+06    -72.1587E+06    -2.99985E+06    -9.60424E+06    -52.1661E-03     104.143E-03    -51.9765E-03     56.2651E-03    -52.3933E-03     103.968E-03    -51.8240E-03     55.7553E-03
             891     9.40031E-03     94.4906E-03    -38.6510E+06    -56.3903E+06     3.30307E+06    -9.94498E+06    -52.0725E-03     104.020E-03    -51.9471E-03     57.3459E-03    -52.3284E-03     103.929E-03    -51.7928E-03     56.7951E-03
             892     10.2552E-03     94.5482E-03    -34.0385E+06    -41.9359E+06     9.51995E+06    -9.99991E+06    -51.9338E-03     103.850E-03    -51.9161E-03     57.0609E-03    -52.2130E-03     103.832E-03    -51.7583E-03     56.4817E-03
             893     11.1102E-03     94.6047E-03    -29.5373E+06    -25.3036E+06     15.0613E+06    -9.67782E+06    -51.7400E-03     103.615E-03    -51.8754E-03     55.2073E-03    -52.0378E-03     103.675E-03    -51.7206E-03     54.6163E-03
             894     11.9654E-03     94.6586E-03    -25.1287E+06    -6.94988E+06     21.5466E+06    -8.86377E+06    -51.4926E-03     103.326E-03    -51.8337E-03     51.5888E-03    -51.8037E-03     103.461E-03    -51.6795E-03     51.0048E-03
             895     12.8206E-03     94.7077E-03    -20.8971E+06     9.54581E+06     25.3534E+06    -7.43681E+06    -51.2297E-03     103.008E-03    -51.7787E-03     46.1763E-03    -51.5390E-03     103.204E-03    -51.6355E-03     45.6170E-03
             896     13.6759E-03     94.7507E-03    -16.7227E+06     47.5204E+06     34.5480E+06    -5.29433E+06    -50.8684E-03     102.584E-03    -51.7158E-03     39.4504E-03    -51.2078E-03     102.933E-03    -51.5877E-03     38.9332E-03
             897     14.5315E-03     94.7863E-03    -12.5031E+06     89.2047E+06     45.0788E+06    -2.89264E+06    -50.5069E-03     102.156E-03    -51.6495E-03     31.2194E-03    -50.8772E-03     102.668E-03    -51.5353E-03     30.7550E-03
             898     15.3871E-03     94.8126E-03    -8.38751E+06     109.506E+06     56.1425E+06    -1.12567E+06    -50.2510E-03     101.866E-03    -51.6149E-03     20.5094E-03    -50.6222E-03     102.433E-03    -51.4808E-03     20.0794E-03
             899     16.2428E-03     94.8267E-03    -4.22338E+06     114.558E+06     73.0562E+06    -315.081E+03    -50.1251E-03     101.758E-03    -51.6328E-03     6.69330E-03    -50.4677E-03     102.280E-03    -51.4276E-03     6.35452E-03
             900     854.321E-06     95.1526E-03    -92.0066E+06    -185.385E+06    -89.4947E+06    -881.186E+03    -52.0625E-03     104.070E-03    -52.0076E-03     8.65685E-03    -52.1254E-03     103.408E-03    -52.0529E-03     8.61254E-03
             901     1.70868E-03     95.1647E-03    -88.3524E+06    -177.827E+06    -79.4958E+06    -2.05008E+06    -52.0398E-03     104.098E-03    -52.0585E-03     15.7354E-03    -52.1129E-03     103.457E-03    -52.0700E-03     15.6471E-03
             902     2.56305E-03     95.1842E-03    -83.1145E+06    -165.173E+06    -66.7237E+06    -3.38888E+06    -52.0542E-03     104.134E-03    -52.0796E-03     22.9020E-03    -52.1432E-03     103.535E-03    -52.0532E-03     22.7639E-03
             903     3.41748E-03     95.2108E-03    -77.0748E+06    -150.301E+06    -53.6640E+06    -4.62021E+06    -52.0830E-03     104.177E-03    -52.0940E-03     29.6978E-03    -52.1901E-03     103.633E-03    -52.0327E-03     29.5081E-03
             904     4.27194E-03     95.2439E-03    -70.8109E+06    -136.881E+06    -41.7779E+06    -5.82308E+06    -52.1310E-03     104.234E-03    -52.1026E-03     35.9664E-03    -52.2538E-03     103.740E-03    -52.0103E-03     35.7224E-03
             905     5.12645E-03     95.2830E-03    -64.6750E+06    -123.518E+06    -31.7096E+06    -7.02972E+06    -52.1818E-03     104.283E-03    -52.1014E-03     41.6151E-03    -52.3214E-03     103.847E-03    -51.9871E-03     41.3139E-03
             906     5.98100E-03     95.3275E-03    -58.8586E+06    -110.184E+06    -23.2609E+06    -8.12185E+06    -52.2224E-03     104.314E-03    -52.0914E-03     46.5539E-03    -52.3807E-03     103.939E-03    -51.9626E-03     46.1947E-03
             907     6.83561E-03     95.3765E-03    -53.4169E+06    -97.2784E+06    -15.9703E+06    -9.06112E+06    -52.2421E-03     104.317E-03    -52.0750E-03     50.6857E-03    -52.4213E-03     104.008E-03    -51.9363E-03     50.2694E-03
             908     7.69027E-03     95.4292E-03    -48.3075E+06    -83.9223E+06    -9.42077E+06    -9.87064E+06    -52.2276E-03     104.280E-03    -52.0522E-03     53.9175E-03    -52.4311E-03     104.041E-03    -51.9076E-03     53.4461E-03
             909     8.54502E-03     95.4847E-03    -43.4328E+06    -70.3423E+06    -3.14312E+06    -10.5317E+06    -52.1711E-03     104.196E-03    -52.0250E-03     56.1352E-03    -52.4007E-03     104.031E-03    -51.8758E-03     55.6133E-03
             910     9.39984E-03     95.5418E-03    -38.7355E+06    -54.9655E+06     3.06160E+06    -10.9853E+06    -52.0614E-03     104.053E-03    -51.9914E-03     57.2125E-03    -52.3193E-03     103.969E-03    -51.8402E-03     56.6483E-03
             911     10.2548E-03     95.5993E-03    -34.1415E+06    -40.9906E+06     9.16703E+06    -11.1521E+06    -51.9060E-03     103.861E-03    -51.9555E-03     56.9292E-03    -52.1862E-03     103.848E-03    -51.8007E-03     56.3355E-03
             912     11.1098E-03     95.6557E-03    -29.6543E+06    -25.0209E+06     14.5624E+06    -10.9325E+06    -51.6954E-03     103.605E-03    -51.9094E-03     55.0833E-03    -51.9931E-03     103.666E-03    -51.7574E-03     54.4767E-03
             913     11.9650E-03     95.7094E-03    -25.2303E+06    -7.48605E+06     20.8636E+06    -10.2006E+06    -51.4321E-03     103.294E-03    -51.8618E-03     51.4794E-03    -51.7415E-03     103.427E-03    -51.7101E-03     50.8791E-03
             914     12.8203E-03     95.7585E-03    -20.8845E+06     7.97986E+06     24.4900E+06    -8.81527E+06    -51.1560E-03     102.957E-03    -51.8007E-03     46.0866E-03    -51.4613E-03     103.145E-03    -51.6595E-03     45.5106E-03
             915     13.6757E-03     95.8012E-03    -16.5388E+06     44.8748E+06     33.5095E+06    -6.72780E+06    -50.7861E-03     102.518E-03    -51.7317E-03     39.3830E-03    -51.1189E-03     102.854E-03    -51.6052E-03     38.8486E-03
             916     14.5313E-03     95.8368E-03    -12.1942E+06     86.0948E+06     44.0378E+06    -3.96166E+06    -50.4215E-03     102.081E-03    -51.6595E-03     31.1777E-03    -50.7839E-03     102.578E-03    -51.5465E-03     30.7008E-03
             917     15.3870E-03     95.8630E-03    -8.18249E+06     107.743E+06     55.2405E+06    -1.55403E+06    -50.1644E-03     101.782E-03    -51.6181E-03     20.4943E-03    -50.5305E-03     102.342E-03    -51.4863E-03     20.0601E-03
             918     16.2428E-03     95.8770E-03    -4.24153E+06     114.097E+06     72.6651E+06    -492.846E+03    -50.0396E-03     101.672E-03    -51.6320E-03     6.69638E-03    -50.3809E-03     102.192E-03    -51.4280E-03     6.35613E-03
             919     854.264E-06     96.2042E-03    -91.6292E+06    -183.071E+06     -89.142E+06    -1.12974E+06    -52.1388E-03     104.223E-03    -52.0843E-03     8.64292E-03    -52.2037E-03     103.571E-03    -52.1317E-03     8.59524E-03
             920     1.70854E-03     96.2164E-03    -87.8801E+06    -174.789E+06    -79.0797E+06    -2.37355E+06    -52.1140E-03     104.248E-03    -52.1338E-03     15.7090E-03    -52.1897E-03     103.620E-03    -52.1483E-03     15.6162E-03
             921     2.56286E-03     96.2359E-03    -82.6297E+06    -162.037E+06    -66.3012E+06    -3.79492E+06    -52.1261E-03     104.280E-03    -52.1541E-03     22.8606E-03    -52.2179E-03     103.696E-03    -52.1308E-03     22.7168E-03
             922     3.41721E-03     96.2624E-03    -76.6089E+06    -147.355E+06    -53.2482E+06    -5.11116E+06    -52.1516E-03     104.319E-03    -52.1678E-03     29.6399E-03    -52.2612E-03     103.788E-03    -52.1093E-03     29.4434E-03
             923     4.27162E-03     96.2955E-03    -70.3521E+06    -133.868E+06    -41.3870E+06    -6.36552E+06    -52.1930E-03     104.368E-03    -52.1747E-03     35.8929E-03    -52.3185E-03     103.888E-03    -52.0855E-03     35.6414E-03
             924     5.12607E-03     96.3346E-03    -64.2391E+06    -120.570E+06    -31.3161E+06    -7.61929E+06    -52.2354E-03     104.407E-03    -52.1716E-03     41.5246E-03    -52.3775E-03     103.984E-03    -52.0602E-03     41.2152E-03
             925     5.98058E-03     96.3791E-03    -58.4616E+06    -107.498E+06    -22.8921E+06    -8.73814E+06    -52.2652E-03     104.424E-03    -52.1591E-03     46.4466E-03    -52.4259E-03     104.062E-03    -52.0329E-03     46.0790E-03
             926     6.83514E-03     96.4280E-03    -53.0641E+06    -94.7619E+06    -15.6517E+06    -9.72051E+06    -52.2707E-03     104.410E-03    -52.1391E-03     50.5654E-03    -52.4522E-03     104.112E-03    -52.0030E-03     50.1401E-03
             927     7.68979E-03     96.4807E-03    -47.9991E+06    -81.6069E+06    -9.16169E+06    -10.6102E+06    -52.2394E-03     104.351E-03    -52.1119E-03     53.7886E-03    -52.4449E-03     104.123E-03    -51.9698E-03     53.3075E-03
             928     8.54452E-03     96.5360E-03    -43.2063E+06    -68.2738E+06    -2.96804E+06    -11.3760E+06    -52.1640E-03     104.243E-03    -52.0794E-03     56.0035E-03    -52.3954E-03     104.088E-03    -51.9326E-03     55.4707E-03
             929     9.39936E-03     96.5930E-03    -38.5755E+06    -53.2675E+06     3.14202E+06    -11.9565E+06    -52.0346E-03     104.074E-03    -52.0398E-03     57.0830E-03    -52.2938E-03     103.998E-03    -51.8909E-03     56.5067E-03
             930     10.2543E-03     96.6504E-03    -34.0549E+06     -39.773E+06     9.11584E+06    -12.2630E+06    -51.8592E-03     103.856E-03    -51.9972E-03     56.8086E-03    -52.1402E-03     103.849E-03    -51.8446E-03     56.2013E-03
             931     11.1094E-03     96.7067E-03    -29.5993E+06    -24.4573E+06     14.3592E+06    -12.1970E+06    -51.6297E-03     103.574E-03    -51.9440E-03     54.9777E-03    -51.9271E-03     103.638E-03    -51.7939E-03     54.3559E-03
             932     11.9646E-03     96.7602E-03    -25.1467E+06    -7.75701E+06     20.4691E+06    -11.6340E+06    -51.3501E-03     103.239E-03    -51.8889E-03     51.3956E-03    -51.6575E-03     103.370E-03    -51.7388E-03     50.7782E-03
             933     12.8200E-03     96.8091E-03    -20.7483E+06     6.61318E+06     23.8766E+06    -10.3962E+06    -51.0629E-03     102.883E-03    -51.8204E-03     46.0288E-03    -51.3641E-03     103.065E-03    -51.6805E-03     45.4342E-03
             934     13.6755E-03     96.8517E-03    -16.4069E+06     42.3333E+06     32.6318E+06    -8.31286E+06    -50.6903E-03     102.435E-03    -51.7443E-03     39.3511E-03    -51.0169E-03     102.759E-03    -51.6188E-03     38.7979E-03
             935     14.5312E-03     96.8871E-03    -12.1301E+06     82.1496E+06     42.8427E+06    -5.14272E+06    -50.3337E-03     102.000E-03    -51.6661E-03     31.1719E-03    -50.6879E-03     102.478E-03    -51.5534E-03     30.6814E-03
             936     15.3870E-03     96.9133E-03    -8.04468E+06     105.262E+06     54.1445E+06    -2.01717E+06    -50.0865E-03     101.704E-03    -51.6175E-03     20.5168E-03    -50.4465E-03     102.252E-03    -51.4878E-03     20.0780E-03
             937     16.2429E-03     96.9273E-03    -4.01974E+06     113.623E+06     72.0679E+06     -579.55E+03    -49.9776E-03     101.604E-03    -51.6269E-03     6.73158E-03    -50.3162E-03     102.123E-03    -51.4255E-03     6.39100E-03
             938     854.173E-06     97.2560E-03    -90.7015E+06    -180.269E+06    -88.2442E+06    -1.35597E+06    -52.2313E-03     104.409E-03    -52.1775E-03     8.62605E-03    -52.2969E-03     103.768E-03    -52.2258E-03     8.57528E-03
             939     1.70838E-03     97.2682E-03    -87.1023E+06    -171.460E+06    -78.3648E+06    -2.70476E+06    -52.2024E-03     104.427E-03    -52.2245E-03     15.6777E-03    -52.2801E-03     103.814E-03    -52.2414E-03     15.5804E-03
             940     2.56262E-03     97.2877E-03    -81.8854E+06    -158.620E+06    -65.5627E+06    -4.20638E+06    -52.2101E-03     104.454E-03    -52.2434E-03     22.8129E-03    -52.3041E-03     103.884E-03    -52.2225E-03     22.6634E-03
             941     3.41691E-03     97.3142E-03    -75.8494E+06    -144.172E+06    -52.5013E+06    -5.59842E+06    -52.2293E-03     104.485E-03    -52.2556E-03     29.5746E-03    -52.3407E-03     103.968E-03    -52.1991E-03     29.3714E-03
             942     4.27124E-03     97.3473E-03    -69.5823E+06    -130.665E+06    -40.6681E+06    -6.91484E+06    -52.2601E-03     104.520E-03    -52.2596E-03     35.8117E-03    -52.3874E-03     104.054E-03    -52.1726E-03     35.5525E-03
             943     5.12564E-03     97.3864E-03    -63.4744E+06    -117.503E+06    -30.6122E+06    -8.16454E+06    -52.2892E-03     104.542E-03    -52.2528E-03     41.4274E-03    -52.4330E-03     104.132E-03    -52.1434E-03     41.1105E-03
             944     5.98010E-03     97.4308E-03    -57.7415E+06    -104.680E+06    -22.1991E+06    -9.27833E+06    -52.3031E-03     104.539E-03    -52.2360E-03     46.3350E-03    -52.4651E-03     104.189E-03    -52.1114E-03     45.9600E-03
             945     6.83464E-03     97.4796E-03    -52.3770E+06    -92.0377E+06    -14.9810E+06    -10.3295E+06    -52.2888E-03     104.499E-03    -52.2103E-03     50.4454E-03    -52.4716E-03     104.213E-03    -52.0758E-03     50.0122E-03
             946     7.68926E-03     97.5322E-03    -47.3369E+06    -79.1194E+06    -8.54023E+06    -11.2828E+06    -52.2354E-03     104.412E-03    -52.1765E-03     53.6657E-03    -52.4418E-03     104.194E-03    -52.0359E-03     53.1761E-03
             947     8.54401E-03     97.5874E-03    -42.5892E+06    -65.9870E+06    -2.39641E+06    -12.0949E+06    -52.1364E-03     104.273E-03    -52.1364E-03     55.8849E-03    -52.3685E-03     104.126E-03    -51.9910E-03     55.3435E-03
             948     9.39887E-03     97.6443E-03    -38.0993E+06    -51.3094E+06     3.61613E+06    -12.7628E+06    -51.9836E-03     104.072E-03    -52.0886E-03     56.9754E-03    -52.2434E-03     104.004E-03    -51.9408E-03     56.3898E-03
             949     10.2539E-03     97.7015E-03    -33.7198E+06    -38.1990E+06     9.46034E+06    -13.2472E+06    -51.7861E-03     103.823E-03    -52.0371E-03     56.7189E-03    -52.0675E-03     103.822E-03    -51.8855E-03     56.1003E-03
             950     11.1090E-03     97.7576E-03    -29.3483E+06    -23.5088E+06     14.5390E+06    -13.4367E+06    -51.5381E-03     103.513E-03    -51.9748E-03     54.9109E-03    -51.8351E-03     103.580E-03    -51.8255E-03     54.2750E-03
             951     11.9643E-03     97.8109E-03    -24.9467E+06    -7.68379E+06     20.4133E+06    -13.0927E+06    -51.2458E-03     103.156E-03    -51.9106E-03     51.3557E-03    -51.5515E-03     103.287E-03    -51.7613E-03     50.7216E-03
             952     12.8198E-03     97.8597E-03    -20.6142E+06     5.53747E+06     23.5463E+06    -12.0105E+06    -50.9551E-03     102.789E-03    -51.8339E-03     46.0174E-03    -51.2529E-03     102.965E-03    -51.6943E-03     45.4042E-03
             953     13.6754E-03     97.9021E-03    -16.3684E+06     39.7021E+06     31.8856E+06    -9.86668E+06    -50.5914E-03     102.342E-03    -51.7505E-03     39.3657E-03    -50.9124E-03     102.653E-03    -51.6249E-03     38.7947E-03
             954     14.5312E-03     97.9374E-03    -12.1828E+06     77.5717E+06     41.6112E+06    -6.32246E+06    -50.2577E-03     101.925E-03    -51.6669E-03     31.2128E-03    -50.6034E-03     102.382E-03    -51.5536E-03     30.7090E-03
             955     15.3870E-03     97.9635E-03    -8.16291E+06     102.020E+06     52.7385E+06    -2.67551E+06    -50.0318E-03     101.643E-03    -51.6115E-03     20.5874E-03    -50.3855E-03     102.177E-03    -51.4839E-03     20.1415E-03
             956     16.2430E-03     97.9774E-03    -4.12045E+06     112.845E+06     71.2675E+06    -727.963E+03    -49.9389E-03     101.557E-03    -51.6178E-03     6.80418E-03    -50.2756E-03     102.073E-03    -51.4191E-03     6.46235E-03
             957     854.089E-06     98.3081E-03    -89.7005E+06    -176.981E+06    -87.2927E+06    -1.59403E+06    -52.3378E-03     104.623E-03    -52.2854E-03     8.60728E-03    -52.4045E-03     103.996E-03    -52.3351E-03     8.55326E-03
             958     1.70819E-03     98.3202E-03    -85.9917E+06    -167.796E+06    -77.3556E+06    -3.06132E+06    -52.3036E-03     104.634E-03    -52.3300E-03     15.6436E-03    -52.3825E-03     104.036E-03    -52.3488E-03     15.5414E-03
             959     2.56235E-03     98.3397E-03    -80.7477E+06    -154.959E+06    -64.5085E+06    -4.63389E+06    -52.3035E-03     104.650E-03    -52.3464E-03     22.7618E-03    -52.3987E-03     104.095E-03    -52.3272E-03     22.6064E-03
             960     3.41655E-03     98.3662E-03    -74.7178E+06    -140.748E+06    -51.3793E+06    -6.08060E+06    -52.3119E-03     104.668E-03    -52.3557E-03     29.5059E-03    -52.4243E-03     104.164E-03    -52.3002E-03     29.2960E-03
             961     4.27083E-03     98.3993E-03    -68.4486E+06    -127.257E+06    -39.5591E+06    -7.46669E+06    -52.3269E-03     104.682E-03    -52.3549E-03     35.7279E-03    -52.4551E-03     104.230E-03    -52.2689E-03     35.4613E-03
             962     5.12516E-03     98.4383E-03    -62.2973E+06    -114.358E+06    -29.5460E+06    -8.74282E+06    -52.3364E-03     104.679E-03    -52.3421E-03     41.3309E-03    -52.4803E-03     104.281E-03    -52.2337E-03     41.0064E-03
             963     5.97959E-03     98.4826E-03    -56.4861E+06    -101.792E+06    -21.1253E+06    -9.81222E+06    -52.3270E-03     104.645E-03    -52.3182E-03     46.2306E-03    -52.4884E-03     104.306E-03    -52.1943E-03     45.8488E-03
             964     6.83411E-03     98.5314E-03    -51.1637E+06    -89.1632E+06    -13.8779E+06    -10.8238E+06    -52.2864E-03     104.570E-03    -52.2841E-03     50.3401E-03    -52.4686E-03     104.295E-03    -52.1500E-03     49.9009E-03
             965     7.68876E-03     98.5838E-03    -46.2650E+06    -76.4653E+06    -7.49323E+06    -11.8227E+06    -52.2053E-03     104.446E-03    -52.2408E-03     53.5665E-03    -52.4113E-03     104.238E-03    -52.1003E-03     53.0708E-03
             966     8.54352E-03     98.6389E-03    -41.6658E+06    -63.5826E+06    -1.44449E+06    -12.6692E+06    -52.0784E-03     104.269E-03    -52.1902E-03     55.8006E-03    -52.3101E-03     104.131E-03    -52.0448E-03     55.2532E-03
             967     9.39845E-03     98.6955E-03    -37.2501E+06    -49.1011E+06     4.53833E+06    -13.4013E+06    -51.9002E-03     104.032E-03    -52.1314E-03     56.9118E-03    -52.1595E-03     103.971E-03    -51.9835E-03     56.3199E-03
             968     10.2535E-03     98.7526E-03    -32.9549E+06    -36.2453E+06     10.3079E+06    -14.0605E+06    -51.6820E-03     103.751E-03    -52.0688E-03     56.6820E-03    -51.9626E-03     103.756E-03    -51.9169E-03     56.0554E-03
             969     11.1088E-03     98.8084E-03    -28.7783E+06    -22.1460E+06     15.2079E+06    -14.4524E+06    -51.4208E-03     103.417E-03    -51.9958E-03     54.9026E-03    -51.7169E-03     103.488E-03    -51.8460E-03     54.2564E-03
             970     11.9642E-03     98.8616E-03    -24.6155E+06    -7.14068E+06     20.7925E+06    -14.3986E+06    -51.1252E-03     103.047E-03    -51.9217E-03     51.3774E-03    -51.4296E-03     103.178E-03    -51.7717E-03     50.7294E-03
             971     12.8198E-03     98.9101E-03    -20.4157E+06     4.75218E+06     23.5719E+06    -13.5560E+06    -50.8440E-03     102.681E-03    -51.8367E-03     46.0691E-03    -51.1388E-03     102.851E-03    -51.6961E-03     45.4388E-03
             972     13.6754E-03     98.9524E-03    -16.2452E+06     36.9098E+06     31.3608E+06    -11.3516E+06    -50.5045E-03     102.251E-03    -51.7469E-03     39.4439E-03    -50.8194E-03     102.549E-03    -51.6200E-03     38.8563E-03
             973     14.5313E-03     98.9876E-03    -12.1541E+06     72.5115E+06     40.5092E+06    -7.47216E+06    -50.2078E-03     101.867E-03    -51.6595E-03     31.3199E-03    -50.5441E-03     102.300E-03    -51.5444E-03     30.8032E-03
             974     15.3872E-03     99.0136E-03    -8.23855E+06     98.1414E+06     51.0973E+06    -3.32111E+06    -50.0129E-03     101.611E-03    -51.5978E-03     20.7257E-03    -50.3588E-03     102.128E-03    -51.4727E-03     20.2728E-03
             975     16.2431E-03     99.0276E-03    -4.25688E+06     111.662E+06     70.2196E+06    -994.534E+03    -49.9321E-03     101.535E-03    -51.6028E-03     6.92781E-03    -50.2663E-03     102.047E-03    -51.4075E-03     6.58303E-03
             976     853.974E-06     99.3604E-03    -88.0439E+06    -173.150E+06    -85.6629E+06    -1.85996E+06    -52.4567E-03     104.863E-03    -52.4064E-03     8.58785E-03    -52.5231E-03     104.251E-03    -52.4560E-03     8.53023E-03
             977     1.70799E-03     99.3725E-03    -84.4418E+06    -163.755E+06    -75.9497E+06    -3.47913E+06    -52.4135E-03     104.860E-03    -52.4468E-03     15.6089E-03    -52.4926E-03     104.279E-03    -52.4667E-03     15.5010E-03
             978     2.56205E-03     99.3920E-03    -79.2129E+06    -151.058E+06    -63.1194E+06    -5.12031E+06    -52.4006E-03     104.860E-03    -52.4589E-03     22.7111E-03    -52.4958E-03     104.320E-03    -52.4406E-03     22.5491E-03
             979     3.41618E-03     99.4184E-03    -73.1312E+06    -137.114E+06    -49.9187E+06    -6.59922E+06    -52.3919E-03     104.855E-03    -52.4629E-03     29.4402E-03    -52.5038E-03     104.365E-03    -52.4077E-03     29.2233E-03
             980     4.27038E-03     99.4514E-03    -66.8449E+06    -123.653E+06    -38.0666E+06    -8.00923E+06    -52.3839E-03     104.839E-03    -52.4547E-03     35.6513E-03    -52.5114E-03     104.400E-03    -52.3688E-03     35.3776E-03
             981     5.12469E-03     99.4904E-03    -60.7245E+06    -111.044E+06    -28.1100E+06    -9.34564E+06    -52.3657E-03     104.799E-03    -52.4329E-03     41.2487E-03    -52.5084E-03     104.413E-03    -52.3244E-03     40.9165E-03
             982     5.97909E-03     99.5345E-03    -54.9180E+06    -98.8810E+06    -19.7637E+06    -10.4328E+06    -52.3250E-03     104.723E-03    -52.3982E-03     46.1497E-03    -52.4844E-03     104.394E-03    -52.2741E-03     45.7604E-03
             983     6.83363E-03     99.5832E-03    -49.4427E+06    -86.2607E+06    -12.4160E+06    -11.3810E+06    -52.2512E-03     104.603E-03    -52.3522E-03     50.2688E-03    -52.4306E-03     104.337E-03    -52.2175E-03     49.8236E-03
             984     7.68830E-03     99.6354E-03    -44.4412E+06    -73.8116E+06    -5.95837E+06    -12.2305E+06    -52.1388E-03     104.435E-03    -52.2962E-03     53.5095E-03    -52.3410E-03     104.235E-03    -52.1545E-03     53.0103E-03
             985     8.54316E-03     99.6903E-03    -39.9095E+06    -61.0317E+06     76.3225E+03    -13.0438E+06    -51.9819E-03     104.214E-03    -52.2320E-03     55.7716E-03    -52.2098E-03     104.083E-03    -52.0852E-03     55.2217E-03
             986     9.39816E-03     99.7467E-03    -35.6475E+06    -46.6952E+06     6.01808E+06    -13.8707E+06    -51.7792E-03     103.939E-03    -52.1595E-03     56.9191E-03    -52.0350E-03     103.885E-03    -52.0101E-03     56.3242E-03
             987     10.2534E-03     99.8035E-03    -31.6073E+06    -34.0881E+06     11.6884E+06    -14.5417E+06    -51.5467E-03     103.631E-03    -52.0839E-03     56.7255E-03    -51.8246E-03     103.641E-03    -51.9302E-03     56.0962E-03
             988     11.1087E-03     99.8592E-03    -27.7789E+06    -20.4000E+06     16.4404E+06    -15.0495E+06    -51.2836E-03     103.283E-03    -51.9995E-03     54.9797E-03    -51.5777E-03     103.358E-03    -51.8474E-03     54.3296E-03
             989     11.9643E-03     99.9121E-03    -24.0130E+06    -6.06009E+06     21.7231E+06    -15.2670E+06    -50.9988E-03     102.914E-03    -51.9155E-03     51.4877E-03    -51.3020E-03     103.048E-03    -51.7633E-03     50.8323E-03
             990     12.8199E-03     99.9605E-03    -20.2075E+06     4.50407E+06     24.0681E+06    -14.8495E+06    -50.7424E-03     102.566E-03    -51.8234E-03     46.2133E-03    -51.0356E-03     102.733E-03    -51.6803E-03     45.5698E-03
             991     13.6757E-03     100.003E-03    -16.1147E+06     34.1189E+06     31.1322E+06    -12.9245E+06    -50.4420E-03     102.171E-03    -51.7292E-03     39.6188E-03    -50.7512E-03     102.454E-03    -51.5996E-03     39.0137E-03
             992     14.5316E-03     100.038E-03    -11.9761E+06     66.7061E+06     39.5236E+06    -8.58889E+06    -50.1940E-03     101.834E-03    -51.6405E-03     31.5282E-03    -50.5191E-03     102.239E-03    -51.5223E-03     30.9993E-03
             993     15.3875E-03     100.064E-03    -8.22341E+06     93.8205E+06     49.3500E+06    -3.86581E+06    -50.0355E-03     101.609E-03    -51.5739E-03     20.9615E-03    -50.3724E-03     102.107E-03    -51.4512E-03     20.5030E-03
             994     16.2434E-03     100.078E-03    -4.31588E+06     110.325E+06     68.8956E+06    -1.37700E+06    -49.9727E-03     101.552E-03    -51.5792E-03     7.12229E-03    -50.3035E-03     102.059E-03    -51.3884E-03     6.77282E-03
             995     853.873E-06     100.413E-03    -86.1435E+06    -168.722E+06    -83.8360E+06    -2.12970E+06    -52.5778E-03     105.108E-03    -52.5306E-03     8.57003E-03    -52.6437E-03     104.513E-03    -52.5803E-03     8.50883E-03
             996     1.70777E-03     100.425E-03    -82.5316E+06    -159.313E+06    -74.1294E+06    -3.90381E+06    -52.5231E-03     105.090E-03    -52.5666E-03     15.5772E-03    -52.6017E-03     104.525E-03    -52.5866E-03     15.4637E-03
             997     2.56175E-03     100.444E-03    -77.3301E+06    -146.846E+06    -61.4065E+06    -5.65819E+06    -52.4912E-03     105.063E-03    -52.5721E-03     22.6670E-03    -52.5855E-03     104.540E-03    -52.5541E-03     22.4980E-03
             998     3.41580E-03     100.471E-03    -71.2407E+06    -133.247E+06    -48.2676E+06    -7.23404E+06    -52.4566E-03     105.024E-03    -52.5673E-03     29.3876E-03    -52.5669E-03     104.548E-03    -52.5122E-03     29.1626E-03
             999     4.26997E-03     100.504E-03    -64.8349E+06    -119.886E+06    -36.3407E+06    -8.67677E+06    -52.4163E-03     104.965E-03    -52.5482E-03     35.5962E-03    -52.5416E-03     104.539E-03    -52.4621E-03     35.3143E-03
            1000     5.12425E-03     100.543E-03    -58.6287E+06    -107.628E+06    -26.3053E+06    -9.94633E+06    -52.3628E-03     104.877E-03    -52.5139E-03     41.1959E-03    -52.5023E-03     104.502E-03    -52.4044E-03     40.8567E-03
            1001     5.97868E-03     100.587E-03    -52.8166E+06    -95.7497E+06    -17.9883E+06    -11.0889E+06    -52.2828E-03     104.747E-03    -52.4646E-03     46.1121E-03    -52.4384E-03     104.428E-03    -52.3391E-03     45.7159E-03
            1002     6.83325E-03     100.635E-03    -47.3898E+06    -83.3992E+06    -10.7536E+06    -12.0755E+06    -52.1683E-03     104.570E-03    -52.4021E-03     50.2606E-03    -52.3434E-03     104.312E-03    -52.2662E-03     49.8086E-03
            1003     7.68803E-03     100.687E-03    -42.3404E+06    -71.3550E+06    -4.27782E+06    -12.7487E+06    -52.0209E-03     104.350E-03    -52.3296E-03     53.5365E-03    -52.2177E-03     104.156E-03    -52.1861E-03     53.0336E-03
            1004     8.54298E-03     100.742E-03    -37.6683E+06    -58.3751E+06     1.94963E+06    -13.4392E+06    -51.8365E-03     104.085E-03    -52.2488E-03     55.8431E-03    -52.0585E-03     103.961E-03    -52.0998E-03     55.2920E-03
            1005     9.39816E-03     100.798E-03    -33.4325E+06    -44.3684E+06     7.94141E+06    -14.0972E+06    -51.6186E-03     103.780E-03    -52.1610E-03     57.0361E-03    -51.8680E-03     103.730E-03    -52.0085E-03     56.4427E-03
            1006     10.2535E-03     100.854E-03    -29.6187E+06    -31.8967E+06     13.5786E+06    -14.6234E+06    -51.3842E-03     103.456E-03    -52.0715E-03     56.8896E-03    -51.6565E-03     103.470E-03    -51.9144E-03     56.2642E-03
            1007     11.1090E-03     100.910E-03    -26.1536E+06    -18.4832E+06     18.2684E+06    -15.0777E+06    -51.1343E-03     103.110E-03    -51.9761E-03     55.1849E-03    -51.4242E-03     103.189E-03    -51.8200E-03     54.5393E-03
            1008     11.9647E-03     100.962E-03    -22.9505E+06    -4.52293E+06     23.2870E+06    -15.4059E+06    -50.8763E-03     102.760E-03    -51.8836E-03     51.7333E-03    -51.1772E-03     102.896E-03    -51.7274E-03     51.0808E-03
            1009     12.8205E-03     101.011E-03    -19.8189E+06     5.07905E+06     25.2318E+06    -15.4419E+06    -50.6597E-03     102.447E-03    -51.7869E-03     46.5012E-03    -50.9524E-03     102.614E-03    -51.6393E-03     45.8542E-03
            1010     13.6763E-03     101.053E-03    -16.4208E+06     31.9510E+06     31.3010E+06    -14.2037E+06    -50.4127E-03     102.104E-03    -51.6912E-03     39.9430E-03    -50.7199E-03     102.375E-03    -51.5572E-03     39.3246E-03
            1011     14.5322E-03     101.088E-03    -12.3078E+06     60.2683E+06     38.5107E+06    -10.1155E+06    -50.2276E-03     101.832E-03    -51.6047E-03     31.8871E-03    -50.5432E-03     102.207E-03    -51.4817E-03     31.3407E-03
            1012     15.3881E-03     101.114E-03    -7.94836E+06     88.7993E+06     47.4485E+06    -4.76089E+06    -50.1166E-03     101.652E-03    -51.5352E-03     21.3335E-03    -50.4421E-03     102.127E-03    -51.4152E-03     20.8647E-03
            1013     16.2439E-03     101.128E-03    -3.93577E+06     108.802E+06     67.7376E+06    -1.66396E+06    -50.0809E-03     101.626E-03    -51.5453E-03     7.41147E-03    -50.4059E-03     102.127E-03    -51.3587E-03     7.05823E-03
            1014     853.763E-06     101.466E-03    -83.9929E+06    -163.692E+06    -81.6722E+06    -2.43140E+06    -52.6869E-03     105.331E-03    -52.6443E-03     8.55675E-03    -52.7525E-03     104.754E-03    -52.6935E-03     8.49165E-03
            1015     1.70758E-03     101.478E-03    -80.4038E+06    -154.416E+06    -72.0908E+06    -4.36136E+06    -52.6160E-03     105.290E-03    -52.6740E-03     15.5551E-03    -52.6940E-03     104.743E-03    -52.6939E-03     15.4358E-03
            1016     2.56147E-03     101.497E-03    -75.2030E+06    -142.280E+06    -59.4718E+06    -6.24232E+06    -52.5579E-03     105.228E-03    -52.6703E-03     22.6397E-03    -52.6510E-03     104.722E-03    -52.6523E-03     22.4634E-03
            1017     3.41549E-03     101.524E-03    -69.1119E+06    -128.989E+06    -46.4378E+06    -7.96969E+06    -52.4875E-03     105.141E-03    -52.6530E-03     29.3626E-03    -52.5959E-03     104.680E-03    -52.5980E-03     29.1287E-03
            1018     4.26963E-03     101.556E-03    -62.7554E+06    -115.991E+06    -34.6044E+06    -9.47584E+06    -52.4045E-03     105.023E-03    -52.6186E-03     35.5829E-03    -52.5272E-03     104.612E-03    -52.5324E-03     35.2917E-03
            1019     5.12394E-03     101.595E-03    -56.4821E+06    -104.111E+06    -24.5421E+06    -10.7385E+06    -52.3047E-03     104.872E-03    -52.5669E-03     41.2053E-03    -52.4407E-03     104.509E-03    -52.4568E-03     40.8578E-03
            1020     5.97843E-03     101.639E-03    -50.5106E+06    -92.4000E+06    -16.1155E+06    -11.8803E+06    -52.1783E-03     104.677E-03    -52.4984E-03     46.1581E-03    -52.3292E-03     104.367E-03    -52.3718E-03     45.7544E-03
            1021     6.83314E-03     101.687E-03    -45.0148E+06    -80.5753E+06    -8.89890E+06    -12.7737E+06    -52.0215E-03     104.437E-03    -52.4158E-03     50.3555E-03    -52.1905E-03     104.186E-03    -52.2782E-03     49.8982E-03
            1022     7.68804E-03     101.739E-03    -39.9598E+06    -68.9190E+06    -2.40766E+06    -13.4237E+06    -51.8403E-03     104.164E-03    -52.3233E-03     53.6934E-03    -52.0301E-03     103.974E-03    -52.1775E-03     53.1866E-03
            1023     8.54319E-03     101.793E-03    -35.2625E+06    -55.8922E+06     3.98419E+06    -13.9649E+06    -51.6366E-03     103.860E-03    -52.2238E-03     56.0660E-03    -51.8517E-03     103.740E-03    -52.0717E-03     55.5136E-03
            1024     9.39852E-03     101.849E-03    -30.9918E+06    -42.4202E+06     10.0784E+06    -14.2645E+06    -51.4184E-03     103.539E-03    -52.1202E-03     57.3191E-03    -51.6598E-03     103.490E-03    -51.9634E-03     56.7297E-03
            1025     10.2541E-03     101.905E-03    -27.2062E+06    -29.8619E+06     15.7992E+06    -14.4630E+06    -51.1975E-03     103.215E-03    -52.0171E-03     57.2376E-03    -51.4621E-03     103.231E-03    -51.8554E-03     56.6207E-03
            1026     11.1097E-03     101.960E-03    -23.8998E+06    -16.7679E+06     20.5437E+06    -14.6494E+06    -50.9777E-03     102.890E-03    -51.9125E-03     55.5867E-03    -51.2604E-03     102.969E-03    -51.7508E-03     54.9531E-03
            1027     11.9656E-03     102.013E-03    -21.0457E+06    -2.87850E+06     25.4706E+06    -14.7548E+06    -50.7623E-03     102.576E-03    -51.8141E-03     52.1890E-03    -51.0577E-03     102.713E-03    -51.6520E-03     51.5509E-03
            1028     12.8214E-03     102.061E-03    -18.7302E+06     6.22523E+06     27.1738E+06    -14.8198E+06    -50.6020E-03     102.318E-03    -51.7161E-03     47.0098E-03    -50.8925E-03     102.485E-03    -51.5621E-03     46.3760E-03
            1029     13.6773E-03     102.103E-03    -16.6052E+06     30.8979E+06     32.2358E+06    -14.1172E+06    -50.4281E-03     102.051E-03    -51.6230E-03     40.4905E-03    -50.7353E-03     102.316E-03    -51.4826E-03     39.8774E-03
            1030     14.5331E-03     102.138E-03    -13.7541E+06     54.9166E+06     37.8179E+06    -11.3784E+06    -50.3287E-03     101.872E-03    -51.5436E-03     32.4719E-03    -50.6425E-03     102.223E-03    -51.4142E-03     31.9120E-03
            1031     15.3889E-03     102.164E-03    -9.52561E+06     82.9504E+06     44.8746E+06    -6.67323E+06    -50.2869E-03     101.763E-03    -51.4763E-03     21.9096E-03    -50.6082E-03     102.215E-03    -51.3584E-03     21.4172E-03
            1032     16.2446E-03     102.178E-03    -4.57386E+06     106.146E+06     66.1982E+06    -2.47212E+06    -50.2945E-03     101.793E-03    -51.4982E-03     7.83531E-03    -50.6169E-03     102.284E-03    -51.3145E-03     7.47098E-03
            1033     853.690E-06     102.519E-03    -81.7082E+06    -158.042E+06    -79.4489E+06    -2.69275E+06    -52.7605E-03     105.484E-03    -52.7239E-03     8.55307E-03    -52.8261E-03     104.929E-03    -52.7736E-03     8.48476E-03
            1034     1.70744E-03     102.531E-03    -78.1874E+06    -149.044E+06    -70.0095E+06    -4.82117E+06    -52.6676E-03     105.413E-03    -52.7451E-03     15.5526E-03    -52.7453E-03     104.887E-03    -52.7657E-03     15.4277E-03
            1035     2.56130E-03     102.550E-03    -73.0507E+06    -137.258E+06    -57.5576E+06     -6.8888E+06    -52.5743E-03     105.303E-03    -52.7288E-03     22.6455E-03    -52.6666E-03     104.816E-03    -52.7116E-03     22.4617E-03
            1036     3.41530E-03     102.576E-03    -67.0166E+06    -124.341E+06    -44.6526E+06    -8.75401E+06    -52.4579E-03     105.153E-03    -52.6950E-03     29.3880E-03    -52.5648E-03     104.710E-03    -52.6407E-03     29.1453E-03
            1037     4.26949E-03     102.609E-03    -60.6683E+06    -111.858E+06    -32.9264E+06    -10.3397E+06    -52.3214E-03     104.962E-03    -52.6405E-03     35.6422E-03    -52.4417E-03     104.565E-03    -52.5550E-03     35.3421E-03
            1038     5.12389E-03     102.647E-03    -54.3616E+06    -100.268E+06    -22.8739E+06    -11.7601E+06    -52.1652E-03     104.731E-03    -52.5662E-03     41.3172E-03    -52.2980E-03     104.382E-03    -52.4564E-03     40.9598E-03
            1039     5.97853E-03     102.691E-03    -48.3063E+06    -89.0180E+06    -14.3514E+06    -12.9110E+06    -51.9887E-03     104.463E-03    -52.4743E-03     46.3350E-03    -52.1351E-03     104.164E-03    -52.3470E-03     45.9223E-03
            1040     6.83340E-03     102.738E-03    -42.6307E+06    -77.7514E+06    -6.98998E+06    -13.6988E+06    -51.7934E-03     104.162E-03    -52.3686E-03     50.6087E-03    -51.9561E-03     103.918E-03    -52.2290E-03     50.1451E-03
            1041     7.68855E-03     102.790E-03    -37.4039E+06    -66.4406E+06    -399.918E+03    -14.2314E+06    -51.5876E-03     103.841E-03    -52.2538E-03     54.0372E-03    -51.7695E-03     103.656E-03    -52.1052E-03     53.5266E-03
            1042     8.54391E-03     102.844E-03    -32.6567E+06    -53.7116E+06     6.03690E+06    -14.5583E+06    -51.3776E-03     103.512E-03    -52.1345E-03     56.5076E-03    -51.5839E-03     103.394E-03    -51.9791E-03     55.9552E-03
            1043     9.39951E-03     102.899E-03    -28.3767E+06    -40.9475E+06     12.1966E+06    -14.4951E+06    -51.1752E-03     103.191E-03    -52.0156E-03     57.8499E-03    -51.4067E-03     103.141E-03    -51.8541E-03     57.2656E-03
            1044     10.2552E-03     102.955E-03    -24.5322E+06    -28.1913E+06     18.0607E+06    -14.3246E+06    -50.9843E-03     102.885E-03    -51.9006E-03     57.8606E-03    -51.2390E-03     102.900E-03    -51.7339E-03     57.2538E-03
            1045     11.1111E-03     103.010E-03    -21.1687E+06    -15.5822E+06     22.9388E+06    -14.0766E+06    -50.8114E-03     102.601E-03    -51.7896E-03     56.2883E-03    -51.0836E-03     102.676E-03    -51.6216E-03     55.6701E-03
            1046     11.9671E-03     103.063E-03    -18.4270E+06    -1.71548E+06     27.8662E+06    -13.6337E+06    -50.6577E-03     102.346E-03    -51.6886E-03     52.9637E-03    -50.9435E-03     102.480E-03    -51.5201E-03     52.3476E-03
            1047     12.8230E-03     103.111E-03    -16.3615E+06     7.21999E+06     29.7110E+06    -13.2200E+06    -50.5772E-03     102.172E-03    -51.5944E-03     47.8495E-03    -50.8597E-03     102.336E-03    -51.4326E-03     47.2430E-03
            1048     13.6789E-03     103.153E-03    -15.0516E+06     30.2839E+06     34.1460E+06    -12.2247E+06    -50.5080E-03     102.018E-03    -51.5098E-03     41.3693E-03    -50.8085E-03     102.273E-03    -51.3611E-03     40.7858E-03
            1049     14.5347E-03     103.188E-03    -13.5978E+06     52.6485E+06     38.8500E+06    -10.9384E+06    -50.5311E-03     101.976E-03    -51.4444E-03     33.3867E-03    -50.8421E-03     102.313E-03    -51.3068E-03     32.8359E-03
            1050     15.3902E-03     103.214E-03    -10.4904E+06     78.0970E+06     43.3724E+06    -8.66549E+06    -50.6281E-03     102.018E-03    -51.3899E-03     22.7835E-03    -50.9453E-03     102.450E-03    -51.2711E-03     22.2663E-03
            1051     16.2456E-03     103.229E-03    -5.60810E+06     101.362E+06     63.7245E+06    -4.40418E+06    -50.7485E-03     102.180E-03    -51.4319E-03     8.43306E-03    -51.0661E-03     102.653E-03    -51.2522E-03     8.04211E-03
            1052     853.664E-06     103.572E-03    -79.4440E+06    -151.772E+06    -77.2743E+06    -3.00240E+06    -52.7639E-03     105.499E-03    -52.7350E-03     8.56630E-03    -52.8303E-03     104.969E-03    -52.7861E-03     8.49445E-03
            1053     1.70741E-03     103.584E-03    -75.9614E+06    -143.154E+06    -68.0225E+06    -5.31225E+06    -52.6426E-03     105.387E-03    -52.7449E-03     15.5836E-03    -52.7204E-03     104.885E-03    -52.7673E-03     15.4534E-03
            1054     2.56129E-03     103.603E-03    -70.9076E+06    -131.742E+06    -55.7711E+06    -7.55439E+06    -52.5044E-03     105.217E-03    -52.7122E-03     22.7069E-03    -52.5964E-03     104.751E-03    -52.6972E-03     22.5161E-03
            1055     3.41537E-03     103.629E-03    -64.9735E+06    -119.319E+06    -43.0168E+06    -9.55828E+06    -52.3314E-03     104.989E-03    -52.6574E-03     29.4955E-03    -52.4374E-03     104.565E-03    -52.6052E-03     29.2450E-03
            1056     4.26969E-03     103.661E-03    -58.6634E+06    -107.289E+06    -31.3541E+06    -11.3368E+06    -52.1322E-03     104.711E-03    -52.5783E-03     35.8163E-03    -52.2508E-03     104.331E-03    -52.4944E-03     35.5072E-03
            1057     5.12428E-03     103.699E-03    -52.3808E+06    -96.0827E+06    -21.3080E+06    -12.8642E+06    -51.9151E-03     104.392E-03    -52.4770E-03     41.5795E-03    -52.0454E-03     104.057E-03    -52.3683E-03     41.2131E-03
            1058     5.97915E-03     103.742E-03    -46.3963E+06    -85.4906E+06    -12.8149E+06    -14.0579E+06    -51.6886E-03     104.046E-03    -52.3579E-03     46.7049E-03    -51.8315E-03     103.758E-03    -52.2307E-03     46.2841E-03
            1059     6.83432E-03     103.790E-03    -40.7797E+06    -74.8672E+06    -5.48162E+06    -14.8325E+06    -51.4612E-03     103.687E-03    -52.2262E-03     51.1025E-03    -51.6193E-03     103.451E-03    -52.0859E-03     50.6324E-03
            1060     7.68975E-03     103.841E-03    -35.5801E+06     -64.075E+06     1.11393E+06    -15.2085E+06    -51.2445E-03     103.333E-03    -52.0883E-03     54.6663E-03    -51.4209E-03     103.152E-03    -51.9382E-03     54.1525E-03
            1061     8.54545E-03     103.894E-03    -30.8278E+06    -51.8086E+06     7.53750E+06    -15.2600E+06    -51.0450E-03     102.995E-03    -51.9498E-03     57.2767E-03    -51.2447E-03     102.879E-03    -51.7923E-03     56.7254E-03
            1062     9.40131E-03     103.950E-03    -26.4655E+06    -39.8579E+06     13.7424E+06    -14.9222E+06    -50.8747E-03     102.692E-03    -51.8174E-03     58.7506E-03    -51.0979E-03     102.640E-03    -51.6525E-03     58.1716E-03
            1063     10.2573E-03     104.005E-03    -22.4594E+06    -26.9478E+06     19.7761E+06    -14.4298E+06    -50.7321E-03     102.426E-03    -51.6934E-03     58.8897E-03    -50.9783E-03     102.439E-03    -51.5229E-03     58.2924E-03
            1064     11.1134E-03     104.060E-03    -18.9610E+06    -15.1971E+06     24.7478E+06    -13.6475E+06    -50.6299E-03     102.210E-03    -51.5802E-03     57.4226E-03    -50.8919E-03     102.279E-03    -51.4070E-03     56.8206E-03
            1065     11.9695E-03     104.113E-03    -16.0091E+06    -1.28016E+06     29.7576E+06    -12.6044E+06    -50.5671E-03     102.049E-03    -51.4818E-03     54.1920E-03    -50.8422E-03     102.176E-03    -51.3079E-03     53.5989E-03
            1066     12.8256E-03     104.161E-03    -13.6364E+06     7.48335E+06     32.0010E+06    -11.6479E+06    -50.6062E-03     102.005E-03    -51.3984E-03     49.1479E-03    -50.8773E-03     102.161E-03    -51.2295E-03     48.5701E-03
            1067     13.6814E-03     104.203E-03    -11.6449E+06     29.1317E+06     36.4413E+06    -10.0964E+06    -50.6952E-03     102.027E-03    -51.3315E-03     42.6872E-03    -50.9796E-03     102.268E-03    -51.1746E-03     42.1375E-03
            1068     14.5370E-03     104.238E-03    -9.58423E+06     53.4927E+06     42.0727E+06    -9.60209E+06    -50.9005E-03     102.192E-03    -51.2919E-03     34.6996E-03    -51.1974E-03     102.523E-03    -51.1452E-03     34.1699E-03
            1069     15.3922E-03     104.265E-03    -7.00637E+06     75.7723E+06     45.8581E+06    -9.36159E+06    -51.2522E-03     102.526E-03    -51.2736E-03     23.9965E-03    -51.5528E-03     102.938E-03    -51.1440E-03     23.4706E-03
            1070     16.2470E-03     104.280E-03    -3.74168E+06     94.9259E+06       62.25E+06    -5.63268E+06    -51.6299E-03     102.979E-03    -51.3488E-03     9.21622E-03    -51.9273E-03     103.419E-03    -51.1698E-03     8.80606E-03
            1071     853.736E-06     104.625E-03    -77.3509E+06    -144.845E+06    -75.2723E+06    -3.30099E+06    -52.6477E-03     105.276E-03    -52.6280E-03     8.60720E-03    -52.7166E-03     104.774E-03    -52.6822E-03     8.53236E-03
            1072     1.70757E-03     104.637E-03    -74.0183E+06    -136.699E+06    -66.4000E+06    -5.84266E+06    -52.4909E-03     105.115E-03    -52.6237E-03     15.6689E-03    -52.5707E-03     104.639E-03    -52.6502E-03     15.5336E-03
            1073     2.56160E-03     104.656E-03    -69.1214E+06    -125.778E+06    -54.4535E+06    -8.23874E+06    -52.2988E-03     104.869E-03    -52.5706E-03     22.8552E-03    -52.3921E-03     104.429E-03    -52.5602E-03     22.6584E-03
            1074     3.41586E-03     104.681E-03    -63.3141E+06    -113.854E+06    -41.8413E+06    -10.3901E+06    -52.0601E-03     104.551E-03    -52.4905E-03     29.7295E-03    -52.1670E-03     104.150E-03    -52.4428E-03     29.4726E-03
            1075     4.27043E-03     104.713E-03    -57.2147E+06    -102.293E+06    -30.2568E+06    -12.2740E+06    -51.7925E-03     104.175E-03    -52.3828E-03     36.1632E-03    -51.9118E-03     103.816E-03    -52.3028E-03     35.8479E-03
            1076     5.12533E-03     104.751E-03    -51.2216E+06    -91.6273E+06    -20.3417E+06    -13.8673E+06    -51.5139E-03     103.765E-03    -52.2511E-03     42.0683E-03    -51.6449E-03     103.448E-03    -52.1457E-03     41.6967E-03
            1077     5.98058E-03     104.793E-03    -45.4965E+06    -81.7015E+06    -11.9949E+06    -15.0954E+06    -51.2431E-03     103.345E-03    -52.1022E-03     47.3610E-03    -51.3865E-03     103.072E-03    -51.9777E-03     46.9365E-03
            1078     6.83613E-03     104.840E-03    -40.1267E+06    -71.8443E+06    -4.81129E+06    -15.8881E+06    -50.9966E-03     102.940E-03    -51.9436E-03     51.9422E-03    -51.1545E-03     102.715E-03    -51.8053E-03     51.4696E-03
            1079     7.69200E-03     104.891E-03     -35.114E+06    -61.7975E+06     1.67739E+06    -16.1869E+06    -50.7871E-03     102.571E-03    -51.7836E-03     55.6961E-03    -50.9627E-03     102.397E-03    -51.6347E-03     55.1822E-03
            1080     8.54807E-03     104.944E-03    -30.4292E+06    -50.1009E+06     8.03989E+06    -16.0789E+06    -50.6179E-03     102.246E-03    -51.6285E-03     58.4972E-03    -50.8158E-03     102.135E-03    -51.4716E-03     57.9490E-03
            1081     9.40435E-03     104.999E-03    -26.0207E+06    -38.9208E+06     14.2598E+06    -15.6025E+06    -50.5010E-03     101.987E-03    -51.4863E-03     60.1500E-03    -50.7211E-03     101.935E-03    -51.3208E-03     59.5762E-03
            1082     10.2607E-03     105.055E-03    -21.9416E+06    -26.2212E+06     20.3538E+06    -14.8006E+06    -50.4365E-03     101.795E-03    -51.3587E-03     60.4482E-03    -50.6790E-03     101.808E-03    -51.1870E-03     59.8601E-03
            1083     11.1171E-03     105.110E-03    -18.2260E+06    -15.4409E+06     25.3821E+06    -13.6173E+06    -50.4462E-03     101.696E-03    -51.2502E-03     59.1006E-03    -50.7023E-03     101.759E-03    -51.0745E-03     58.5121E-03
            1084     11.9733E-03     105.162E-03    -14.9317E+06    -1.62804E+06     30.4733E+06    -12.0964E+06    -50.5291E-03     101.693E-03    -51.1637E-03     55.9552E-03    -50.7972E-03     101.814E-03    -50.9873E-03     55.3804E-03
            1085     12.8294E-03     105.210E-03    -12.0711E+06     7.18748E+06     33.2127E+06    -10.7497E+06    -50.7566E-03     101.860E-03    -51.1035E-03     50.9431E-03    -51.0198E-03     102.010E-03    -50.9304E-03     50.3862E-03
            1086     13.6851E-03     105.253E-03    -9.10238E+06     28.0145E+06     37.9513E+06    -9.54323E+06    -51.0832E-03     102.153E-03    -51.0700E-03     44.4395E-03    -51.3550E-03     102.382E-03    -50.9077E-03     43.9030E-03
            1087     14.5404E-03     105.289E-03    -5.89961E+06     55.0839E+06     44.9032E+06    -9.06108E+06    -51.5506E-03     102.625E-03    -51.0749E-03     36.3404E-03    -51.8357E-03     102.955E-03    -50.9217E-03     35.8199E-03
            1088     15.3949E-03     105.316E-03    -3.75175E+06     74.3952E+06     49.3226E+06    -8.20871E+06    -52.2381E-03     103.358E-03    -51.1204E-03     25.4704E-03    -52.5264E-03     103.754E-03    -50.9762E-03     24.9576E-03
            1089     16.2487E-03     105.332E-03    -2.29762E+06     88.4824E+06     61.7886E+06    -4.65356E+06    -52.9630E-03     104.217E-03    -51.2541E-03     10.1855E-03    -53.2442E-03     104.625E-03    -51.0701E-03     9.78224E-03
            1090     853.961E-06     105.678E-03    -75.6274E+06    -137.370E+06    -73.6421E+06    -3.50107E+06    -52.3443E-03     104.680E-03    -52.3352E-03     8.69018E-03    -52.4178E-03     104.210E-03    -52.3946E-03     8.61422E-03
            1091     1.70805E-03     105.690E-03    -72.6114E+06    -129.714E+06    -65.2438E+06    -6.21025E+06    -52.1469E-03     104.461E-03    -52.3144E-03     15.8352E-03    -52.2313E-03     104.017E-03    -52.3473E-03     15.6979E-03
            1092     2.56236E-03     105.708E-03    -68.0994E+06    -119.367E+06    -53.8762E+06    -8.80059E+06    -51.8936E-03     104.131E-03    -52.2374E-03     23.1319E-03    -51.9915E-03     103.720E-03    -52.2349E-03     22.9324E-03
            1093     3.41699E-03     105.733E-03    -62.7071E+06    -108.012E+06    -41.6449E+06    -11.0590E+06    -51.5836E-03     103.712E-03    -52.1284E-03     30.1476E-03    -51.6954E-03     103.339E-03    -52.0891E-03     29.8886E-03
            1094     4.27199E-03     105.765E-03    -56.9597E+06    -97.0317E+06    -30.2121E+06    -12.9784E+06    -51.2473E-03     103.237E-03    -51.9894E-03     36.7563E-03    -51.3719E-03     102.902E-03    -51.9172E-03     36.4406E-03
            1095     5.12738E-03     105.802E-03    -51.2539E+06    -86.9133E+06    -20.3527E+06    -14.5887E+06    -50.9153E-03     102.742E-03    -51.8264E-03     42.8697E-03    -51.0517E-03     102.447E-03    -51.7278E-03     42.4997E-03
            1096     5.98314E-03     105.844E-03    -45.8167E+06    -77.6854E+06    -12.0931E+06    -15.8683E+06    -50.6161E-03     102.265E-03    -51.6485E-03     48.3974E-03    -50.7645E-03     102.010E-03    -51.5299E-03     47.9759E-03
            1097     6.83928E-03     105.890E-03    -40.7144E+06    -68.6625E+06    -5.05181E+06    -16.6693E+06    -50.3704E-03     101.836E-03    -51.4656E-03     53.2285E-03    -50.5328E-03     101.625E-03    -51.3322E-03     52.7607E-03
            1098     7.69566E-03     105.940E-03    -35.9779E+06    -59.4726E+06     1.23899E+06    -16.9563E+06    -50.1913E-03     101.479E-03    -51.2873E-03     57.2347E-03    -50.3706E-03     101.315E-03    -51.1427E-03     56.7272E-03
            1099     8.55229E-03     105.993E-03    -31.6417E+06    -48.5297E+06     7.37072E+06    -16.7076E+06    -50.0821E-03     101.203E-03    -51.1211E-03     60.2745E-03    -50.2839E-03     101.099E-03    -50.9680E-03     59.7354E-03
            1100     9.40900E-03     106.048E-03    -27.7000E+06    -37.9415E+06     13.4241E+06    -16.1166E+06    -50.0601E-03     101.037E-03    -50.9765E-03     62.1330E-03    -50.2852E-03     100.990E-03    -50.8142E-03     61.5700E-03
            1101     10.2658E-03     106.104E-03    -23.9154E+06    -25.7979E+06     19.3353E+06    -15.2675E+06    -50.1313E-03     100.987E-03    -50.8557E-03     62.5892E-03    -50.3794E-03     101.003E-03    -50.6870E-03     62.0117E-03
            1102     11.1224E-03     106.158E-03    -20.2283E+06    -15.9313E+06     24.2959E+06    -13.9748E+06    -50.3282E-03     101.094E-03    -50.7661E-03     61.3280E-03    -50.5892E-03     101.156E-03    -50.5921E-03     60.7497E-03
            1103     11.9788E-03     106.211E-03    -16.6131E+06    -2.50208E+06     29.4316E+06    -12.3021E+06    -50.6493E-03     101.359E-03    -50.7102E-03     58.1926E-03    -50.9210E-03     101.478E-03    -50.5353E-03     57.6270E-03
            1104     12.8347E-03     106.260E-03    -13.0700E+06     6.71431E+06     32.6728E+06    -10.8567E+06    -51.1589E-03     101.854E-03    -50.6947E-03     53.1207E-03    -51.4246E-03     102.002E-03    -50.5221E-03     52.5706E-03
            1105     13.6900E-03     106.303E-03    -9.74160E+06     27.7335E+06     37.8690E+06    -9.92320E+06    -51.8100E-03     102.530E-03    -50.7204E-03     46.4723E-03    -52.0845E-03     102.759E-03    -50.5571E-03     45.9342E-03
            1106     14.5445E-03     106.340E-03    -7.00794E+06     55.0084E+06     44.6704E+06    -8.74692E+06    -52.6059E-03     103.401E-03    -50.7955E-03     38.1476E-03    -52.8972E-03     103.734E-03    -50.6418E-03     37.6294E-03
            1107     15.3981E-03     106.368E-03    -5.02774E+06     71.8246E+06     48.7256E+06    -6.32502E+06    -53.6167E-03     104.541E-03    -50.9246E-03     27.0998E-03    -53.9084E-03     104.929E-03    -50.7779E-03     26.6054E-03
            1108     16.2506E-03     106.386E-03    -2.95857E+06     83.5960E+06     60.5490E+06    -3.07522E+06    -54.6309E-03     105.778E-03    -51.1471E-03     11.3268E-03    -54.9078E-03     106.166E-03    -50.9613E-03     10.9350E-03
            1109     854.407E-06     106.730E-03    -74.9920E+06    -129.584E+06    -73.0606E+06    -3.58860E+06    -51.7660E-03     103.534E-03    -51.7677E-03     8.83231E-03    -51.8483E-03     103.102E-03    -51.8364E-03     8.75744E-03
            1110     1.70898E-03     106.742E-03    -72.1570E+06    -122.433E+06    -65.0621E+06    -6.35458E+06    -51.5265E-03     103.257E-03    -51.7301E-03     16.1136E-03    -51.6192E-03     102.847E-03    -51.7732E-03     15.9786E-03
            1111     2.56382E-03     106.760E-03    -68.0583E+06    -112.639E+06    -54.1951E+06    -8.98789E+06    -51.2126E-03     102.841E-03    -51.6287E-03     23.5818E-03    -51.3190E-03     102.463E-03    -51.6377E-03     23.3864E-03
            1112     3.41904E-03     106.784E-03    -63.1787E+06    -101.952E+06    -42.4454E+06    -11.3064E+06    -50.8355E-03     102.326E-03    -51.4906E-03     30.8068E-03    -50.9564E-03     101.984E-03    -51.4634E-03     30.5537E-03
            1113     4.27469E-03     106.815E-03    -57.9601E+06    -91.5897E+06    -31.3104E+06    -13.2623E+06    -50.4412E-03     101.762E-03    -51.3213E-03     37.6645E-03    -50.5756E-03     101.457E-03    -51.2610E-03     37.3569E-03
            1114     5.13079E-03     106.851E-03    -52.7775E+06    -82.0881E+06    -21.6018E+06    -14.8671E+06    -50.0736E-03     101.203E-03    -51.1299E-03     44.0615E-03    -50.2207E-03     100.934E-03    -51.0423E-03     43.7024E-03
            1115     5.98730E-03     106.893E-03    -47.9179E+06    -73.5416E+06    -13.4946E+06    -16.0807E+06    -49.7697E-03     100.698E-03    -50.9281E-03     49.8976E-03    -49.9298E-03     100.466E-03    -50.8194E-03     49.4902E-03
            1116     6.84414E-03     106.939E-03    -43.4795E+06    -65.3324E+06    -6.72489E+06    -16.9016E+06    -49.5548E-03     100.282E-03    -50.7276E-03     55.0441E-03    -49.7300E-03     100.091E-03    -50.6035E-03     54.5923E-03
            1117     7.70127E-03     106.988E-03    -39.3317E+06    -56.9753E+06    -722.229E+03    -17.2643E+06    -49.4483E-03     99.9887E-03    -50.5404E-03     59.3478E-03    -49.6413E-03     99.8418E-03    -50.4044E-03     58.8566E-03
            1118     8.55851E-03     107.041E-03    -35.4061E+06    -47.1582E+06     5.11552E+06    -16.9425E+06    -49.4625E-03     99.8385E-03    -50.3760E-03     62.6373E-03    -49.6776E-03     99.7457E-03    -50.2307E-03     62.1160E-03
            1119     9.41581E-03     107.096E-03    -31.6252E+06    -36.7661E+06     11.1525E+06    -16.3105E+06    -49.6174E-03     99.8630E-03    -50.2456E-03     64.6801E-03    -49.8565E-03     99.8269E-03    -50.0907E-03     64.1346E-03
            1120     10.2729E-03     107.151E-03    -27.9622E+06    -25.3266E+06     16.9764E+06    -15.5690E+06    -49.9273E-03     100.081E-03    -50.1539E-03     65.2280E-03    -50.1894E-03     100.105E-03    -49.9917E-03     64.6643E-03
            1121     11.1297E-03     107.207E-03    -24.3819E+06    -16.3873E+06     21.7662E+06    -14.3526E+06    -50.4205E-03     100.530E-03    -50.1091E-03     63.9663E-03    -50.6953E-03     100.597E-03    -49.9412E-03     63.3972E-03
            1122     11.9859E-03     107.260E-03    -20.6417E+06    -3.00932E+06     26.8338E+06    -13.0885E+06    -51.0821E-03     101.196E-03    -50.1136E-03     60.7450E-03    -51.3680E-03     101.320E-03    -49.9452E-03     60.1787E-03
            1123     12.8415E-03     107.309E-03    -16.6841E+06     6.03341E+06     30.2717E+06    -11.8371E+06    -51.9562E-03     102.132E-03    -50.1754E-03     55.5279E-03    -52.2354E-03     102.285E-03    -50.0086E-03     54.9694E-03
            1124     13.6959E-03     107.354E-03    -12.9931E+06     27.4666E+06     36.0242E+06    -10.4282E+06    -52.9758E-03     103.269E-03    -50.2931E-03     48.6899E-03    -53.2645E-03     103.505E-03    -50.1340E-03     48.1441E-03
            1125     14.5493E-03     107.392E-03    -9.72855E+06     53.0872E+06     42.4081E+06    -8.41434E+06    -54.1050E-03     104.574E-03    -50.4687E-03     40.1063E-03    -54.4058E-03     104.905E-03    -50.3195E-03     39.5855E-03
            1126     15.4015E-03     107.422E-03    -6.72755E+06     68.3533E+06     46.5037E+06    -5.50384E+06    -55.3568E-03     106.061E-03    -50.7047E-03     28.9406E-03    -55.6511E-03     106.440E-03    -50.5615E-03     28.4464E-03
            1127     16.2524E-03     107.441E-03    -3.51773E+06     80.1791E+06     59.5750E+06    -2.64383E+06    -56.5091E-03     107.546E-03    -51.0368E-03     12.7158E-03    -56.7842E-03     107.920E-03    -50.8501E-03     12.3179E-03
            1128     855.179E-06     107.781E-03    -75.7357E+06    -121.767E+06    -73.9550E+06    -3.53966E+06    -50.8109E-03     101.633E-03    -50.8218E-03     9.04985E-03    -50.9070E-03     101.242E-03    -50.9052E-03     8.97869E-03
            1129     1.71054E-03     107.792E-03    -73.3030E+06    -115.122E+06    -66.4969E+06    -6.27603E+06    -50.5340E-03     101.303E-03    -50.7685E-03     16.5333E-03    -50.6406E-03     100.933E-03    -50.8278E-03     16.4052E-03
            1130     2.56623E-03     107.809E-03    -69.6050E+06    -105.982E+06    -56.1294E+06    -8.80129E+06    -50.1712E-03     100.817E-03    -50.6461E-03     24.2451E-03    -50.2915E-03     100.477E-03    -50.6721E-03     24.0609E-03
            1131     3.42234E-03     107.833E-03    -65.2781E+06    -95.9102E+06    -44.7530E+06    -10.9725E+06    -49.7474E-03     100.232E-03    -50.4847E-03     31.7541E-03    -49.8830E-03     99.9252E-03    -50.4748E-03     31.5172E-03
            1132     4.27892E-03     107.863E-03    -60.7429E+06    -86.1536E+06    -33.9419E+06    -12.8552E+06    -49.3219E-03     99.6147E-03    -50.2928E-03     38.9356E-03    -49.4724E-03     99.3420E-03    -50.2495E-03     38.6482E-03
            1133     5.13599E-03     107.899E-03    -56.3155E+06    -77.3618E+06    -24.4618E+06    -14.3446E+06    -48.9520E-03     99.0352E-03    -50.0831E-03     45.6865E-03    -49.1169E-03     98.7963E-03    -50.0116E-03     45.3521E-03
            1134     5.99346E-03     107.940E-03    -52.1633E+06    -69.4563E+06    -16.4546E+06    -15.4680E+06    -48.6866E-03     98.5569E-03    -49.8703E-03     51.8879E-03    -48.8661E-03     98.3522E-03    -49.7762E-03     51.5091E-03
            1135     6.85126E-03     107.985E-03    -48.2766E+06    -61.8377E+06    -9.68719E+06    -16.3181E+06    -48.5636E-03     98.2325E-03    -49.6688E-03     57.3831E-03    -48.7595E-03     98.0654E-03    -49.5576E-03     56.9613E-03
            1136     7.70921E-03     108.035E-03    -44.6640E+06    -54.3184E+06    -3.81634E+06    -16.8008E+06    -48.6141E-03     98.1075E-03    -49.4934E-03     61.9854E-03    -48.8286E-03     97.9816E-03    -49.3689E-03     61.5235E-03
            1137     8.56719E-03     108.087E-03    -41.0742E+06    -45.5305E+06     1.78052E+06    -16.8061E+06    -48.8578E-03     98.2141E-03    -49.3563E-03     65.4948E-03    -49.0942E-03     98.1378E-03    -49.2218E-03     64.9978E-03
            1138     9.42494E-03     108.142E-03    -37.2902E+06    -35.4168E+06     7.68451E+06    -16.4797E+06    -49.3104E-03     98.5808E-03    -49.2703E-03     67.6567E-03    -49.5706E-03     98.5605E-03    -49.1265E-03     67.1291E-03
            1139     10.2823E-03     108.198E-03    -33.4081E+06    -24.6912E+06     13.5591E+06    -15.8221E+06    -49.9812E-03     99.2250E-03    -49.2437E-03     68.2098E-03    -50.2634E-03     99.2616E-03    -49.0917E-03     67.6589E-03
            1140     11.1389E-03     108.254E-03    -29.1700E+06    -16.0794E+06     18.5178E+06    -15.2381E+06    -50.8728E-03     100.155E-03    -49.2826E-03     66.8733E-03    -51.1656E-03     100.234E-03    -49.1244E-03     66.3034E-03
            1141     11.9947E-03     108.309E-03    -24.4639E+06    -3.03662E+06     23.7114E+06    -14.4833E+06    -51.9437E-03     101.331E-03    -49.3869E-03     63.5199E-03    -52.2439E-03     101.465E-03    -49.2285E-03     62.9404E-03
            1142     12.8493E-03     108.359E-03    -19.9147E+06     5.26889E+06     27.3738E+06    -13.2447E+06    -53.2084E-03     102.772E-03    -49.5637E-03     58.1449E-03    -53.4996E-03     102.932E-03    -49.4055E-03     57.5674E-03
            1143     13.7026E-03     108.405E-03    -15.4073E+06     26.7052E+06     33.5379E+06    -11.7549E+06    -54.5612E-03     104.366E-03    -49.8045E-03     51.1724E-03    -54.8594E-03     104.607E-03    -49.6532E-03     50.6035E-03
            1144     14.5545E-03     108.445E-03    -10.9463E+06     50.0677E+06     39.8696E+06    -9.26509E+06    -55.9585E-03     106.066E-03    -50.1073E-03     42.3802E-03    -56.2602E-03     106.391E-03    -49.9647E-03     41.8376E-03
            1145     15.4050E-03     108.477E-03    -7.07219E+06     64.6283E+06     44.6560E+06    -5.87203E+06    -57.3649E-03     107.835E-03    -50.4705E-03     31.1017E-03    -57.6559E-03     108.201E-03    -50.3307E-03     30.5897E-03
            1146     16.2542E-03     108.499E-03    -3.63045E+06     77.1567E+06     59.0427E+06    -2.82652E+06    -58.5345E-03     109.459E-03    -50.9241E-03     14.3639E-03    -58.8071E-03     109.821E-03    -50.7355E-03     13.9507E-03
            1147     856.358E-06     108.829E-03    -78.6236E+06    -114.203E+06    -76.9496E+06    -3.38879E+06    -49.3721E-03     98.7585E-03    -49.3864E-03     9.35391E-03    -49.4892E-03     98.4140E-03    -49.4916E-03     9.28861E-03
            1148     1.71293E-03     108.840E-03    -76.5106E+06    -108.178E+06    -70.0799E+06    -5.85890E+06    -49.0759E-03     98.4001E-03    -49.3243E-03     17.1106E-03    -49.2030E-03     98.0747E-03    -49.4069E-03     16.9951E-03
            1149     2.56984E-03     108.856E-03    -73.4746E+06    -99.7155E+06    -60.3675E+06    -8.13429E+06    -48.6939E-03     97.8845E-03    -49.1906E-03     25.1396E-03    -48.8357E-03     97.5863E-03    -49.2413E-03     24.9748E-03
            1150     3.42721E-03     108.880E-03    -69.7410E+06    -90.2834E+06    -49.3431E+06    -10.0683E+06    -48.2638E-03     97.2838E-03    -49.0200E-03     33.0011E-03    -48.4217E-03     97.0165E-03    -49.0347E-03     32.7902E-03
            1151     4.28506E-03     108.909E-03    -65.7818E+06    -81.0948E+06    -38.4954E+06    -11.6464E+06    -47.8593E-03     96.6838E-03    -48.8245E-03     40.5636E-03    -48.0334E-03     96.4479E-03    -48.8040E-03     40.3096E-03
            1152     5.14337E-03     108.944E-03    -61.8920E+06    -72.9105E+06    -28.8046E+06    -12.9771E+06    -47.5523E-03     96.1717E-03    -48.6194E-03     47.7086E-03    -47.7420E-03     95.9662E-03    -48.5679E-03     47.4125E-03
            1153     6.00204E-03     108.984E-03    -58.0909E+06    -65.4386E+06    -20.5182E+06    -14.1380E+06    -47.4071E-03     95.8289E-03    -48.4218E-03     54.2930E-03    -47.6122E-03     95.6548E-03    -48.3453E-03     53.9544E-03
            1154     6.86090E-03     109.030E-03    -54.4317E+06    -58.3209E+06    -13.5095E+06    -15.0983E+06    -47.4791E-03     95.7292E-03    -48.2501E-03     60.1286E-03    -47.7006E-03     95.5895E-03    -48.1542E-03     59.7468E-03
            1155     7.71978E-03     109.079E-03    -50.6490E+06    -51.1436E+06    -7.41957E+06    -16.0305E+06    -47.8092E-03     95.9312E-03    -48.1220E-03     65.0012E-03    -48.0481E-03     95.8302E-03    -48.0115E-03     64.5733E-03
            1156     8.57836E-03     109.132E-03    -46.4771E+06    -43.2295E+06    -1.74089E+06    -16.7415E+06    -48.4155E-03     96.4686E-03    -48.0531E-03     68.6856E-03    -48.6727E-03     96.4123E-03    -47.9317E-03     68.2113E-03
            1157     9.43644E-03     109.188E-03    -42.0215E+06    -33.7525E+06     4.18948E+06    -16.8807E+06    -49.2920E-03     97.3487E-03    -48.0567E-03     70.9177E-03    -49.5696E-03     97.3451E-03    -47.9259E-03     70.4029E-03
            1158     10.2936E-03     109.245E-03    -37.0479E+06    -23.3757E+06     10.4450E+06    -16.9274E+06    -50.4126E-03     98.5536E-03    -48.1410E-03     71.4491E-03    -50.7083E-03     98.6045E-03    -48.0011E-03     70.8963E-03
            1159     11.1498E-03     109.302E-03    -31.8219E+06    -14.9862E+06     15.7782E+06    -16.8310E+06    -51.7515E-03     100.059E-03    -48.3077E-03     70.0377E-03    -52.0548E-03     100.151E-03    -48.1609E-03     69.4535E-03
            1160     12.0046E-03     109.358E-03    -26.8314E+06    -2.63503E+06     21.1958E+06    -16.4022E+06    -53.2402E-03     101.794E-03    -48.5535E-03     66.5727E-03    -53.5504E-03     101.938E-03    -48.4048E-03     65.9684E-03
            1161     12.8581E-03     109.410E-03    -21.5058E+06     4.84215E+06     25.3041E+06    -15.6179E+06    -54.8610E-03     103.741E-03    -48.8796E-03     61.0730E-03    -55.1590E-03     103.906E-03    -48.7289E-03     60.4591E-03
            1162     13.7098E-03     109.458E-03    -16.1026E+06     25.7102E+06     31.8552E+06    -14.1379E+06    -56.4838E-03     105.754E-03    -49.2704E-03     53.9612E-03    -56.7850E-03     105.997E-03    -49.1251E-03     53.3512E-03
            1163     14.5601E-03     109.501E-03    -11.3024E+06     46.0461E+06     37.8536E+06    -11.0184E+06    -58.0784E-03     107.799E-03    -49.7205E-03     44.9307E-03    -58.3769E-03     108.111E-03    -49.5816E-03     44.3513E-03
            1164     15.4088E-03     109.535E-03    -7.28007E+06     60.2981E+06     42.5188E+06    -6.79723E+06    -59.5658E-03     109.787E-03    -50.2207E-03     33.4203E-03    -59.8520E-03     110.138E-03    -50.0850E-03     32.8803E-03
            1165     16.2561E-03     109.558E-03    -3.59899E+06     73.8736E+06     58.1901E+06    -3.22304E+06    -60.6851E-03     111.489E-03    -50.8037E-03     16.0806E-03    -60.9540E-03     111.838E-03    -50.6146E-03     15.6466E-03
            1166     858.057E-06     109.874E-03    -85.2912E+06    -107.207E+06    -83.6397E+06    -3.00002E+06    -47.3567E-03     94.7199E-03    -47.3632E-03     9.74405E-03    -47.5074E-03     94.4294E-03    -47.5023E-03     9.68834E-03
            1167     1.71630E-03     109.884E-03    -83.4414E+06    -101.863E+06    -77.2372E+06    -5.30958E+06    -47.0790E-03     94.3864E-03    -47.3074E-03     17.8374E-03    -47.2392E-03     94.1124E-03    -47.4249E-03     17.7373E-03
            1168     2.57490E-03     109.900E-03    -80.4684E+06    -94.2116E+06    -67.6917E+06    -7.18798E+06    -46.7350E-03     93.9194E-03    -47.1844E-03     26.2398E-03    -46.9082E-03     93.6684E-03    -47.2696E-03     26.0994E-03
            1169     3.43390E-03     109.923E-03    -76.9879E+06    -85.3079E+06    -56.4009E+06    -8.74255E+06    -46.3714E-03     93.4043E-03    -47.0329E-03     34.4951E-03    -46.5608E-03     93.1808E-03    -47.0796E-03     34.3173E-03
            1170     4.29336E-03     109.951E-03    -73.0309E+06    -76.5998E+06    -44.8370E+06    -10.1586E+06    -46.0766E-03     92.9442E-03    -46.8676E-03     42.4600E-03    -46.2817E-03     92.7478E-03    -46.8748E-03     42.2445E-03
            1171     5.15315E-03     109.986E-03    -68.7181E+06    -68.7231E+06    -34.2086E+06    -11.4668E+06    -45.9393E-03     92.6449E-03    -46.7055E-03     50.0000E-03    -46.1579E-03     92.4744E-03    -46.6773E-03     49.7453E-03
            1172     6.01316E-03     110.026E-03    -64.2988E+06    -61.4185E+06    -25.0971E+06    -12.7992E+06    -46.0385E-03     92.6047E-03    -46.5661E-03     56.9503E-03    -46.2695E-03     92.4619E-03    -46.5093E-03     56.6526E-03
            1173     6.87315E-03     110.071E-03    -59.5450E+06    -54.3948E+06    -17.3256E+06    -14.3279E+06    -46.4366E-03     92.9076E-03    -46.4710E-03     63.1031E-03    -46.6791E-03     92.7957E-03    -46.3924E-03     62.7553E-03
            1174     7.73281E-03     110.121E-03    -54.4706E+06    -47.2939E+06    -10.5460E+06    -15.9294E+06    -47.1712E-03     93.6115E-03    -46.4404E-03     68.2305E-03    -47.4255E-03     93.5351E-03    -46.3455E-03     67.8266E-03
            1175     8.59185E-03     110.175E-03    -49.2022E+06    -39.8948E+06    -4.36876E+06    -17.4369E+06    -48.2453E-03     94.7364E-03    -46.4911E-03     72.0937E-03    -48.5130E-03     94.7005E-03    -46.3837E-03     71.6300E-03
            1176     9.44989E-03     110.232E-03    -43.4949E+06    -31.6060E+06     1.75927E+06    -18.3383E+06    -49.6192E-03     96.2533E-03    -46.6341E-03     74.4311E-03    -49.9009E-03     96.2634E-03    -46.5164E-03     73.9121E-03
            1177     10.3067E-03     110.290E-03    -38.0110E+06    -21.2828E+06     8.35566E+06    -18.5847E+06    -51.2257E-03     98.1003E-03    -46.8747E-03     74.9861E-03    -51.5252E-03     98.1653E-03    -46.7469E-03     74.4204E-03
            1178     11.1620E-03     110.349E-03    -32.7867E+06    -13.3349E+06     14.1233E+06    -18.8997E+06    -53.0170E-03     100.228E-03    -47.2112E-03     73.5392E-03    -53.3262E-03     100.333E-03    -47.0737E-03     72.9299E-03
            1179     12.0157E-03     110.408E-03    -27.1623E+06    -1.65096E+06     20.0981E+06    -18.8346E+06    -54.9009E-03     102.534E-03    -47.6331E-03     69.9901E-03    -55.2153E-03     102.688E-03    -47.4908E-03     69.3497E-03
            1180     12.8676E-03     110.463E-03    -21.7895E+06     5.16174E+06     24.4588E+06    -18.4206E+06    -56.8370E-03     104.972E-03    -48.1354E-03     64.3565E-03    -57.1394E-03     105.145E-03    -47.9890E-03     63.6964E-03
            1181     13.7177E-03     110.513E-03    -16.5692E+06     24.4489E+06     30.8782E+06    -17.0219E+06    -58.6890E-03     107.387E-03    -48.6980E-03     57.0583E-03    -58.9936E-03     107.630E-03    -48.5550E-03     56.3970E-03
            1182     14.5660E-03     110.558E-03    -11.3539E+06     41.0731E+06     36.2141E+06    -13.3744E+06    -60.4210E-03     109.732E-03    -49.3108E-03     47.7423E-03    -60.7147E-03     110.026E-03    -49.1728E-03     47.1153E-03
            1183     15.4127E-03     110.594E-03    -6.94524E+06     54.6367E+06     40.9009E+06    -8.03786E+06    -61.9206E-03     111.880E-03    -49.9599E-03     35.9073E-03    -62.1987E-03     112.209E-03    -49.8245E-03     35.3328E-03
            1184     16.2581E-03     110.620E-03    -3.51100E+06     70.0914E+06     57.7755E+06    -3.48431E+06    -62.9476E-03     113.626E-03    -50.6784E-03     17.8850E-03    -63.2128E-03     113.960E-03    -50.4861E-03     17.4303E-03
            1185     860.307E-06     110.914E-03    -97.6999E+06    -101.045E+06    -96.1062E+06    -2.63819E+06    -44.7243E-03     89.4311E-03    -44.7068E-03     10.1951E-03    -44.9279E-03     89.2072E-03    -44.8991E-03     10.1489E-03
            1186     1.72077E-03     110.923E-03    -95.7302E+06    -95.9813E+06    -89.3119E+06    -4.78694E+06    -44.5245E-03     89.2065E-03    -44.6820E-03     18.6635E-03    -44.7367E-03     88.9965E-03    -44.8506E-03     18.5788E-03
            1187     2.58148E-03     110.939E-03    -92.2178E+06    -89.1029E+06    -79.0214E+06    -6.91481E+06    -44.3071E-03     88.9120E-03    -44.6049E-03     27.4620E-03    -44.5289E-03     88.7187E-03    -44.7371E-03     27.3376E-03
            1188     3.44252E-03     110.961E-03    -87.0925E+06    -80.9001E+06    -66.1855E+06    -8.48519E+06    -44.1215E-03     88.6377E-03    -44.5162E-03     36.1123E-03    -44.3518E-03     88.4630E-03    -44.6035E-03     35.9537E-03
            1189     4.30381E-03     110.990E-03    -81.2056E+06    -72.3697E+06    -52.6792E+06    -9.83360E+06    -44.0651E-03     88.4954E-03    -44.4303E-03     44.4632E-03    -44.3031E-03     88.3405E-03    -44.4710E-03     44.2707E-03
            1190     5.16527E-03     111.024E-03    -74.9194E+06    -64.4948E+06    -40.2404E+06    -11.3942E+06    -44.2354E-03     88.6001E-03    -44.3647E-03     52.3719E-03    -44.4787E-03     88.4648E-03    -44.3638E-03     52.1391E-03
            1191     6.02664E-03     111.064E-03    -68.0915E+06    -56.9765E+06    -29.4652E+06    -13.2761E+06    -44.7113E-03     89.0510E-03    -44.3398E-03     59.6679E-03    -44.9571E-03     88.9381E-03    -44.3057E-03     59.3860E-03
            1192     6.88763E-03     111.110E-03    -61.2342E+06      -49.95E+06    -20.3874E+06    -15.2311E+06    -45.5457E-03     89.9236E-03    -44.3779E-03     66.1402E-03    -45.7941E-03     89.8363E-03    -44.3186E-03     65.8024E-03
            1193     7.74794E-03     111.161E-03    -54.7833E+06    -42.9394E+06    -12.6704E+06    -17.0903E+06    -46.7592E-03     91.2579E-03    -44.4987E-03     71.5620E-03    -47.0140E-03     91.2025E-03    -44.4204E-03     71.1631E-03
            1194     8.60716E-03     111.216E-03    -48.7683E+06    -35.6857E+06    -5.81817E+06    -18.8979E+06    -48.3370E-03     93.0544E-03    -44.7174E-03     75.6908E-03    -48.6030E-03     93.0375E-03    -44.6240E-03     75.2251E-03
            1195     9.46501E-03     111.275E-03    -43.1652E+06    -28.4666E+06     483.858E+03    -20.3976E+06    -50.2297E-03     95.2725E-03    -45.0428E-03     78.2328E-03    -50.5105E-03     95.2978E-03    -44.9366E-03     77.6992E-03
            1196     10.3212E-03     111.335E-03    -37.2499E+06    -19.3461E+06     7.28744E+06    -20.8661E+06    -52.3420E-03     97.8187E-03    -45.4766E-03     78.8879E-03    -52.6391E-03     97.8939E-03    -45.3581E-03     78.2981E-03
            1197     11.1755E-03     111.397E-03    -31.3548E+06    -10.7361E+06     14.1408E+06    -21.1418E+06    -54.5790E-03     100.593E-03    -46.0141E-03     77.4521E-03    -54.8871E-03     100.711E-03    -45.8824E-03     76.8121E-03
            1198     12.0277E-03     111.458E-03    -25.8020E+06     16.9013E+03     20.2823E+06    -21.7354E+06    -56.8382E-03     103.475E-03    -46.6368E-03     73.8474E-03    -57.1526E-03     103.639E-03    -46.4980E-03     73.1612E-03
            1199     12.8779E-03     111.516E-03    -20.0622E+06     5.56621E+06     24.7744E+06    -21.2364E+06    -59.0681E-03     106.404E-03    -47.3356E-03     68.0683E-03    -59.3680E-03     106.581E-03    -47.1907E-03     67.3586E-03
            1200     13.7260E-03     111.570E-03    -15.0050E+06     23.0660E+06     31.0159E+06    -19.4049E+06    -61.1126E-03     109.199E-03    -48.0861E-03     60.5607E-03    -61.4128E-03     109.438E-03    -47.9427E-03     59.8522E-03
            1201     14.5724E-03     111.617E-03    -11.2079E+06     35.0384E+06     34.8331E+06    -15.0707E+06    -62.9274E-03     111.801E-03    -48.8734E-03     50.9154E-03    -63.2147E-03     112.072E-03    -48.7338E-03     50.2479E-03
            1202     15.4170E-03     111.656E-03    -7.93867E+06     48.2889E+06     39.0738E+06    -9.27156E+06    -64.4103E-03     114.090E-03    -49.6796E-03     38.6924E-03    -64.6858E-03     114.396E-03    -49.5427E-03     38.0831E-03
            1203     16.2604E-03     111.684E-03    -4.00525E+06     65.3874E+06     57.0972E+06    -4.31473E+06    -65.3754E-03     115.917E-03    -50.5411E-03     19.8797E-03    -65.6380E-03     116.232E-03    -50.3446E-03     19.3962E-03
            1204     863.081E-06     111.947E-03    -118.315E+06    -94.5892E+06    -116.803E+06    -3.35207E+06    -41.5365E-03     83.0152E-03    -41.4788E-03     10.6440E-03    -41.8224E-03     82.8832E-03    -41.7541E-03     10.5929E-03
            1205     1.72622E-03     111.957E-03    -114.166E+06    -89.7207E+06    -107.659E+06    -5.93866E+06    -41.4882E-03     83.0026E-03    -41.5144E-03     19.4767E-03    -41.7746E-03     82.8766E-03    -41.7570E-03     19.3851E-03
            1206     2.58946E-03     111.973E-03    -107.749E+06    -82.6916E+06    -94.2665E+06    -8.96605E+06    -41.5075E-03     83.0336E-03    -41.5261E-03     28.6506E-03    -41.7932E-03     82.9158E-03    -41.7213E-03     28.5110E-03
            1207     3.45276E-03     111.995E-03    -99.3694E+06    -75.7794E+06    -78.7413E+06    -11.6898E+06    -41.6334E-03     83.1844E-03    -41.5510E-03     37.6648E-03    -41.9125E-03     83.0694E-03    -41.6907E-03     37.4790E-03
            1208     4.31609E-03     112.023E-03    -89.5667E+06    -68.1069E+06    -62.5067E+06    -13.2222E+06    -41.9527E-03     83.5527E-03    -41.6000E-03     46.3645E-03    -42.2219E-03     83.4429E-03    -41.6839E-03     46.1447E-03
            1209     5.17920E-03     112.057E-03    -79.4477E+06    -59.5447E+06    -47.1653E+06    -14.8602E+06    -42.5504E-03     84.2387E-03    -41.6883E-03     54.6200E-03    -42.8102E-03     84.1415E-03    -41.7226E-03     54.3605E-03
            1210     6.04186E-03     112.098E-03    -69.8148E+06    -52.1037E+06    -34.2804E+06    -16.8566E+06    -43.4912E-03     85.3248E-03    -41.8336E-03     62.2708E-03    -43.7419E-03     85.2419E-03    -41.8282E-03     61.9614E-03
            1211     6.90376E-03     112.145E-03    -60.8971E+06    -45.4155E+06    -23.6132E+06    -18.5263E+06    -44.8112E-03     86.8665E-03    -42.0553E-03     69.1101E-03    -45.0558E-03     86.8021E-03    -42.0192E-03     68.7483E-03
            1212     7.76453E-03     112.198E-03    -52.9002E+06    -38.6655E+06    -14.4184E+06    -19.8742E+06    -46.5190E-03     88.8901E-03    -42.3711E-03     74.9134E-03    -46.7643E-03     88.8521E-03    -42.3104E-03     74.4959E-03
            1213     8.62386E-03     112.255E-03    -46.0156E+06    -31.4258E+06    -6.14729E+06    -21.0900E+06    -48.6016E-03     91.3954E-03    -42.7938E-03     79.4140E-03    -48.8565E-03     91.3934E-03    -42.7123E-03     78.9346E-03
            1214     9.48137E-03     112.317E-03    -39.6390E+06    -24.1951E+06     1.44827E+06    -22.6888E+06    -51.0087E-03     94.3392E-03    -43.3305E-03     82.2849E-03    -51.2780E-03     94.3779E-03    -43.2307E-03     81.7319E-03
            1215     10.3367E-03     112.381E-03    -33.3850E+06    -17.0133E+06     8.26927E+06    -23.8625E+06    -53.6272E-03     97.6058E-03    -43.9786E-03     83.1786E-03    -53.9104E-03     97.6865E-03    -43.8642E-03     82.5539E-03
            1216     11.1898E-03     112.446E-03    -27.3168E+06    -8.60435E+06     15.2601E+06    -23.7641E+06    -56.3082E-03     101.040E-03    -44.7316E-03     81.8402E-03    -56.6039E-03     101.164E-03    -44.6032E-03     81.1628E-03
            1217     12.0406E-03     112.510E-03    -22.2975E+06     2.43219E+06     22.0392E+06    -23.5454E+06    -58.9420E-03     104.513E-03    -45.5709E-03     78.2257E-03    -59.2498E-03     104.687E-03    -45.4319E-03     77.5062E-03
            1218     12.8889E-03     112.571E-03    -18.4127E+06     6.03164E+06     25.9386E+06    -23.4025E+06    -61.4671E-03     107.947E-03    -46.4800E-03     72.3042E-03    -61.7669E-03     108.128E-03    -46.3323E-03     71.5517E-03
            1219     13.7351E-03     112.628E-03    -14.4685E+06     20.9216E+06     31.3885E+06    -21.1123E+06    -63.6893E-03     111.119E-03    -47.4298E-03     64.4780E-03    -63.9900E-03     111.352E-03    -47.2822E-03     63.7299E-03
            1220     14.5792E-03     112.679E-03    -10.3862E+06     28.5164E+06     34.4490E+06    -16.2742E+06    -65.6033E-03     114.006E-03    -48.4032E-03     54.3697E-03    -65.8815E-03     114.250E-03    -48.2572E-03     53.6674E-03
            1221     15.4218E-03     112.720E-03    -6.71513E+06     41.5971E+06     38.3461E+06    -10.1729E+06    -67.1035E-03     116.479E-03    -49.3755E-03     41.5991E-03    -67.3665E-03     116.755E-03    -49.2343E-03     40.9582E-03
            1222     16.2629E-03     112.751E-03    -3.74299E+06     60.1466E+06     56.5422E+06    -4.84743E+06    -68.0014E-03     118.390E-03    -50.3882E-03     21.9260E-03    -68.2573E-03     118.682E-03    -50.1873E-03     21.4149E-03
            1223     866.177E-06     112.974E-03    -131.883E+06    -85.6513E+06    -130.305E+06    -4.90398E+06    -38.0615E-03     76.0200E-03    -37.9585E-03     10.9693E-03    -38.4085E-03     75.9717E-03    -38.2946E-03     10.9015E-03
            1224     1.73229E-03     112.984E-03    -127.286E+06    -81.0213E+06    -121.401E+06    -9.16900E+06    -38.2113E-03     76.2690E-03    -38.0578E-03     20.0750E-03    -38.5556E-03     76.2250E-03    -38.3627E-03     19.9475E-03
            1225     2.59827E-03     113.000E-03    -120.090E+06    -73.6810E+06    -107.808E+06    -13.4746E+06    -38.5327E-03     76.7049E-03    -38.1721E-03     29.5438E-03    -38.8726E-03     76.6687E-03    -38.4302E-03     29.3545E-03
            1226     3.46402E-03     113.022E-03    -110.915E+06    -67.9659E+06    -91.0111E+06    -17.4979E+06    -39.0615E-03     77.4027E-03    -38.3412E-03     38.8606E-03    -39.3904E-03     77.3598E-03    -38.5369E-03     38.6105E-03
            1227     4.32934E-03     113.051E-03    -99.6921E+06    -61.9066E+06    -73.9209E+06    -20.7748E+06    -39.8362E-03     78.3963E-03    -38.5601E-03     47.8881E-03    -40.1463E-03     78.3466E-03    -38.6954E-03     47.5832E-03
            1228     5.19410E-03     113.086E-03    -86.8824E+06    -53.7708E+06    -57.3021E+06    -22.9100E+06    -40.9101E-03     79.7456E-03    -38.8355E-03     56.5037E-03    -41.1981E-03     79.7001E-03    -38.9181E-03     56.1541E-03
            1229     6.05799E-03     113.129E-03    -74.0041E+06    -46.9337E+06    -41.6840E+06    -24.3601E+06    -42.3432E-03     81.5298E-03    -39.1866E-03     64.5440E-03    -42.6085E-03     81.4864E-03    -39.2197E-03     64.1524E-03
            1230     6.92069E-03     113.178E-03    -61.9094E+06    -41.0522E+06    -28.1727E+06    -25.4055E+06    -44.1508E-03     83.7735E-03    -39.6227E-03     71.8161E-03    -44.3968E-03     83.7357E-03    -39.6143E-03     71.3806E-03
            1231     7.78192E-03     113.232E-03    -51.1725E+06    -35.6851E+06    -16.3370E+06    -25.3050E+06    -46.3435E-03     86.5008E-03    -40.1574E-03     78.0828E-03    -46.5783E-03     86.4748E-03    -40.1131E-03     77.6099E-03
            1232     8.64128E-03     113.293E-03    -42.1828E+06    -27.8873E+06    -5.66961E+06    -24.9742E+06    -48.8975E-03     89.6954E-03    -40.7979E-03     83.0762E-03    -49.1363E-03     89.7021E-03    -40.7247E-03     82.5599E-03
            1233     9.49842E-03     113.358E-03    -34.9941E+06    -19.6734E+06     3.35099E+06    -25.7177E+06    -51.7614E-03     93.3109E-03    -41.5495E-03     86.4531E-03    -52.0151E-03     93.3611E-03    -41.4534E-03     85.8715E-03
            1234     10.3531E-03     113.425E-03    -29.2134E+06    -14.1521E+06     10.1933E+06    -26.4222E+06    -54.8575E-03     97.2699E-03    -42.4124E-03     87.7916E-03    -55.1270E-03     97.3563E-03    -42.2985E-03     87.1394E-03
            1235     11.2051E-03     113.494E-03    -24.3924E+06    -7.21502E+06     16.5904E+06    -26.0435E+06    -58.0274E-03     101.408E-03    -43.3809E-03     86.7138E-03    -58.3152E-03     101.536E-03    -43.2521E-03     86.0051E-03
            1236     12.0543E-03     113.563E-03    -20.2398E+06     3.36071E+06     23.7676E+06    -24.4897E+06    -61.0806E-03     105.521E-03    -44.4403E-03     83.1185E-03    -61.3871E-03     105.699E-03    -44.2970E-03     82.3773E-03
            1237     12.9009E-03     113.628E-03    -17.3153E+06     7.35596E+06     28.2334E+06    -23.1674E+06    -63.9384E-03     109.505E-03    -45.5664E-03     77.0436E-03    -64.2439E-03     109.694E-03    -45.4108E-03     76.2798E-03
            1238     13.7448E-03     113.688E-03    -14.7198E+06     19.3194E+06     32.6360E+06    -22.1781E+06    -66.4196E-03     113.143E-03    -46.7237E-03     68.8334E-03    -66.7268E-03     113.373E-03    -46.5672E-03     68.0541E-03
            1239     14.5868E-03     113.743E-03    -11.0648E+06     21.7430E+06     34.1175E+06    -18.0375E+06    -68.4598E-03     116.352E-03    -47.8926E-03     58.1775E-03    -68.7360E-03     116.568E-03    -47.7375E-03     57.4339E-03
            1240     15.4268E-03     113.787E-03    -7.09513E+06     34.4994E+06     36.7509E+06    -11.6786E+06    -69.9536E-03     118.991E-03    -49.0374E-03     44.8622E-03    -70.2100E-03     119.238E-03    -48.8933E-03     44.1830E-03
            1241     16.2657E-03     113.820E-03    -2.96676E+06     53.8083E+06     55.7228E+06    -5.45068E+06    -70.8367E-03     121.049E-03    -50.2125E-03     24.3684E-03    -71.0814E-03     121.313E-03    -50.0076E-03     23.8305E-03
            1242     869.262E-06     113.994E-03    -116.954E+06    -73.8816E+06    -115.576E+06    -6.05333E+06    -34.7515E-03     69.3698E-03    -34.6183E-03     10.9836E-03    -35.0622E-03     69.3374E-03    -34.9194E-03     10.9026E-03
            1243     1.73832E-03     114.004E-03    -113.887E+06    -68.9403E+06    -108.405E+06    -11.4598E+06    -35.1001E-03     69.8677E-03    -34.7676E-03     20.1343E-03    -35.4134E-03     69.8455E-03    -35.0445E-03     19.9803E-03
            1244     2.60702E-03     114.020E-03    -109.104E+06    -62.2467E+06    -97.6072E+06    -16.7863E+06    -35.7204E-03     70.6975E-03    -34.9771E-03     29.7007E-03    -36.0362E-03     70.6873E-03    -35.2166E-03     29.4730E-03
            1245     3.47514E-03     114.043E-03    -102.652E+06    -56.9534E+06    -84.4132E+06    -21.8380E+06    -36.6284E-03     71.8989E-03    -35.2704E-03     39.1967E-03    -36.9407E-03     71.8888E-03    -35.4611E-03     38.8963E-03
            1246     4.34246E-03     114.074E-03    -94.9212E+06    -51.7628E+06    -71.1531E+06    -26.8996E+06    -37.8337E-03     73.4740E-03    -35.6403E-03     48.4951E-03    -38.1375E-03     73.4630E-03    -35.7834E-03     48.1182E-03
            1247     5.20878E-03     114.111E-03    -86.1558E+06    -46.2806E+06    -58.9505E+06    -30.6459E+06    -39.3476E-03     75.4324E-03    -36.0848E-03     57.4775E-03    -39.6389E-03     75.4242E-03    -36.1875E-03     57.0365E-03
            1248     6.07385E-03     114.155E-03    -76.2729E+06    -40.4760E+06    -46.0870E+06    -32.8524E+06    -41.2072E-03     77.8255E-03    -36.6183E-03     65.9784E-03    -41.4848E-03     77.8221E-03    -36.6794E-03     65.4872E-03
            1249     6.93740E-03     114.207E-03    -65.8442E+06    -36.4837E+06    -32.7815E+06    -33.8892E+06    -43.4484E-03     80.7010E-03    -37.2526E-03     73.7673E-03    -43.7115E-03     80.6959E-03    -37.2682E-03     73.2336E-03
            1250     7.79907E-03     114.265E-03    -54.7979E+06    -33.0450E+06    -20.1730E+06    -33.7805E+06    -46.0581E-03     84.0465E-03    -37.9884E-03     80.6316E-03    -46.3065E-03     84.0416E-03    -37.9619E-03     80.0615E-03
            1251     8.65855E-03     114.328E-03    -43.1576E+06    -25.7175E+06    -7.94010E+06    -32.6998E+06    -49.0002E-03     87.8256E-03    -38.8254E-03     86.2923E-03    -49.2406E-03     87.8448E-03    -38.7652E-03     85.6894E-03
            1252     9.51561E-03     114.397E-03    -33.1378E+06    -17.8079E+06     3.35423E+06    -30.3844E+06    -52.2591E-03     92.0313E-03    -39.7722E-03     90.3501E-03    -52.5033E-03     92.0853E-03    -39.6816E-03     89.7211E-03
            1253     10.3698E-03     114.469E-03    -26.3324E+06    -11.6464E+06     12.4003E+06    -28.6970E+06    -55.8006E-03     96.6316E-03    -40.8310E-03     92.3583E-03    -56.0606E-03     96.7214E-03    -40.7140E-03     91.6871E-03
            1254     11.2209E-03     114.543E-03    -21.6137E+06    -6.68487E+06     19.1707E+06    -27.2250E+06    -59.5067E-03     101.504E-03    -41.9978E-03     91.8034E-03    -59.7855E-03     101.628E-03    -41.8609E-03     91.0838E-03
            1255     12.0688E-03     114.616E-03    -17.8668E+06     3.01409E+06     26.2108E+06    -24.9756E+06    -63.1015E-03     106.363E-03    -43.2614E-03     88.3836E-03    -63.4026E-03     106.536E-03    -43.1088E-03     87.6313E-03
            1256     12.9136E-03     114.686E-03    -13.7729E+06     8.16303E+06     31.9338E+06    -23.3900E+06    -66.3924E-03     110.991E-03    -44.5991E-03     82.2098E-03    -66.6917E-03     111.179E-03    -44.4313E-03     81.4319E-03
            1257     13.7556E-03     114.751E-03    -10.5951E+06     18.4272E+06     36.6132E+06    -21.2187E+06    -69.2073E-03     115.174E-03    -45.9672E-03     73.6262E-03    -69.5028E-03     115.392E-03    -45.7955E-03     72.8458E-03
            1258     14.5950E-03     114.809E-03    -9.15740E+06     16.2577E+06     36.1471E+06    -17.9320E+06    -71.3907E-03     118.726E-03    -47.3357E-03     62.3725E-03    -71.6560E-03     118.913E-03    -47.1652E-03     61.6162E-03
            1259     15.4328E-03     114.857E-03    -7.10615E+06     26.9664E+06     38.9706E+06    -12.4122E+06    -72.8261E-03     121.496E-03    -48.6696E-03     48.5880E-03    -73.0774E-03     121.705E-03    -48.5035E-03     47.8879E-03
            1260     16.2693E-03     114.892E-03    -4.62520E+06     46.6788E+06     56.8547E+06    -6.03726E+06    -74.0229E-03     124.036E-03    -50.0135E-03     27.6738E-03    -74.2691E-03     124.267E-03    -49.7902E-03     27.1179E-03
            1261     871.813E-06     115.007E-03    -86.0093E+06    -60.4634E+06    -84.2543E+06    -6.71987E+06    -32.0927E-03     64.0455E-03    -31.9529E-03     10.5126E-03    -32.3133E-03     63.9901E-03    -32.1617E-03     10.4229E-03
            1262     1.74337E-03     115.017E-03    -83.0079E+06    -55.5023E+06    -76.6475E+06    -12.0264E+06    -32.5853E-03     64.7243E-03    -32.1389E-03     19.3305E-03    -32.8097E-03     64.6788E-03    -32.3213E-03     19.1690E-03
            1263     2.61435E-03     115.035E-03    -79.0555E+06    -49.6304E+06    -67.0230E+06    -17.3137E+06    -33.4128E-03     65.8302E-03    -32.4174E-03     28.6459E-03    -33.6409E-03     65.7955E-03    -32.5660E-03     28.4111E-03
            1264     3.48455E-03     115.060E-03    -74.7136E+06    -44.1606E+06    -57.5947E+06    -22.6639E+06    -34.5709E-03     67.3600E-03    -32.7892E-03     38.0411E-03    -34.8009E-03     67.3348E-03    -32.9048E-03     37.7301E-03
            1265     4.35370E-03     115.092E-03    -70.5079E+06    -39.6048E+06    -48.6414E+06    -27.7705E+06    -36.0691E-03     69.3245E-03    -33.2554E-03     47.3997E-03    -36.3011E-03     69.3064E-03    -33.3390E-03     47.0123E-03
            1266     5.22153E-03     115.131E-03    -66.6096E+06    -36.0457E+06    -40.8332E+06    -32.2629E+06    -37.9044E-03     71.7190E-03    -33.8146E-03     56.6118E-03    -38.1389E-03     71.7073E-03    -33.8699E-03     56.1518E-03
            1267     6.08780E-03     115.178E-03    -62.6866E+06    -32.1820E+06    -33.6291E+06    -35.6583E+06    -40.0715E-03     74.5390E-03    -34.4675E-03     65.5322E-03    -40.3105E-03     74.5388E-03    -34.4981E-03     65.0085E-03
            1268     6.95226E-03     115.233E-03    -57.8534E+06    -29.9221E+06    -25.8232E+06    -38.0093E+06    -42.5985E-03     77.8226E-03    -35.2241E-03     73.9240E-03    -42.8398E-03     77.8273E-03    -35.2259E-03     73.3435E-03
            1269     7.81454E-03     115.294E-03    -51.8265E+06    -27.9484E+06    -17.9457E+06    -39.8389E+06    -45.4798E-03     81.5630E-03    -36.0833E-03     81.5501E-03    -45.7212E-03     81.5735E-03    -36.0573E-03     80.9116E-03
            1270     8.67450E-03     115.362E-03    -44.8413E+06    -23.3161E+06    -9.59234E+06    -40.0932E+06    -48.6976E-03     85.7442E-03    -37.0465E-03     88.0881E-03    -48.9436E-03     85.7762E-03    -36.9957E-03     87.4030E-03
            1271     9.53170E-03     115.435E-03    -36.2624E+06    -18.8749E+06     842.880E+03    -37.5444E+06    -52.2776E-03     90.4076E-03    -38.1301E-03     93.0809E-03    -52.5270E-03     90.4593E-03    -38.0459E-03     92.3757E-03
            1272     10.3859E-03     115.512E-03    -27.2479E+06    -11.9727E+06     12.7986E+06    -33.0829E+06    -56.2025E-03     95.5379E-03    -39.3354E-03     96.0473E-03    -56.4615E-03     95.6210E-03    -39.2145E-03     95.3374E-03
            1273     11.2366E-03     115.592E-03    -19.8866E+06    -6.93496E+06     22.0315E+06    -29.6839E+06    -60.4070E-03     101.062E-03    -40.6549E-03     96.4076E-03    -60.6761E-03     101.173E-03    -40.5059E-03     95.6723E-03
            1274     12.0836E-03     115.671E-03    -14.1493E+06     964.461E+03     29.3019E+06    -26.0243E+06    -64.6614E-03     106.742E-03    -42.0809E-03     93.6114E-03    -64.9434E-03     106.893E-03    -41.9152E-03     92.8539E-03
            1275     12.9269E-03     115.746E-03    -11.1998E+06     8.65203E+06     35.8282E+06    -23.0138E+06    -68.5894E-03     112.192E-03    -43.6029E-03     87.5390E-03    -68.8837E-03     112.374E-03    -43.4201E-03     86.7634E-03
            1276     13.7669E-03     115.816E-03    -9.09596E+06     15.5098E+06     40.2354E+06    -20.3623E+06    -71.8327E-03     117.003E-03    -45.1707E-03     78.6103E-03    -72.1234E-03     117.201E-03    -44.9788E-03     77.8359E-03
            1277     14.6044E-03     115.878E-03    -6.82142E+06     12.0772E+06     40.2785E+06    -15.8740E+06    -74.3339E-03     121.072E-03    -46.7382E-03     66.6031E-03    -74.5878E-03     121.229E-03    -46.5445E-03     65.8686E-03
            1278     15.4396E-03     115.929E-03    -6.33312E+06     21.1015E+06     43.5802E+06    -11.5847E+06    -76.1091E-03     124.384E-03    -48.2745E-03     51.7713E-03    -76.3552E-03     124.556E-03    -48.0780E-03     51.0714E-03
            1279     16.2740E-03     115.967E-03    -2.76086E+06     38.0660E+06     59.3024E+06    -6.61024E+06    -77.5177E-03     127.319E-03    -49.8016E-03     30.4891E-03    -77.7463E-03     127.502E-03    -49.5563E-03     29.9180E-03
            1280     873.312E-06     116.015E-03    -56.4131E+06    -46.5600E+06    -53.9877E+06    -6.80512E+06    -30.6019E-03     61.0716E-03    -30.4696E-03     9.50676E-03    -30.7386E-03     60.9992E-03    -30.5903E-03     9.41428E-03
            1281     1.74629E-03     116.027E-03    -53.7777E+06    -42.4884E+06    -46.8742E+06    -11.8039E+06    -31.1332E-03     61.7974E-03    -30.6642E-03     17.5478E-03    -31.2735E-03     61.7319E-03    -30.7590E-03     17.3862E-03
            1282     2.61874E-03     116.045E-03    -50.2538E+06    -37.1433E+06    -38.2569E+06    -16.7277E+06    -32.0103E-03     62.9711E-03    -30.9607E-03     26.1295E-03    -32.1547E-03     62.9161E-03    -31.0253E-03     25.8982E-03
            1283     3.49032E-03     116.072E-03    -46.6215E+06    -31.8877E+06    -29.5727E+06    -21.4034E+06    -33.2370E-03     64.5960E-03    -31.3590E-03     34.9145E-03    -33.3858E-03     64.5518E-03    -31.3930E-03     34.6148E-03
            1284     4.36078E-03     116.106E-03    -43.4106E+06    -28.0781E+06    -21.8208E+06    -25.6878E+06    -34.8094E-03     66.6662E-03    -31.8568E-03     43.8408E-03    -34.9626E-03     66.6289E-03    -31.8622E-03     43.4751E-03
            1285     5.22985E-03     116.148E-03    -40.7835E+06    -25.2761E+06    -15.1244E+06    -29.4957E+06    -36.7209E-03     69.1729E-03    -32.4520E-03     52.8503E-03    -36.8803E-03     69.1416E-03    -32.4318E-03     52.4212E-03
            1286     6.09721E-03     116.198E-03    -38.7185E+06    -22.8968E+06    -10.0019E+06    -32.8132E+06    -38.9502E-03     72.0889E-03    -33.1387E-03     61.8686E-03    -39.1179E-03     72.0670E-03    -33.0994E-03     61.3786E-03
            1287     6.96266E-03     116.255E-03    -37.2272E+06    -21.2248E+06    -6.32041E+06    -35.9346E+06    -41.5053E-03     75.4216E-03    -33.9163E-03     70.7194E-03    -41.6840E-03     75.4112E-03    -33.8631E-03     70.1663E-03
            1288     7.82600E-03     116.321E-03    -36.2257E+06    -20.4362E+06    -2.99147E+06    -38.5433E+06    -44.4424E-03     79.2363E-03    -34.7939E-03     79.0901E-03    -44.6360E-03     79.2377E-03    -34.7267E-03     78.4741E-03
            1289     8.68676E-03     116.393E-03    -35.4262E+06    -18.5855E+06     516.899E+03    -39.9628E+06    -47.7862E-03     83.5654E-03    -35.7792E-03     86.6223E-03    -48.0014E-03     83.5877E-03    -35.6983E-03     85.9511E-03
            1290     9.54476E-03     116.471E-03    -34.0457E+06    -17.5464E+06     5.06315E+06    -40.0969E+06    -51.5472E-03     88.4344E-03    -36.8872E-03     92.8511E-03    -51.7852E-03     88.4750E-03    -36.7870E-03     92.1324E-03
            1291     10.3994E-03     116.554E-03    -30.1944E+06    -14.2196E+06     12.3605E+06    -37.7194E+06    -55.7137E-03     93.8412E-03    -38.1275E-03     97.2174E-03    -55.9721E-03     93.9066E-03    -38.0013E-03     96.4744E-03
            1292     11.2506E-03     116.639E-03    -24.3434E+06    -8.01430E+06     21.6082E+06    -33.5655E+06    -60.2815E-03     99.7860E-03    -39.5045E-03     99.0412E-03    -60.5574E-03     99.8851E-03    -39.3496E-03     98.2879E-03
            1293     12.0975E-03     116.725E-03    -18.3143E+06    -2.76873E+06     29.8115E+06    -29.2638E+06    -65.1611E-03     106.178E-03    -41.0172E-03     97.5908E-03    -65.4468E-03     106.304E-03    -40.8376E-03     96.8229E-03
            1294     12.9401E-03     116.807E-03    -12.6924E+06     4.89157E+06     38.3275E+06    -22.8654E+06    -69.9640E-03     112.624E-03    -42.6595E-03     92.2646E-03    -70.2557E-03     112.777E-03    -42.4566E-03     91.5117E-03
            1295     13.7786E-03     116.882E-03    -10.7071E+06     13.3334E+06     44.7912E+06    -18.1727E+06    -74.0874E-03     118.477E-03    -44.3896E-03     83.1324E-03    -74.3858E-03     118.656E-03    -44.1695E-03     82.3931E-03
            1296     14.6139E-03     116.949E-03    -9.28719E+06     8.74737E+06     45.2831E+06    -15.9486E+06    -77.2885E-03     123.436E-03    -46.1471E-03     70.4577E-03    -77.5540E-03     123.569E-03    -45.9199E-03     69.7250E-03
            1297     15.4464E-03     117.004E-03    -3.69066E+06     15.8387E+06     47.5426E+06    -11.8019E+06    -79.7393E-03     127.617E-03    -47.8773E-03     55.1233E-03    -79.9671E-03     127.750E-03    -47.6572E-03     54.4205E-03
            1298     16.2761E-03     117.046E-03    -301.172E+03     29.8564E+06     59.3824E+06    -5.56530E+06    -81.0102E-03     130.599E-03    -49.5883E-03     33.0765E-03    -81.2138E-03     130.735E-03    -49.3342E-03     32.5157E-03
            1299     873.284E-06     117.022E-03    -28.4459E+06    -33.2428E+06    -26.2366E+06    -6.10769E+06    -30.7668E-03     61.3887E-03    -30.6219E-03     8.04061E-03    -30.8233E-03     61.3022E-03    -30.6636E-03     7.95460E-03
            1300     1.74631E-03     117.034E-03    -26.5451E+06    -30.1305E+06    -20.5215E+06    -11.0079E+06    -31.2471E-03     62.0641E-03    -30.8170E-03     14.8668E-03    -31.3079E-03     61.9830E-03    -30.8374E-03     14.7109E-03
            1301     2.61879E-03     117.054E-03    -23.9977E+06    -25.7130E+06    -12.8734E+06    -15.4586E+06    -32.0666E-03     63.1674E-03    -31.1008E-03     22.1868E-03    -32.1339E-03     63.0954E-03    -31.0931E-03     21.9653E-03
            1302     3.49049E-03     117.082E-03    -21.3943E+06    -21.2610E+06    -5.17446E+06    -19.2686E+06    -33.1961E-03     64.6776E-03    -31.4815E-03     29.7280E-03    -33.2707E-03     64.6157E-03    -31.4456E-03     29.4474E-03
            1303     4.36115E-03     117.118E-03    -19.2214E+06    -18.2648E+06     1.62237E+06    -22.5024E+06    -34.6020E-03     66.5535E-03    -31.9515E-03     37.5148E-03    -34.6840E-03     66.4977E-03    -31.8890E-03     37.1806E-03
            1304     5.23054E-03     117.162E-03    -17.7859E+06    -16.1147E+06     6.90627E+06    -25.3178E+06    -36.2592E-03     68.7584E-03    -32.4992E-03     45.6075E-03    -36.3503E-03     68.7092E-03    -32.4155E-03     45.2228E-03
            1305     6.09852E-03     117.215E-03    -17.1021E+06    -14.2008E+06     11.1143E+06    -27.9337E+06    -38.1812E-03     71.3023E-03    -33.1211E-03     53.9971E-03    -38.2850E-03     71.2628E-03    -33.0201E-03     53.5620E-03
            1306     6.96489E-03     117.275E-03    -17.2599E+06    -12.9525E+06     14.4637E+06    -30.1974E+06    -40.4156E-03     74.2355E-03    -33.8200E-03     62.5833E-03    -40.5360E-03     74.2070E-03    -33.7038E-03     62.0994E-03
            1307     7.82926E-03     117.344E-03    -18.2986E+06    -12.8834E+06     16.8678E+06    -32.1586E+06    -43.0431E-03     77.6470E-03    -34.6038E-03     71.1557E-03    -43.1839E-03     77.6284E-03    -34.4743E-03     70.6230E-03
            1308     8.69140E-03     117.421E-03    -19.9380E+06    -12.7332E+06     18.5167E+06    -33.4368E+06    -46.1456E-03     81.6306E-03    -35.4850E-03     79.3889E-03    -46.3112E-03     81.6269E-03    -35.3450E-03     78.8110E-03
            1309     9.55067E-03     117.504E-03    -22.0619E+06    -12.6997E+06     19.5266E+06    -34.2189E+06    -49.7641E-03     86.2441E-03    -36.4801E-03     86.8229E-03    -49.9586E-03     86.2590E-03    -36.3320E-03     86.1999E-03
            1310     10.4069E-03     117.592E-03    -24.1700E+06    -12.4084E+06     20.9062E+06    -34.9286E+06    -53.9169E-03     91.5253E-03    -37.6084E-03     92.8480E-03    -54.1431E-03     91.5616E-03    -37.4509E-03     92.1734E-03
            1311     11.2593E-03     117.684E-03    -24.4457E+06    -9.46151E+06     24.9080E+06    -33.4234E+06    -58.6196E-03     97.5103E-03    -38.8907E-03     96.6915E-03    -58.8765E-03     97.5753E-03    -38.7170E-03     95.9857E-03
            1312     12.1076E-03     117.777E-03    -22.7649E+06    -4.98303E+06     31.8027E+06    -30.0781E+06    -63.8590E-03     104.203E-03    -40.3442E-03     97.4647E-03    -64.1416E-03     104.296E-03    -40.1450E-03     96.7424E-03
            1313     12.9509E-03     117.867E-03    -18.5411E+06    -1.56308E+06     39.7583E+06    -25.9554E+06    -69.5026E-03     111.475E-03    -41.9719E-03     94.2705E-03    -69.7930E-03     111.579E-03    -41.7440E-03     93.5347E-03
            1314     13.7891E-03     117.950E-03    -11.8359E+06     8.21243E+06     49.2972E+06    -18.5479E+06    -75.0657E-03     118.821E-03    -43.7555E-03     86.4025E-03    -75.3523E-03     118.953E-03    -43.5038E-03     85.6998E-03
            1315     14.6223E-03     118.023E-03    -6.80598E+06     9.85225E+06     53.7329E+06    -15.5227E+06    -79.7173E-03     125.359E-03    -45.6418E-03     73.8359E-03    -79.9733E-03     125.471E-03    -45.3775E-03     73.1355E-03
            1316     15.4524E-03     118.083E-03    -4.07576E+06     8.08339E+06     51.7629E+06    -13.1803E+06    -82.6855E-03     130.219E-03    -47.5336E-03     58.2296E-03    -82.9002E-03     130.299E-03    -47.2806E-03     57.5398E-03
            1317     16.2807E-03     118.130E-03    -1.21721E+06     19.4399E+06     58.7357E+06    -3.98472E+06    -84.0075E-03     133.398E-03    -49.3907E-03     35.4983E-03    -84.1936E-03     133.479E-03    -49.1234E-03     34.9821E-03
            1318     871.527E-06     118.031E-03    -3.11187E+06    -21.2460E+06    -1.62782E+06    -5.41248E+06    -32.9332E-03     65.7109E-03    -32.7777E-03     6.10899E-03    -32.9166E-03     65.6116E-03    -32.7505E-03     6.02904E-03
            1319     1.74280E-03     118.044E-03    -2.28418E+06    -18.9669E+06     2.82674E+06    -9.50979E+06    -33.3615E-03     66.3392E-03    -32.9777E-03     11.3350E-03    -33.3516E-03     66.2446E-03    -32.9327E-03     11.1932E-03
            1320     2.61356E-03     118.065E-03    -1.07165E+06    -15.7344E+06     9.05112E+06    -13.2871E+06    -34.0772E-03     67.3256E-03    -33.2484E-03     16.8636E-03    -34.0767E-03     67.2382E-03    -33.1787E-03     16.6625E-03
            1321     3.48360E-03     118.094E-03     259.354E+03    -12.5901E+06     15.2825E+06    -16.1585E+06    -34.9767E-03     68.5727E-03    -33.5960E-03     22.5820E-03    -34.9859E-03     68.4930E-03    -33.5017E-03     22.3321E-03
            1322     4.35275E-03     118.131E-03     1.15346E+06    -10.5095E+06     20.7195E+06    -18.3308E+06    -36.0228E-03     70.0255E-03    -34.0027E-03     28.6050E-03    -36.0422E-03     69.9509E-03    -33.8855E-03     28.3140E-03
            1323     5.22102E-03     118.177E-03     1.48800E+06    -8.84291E+06     25.3138E+06    -20.2262E+06    -37.2128E-03     71.6702E-03    -34.4575E-03     35.0137E-03    -37.2445E-03     71.6019E-03    -34.3202E-03     34.6839E-03
            1324     6.08826E-03     118.232E-03     1.05066E+06    -7.52801E+06     29.3976E+06    -21.6914E+06    -38.5770E-03     73.5362E-03    -34.9591E-03     41.8299E-03    -38.6250E-03     73.4755E-03    -34.8028E-03     41.4657E-03
            1325     6.95429E-03     118.295E-03    -354.968E+03    -6.88432E+06     32.6226E+06    -22.6837E+06    -40.1683E-03     75.6777E-03    -35.5094E-03     49.0391E-03    -40.2365E-03     75.6253E-03    -35.3358E-03     48.6450E-03
            1326     7.81902E-03     118.367E-03    -2.65956E+06    -6.84356E+06     34.5818E+06    -23.6079E+06    -42.0591E-03     78.1726E-03    -36.1134E-03     56.5883E-03    -42.1506E-03     78.1299E-03    -35.9267E-03     56.1635E-03
            1327     8.68205E-03     118.446E-03    -5.34894E+06    -7.52566E+06     35.6682E+06    -24.5637E+06    -44.3624E-03     81.1478E-03    -36.7854E-03     64.3047E-03    -44.4781E-03     81.1145E-03    -36.5884E-03     63.8465E-03
            1328     9.54312E-03     118.533E-03    -7.81988E+06    -7.87387E+06     36.8718E+06    -25.1460E+06    -47.2176E-03     84.7651E-03    -37.5475E-03     71.8643E-03    -47.3585E-03     84.7438E-03    -37.3404E-03     71.3740E-03
            1329     10.4014E-03     118.627E-03    -10.5390E+06    -7.68979E+06     37.9275E+06    -25.5795E+06    -50.7228E-03     89.1454E-03    -38.4226E-03     78.7801E-03    -50.8917E-03     89.1402E-03    -38.2065E-03     78.2554E-03
            1330     11.2565E-03     118.725E-03    -13.5888E+06    -7.60676E+06     38.4651E+06    -26.1960E+06    -54.9244E-03     94.3584E-03    -39.4340E-03     84.4455E-03    -55.1220E-03     94.3701E-03    -39.2110E-03     83.8795E-03
            1331     12.1075E-03     118.825E-03    -14.9096E+06    -5.19732E+06     41.2909E+06    -25.5502E+06    -59.9040E-03     100.518E-03    -40.6141E-03     87.9950E-03    -60.1275E-03     100.552E-03    -40.3785E-03     87.3978E-03
            1332     12.9539E-03     118.923E-03    -14.8617E+06     -2.7006E+06     45.8279E+06    -24.0387E+06    -65.7545E-03     107.746E-03    -41.9914E-03     88.3992E-03    -65.9971E-03     107.794E-03    -41.7367E-03     87.7738E-03
            1333     13.7945E-03     119.016E-03    -12.1966E+06     781.054E+03     50.7603E+06    -21.2839E+06    -72.3396E-03     115.918E-03    -43.5789E-03     84.7222E-03    -72.5857E-03     115.978E-03    -43.3085E-03     84.0759E-03
            1334     14.6286E-03     119.098E-03    -7.14920E+06     8.06663E+06     57.4499E+06    -15.7309E+06    -78.9070E-03     124.281E-03    -45.3744E-03     75.7138E-03    -79.1422E-03     124.355E-03    -45.0885E-03     75.0927E-03
            1335     15.4567E-03     119.164E-03    -6.85315E+06     1.40552E+06     54.5305E+06    -10.1910E+06    -83.9541E-03     131.246E-03    -47.2918E-03     60.9724E-03    -84.1581E-03     131.273E-03    -47.0112E-03     60.3923E-03
            1336     16.2832E-03     119.213E-03    -6.48103E+06     8.25730E+06     54.7798E+06    -4.37107E+06    -86.3242E-03     135.549E-03    -49.2249E-03     37.4160E-03    -86.5042E-03     135.577E-03    -48.9536E-03     36.9435E-03
            1337     867.745E-06     119.047E-03     16.9353E+06    -11.2967E+06     19.1791E+06    -4.02456E+06    -37.6319E-03     74.8436E-03    -37.2117E-03     3.77403E-03    -37.5605E-03     74.7337E-03    -37.1240E-03     3.71031E-03
            1338     1.73520E-03     119.060E-03     17.1995E+06    -9.80050E+06     21.8164E+06    -7.26210E+06    -37.9078E-03     75.4675E-03    -37.5597E-03     6.62180E-03    -37.8419E-03     75.3615E-03    -37.4613E-03     6.50537E-03
            1339     2.60209E-03     119.082E-03     17.3840E+06    -7.71384E+06     26.4086E+06    -10.0514E+06    -38.3806E-03     76.1952E-03    -37.8145E-03     9.77772E-03    -38.3248E-03     76.0942E-03    -37.6965E-03     9.61325E-03
            1340     3.46842E-03     119.112E-03     17.2898E+06    -6.15117E+06     31.2504E+06    -11.9186E+06    -38.9165E-03     77.0179E-03    -38.1014E-03     13.2156E-03    -38.8723E-03     76.9199E-03    -37.9613E-03     13.0144E-03
            1341     4.33421E-03     119.150E-03     16.8988E+06    -4.80953E+06     36.0595E+06    -13.1660E+06    -39.5239E-03     77.9413E-03    -38.4173E-03     16.9676E-03    -39.4932E-03     77.8463E-03    -38.2546E-03     16.7372E-03
            1342     5.19935E-03     119.197E-03     16.0013E+06    -3.77106E+06     40.7633E+06    -14.0071E+06    -40.2025E-03     78.9643E-03    -38.7618E-03     21.0599E-03    -40.1879E-03     78.8726E-03    -38.5757E-03     20.8051E-03
            1343     6.06378E-03     119.253E-03     14.5064E+06    -3.30574E+06     44.6872E+06    -14.3901E+06    -40.9503E-03     80.0809E-03    -39.1306E-03     25.5219E-03    -40.9538E-03     79.9925E-03    -38.9234E-03     25.2479E-03
            1344     6.92753E-03     119.317E-03     12.6311E+06    -3.08598E+06     47.7620E+06    -14.4612E+06    -41.7840E-03     81.3055E-03    -39.5215E-03     30.3578E-03    -41.8066E-03     81.2217E-03    -39.2965E-03     30.0683E-03
            1345     7.79042E-03     119.390E-03     10.5799E+06    -2.89380E+06     50.4041E+06    -14.5891E+06    -42.7417E-03     82.6788E-03    -39.9371E-03     35.5483E-03    -42.7845E-03     82.6012E-03    -39.6962E-03     35.2420E-03
            1346     8.65252E-03     119.472E-03     8.39798E+06    -3.20526E+06     52.6272E+06    -15.2471E+06    -43.8925E-03     84.2752E-03    -40.3827E-03     41.0441E-03    -43.9555E-03     84.2029E-03    -40.1271E-03     40.7134E-03
            1347     9.51346E-03     119.561E-03     5.90482E+06    -4.67057E+06     53.9377E+06    -15.6824E+06    -45.3538E-03     86.2203E-03    -40.8665E-03     46.7559E-03    -45.4362E-03     86.1501E-03    -40.5986E-03     46.4029E-03
            1348     10.3731E-03     119.658E-03     3.36155E+06    -4.20399E+06     55.2139E+06    -15.7395E+06    -47.2800E-03     88.6841E-03    -41.4041E-03     52.5039E-03    -47.3849E-03     88.6260E-03    -41.1268E-03     52.1323E-03
            1349     11.2309E-03     119.761E-03     1.08369E+06    -3.58648E+06     56.0186E+06    -16.3028E+06    -49.8296E-03     91.8467E-03    -42.0170E-03     57.9623E-03    -49.9549E-03     91.8014E-03    -41.7333E-03     57.5645E-03
            1350     12.0862E-03     119.866E-03    -1.04031E+06    -3.29891E+06     56.0854E+06    -16.9892E+06    -53.1833E-03     95.9148E-03    -42.7315E-03     62.8264E-03    -53.3254E-03     95.8805E-03    -42.4448E-03     62.4000E-03
            1351     12.9379E-03     119.972E-03    -3.04890E+06    -2.23533E+06     56.4593E+06    -16.0668E+06    -57.6349E-03     101.222E-03    -43.5871E-03     66.4896E-03    -57.7936E-03     101.200E-03    -43.2971E-03     66.0523E-03
            1352     13.7851E-03     120.074E-03    -6.28929E+06     291.191E+03     56.4490E+06    -15.2344E+06    -63.4799E-03     108.110E-03    -44.6297E-03     68.0599E-03    -63.6615E-03     108.109E-03    -44.3387E-03     67.6028E-03
            1353     14.6265E-03     120.168E-03    -7.47095E+06     3.92853E+06     57.0926E+06    -14.5147E+06    -70.8002E-03     116.714E-03    -45.9140E-03     65.7749E-03    -70.9919E-03     116.730E-03    -45.6234E-03     65.2966E-03
            1354     15.4604E-03     120.246E-03    -2.62016E+06    -6.61158E+06     53.8947E+06    -9.14061E+06    -78.7943E-03     126.255E-03    -47.4609E-03     57.5918E-03    -78.9335E-03     126.208E-03    -47.1781E-03     57.1570E-03
            1355     16.2848E-03     120.302E-03     826.144E+03     2.38421E+06     51.4522E+06    -3.69646E+06    -85.0377E-03     134.237E-03    -49.1996E-03     38.4302E-03    -85.1498E-03     134.213E-03    -48.9470E-03     38.0743E-03
            1356     861.525E-06     120.075E-03     32.4580E+06    -4.47586E+06     33.7257E+06    -2.41783E+06    -45.0130E-03     90.1474E-03    -45.1344E-03    -57.9536E-06    -44.8968E-03     90.0255E-03    -45.0064E-03    -99.7581E-06
            1357     1.72235E-03     120.089E-03     31.7456E+06    -3.35852E+06     35.8931E+06    -4.24981E+06    -45.2012E-03     90.3780E-03    -45.1769E-03     81.7816E-06    -45.0935E-03     90.2600E-03    -45.0386E-03     7.25203E-06
            1358     2.58304E-03     120.111E-03     30.4511E+06    -2.63822E+06     38.9815E+06    -5.48607E+06    -45.2817E-03     90.5950E-03    -45.3133E-03     432.457E-06    -45.1862E-03     90.4786E-03    -45.1588E-03     332.445E-06
            1359     3.44357E-03     120.141E-03     28.8360E+06    -2.04228E+06     43.2455E+06    -6.25416E+06    -45.4210E-03     90.8999E-03    -45.4789E-03     1.00211E-03    -45.3412E-03     90.7833E-03    -45.3015E-03     882.550E-06
            1360     4.30370E-03     120.180E-03     27.1202E+06    -1.45136E+06     48.1677E+06    -6.62521E+06    -45.5982E-03     91.2783E-03    -45.6801E-03     1.76343E-03    -45.5357E-03     91.1610E-03    -45.4765E-03     1.62930E-03
            1361     5.16342E-03     120.227E-03     25.3789E+06    -1.05991E+06     52.9216E+06    -6.60678E+06    -45.7816E-03     91.6920E-03    -45.9105E-03     2.73383E-03    -45.7364E-03     91.5736E-03    -45.6811E-03     2.59004E-03
            1362     6.02270E-03     120.283E-03     23.6961E+06    -1.03135E+06     57.1455E+06    -6.46067E+06    -45.9383E-03     92.0999E-03    -46.1616E-03     3.93448E-03    -45.9091E-03     91.9795E-03    -45.9087E-03     3.78255E-03
            1363     6.88146E-03     120.347E-03     22.1803E+06    -1.08525E+06     61.0510E+06    -6.28938E+06    -46.0331E-03     92.4585E-03    -46.4254E-03     5.38764E-03    -46.0187E-03     92.3364E-03    -46.1508E-03     5.22783E-03
            1364     7.73986E-03     120.421E-03     20.7774E+06    -809.042E+03     64.8306E+06    -6.14965E+06    -46.0405E-03     92.7335E-03    -46.6931E-03     7.11540E-03    -46.0410E-03     92.6117E-03    -46.3979E-03     6.94736E-03
            1365     8.59777E-03     120.502E-03     18.9603E+06    -632.783E+03     67.7480E+06    -6.06198E+06    -45.9458E-03     92.8985E-03    -46.9527E-03     9.13976E-03    -45.9622E-03     92.7788E-03    -46.6405E-03     8.96311E-03
            1366     9.45549E-03     120.592E-03     16.8487E+06    -2.24657E+06     69.0415E+06    -6.26149E+06    -45.7640E-03     92.9577E-03    -47.1937E-03     11.4698E-03    -45.7929E-03     92.8344E-03    -46.8697E-03     11.2815E-03
            1367     10.3130E-03     120.690E-03     15.0745E+06    -2.06814E+06     70.0659E+06    -6.77386E+06    -45.5437E-03     92.9535E-03    -47.4098E-03     14.1011E-03    -45.5858E-03     92.8357E-03    -47.0783E-03     13.8978E-03
            1368     11.1706E-03     120.793E-03     13.0968E+06    -513.844E+03     70.8783E+06    -7.13904E+06    -45.4516E-03     93.0528E-03    -47.6012E-03     17.0023E-03    -45.5091E-03     92.9482E-03    -47.2650E-03     16.7873E-03
            1369     12.0279E-03     120.901E-03     9.72610E+06    -1.41491E+06     69.3288E+06    -6.94421E+06    -45.7561E-03     93.5299E-03    -47.7738E-03     20.1886E-03    -45.8285E-03     93.4313E-03    -47.4393E-03     19.9703E-03
            1370     12.8853E-03     121.011E-03     6.02487E+06    -1.63166E+06     66.7643E+06    -7.08050E+06    -46.9478E-03     94.9045E-03    -47.9567E-03     23.5847E-03    -47.0357E-03     94.8167E-03    -47.6293E-03     23.3583E-03
            1371     13.7415E-03     121.120E-03     3.85007E+06     1.25384E+06     64.9946E+06    -5.95378E+06    -49.6694E-03     97.8771E-03    -48.2077E-03     26.5673E-03    -49.7699E-03     97.8112E-03    -47.8901E-03     26.3484E-03
            1372     14.5946E-03     121.223E-03     1.09598E+06     4.85710E+06     60.1079E+06    -4.84424E+06    -54.2087E-03     102.791E-03    -48.5823E-03     28.5048E-03    -54.3192E-03     102.754E-03    -48.2904E-03     28.2945E-03
            1373     15.4417E-03     121.314E-03    -755.711E+03    -9.79613E+06     46.3013E+06    -5.45883E+06    -60.9408E-03     110.090E-03    -49.1496E-03     29.0719E-03    -61.0162E-03     110.000E-03    -48.9028E-03     28.8472E-03
            1374     16.2826E-03     121.383E-03     1.74694E+06    -3.13608E+06     36.2119E+06    -4.61764E+06    -68.8630E-03     118.826E-03    -49.9629E-03     23.2643E-03    -68.9144E-03     118.773E-03    -49.7798E-03     23.0617E-03
            1375     16.2434E-03     60.1476E-03    -4.13940E+06     114.066E+06     74.8885E+06    -26.9070E+03    -50.7712E-03     102.377E-03    -51.6060E-03     6.81850E-03    -51.1154E-03     102.894E-03    -51.3909E-03     6.47950E-03
            1376     15.3882E-03     60.1334E-03    -8.12991E+06     109.154E+06     61.1560E+06    -31.2143E+03    -50.8539E-03     102.420E-03    -51.5666E-03     20.7140E-03    -51.2308E-03     102.979E-03    -51.4073E-03     20.2939E-03
            1377     14.5331E-03     60.1069E-03    -11.9704E+06     99.5949E+06     53.8321E+06     45.2785E+03    -50.9928E-03     102.560E-03    -51.5669E-03     31.4539E-03    -51.3883E-03     103.110E-03    -51.4248E-03     31.0241E-03
            1378     13.6779E-03     60.0712E-03    -15.7596E+06     64.4100E+06     44.9748E+06     117.200E+03    -51.2354E-03     102.832E-03    -51.5965E-03     39.7307E-03    -51.6097E-03     103.248E-03    -51.4421E-03     39.2813E-03
            1379     12.8229E-03     60.0282E-03    -19.4467E+06     21.4972E+06     35.1888E+06     119.565E+03    -51.5168E-03     103.147E-03    -51.6300E-03     46.4889E-03    -51.8503E-03     103.386E-03    -51.4570E-03     46.0266E-03
            1380     11.9679E-03     59.9789E-03    -23.2011E+06     517.131E+03     30.9030E+06     104.763E+03    -51.6955E-03     103.353E-03    -51.6577E-03     51.9139E-03    -52.0211E-03     103.509E-03    -51.4703E-03     51.4466E-03
            1381     11.1129E-03     59.9250E-03    -27.1067E+06    -21.8555E+06     24.0184E+06     94.4587E+03    -51.8572E-03     103.532E-03    -51.6744E-03     55.5338E-03    -52.1604E-03     103.591E-03    -51.4833E-03     55.0713E-03
            1382     10.2579E-03     59.8684E-03    -31.1325E+06    -42.2166E+06     18.0972E+06     86.4158E+03    -51.9677E-03     103.661E-03    -51.6930E-03     57.3742E-03    -52.2438E-03     103.624E-03    -51.4961E-03     56.9286E-03
            1383     9.40297E-03     59.8108E-03    -35.3160E+06    -60.0568E+06     11.5383E+06     77.7551E+03    -52.0289E-03     103.734E-03    -51.7051E-03     57.6242E-03    -52.2741E-03     103.607E-03    -51.5091E-03     57.2071E-03
            1384     8.54804E-03     59.7537E-03    -39.6742E+06    -78.8777E+06     4.92561E+06     65.6621E+03    -52.0546E-03     103.774E-03    -51.7189E-03     56.4995E-03    -52.2641E-03     103.548E-03    -51.5224E-03     56.1193E-03
            1385     7.69313E-03     59.6983E-03    -44.2650E+06    -95.5299E+06    -1.70553E+06     53.0469E+03    -52.0407E-03     103.771E-03    -51.7302E-03     54.2246E-03    -52.2176E-03     103.457E-03    -51.5361E-03     53.8867E-03
            1386     6.83824E-03     59.6456E-03    -49.1631E+06    -111.665E+06    -8.52726E+06     32.2017E+03    -51.9988E-03     103.740E-03    -51.7410E-03     50.9277E-03    -52.1460E-03     103.341E-03    -51.5504E-03     50.6341E-03
            1387     5.98337E-03     59.5967E-03    -54.4539E+06    -126.985E+06    -15.9679E+06     11.7668E+03    -51.9360E-03     103.685E-03    -51.7489E-03     46.7346E-03    -52.0578E-03     103.209E-03    -51.5657E-03     46.4855E-03
            1388     5.12852E-03     59.5524E-03    -60.1893E+06    -142.570E+06    -24.4378E+06     2.18187E+03    -51.8659E-03     103.619E-03    -51.7534E-03     41.7383E-03    -51.9654E-03     103.070E-03    -51.5816E-03     41.5325E-03
            1389     4.27369E-03     59.5134E-03    -66.3011E+06    -156.246E+06    -34.9326E+06        -964.308    -51.7936E-03     103.540E-03    -51.7461E-03     36.0410E-03    -51.8753E-03     102.933E-03    -51.5980E-03     35.8761E-03
            1390     3.41890E-03     59.4805E-03    -72.5154E+06    -167.174E+06    -47.8549E+06    -6.69851E+03    -51.7270E-03     103.450E-03    -51.7229E-03     29.7393E-03    -51.7949E-03     102.806E-03    -51.6146E-03     29.6124E-03
            1391     2.56413E-03     59.4541E-03    -78.3137E+06    -177.781E+06    -61.9927E+06    -7.12083E+03    -51.6807E-03     103.372E-03    -51.6917E-03     22.9209E-03    -51.7340E-03     102.696E-03    -51.6303E-03     22.8288E-03
            1392     1.70940E-03     59.4347E-03    -83.1062E+06    -186.903E+06    -74.8024E+06    -2.21613E+03    -51.6523E-03     103.313E-03    -51.6609E-03     15.7418E-03    -51.6927E-03     102.612E-03    -51.6434E-03     15.6815E-03
            1393     854.691E-06     59.4226E-03    -86.3552E+06    -193.136E+06    -84.0110E+06    -2.99350E+03    -51.6670E-03     103.276E-03    -51.6090E-03     8.65851E-03    -51.6983E-03     102.559E-03    -51.6238E-03     8.62638E-03
            1394     16.2434E-03     59.0966E-03    -4.14907E+06     114.117E+06     74.9302E+06    -28.3823E+03    -50.7789E-03     102.384E-03    -51.6056E-03     6.80686E-03    -51.1233E-03     102.902E-03    -51.3904E-03     6.46781E-03
            1395     15.3883E-03     59.0824E-03    -8.16581E+06     109.115E+06     61.1283E+06    -38.9396E+03    -50.8617E-03     102.427E-03    -51.5656E-03     20.6949E-03    -51.2387E-03     102.985E-03    -51.4063E-03     20.2748E-03
            1396     14.5331E-03     59.0559E-03    -12.0127E+06     99.4825E+06     53.7672E+06     5.58631E+03    -51.0006E-03     102.566E-03    -51.5653E-03     31.4286E-03    -51.3959E-03     103.116E-03    -51.4233E-03     30.9983E-03
            1397     13.6780E-03     59.0202E-03    -15.8177E+06     64.3773E+06     44.9290E+06     59.4391E+03    -51.2423E-03     102.837E-03    -51.5943E-03     39.7023E-03    -51.6166E-03     103.253E-03    -51.4401E-03     39.2522E-03
            1398     12.8229E-03     58.9772E-03    -19.5067E+06     21.5053E+06     35.1558E+06     90.1442E+03    -51.5226E-03     103.150E-03    -51.6272E-03     46.4588E-03    -51.8564E-03     103.389E-03    -51.4543E-03     45.9962E-03
            1399     11.9679E-03     58.9280E-03    -23.2385E+06     535.734E+03     30.8816E+06     98.3278E+03    -51.7003E-03     103.355E-03    -51.6543E-03     51.8819E-03    -52.0259E-03     103.510E-03    -51.4670E-03     51.4145E-03
            1400     11.1129E-03     58.8741E-03    -27.1317E+06    -21.8364E+06     24.0027E+06     94.8343E+03    -51.8608E-03     103.531E-03    -51.6704E-03     55.4999E-03    -52.1639E-03     103.591E-03    -51.4794E-03     55.0374E-03
            1401     10.2580E-03     58.8176E-03    -31.1479E+06    -42.1963E+06     18.0859E+06     88.1734E+03    -51.9699E-03     103.658E-03    -51.6883E-03     57.3394E-03    -52.2460E-03     103.621E-03    -51.4915E-03     56.8939E-03
            1402     9.40302E-03     58.7600E-03    -35.3322E+06    -60.0324E+06     11.5284E+06     77.4746E+03    -52.0299E-03     103.730E-03    -51.6997E-03     57.5895E-03    -52.2750E-03     103.603E-03    -51.5038E-03     57.1725E-03
            1403     8.54809E-03     58.7029E-03    -39.6981E+06    -78.8523E+06     4.91362E+06     64.9538E+03    -52.0543E-03     103.767E-03    -51.7128E-03     56.4662E-03    -52.2638E-03     103.542E-03    -51.5164E-03     56.0862E-03
            1404     7.69318E-03     58.6475E-03    -44.2922E+06    -95.4939E+06    -1.72358E+06     41.2030E+03    -52.0386E-03     103.762E-03    -51.7235E-03     54.1939E-03    -52.2156E-03     103.448E-03    -51.5294E-03     53.8560E-03
            1405     6.83829E-03     58.5949E-03    -49.1888E+06    -111.638E+06    -8.55022E+06     20.5288E+03    -51.9949E-03     103.729E-03    -51.7337E-03     50.8989E-03    -52.1421E-03     103.330E-03    -51.5432E-03     50.6053E-03
            1406     5.98341E-03     58.5460E-03    -54.4703E+06    -126.970E+06    -15.9864E+06     12.7689E+03    -51.9309E-03     103.672E-03    -51.7411E-03     46.7079E-03    -52.0527E-03     103.196E-03    -51.5580E-03     46.4590E-03
            1407     5.12856E-03     58.5017E-03    -60.1947E+06    -142.556E+06    -24.4441E+06     1.81009E+03    -51.8599E-03     103.605E-03    -51.7452E-03     41.7147E-03    -51.9594E-03     103.056E-03    -51.5735E-03     41.5089E-03
            1408     4.27373E-03     58.4627E-03    -66.3109E+06    -156.242E+06    -34.9382E+06    -9.69617E+03    -51.7867E-03     103.524E-03    -51.7375E-03     36.0204E-03    -51.8684E-03     102.917E-03    -51.5895E-03     35.8555E-03
            1409     3.41893E-03     58.4298E-03    -72.5267E+06    -167.175E+06    -47.8741E+06    -11.0577E+03    -51.7191E-03     103.433E-03    -51.7139E-03     29.7222E-03    -51.7870E-03     102.789E-03    -51.6057E-03     29.5953E-03
            1410     2.56415E-03     58.4034E-03    -78.3203E+06    -177.791E+06    -62.0095E+06    -14.0230E+03    -51.6719E-03     103.354E-03    -51.6824E-03     22.9079E-03    -51.7252E-03     102.678E-03    -51.6211E-03     22.8157E-03
            1411     1.70941E-03     58.3840E-03       -83.1E+06    -186.908E+06    -74.8138E+06    -12.9227E+03    -51.6430E-03     103.295E-03    -51.6515E-03     15.7329E-03    -51.6833E-03     102.593E-03    -51.6341E-03     15.6725E-03
            1412     854.696E-06     58.3720E-03    -86.3409E+06    -193.128E+06    -84.0027E+06     6.00997E+03    -51.6576E-03     103.257E-03    -51.5997E-03     8.65363E-03    -51.6888E-03     102.540E-03    -51.6145E-03     8.62164E-03
            1413     16.2434E-03     58.0456E-03    -4.14519E+06     114.152E+06     74.9449E+06    -20.9492E+03    -50.7889E-03     102.394E-03    -51.6051E-03     6.79430E-03    -51.1333E-03     102.912E-03    -51.3899E-03     6.45530E-03
            1414     15.3883E-03     58.0313E-03    -8.15597E+06     109.103E+06     61.1155E+06    -31.3611E+03    -50.8715E-03     102.436E-03    -51.5644E-03     20.6746E-03    -51.2482E-03     102.994E-03    -51.4052E-03     20.2545E-03
            1415     14.5331E-03     58.0049E-03    -12.0188E+06     99.4191E+06     53.7288E+06    -16.6668E+03    -51.0097E-03     102.573E-03    -51.5634E-03     31.4015E-03    -51.4048E-03     103.123E-03    -51.4215E-03     30.9710E-03
            1416     13.6780E-03     57.9692E-03    -15.8357E+06     64.3295E+06     44.8938E+06     23.2886E+03    -51.2504E-03     102.842E-03    -51.5918E-03     39.6717E-03    -51.6246E-03     103.258E-03    -51.4376E-03     39.2212E-03
            1417     12.8230E-03     57.9263E-03    -19.5355E+06     21.4843E+06     35.1250E+06     57.1716E+03    -51.5296E-03     103.154E-03    -51.6240E-03     46.4258E-03    -51.8633E-03     103.392E-03    -51.4512E-03     45.9628E-03
            1418     11.9680E-03     57.8771E-03    -23.2740E+06     537.839E+03     30.8551E+06     75.4592E+03    -51.7058E-03     103.356E-03    -51.6503E-03     51.8466E-03    -52.0314E-03     103.512E-03    -51.4631E-03     51.3790E-03
            1419     11.1130E-03     57.8232E-03    -27.1577E+06    -21.8263E+06     23.9818E+06     83.0197E+03    -51.8646E-03     103.530E-03    -51.6657E-03     55.4623E-03    -52.1677E-03     103.590E-03    -51.4747E-03     54.9998E-03
            1420     10.2580E-03     57.7667E-03     -31.168E+06    -42.1774E+06     18.0707E+06      81.782E+03    -51.9721E-03     103.655E-03    -51.6828E-03     57.3006E-03    -52.2481E-03     103.618E-03    -51.4861E-03     56.8552E-03
            1421     9.40307E-03     57.7092E-03    -35.3431E+06    -60.0098E+06     11.5179E+06     74.6528E+03    -52.0306E-03     103.724E-03    -51.6936E-03     57.5506E-03    -52.2757E-03     103.597E-03    -51.4977E-03     57.1338E-03
            1422     8.54815E-03     57.6521E-03    -39.6929E+06    -78.8206E+06     4.90873E+06     58.3878E+03    -52.0536E-03     103.760E-03    -51.7060E-03     56.4290E-03    -52.2631E-03     103.534E-03    -51.5096E-03     56.0490E-03
            1423     7.69324E-03     57.5967E-03    -44.2813E+06    -95.4551E+06    -1.72578E+06     37.1526E+03    -52.0364E-03     103.752E-03    -51.7159E-03     54.1588E-03    -52.2133E-03     103.438E-03    -51.5219E-03     53.8210E-03
            1424     6.83834E-03     57.5441E-03    -49.1905E+06    -111.620E+06    -8.56375E+06     19.6404E+03    -51.9909E-03     103.716E-03    -51.7254E-03     50.8660E-03    -52.1381E-03     103.318E-03    -51.5351E-03     50.5726E-03
            1425     5.98347E-03     57.4953E-03    -54.4805E+06    -126.953E+06    -16.0066E+06     4.76319E+03    -51.9254E-03     103.658E-03    -51.7322E-03     46.6782E-03    -52.0472E-03     103.182E-03    -51.5492E-03     46.4293E-03
            1426     5.12861E-03     57.4510E-03    -60.2013E+06    -142.544E+06    -24.4509E+06    -5.60418E+03    -51.8531E-03     103.589E-03    -51.7359E-03     41.6882E-03    -51.9525E-03     103.040E-03    -51.5642E-03     41.4825E-03
            1427     4.27377E-03     57.4121E-03    -66.3143E+06    -156.236E+06    -34.9386E+06    -9.31816E+03    -51.7787E-03     103.506E-03    -51.7277E-03     35.9974E-03    -51.8604E-03     102.899E-03    -51.5797E-03     35.8325E-03
            1428     3.41896E-03     57.3791E-03    -72.5336E+06    -167.173E+06    -47.8833E+06    -16.1794E+03    -51.7101E-03     103.414E-03    -51.7036E-03     29.7033E-03    -51.7779E-03     102.769E-03    -51.5955E-03     29.5764E-03
            1429     2.56418E-03     57.3528E-03    -78.3269E+06    -177.798E+06    -62.0295E+06    -18.5436E+03    -51.6619E-03     103.334E-03    -51.6718E-03     22.8933E-03    -51.7153E-03     102.658E-03    -51.6106E-03     22.8011E-03
            1430     1.70943E-03     57.3334E-03    -83.1229E+06    -186.920E+06    -74.8211E+06    -18.0839E+03    -51.6326E-03     103.273E-03    -51.6408E-03     15.7230E-03    -51.6730E-03     102.572E-03    -51.6233E-03     15.6626E-03
            1431     854.709E-06     57.3213E-03    -86.3709E+06    -193.156E+06    -84.0138E+06    -8.13166E+03    -51.6466E-03     103.235E-03    -51.5889E-03     8.64842E-03    -51.6780E-03     102.518E-03    -51.6036E-03     8.61627E-03
            1432     16.2434E-03     56.9945E-03    -4.15080E+06     114.171E+06     74.9497E+06    -21.2228E+03    -50.8006E-03     102.405E-03    -51.6045E-03     6.78057E-03    -51.1451E-03     102.923E-03    -51.3893E-03     6.44152E-03
            1433     15.3883E-03     56.9803E-03    -8.15554E+06     109.104E+06     61.1044E+06    -30.1866E+03    -50.8830E-03     102.446E-03    -51.5630E-03     20.6524E-03    -51.2597E-03     103.004E-03    -51.4039E-03     20.2323E-03
            1434     14.5332E-03     56.9539E-03    -12.0074E+06     99.3861E+06     53.7094E+06    -22.2931E+03    -51.0203E-03     102.582E-03    -51.5613E-03     31.3719E-03    -51.4152E-03     103.131E-03    -51.4195E-03     30.9413E-03
            1435     13.6780E-03     56.9183E-03    -15.8366E+06     64.2803E+06     44.8665E+06     6.27715E+03    -51.2598E-03     102.849E-03    -51.5889E-03     39.6384E-03    -51.6337E-03     103.265E-03    -51.4348E-03     39.1877E-03
            1436     12.8230E-03     56.8753E-03    -19.5489E+06     21.4620E+06     35.0999E+06     37.2057E+03    -51.5376E-03     103.158E-03    -51.6203E-03     46.3903E-03    -51.8711E-03     103.396E-03    -51.4476E-03     45.9271E-03
            1437     11.9680E-03     56.8261E-03    -23.2906E+06     527.126E+03     30.8316E+06     54.1584E+03    -51.7121E-03     103.358E-03    -51.6458E-03     51.8088E-03    -52.0376E-03     103.513E-03    -51.4586E-03     51.3411E-03
            1438     11.1130E-03     56.7723E-03    -27.1794E+06    -21.8245E+06     23.9596E+06     65.1279E+03    -51.8692E-03     103.529E-03    -51.6603E-03     55.4220E-03    -52.1722E-03     103.589E-03    -51.4694E-03     54.9594E-03
            1439     10.2581E-03     56.7159E-03    -31.1848E+06    -42.1656E+06     18.0526E+06     68.2521E+03    -51.9748E-03     103.651E-03    -51.6766E-03     57.2587E-03    -52.2508E-03     103.615E-03    -51.4800E-03     56.8133E-03
            1440     9.40314E-03     56.6583E-03    -35.3541E+06    -59.9867E+06     11.5040E+06     60.7418E+03    -52.0313E-03     103.718E-03    -51.6865E-03     57.5083E-03    -52.2763E-03     103.591E-03    -51.4907E-03     57.0914E-03
            1441     8.54821E-03     56.6013E-03    -39.7077E+06    -78.7918E+06     4.89484E+06     47.7038E+03    -52.0523E-03     103.750E-03    -51.6981E-03     56.3881E-03    -52.2617E-03     103.525E-03    -51.5018E-03     56.0081E-03
            1442     7.69330E-03     56.5460E-03    -44.3020E+06    -95.4295E+06    -1.74281E+06     35.8198E+03    -52.0335E-03     103.741E-03    -51.7073E-03     54.1202E-03    -52.2104E-03     103.427E-03    -51.5134E-03     53.7825E-03
            1443     6.83841E-03     56.4934E-03    -49.2036E+06    -111.595E+06    -8.57873E+06     20.9631E+03    -51.9866E-03     103.703E-03    -51.7161E-03     50.8296E-03    -52.1338E-03     103.304E-03    -51.5258E-03     50.5363E-03
            1444     5.98352E-03     56.4446E-03    -54.4888E+06    -126.930E+06    -16.0273E+06     1.44146E+03    -51.9194E-03     103.642E-03    -51.7221E-03     46.6450E-03    -52.0412E-03     103.166E-03    -51.5392E-03     46.3962E-03
            1445     5.12866E-03     56.4003E-03    -60.2145E+06    -142.536E+06    -24.4679E+06    -14.2091E+03    -51.8453E-03     103.570E-03    -51.7252E-03     41.6587E-03    -51.9447E-03     103.021E-03    -51.5535E-03     41.4529E-03
            1446     4.27382E-03     56.3614E-03    -66.3227E+06    -156.241E+06    -34.9544E+06    -17.9016E+03    -51.7694E-03     103.486E-03    -51.7164E-03     35.9715E-03    -51.8511E-03     102.879E-03    -51.5685E-03     35.8067E-03
            1447     3.41900E-03     56.3285E-03    -72.5323E+06    -167.169E+06    -47.8827E+06    -17.8304E+03    -51.6996E-03     103.392E-03    -51.6920E-03     29.6819E-03    -51.7675E-03     102.747E-03    -51.5838E-03     29.5550E-03
            1448     2.56421E-03     56.3021E-03    -78.3414E+06    -177.804E+06    -62.0186E+06    -19.3824E+03    -51.6507E-03     103.311E-03    -51.6599E-03     22.8767E-03    -51.7042E-03     102.635E-03    -51.5986E-03     22.7847E-03
            1449     1.70945E-03     56.2828E-03    -83.1436E+06    -186.942E+06    -74.8414E+06    -7.77784E+03    -51.6206E-03     103.249E-03    -51.6285E-03     15.7120E-03    -51.6610E-03     102.548E-03    -51.6111E-03     15.6517E-03
            1450     854.716E-06     56.2707E-03    -86.3997E+06     -193.18E+06    -84.0398E+06    -21.0831E+03    -51.6342E-03     103.211E-03    -51.5763E-03     8.64285E-03    -51.6657E-03     102.493E-03    -51.5912E-03     8.61055E-03
            1451     16.2435E-03     55.9435E-03    -4.14951E+06     114.195E+06     74.9582E+06    -19.7971E+03    -50.8143E-03     102.418E-03    -51.6038E-03     6.76455E-03    -51.1588E-03     102.936E-03    -51.3886E-03     6.42547E-03
            1452     15.3883E-03     55.9293E-03    -8.15682E+06     109.106E+06     61.0979E+06    -34.5974E+03    -50.8960E-03     102.457E-03    -51.5615E-03     20.6274E-03    -51.2726E-03     103.015E-03    -51.4024E-03     20.2072E-03
            1453     14.5332E-03     55.9029E-03    -12.0166E+06     99.3573E+06     53.6869E+06    -23.8959E+03    -51.0322E-03     102.591E-03    -51.5589E-03     31.3393E-03    -51.4270E-03     103.140E-03    -51.4171E-03     30.9086E-03
            1454     13.6781E-03     55.8673E-03    -15.8434E+06     64.2472E+06     44.8427E+06        -628.280    -51.2702E-03     102.856E-03    -51.5856E-03     39.6024E-03    -51.6439E-03     103.271E-03    -51.4316E-03     39.1516E-03
            1455     12.8231E-03     55.8244E-03    -19.5525E+06     21.4356E+06     35.0768E+06     22.1173E+03    -51.5463E-03     103.162E-03    -51.6161E-03     46.3520E-03    -51.8796E-03     103.401E-03    -51.4434E-03     45.8887E-03
            1456     11.9681E-03     55.7752E-03    -23.2999E+06     516.175E+03     30.8109E+06     42.3118E+03    -51.7192E-03     103.360E-03    -51.6407E-03     51.7680E-03    -52.0445E-03     103.515E-03    -51.4536E-03     51.3002E-03
            1457     11.1131E-03     55.7215E-03    -27.1901E+06    -21.8232E+06     23.9408E+06     48.4176E+03    -51.8745E-03     103.529E-03    -51.6542E-03     55.3788E-03    -52.1774E-03     103.588E-03    -51.4634E-03     54.9161E-03
            1458     10.2582E-03     55.6650E-03    -31.1951E+06    -42.1595E+06     18.0334E+06     49.1528E+03    -51.9782E-03     103.648E-03    -51.6695E-03     57.2138E-03    -52.2540E-03     103.611E-03    -51.4730E-03     56.7683E-03
            1459     9.40321E-03     55.6075E-03    -35.3659E+06    -59.9696E+06     11.4864E+06     48.5942E+03    -52.0322E-03     103.711E-03    -51.6785E-03     57.4628E-03    -52.2771E-03     103.584E-03    -51.4828E-03     57.0460E-03
            1460     8.54829E-03     55.5505E-03    -39.7217E+06    -78.7721E+06     4.87772E+06     43.2360E+03    -52.0509E-03     103.740E-03    -51.6892E-03     56.3437E-03    -52.2603E-03     103.515E-03    -51.4930E-03     55.9639E-03
            1461     7.69338E-03     55.4952E-03    -44.3126E+06    -95.4080E+06    -1.75993E+06     32.1531E+03    -52.0302E-03     103.728E-03    -51.6975E-03     54.0780E-03    -52.2071E-03     103.414E-03    -51.5037E-03     53.7405E-03
            1462     6.83848E-03     55.4427E-03    -49.2147E+06    -111.572E+06    -8.59587E+06     18.2155E+03    -51.9818E-03     103.687E-03    -51.7054E-03     50.7895E-03    -52.1290E-03     103.289E-03    -51.5152E-03     50.4964E-03
            1463     5.98359E-03     55.3939E-03    -54.5013E+06    -126.903E+06    -16.0464E+06         840.300    -51.9127E-03     103.623E-03    -51.7106E-03     46.6079E-03    -52.0345E-03     103.148E-03    -51.5278E-03     46.3593E-03
            1464     5.12872E-03     55.3497E-03    -60.2253E+06    -142.521E+06    -24.4918E+06    -18.6358E+03    -51.8365E-03     103.549E-03    -51.7129E-03     41.6258E-03    -51.9360E-03     103.000E-03    -51.5414E-03     41.4202E-03
            1465     4.27387E-03     55.3108E-03    -66.3406E+06    -156.250E+06    -34.9645E+06    -26.3814E+03    -51.7589E-03     103.463E-03    -51.7036E-03     35.9430E-03    -51.8406E-03     102.855E-03    -51.5557E-03     35.7782E-03
            1466     3.41905E-03     55.2779E-03    -72.5605E+06    -167.178E+06    -47.9048E+06    -20.7290E+03    -51.6877E-03     103.366E-03    -51.6787E-03     29.6581E-03    -51.7556E-03     102.722E-03    -51.5706E-03     29.5313E-03
            1467     2.56425E-03     55.2515E-03    -78.3639E+06    -177.811E+06    -62.0430E+06    -13.7903E+03    -51.6378E-03     103.284E-03    -51.6462E-03     22.8582E-03    -51.6913E-03     102.608E-03    -51.5849E-03     22.7663E-03
            1468     1.70948E-03     55.2322E-03    -83.1644E+06    -186.961E+06    -74.8553E+06    -10.0109E+03    -51.6070E-03     103.221E-03    -51.6145E-03     15.6993E-03    -51.6475E-03     102.520E-03    -51.5971E-03     15.6391E-03
            1469     854.732E-06     55.2202E-03    -86.4057E+06    -193.194E+06    -84.0837E+06     7.39624E+03    -51.6201E-03     103.182E-03    -51.5621E-03     8.63587E-03    -51.6515E-03     102.465E-03    -51.5771E-03     8.60397E-03
            1470     16.2435E-03     54.8924E-03    -4.15107E+06     114.218E+06     74.9660E+06    -16.3494E+03    -50.8303E-03     102.433E-03    -51.6029E-03     6.74689E-03    -51.1748E-03     102.951E-03    -51.3877E-03     6.40779E-03
            1471     15.3883E-03     54.8782E-03    -8.16668E+06     109.113E+06     61.0903E+06    -28.0699E+03    -50.9104E-03     102.470E-03    -51.5597E-03     20.6006E-03    -51.2870E-03     103.028E-03    -51.4006E-03     20.1804E-03
            1472     14.5332E-03     54.8519E-03    -12.0240E+06     99.3348E+06     53.6656E+06    -28.9529E+03    -51.0453E-03     102.601E-03    -51.5561E-03     31.3041E-03    -51.4399E-03     103.150E-03    -51.4144E-03     30.8734E-03
            1473     13.6781E-03     54.8163E-03    -15.8468E+06     64.2169E+06     44.8208E+06    -8.73533E+03    -51.2817E-03     102.864E-03    -51.5819E-03     39.5630E-03    -51.6553E-03     103.279E-03    -51.4279E-03     39.1122E-03
            1474     12.8231E-03     54.7734E-03    -19.5643E+06     21.4118E+06     35.0518E+06     17.2933E+03    -51.5560E-03     103.167E-03    -51.6113E-03     46.3097E-03    -51.8892E-03     103.405E-03    -51.4387E-03     45.8463E-03
            1475     11.9681E-03     54.7243E-03    -23.3115E+06     508.072E+03     30.7890E+06     28.7237E+03    -51.7271E-03     103.362E-03    -51.6348E-03     51.7230E-03    -52.0523E-03     103.517E-03    -51.4478E-03     51.2551E-03
            1476     11.1132E-03     54.6706E-03    -27.1990E+06    -21.8202E+06     23.9211E+06     33.8230E+03    -51.8805E-03     103.528E-03    -51.6473E-03     55.3305E-03    -52.1832E-03     103.587E-03    -51.4566E-03     54.8678E-03
            1477     10.2582E-03     54.6142E-03    -31.2084E+06    -42.1553E+06     18.0120E+06     35.1120E+03    -51.9816E-03     103.643E-03    -51.6616E-03     57.1636E-03    -52.2573E-03     103.606E-03    -51.4651E-03     56.7181E-03
            1478     9.40330E-03     54.5567E-03    -35.3807E+06    -59.9638E+06     11.4640E+06     36.3893E+03    -52.0332E-03     103.703E-03    -51.6695E-03     57.4127E-03    -52.2780E-03     103.576E-03    -51.4739E-03     56.9960E-03
            1479     8.54838E-03     54.4998E-03    -39.7304E+06    -78.7583E+06     4.85861E+06     35.4823E+03    -52.0498E-03     103.729E-03    -51.6791E-03     56.2955E-03    -52.2591E-03     103.504E-03    -51.4830E-03     55.9157E-03
            1480     7.69346E-03     54.4445E-03    -44.3205E+06    -95.3897E+06    -1.77787E+06     29.5194E+03    -52.0270E-03     103.713E-03    -51.6864E-03     54.0323E-03    -52.2038E-03     103.399E-03    -51.4928E-03     53.6950E-03
            1481     6.83856E-03     54.3920E-03    -49.2227E+06    -111.550E+06    -8.61436E+06     18.2443E+03    -51.9763E-03     103.670E-03    -51.6934E-03     50.7461E-03    -52.1234E-03     103.271E-03    -51.5033E-03     50.4532E-03
            1482     5.98367E-03     54.3432E-03    -54.5083E+06    -126.878E+06    -16.0630E+06     1.22023E+03    -51.9050E-03     103.603E-03    -51.6977E-03     46.5676E-03    -52.0268E-03     103.127E-03    -51.5150E-03     46.3191E-03
            1483     5.12879E-03     54.2990E-03    -60.2358E+06    -142.502E+06    -24.5127E+06    -17.0959E+03    -51.8268E-03     103.526E-03    -51.6991E-03     41.5899E-03    -51.9262E-03     102.977E-03    -51.5277E-03     41.3845E-03
            1484     4.27394E-03     54.2602E-03    -66.3551E+06    -156.257E+06    -34.9614E+06    -27.4958E+03    -51.7472E-03     103.436E-03    -51.6893E-03     35.9123E-03    -51.8290E-03     102.829E-03    -51.5413E-03     35.7476E-03
            1485     3.41910E-03     54.2273E-03    -72.5833E+06    -167.194E+06    -47.8793E+06    -25.4128E+03    -51.6745E-03     103.338E-03    -51.6638E-03     29.6327E-03    -51.7425E-03     102.694E-03    -51.5555E-03     29.5060E-03
            1486     2.56429E-03     54.2010E-03    -78.3859E+06    -177.828E+06    -62.0562E+06    -14.4866E+03    -51.6233E-03     103.254E-03    -51.6306E-03     22.8382E-03    -51.6768E-03     102.578E-03    -51.5694E-03     22.7464E-03
            1487     1.70950E-03     54.1816E-03    -83.1731E+06    -186.969E+06    -74.8747E+06    -10.8424E+03    -51.5916E-03     103.190E-03    -51.5984E-03     15.6853E-03    -51.6321E-03     102.489E-03    -51.5811E-03     15.6251E-03
            1488     854.743E-06     54.1696E-03    -86.4642E+06    -193.210E+06    -84.0596E+06     3.95463E+03    -51.6040E-03     103.150E-03    -51.5457E-03     8.62819E-03    -51.6357E-03     102.432E-03    -51.5605E-03     8.59628E-03
            1489     16.2435E-03     53.8413E-03    -4.15039E+06     114.235E+06     74.9780E+06    -13.1352E+03    -50.8484E-03     102.450E-03    -51.6020E-03     6.72748E-03    -51.1929E-03     102.968E-03    -51.3867E-03     6.38834E-03
            1490     15.3884E-03     53.8272E-03    -8.15098E+06     109.127E+06     61.0901E+06    -29.3466E+03    -50.9271E-03     102.485E-03    -51.5576E-03     20.5713E-03    -51.3035E-03     103.042E-03    -51.3986E-03     20.1511E-03
            1491     14.5333E-03     53.8009E-03    -12.0109E+06     99.3094E+06     53.6499E+06    -21.8422E+03    -51.0603E-03     102.613E-03    -51.5530E-03     31.2656E-03    -51.4547E-03     103.162E-03    -51.4113E-03     30.8350E-03
            1492     13.6782E-03     53.7653E-03    -15.8617E+06     64.1892E+06     44.7939E+06     3.76261E+03    -51.2947E-03     102.872E-03    -51.5776E-03     39.5195E-03    -51.6681E-03     103.287E-03    -51.4237E-03     39.0689E-03
            1493     12.8232E-03     53.7225E-03    -19.5856E+06     21.4065E+06     35.0267E+06     10.5229E+03    -51.5671E-03     103.173E-03    -51.6059E-03     46.2634E-03    -51.9001E-03     103.411E-03    -51.4334E-03     45.8000E-03
            1494     11.9682E-03     53.6734E-03    -23.3296E+06     499.952E+03     30.7623E+06     13.5053E+03    -51.7363E-03     103.365E-03    -51.6282E-03     51.6734E-03    -52.0614E-03     103.519E-03    -51.4413E-03     51.2055E-03
            1495     11.1133E-03     53.6197E-03    -27.2185E+06    -21.8208E+06     23.8958E+06     20.4191E+03    -51.8869E-03     103.526E-03    -51.6395E-03     55.2768E-03    -52.1895E-03     103.586E-03    -51.4489E-03     54.8140E-03
            1496     10.2583E-03     53.5633E-03    -31.2271E+06    -42.1535E+06     17.9869E+06     24.6608E+03    -51.9849E-03     103.638E-03    -51.6526E-03     57.1078E-03    -52.2605E-03     103.600E-03    -51.4562E-03     56.6624E-03
            1497     9.40339E-03     53.5059E-03     -35.401E+06    -59.9591E+06     11.4376E+06     25.2243E+03    -52.0340E-03     103.693E-03    -51.6593E-03     57.3574E-03    -52.2787E-03     103.566E-03    -51.4638E-03     56.9407E-03
            1498     8.54847E-03     53.4490E-03     -39.755E+06    -78.7529E+06     4.82972E+06     25.3481E+03    -52.0484E-03     103.716E-03    -51.6678E-03     56.2421E-03    -52.2576E-03     103.491E-03    -51.4718E-03     55.8625E-03
            1499     7.69356E-03     53.3938E-03    -44.3420E+06    -95.3776E+06    -1.80446E+06     24.8092E+03    -52.0230E-03     103.697E-03    -51.6740E-03     53.9820E-03    -52.1997E-03     103.383E-03    -51.4804E-03     53.6448E-03
            1500     6.83865E-03     53.3413E-03    -49.2405E+06    -111.529E+06    -8.63830E+06     16.5992E+03    -51.9696E-03     103.649E-03    -51.6799E-03     50.6988E-03    -52.1167E-03     103.251E-03    -51.4899E-03     50.4061E-03
            1501     5.98376E-03     53.2926E-03    -54.5250E+06    -126.855E+06    -16.0888E+06     2.40620E+03    -51.8960E-03     103.579E-03    -51.6832E-03     46.5240E-03    -52.0178E-03     103.104E-03    -51.5006E-03     46.2757E-03
            1502     5.12887E-03     53.2484E-03    -60.2479E+06    -142.483E+06    -24.5385E+06    -14.1070E+03    -51.8159E-03     103.500E-03    -51.6838E-03     41.5509E-03    -51.9153E-03     102.950E-03    -51.5125E-03     41.3457E-03
            1503     4.27401E-03     53.2096E-03    -66.3645E+06    -156.253E+06    -34.9577E+06    -30.0538E+03    -51.7343E-03     103.408E-03    -51.6733E-03     35.8787E-03    -51.8161E-03     102.800E-03    -51.5253E-03     35.7141E-03
            1504     3.41916E-03     53.1767E-03    -72.5913E+06    -167.218E+06    -47.8651E+06    -30.8782E+03    -51.6598E-03     103.307E-03    -51.6471E-03     29.6049E-03    -51.7279E-03     102.663E-03    -51.5388E-03     29.4782E-03
            1505     2.56433E-03     53.1504E-03    -78.4027E+06    -177.846E+06    -62.0448E+06    -21.3490E+03    -51.6073E-03     103.221E-03    -51.6133E-03     22.8167E-03    -51.6609E-03     102.544E-03    -51.5520E-03     22.7249E-03
            1506     1.70953E-03     53.1311E-03    -83.2166E+06    -186.975E+06    -74.8891E+06    -10.0318E+03    -51.5743E-03     103.155E-03    -51.5805E-03     15.6707E-03    -51.6149E-03     102.453E-03    -51.5632E-03     15.6106E-03
            1507     854.762E-06     53.1191E-03    -86.4532E+06    -193.229E+06    -84.1244E+06    -17.4053E+03    -51.5859E-03     103.113E-03    -51.5275E-03     8.62023E-03    -51.6173E-03     102.396E-03    -51.5426E-03     8.58808E-03
            1508     16.2435E-03     52.7902E-03    -4.14501E+06     114.258E+06     74.9927E+06    -18.6142E+03    -50.8689E-03     102.470E-03    -51.6009E-03     6.70532E-03    -51.2133E-03     102.988E-03    -51.3856E-03     6.36602E-03
            1509     15.3884E-03     52.7761E-03    -8.16890E+06     109.112E+06     61.0733E+06    -11.5989E+03    -50.9461E-03     102.501E-03    -51.5553E-03     20.5382E-03    -51.3225E-03     103.059E-03    -51.3963E-03     20.1182E-03
            1510     14.5333E-03     52.7498E-03    -12.0640E+06     99.2876E+06     53.6090E+06     10.4111E+03    -51.0770E-03     102.626E-03    -51.5494E-03     31.2230E-03    -51.4714E-03     103.175E-03    -51.4078E-03     30.7929E-03
            1511     13.6783E-03     52.7143E-03    -15.8979E+06     64.1970E+06     44.7699E+06     1.57013E+03    -51.3094E-03     102.882E-03    -51.5728E-03     39.4728E-03    -51.6828E-03     103.297E-03    -51.4190E-03     39.0222E-03
            1512     12.8233E-03     52.6715E-03    -19.5976E+06     21.4011E+06     35.0050E+06    -2.87206E+03    -51.5803E-03     103.180E-03    -51.5998E-03     46.2129E-03    -51.9131E-03     103.418E-03    -51.4274E-03     45.7495E-03
            1513     11.9683E-03     52.6224E-03    -23.3406E+06     496.435E+03     30.7400E+06     3.34326E+03    -51.7466E-03     103.367E-03    -51.6207E-03     51.6185E-03    -52.0715E-03     103.522E-03    -51.4339E-03     51.1506E-03
            1514     11.1134E-03     52.5688E-03    -27.2313E+06    -21.8266E+06     23.8713E+06     8.11808E+03    -51.8938E-03     103.524E-03    -51.6306E-03     55.2179E-03    -52.1962E-03     103.583E-03    -51.4401E-03     54.7552E-03
            1515     10.2584E-03     52.5125E-03    -31.2403E+06    -42.1555E+06     17.9626E+06     15.1226E+03    -51.9889E-03     103.631E-03    -51.6424E-03     57.0467E-03    -52.2643E-03     103.594E-03    -51.4462E-03     56.6014E-03
            1516     9.40350E-03     52.4551E-03    -35.4153E+06    -59.9565E+06     11.4132E+06     19.8245E+03    -52.0350E-03     103.683E-03    -51.6478E-03     57.2963E-03    -52.2796E-03     103.556E-03    -51.4525E-03     56.8798E-03
            1517     8.54858E-03     52.3982E-03    -39.7723E+06    -78.7491E+06     4.80412E+06     21.5021E+03    -52.0462E-03     103.701E-03    -51.6551E-03     56.1830E-03    -52.2553E-03     103.476E-03    -51.4592E-03     55.8036E-03
            1518     7.69366E-03     52.3431E-03    -44.3639E+06    -95.3671E+06    -1.83178E+06     17.4286E+03    -52.0178E-03     103.678E-03    -51.6601E-03     53.9263E-03    -52.1945E-03     103.364E-03    -51.4666E-03     53.5893E-03
            1519     6.83875E-03     52.2906E-03    -49.2596E+06    -111.514E+06    -8.66555E+06     11.4128E+03    -51.9617E-03     103.627E-03    -51.6648E-03     50.6466E-03    -52.1088E-03     103.228E-03    -51.4750E-03     50.3541E-03
            1520     5.98385E-03     52.2419E-03    -54.5381E+06    -126.835E+06    -16.1137E+06     1.67830E+03    -51.8858E-03     103.553E-03    -51.6671E-03     46.4758E-03    -52.0075E-03     103.077E-03    -51.4847E-03     46.2278E-03
            1521     5.12896E-03     52.1978E-03    -60.2560E+06    -142.461E+06    -24.5586E+06    -16.2080E+03    -51.8035E-03     103.470E-03    -51.6668E-03     41.5079E-03    -51.9029E-03     102.921E-03    -51.4956E-03     41.3028E-03
            1522     4.27408E-03     52.1590E-03    -66.3714E+06    -156.249E+06    -34.9641E+06    -30.2199E+03    -51.7200E-03     103.375E-03    -51.6555E-03     35.8417E-03    -51.8017E-03     102.768E-03    -51.5075E-03     35.6773E-03
            1523     3.41922E-03     52.1262E-03    -72.6054E+06    -167.236E+06    -47.8798E+06    -32.8534E+03    -51.6435E-03     103.272E-03    -51.6286E-03     29.5746E-03    -51.7115E-03     102.628E-03    -51.5203E-03     29.4481E-03
            1524     2.56438E-03     52.0999E-03    -78.4285E+06    -177.871E+06    -62.0773E+06    -25.6757E+03    -51.5892E-03     103.183E-03    -51.5942E-03     22.7939E-03    -51.6428E-03     102.507E-03    -51.5330E-03     22.7021E-03
            1525     1.70957E-03     52.0806E-03    -83.2288E+06    -186.993E+06    -74.9030E+06    -16.5403E+03    -51.5551E-03     103.116E-03    -51.5612E-03     15.6556E-03    -51.5958E-03     102.415E-03    -51.5439E-03     15.5955E-03
            1526     854.775E-06     52.0686E-03    -86.4682E+06    -193.244E+06    -84.1195E+06    -11.8219E+03    -51.5665E-03     103.075E-03    -51.5081E-03     8.61199E-03    -51.5980E-03     102.357E-03    -51.5232E-03     8.57996E-03
            1527     16.2435E-03     51.7391E-03    -4.18263E+06     114.234E+06     74.9911E+06     19.7284E+03    -50.8918E-03     102.492E-03    -51.5997E-03     6.68004E-03    -51.2363E-03     103.009E-03    -51.3844E-03     6.34113E-03
            1528     15.3884E-03     51.7250E-03    -8.25224E+06     109.102E+06     61.0351E+06     41.8762E+03    -50.9669E-03     102.520E-03    -51.5527E-03     20.5009E-03    -51.3435E-03     103.077E-03    -51.3938E-03     20.0815E-03
            1529     14.5334E-03     51.6988E-03    -12.1089E+06     99.3278E+06     53.5935E+06    -1.92045E+03    -51.0956E-03     102.641E-03    -51.5454E-03     31.1776E-03    -51.4901E-03     103.190E-03    -51.4039E-03     30.7473E-03
            1530     13.6783E-03     51.6633E-03    -15.9009E+06     64.2011E+06     44.7589E+06    -27.9271E+03    -51.3268E-03     102.894E-03    -51.5674E-03     39.4229E-03    -51.7000E-03     103.309E-03    -51.4137E-03     38.9720E-03
            1531     12.8234E-03     51.6205E-03    -19.5988E+06     21.3895E+06     34.9888E+06    -15.9304E+03    -51.5951E-03     103.188E-03    -51.5929E-03     46.1574E-03    -51.9277E-03     103.425E-03    -51.4205E-03     45.6939E-03
            1532     11.9684E-03     51.5715E-03    -23.3417E+06     489.767E+03     30.7226E+06    -5.69363E+03    -51.7579E-03     103.370E-03    -51.6123E-03     51.5583E-03    -52.0824E-03     103.525E-03    -51.4256E-03     51.0904E-03
            1533     11.1135E-03     51.5179E-03    -27.2349E+06    -21.8336E+06     23.8511E+06     4.14415E+03    -51.9019E-03     103.523E-03    -51.6207E-03     55.1533E-03    -52.2040E-03     103.581E-03    -51.4303E-03     54.6907E-03
            1534     10.2585E-03     51.4616E-03    -31.2510E+06    -42.1599E+06     17.9407E+06     10.6664E+03    -51.9935E-03     103.625E-03    -51.6310E-03     56.9795E-03    -52.2687E-03     103.587E-03    -51.4348E-03     56.5344E-03
            1535     9.40362E-03     51.4043E-03    -35.4300E+06    -59.9602E+06     11.3893E+06     18.0899E+03    -52.0358E-03     103.671E-03    -51.6349E-03     57.2298E-03    -52.2802E-03     103.543E-03    -51.4397E-03     56.8135E-03
            1536     8.54870E-03     51.3475E-03    -39.7878E+06    -78.7413E+06     4.78124E+06     20.5374E+03    -52.0433E-03     103.684E-03    -51.6408E-03     56.1189E-03    -52.2523E-03     103.458E-03    -51.4451E-03     55.7398E-03
            1537     7.69378E-03     51.2924E-03    -44.3783E+06    -95.3534E+06    -1.85334E+06     14.0029E+03    -52.0116E-03     103.656E-03    -51.6446E-03     53.8657E-03    -52.1882E-03     103.342E-03    -51.4512E-03     53.5289E-03
            1538     6.83887E-03     51.2400E-03    -49.2775E+06    -111.505E+06    -8.68846E+06     5.95152E+03    -51.9527E-03     103.601E-03    -51.6482E-03     50.5896E-03    -52.0997E-03     103.202E-03    -51.4585E-03     50.2972E-03
            1539     5.98396E-03     51.1914E-03    -54.5559E+06    -126.817E+06    -16.1320E+06    -4.16042E+03    -51.8739E-03     103.523E-03    -51.6494E-03     46.4233E-03    -51.9957E-03     103.048E-03    -51.4670E-03     46.1754E-03
            1540     5.12905E-03     51.1473E-03    -60.2721E+06    -142.441E+06    -24.5699E+06    -19.6400E+03    -51.7891E-03     103.437E-03    -51.6481E-03     41.4614E-03    -51.8885E-03     102.888E-03    -51.4770E-03     41.2565E-03
            1541     4.27416E-03     51.1085E-03    -66.3882E+06    -156.248E+06    -34.9661E+06    -31.6606E+03    -51.7033E-03     103.339E-03    -51.6361E-03     35.8019E-03    -51.7852E-03     102.732E-03    -51.4881E-03     35.6377E-03
            1542     3.41929E-03     51.0757E-03    -72.6259E+06    -167.252E+06    -47.8803E+06    -30.3681E+03    -51.6250E-03     103.234E-03    -51.6086E-03     29.5419E-03    -51.6931E-03     102.589E-03    -51.5002E-03     29.4156E-03
            1543     2.56443E-03     51.0495E-03    -78.4388E+06    -177.890E+06    -62.0964E+06    -28.8360E+03    -51.5693E-03     103.143E-03    -51.5736E-03     22.7692E-03    -51.6229E-03     102.467E-03    -51.5124E-03     22.6775E-03
            1544     1.70960E-03     51.0302E-03    -83.2302E+06    -187.013E+06    -74.9197E+06    -29.4841E+03    -51.5345E-03     103.075E-03    -51.5404E-03     15.6390E-03    -51.5751E-03     102.373E-03    -51.5231E-03     15.5788E-03
            1545     854.795E-06     51.0182E-03    -86.4903E+06    -193.272E+06    -84.1352E+06    -8.23766E+03    -51.5456E-03     103.033E-03    -51.4872E-03     8.60303E-03    -51.5772E-03     102.315E-03    -51.5022E-03     8.57108E-03
            1546     16.2435E-03     50.6879E-03    -4.23376E+06     114.197E+06     74.9580E+06     74.5804E+03    -50.9170E-03     102.515E-03    -51.5984E-03     6.65278E-03    -51.2616E-03     103.033E-03    -51.3830E-03     6.31446E-03
            1547     15.3885E-03     50.6739E-03    -8.21540E+06     109.178E+06     61.0621E+06     27.0526E+03    -50.9902E-03     102.540E-03    -51.5499E-03     20.4622E-03    -51.3666E-03     103.098E-03    -51.3910E-03     20.0425E-03
            1548     14.5335E-03     50.6477E-03    -12.0325E+06     99.3819E+06     53.6300E+06    -35.2610E+03    -51.1178E-03     102.659E-03    -51.5411E-03     31.1301E-03    -51.5119E-03     103.208E-03    -51.3996E-03     30.6993E-03
            1549     13.6784E-03     50.6122E-03    -15.8564E+06     64.1797E+06     44.7593E+06    -37.6697E+03    -51.3472E-03     102.909E-03    -51.5615E-03     39.3686E-03    -51.7199E-03     103.323E-03    -51.4077E-03     38.9175E-03
            1550     12.8235E-03     50.5695E-03    -19.5766E+06     21.3742E+06     34.9805E+06    -17.4114E+03    -51.6118E-03     103.197E-03    -51.5852E-03     46.0957E-03    -51.9440E-03     103.434E-03    -51.4129E-03     45.6322E-03
            1551     11.9685E-03     50.5206E-03    -23.3350E+06     475.522E+03     30.7073E+06    -1.28595E+03    -51.7708E-03     103.374E-03    -51.6029E-03     51.4912E-03    -52.0951E-03     103.528E-03    -51.4162E-03     51.0235E-03
            1552     11.1136E-03     50.4670E-03    -27.2405E+06    -21.8388E+06     23.8323E+06     9.18461E+03    -51.9110E-03     103.521E-03    -51.6096E-03     55.0816E-03    -52.2128E-03     103.579E-03    -51.4193E-03     54.6193E-03
            1553     10.2587E-03     50.4108E-03    -31.2644E+06    -42.1656E+06     17.9183E+06     17.6777E+03    -51.9983E-03     103.617E-03    -51.6182E-03     56.9052E-03    -52.2733E-03     103.579E-03    -51.4221E-03     56.4604E-03
            1554     9.40375E-03     50.3536E-03    -35.4519E+06    -59.9589E+06     11.3659E+06     20.9760E+03    -52.0364E-03     103.657E-03    -51.6206E-03     57.1560E-03    -52.2806E-03     103.530E-03    -51.4254E-03     56.7401E-03
            1555     8.54883E-03     50.2968E-03    -39.8097E+06    -78.7304E+06     4.76142E+06     16.0834E+03    -52.0398E-03     103.665E-03    -51.6250E-03     56.0476E-03    -52.2487E-03     103.439E-03    -51.4293E-03     55.6688E-03
            1556     7.69391E-03     50.2417E-03    -44.3971E+06    -95.3406E+06    -1.86654E+06     9.25540E+03    -52.0044E-03     103.632E-03    -51.6274E-03     53.7988E-03    -52.1809E-03     103.318E-03    -51.4341E-03     53.4622E-03
            1557     6.83899E-03     50.1894E-03    -49.2926E+06    -111.493E+06    -8.69375E+06     1.36614E+03    -51.9420E-03     103.572E-03    -51.6297E-03     50.5275E-03    -52.0890E-03     103.173E-03    -51.4401E-03     50.2354E-03
            1558     5.98407E-03     50.1408E-03    -54.5705E+06    -126.798E+06    -16.1356E+06    -12.6606E+03    -51.8601E-03     103.490E-03    -51.6299E-03     46.3669E-03    -51.9818E-03     103.015E-03    -51.4476E-03     46.1192E-03
            1559     5.12916E-03     50.0968E-03    -60.2849E+06    -142.429E+06    -24.5755E+06    -26.8675E+03    -51.7726E-03     103.400E-03    -51.6276E-03     41.4115E-03    -51.8721E-03     102.851E-03    -51.4566E-03     41.2068E-03
            1560     4.27425E-03     50.0580E-03    -66.4017E+06    -156.251E+06    -34.9617E+06    -31.9300E+03    -51.6848E-03     103.300E-03    -51.6149E-03     35.7586E-03    -51.7666E-03     102.693E-03    -51.4669E-03     35.5946E-03
            1561     3.41936E-03     50.0253E-03    -72.6373E+06    -167.265E+06    -47.8746E+06    -34.9572E+03    -51.6049E-03     103.192E-03    -51.5868E-03     29.5057E-03    -51.6730E-03     102.547E-03    -51.4783E-03     29.3795E-03
            1562     2.56449E-03     49.9990E-03    -78.4579E+06    -177.904E+06    -62.1073E+06    -31.1109E+03    -51.5481E-03     103.099E-03    -51.5512E-03     22.7413E-03    -51.6017E-03     102.423E-03    -51.4900E-03     22.6497E-03
            1563     1.70964E-03     49.9798E-03    -83.2757E+06    -187.041E+06    -74.9495E+06    -24.9216E+03    -51.5122E-03     103.030E-03    -51.5175E-03     15.6199E-03    -51.5530E-03     102.328E-03    -51.5002E-03     15.5598E-03
            1564     854.813E-06     49.9678E-03    -86.5383E+06    -193.311E+06    -84.1803E+06    -4.08828E+03    -51.5223E-03     102.986E-03    -51.4639E-03     8.59236E-03    -51.5540E-03     102.269E-03    -51.4790E-03     8.56052E-03
            1565     16.2436E-03     49.6368E-03    -4.05455E+06     114.214E+06     74.9321E+06     68.6061E+03    -50.9454E-03     102.542E-03    -51.5966E-03     6.62443E-03    -51.2890E-03     103.059E-03    -51.3817E-03     6.28596E-03
            1566     15.3885E-03     49.6227E-03    -8.06885E+06     109.292E+06     61.1438E+06     17.1995E+03    -51.0169E-03     102.564E-03    -51.5470E-03     20.4240E-03    -51.3927E-03     103.122E-03    -51.3881E-03     20.0041E-03
            1567     14.5335E-03     49.5966E-03    -11.9574E+06     99.3911E+06     53.6508E+06    -24.6454E+03    -51.1445E-03     102.681E-03    -51.5364E-03     31.0787E-03    -51.5381E-03     103.229E-03    -51.3950E-03     30.6479E-03
            1568     13.6785E-03     49.5612E-03    -15.8068E+06     64.1623E+06     44.7642E+06    -13.7527E+03    -51.3702E-03     102.925E-03    -51.5549E-03     39.3076E-03    -51.7424E-03     103.339E-03    -51.4012E-03     38.8568E-03
            1569     12.8236E-03     49.5185E-03    -19.5483E+06     21.3483E+06     34.9729E+06     8.66091E+03    -51.6308E-03     103.208E-03    -51.5767E-03     46.0274E-03    -51.9626E-03     103.444E-03    -51.4045E-03     45.5644E-03
            1570     11.9686E-03     49.4696E-03    -23.3267E+06     470.017E+03     30.6957E+06     24.1396E+03    -51.7859E-03     103.378E-03    -51.5925E-03     51.4174E-03    -52.1098E-03     103.532E-03    -51.4058E-03     50.9502E-03
            1571     11.1137E-03     49.4161E-03    -27.2482E+06    -21.8429E+06     23.8145E+06     30.7274E+03    -51.9213E-03     103.518E-03    -51.5972E-03     55.0023E-03    -52.2229E-03     103.577E-03    -51.4070E-03     54.5406E-03
            1572     10.2588E-03     49.3600E-03    -31.2828E+06    -42.1621E+06     17.9023E+06     32.3503E+03    -52.0036E-03     103.608E-03    -51.6040E-03     56.8223E-03    -52.2783E-03     103.570E-03    -51.4080E-03     56.3781E-03
            1573     9.40390E-03     49.3028E-03    -35.4672E+06    -59.9440E+06     11.3633E+06     23.3840E+03    -52.0365E-03     103.641E-03    -51.6046E-03     57.0743E-03    -52.2806E-03     103.514E-03    -51.4095E-03     56.6587E-03
            1574     8.54899E-03     49.2461E-03    -39.8225E+06    -78.7115E+06     4.76913E+06     8.07968E+03    -52.0353E-03     103.643E-03    -51.6075E-03     55.9698E-03    -52.2441E-03     103.417E-03    -51.4118E-03     55.5912E-03
            1575     7.69406E-03     49.1911E-03    -44.4054E+06    -95.3326E+06    -1.85701E+06    -3.38765E+03    -51.9957E-03     103.604E-03    -51.6084E-03     53.7262E-03    -52.1721E-03     103.290E-03    -51.4151E-03     53.3899E-03
            1576     6.83913E-03     49.1388E-03    -49.2929E+06    -111.479E+06    -8.68399E+06    -11.4633E+03    -51.9295E-03     103.539E-03    -51.6095E-03     50.4600E-03    -52.0764E-03     103.140E-03    -51.4198E-03     50.1681E-03
            1577     5.98420E-03     49.0903E-03    -54.5627E+06    -126.782E+06    -16.1299E+06    -23.2844E+03    -51.8446E-03     103.453E-03    -51.6085E-03     46.3048E-03    -51.9662E-03     102.978E-03    -51.4261E-03     46.0574E-03
            1578     5.12927E-03     49.0463E-03    -60.2791E+06    -142.428E+06    -24.5821E+06    -29.1486E+03    -51.7547E-03     103.360E-03    -51.6052E-03     41.3558E-03    -51.8540E-03     102.811E-03    -51.4341E-03     41.1514E-03
            1579     4.27435E-03     49.0076E-03    -66.3984E+06    -156.254E+06    -34.9694E+06    -32.2173E+03    -51.6648E-03     103.256E-03    -51.5916E-03     35.7102E-03    -51.7465E-03     102.649E-03    -51.4436E-03     35.5464E-03
            1580     3.41944E-03     48.9749E-03    -72.6449E+06    -167.276E+06    -47.8708E+06    -32.6973E+03    -51.5832E-03     103.146E-03    -51.5628E-03     29.4650E-03    -51.6513E-03     102.501E-03    -51.4542E-03     29.3390E-03
            1581     2.56455E-03     48.9487E-03    -78.4762E+06    -177.931E+06    -62.1119E+06    -21.6041E+03    -51.5249E-03     103.051E-03    -51.5264E-03     22.7095E-03    -51.5786E-03     102.375E-03    -51.4652E-03     22.6181E-03
            1582     1.70968E-03     48.9294E-03    -83.2988E+06    -187.060E+06    -74.9612E+06    -8.62336E+03    -51.4877E-03     102.980E-03    -51.4920E-03     15.5980E-03    -51.5285E-03     102.278E-03    -51.4748E-03     15.5383E-03
            1583     854.837E-06     48.9175E-03    -86.5966E+06    -193.337E+06    -84.1900E+06    -28.1737E+03    -51.4967E-03     102.935E-03    -51.4379E-03     8.58071E-03    -51.5286E-03     102.217E-03    -51.4530E-03     8.54860E-03
            1584     16.2436E-03     48.5856E-03    -4.09457E+06     114.188E+06     74.9043E+06     7.44162E+03    -50.9741E-03     102.569E-03    -51.5952E-03     6.59671E-03    -51.3178E-03     103.087E-03    -51.3804E-03     6.25736E-03
            1585     15.3886E-03     48.5716E-03    -8.05176E+06     109.344E+06     61.1463E+06     38.1784E+03    -51.0487E-03     102.593E-03    -51.5438E-03     20.3811E-03    -51.4244E-03     103.151E-03    -51.3850E-03     19.9613E-03
            1586     14.5336E-03     48.5455E-03    -11.9190E+06     99.4141E+06     53.6625E+06     21.9778E+03    -51.1736E-03     102.705E-03    -51.5313E-03     31.0196E-03    -51.5668E-03     103.253E-03    -51.3899E-03     30.5894E-03
            1587     13.6786E-03     48.5101E-03    -15.7862E+06     64.1272E+06     44.7576E+06     28.9029E+03    -51.3965E-03     102.944E-03    -51.5477E-03     39.2399E-03    -51.7683E-03     103.358E-03    -51.3940E-03     38.7896E-03
            1588     12.8237E-03     48.4675E-03    -19.5405E+06     21.3334E+06     34.9632E+06     60.5199E+03    -51.6529E-03     103.220E-03    -51.5673E-03     45.9504E-03    -51.9843E-03     103.457E-03    -51.3951E-03     45.4881E-03
            1589     11.9688E-03     48.4187E-03    -23.3345E+06     472.358E+03     30.6934E+06     69.7323E+03    -51.8025E-03     103.383E-03    -51.5809E-03     51.3334E-03    -52.1261E-03     103.537E-03    -51.3943E-03     50.8670E-03
            1590     11.1139E-03     48.3653E-03    -27.2628E+06    -21.8214E+06     23.8282E+06     59.3150E+03    -51.9322E-03     103.516E-03    -51.5836E-03     54.9141E-03    -52.2336E-03     103.574E-03    -51.3933E-03     54.4530E-03
            1591     10.2590E-03     48.3092E-03    -31.2849E+06    -42.1411E+06     17.9294E+06     35.7201E+03    -52.0087E-03     103.597E-03    -51.5884E-03     56.7324E-03    -52.2831E-03     103.559E-03    -51.3922E-03     56.2885E-03
            1592     9.40407E-03     48.2521E-03    -35.4558E+06    -59.9177E+06     11.3932E+06     15.4098E+03    -52.0362E-03     103.623E-03    -51.5871E-03     56.9872E-03    -52.2800E-03     103.496E-03    -51.3919E-03     56.5720E-03
            1593     8.54915E-03     48.1955E-03    -39.8024E+06    -78.6903E+06     4.79412E+06    -2.38739E+03    -52.0305E-03     103.619E-03    -51.5882E-03     55.8859E-03    -52.2390E-03     103.393E-03    -51.3924E-03     55.5075E-03
            1594     7.69422E-03     48.1405E-03    -44.3881E+06    -95.3236E+06    -1.84593E+06    -13.8451E+03    -51.9867E-03     103.574E-03    -51.5875E-03     53.6459E-03    -52.1628E-03     103.260E-03    -51.3941E-03     53.3099E-03
            1595     6.83929E-03     48.0883E-03    -49.2833E+06    -111.466E+06    -8.68428E+06    -24.8673E+03    -51.9164E-03     103.503E-03    -51.5870E-03     50.3840E-03    -52.0631E-03     103.105E-03    -51.3974E-03     50.0923E-03
            1596     5.98434E-03     48.0398E-03    -54.5627E+06    -126.781E+06    -16.1388E+06    -29.4280E+03    -51.8278E-03     103.412E-03    -51.5846E-03     46.2342E-03    -51.9493E-03     102.937E-03    -51.4024E-03     45.9870E-03
            1597     5.12940E-03     47.9959E-03    -60.2810E+06    -142.431E+06    -24.5932E+06    -28.4098E+03    -51.7347E-03     103.315E-03    -51.5802E-03     41.2928E-03    -51.8339E-03     102.766E-03    -51.4092E-03     41.0886E-03
            1598     4.27446E-03     47.9572E-03    -66.4021E+06    -156.261E+06    -34.9802E+06    -26.1397E+03    -51.6425E-03     103.208E-03    -51.5656E-03     35.6563E-03    -51.7242E-03     102.601E-03    -51.4177E-03     35.4928E-03
            1599     3.41954E-03     47.9245E-03    -72.6480E+06    -167.292E+06    -47.8839E+06    -21.1173E+03    -51.5591E-03     103.095E-03    -51.5360E-03     29.4204E-03    -51.6272E-03     102.450E-03    -51.4275E-03     29.2948E-03
            1600     2.56462E-03     47.8984E-03    -78.4807E+06    -177.947E+06    -62.1040E+06    -14.3947E+03    -51.4991E-03     102.998E-03    -51.4989E-03     22.6747E-03    -51.5528E-03     102.321E-03    -51.4376E-03     22.5836E-03
            1601     1.70973E-03     47.8792E-03    -83.2914E+06    -187.084E+06    -74.9623E+06    -10.6456E+03    -51.4603E-03     102.924E-03    -51.4639E-03     15.5744E-03    -51.5010E-03     102.222E-03    -51.4466E-03     15.5148E-03
            1602     854.860E-06     47.8672E-03     -86.531E+06    -193.336E+06    -84.2126E+06    -15.7243E+03    -51.4684E-03     102.878E-03    -51.4094E-03     8.56780E-03    -51.5000E-03     102.160E-03    -51.4247E-03     8.53590E-03
            1603     16.2436E-03     47.5343E-03    -4.16215E+06     114.158E+06     74.9311E+06    -22.4802E+03    -51.0029E-03     102.597E-03    -51.5937E-03     6.55451E-03    -51.3468E-03     103.114E-03    -51.3785E-03     6.21461E-03
            1604     15.3886E-03     47.5203E-03    -8.14878E+06     109.324E+06     61.1249E+06    -11.5053E+03    -51.0794E-03     102.620E-03    -51.5403E-03     20.3297E-03    -51.4554E-03     103.178E-03    -51.3814E-03     19.9092E-03
            1605     14.5337E-03     47.4943E-03    -11.9640E+06     99.3962E+06     53.6533E+06     34.5935E+03    -51.2051E-03     102.731E-03    -51.5256E-03     30.9519E-03    -51.5983E-03     103.279E-03    -51.3841E-03     30.5218E-03
            1606     13.6787E-03     47.4590E-03    -15.8031E+06     64.0827E+06     44.7609E+06     92.4693E+03    -51.4251E-03     102.965E-03    -51.5397E-03     39.1621E-03    -51.7967E-03     103.378E-03    -51.3859E-03     38.7127E-03
            1607     12.8238E-03     47.4165E-03    -19.5697E+06     21.3348E+06     34.9998E+06     118.124E+03    -51.6764E-03     103.233E-03    -51.5571E-03     45.8638E-03    -52.0077E-03     103.470E-03    -51.3846E-03     45.4023E-03
            1608     11.9689E-03     47.3677E-03    -23.3476E+06     507.511E+03     30.7428E+06     100.459E+03    -51.8195E-03     103.388E-03    -51.5683E-03     51.2442E-03    -52.1430E-03     103.541E-03    -51.3815E-03     50.7783E-03
            1609     11.1141E-03     47.3144E-03    -27.2374E+06    -21.7720E+06     23.8764E+06     59.8713E+03    -51.9432E-03     103.512E-03    -51.5687E-03     54.8214E-03    -52.2442E-03     103.570E-03    -51.3783E-03     54.3606E-03
            1610     10.2592E-03     47.2584E-03    -31.2397E+06    -42.1085E+06     17.9656E+06     29.0759E+03    -52.0143E-03     103.586E-03    -51.5713E-03     56.6368E-03    -52.2883E-03     103.547E-03    -51.3751E-03     56.1932E-03
            1611     9.40425E-03     47.2014E-03    -35.4106E+06    -59.8883E+06     11.4144E+06     6.36739E+03    -52.0374E-03     103.605E-03    -51.5679E-03     56.8920E-03    -52.2808E-03     103.477E-03    -51.3726E-03     56.4770E-03
            1612     8.54933E-03     47.1448E-03    -39.7676E+06    -78.6804E+06     4.79982E+06    -3.41100E+03    -52.0273E-03     103.594E-03    -51.5669E-03     55.7912E-03    -52.2353E-03     103.368E-03    -51.3711E-03     55.4133E-03
            1613     7.69440E-03     47.0899E-03    -44.3649E+06    -95.3083E+06    -1.84342E+06    -9.90166E+03    -51.9783E-03     103.542E-03    -51.5641E-03     53.5536E-03    -52.1541E-03     103.228E-03    -51.3708E-03     53.2180E-03
            1614     6.83946E-03     47.0378E-03    -49.2758E+06    -111.456E+06    -8.68412E+06    -19.4239E+03    -51.9026E-03     103.464E-03    -51.5619E-03     50.2968E-03    -52.0491E-03     103.066E-03    -51.3722E-03     50.0056E-03
            1615     5.98450E-03     46.9894E-03    -54.5696E+06    -126.783E+06    -16.1422E+06    -23.8965E+03    -51.8091E-03     103.367E-03    -51.5580E-03     46.1545E-03    -51.9304E-03     102.891E-03    -51.3757E-03     45.9077E-03
            1616     5.12954E-03     46.9455E-03    -60.2986E+06    -142.434E+06    -24.5968E+06    -25.2321E+03    -51.7119E-03     103.264E-03    -51.5523E-03     41.2228E-03    -51.8110E-03     102.715E-03    -51.3813E-03     41.0190E-03
            1617     4.27459E-03     46.9069E-03    -66.4200E+06    -156.275E+06    -34.9956E+06    -21.2230E+03    -51.6168E-03     103.153E-03    -51.5367E-03     35.5977E-03    -51.6984E-03     102.546E-03    -51.3888E-03     35.4346E-03
            1618     3.41964E-03     46.8742E-03    -72.6570E+06    -167.299E+06    -47.9042E+06    -16.2799E+03    -51.5316E-03     103.038E-03    -51.5062E-03     29.3726E-03    -51.5996E-03     102.393E-03    -51.3977E-03     29.2472E-03
            1619     2.56470E-03     46.8481E-03    -78.4822E+06    -177.956E+06    -62.1368E+06    -15.2377E+03    -51.4702E-03     102.939E-03    -51.4684E-03     22.6374E-03    -51.5237E-03     102.262E-03    -51.4072E-03     22.5465E-03
            1620     1.70979E-03     46.8289E-03    -83.2728E+06    -187.106E+06    -74.9703E+06    -13.9840E+03    -51.4301E-03     102.863E-03    -51.4329E-03     15.5488E-03    -51.4707E-03     102.161E-03    -51.4157E-03     15.4892E-03
            1621     854.887E-06     46.8170E-03    -86.5282E+06    -193.348E+06    -84.1732E+06     12.7433E+03    -51.4375E-03     102.816E-03    -51.3782E-03     8.55342E-03    -51.4690E-03     102.098E-03    -51.3932E-03     8.52196E-03
            1622     16.2437E-03     46.4831E-03    -4.14951E+06     114.181E+06     74.9310E+06    -20.5489E+03    -51.0385E-03     102.630E-03    -51.5913E-03     6.51794E-03    -51.3823E-03     103.147E-03    -51.3762E-03     6.17798E-03
            1623     15.3887E-03     46.4691E-03    -8.16978E+06     109.287E+06     61.0976E+06    -17.3184E+03    -51.1100E-03     102.646E-03    -51.5359E-03     20.2811E-03    -51.4858E-03     103.204E-03    -51.3770E-03     19.8605E-03
            1624     14.5338E-03     46.4431E-03    -12.0518E+06     99.3255E+06     53.6682E+06     22.6791E+03    -51.2367E-03     102.756E-03    -51.5195E-03     30.8792E-03    -51.6300E-03     103.304E-03    -51.3777E-03     30.4489E-03
            1625     13.6788E-03     46.4079E-03    -15.8515E+06     64.0233E+06     44.8013E+06     81.9383E+03    -51.4539E-03     102.985E-03    -51.5312E-03     39.0831E-03    -51.8254E-03     103.398E-03    -51.3771E-03     38.6336E-03
            1626     12.8240E-03     46.3654E-03    -19.5109E+06     21.3344E+06     35.0526E+06     129.154E+03    -51.7005E-03     103.246E-03    -51.5459E-03     45.7742E-03    -52.0312E-03     103.482E-03    -51.3733E-03     45.3130E-03
            1627     11.9691E-03     46.3167E-03    -23.2408E+06     582.535E+03     30.8124E+06     107.834E+03    -51.8382E-03     103.393E-03    -51.5546E-03     51.1480E-03    -52.1610E-03     103.546E-03    -51.3677E-03     50.6825E-03
            1628     11.1142E-03     46.2635E-03    -27.1464E+06    -21.7253E+06     23.9171E+06     68.2429E+03    -51.9564E-03     103.509E-03    -51.5525E-03     54.7180E-03    -52.2568E-03     103.566E-03    -51.3620E-03     54.2577E-03
            1629     10.2594E-03     46.2076E-03    -31.1804E+06    -42.0655E+06     17.9856E+06     40.4200E+03    -52.0223E-03     103.575E-03    -51.5525E-03     56.5283E-03    -52.2957E-03     103.536E-03    -51.3564E-03     56.0853E-03
            1630     9.40445E-03     46.1507E-03    -35.3790E+06    -59.8659E+06     11.4212E+06     20.0765E+03    -52.0405E-03     103.587E-03    -51.5467E-03     56.7847E-03    -52.2834E-03     103.459E-03    -51.3515E-03     56.3704E-03
            1631     8.54954E-03     46.0942E-03    -39.7552E+06    -78.6712E+06     4.80264E+06     12.1781E+03    -52.0253E-03     103.568E-03    -51.5432E-03     55.6857E-03    -52.2330E-03     103.342E-03    -51.3475E-03     55.3084E-03
            1632     7.69460E-03     46.0394E-03    -44.3612E+06    -95.2905E+06    -1.83598E+06     2.81503E+03    -51.9700E-03     103.508E-03    -51.5381E-03     53.4511E-03    -52.1456E-03     103.193E-03    -51.3448E-03     53.1161E-03
            1633     6.83965E-03     45.9873E-03    -49.2731E+06    -111.451E+06    -8.67392E+06    -2.80928E+03    -51.8877E-03     103.421E-03    -51.5338E-03     50.2004E-03    -52.0340E-03     103.022E-03    -51.3441E-03     49.9098E-03
            1634     5.98468E-03     45.9390E-03    -54.5691E+06    -126.772E+06    -16.1329E+06    -9.92952E+03    -51.7881E-03     103.316E-03    -51.5281E-03     46.0666E-03    -51.9093E-03     102.840E-03    -51.3458E-03     45.8205E-03
            1635     5.12971E-03     45.8951E-03    -60.2998E+06    -142.438E+06    -24.5920E+06    -17.2274E+03    -51.6861E-03     103.207E-03    -51.5210E-03     41.1458E-03    -51.7852E-03     102.658E-03    -51.3500E-03     40.9425E-03
            1636     4.27473E-03     45.8566E-03    -66.4250E+06    -156.280E+06    -34.9936E+06    -18.2279E+03    -51.5874E-03     103.092E-03    -51.5044E-03     35.5336E-03    -51.6690E-03     102.484E-03    -51.3564E-03     35.3708E-03
            1637     3.41975E-03     45.8240E-03    -72.6684E+06    -167.313E+06    -47.9158E+06    -13.8103E+03    -51.5001E-03     102.973E-03    -51.4731E-03     29.3205E-03    -51.5681E-03     102.328E-03    -51.3647E-03     29.1954E-03
            1638     2.56479E-03     45.7979E-03    -78.4822E+06    -177.961E+06    -62.1424E+06    -12.9889E+03    -51.4375E-03     102.872E-03    -51.4348E-03     22.5968E-03    -51.4910E-03     102.196E-03    -51.3737E-03     22.5061E-03
            1639     1.70984E-03     45.7788E-03    -83.3049E+06    -187.113E+06    -74.9740E+06    -12.2460E+03    -51.3967E-03     102.796E-03    -51.3989E-03     15.5208E-03    -51.4374E-03     102.094E-03    -51.3816E-03     15.4614E-03
            1640     854.918E-06     45.7668E-03    -86.5859E+06    -193.372E+06    -84.1974E+06     5.86031E+03    -51.4031E-03     102.747E-03    -51.3436E-03     8.53823E-03    -51.4350E-03     102.029E-03    -51.3587E-03     8.50674E-03
            1641     16.2437E-03     45.4318E-03    -4.15023E+06     114.189E+06     74.9211E+06    -5.92674E+03    -51.0863E-03     102.675E-03    -51.5892E-03     6.48348E-03    -51.4300E-03     103.193E-03    -51.3741E-03     6.14359E-03
            1642     15.3888E-03     45.4178E-03    -8.15834E+06     109.269E+06     60.9771E+06    -4.22473E+03    -51.1492E-03     102.680E-03    -51.5307E-03     20.2397E-03    -51.5245E-03     103.237E-03    -51.3724E-03     19.8193E-03
            1643     14.5339E-03     45.3919E-03    -11.9801E+06     99.2857E+06     53.6216E+06     8.99294E+03    -51.2705E-03     102.783E-03    -51.5121E-03     30.8128E-03    -51.6630E-03     103.330E-03    -51.3706E-03     30.3824E-03
            1644     13.6790E-03     45.3567E-03    -15.7793E+06     63.9657E+06     44.8486E+06     35.6360E+03    -51.4856E-03     103.007E-03    -51.5219E-03     38.9959E-03    -51.8564E-03     103.419E-03    -51.3675E-03     38.5458E-03
            1645     12.8241E-03     45.3144E-03    -19.4684E+06     21.2927E+06     35.0319E+06     86.9644E+03    -51.7276E-03     103.261E-03    -51.5335E-03     45.6724E-03    -52.0577E-03     103.496E-03    -51.3610E-03     45.2108E-03
            1646     11.9693E-03     45.2658E-03    -23.2097E+06     627.161E+03     30.8128E+06     126.772E+03    -51.8599E-03     103.399E-03    -51.5395E-03     51.0351E-03    -52.1822E-03     103.552E-03    -51.3526E-03     50.5701E-03
            1647     11.1144E-03     45.2126E-03    -27.1340E+06    -21.6654E+06     23.9308E+06     105.712E+03    -51.9717E-03     103.506E-03    -51.5346E-03     54.5989E-03    -52.2717E-03     103.564E-03    -51.3441E-03     54.1394E-03
            1648     10.2596E-03     45.1568E-03    -31.1798E+06    -42.0227E+06     17.9979E+06     70.9717E+03    -52.0313E-03     103.563E-03    -51.5319E-03     56.4076E-03    -52.3044E-03     103.524E-03    -51.3357E-03     55.9653E-03
            1649     9.40467E-03     45.1000E-03    -35.3832E+06    -59.8378E+06     11.4325E+06     49.9700E+03    -52.0438E-03     103.567E-03    -51.5233E-03     56.6678E-03    -52.2864E-03     103.439E-03    -51.3281E-03     56.2543E-03
            1650     8.54976E-03     45.0436E-03    -39.7588E+06    -78.6492E+06     4.80967E+06     31.3134E+03    -52.0228E-03     103.540E-03    -51.5171E-03     55.5719E-03    -52.2302E-03     103.313E-03    -51.3214E-03     55.1953E-03
            1651     7.69483E-03     44.9889E-03    -44.3627E+06    -95.2719E+06    -1.83141E+06     17.6167E+03    -51.9613E-03     103.471E-03    -51.5094E-03     53.3404E-03    -52.1367E-03     103.156E-03    -51.3161E-03     53.0061E-03
            1652     6.83987E-03     44.9369E-03    -49.2753E+06    -111.445E+06    -8.67176E+06     11.1385E+03    -51.8722E-03     103.375E-03    -51.5026E-03     50.0958E-03    -52.0183E-03     102.976E-03    -51.3130E-03     49.8059E-03
            1653     5.98488E-03     44.8886E-03    -54.5673E+06    -126.751E+06    -16.1289E+06     2.61677E+03    -51.7659E-03     103.261E-03    -51.4948E-03     45.9708E-03    -51.8870E-03     102.785E-03    -51.3126E-03     45.7253E-03
            1654     5.12989E-03     44.8449E-03    -60.2963E+06    -142.433E+06    -24.5869E+06    -9.04941E+03    -51.6583E-03     103.144E-03    -51.4861E-03     41.0611E-03    -51.7572E-03     102.595E-03    -51.3151E-03     40.8583E-03
            1655     4.27488E-03     44.8064E-03    -66.4238E+06    -156.286E+06    -34.9892E+06    -8.34118E+03    -51.5551E-03     103.023E-03    -51.4682E-03     35.4625E-03    -51.6366E-03     102.416E-03    -51.3202E-03     35.3002E-03
            1656     3.41988E-03     44.7739E-03    -72.6668E+06    -167.312E+06    -47.8988E+06    -13.4285E+03    -51.4646E-03     102.901E-03    -51.4361E-03     29.2628E-03    -51.5325E-03     102.256E-03    -51.3277E-03     29.1380E-03
            1657     2.56488E-03     44.7478E-03    -78.4994E+06    -177.974E+06    -62.1258E+06    -9.58411E+03    -51.4004E-03     102.798E-03    -51.3974E-03     22.5519E-03    -51.4540E-03     102.121E-03    -51.3361E-03     22.4614E-03
            1658     1.70991E-03     44.7287E-03    -83.3139E+06    -187.122E+06    -74.9779E+06        -5.45035    -51.3590E-03     102.720E-03    -51.3610E-03     15.4896E-03    -51.3998E-03     102.018E-03    -51.3438E-03     15.4305E-03
            1659     854.949E-06     44.7168E-03    -86.5917E+06    -193.383E+06    -84.2111E+06    -11.9693E+03    -51.3649E-03     102.671E-03    -51.3058E-03     8.52099E-03    -51.3967E-03     101.953E-03    -51.3209E-03     8.48934E-03
            1660     16.2437E-03     44.3804E-03    -4.17536E+06     114.192E+06     74.9076E+06     17.4747E+03    -51.1393E-03     102.727E-03    -51.5876E-03     6.43706E-03    -51.4830E-03     103.244E-03    -51.3726E-03     6.09727E-03
            1661     15.3888E-03     44.3665E-03    -8.18867E+06     109.296E+06     60.9502E+06    -11.3485E+03    -51.1993E-03     102.725E-03    -51.5261E-03     20.1849E-03    -51.5745E-03     103.283E-03    -51.3679E-03     19.7643E-03
            1662     14.5340E-03     44.3407E-03    -12.0328E+06     99.2571E+06     53.5552E+06    -27.9318E+03    -51.3139E-03     102.818E-03    -51.5044E-03     30.7332E-03    -51.7063E-03     103.365E-03    -51.3631E-03     30.3024E-03
            1663     13.6791E-03     44.3056E-03    -15.8423E+06     63.9076E+06     44.7989E+06     24.5909E+03    -51.5212E-03     103.032E-03    -51.5112E-03     38.8904E-03    -51.8918E-03     103.444E-03    -51.3569E-03     38.4403E-03
            1664     12.8243E-03     44.2633E-03    -19.5729E+06     21.2352E+06     34.9673E+06     85.9394E+03    -51.7567E-03     103.276E-03    -51.5198E-03     45.5563E-03    -52.0867E-03     103.511E-03    -51.3474E-03     45.0949E-03
            1665     11.9695E-03     44.2148E-03    -23.3283E+06     622.534E+03     30.7673E+06     117.241E+03    -51.8824E-03     103.405E-03    -51.5227E-03     50.9115E-03    -52.2048E-03     103.558E-03    -51.3360E-03     50.4466E-03
            1666     11.1146E-03     44.1617E-03    -27.2032E+06    -21.5999E+06     23.9226E+06     114.249E+03    -51.9870E-03     103.502E-03    -51.5148E-03     54.4709E-03    -52.2870E-03     103.559E-03    -51.3244E-03     54.0118E-03
            1667     10.2598E-03     44.1060E-03    -31.2130E+06    -41.9852E+06     17.9921E+06     88.7146E+03    -52.0403E-03     103.549E-03    -51.5092E-03     56.2790E-03    -52.3132E-03     103.510E-03    -51.3131E-03     55.8375E-03
            1668     9.40491E-03     44.0493E-03    -35.3967E+06    -59.7995E+06     11.4347E+06     68.1387E+03    -52.0468E-03     103.544E-03    -51.4977E-03     56.5422E-03    -52.2892E-03     103.416E-03    -51.3024E-03     56.1294E-03
            1669     8.55000E-03     43.9930E-03    -39.7616E+06    -78.6150E+06     4.81153E+06     45.6267E+03    -52.0195E-03     103.508E-03    -51.4886E-03     55.4485E-03    -52.2267E-03     103.281E-03    -51.2929E-03     55.0727E-03
            1670     7.69507E-03     43.9384E-03    -44.3622E+06    -95.2542E+06    -1.83223E+06     30.4338E+03    -51.9518E-03     103.430E-03    -51.4780E-03     53.2191E-03    -52.1269E-03     103.115E-03    -51.2847E-03     52.8855E-03
            1671     6.84010E-03     43.8865E-03    -49.2700E+06    -111.432E+06    -8.67088E+06     22.7916E+03    -51.8563E-03     103.325E-03    -51.4685E-03     49.9808E-03    -52.0021E-03     102.925E-03    -51.2789E-03     49.6915E-03
            1672     5.98510E-03     43.8384E-03    -54.5607E+06    -126.729E+06    -16.1239E+06     11.4132E+03    -51.7434E-03     103.202E-03    -51.4582E-03     45.8653E-03    -51.8643E-03     102.726E-03    -51.2760E-03     45.6204E-03
            1673     5.13009E-03     43.7947E-03    -60.2903E+06    -142.424E+06    -24.5810E+06     2.39322E+03    -51.6294E-03     103.077E-03    -51.4473E-03     40.9677E-03    -51.7282E-03     102.527E-03    -51.2763E-03     40.7655E-03
            1674     4.27506E-03     43.7563E-03    -66.4169E+06    -156.288E+06    -34.9696E+06    -2.33826E+03    -51.5207E-03     102.948E-03    -51.4278E-03     35.3835E-03    -51.6021E-03     102.341E-03    -51.2797E-03     35.2217E-03
            1675     3.42002E-03     43.7238E-03    -72.6700E+06    -167.305E+06    -47.8842E+06    -2.12050E+03    -51.4258E-03     102.820E-03    -51.3944E-03     29.1987E-03    -51.4937E-03     102.175E-03    -51.2858E-03     29.0743E-03
            1676     2.56499E-03     43.6978E-03    -78.4986E+06    -177.978E+06    -62.1300E+06    -5.17515E+03    -51.3590E-03     102.714E-03    -51.3548E-03     22.5022E-03    -51.4125E-03     102.037E-03    -51.2935E-03     22.4120E-03
            1677     1.70998E-03     43.6787E-03    -83.3042E+06    -187.140E+06    -74.9831E+06    -6.14569E+03    -51.3163E-03     102.634E-03    -51.3180E-03     15.4544E-03    -51.3570E-03     101.932E-03    -51.3007E-03     15.3954E-03
            1678     854.986E-06     43.6668E-03    -86.5624E+06    -193.381E+06    -84.2207E+06    -5.77566E+03    -51.3215E-03     102.584E-03    -51.2628E-03     8.50077E-03    -51.3531E-03     101.866E-03    -51.2780E-03     8.46929E-03
            1679     16.2437E-03     43.3290E-03    -4.12172E+06     114.198E+06     75.1972E+06     15.6000E+03    -51.1983E-03     102.786E-03    -51.5873E-03     6.37724E-03    -51.5419E-03     103.302E-03    -51.3709E-03     6.03717E-03
            1680     15.3889E-03     43.3152E-03    -8.13599E+06     109.326E+06     61.3336E+06     7.45748E+03    -51.2584E-03     102.781E-03    -51.5228E-03     20.0993E-03    -51.6337E-03     103.338E-03    -51.3629E-03     19.6787E-03
            1681     14.5341E-03     43.2894E-03    -12.0534E+06     99.2318E+06     53.6217E+06     21.1640E+03    -51.3617E-03     102.858E-03    -51.4962E-03     30.6310E-03    -51.7538E-03     103.404E-03    -51.3545E-03     30.2007E-03
            1682     13.6793E-03     43.2544E-03    -15.9591E+06     63.8596E+06     44.7370E+06     44.2020E+03    -51.5589E-03     103.058E-03    -51.4992E-03     38.7773E-03    -51.9295E-03     103.469E-03    -51.3450E-03     38.3275E-03
            1683     12.8245E-03     43.2122E-03    -19.6636E+06     21.2078E+06     34.9154E+06     63.7568E+03    -51.7875E-03     103.292E-03    -51.5046E-03     45.4334E-03    -52.1174E-03     103.526E-03    -51.3323E-03     44.9718E-03
            1684     11.9697E-03     43.1638E-03    -23.3642E+06     613.153E+03     30.7393E+06     78.2316E+03    -51.9061E-03     103.410E-03    -51.5043E-03     50.7784E-03    -52.2281E-03     103.562E-03    -51.3176E-03     50.3133E-03
            1685     11.1149E-03     43.1109E-03    -27.2347E+06    -21.5726E+06     23.9070E+06     87.0585E+03    -52.0033E-03     103.496E-03    -51.4931E-03     54.3309E-03    -52.3029E-03     103.553E-03    -51.3028E-03     53.8720E-03
            1686     10.2601E-03     43.0553E-03    -31.2345E+06    -41.9517E+06     17.9834E+06     84.4091E+03    -52.0499E-03     103.534E-03    -51.4843E-03     56.1384E-03    -52.3224E-03     103.495E-03    -51.2883E-03     55.6973E-03
            1687     9.40518E-03     42.9987E-03    -35.4077E+06    -59.7647E+06     11.4313E+06     69.8291E+03    -52.0499E-03     103.519E-03    -51.4696E-03     56.4039E-03    -52.2919E-03     103.390E-03    -51.2745E-03     55.9917E-03
            1688     8.55027E-03     42.9425E-03    -39.7664E+06    -78.5796E+06     4.81181E+06     54.5306E+03    -52.0158E-03     103.473E-03    -51.4574E-03     55.3125E-03    -52.2227E-03     103.246E-03    -51.2617E-03     54.9374E-03
            1689     7.69533E-03     42.8880E-03    -44.3648E+06    -95.2349E+06    -1.83642E+06     41.6133E+03    -51.9414E-03     103.385E-03    -51.4437E-03     53.0854E-03    -52.1162E-03     103.070E-03    -51.2505E-03     52.7525E-03
            1690     6.84035E-03     42.8362E-03    -49.2735E+06    -111.412E+06    -8.67441E+06     31.6149E+03    -51.8393E-03     103.271E-03    -51.4312E-03     49.8535E-03    -51.9850E-03     102.871E-03    -51.2416E-03     49.5650E-03
            1691     5.98534E-03     42.7881E-03    -54.5638E+06    -126.708E+06     -16.126E+06     20.9902E+03    -51.7201E-03     103.138E-03    -51.4180E-03     45.7482E-03    -51.8409E-03     102.662E-03    -51.2358E-03     45.5039E-03
            1692     5.13031E-03     42.7446E-03    -60.2907E+06    -142.410E+06    -24.5811E+06     9.43702E+03    -51.5997E-03     103.004E-03    -51.4045E-03     40.8636E-03    -51.6984E-03     102.455E-03    -51.2335E-03     40.6619E-03
            1693     4.27525E-03     42.7062E-03    -66.4179E+06    -156.285E+06    -34.9648E+06     5.44822E+03    -51.4846E-03     102.867E-03    -51.3826E-03     35.2953E-03    -51.5659E-03     102.259E-03    -51.2345E-03     35.1339E-03
            1694     3.42018E-03     42.6738E-03    -72.6640E+06    -167.303E+06    -47.8759E+06     3.85652E+03    -51.3842E-03     102.731E-03    -51.3473E-03     29.1273E-03    -51.4520E-03     102.086E-03    -51.2388E-03     29.0033E-03
            1695     2.56512E-03     42.6478E-03    -78.4911E+06    -177.980E+06    -62.1306E+06        -946.511    -51.3133E-03     102.620E-03    -51.3063E-03     22.4476E-03    -51.3668E-03     101.943E-03    -51.2451E-03     22.3577E-03
            1696     1.71007E-03     42.6288E-03    -83.3055E+06    -187.138E+06    -74.9799E+06    -9.24895E+03    -51.2681E-03     102.537E-03    -51.2686E-03     15.4164E-03    -51.3087E-03     101.835E-03    -51.2513E-03     15.3574E-03
            1697     855.028E-06     42.6169E-03    -86.5562E+06    -193.372E+06    -84.2026E+06     5.95911E+03    -51.2717E-03     102.485E-03    -51.2129E-03     8.47912E-03    -51.3034E-03     101.767E-03    -51.2280E-03     8.44788E-03
            1698     16.2438E-03     42.2775E-03    -4.11995E+06     114.185E+06     75.4580E+06    -8.70621E+03    -51.2609E-03     102.847E-03    -51.5861E-03     6.30252E-03    -51.6047E-03     103.363E-03    -51.3684E-03     5.96181E-03
            1699     15.3890E-03     42.2638E-03    -8.17605E+06     109.261E+06     61.5622E+06     64.3101E+03    -51.3134E-03     102.832E-03    -51.5181E-03     20.0010E-03    -51.6889E-03     103.387E-03    -51.3568E-03     19.5809E-03
            1700     14.5343E-03     42.2381E-03    -12.1166E+06     99.2386E+06     53.6112E+06     111.273E+03    -51.4097E-03     102.896E-03    -51.4867E-03     30.5207E-03    -51.8018E-03     103.442E-03    -51.3450E-03     30.0916E-03
            1701     13.6794E-03     42.2032E-03    -15.9482E+06     63.9244E+06     44.7505E+06     49.9912E+03    -51.6003E-03     103.086E-03    -51.4861E-03     38.6529E-03    -51.9705E-03     103.497E-03    -51.3320E-03     38.2032E-03
            1702     12.8247E-03     42.1611E-03    -19.6339E+06     21.1850E+06     34.9067E+06     11.8614E+03    -51.8218E-03     103.310E-03    -51.4879E-03     45.2970E-03    -52.1510E-03     103.543E-03    -51.3157E-03     44.8350E-03
            1703     11.9700E-03     42.1128E-03    -23.3599E+06     592.909E+03     30.7228E+06     42.7413E+03    -51.9325E-03     103.417E-03    -51.4840E-03     50.6304E-03    -52.2539E-03     103.568E-03    -51.2974E-03     50.1652E-03
            1704     11.1152E-03     42.0600E-03    -27.2382E+06    -21.5705E+06     23.8937E+06     65.4696E+03    -52.0219E-03     103.491E-03    -51.4693E-03     54.1748E-03    -52.3210E-03     103.548E-03    -51.2791E-03     53.7161E-03
            1705     10.2603E-03     42.0045E-03    -31.2441E+06    -41.9339E+06     17.9733E+06     71.8098E+03    -52.0607E-03     103.518E-03    -51.4569E-03     55.9809E-03    -52.3328E-03     103.478E-03    -51.2609E-03     55.5401E-03
            1706     9.40546E-03     41.9480E-03    -35.4168E+06    -59.7340E+06     11.4249E+06     66.8116E+03    -52.0529E-03     103.492E-03    -51.4387E-03     56.2475E-03    -52.2945E-03     103.362E-03    -51.2436E-03     55.8359E-03
            1707     8.55056E-03     41.8920E-03    -39.7743E+06    -78.5565E+06     4.80462E+06     59.0551E+03    -52.0111E-03     103.434E-03    -51.4230E-03     55.1588E-03    -52.2176E-03     103.207E-03    -51.2274E-03     54.7843E-03
            1708     7.69562E-03     41.8376E-03    -44.3704E+06    -95.2095E+06    -1.84270E+06     51.7892E+03    -51.9294E-03     103.335E-03    -51.4061E-03     52.9352E-03    -52.1039E-03     103.020E-03    -51.2129E-03     52.6032E-03
            1709     6.84063E-03     41.7860E-03    -49.2773E+06    -111.389E+06    -8.68119E+06     40.8446E+03    -51.8209E-03     103.211E-03    -51.3903E-03     49.7111E-03    -51.9663E-03     102.811E-03    -51.2007E-03     49.4234E-03
            1710     5.98561E-03     41.7380E-03    -54.5652E+06    -126.682E+06    -16.1305E+06     27.1849E+03    -51.6954E-03     103.069E-03    -51.3739E-03     45.6167E-03    -51.8159E-03     102.593E-03    -51.1917E-03     45.3731E-03
            1711     5.13055E-03     41.6945E-03    -60.2914E+06    -142.395E+06    -24.5854E+06     17.1443E+03    -51.5685E-03     102.926E-03    -51.3571E-03     40.7455E-03    -51.6670E-03     102.376E-03    -51.1862E-03     40.5445E-03
            1712     4.27546E-03     41.6563E-03    -66.4167E+06    -156.276E+06    -34.9658E+06     10.6114E+03    -51.4465E-03     102.779E-03    -51.3323E-03     35.1944E-03    -51.5277E-03     102.171E-03    -51.1843E-03     35.0336E-03
            1713     3.42036E-03     41.6239E-03    -72.6631E+06    -167.296E+06    -47.8699E+06     3.47749E+03    -51.3393E-03     102.634E-03    -51.2946E-03     29.0457E-03    -51.4071E-03     101.989E-03    -51.1860E-03     28.9221E-03
            1714     2.56526E-03     41.5980E-03    -78.4916E+06    -177.979E+06    -62.1292E+06         500.279    -51.2628E-03     102.514E-03    -51.2515E-03     22.3858E-03    -51.3162E-03     101.837E-03    -51.1902E-03     22.2962E-03
            1715     1.71016E-03     41.5790E-03    -83.3025E+06    -187.128E+06    -74.9769E+06     3.14024E+03    -51.2136E-03     102.426E-03    -51.2124E-03     15.3742E-03    -51.2542E-03     101.724E-03    -51.1952E-03     15.3156E-03
            1716     855.078E-06     41.5671E-03    -86.5824E+06    -193.383E+06    -84.2031E+06    -1.44910E+03    -51.2152E-03     102.371E-03    -51.1559E-03     8.45595E-03    -51.2469E-03     101.653E-03    -51.1710E-03     8.42472E-03
            1717     16.2438E-03     41.2260E-03    -4.24847E+06     114.089E+06     75.2808E+06     55.6604E+03    -51.3221E-03     102.904E-03    -51.5822E-03     6.23556E-03    -51.6661E-03     103.420E-03    -51.3650E-03     5.89543E-03
            1718     15.3891E-03     41.2123E-03    -8.36446E+06     109.199E+06     61.4173E+06     126.625E+03    -51.3687E-03     102.880E-03    -51.5109E-03     19.9029E-03    -51.7445E-03     103.435E-03    -51.3500E-03     19.4834E-03
            1719     14.5344E-03     41.1867E-03    -12.1663E+06     99.3532E+06     53.6317E+06     45.7021E+03    -51.4625E-03     102.939E-03    -51.4762E-03     30.3975E-03    -51.8547E-03     103.485E-03    -51.3345E-03     29.9675E-03
            1720     13.6796E-03     41.1519E-03    -15.8862E+06     63.9732E+06     44.7802E+06    -14.7575E+03    -51.6466E-03     103.118E-03    -51.4717E-03     38.5133E-03    -52.0161E-03     103.529E-03    -51.3176E-03     38.0629E-03
            1721     12.8249E-03     41.1099E-03    -19.5716E+06     21.1607E+06     34.9104E+06     17.9748E+03    -51.8604E-03     103.330E-03    -51.4696E-03     45.1432E-03    -52.1887E-03     103.563E-03    -51.2973E-03     44.6815E-03
            1722     11.9702E-03     41.0618E-03    -23.3349E+06     571.616E+03     30.7137E+06     36.1089E+03    -51.9629E-03     103.425E-03    -51.4616E-03     50.4633E-03    -52.2835E-03     103.575E-03    -51.2750E-03     49.9984E-03
            1723     11.1154E-03     41.0091E-03    -27.2335E+06    -21.5797E+06     23.8798E+06     55.4237E+03    -52.0439E-03     103.487E-03    -51.4428E-03     53.9986E-03    -52.3423E-03     103.543E-03    -51.2527E-03     53.5402E-03
            1724     10.2606E-03     40.9538E-03    -31.2450E+06    -41.9206E+06     17.9633E+06     65.5105E+03    -52.0742E-03     103.501E-03    -51.4264E-03     55.8017E-03    -52.3456E-03     103.460E-03    -51.2304E-03     55.3616E-03
            1725     9.40579E-03     40.8975E-03    -35.4229E+06    -59.7157E+06     11.4138E+06     65.1668E+03    -52.0569E-03     103.461E-03    -51.4041E-03     56.0673E-03    -52.2980E-03     103.331E-03    -51.2091E-03     55.6564E-03
            1726     8.55089E-03     40.8416E-03    -39.7828E+06    -78.5372E+06     4.79276E+06     64.9712E+03    -52.0053E-03     103.390E-03    -51.3846E-03     54.9805E-03    -52.2114E-03     103.162E-03    -51.1891E-03     54.6069E-03
            1727     7.69594E-03     40.7873E-03    -44.3783E+06    -95.1841E+06    -1.85294E+06     58.3042E+03    -51.9149E-03     103.279E-03    -51.3639E-03     52.7617E-03    -52.0891E-03     102.963E-03    -51.1708E-03     52.4306E-03
            1728     6.84094E-03     40.7358E-03    -49.2804E+06    -111.362E+06    -8.68918E+06     47.0989E+03    -51.7993E-03     103.144E-03    -51.3446E-03     49.5475E-03    -51.9444E-03     102.744E-03    -51.1551E-03     49.2606E-03
            1729     5.98590E-03     40.6879E-03    -54.5658E+06    -126.653E+06    -16.1375E+06     32.3449E+03    -51.6676E-03     102.992E-03    -51.3246E-03     45.4659E-03    -51.7880E-03     102.516E-03    -51.1425E-03     45.2231E-03
            1730     5.13082E-03     40.6446E-03    -60.2867E+06    -142.382E+06    -24.5930E+06     20.7355E+03    -51.5344E-03     102.839E-03    -51.3043E-03     40.6092E-03    -51.6327E-03     102.289E-03    -51.1334E-03     40.4089E-03
            1731     4.27570E-03     40.6064E-03    -66.4092E+06    -156.264E+06    -34.9682E+06     18.3142E+03    -51.4052E-03     102.681E-03    -51.2760E-03     35.0763E-03    -51.4863E-03     102.073E-03    -51.1280E-03     34.9161E-03
            1732     3.42057E-03     40.5741E-03    -72.6612E+06    -167.278E+06    -47.8660E+06     10.7544E+03    -51.2903E-03     102.525E-03    -51.2351E-03     28.9487E-03    -51.3580E-03     101.880E-03    -51.1265E-03     28.8256E-03
            1733     2.56542E-03     40.5483E-03    -78.4904E+06    -177.971E+06    -62.1203E+06         843.612    -51.2066E-03     102.396E-03    -51.1894E-03     22.3118E-03    -51.2600E-03     101.719E-03    -51.1281E-03     22.2225E-03
            1734     1.71027E-03     40.5293E-03    -83.3040E+06    -187.139E+06    -74.9786E+06     4.79983E+03    -51.1520E-03     102.301E-03    -51.1485E-03     15.3240E-03    -51.1926E-03     101.598E-03    -51.1312E-03     15.2657E-03
            1735     855.132E-06     40.5175E-03    -86.5712E+06    -193.380E+06    -84.2070E+06    -3.10663E+03    -51.1505E-03     102.242E-03    -51.0912E-03     8.42857E-03    -51.1822E-03     101.524E-03    -51.1063E-03     8.39744E-03
            1736     16.2439E-03     40.1744E-03    -4.06527E+06     113.911E+06     75.1666E+06     65.8228E+03    -51.3923E-03     102.970E-03    -51.5781E-03     6.16399E-03    -51.7348E-03     103.485E-03    -51.3616E-03     5.82371E-03
            1737     15.3892E-03     40.1608E-03    -7.97573E+06     109.243E+06     61.4794E+06     109.661E+03    -51.4378E-03     102.941E-03    -51.5031E-03     19.7962E-03    -51.8115E-03     103.496E-03    -51.3426E-03     19.3763E-03
            1738     14.5346E-03     40.1353E-03    -11.8594E+06     99.5232E+06     53.7801E+06     27.7779E+03    -51.5217E-03     102.986E-03    -51.4646E-03     30.2613E-03    -51.9123E-03     103.532E-03    -51.3228E-03     29.8309E-03
            1739     13.6799E-03     40.1006E-03    -15.7839E+06     63.9166E+06     44.7874E+06     8.96526E+03    -51.6989E-03     103.155E-03    -51.4557E-03     38.3579E-03    -52.0673E-03     103.564E-03    -51.3016E-03     37.9079E-03
            1740     12.8252E-03     40.0588E-03    -19.5531E+06     21.1575E+06     34.9032E+06     46.1960E+03    -51.9048E-03     103.354E-03    -51.4490E-03     44.9708E-03    -52.2323E-03     103.586E-03    -51.2769E-03     44.5097E-03
            1741     11.9705E-03     40.0108E-03    -23.3146E+06     561.873E+03     30.7043E+06     55.4631E+03    -51.9985E-03     103.435E-03    -51.4365E-03     50.2760E-03    -52.3183E-03     103.585E-03    -51.2500E-03     49.8118E-03
            1742     11.1158E-03     39.9582E-03    -27.2249E+06    -21.5785E+06     23.8670E+06     64.2073E+03    -52.0706E-03     103.484E-03    -51.4130E-03     53.8003E-03    -52.3682E-03     103.539E-03    -51.2229E-03     53.3426E-03
            1743     10.2610E-03     39.9031E-03    -31.2502E+06    -41.9112E+06     17.9474E+06     67.6701E+03    -52.0913E-03     103.483E-03    -51.3918E-03     55.5984E-03    -52.3621E-03     103.442E-03    -51.1960E-03     55.1590E-03
            1744     9.40615E-03     39.8469E-03    -35.4351E+06    -59.7014E+06     11.3970E+06     71.4471E+03    -52.0635E-03     103.428E-03    -51.3648E-03     55.8606E-03    -52.3040E-03     103.298E-03    -51.1699E-03     55.4505E-03
            1745     8.55126E-03     39.7911E-03    -39.7972E+06    -78.5174E+06     4.77615E+06     69.0190E+03    -52.0003E-03     103.341E-03    -51.3407E-03     54.7738E-03    -52.2059E-03     103.113E-03    -51.1453E-03     54.4012E-03
            1746     7.69631E-03     39.7370E-03    -44.3889E+06    -95.1566E+06    -1.86737E+06     62.1283E+03    -51.8984E-03     103.214E-03    -51.3158E-03     52.5602E-03    -52.0722E-03     102.898E-03    -51.1228E-03     52.2300E-03
            1747     6.84130E-03     39.6857E-03    -49.2893E+06    -111.332E+06    -8.70293E+06     50.1925E+03    -51.7735E-03     103.066E-03    -51.2924E-03     49.3572E-03    -51.9182E-03     102.666E-03    -51.1030E-03     49.0712E-03
            1748     5.98623E-03     39.6379E-03    -54.5701E+06    -126.621E+06    -16.1518E+06     34.5356E+03    -51.6347E-03     102.903E-03    -51.2685E-03     45.2906E-03    -51.7548E-03     102.427E-03    -51.0866E-03     45.0486E-03
            1749     5.13112E-03     39.5947E-03    -60.2904E+06    -142.367E+06    -24.6076E+06     23.7619E+03    -51.4953E-03     102.740E-03    -51.2443E-03     40.4497E-03    -51.5934E-03     102.190E-03    -51.0735E-03     40.2501E-03
            1750     4.27598E-03     39.5567E-03    -66.4079E+06    -156.258E+06    -34.9816E+06     21.3463E+03    -51.3588E-03     102.571E-03    -51.2120E-03     34.9357E-03    -51.4397E-03     101.963E-03    -51.0640E-03     34.7761E-03
            1751     3.42080E-03     39.5245E-03    -72.6464E+06    -167.253E+06    -47.8634E+06     15.6243E+03    -51.2351E-03     102.402E-03    -51.1672E-03     28.8318E-03    -51.3027E-03     101.757E-03    -51.0587E-03     28.7093E-03
            1752     2.56560E-03     39.4987E-03    -78.4852E+06    -177.964E+06    -62.1079E+06     7.90020E+03    -51.1433E-03     102.262E-03    -51.1184E-03     22.2220E-03    -51.1966E-03     101.585E-03    -51.0571E-03     22.1332E-03
            1753     1.71040E-03     39.4798E-03    -83.2974E+06    -187.133E+06    -74.9632E+06     3.90169E+03    -51.0821E-03     102.157E-03    -51.0750E-03     15.2631E-03    -51.1226E-03     101.455E-03    -51.0577E-03     15.2050E-03
            1754     855.198E-06     39.4680E-03    -86.5670E+06    -193.381E+06    -84.1979E+06     2.85847E+03    -51.0763E-03     102.092E-03    -51.0161E-03     8.39540E-03    -51.1079E-03     101.374E-03    -51.0311E-03     8.36448E-03
            1755     16.2440E-03     39.1227E-03    -4.13698E+06     113.843E+06     75.1575E+06    -28.1827E+03    -51.4666E-03     103.041E-03    -51.5744E-03     6.08152E-03    -51.8091E-03     103.555E-03    -51.3577E-03     5.73972E-03
            1756     15.3894E-03     39.1092E-03    -8.11050E+06     109.199E+06     61.4160E+06     20.6726E+03    -51.5094E-03     103.004E-03    -51.4949E-03     19.6789E-03    -51.8833E-03     103.559E-03    -51.3344E-03     19.2575E-03
            1757     14.5348E-03     39.0838E-03    -11.9480E+06     99.5695E+06     53.7483E+06     111.574E+03    -51.5879E-03     103.040E-03    -51.4516E-03     30.1116E-03    -51.9785E-03     103.585E-03    -51.3099E-03     29.6823E-03
            1758     13.6801E-03     39.0493E-03    -15.8140E+06     63.9402E+06     44.7698E+06     100.983E+03    -51.7584E-03     103.196E-03    -51.4379E-03     38.1866E-03    -52.1263E-03     103.605E-03    -51.2838E-03     37.7378E-03
            1759     12.8255E-03     39.0076E-03    -19.5557E+06     21.1598E+06     34.8852E+06     73.0265E+03    -51.9561E-03     103.382E-03    -51.4261E-03     44.7800E-03    -52.2829E-03     103.613E-03    -51.2540E-03     44.3195E-03
            1760     11.9708E-03     38.9597E-03    -23.3200E+06     567.308E+03     30.6859E+06     79.3904E+03    -52.0407E-03     103.449E-03    -51.4082E-03     50.0689E-03    -52.3597E-03     103.598E-03    -51.2218E-03     49.6054E-03
            1761     11.1162E-03     38.9074E-03    -27.2278E+06    -21.5658E+06     23.8503E+06     81.8114E+03    -52.1033E-03     103.483E-03    -51.3793E-03     53.5802E-03    -52.4001E-03     103.537E-03    -51.1893E-03     53.1234E-03
            1762     10.2614E-03     38.8524E-03    -31.2558E+06    -41.8978E+06     17.9298E+06     83.8205E+03    -52.1139E-03     103.466E-03    -51.3524E-03     55.3705E-03    -52.3839E-03     103.425E-03    -51.1567E-03     54.9321E-03
            1763     9.40658E-03     38.7964E-03    -35.4444E+06    -59.6811E+06     11.3806E+06     79.2757E+03    -52.0745E-03     103.394E-03    -51.3198E-03     55.6261E-03    -52.3143E-03     103.263E-03    -51.1250E-03     55.2171E-03
            1764     8.55169E-03     38.7408E-03    -39.8047E+06    -78.4945E+06     4.75993E+06     74.7102E+03    -51.9978E-03     103.288E-03    -51.2901E-03     54.5363E-03    -52.2028E-03     103.059E-03    -51.0948E-03     54.1648E-03
            1765     7.69674E-03     38.6869E-03    -44.3987E+06    -95.1250E+06    -1.88586E+06     64.9943E+03    -51.8820E-03     103.142E-03    -51.2599E-03     52.3277E-03    -52.0553E-03     102.825E-03    -51.0670E-03     51.9986E-03
            1766     6.84171E-03     38.6356E-03    -49.2963E+06    -111.300E+06    -8.72055E+06     51.2611E+03    -51.7448E-03     102.976E-03    -51.2317E-03     49.1365E-03    -51.8891E-03     102.576E-03    -51.0424E-03     48.8515E-03
            1767     5.98662E-03     38.5881E-03    -54.5748E+06    -126.586E+06    -16.1668E+06     34.9893E+03    -51.5959E-03     102.799E-03    -51.2032E-03     45.0857E-03    -51.7156E-03     102.323E-03    -51.0214E-03     44.8447E-03
            1768     5.13148E-03     38.5449E-03    -60.2873E+06    -142.354E+06    -24.6207E+06     25.0746E+03    -51.4483E-03     102.623E-03    -51.1746E-03     40.2624E-03    -51.5461E-03     102.073E-03    -51.0038E-03     40.0637E-03
            1769     4.27629E-03     38.5070E-03    -66.4015E+06    -156.245E+06    -34.9811E+06     22.7719E+03    -51.3036E-03     102.442E-03    -51.1379E-03     34.7693E-03    -51.3843E-03     101.833E-03    -50.9900E-03     34.6105E-03
            1770     3.42107E-03     38.4749E-03    -72.6481E+06    -167.234E+06    -47.8635E+06     18.3999E+03    -51.1707E-03     102.260E-03    -51.0890E-03     28.6927E-03    -51.2382E-03     101.614E-03    -50.9804E-03     28.5709E-03
            1771     2.56581E-03     38.4492E-03    -78.4712E+06    -177.956E+06    -62.1064E+06     11.9626E+03    -51.0701E-03     102.107E-03    -51.0364E-03     22.1154E-03    -51.1233E-03     101.430E-03    -50.9751E-03     22.0271E-03
            1772     1.71054E-03     38.4304E-03    -83.2879E+06    -187.123E+06    -74.9544E+06     7.97165E+03    -51.0018E-03     101.992E-03    -50.9901E-03     15.1906E-03    -51.0424E-03     101.290E-03    -50.9727E-03     15.1329E-03
            1773     855.271E-06     38.4186E-03    -86.5417E+06    -193.367E+06    -84.1883E+06     2.17927E+03    -50.9907E-03     101.920E-03    -50.9290E-03     8.35611E-03    -51.0223E-03     101.202E-03    -50.9441E-03     8.32536E-03
            1774     16.2440E-03     38.0709E-03    -4.36997E+06     113.957E+06     75.2179E+06     69.9292E+03    -51.5454E-03     103.116E-03    -51.5704E-03     5.99400E-03    -51.8891E-03     103.630E-03    -51.3532E-03     5.65313E-03
            1775     15.3895E-03     38.0575E-03    -8.47252E+06     109.178E+06     61.3432E+06    -54.0805E+03    -51.5851E-03     103.071E-03    -51.4859E-03     19.5505E-03    -51.9602E-03     103.626E-03    -51.3252E-03     19.1279E-03
            1776     14.5350E-03     38.0323E-03    -12.2205E+06     99.4223E+06     53.5945E+06    -13.5653E+03    -51.6628E-03     103.100E-03    -51.4372E-03     29.9466E-03    -52.0537E-03     103.645E-03    -51.2957E-03     29.5155E-03
            1777     13.6804E-03     37.9979E-03    -15.9035E+06     64.0038E+06     44.7380E+06     88.3338E+03    -51.8260E-03     103.244E-03    -51.4179E-03     37.9974E-03    -52.1937E-03     103.653E-03    -51.2640E-03     37.5485E-03
            1778     12.8258E-03     37.9564E-03    -19.5846E+06     21.1656E+06     34.8551E+06     93.0804E+03    -52.0153E-03     103.416E-03    -51.4003E-03     44.5685E-03    -52.3414E-03     103.646E-03    -51.2283E-03     44.1085E-03
            1779     11.9712E-03     37.9087E-03    -23.3338E+06     581.846E+03     30.6636E+06     95.6677E+03    -52.0907E-03     103.467E-03    -51.3763E-03     49.8392E-03    -52.4089E-03     103.616E-03    -51.1900E-03     49.3764E-03
            1780     11.1166E-03     37.8565E-03    -27.2382E+06    -21.5533E+06     23.8283E+06     101.976E+03    -52.1434E-03     103.484E-03    -51.3410E-03     53.3355E-03    -52.4393E-03     103.538E-03    -51.1511E-03     52.8796E-03
            1781     10.2619E-03     37.8017E-03    -31.2620E+06    -41.8694E+06     17.9139E+06     98.3262E+03    -52.1430E-03     103.451E-03    -51.3076E-03     55.1154E-03    -52.4123E-03     103.408E-03    -51.1120E-03     54.6779E-03
            1782     9.40706E-03     37.7459E-03     -35.444E+06    -59.6556E+06     11.3656E+06     89.4789E+03    -52.0909E-03     103.359E-03    -51.2682E-03     55.3619E-03    -52.3299E-03     103.227E-03    -51.0734E-03     54.9539E-03
            1783     8.55219E-03     37.6905E-03    -39.8070E+06    -78.4671E+06     4.74354E+06     83.2662E+03    -51.9992E-03     103.231E-03    -51.2317E-03     54.2665E-03    -52.2035E-03     103.002E-03    -51.0365E-03     53.8961E-03
            1784     7.69723E-03     37.6367E-03    -44.4007E+06    -95.0870E+06    -1.90274E+06     71.3484E+03    -51.8679E-03     103.063E-03    -51.1949E-03     52.0627E-03    -52.0405E-03     102.746E-03    -51.0021E-03     51.7348E-03
            1785     6.84220E-03     37.5857E-03    -49.3019E+06    -111.264E+06    -8.73748E+06     54.0085E+03    -51.7159E-03     102.876E-03    -51.1604E-03     48.8830E-03    -51.8598E-03     102.476E-03    -50.9713E-03     48.5992E-03
            1786     5.98708E-03     37.5383E-03    -54.5801E+06    -126.549E+06    -16.1816E+06     35.1771E+03    -51.5524E-03     102.679E-03    -51.1261E-03     44.8473E-03    -51.6718E-03     102.202E-03    -50.9444E-03     44.6073E-03
            1787     5.13190E-03     37.4953E-03    -60.2901E+06    -142.335E+06    -24.6345E+06     19.9544E+03    -51.3912E-03     102.483E-03    -51.0922E-03     40.0436E-03    -51.4887E-03     101.933E-03    -50.9216E-03     39.8458E-03
            1788     4.27666E-03     37.4576E-03    -66.3962E+06    -156.243E+06    -34.9812E+06     22.5372E+03    -51.2352E-03     102.286E-03    -51.0509E-03     34.5746E-03    -51.3156E-03     101.678E-03    -50.9030E-03     34.4167E-03
            1789     3.42137E-03     37.4256E-03    -72.6344E+06    -167.211E+06    -47.8395E+06     24.6773E+03    -51.0930E-03     102.091E-03    -50.9978E-03     28.5296E-03    -51.1603E-03     101.445E-03    -50.8893E-03     28.4085E-03
            1790     2.56605E-03     37.4000E-03    -78.4704E+06    -177.935E+06    -62.1026E+06     12.8712E+03    -50.9839E-03     101.925E-03    -50.9415E-03     21.9900E-03    -51.0371E-03     101.248E-03    -50.8802E-03     21.9023E-03
            1791     1.71071E-03     37.3812E-03    -83.2738E+06    -187.121E+06    -74.9632E+06     3.64151E+03    -50.9083E-03     101.800E-03    -50.8922E-03     15.1050E-03    -50.9487E-03     101.098E-03    -50.8749E-03     15.0476E-03
            1792     855.359E-06     37.3695E-03    -86.5316E+06    -193.352E+06    -84.1730E+06     6.06712E+03    -50.8919E-03     101.721E-03    -50.8295E-03     8.30974E-03    -50.9234E-03     101.003E-03    -50.8445E-03     8.27923E-03
            1793     16.2441E-03     37.0191E-03    -3.97310E+06     114.058E+06     75.2913E+06     134.446E+03    -51.6424E-03     103.208E-03    -51.5652E-03     5.89862E-03    -51.9841E-03     103.722E-03    -51.3483E-03     5.55818E-03
            1794     15.3897E-03     37.0058E-03    -8.02255E+06     109.370E+06     61.5291E+06     26.1254E+03    -51.6764E-03     103.152E-03    -51.4756E-03     19.4091E-03    -52.0494E-03     103.706E-03    -51.3149E-03     18.9871E-03
            1795     14.5352E-03     36.9807E-03    -12.0304E+06     99.2676E+06       53.59E+06    -48.7831E+03    -51.7478E-03     103.169E-03    -51.4210E-03     29.7632E-03    -52.1369E-03     103.712E-03    -51.2795E-03     29.3315E-03
            1796     13.6807E-03     36.9464E-03    -15.9210E+06     63.9544E+06     44.6941E+06     34.4384E+03    -51.9031E-03     103.299E-03    -51.3954E-03     37.7868E-03    -52.2700E-03     103.706E-03    -51.2416E-03     37.3373E-03
            1797     12.8262E-03     36.9051E-03    -19.6117E+06     21.1765E+06     34.8232E+06     94.8318E+03    -52.0838E-03     103.455E-03    -51.3712E-03     44.3328E-03    -52.4091E-03     103.685E-03    -51.1993E-03     43.8731E-03
            1798     11.9717E-03     36.8576E-03    -23.3565E+06     585.952E+03     30.6327E+06     108.362E+03    -52.1496E-03     103.490E-03    -51.3402E-03     49.5822E-03    -52.4669E-03     103.637E-03    -51.1540E-03     49.1201E-03
            1799     11.1171E-03     36.8056E-03    -27.2530E+06    -21.5293E+06     23.8040E+06     113.914E+03    -52.1918E-03     103.489E-03    -51.2975E-03     53.0613E-03    -52.4868E-03     103.542E-03    -51.1077E-03     52.6062E-03
            1800     10.2624E-03     36.7510E-03    -31.2686E+06    -41.8399E+06     17.8924E+06     109.474E+03    -52.1792E-03     103.436E-03    -51.2563E-03     54.8276E-03    -52.4475E-03     103.392E-03    -51.0608E-03     54.3912E-03
            1801     9.40762E-03     36.6954E-03    -35.4544E+06    -59.6237E+06     11.3439E+06     103.434E+03    -52.1123E-03     103.321E-03    -51.2089E-03     55.0624E-03    -52.3504E-03     103.189E-03    -51.0143E-03     54.6557E-03
            1802     8.55276E-03     36.6402E-03    -39.8178E+06    -78.4331E+06     4.72327E+06     94.3595E+03    -52.0044E-03     103.169E-03    -51.1643E-03     53.9611E-03    -52.2079E-03     102.939E-03    -50.9693E-03     53.5921E-03
            1803     7.69781E-03     36.5867E-03    -44.4113E+06    -95.0409E+06    -1.92056E+06     76.7850E+03    -51.8570E-03     102.976E-03    -51.1194E-03     51.7631E-03    -52.0290E-03     102.659E-03    -50.9268E-03     51.4365E-03
            1804     6.84276E-03     36.5359E-03    -49.3049E+06    -111.226E+06    -8.75437E+06     56.7441E+03    -51.6882E-03     102.765E-03    -51.0770E-03     48.5951E-03    -51.8315E-03     102.364E-03    -50.8880E-03     48.3126E-03
            1805     5.98762E-03     36.4887E-03    -54.5798E+06    -126.506E+06    -16.1954E+06     35.8561E+03    -51.5055E-03     102.541E-03    -51.0352E-03     44.5739E-03    -51.6244E-03     102.064E-03    -50.8536E-03     44.3352E-03
            1806     5.13240E-03     36.4459E-03    -60.2920E+06    -142.309E+06    -24.6454E+06     18.5482E+03    -51.3243E-03     102.319E-03    -50.9948E-03     39.7924E-03    -51.4215E-03     101.769E-03    -50.8243E-03     39.5957E-03
            1807     4.27710E-03     36.4082E-03    -66.4036E+06    -156.244E+06    -34.9776E+06     16.1664E+03    -51.1521E-03     102.100E-03    -50.9483E-03     34.3522E-03    -51.2323E-03     101.492E-03    -50.8003E-03     34.1952E-03
            1808     3.42174E-03     36.3764E-03    -72.6404E+06    -167.199E+06    -47.8524E+06     22.6562E+03    -50.9988E-03     101.890E-03    -50.8908E-03     28.3425E-03    -51.0660E-03     101.244E-03    -50.7823E-03     28.2222E-03
            1809     2.56634E-03     36.3509E-03    -78.4636E+06    -177.899E+06    -62.1208E+06     25.6622E+03    -50.8814E-03     101.712E-03    -50.8308E-03     21.8441E-03    -50.9345E-03     101.035E-03    -50.7697E-03     21.7572E-03
            1810     1.71091E-03     36.3322E-03    -83.2891E+06    -187.111E+06    -74.9651E+06     8.89764E+03    -50.7988E-03     101.578E-03    -50.7788E-03     15.0041E-03    -50.8392E-03     100.875E-03    -50.7615E-03     14.9472E-03
            1811     855.454E-06     36.3206E-03    -86.5833E+06    -193.360E+06    -84.1954E+06     9.81040E+03    -50.7771E-03     101.492E-03    -50.7147E-03     8.25422E-03    -50.8088E-03     100.774E-03    -50.7298E-03     8.22400E-03
            1812     16.2442E-03     35.9671E-03    -4.05286E+06     114.002E+06     75.2182E+06     11.6057E+03    -51.7492E-03     103.309E-03    -51.5596E-03     5.79183E-03    -52.0909E-03     103.823E-03    -51.3429E-03     5.44934E-03
            1813     15.3898E-03     35.9539E-03    -8.01044E+06     109.435E+06     61.5335E+06     123.931E+03    -51.7796E-03     103.243E-03    -51.4639E-03     19.2534E-03    -52.1521E-03     103.798E-03    -51.3033E-03     18.8323E-03
            1814     14.5355E-03     35.9290E-03    -11.9387E+06     99.3067E+06     53.6127E+06     129.002E+03    -51.8445E-03     103.247E-03    -51.4027E-03     29.5597E-03    -52.2326E-03     103.790E-03    -51.2613E-03     29.1302E-03
            1815     13.6810E-03     35.8949E-03    -15.8640E+06     63.9134E+06     44.6755E+06     79.7664E+03    -51.9919E-03     103.362E-03    -51.3700E-03     37.5513E-03    -52.3576E-03     103.769E-03    -51.2163E-03     37.1024E-03
            1816     12.8266E-03     35.8538E-03    -19.6245E+06     21.1640E+06     34.7872E+06     103.742E+03    -52.1637E-03     103.502E-03    -51.3380E-03     44.0681E-03    -52.4880E-03     103.731E-03    -51.1663E-03     43.6088E-03
            1817     11.9721E-03     35.8065E-03    -23.3738E+06     603.101E+03     30.6038E+06     118.230E+03    -52.2192E-03     103.518E-03    -51.2990E-03     49.2918E-03    -52.5355E-03     103.665E-03    -51.1129E-03     48.8304E-03
            1818     11.1176E-03     35.7547E-03    -27.2659E+06    -21.5060E+06     23.7760E+06     117.971E+03    -52.2494E-03     103.497E-03    -51.2476E-03     52.7502E-03    -52.5433E-03     103.549E-03    -51.0580E-03     52.2960E-03
            1819     10.2630E-03     35.7004E-03    -31.2801E+06    -41.8135E+06     17.8651E+06     121.082E+03    -52.2222E-03     103.419E-03    -51.1973E-03     54.4992E-03    -52.4894E-03     103.375E-03    -51.0020E-03     54.0640E-03
            1820     9.40825E-03     35.6450E-03    -35.4610E+06    -59.5906E+06     11.3213E+06     119.810E+03    -52.1376E-03     103.278E-03    -51.1406E-03     54.7204E-03    -52.3747E-03     103.145E-03    -50.9462E-03     54.3152E-03
            1821     8.55343E-03     35.5901E-03    -39.8240E+06    -78.3841E+06     4.70575E+06     107.678E+03    -52.0120E-03     103.099E-03    -51.0867E-03     53.6153E-03    -52.2146E-03     102.868E-03    -50.8918E-03     53.2479E-03
            1822     7.69848E-03     35.5368E-03    -44.4163E+06    -94.9891E+06    -1.94025E+06     83.4005E+03    -51.8476E-03     102.880E-03    -51.0323E-03     51.4250E-03    -52.0189E-03     102.562E-03    -50.8398E-03     51.1000E-03
            1823     6.84343E-03     35.4862E-03    -49.3144E+06    -111.181E+06    -8.77624E+06     59.3138E+03    -51.6591E-03     102.639E-03    -50.9804E-03     48.2689E-03    -51.8018E-03     102.238E-03    -50.7915E-03     47.9878E-03
            1824     5.98826E-03     35.4392E-03    -54.5881E+06    -126.458E+06    -16.2154E+06     35.1958E+03    -51.4529E-03     102.382E-03    -50.9295E-03     44.2643E-03    -51.5714E-03     101.905E-03    -50.7481E-03     44.0270E-03
            1825     5.13298E-03     35.3966E-03    -60.2968E+06    -142.284E+06    -24.6623E+06     19.6568E+03    -51.2481E-03     102.129E-03    -50.8812E-03     39.5103E-03    -51.3450E-03     101.579E-03    -50.7108E-03     39.3150E-03
            1826     4.27762E-03     35.3591E-03    -66.4110E+06    -156.235E+06    -34.9814E+06     16.9667E+03    -51.0560E-03     101.884E-03    -50.8284E-03     34.1057E-03    -51.1360E-03     101.275E-03    -50.6805E-03     33.9499E-03
            1827     3.42217E-03     35.3275E-03    -72.6560E+06    -167.192E+06    -47.8499E+06     17.8721E+03    -50.8881E-03     101.654E-03    -50.7659E-03     28.1357E-03    -50.9552E-03     101.008E-03    -50.6574E-03     28.0163E-03
            1828     2.56667E-03     35.3021E-03    -78.4688E+06    -177.896E+06    -62.1533E+06     26.0572E+03    -50.7607E-03     101.463E-03    -50.7019E-03     21.6807E-03    -50.8136E-03     100.786E-03    -50.6410E-03     21.5945E-03
            1829     1.71113E-03     35.2835E-03    -83.2659E+06    -187.078E+06    -74.9812E+06     39.5266E+03    -50.6710E-03     101.318E-03    -50.6470E-03     14.8898E-03    -50.7113E-03     100.616E-03    -50.6300E-03     14.8338E-03
            1830     855.573E-06     35.2719E-03    -86.5471E+06    -193.320E+06    -84.1865E+06     23.6876E+03    -50.6444E-03     101.226E-03    -50.5816E-03     8.19148E-03    -50.6760E-03     100.508E-03    -50.5967E-03     8.16171E-03
            1831     16.2443E-03     34.9151E-03    -4.23340E+06     113.882E+06     75.2035E+06     7.01510E+03    -51.8662E-03     103.420E-03    -51.5538E-03     5.67489E-03    -52.2083E-03     103.933E-03    -51.3368E-03     5.33182E-03
            1832     15.3900E-03     34.9020E-03    -8.29757E+06     109.309E+06     61.3897E+06     101.287E+03    -51.8957E-03     103.346E-03    -51.4507E-03     19.0822E-03    -52.2688E-03     103.900E-03    -51.2903E-03     18.6603E-03
            1833     14.5358E-03     34.8772E-03    -12.1041E+06     99.3785E+06     53.5542E+06     160.684E+03    -51.9556E-03     103.337E-03    -51.3818E-03     29.3347E-03    -52.3438E-03     103.880E-03    -51.2406E-03     28.9053E-03
            1834     13.6814E-03     34.8433E-03    -15.9057E+06     63.9648E+06     44.6499E+06     153.263E+03    -52.0954E-03     103.436E-03    -51.3409E-03     37.2889E-03    -52.4604E-03     103.842E-03    -51.1873E-03     36.8409E-03
            1835     12.8271E-03     34.8024E-03    -19.6299E+06     21.1771E+06     34.7585E+06     127.537E+03    -52.2580E-03     103.558E-03    -51.3000E-03     43.7717E-03    -52.5813E-03     103.786E-03    -51.1285E-03     43.3130E-03
            1836     11.9727E-03     34.7553E-03    -23.3796E+06     620.169E+03     30.5764E+06     124.621E+03    -52.3023E-03     103.554E-03    -51.2514E-03     48.9638E-03    -52.6174E-03     103.699E-03    -51.0655E-03     48.5029E-03
            1837     11.1182E-03     34.7038E-03    -27.2756E+06    -21.4778E+06     23.7494E+06     130.579E+03    -52.3177E-03     103.508E-03    -51.1899E-03     52.3949E-03    -52.6104E-03     103.558E-03    -51.0005E-03     51.9417E-03
            1838     10.2637E-03     34.6497E-03    -31.2921E+06    -41.7913E+06     17.8360E+06     130.836E+03    -52.2715E-03     103.401E-03    -51.1292E-03     54.1213E-03    -52.5375E-03     103.355E-03    -50.9340E-03     53.6873E-03
            1839     9.40899E-03     34.5946E-03    -35.4670E+06    -59.5524E+06     11.2954E+06     129.838E+03    -52.1652E-03     103.227E-03    -51.0619E-03     54.3283E-03    -52.4012E-03     103.093E-03    -50.8676E-03     53.9246E-03
            1840     8.55419E-03     34.5400E-03    -39.8181E+06    -78.3305E+06     4.68647E+06     119.021E+03    -52.0192E-03     103.017E-03    -50.9973E-03     53.2245E-03    -52.2208E-03     102.785E-03    -50.8025E-03     52.8588E-03
            1841     7.69925E-03     34.4869E-03    -44.4104E+06    -94.9319E+06    -1.96198E+06     99.2898E+03    -51.8354E-03     102.767E-03    -50.9320E-03     51.0447E-03    -52.0057E-03     102.449E-03    -50.7398E-03     50.7215E-03
            1842     6.84419E-03     34.4366E-03    -49.3143E+06    -111.126E+06    -8.79783E+06     73.3021E+03    -51.6236E-03     102.493E-03    -50.8694E-03     47.9008E-03    -51.7656E-03     102.091E-03    -50.6808E-03     47.6216E-03
            1843     5.98899E-03     34.3899E-03    -54.5986E+06    -126.397E+06    -16.2376E+06     39.2279E+03    -51.3907E-03     102.199E-03    -50.8085E-03     43.9170E-03    -51.5087E-03     101.722E-03    -50.6273E-03     43.6813E-03
            1844     5.13365E-03     34.3475E-03    -60.3079E+06    -142.262E+06    -24.6939E+06     17.2285E+03    -51.1614E-03     101.913E-03    -50.7514E-03     39.1982E-03    -51.2578E-03     101.362E-03    -50.5811E-03     39.0043E-03
            1845     4.27821E-03     34.3103E-03    -66.4119E+06    -156.223E+06    -35.0034E+06     17.1949E+03    -50.9484E-03     101.639E-03    -50.6910E-03     33.8361E-03    -51.0280E-03     101.030E-03    -50.5432E-03     33.6815E-03
            1846     3.42266E-03     34.2788E-03    -72.6521E+06    -167.182E+06    -47.8354E+06     17.7549E+03    -50.7629E-03     101.385E-03    -50.6226E-03     27.9110E-03    -50.8299E-03     100.740E-03    -50.5140E-03     27.7926E-03
            1847     2.56705E-03     34.2536E-03    -78.4819E+06    -177.898E+06    -62.1369E+06     24.5307E+03    -50.6222E-03     101.176E-03    -50.5540E-03     21.5038E-03    -50.6751E-03     100.499E-03    -50.4929E-03     21.4184E-03
            1848     1.71139E-03     34.2351E-03    -83.2654E+06    -187.049E+06    -75.0097E+06     46.8028E+03    -50.5236E-03     101.019E-03    -50.4957E-03     14.7666E-03    -50.5639E-03     100.317E-03    -50.4787E-03     14.7112E-03
            1849     855.698E-06     34.2236E-03    -86.4888E+06    -193.259E+06    -84.1687E+06     45.5770E+03    -50.4924E-03     100.921E-03    -50.4285E-03     8.12305E-03    -50.5238E-03     100.203E-03    -50.4437E-03     8.09385E-03
            1850     16.2444E-03     33.8629E-03    -4.25210E+06     113.845E+06     75.1945E+06     101.681E+03    -52.0030E-03     103.550E-03    -51.5468E-03     5.54543E-03    -52.3449E-03     104.063E-03    -51.3297E-03     5.20295E-03
            1851     15.3903E-03     33.8499E-03    -8.29684E+06     109.256E+06     61.3612E+06      89.154E+03    -52.0292E-03     103.465E-03    -51.4357E-03     18.8924E-03    -52.4016E-03     104.018E-03    -51.2752E-03     18.4697E-03
            1852     14.5361E-03     33.8253E-03    -12.1692E+06     99.3473E+06     53.4959E+06     113.357E+03    -52.0835E-03     103.441E-03    -51.3579E-03     29.0853E-03    -52.4711E-03     103.983E-03    -51.2169E-03     28.6551E-03
            1853     13.6819E-03     33.7917E-03    -15.9582E+06     64.0312E+06     44.6226E+06     137.123E+03    -52.2155E-03     103.523E-03    -51.3075E-03     36.9985E-03    -52.5798E-03     103.929E-03    -51.1540E-03     36.5503E-03
            1854     12.8277E-03     33.7510E-03    -19.6343E+06     21.2066E+06     34.7323E+06     139.722E+03    -52.3689E-03     103.625E-03    -51.2563E-03     43.4436E-03    -52.6910E-03     103.852E-03    -51.0849E-03     42.9852E-03
            1855     11.9734E-03     33.7042E-03    -23.3785E+06     640.370E+03     30.5499E+06     142.989E+03    -52.4005E-03     103.597E-03    -51.1966E-03     48.5988E-03    -52.7142E-03     103.741E-03    -51.0108E-03     48.1387E-03
            1856     11.1190E-03     33.6529E-03    -27.2765E+06    -21.4483E+06     23.7227E+06     145.098E+03    -52.3980E-03     103.521E-03    -51.1233E-03     51.9968E-03    -52.6893E-03     103.571E-03    -50.9340E-03     51.5447E-03
            1857     10.2645E-03     33.5991E-03    -31.2924E+06    -41.7605E+06     17.8080E+06     147.052E+03    -52.3279E-03     103.378E-03    -51.0504E-03     53.6948E-03    -52.5925E-03     103.332E-03    -50.8554E-03     53.2624E-03
            1858     9.40985E-03     33.5443E-03    -35.4714E+06    -59.5048E+06     11.2646E+06     137.994E+03    -52.1951E-03     103.166E-03    -50.9709E-03     53.8861E-03    -52.4298E-03     103.031E-03    -50.7769E-03     53.4842E-03
            1859     8.55506E-03     33.4899E-03    -39.8255E+06    -78.2840E+06     4.65168E+06     128.961E+03    -52.0238E-03     102.918E-03    -50.8944E-03     52.7857E-03    -52.2241E-03     102.686E-03    -50.6999E-03     52.4219E-03
            1860     7.70013E-03     33.4372E-03    -44.4113E+06    -94.8757E+06    -1.99783E+06     118.336E+03    -51.8139E-03     102.631E-03    -50.8174E-03     50.6181E-03    -51.9833E-03     102.312E-03    -50.6254E-03     50.2971E-03
            1861     6.84505E-03     33.3872E-03    -49.3119E+06    -111.060E+06    -8.83169E+06     96.8981E+03    -51.5747E-03     102.318E-03    -50.7436E-03     47.4905E-03    -51.7159E-03     101.916E-03    -50.5552E-03     47.2136E-03
            1862     5.98981E-03     33.3408E-03    -54.6019E+06    -126.320E+06    -16.2643E+06     60.6161E+03    -51.3160E-03     101.988E-03    -50.6723E-03     43.5340E-03    -51.4334E-03     101.511E-03    -50.4913E-03     43.3004E-03
            1863     5.13440E-03     33.2987E-03    -60.3266E+06    -142.223E+06    -24.7346E+06     23.2051E+03    -51.0634E-03     101.669E-03    -50.6056E-03     38.8549E-03    -51.1594E-03     101.118E-03    -50.4356E-03     38.6627E-03
            1864     4.27887E-03     33.2617E-03    -66.4323E+06    -156.215E+06    -35.0632E+06     10.3509E+03    -50.8287E-03     101.365E-03    -50.5366E-03     33.5392E-03    -50.9080E-03     100.756E-03    -50.3891E-03     33.3860E-03
            1865     3.42322E-03     33.2304E-03    -72.6651E+06    -167.172E+06    -47.8742E+06     18.1618E+03    -50.6233E-03     101.084E-03    -50.4611E-03     27.6651E-03    -50.6900E-03     100.439E-03    -50.3527E-03     27.5479E-03
            1866     2.56748E-03     33.2054E-03    -78.5015E+06    -177.901E+06    -62.1492E+06     37.2241E+03    -50.4668E-03     100.854E-03    -50.3872E-03     21.3133E-03    -50.5197E-03     100.177E-03    -50.3262E-03     21.2288E-03
            1867     1.71168E-03     33.1870E-03    -83.3164E+06    -187.011E+06    -74.9864E+06     36.1263E+03    -50.3580E-03     100.683E-03    -50.3251E-03     14.6348E-03    -50.3985E-03     99.9815E-03    -50.3081E-03     14.5799E-03
            1868     855.853E-06     33.1756E-03    -86.5787E+06    -193.209E+06    -84.1812E+06     34.2904E+03    -50.3207E-03     100.575E-03    -50.2548E-03     8.04953E-03    -50.3526E-03     99.8583E-03    -50.2700E-03     8.02052E-03
            1869     16.2445E-03     32.8106E-03    -4.06681E+06     113.793E+06     75.1581E+06     161.183E+03    -52.1641E-03     103.702E-03    -51.5383E-03     5.40118E-03    -52.5045E-03     104.214E-03    -51.3216E-03     5.05876E-03
            1870     15.3905E-03     32.7978E-03    -8.17239E+06     109.327E+06     61.4078E+06     177.797E+03    -52.1829E-03     103.601E-03    -51.4183E-03     18.6822E-03    -52.5542E-03     104.154E-03    -51.2579E-03     18.2599E-03
            1871     14.5365E-03     32.7733E-03    -12.0841E+06     99.3508E+06     53.4977E+06     111.751E+03    -52.2301E-03     103.561E-03    -51.3305E-03     28.8098E-03    -52.6164E-03     104.102E-03    -51.1896E-03     28.3791E-03
            1872     13.6824E-03     32.7399E-03    -15.9099E+06     64.0475E+06     44.6116E+06     118.856E+03    -52.3538E-03     103.623E-03    -51.2691E-03     36.6785E-03    -52.7168E-03     104.027E-03    -51.1159E-03     36.2299E-03
            1873     12.8283E-03     32.6994E-03    -19.6235E+06     21.2206E+06     34.7031E+06     152.123E+03    -52.4968E-03     103.703E-03    -51.2061E-03     43.0803E-03    -52.8175E-03     103.929E-03    -51.0349E-03     42.6223E-03
            1874     11.9741E-03     32.6529E-03    -23.3647E+06     668.895E+03     30.5251E+06     160.407E+03    -52.5128E-03     103.646E-03    -51.1336E-03     48.1934E-03    -52.8250E-03     103.789E-03    -50.9481E-03     47.7342E-03
            1875     11.1198E-03     32.6020E-03    -27.2567E+06    -21.4186E+06     23.6955E+06     166.797E+03    -52.4878E-03     103.535E-03    -51.0469E-03     51.5541E-03    -52.7774E-03     103.583E-03    -50.8579E-03     51.1034E-03
            1876     10.2654E-03     32.5485E-03    -31.2742E+06    -41.7212E+06     17.7805E+06     168.696E+03    -52.3896E-03     103.350E-03    -50.9604E-03     53.2240E-03    -52.6525E-03     103.302E-03    -50.7657E-03     52.7934E-03
            1877     9.41082E-03     32.4940E-03    -35.4582E+06    -59.4489E+06     11.2351E+06     162.601E+03    -52.2272E-03     103.095E-03    -50.8674E-03     53.4042E-03    -52.4604E-03     102.958E-03    -50.6736E-03     53.0044E-03
            1878     8.55607E-03     32.4400E-03    -39.8229E+06    -78.2334E+06     4.61576E+06     149.155E+03    -52.0251E-03     102.803E-03    -50.7776E-03     52.3084E-03    -52.2242E-03     102.569E-03    -50.5833E-03     51.9470E-03
            1879     7.70114E-03     32.3877E-03    -44.4157E+06    -94.8250E+06    -2.04849E+06     138.409E+03    -51.7805E-03     102.469E-03    -50.6880E-03     50.1511E-03    -51.9488E-03     102.148E-03    -50.4964E-03     49.8325E-03
            1880     6.84602E-03     32.3380E-03    -49.3149E+06    -110.991E+06    -8.89768E+06     128.027E+03    -51.5085E-03     102.111E-03    -50.6028E-03     47.0451E-03    -51.6487E-03     101.708E-03    -50.4148E-03     46.7707E-03
            1881     5.99071E-03     32.2919E-03    -54.6031E+06    -126.230E+06    -16.3076E+06     94.2147E+03    -51.2256E-03     101.747E-03    -50.5213E-03     43.1249E-03    -51.3423E-03     101.269E-03    -50.3407E-03     42.8938E-03
            1882     5.13524E-03     32.2501E-03    -60.3238E+06    -142.152E+06    -24.7575E+06     43.9151E+03    -50.9525E-03     101.398E-03    -50.4450E-03     38.4894E-03    -51.0481E-03     100.846E-03    -50.2752E-03     38.2992E-03
            1883     4.27961E-03     32.2134E-03    -66.4438E+06    -156.204E+06    -35.0818E+06     19.0987E+03    -50.6954E-03     101.063E-03    -50.3673E-03     33.2250E-03    -50.7744E-03     100.453E-03    -50.2199E-03     33.0734E-03
            1884     3.42383E-03     32.1824E-03    -72.7058E+06    -167.171E+06    -47.8759E+06     30.7057E+03    -50.4696E-03     100.754E-03    -50.2844E-03     27.4083E-03    -50.5364E-03     100.108E-03    -50.1760E-03     27.2925E-03
            1885     2.56796E-03     32.1575E-03    -78.5327E+06    -177.876E+06    -62.1449E+06     21.9519E+03    -50.2976E-03     100.502E-03    -50.2044E-03     21.1156E-03    -50.3506E-03     99.8250E-03    -50.1434E-03     21.0319E-03
            1886     1.71201E-03     32.1393E-03    -83.3082E+06    -186.989E+06    -74.9821E+06     8.84433E+03    -50.1769E-03     100.315E-03    -50.1378E-03     14.4990E-03    -50.2174E-03     99.6130E-03    -50.1208E-03     14.4443E-03
            1887     856.014E-06     32.1279E-03    -86.5575E+06    -193.163E+06    -84.1565E+06    -7.94583E+03    -50.1330E-03     100.197E-03    -50.0638E-03     7.97473E-03    -50.1649E-03     99.4797E-03    -50.0790E-03     7.94549E-03
            1888     16.2447E-03     31.7581E-03    -4.17392E+06     113.659E+06     75.0777E+06     146.377E+03    -52.3464E-03     103.875E-03    -51.5289E-03     5.24174E-03    -52.6867E-03     104.387E-03    -51.3122E-03     4.89826E-03
            1889     15.3908E-03     31.7454E-03    -8.09715E+06     109.398E+06     61.4242E+06     203.767E+03    -52.3594E-03     103.758E-03    -51.3983E-03     18.4513E-03    -52.7298E-03     104.309E-03    -51.2380E-03     18.0285E-03
            1890     14.5370E-03     31.7212E-03    -11.9689E+06     99.4176E+06     53.5249E+06     186.308E+03    -52.3975E-03     103.697E-03    -51.2991E-03     28.5075E-03    -52.7823E-03     104.237E-03    -51.1582E-03     28.0774E-03
            1891     13.6830E-03     31.6880E-03    -15.8646E+06     64.0645E+06     44.5960E+06     170.385E+03    -52.5118E-03     103.737E-03    -51.2252E-03     36.3278E-03    -52.8733E-03     104.140E-03    -51.0721E-03     35.8797E-03
            1892     12.8290E-03     31.6478E-03    -19.5951E+06     21.2470E+06     34.6775E+06     172.686E+03    -52.6415E-03     103.790E-03    -51.1487E-03     42.6799E-03    -52.9606E-03     104.015E-03    -50.9777E-03     42.2224E-03
            1893     11.9750E-03     31.6016E-03    -23.3374E+06     687.525E+03     30.4954E+06     179.878E+03    -52.6359E-03     103.698E-03    -51.0619E-03     47.7449E-03    -52.9463E-03     103.839E-03    -50.8766E-03     47.2867E-03
            1894     11.1208E-03     31.5510E-03    -27.2313E+06    -21.3837E+06     23.6658E+06     194.514E+03    -52.5812E-03     103.542E-03    -50.9606E-03     51.0657E-03    -52.8690E-03     103.588E-03    -50.7718E-03     50.6166E-03
            1895     10.2664E-03     31.4979E-03    -31.2502E+06    -41.6786E+06     17.7498E+06     200.843E+03    -52.4497E-03     103.309E-03    -50.8595E-03     52.7128E-03    -52.7107E-03     103.260E-03    -50.6650E-03     52.2844E-03
            1896     9.41191E-03     31.4438E-03    -35.4341E+06    -59.3897E+06     11.2052E+06     196.480E+03    -52.2551E-03     103.007E-03    -50.7521E-03     52.8918E-03    -52.4866E-03     102.870E-03    -50.5586E-03     52.4945E-03
            1897     8.55719E-03     31.3902E-03    -39.8003E+06    -78.1743E+06     4.58685E+06     188.843E+03    -52.0189E-03     102.667E-03    -50.6484E-03     51.8054E-03    -52.2165E-03     102.433E-03    -50.4544E-03     51.4466E-03
            1898     7.70225E-03     31.3383E-03    -44.4045E+06    -94.7589E+06    -2.07612E+06     171.292E+03    -51.7369E-03     102.283E-03    -50.5459E-03     49.6600E-03    -51.9040E-03     101.962E-03    -50.3545E-03     49.3442E-03
            1899     6.84708E-03     31.2890E-03     -49.303E+06    -110.936E+06    -8.95997E+06     158.241E+03    -51.4309E-03     101.880E-03    -50.4489E-03     46.5786E-03    -51.5701E-03     101.476E-03    -50.2614E-03     46.3069E-03
            1900     5.99170E-03     31.2433E-03    -54.5826E+06    -126.138E+06    -16.3918E+06     146.228E+03    -51.1212E-03     101.478E-03    -50.3569E-03     42.6950E-03    -51.2372E-03     101.000E-03    -50.1768E-03     42.4667E-03
            1901     5.13613E-03     31.2019E-03    -60.3395E+06    -142.058E+06    -24.7945E+06     109.135E+03    -50.8254E-03     101.097E-03    -50.2715E-03     38.0995E-03    -50.9205E-03     100.545E-03    -50.1020E-03     37.9121E-03
            1902     4.28038E-03     31.1655E-03    -66.5144E+06    -156.143E+06    -35.0224E+06     53.7146E+03    -50.5471E-03     100.733E-03    -50.1859E-03     32.8876E-03    -50.6263E-03     100.123E-03    -50.0381E-03     32.7381E-03
            1903     3.42448E-03     31.1347E-03    -72.7596E+06    -167.138E+06    -47.8276E+06    -10.9892E+03    -50.3029E-03     100.398E-03    -50.0956E-03     27.1344E-03    -50.3698E-03     99.7524E-03    -49.9869E-03     27.0194E-03
            1904     2.56846E-03     31.1101E-03    -78.5290E+06    -177.864E+06    -62.1938E+06    -30.2985E+03    -50.1157E-03     100.125E-03    -50.0092E-03     20.9076E-03    -50.1685E-03     99.4478E-03    -49.9484E-03     20.8242E-03
            1905     1.71235E-03     31.0920E-03    -83.2840E+06    -186.985E+06    -75.0271E+06    -23.0759E+03    -49.9835E-03     99.9217E-03    -49.9382E-03     14.3582E-03    -50.0238E-03     99.2201E-03    -49.9215E-03     14.3037E-03
            1906     856.191E-06     31.0807E-03    -86.5066E+06    -193.167E+06    -84.1608E+06    -40.9814E+03    -49.9332E-03     99.7945E-03    -49.8613E-03     7.89808E-03    -49.9648E-03     99.0773E-03    -49.8765E-03     7.86874E-03
            1907     16.2449E-03     30.7054E-03    -4.06935E+06     113.546E+06     75.0499E+06     131.120E+03    -52.5546E-03     104.073E-03    -51.5180E-03     5.06369E-03    -52.8938E-03     104.583E-03    -51.3015E-03     4.71903E-03
            1908     15.3912E-03     30.6929E-03    -8.15727E+06     109.369E+06     61.3882E+06     212.090E+03    -52.5580E-03     103.934E-03    -51.3755E-03     18.1972E-03    -52.9278E-03     104.485E-03    -51.2154E-03     17.7735E-03
            1909     14.5375E-03     30.6689E-03    -12.0457E+06     99.4683E+06     53.4805E+06     245.454E+03    -52.5865E-03     103.850E-03    -51.2633E-03     28.1793E-03    -52.9707E-03     104.389E-03    -51.1227E-03     27.7494E-03
            1910     13.6837E-03     30.6360E-03    -15.8521E+06     64.1587E+06     44.5895E+06     214.575E+03    -52.6882E-03     103.864E-03    -51.1755E-03     35.9497E-03    -53.0485E-03     104.266E-03    -51.0226E-03     35.5020E-03
            1911     12.8299E-03     30.5961E-03    -19.5543E+06     21.2709E+06     34.6531E+06     197.468E+03    -52.7991E-03     103.883E-03    -51.0840E-03     42.2476E-03    -53.1165E-03     104.106E-03    -50.9132E-03     41.7906E-03
            1912     11.9759E-03     30.5502E-03    -23.2985E+06     709.166E+03     30.4673E+06     213.020E+03    -52.7645E-03     103.746E-03    -50.9818E-03     47.2604E-03    -53.0730E-03     103.886E-03    -50.7967E-03     46.8034E-03
            1913     11.1219E-03     30.5000E-03    -27.1987E+06    -21.3528E+06     23.6343E+06     231.449E+03    -52.6727E-03     103.538E-03    -50.8649E-03     50.5411E-03    -52.9584E-03     103.582E-03    -50.6763E-03     50.0939E-03
            1914     10.2676E-03     30.4474E-03    -31.2209E+06    -41.6289E+06     17.7204E+06     242.580E+03    -52.5030E-03     103.252E-03    -50.7487E-03     52.1709E-03    -52.7621E-03     103.201E-03    -50.5545E-03     51.7450E-03
            1915     9.41310E-03     30.3937E-03    -35.4122E+06    -59.3330E+06     11.1750E+06     243.659E+03    -52.2717E-03     102.899E-03    -50.6269E-03     52.3528E-03    -52.5015E-03     102.760E-03    -50.4336E-03     51.9584E-03
            1916     8.55838E-03     30.3406E-03    -39.7893E+06    -78.1101E+06     4.55831E+06     242.855E+03    -51.9980E-03     102.508E-03    -50.5095E-03     51.2772E-03    -52.1941E-03     102.272E-03    -50.3158E-03     50.9216E-03
            1917     7.70342E-03     30.2891E-03    -44.4041E+06    -94.6686E+06    -2.08877E+06     225.750E+03    -51.6815E-03     102.076E-03    -50.3945E-03     49.1529E-03    -51.8475E-03     101.754E-03    -50.2033E-03     48.8402E-03
            1918     6.84821E-03     30.2403E-03    -49.3118E+06    -110.857E+06    -8.98038E+06     185.039E+03    -51.3465E-03     101.632E-03    -50.2859E-03     46.1057E-03    -51.4849E-03     101.228E-03    -50.0986E-03     45.8368E-03
            1919     5.99276E-03     30.1949E-03    -54.5743E+06    -126.111E+06    -16.4653E+06     189.199E+03    -51.0086E-03     101.192E-03    -50.1831E-03     42.2622E-03    -51.1237E-03     100.713E-03    -50.0034E-03     42.0366E-03
            1920     5.13708E-03     30.1539E-03    -60.2996E+06    -141.953E+06    -24.7882E+06     214.035E+03    -50.6873E-03     100.776E-03    -50.0885E-03     37.7063E-03    -50.7818E-03     100.224E-03    -49.9192E-03     37.5222E-03
            1921     4.28122E-03     30.1179E-03    -66.4664E+06    -155.932E+06    -34.8596E+06     88.1929E+03    -50.3888E-03     100.384E-03    -49.9952E-03     32.5426E-03    -50.4679E-03     99.7747E-03    -49.8470E-03     32.3952E-03
            1922     3.42517E-03     30.0874E-03    -72.7574E+06    -167.086E+06    -47.8481E+06    -48.4755E+03    -50.1263E-03     100.024E-03    -49.8972E-03     26.8485E-03    -50.1930E-03     99.3775E-03    -49.7886E-03     26.7342E-03
            1923     2.56899E-03     30.0630E-03    -78.6025E+06    -177.905E+06    -62.3042E+06    -56.2033E+03    -49.9231E-03     99.7281E-03    -49.8050E-03     20.6893E-03    -49.9758E-03     99.0509E-03    -49.7446E-03     20.6065E-03
            1924     1.71271E-03     30.0451E-03    -83.4004E+06    -186.973E+06    -75.0332E+06    -58.5604E+03    -49.7805E-03     99.5112E-03    -49.7307E-03     14.2089E-03    -49.8213E-03     98.8097E-03    -49.7138E-03     14.1546E-03
            1925     856.371E-06     30.0340E-03    -86.6956E+06    -193.250E+06    -84.2832E+06    -25.6728E+03    -49.7245E-03     99.3747E-03    -49.6502E-03     7.81480E-03    -49.7567E-03     98.6575E-03    -49.6657E-03     7.78602E-03
            1926     16.2450E-03     29.6525E-03    -4.18348E+06     113.381E+06     74.9405E+06     166.086E+03    -52.7897E-03     104.296E-03    -51.5058E-03     4.86588E-03    -53.1286E-03     104.805E-03    -51.2895E-03     4.52055E-03
            1927     15.3916E-03     29.6401E-03    -8.18293E+06     109.338E+06     61.3451E+06     271.303E+03    -52.7815E-03     104.131E-03    -51.3499E-03     17.9188E-03    -53.1505E-03     104.682E-03    -51.1898E-03     17.4949E-03
            1928     14.5380E-03     29.6165E-03    -12.0320E+06     99.5502E+06     53.4729E+06     232.977E+03    -52.7958E-03     104.019E-03    -51.2232E-03     27.8239E-03    -53.1789E-03     104.558E-03    -51.0827E-03     27.3931E-03
            1929     13.6844E-03     29.5838E-03    -15.8222E+06     64.2344E+06     44.5812E+06     209.341E+03    -52.8784E-03     103.998E-03    -51.1201E-03     35.5424E-03    -53.2372E-03     104.400E-03    -50.9673E-03     35.0944E-03
            1930     12.8308E-03     29.5443E-03    -19.5139E+06     21.2929E+06     34.6230E+06     237.341E+03    -52.9612E-03     103.974E-03    -51.0126E-03     41.7836E-03    -53.2767E-03     104.195E-03    -50.8421E-03     41.3275E-03
            1931     11.9770E-03     29.4988E-03    -23.2663E+06     730.847E+03     30.4330E+06     257.151E+03    -52.8886E-03     103.783E-03    -50.8944E-03     46.7457E-03    -53.1950E-03     103.921E-03    -50.7095E-03     46.2903E-03
            1932     11.1230E-03     29.4490E-03    -27.1704E+06    -21.3176E+06     23.5964E+06     281.647E+03    -52.7551E-03     103.517E-03    -50.7619E-03     49.9955E-03    -53.0388E-03     103.560E-03    -50.5736E-03     49.5506E-03
            1933     10.2688E-03     29.3969E-03    -31.2053E+06    -41.5842E+06     17.6780E+06     301.188E+03    -52.5463E-03     103.177E-03    -50.6308E-03     51.6183E-03    -52.8036E-03     103.125E-03    -50.4369E-03     51.1952E-03
            1934     9.41436E-03     29.3438E-03    -35.4154E+06    -59.2764E+06     11.1279E+06     314.320E+03    -52.2764E-03     102.771E-03    -50.4949E-03     51.8035E-03    -52.5045E-03     102.631E-03    -50.3019E-03     51.4124E-03
            1935     8.55964E-03     29.2911E-03    -39.8141E+06    -78.0350E+06     4.51169E+06     316.520E+03    -51.9646E-03     102.329E-03    -50.3645E-03     50.7356E-03    -52.1595E-03     102.093E-03    -50.1710E-03     50.3836E-03
            1936     7.70464E-03     29.2401E-03    -44.4503E+06    -94.5718E+06    -2.13559E+06     301.410E+03    -51.6164E-03     101.854E-03    -50.2374E-03     48.6318E-03    -51.7815E-03     101.532E-03    -50.0465E-03     48.3227E-03
            1937     6.84936E-03     29.1918E-03    -49.4081E+06    -110.725E+06    -9.01362E+06     258.961E+03    -51.2542E-03     101.372E-03    -50.1175E-03     45.6149E-03    -51.3922E-03     100.967E-03    -49.9304E-03     45.3494E-03
            1938     5.99383E-03     29.1469E-03    -54.7785E+06    -126.154E+06    -16.5621E+06     276.093E+03    -50.8895E-03     100.894E-03    -50.0043E-03     41.8087E-03    -51.0046E-03     100.415E-03    -49.8247E-03     41.5865E-03
            1939     5.13805E-03     29.1063E-03    -60.5334E+06    -141.749E+06    -24.9977E+06     242.775E+03    -50.5421E-03     100.442E-03    -49.8995E-03     37.3020E-03    -50.6373E-03     99.8912E-03    -49.7311E-03     37.1203E-03
            1940     4.28205E-03     29.0706E-03    -66.5957E+06    -155.637E+06    -35.0736E+06     40.0697E+03    -50.2238E-03     100.022E-03    -49.7978E-03     32.1897E-03    -50.3032E-03     99.4138E-03    -49.6509E-03     32.0433E-03
            1941     3.42587E-03     29.0405E-03    -72.8119E+06    -167.126E+06    -47.9803E+06    -27.0196E+03    -49.9459E-03     99.6393E-03    -49.6933E-03     26.5495E-03    -50.0124E-03     98.9931E-03    -49.5853E-03     26.4369E-03
            1942     2.56953E-03     29.0164E-03    -78.6877E+06    -177.856E+06    -62.2977E+06    -14.1424E+03    -49.7268E-03     99.3225E-03    -49.5957E-03     20.4581E-03    -49.7799E-03     98.6455E-03    -49.5352E-03     20.3769E-03
            1943     1.71308E-03     28.9987E-03    -83.5804E+06    -187.024E+06    -75.1557E+06    -59.6100E+03    -49.5719E-03     99.0884E-03    -49.5164E-03     14.0490E-03    -49.6133E-03     98.3870E-03    -49.4998E-03     13.9954E-03
            1944     856.559E-06     28.9876E-03    -86.8513E+06    -193.337E+06    -84.4973E+06    -46.0961E+03    -49.5102E-03     98.9416E-03    -49.4314E-03     7.72453E-03    -49.5427E-03     98.2245E-03    -49.4477E-03     7.69585E-03
            1945     16.2453E-03     28.5993E-03    -4.04268E+06     113.154E+06     74.8556E+06     159.142E+03    -53.0529E-03     104.545E-03    -51.4923E-03     4.64563E-03    -53.3901E-03     105.053E-03    -51.2762E-03     4.29901E-03
            1946     15.3920E-03     28.5872E-03    -8.03204E+06     109.331E+06     61.3326E+06     272.182E+03    -53.0282E-03     104.350E-03    -51.3215E-03     17.6191E-03    -53.3956E-03     104.899E-03    -51.1617E-03     17.1940E-03
            1947     14.5387E-03     28.5638E-03    -11.8855E+06     99.6719E+06     53.5105E+06     257.933E+03    -53.0198E-03     104.199E-03    -51.1792E-03     27.4478E-03    -53.4012E-03     104.737E-03    -51.0389E-03     27.0167E-03
            1948     13.6852E-03     28.5315E-03    -15.7419E+06     64.2524E+06     44.5601E+06     248.799E+03    -53.0735E-03     104.133E-03    -51.0599E-03     35.1147E-03    -53.4304E-03     104.533E-03    -50.9074E-03     34.6671E-03
            1949     12.8318E-03     28.4924E-03    -19.4794E+06     21.3172E+06     34.5796E+06     289.947E+03    -53.1172E-03     104.053E-03    -50.9362E-03     41.3000E-03    -53.4308E-03     104.273E-03    -50.7660E-03     40.8451E-03
            1950     11.9781E-03     28.4473E-03    -23.2382E+06     751.991E+03     30.3828E+06     317.600E+03    -52.9998E-03     103.802E-03    -50.8023E-03     46.2146E-03    -53.3041E-03     103.938E-03    -50.6177E-03     45.7613E-03
            1951     11.1242E-03     28.3981E-03    -27.1586E+06    -21.2837E+06     23.5347E+06     351.559E+03    -52.8243E-03     103.479E-03    -50.6549E-03     49.4396E-03    -53.1059E-03     103.521E-03    -50.4670E-03     48.9975E-03
            1952     10.2701E-03     28.3465E-03    -31.2059E+06    -41.5483E+06     17.6075E+06     384.272E+03    -52.5778E-03     103.087E-03    -50.5096E-03     51.0574E-03    -52.8331E-03     103.033E-03    -50.3161E-03     50.6376E-03
            1953     9.41564E-03     28.2939E-03    -35.4274E+06    -59.2168E+06     11.0530E+06     408.590E+03    -52.2719E-03     102.632E-03    -50.3601E-03     51.2433E-03    -52.4984E-03     102.491E-03    -50.1676E-03     50.8559E-03
            1954     8.56091E-03     28.2418E-03    -39.8417E+06    -77.9560E+06     4.43191E+06     422.210E+03    -51.9282E-03     102.145E-03    -50.2169E-03     50.1821E-03    -52.1217E-03     101.908E-03    -50.0240E-03     49.8340E-03
            1955     7.70587E-03     28.1914E-03    -44.5046E+06    -94.4637E+06    -2.22245E+06     412.884E+03    -51.5503E-03     101.628E-03    -50.0777E-03     48.0950E-03    -51.7145E-03     101.305E-03    -49.8873E-03     47.7899E-03
            1956     6.85055E-03     28.1436E-03    -49.5091E+06    -110.622E+06    -9.11189E+06     415.996E+03    -51.1580E-03     101.105E-03    -49.9465E-03     45.1030E-03    -51.2955E-03     100.700E-03    -49.7599E-03     44.8420E-03
            1957     5.99493E-03     28.0992E-03    -54.8941E+06    -126.111E+06    -16.6756E+06     419.902E+03    -50.7662E-03     100.589E-03    -49.8230E-03     41.3339E-03    -50.8811E-03     100.110E-03    -49.6439E-03     41.1159E-03
            1958     5.13904E-03     28.0591E-03    -60.6414E+06    -141.361E+06    -25.2200E+06     247.540E+03    -50.3939E-03     100.102E-03    -49.7081E-03     36.8796E-03    -50.4893E-03     99.5534E-03    -49.5413E-03     36.6999E-03
            1959     4.28291E-03     28.0238E-03    -66.7475E+06    -155.399E+06    -35.4848E+06     1.02857E+03    -50.0556E-03     99.6535E-03    -49.5979E-03     31.8218E-03    -50.1352E-03     99.0474E-03    -49.4532E-03     31.6766E-03
            1960     3.42658E-03     27.9940E-03    -72.9716E+06    -167.238E+06    -48.2133E+06    -35.6421E+03    -49.7634E-03     99.2513E-03    -49.4878E-03     26.2398E-03    -49.8299E-03     98.6048E-03    -49.3806E-03     26.1284E-03
            1961     2.57008E-03     27.9701E-03    -78.7972E+06    -177.796E+06    -62.3186E+06     19.4416E+03    -49.5298E-03     98.9145E-03    -49.3847E-03     20.2185E-03    -49.5834E-03     98.2379E-03    -49.3242E-03     20.1387E-03
            1962     1.71346E-03     27.9527E-03    -83.6713E+06    -187.021E+06    -75.2976E+06     12.8829E+03    -49.3626E-03     98.6626E-03    -49.3000E-03     13.8843E-03    -49.4041E-03     97.9615E-03    -49.2840E-03     13.8323E-03
            1963     856.749E-06     27.9418E-03    -87.0028E+06    -193.395E+06    -84.7112E+06    -29.3507E+03    -49.2936E-03     98.5043E-03    -49.2107E-03     7.63443E-03    -49.3265E-03     97.7875E-03    -49.2277E-03     7.60632E-03
            1964     16.2455E-03     27.5459E-03    -4.16533E+06     113.000E+06     74.7628E+06     132.955E+03    -53.3346E-03     104.813E-03    -51.4779E-03     4.39923E-03    -53.6715E-03     105.319E-03    -51.2619E-03     4.05103E-03
            1965     15.3925E-03     27.5340E-03    -8.09348E+06     109.275E+06     61.2670E+06     213.945E+03    -53.2872E-03     104.578E-03    -51.2912E-03     17.2954E-03    -53.6537E-03     105.126E-03    -51.1315E-03     16.8683E-03
            1966     14.5394E-03     27.5110E-03    -11.8984E+06     99.6951E+06     53.4489E+06     293.029E+03    -53.2493E-03     104.382E-03    -51.1324E-03     27.0475E-03    -53.6294E-03     104.918E-03    -50.9925E-03     26.6163E-03
            1967     13.6861E-03     27.4790E-03    -15.7264E+06     64.3061E+06     44.5062E+06     331.904E+03    -53.2626E-03     104.259E-03    -50.9967E-03     34.6604E-03    -53.6179E-03     104.658E-03    -50.8447E-03     34.2139E-03
            1968     12.8328E-03     27.4403E-03    -19.4534E+06     21.3305E+06     34.5068E+06     354.503E+03    -53.2578E-03     104.115E-03    -50.8574E-03     40.7917E-03    -53.5694E-03     104.333E-03    -50.6875E-03     40.3385E-03
            1969     11.9792E-03     27.3958E-03    -23.2213E+06     772.481E+03     30.3055E+06     399.054E+03    -53.0939E-03     103.803E-03    -50.7087E-03     45.6694E-03    -53.3961E-03     103.937E-03    -50.5246E-03     45.2187E-03
            1970     11.1254E-03     27.3472E-03    -27.1464E+06    -21.2560E+06     23.4469E+06     442.425E+03    -52.8798E-03     103.427E-03    -50.5474E-03     48.8789E-03    -53.1593E-03     103.467E-03    -50.3600E-03     48.4400E-03
            1971     10.2713E-03     27.2961E-03    -31.1991E+06    -41.5160E+06     17.5097E+06     485.664E+03    -52.5992E-03     102.988E-03    -50.3889E-03     50.4932E-03    -52.8526E-03     102.933E-03    -50.1959E-03     50.0771E-03
            1972     9.41690E-03     27.2442E-03    -35.4242E+06    -59.1594E+06     10.9466E+06     523.334E+03    -52.2633E-03     102.490E-03    -50.2267E-03     50.6802E-03    -52.4881E-03     102.347E-03    -50.0348E-03     50.2968E-03
            1973     8.56217E-03     27.1927E-03    -39.8366E+06    -77.8813E+06     4.32034E+06      551.32E+03    -51.8929E-03     101.964E-03    -50.0709E-03     49.6259E-03    -52.0849E-03     101.725E-03    -49.8787E-03     49.2820E-03
            1974     7.70711E-03     27.1429E-03    -44.5052E+06    -94.3562E+06    -2.34321E+06     568.618E+03    -51.4866E-03     101.406E-03    -49.9195E-03     47.5538E-03    -51.6495E-03     101.083E-03    -49.7299E-03     47.2532E-03
            1975     6.85172E-03     27.0956E-03    -49.4810E+06    -110.537E+06    -9.24314E+06     578.298E+03    -51.0658E-03     100.843E-03    -49.7769E-03     44.5861E-03    -51.2022E-03     100.438E-03    -49.5910E-03     44.3295E-03
            1976     5.99601E-03     27.0518E-03    -54.7794E+06    -125.901E+06    -16.7675E+06     514.805E+03    -50.6483E-03     100.291E-03    -49.6426E-03     40.8488E-03    -50.7620E-03     99.8118E-03    -49.4645E-03     40.6342E-03
            1977     5.14001E-03     27.0121E-03    -60.4963E+06    -140.943E+06    -25.2660E+06     336.376E+03    -50.2519E-03     99.7697E-03    -49.5178E-03     36.4321E-03    -50.3465E-03     99.2225E-03    -49.3521E-03     36.2556E-03
            1978     4.28375E-03     26.9773E-03    -66.6753E+06    -155.167E+06    -35.6171E+06     136.834E+03    -49.8916E-03     99.2905E-03    -49.3989E-03     31.4217E-03    -49.9706E-03     98.6852E-03    -49.2554E-03     31.2800E-03
            1979     3.42727E-03     26.9479E-03    -73.0176E+06    -167.273E+06    -48.4505E+06     39.4941E+03    -49.5804E-03     98.8620E-03    -49.2816E-03     25.8993E-03    -49.6465E-03     98.2156E-03    -49.1754E-03     25.7902E-03
            1980     2.57061E-03     26.9244E-03    -78.9260E+06    -177.797E+06    -62.4790E+06     39.0738E+03    -49.3314E-03     98.5043E-03    -49.1729E-03     19.9496E-03    -49.3853E-03     97.8279E-03    -49.1130E-03     19.8712E-03
            1981     1.71382E-03     26.9071E-03    -83.7989E+06    -186.967E+06    -75.3515E+06     65.3070E+03    -49.1526E-03     98.2366E-03    -49.0840E-03     13.6969E-03    -49.1947E-03     97.5360E-03    -49.0681E-03     13.6463E-03
            1982     856.933E-06     26.8963E-03    -87.1048E+06    -193.347E+06    -84.7857E+06     59.9347E+03    -49.0765E-03     98.0673E-03    -48.9908E-03     7.52995E-03    -49.1098E-03     97.3510E-03    -49.0081E-03     7.50339E-03
            1983     16.2458E-03     26.4922E-03    -4.04705E+06     112.910E+06     74.7628E+06     136.701E+03    -53.6314E-03     105.094E-03    -51.4630E-03     4.12373E-03    -53.9669E-03     105.600E-03    -51.2470E-03     3.77434E-03
            1984     15.3930E-03     26.4806E-03    -8.09983E+06     109.198E+06     61.2137E+06     212.647E+03    -53.5525E-03     104.812E-03    -51.2597E-03     16.9399E-03    -53.9178E-03     105.359E-03    -51.1002E-03     16.5117E-03
            1985     14.5401E-03     26.4579E-03    -11.9646E+06     99.6210E+06     53.3209E+06     292.977E+03    -53.4746E-03     104.559E-03    -51.0842E-03     26.6137E-03    -53.8534E-03     105.094E-03    -50.9447E-03     26.1820E-03
            1986     13.6870E-03     26.4264E-03    -15.7512E+06     64.3563E+06     44.4123E+06     371.419E+03    -53.4372E-03     104.370E-03    -50.9327E-03     34.1712E-03    -53.7909E-03     104.767E-03    -50.7811E-03     33.7256E-03
            1987     12.8338E-03     26.3883E-03    -19.4575E+06     21.3357E+06     34.3944E+06     434.164E+03    -53.3789E-03     104.158E-03    -50.7786E-03     40.2536E-03    -53.6884E-03     104.374E-03    -50.6094E-03     39.8026E-03
            1988     11.9804E-03     26.3444E-03    -23.2196E+06     786.985E+03     30.1936E+06     485.894E+03    -53.1696E-03     103.786E-03    -50.6166E-03     45.1057E-03    -53.4697E-03     103.919E-03    -50.4331E-03     44.6579E-03
            1989     11.1266E-03     26.2963E-03    -27.1344E+06    -21.2344E+06     23.3259E+06     542.835E+03    -52.9207E-03     103.363E-03    -50.4428E-03     48.3062E-03    -53.1981E-03     103.402E-03    -50.2561E-03     47.8707E-03
            1990     10.2725E-03     26.2459E-03    -31.1803E+06    -41.4862E+06     17.3824E+06     600.244E+03    -52.6130E-03     102.885E-03    -50.2722E-03     49.9196E-03    -52.8644E-03     102.828E-03    -50.0799E-03     49.5073E-03
            1991     9.41811E-03     26.1946E-03    -35.3983E+06    -59.1104E+06     10.8091E+06     651.394E+03    -52.2554E-03     102.353E-03    -50.0978E-03     50.1070E-03    -52.4783E-03     102.209E-03    -49.9067E-03     49.7277E-03
            1992     8.56337E-03     26.1438E-03    -39.8088E+06    -77.8121E+06     4.17350E+06     698.927E+03    -51.8618E-03     101.792E-03    -49.9298E-03     49.0496E-03    -52.0522E-03     101.552E-03    -49.7384E-03     48.7102E-03
            1993     7.70828E-03     26.0946E-03    -44.4580E+06    -94.2550E+06    -2.50423E+06     731.945E+03    -51.4303E-03     101.196E-03    -49.7660E-03     46.9813E-03    -51.5917E-03     100.873E-03    -49.5774E-03     46.6853E-03
            1994     6.85284E-03     26.0479E-03    -49.4028E+06    -110.383E+06    -9.40290E+06      720.08E+03    -50.9858E-03     100.597E-03    -49.6111E-03     44.0288E-03    -51.1207E-03     100.192E-03    -49.4264E-03     43.7764E-03
            1995     5.99707E-03     26.0047E-03    -54.7392E+06    -125.625E+06    -16.9210E+06     643.408E+03    -50.5428E-03     100.008E-03    -49.4649E-03     40.3166E-03    -50.6556E-03     99.5293E-03    -49.2880E-03     40.1059E-03
            1996     5.14098E-03     25.9656E-03    -60.5272E+06    -140.587E+06    -25.4287E+06     503.466E+03    -50.1189E-03     99.4478E-03    -49.3288E-03     35.9396E-03    -50.2134E-03     98.9020E-03    -49.1644E-03     35.7674E-03
            1997     4.28461E-03     25.9312E-03    -66.7086E+06    -154.893E+06    -35.7320E+06     341.434E+03    -49.7331E-03     98.9334E-03    -49.2003E-03     30.9837E-03    -49.8121E-03     98.3292E-03    -49.0576E-03     30.8464E-03
            1998     3.42800E-03     25.9022E-03    -73.0141E+06    -167.154E+06    -48.5662E+06     222.961E+03    -49.3998E-03     98.4743E-03    -49.0746E-03     25.5276E-03    -49.4655E-03     97.8283E-03    -48.9691E-03     25.4224E-03
            1999     2.57117E-03     25.8790E-03    -78.9427E+06    -177.730E+06    -62.6355E+06     157.546E+03    -49.1328E-03     98.0918E-03    -48.9590E-03     19.6560E-03    -49.1864E-03     97.4159E-03    -48.9000E-03     19.5802E-03
            2000     1.71420E-03     25.8620E-03    -83.8836E+06    -186.882E+06    -75.4485E+06     101.891E+03    -48.9411E-03     97.8065E-03    -48.8654E-03     13.4915E-03    -48.9835E-03     97.1065E-03    -48.8501E-03     13.4421E-03
            2001     857.129E-06     25.8514E-03    -87.1724E+06    -193.219E+06    -84.8066E+06     62.0872E+03    -48.8578E-03     97.6258E-03    -48.7681E-03     7.41526E-03    -48.8916E-03     96.9102E-03    -48.7855E-03     7.38913E-03
            2002     16.2460E-03     25.4381E-03    -4.11195E+06     112.766E+06     74.7223E+06     142.452E+03    -53.9348E-03     105.383E-03    -51.4482E-03     3.81267E-03    -54.2698E-03     105.887E-03    -51.2322E-03     3.46222E-03
            2003     15.3935E-03     25.4269E-03    -8.06731E+06     109.131E+06     61.1434E+06     257.475E+03    -53.8170E-03     105.045E-03    -51.2279E-03     16.5424E-03    -54.1807E-03     105.590E-03    -51.0687E-03     16.1138E-03
            2004     14.5408E-03     25.4047E-03    -11.9222E+06     99.5504E+06     53.2078E+06     330.638E+03    -53.6840E-03     104.720E-03    -51.0363E-03     26.1403E-03    -54.0608E-03     105.254E-03    -50.8973E-03     25.7091E-03
            2005     13.6879E-03     25.3737E-03    -15.7725E+06     64.3509E+06     44.2784E+06     419.676E+03    -53.5872E-03     104.457E-03    -50.8701E-03     33.6531E-03    -53.9390E-03     104.853E-03    -50.7191E-03     33.2088E-03
            2006     12.8348E-03     25.3361E-03    -19.4790E+06     21.3409E+06     34.2490E+06     495.288E+03    -53.4763E-03     104.179E-03    -50.7030E-03     39.7064E-03    -53.7838E-03     104.394E-03    -50.5345E-03     39.2576E-03
            2007     11.9814E-03     25.2929E-03    -23.2103E+06     780.834E+03     30.0514E+06     564.782E+03    -53.2284E-03     103.758E-03    -50.5294E-03     44.5527E-03    -53.5263E-03     103.889E-03    -50.3466E-03     44.1077E-03
            2008     11.1277E-03     25.2455E-03    -27.1131E+06    -21.2233E+06     23.1751E+06     645.583E+03    -52.9552E-03     103.300E-03    -50.3444E-03     47.7466E-03    -53.2305E-03     103.336E-03    -50.1584E-03     47.3146E-03
            2009     10.2737E-03     25.1958E-03    -31.1484E+06    -41.4729E+06     17.2208E+06     723.983E+03    -52.6317E-03     102.794E-03    -50.1623E-03     49.3462E-03    -52.8810E-03     102.736E-03    -49.9709E-03     48.9377E-03
            2010     9.41926E-03     25.1451E-03    -35.3575E+06    -59.0670E+06     10.6380E+06     797.222E+03    -52.2565E-03     102.232E-03    -49.9758E-03     49.5147E-03    -52.4774E-03     102.087E-03    -49.7857E-03     49.1396E-03
            2011     8.56452E-03     25.0950E-03    -39.7548E+06    -77.7490E+06     3.99193E+06     863.324E+03    -51.8405E-03     101.636E-03    -49.7952E-03     48.4418E-03    -52.0290E-03     101.395E-03    -49.6048E-03     48.1069E-03
            2012     7.70942E-03     25.0465E-03    -44.3895E+06    -94.1296E+06    -2.70257E+06     900.192E+03    -51.3871E-03     101.005E-03    -49.6183E-03     46.3773E-03    -51.5467E-03     100.681E-03    -49.4310E-03     46.0859E-03
            2013     6.85395E-03     25.0005E-03    -49.3414E+06    -110.200E+06    -9.60926E+06     903.946E+03    -50.9193E-03     100.370E-03    -49.4503E-03     43.4414E-03    -51.0529E-03     99.9647E-03    -49.2670E-03     43.1938E-03
            2014     5.99812E-03     24.9578E-03    -54.6897E+06    -125.352E+06    -17.1245E+06     869.824E+03    -50.4485E-03     99.7395E-03    -49.2910E-03     39.7564E-03    -50.5604E-03     99.2619E-03    -49.1155E-03     39.5508E-03
            2015     5.14194E-03     24.9193E-03    -60.4834E+06    -140.209E+06    -25.6270E+06     742.838E+03    -49.9952E-03     99.1377E-03    -49.1425E-03     35.4230E-03    -50.0890E-03     98.5934E-03    -48.9797E-03     35.2558E-03
            2016     4.28546E-03     24.8855E-03    -66.6791E+06    -154.566E+06    -35.8592E+06     563.473E+03    -49.5817E-03     98.5850E-03    -49.0033E-03     30.5239E-03    -49.6603E-03     97.9822E-03    -48.8618E-03     30.3912E-03
            2017     3.42870E-03     24.8569E-03    -73.0098E+06    -166.925E+06    -48.5808E+06     431.902E+03    -49.2241E-03     98.0929E-03    -48.8688E-03     25.1362E-03    -49.2899E-03     97.4478E-03    -48.7638E-03     25.0352E-03
            2018     2.57172E-03     24.8341E-03    -78.9351E+06    -177.516E+06    -62.6456E+06     326.067E+03    -48.9369E-03     97.6823E-03    -48.7454E-03     19.3460E-03    -48.9906E-03     97.0073E-03    -48.6868E-03     19.2735E-03
            2019     1.71457E-03     24.8173E-03     -83.849E+06    -186.675E+06    -75.5036E+06     200.195E+03    -48.7299E-03     97.3756E-03    -48.6457E-03     13.2736E-03    -48.7723E-03     96.6766E-03    -48.6310E-03     13.2263E-03
            2020     857.317E-06     24.8069E-03    -87.2061E+06    -193.045E+06    -84.8768E+06     67.8757E+03    -48.6376E-03     97.1815E-03    -48.5438E-03     7.29351E-03    -48.6717E-03     96.4668E-03    -48.5619E-03     7.26786E-03
            2021     16.2462E-03     24.3838E-03    -4.07976E+06     112.606E+06     74.6861E+06     133.541E+03    -54.2317E-03     105.666E-03    -51.4341E-03     3.47077E-03    -54.5654E-03     106.168E-03    -51.2180E-03     3.11932E-03
            2022     15.3939E-03     24.3729E-03    -8.09139E+06     108.996E+06     61.0356E+06     276.349E+03    -54.0620E-03     105.260E-03    -51.1976E-03     16.1133E-03    -54.4242E-03     105.803E-03    -51.0388E-03     15.6844E-03
            2023     14.5415E-03     24.3513E-03    -11.9690E+06     99.4811E+06     53.0522E+06     420.037E+03    -53.8626E-03     104.854E-03    -50.9913E-03     25.6490E-03    -54.2378E-03     105.386E-03    -50.8530E-03     25.2193E-03
            2024     13.6887E-03     24.3209E-03    -15.7973E+06     64.3787E+06     44.1321E+06     479.811E+03    -53.7050E-03     104.518E-03    -50.8127E-03     33.1371E-03    -54.0551E-03     104.912E-03    -50.6624E-03     32.6946E-03
            2025     12.8357E-03     24.2840E-03    -19.4863E+06     21.3171E+06     34.0738E+06     540.608E+03    -53.5505E-03     104.185E-03    -50.6348E-03     39.1753E-03    -53.8560E-03     104.399E-03    -50.4671E-03     38.7285E-03
            2026     11.9823E-03     24.2414E-03    -23.2097E+06     753.349E+03     29.8745E+06     637.816E+03    -53.2775E-03     103.729E-03    -50.4513E-03     44.0223E-03    -53.5734E-03     103.858E-03    -50.2693E-03     43.5800E-03
            2027     11.1287E-03     24.1947E-03    -27.0868E+06    -21.2409E+06     22.9894E+06     743.337E+03    -52.9970E-03     103.253E-03    -50.2559E-03     47.2099E-03    -53.2702E-03     103.288E-03    -50.0709E-03     46.7808E-03
            2028     10.2747E-03     24.1457E-03    -31.0952E+06    -41.4842E+06     17.0299E+06     852.812E+03    -52.6694E-03     102.732E-03    -50.0621E-03     48.7807E-03    -52.9165E-03     102.672E-03    -49.8717E-03     48.3756E-03
            2029     9.42032E-03     24.0957E-03    -35.2850E+06    -59.0375E+06     10.4383E+06     955.218E+03    -52.2787E-03     102.141E-03    -49.8624E-03     48.9086E-03    -52.4974E-03     101.995E-03    -49.6735E-03     48.5376E-03
            2030     8.56560E-03     24.0463E-03    -39.6668E+06    -77.6826E+06     3.78537E+06     1.04190E+06    -51.8412E-03     101.509E-03    -49.6679E-03     47.8029E-03    -52.0275E-03     101.268E-03    -49.4789E-03     47.4726E-03
            2031     7.71048E-03     23.9985E-03    -44.2883E+06    -93.9967E+06    -2.92774E+06     1.10122E+06    -51.3642E-03     100.841E-03    -49.4766E-03     45.7221E-03    -51.5218E-03     100.516E-03    -49.2907E-03     45.4357E-03
            2032     6.85499E-03     23.9532E-03    -49.2311E+06    -110.039E+06    -9.84998E+06     1.14973E+06    -50.8676E-03     100.161E-03    -49.2937E-03     42.7836E-03    -50.9993E-03     99.7563E-03    -49.1121E-03     42.5416E-03
            2033     5.99911E-03     23.9113E-03    -54.5791E+06    -125.075E+06    -17.3602E+06     1.15665E+06    -50.3653E-03     99.4853E-03    -49.1200E-03     39.1160E-03    -50.4757E-03     99.0082E-03    -48.9463E-03     38.9166E-03
            2034     5.14287E-03     23.8733E-03    -60.3673E+06    -139.761E+06    -25.8457E+06     1.04310E+06    -49.8805E-03     98.8383E-03    -48.9578E-03     34.8235E-03    -49.9734E-03     98.2957E-03    -48.7968E-03     34.6625E-03
            2035     4.28628E-03     23.8401E-03    -66.5538E+06    -154.144E+06    -35.9629E+06      844.93E+03    -49.4367E-03     98.2435E-03    -48.8068E-03     29.9868E-03    -49.5146E-03     97.6422E-03    -48.6666E-03     29.8597E-03
            2036     3.42940E-03     23.8120E-03    -72.8723E+06    -166.594E+06    -48.5630E+06     674.223E+03    -49.0520E-03     97.7142E-03    -48.6622E-03     24.6798E-03    -49.1172E-03     97.0701E-03    -48.5578E-03     24.5835E-03
            2037     2.57227E-03     23.7896E-03    -78.8099E+06    -177.147E+06    -62.5646E+06     516.195E+03    -48.7421E-03     97.2722E-03    -48.5301E-03     18.9852E-03    -48.7957E-03     96.5985E-03    -48.4718E-03     18.9163E-03
            2038     1.71496E-03     23.7731E-03    -83.7676E+06    -186.335E+06    -75.4454E+06     351.870E+03    -48.5173E-03     96.9409E-03    -48.4236E-03     13.0203E-03    -48.5598E-03     96.2433E-03    -48.4092E-03     12.9757E-03
            2039     857.513E-06     23.7629E-03    -87.0911E+06    -192.702E+06    -84.8661E+06     190.062E+03    -48.4147E-03     96.7312E-03    -48.3164E-03     7.15133E-03    -48.4488E-03     96.0180E-03    -48.3350E-03     7.12773E-03
            2040     16.2464E-03     23.3291E-03    -4.11690E+06     112.413E+06     74.6445E+06     191.502E+03    -54.4942E-03     105.917E-03    -51.4223E-03     3.10246E-03    -54.8268E-03     106.417E-03    -51.2062E-03     2.75125E-03
            2041     15.3944E-03     23.3188E-03    -8.17586E+06     108.839E+06     60.9151E+06     358.580E+03    -54.2647E-03     105.437E-03    -51.1719E-03     15.6622E-03    -54.6257E-03     105.978E-03    -51.0133E-03     15.2342E-03
            2042     14.5420E-03     23.2977E-03    -12.0281E+06     99.4243E+06     52.8911E+06     448.238E+03    -53.9994E-03     104.953E-03    -50.9536E-03     25.1554E-03    -54.3730E-03     105.483E-03    -50.8159E-03     24.7267E-03
            2043     13.6893E-03     23.2681E-03    -15.7993E+06     64.4165E+06       43.98E+06     517.598E+03    -53.7929E-03     104.558E-03    -50.7651E-03     32.6425E-03    -54.1411E-03     104.951E-03    -50.6157E-03     32.2016E-03
            2044     12.8364E-03     23.2318E-03    -19.4731E+06     21.2774E+06     33.8819E+06     593.108E+03    -53.6153E-03     104.194E-03    -50.5785E-03     38.6747E-03    -53.9187E-03     104.405E-03    -50.4117E-03     38.2299E-03
            2045     11.9831E-03     23.1900E-03    -23.1767E+06     692.181E+03     29.6818E+06     702.041E+03    -53.3390E-03     103.725E-03    -50.3858E-03     43.5162E-03    -53.6327E-03     103.853E-03    -50.2048E-03     43.0760E-03
            2046     11.1295E-03     23.1440E-03    -27.0317E+06    -21.2945E+06     22.7823E+06     839.025E+03    -53.0639E-03     103.243E-03    -50.1796E-03     46.6778E-03    -53.3347E-03     103.277E-03    -49.9956E-03     46.2514E-03
            2047     10.2756E-03     23.0956E-03    -31.0125E+06    -41.5201E+06     16.8211E+06     977.283E+03    -52.7346E-03     102.707E-03    -49.9729E-03     48.1874E-03    -52.9791E-03     102.646E-03    -49.7836E-03     47.7856E-03
            2048     9.42128E-03     23.0464E-03    -35.1658E+06    -59.0362E+06     10.2201E+06     1.11738E+06    -52.3320E-03     102.090E-03    -49.7585E-03     48.2534E-03    -52.5480E-03     101.942E-03    -49.5708E-03     47.8864E-03
            2049     8.56661E-03     22.9978E-03    -39.5165E+06    -77.6251E+06     3.56229E+06     1.24334E+06    -51.8772E-03     101.425E-03    -49.5476E-03     47.1018E-03    -52.0609E-03     101.182E-03    -49.3599E-03     46.7762E-03
            2050     7.71155E-03     22.9507E-03    -44.1269E+06    -93.8892E+06    -3.17497E+06     1.34994E+06    -51.3732E-03     100.712E-03    -49.3385E-03     44.9867E-03    -51.5283E-03     100.386E-03    -49.1543E-03     44.7059E-03
            2051     6.85606E-03     22.9062E-03    -49.0706E+06    -109.897E+06    -10.1103E+06     1.45448E+06    -50.8397E-03     99.9776E-03    -49.1378E-03     42.0325E-03    -50.9691E-03     99.5720E-03    -48.9579E-03     41.7970E-03
            2052     6.00015E-03     22.8649E-03    -54.3935E+06    -124.757E+06    -17.5928E+06     1.48804E+06    -50.2975E-03     99.2442E-03    -48.9467E-03     38.3794E-03    -50.4059E-03     98.7677E-03    -48.7749E-03     38.1868E-03
            2053     5.14384E-03     22.8277E-03    -60.1352E+06    -139.267E+06    -26.0578E+06     1.39263E+06    -49.7739E-03     98.5422E-03    -48.7683E-03     34.1297E-03    -49.8652E-03     98.0011E-03    -48.6094E-03     33.9756E-03
            2054     4.28715E-03     22.7950E-03    -66.2942E+06    -153.595E+06    -36.0921E+06     1.19919E+06    -49.2937E-03     97.8968E-03    -48.6031E-03     29.3633E-03    -49.3703E-03     97.2975E-03    -48.4647E-03     29.2430E-03
            2055     3.43013E-03     22.7675E-03    -72.6125E+06    -166.109E+06    -48.5901E+06     971.294E+03    -48.8766E-03     97.3233E-03    -48.4466E-03     24.1496E-03    -48.9408E-03     96.6809E-03    -48.3434E-03     24.0589E-03
            2056     2.57285E-03     22.7455E-03    -78.5447E+06    -176.661E+06    -62.5180E+06     784.354E+03    -48.5400E-03     96.8450E-03    -48.3050E-03     18.5668E-03    -48.5927E-03     96.1730E-03    -48.2475E-03     18.5028E-03
            2057     1.71535E-03     22.7294E-03    -83.5101E+06    -185.781E+06    -75.2786E+06     582.704E+03    -48.2962E-03     96.4879E-03    -48.1917E-03     12.7274E-03    -48.3383E-03     95.7923E-03    -48.1776E-03     12.6868E-03
            2058     857.712E-06     22.7193E-03    -86.9061E+06    -192.116E+06    -84.6509E+06     369.686E+03    -48.1816E-03     96.2608E-03    -48.0792E-03     6.98747E-03    -48.2158E-03     95.5500E-03    -48.0979E-03     6.96669E-03
            2059     16.2466E-03     22.2743E-03    -4.16170E+06     112.186E+06     74.5822E+06     259.355E+03    -54.6982E-03     106.112E-03    -51.4143E-03     2.68826E-03    -55.0297E-03     106.611E-03    -51.1980E-03     2.33809E-03
            2060     15.3947E-03     22.2645E-03    -8.12788E+06     108.754E+06     60.8597E+06     381.479E+03    -54.4097E-03     105.563E-03    -51.1535E-03     15.1700E-03    -54.7688E-03     106.103E-03    -50.9951E-03     14.7430E-03
            2061     14.5424E-03     22.2441E-03    -11.9490E+06     99.3552E+06     52.7719E+06     481.345E+03    -54.0944E-03     105.021E-03    -50.9265E-03     24.6407E-03    -54.4657E-03     105.549E-03    -50.7894E-03     24.2136E-03
            2062     13.6898E-03     22.2152E-03    -15.7673E+06     64.4294E+06     43.8213E+06     564.034E+03    -53.8641E-03     104.595E-03    -50.7305E-03     32.1424E-03    -54.2103E-03     104.987E-03    -50.5820E-03     31.7033E-03
            2063     12.8369E-03     22.1797E-03    -19.4291E+06     21.2348E+06     33.6854E+06     637.262E+03    -53.6911E-03     104.227E-03    -50.5362E-03     38.1710E-03    -53.9922E-03     104.437E-03    -50.3704E-03     37.7279E-03
            2064     11.9837E-03     22.1385E-03    -23.1067E+06     588.096E+03     29.4793E+06     766.713E+03    -53.4351E-03     103.769E-03    -50.3338E-03     42.9941E-03    -53.7263E-03     103.895E-03    -50.1537E-03     42.5557E-03
            2065     11.1302E-03     22.0932E-03    -26.9337E+06    -21.3758E+06     22.5717E+06     928.303E+03    -53.1743E-03     103.289E-03    -50.1147E-03     46.1026E-03    -53.4425E-03     103.320E-03    -49.9318E-03     45.6782E-03
            2066     10.2764E-03     22.0455E-03    -30.8846E+06    -41.5890E+06     16.6052E+06     1.10005E+06    -52.8433E-03     102.736E-03    -49.8924E-03     47.5148E-03    -53.0849E-03     102.672E-03    -49.7043E-03     47.1159E-03
            2067     9.42217E-03     21.9971E-03    -35.0023E+06    -59.0635E+06     9.99531E+06     1.27453E+06    -52.4296E-03     102.089E-03    -49.6598E-03     47.4897E-03    -52.6425E-03     101.939E-03    -49.4734E-03     47.1265E-03
            2068     8.56759E-03     21.9492E-03    -39.2987E+06    -77.6114E+06     3.33480E+06     1.45015E+06    -51.9545E-03     101.383E-03    -49.4285E-03     46.2661E-03    -52.1348E-03     101.139E-03    -49.2423E-03     45.9453E-03
            2069     7.71258E-03     21.9030E-03    -43.8566E+06    -93.8364E+06    -3.40833E+06     1.64261E+06    -51.4168E-03     100.614E-03    -49.1975E-03     44.0970E-03    -51.5684E-03     100.287E-03    -49.0149E-03     43.8225E-03
            2070     6.85712E-03     21.8592E-03    -48.7527E+06    -109.748E+06    -10.3267E+06     1.80782E+06    -50.8390E-03     99.8134E-03    -48.9744E-03     41.1192E-03    -50.9651E-03     99.4067E-03    -48.7962E-03     40.8911E-03
            2071     6.00121E-03     21.8188E-03    -54.0444E+06    -124.399E+06    -17.7861E+06     1.87445E+06    -50.2468E-03     99.0081E-03    -48.7613E-03     37.4795E-03    -50.3525E-03     98.5319E-03    -48.5915E-03     37.2948E-03
            2072     5.14485E-03     21.7823E-03    -59.7786E+06    -138.736E+06    -26.2593E+06     1.82185E+06    -49.6736E-03     98.2357E-03    -48.5622E-03     33.2744E-03    -49.7625E-03     97.6961E-03    -48.4056E-03     33.1287E-03
            2073     4.28807E-03     21.7503E-03    -65.9147E+06    -152.916E+06    -36.2829E+06     1.64398E+06    -49.1467E-03     97.5252E-03    -48.3785E-03     28.5861E-03    -49.2214E-03     96.9282E-03    -48.2426E-03     28.4740E-03
            2074     3.43092E-03     21.7234E-03    -72.2142E+06    -165.435E+06    -48.6181E+06     1.39430E+06    -48.6880E-03     96.8952E-03    -48.2072E-03     23.4821E-03    -48.7507E-03     96.2552E-03    -48.1057E-03     23.3990E-03
            2075     2.57347E-03     21.7019E-03    -78.1607E+06    -175.993E+06    -62.3677E+06     1.13686E+06    -48.3177E-03     96.3717E-03    -48.0540E-03     18.0371E-03    -48.3694E-03     95.7020E-03    -47.9973E-03     17.9793E-03
            2076     1.71578E-03     21.6861E-03    -83.0938E+06    -185.002E+06    -75.0615E+06     882.017E+03    -48.0497E-03     95.9814E-03    -47.9318E-03     12.3545E-03    -48.0910E-03     95.2887E-03    -47.9183E-03     12.3189E-03
            2077     857.936E-06     21.6763E-03    -86.4085E+06    -191.143E+06    -84.2630E+06     576.671E+03    -47.9186E-03     95.7343E-03    -47.8157E-03     6.77837E-03    -47.9523E-03     95.0271E-03    -47.8346E-03     6.76089E-03
            2078     16.2467E-03     21.2192E-03    -3.95623E+06     111.994E+06     74.5011E+06     266.480E+03    -54.8294E-03     106.240E-03    -51.4105E-03     2.21955E-03    -55.1585E-03     106.736E-03    -51.1946E-03     1.87055E-03
            2079     15.3948E-03     21.2101E-03    -7.96820E+06     108.660E+06     60.8556E+06     428.104E+03    -54.4874E-03     105.631E-03    -51.1440E-03     14.6480E-03    -54.8440E-03     106.169E-03    -50.9857E-03     14.2230E-03
            2080     14.5426E-03     21.1904E-03    -11.8694E+06     99.2423E+06     52.6443E+06     572.141E+03    -54.1560E-03     105.068E-03    -50.9117E-03     24.1302E-03    -54.5250E-03     105.594E-03    -50.7752E-03     23.7056E-03
            2081     13.6901E-03     21.1622E-03    -15.6911E+06     64.4816E+06     43.6796E+06     638.829E+03    -53.9444E-03     104.654E-03    -50.7098E-03     31.6537E-03    -54.2885E-03     105.045E-03    -50.5622E-03     31.2166E-03
            2082     12.8373E-03     21.1274E-03    -19.3639E+06     21.1692E+06     33.4779E+06     687.159E+03    -53.8112E-03     104.318E-03    -50.5068E-03     37.6603E-03    -54.1099E-03     104.526E-03    -50.3420E-03     37.2184E-03
            2083     11.9842E-03     21.0869E-03    -23.0251E+06     464.708E+03     29.2674E+06     823.152E+03    -53.5948E-03     103.886E-03    -50.2917E-03     42.4137E-03    -53.8831E-03     104.010E-03    -50.1127E-03     41.9763E-03
            2084     11.1308E-03     21.0423E-03    -26.8139E+06    -21.4917E+06     22.3500E+06     1.00656E+06    -53.3530E-03     103.408E-03    -50.0554E-03     45.4042E-03    -53.6178E-03     103.437E-03    -49.8736E-03     44.9815E-03
            2085     10.2771E-03     20.9954E-03    -30.7205E+06    -41.6965E+06     16.3814E+06     1.21857E+06    -53.0229E-03     102.835E-03    -49.8118E-03     46.6672E-03    -53.2607E-03     102.768E-03    -49.6249E-03     46.2711E-03
            2086     9.42309E-03     20.9477E-03    -34.8003E+06    -59.1234E+06     9.76011E+06     1.43789E+06    -52.5957E-03     102.150E-03    -49.5543E-03     46.5030E-03    -52.8045E-03     101.997E-03    -49.3693E-03     46.1438E-03
            2087     8.56866E-03     20.9007E-03    -39.0819E+06    -77.6574E+06     3.08712E+06     1.67603E+06    -52.0870E-03     101.382E-03    -49.2954E-03     45.1582E-03    -52.2631E-03     101.135E-03    -49.1107E-03     44.8431E-03
            2088     7.71377E-03     20.8553E-03    -43.5859E+06    -93.8200E+06    -3.67622E+06     1.92007E+06    -51.4976E-03     100.533E-03    -49.0350E-03     42.9034E-03    -51.6450E-03     100.203E-03    -48.8541E-03     42.6360E-03
            2089     6.85838E-03     20.8125E-03    -48.3660E+06    -109.616E+06    -10.5720E+06     2.14846E+06    -50.8593E-03     99.6417E-03    -48.7823E-03     39.8936E-03    -50.9811E-03     99.2332E-03    -48.6061E-03     39.6737E-03
            2090     6.00248E-03     20.7729E-03    -53.5706E+06    -124.085E+06    -17.9967E+06     2.34319E+06    -50.2032E-03     98.7437E-03    -48.5405E-03     36.2766E-03    -50.3048E-03     98.2668E-03    -48.3729E-03     36.1019E-03
            2091     5.14608E-03     20.7373E-03    -59.2774E+06    -138.119E+06    -26.4386E+06     2.37455E+06    -49.5651E-03     97.8792E-03    -48.3142E-03     32.1412E-03    -49.6507E-03     97.3408E-03    -48.1602E-03     32.0063E-03
            2092     4.28920E-03     20.7061E-03    -65.4061E+06    -152.116E+06    -36.3945E+06     2.20902E+06    -48.9764E-03     97.0828E-03    -48.1064E-03     27.5657E-03    -49.0485E-03     96.4883E-03    -47.9730E-03     27.4643E-03
            2093     3.43190E-03     20.6798E-03    -71.7136E+06    -164.571E+06    -48.6030E+06     1.97174E+06    -48.4637E-03     96.3787E-03    -47.9150E-03     22.6132E-03    -48.5245E-03     95.7416E-03    -47.8154E-03     22.5405E-03
            2094     2.57424E-03     20.6588E-03    -77.6993E+06    -174.990E+06    -62.1861E+06     1.64799E+06    -48.0490E-03     95.7947E-03    -47.7457E-03     17.3512E-03    -48.0998E-03     95.1288E-03    -47.6902E-03     17.3022E-03
            2095     1.71632E-03     20.6434E-03    -82.7194E+06    -183.931E+06    -74.7413E+06     1.24744E+06    -47.7471E-03     95.3587E-03    -47.6116E-03     11.8749E-03    -47.7884E-03     94.6702E-03    -47.5987E-03     11.8455E-03
            2096     858.205E-06     20.6339E-03    -86.0591E+06    -189.685E+06    -83.8887E+06     754.577E+03    -47.5931E-03     95.0821E-03    -47.4890E-03     6.51052E-03    -47.6276E-03     94.3810E-03    -47.5086E-03     6.49617E-03
            2097     16.2466E-03     20.1640E-03    -3.98080E+06     111.707E+06     74.4309E+06     208.459E+03    -54.8659E-03     106.279E-03    -51.4131E-03     1.71768E-03    -55.1934E-03     106.773E-03    -51.1972E-03     1.36995E-03
            2098     15.3948E-03     20.1556E-03    -7.92188E+06     108.447E+06     60.7804E+06     514.224E+03    -54.4995E-03     105.645E-03    -51.1452E-03     14.1459E-03    -54.8539E-03     106.180E-03    -50.9871E-03     13.7240E-03
            2099     14.5426E-03     20.1367E-03    -11.8015E+06     99.1513E+06     52.5245E+06     708.472E+03    -54.2058E-03     105.116E-03    -50.9106E-03     23.6758E-03    -54.5727E-03     105.641E-03    -50.7746E-03     23.2542E-03
            2100     13.6901E-03     20.1092E-03    -15.6573E+06     64.5731E+06     43.5240E+06     736.587E+03    -54.0734E-03     104.776E-03    -50.7023E-03     31.1964E-03    -54.4158E-03     105.165E-03    -50.5556E-03     30.7608E-03
            2101     12.8375E-03     20.0750E-03    -19.3050E+06     21.1385E+06     33.2661E+06     732.739E+03    -54.0236E-03     104.510E-03    -50.4867E-03     37.1266E-03    -54.3199E-03     104.717E-03    -50.3230E-03     36.6847E-03
            2102     11.9846E-03     20.0351E-03    -22.9122E+06     311.738E+03     29.0537E+06     849.406E+03    -53.8673E-03     104.119E-03    -50.2522E-03     41.7226E-03    -54.1523E-03     104.240E-03    -50.0742E-03     41.2852E-03
            2103     11.1315E-03     19.9912E-03    -26.6454E+06    -21.6472E+06     22.1254E+06     1.06891E+06    -53.6478E-03     103.638E-03    -49.9898E-03     44.4995E-03    -53.9084E-03     103.663E-03    -49.8091E-03     44.0779E-03
            2104     10.2781E-03     19.9450E-03    -30.5027E+06    -41.8577E+06     16.1496E+06     1.33201E+06    -53.3121E-03     103.027E-03    -49.7147E-03     45.5435E-03    -53.5448E-03     102.956E-03    -49.5290E-03     45.1503E-03
            2105     9.42427E-03     19.8982E-03    -34.5357E+06    -59.2326E+06     9.51797E+06     1.61924E+06    -52.8554E-03     102.276E-03    -49.4210E-03     45.1789E-03    -53.0586E-03     102.119E-03    -49.2374E-03     44.8247E-03
            2106     8.57007E-03     19.8521E-03    -38.7531E+06    -77.7514E+06     2.84470E+06     1.92413E+06    -52.2866E-03     101.410E-03    -49.1229E-03     43.6742E-03    -52.4570E-03     101.158E-03    -48.9397E-03     43.3659E-03
            2107     7.71534E-03     19.8077E-03    -43.1991E+06    -93.7696E+06    -3.91311E+06     2.19829E+06    -51.6151E-03     100.437E-03    -48.8223E-03     41.3260E-03    -51.7570E-03     100.104E-03    -48.6432E-03     41.0667E-03
            2108     6.86005E-03     19.7659E-03    -47.9362E+06    -109.565E+06    -10.8439E+06     2.48633E+06    -50.8875E-03     99.4177E-03    -48.5302E-03     38.2968E-03    -51.0040E-03     99.0065E-03    -48.3560E-03     38.0863E-03
            2109     6.00416E-03     19.7274E-03    -53.0521E+06    -123.885E+06    -18.2622E+06     2.83859E+06    -50.1424E-03     98.3932E-03    -48.2507E-03     34.7286E-03    -50.2390E-03     97.9146E-03    -48.0855E-03     34.5653E-03
            2110     5.14770E-03     19.6926E-03    -58.6476E+06    -137.436E+06    -26.5678E+06     3.01505E+06    -49.4184E-03     97.4082E-03    -47.9899E-03     30.6980E-03    -49.4999E-03     96.8707E-03    -47.8384E-03     30.5762E-03
            2111     4.29068E-03     19.6623E-03    -64.7192E+06    -151.185E+06    -36.3800E+06     2.92236E+06    -48.7516E-03     96.5032E-03    -47.7516E-03     26.2758E-03    -48.8204E-03     95.9110E-03    -47.6204E-03     26.1879E-03
            2112     3.43317E-03     19.6367E-03    -71.0044E+06    -163.494E+06    -48.4078E+06     2.70110E+06    -48.1703E-03     95.7046E-03    -47.5343E-03     21.5222E-03    -48.2286E-03     95.0708E-03    -47.4363E-03     21.4624E-03
            2113     2.57526E-03     19.6163E-03    -76.9820E+06    -173.578E+06    -61.7348E+06     2.31309E+06    -47.6985E-03     95.0425E-03    -47.3440E-03     16.4946E-03    -47.7479E-03     94.3815E-03    -47.2894E-03     16.4570E-03
            2114     1.71702E-03     19.6014E-03    -82.0091E+06    -182.303E+06    -73.9827E+06     1.67744E+06    -47.3542E-03     94.5487E-03    -47.1945E-03     11.2774E-03    -47.3952E-03     93.8659E-03    -47.1812E-03     11.2554E-03
            2115     858.575E-06     19.5922E-03    -85.4512E+06    -187.815E+06    -83.2127E+06     978.547E+03    -47.1688E-03     94.2305E-03    -47.0618E-03     6.17747E-03    -47.2039E-03     93.5369E-03    -47.0816E-03     6.16703E-03
            2116     16.2465E-03     19.1089E-03    -4.11246E+06     111.408E+06     74.4017E+06     186.797E+03    -54.7991E-03     106.222E-03    -51.4233E-03     1.20592E-03    -55.1257E-03     106.714E-03    -51.2068E-03     860.725E-06
            2117     15.3946E-03     19.1012E-03    -8.09546E+06     108.057E+06      60.629E+06     506.732E+03    -54.4745E-03     105.632E-03    -51.1580E-03     13.6895E-03    -54.8276E-03     106.165E-03    -50.9997E-03     13.2697E-03
            2118     14.5424E-03     19.0829E-03    -11.8982E+06     99.0434E+06     52.3669E+06     809.535E+03    -54.3007E-03     105.222E-03    -50.9212E-03     23.2660E-03    -54.6664E-03     105.745E-03    -50.7857E-03     22.8461E-03
            2119     13.6900E-03     19.0559E-03    -15.6427E+06     64.7711E+06     43.3882E+06     794.877E+03    -54.3155E-03     105.018E-03    -50.7021E-03     30.6959E-03    -54.6563E-03     105.407E-03    -50.5564E-03     30.2601E-03
            2120     12.8376E-03     19.0223E-03    -19.1985E+06     21.1286E+06     33.0653E+06     721.156E+03    -54.3881E-03     104.854E-03    -50.4655E-03     36.4371E-03    -54.6812E-03     105.058E-03    -50.3030E-03     35.9936E-03
            2121     11.9851E-03     18.9830E-03    -22.7364E+06     133.327E+03     28.8512E+06     854.055E+03    -54.3045E-03     104.505E-03    -50.2000E-03     40.7606E-03    -54.5848E-03     104.621E-03    -50.0230E-03     40.3221E-03
            2122     11.1324E-03     18.9397E-03    -26.4183E+06    -21.8572E+06     21.9030E+06     1.11005E+06    -54.1040E-03     104.002E-03    -49.8975E-03     43.2275E-03    -54.3587E-03     104.021E-03    -49.7180E-03     42.8066E-03
            2123     10.2794E-03     18.8944E-03    -30.2035E+06    -42.0726E+06     15.9345E+06     1.42541E+06    -53.7406E-03     103.316E-03    -49.5756E-03     43.9915E-03    -53.9665E-03     103.239E-03    -49.3911E-03     43.6013E-03
            2124     9.42597E-03     18.8485E-03    -34.1307E+06    -59.3948E+06     9.31165E+06     1.76854E+06    -53.2159E-03     102.446E-03    -49.2303E-03     43.3811E-03    -53.4117E-03     102.283E-03    -49.0481E-03     43.0324E-03
            2125     8.57207E-03     18.8035E-03    -38.2340E+06    -77.8942E+06     2.66384E+06     2.14920E+06    -52.5468E-03     101.425E-03    -48.8784E-03     41.6931E-03    -52.7093E-03     101.168E-03    -48.6967E-03     41.3929E-03
            2126     7.71756E-03     18.7603E-03    -42.5937E+06    -93.7227E+06    -4.02190E+06     2.51669E+06    -51.7564E-03     100.281E-03    -48.5241E-03     39.2519E-03    -51.8909E-03     99.9428E-03    -48.3466E-03     39.0029E-03
            2127     6.86237E-03     18.7196E-03    -47.2889E+06    -109.580E+06    -10.9346E+06     2.90604E+06    -50.9054E-03     99.0859E-03    -48.1805E-03     36.2168E-03    -51.0148E-03     98.6702E-03    -48.0077E-03     36.0184E-03
            2128     6.00648E-03     18.6822E-03    -52.3779E+06    -123.780E+06    -18.4010E+06     3.37690E+06    -50.0381E-03     97.8903E-03    -47.8522E-03     32.7244E-03    -50.1284E-03     97.4086E-03    -47.6888E-03     32.5749E-03
            2129     5.14990E-03     18.6486E-03    -57.9000E+06    -136.754E+06    -26.6054E+06     3.69652E+06    -49.2002E-03     96.7471E-03    -47.5469E-03     28.8392E-03    -49.2767E-03     96.2098E-03    -47.3977E-03     28.7325E-03
            2130     4.29268E-03     18.6192E-03    -63.8575E+06    -150.144E+06    -36.2504E+06     3.72823E+06    -48.4337E-03     95.7035E-03    -47.2698E-03     24.6203E-03    -48.4984E-03     95.1136E-03    -47.1407E-03     24.5484E-03
            2131     3.43489E-03     18.5945E-03    -70.0428E+06    -162.098E+06    -47.8647E+06     3.51284E+06    -47.7652E-03     94.7855E-03    -47.0203E-03     20.1268E-03    -47.8205E-03     94.1555E-03    -46.9230E-03     20.0821E-03
            2132     2.57661E-03     18.5748E-03    -75.8956E+06    -171.668E+06    -60.7384E+06     2.94394E+06    -47.2210E-03     94.0252E-03    -46.8042E-03     15.4043E-03    -47.2687E-03     93.3701E-03    -46.7489E-03     15.3784E-03
            2133     1.71797E-03     18.5604E-03    -80.7970E+06    -180.111E+06    -72.8870E+06     2.10519E+06    -46.8230E-03     93.4574E-03    -46.6344E-03     10.5209E-03    -46.8624E-03     92.7820E-03    -46.6205E-03     10.5068E-03
            2134     859.052E-06     18.5515E-03    -84.1626E+06    -185.472E+06    -81.9223E+06     1.17916E+06    -46.6008E-03     93.0935E-03    -46.4927E-03     5.75801E-03    -46.6347E-03     92.4077E-03    -46.5113E-03     5.75146E-03
            2135     16.2462E-03     18.0539E-03    -4.09234E+06     111.163E+06     74.4178E+06     253.231E+03    -54.6683E-03     106.108E-03    -51.4395E-03     706.091E-06    -54.9934E-03     106.597E-03    -51.2227E-03     364.909E-06
            2136     15.3942E-03     18.0468E-03    -8.15719E+06     107.636E+06     60.5750E+06     537.070E+03    -54.4991E-03     105.677E-03    -51.1779E-03     13.2495E-03    -54.8505E-03     106.206E-03    -51.0193E-03     12.8315E-03
            2137     14.5421E-03     18.0290E-03    -11.9428E+06     98.8992E+06     52.2631E+06     763.400E+03    -54.5415E-03     105.475E-03    -50.9335E-03     22.7914E-03    -54.9057E-03     105.996E-03    -50.7982E-03     22.3699E-03
            2138     13.6900E-03     18.0023E-03    -15.5423E+06     65.0731E+06     43.3258E+06     721.167E+03    -54.7567E-03     105.449E-03    -50.6926E-03     29.9777E-03    -55.0949E-03     105.838E-03    -50.5478E-03     29.5388E-03
            2139     12.8380E-03     17.9691E-03    -18.9729E+06     21.0960E+06     32.9041E+06     642.396E+03    -54.9683E-03     105.389E-03    -50.4203E-03     35.3779E-03    -55.2564E-03     105.589E-03    -50.2588E-03     34.9312E-03
            2140     11.9860E-03     17.9304E-03    -22.4312E+06    -114.856E+03     28.6977E+06     834.986E+03    -54.9490E-03     105.056E-03    -50.1066E-03     39.3011E-03    -55.2223E-03     105.166E-03    -49.9305E-03     38.8613E-03
            2141     11.1339E-03     17.8878E-03    -26.0517E+06    -22.0803E+06     21.7590E+06     1.14641E+06    -54.7447E-03     104.490E-03    -49.7452E-03     41.3619E-03    -54.9911E-03     104.502E-03    -49.5666E-03     40.9425E-03
            2142     10.2815E-03     17.8435E-03    -29.7688E+06    -42.3208E+06     15.8005E+06     1.47523E+06    -54.3167E-03     103.673E-03    -49.3567E-03     41.7763E-03    -54.5333E-03     103.588E-03    -49.1732E-03     41.3900E-03
            2143     9.42856E-03     17.7987E-03    -33.6166E+06    -59.6110E+06     9.16915E+06     1.87687E+06    -53.6748E-03     102.615E-03    -48.9402E-03     40.8711E-03    -53.8608E-03     102.443E-03    -48.7591E-03     40.5294E-03
            2144     8.57504E-03     17.7549E-03    -37.6451E+06    -78.1101E+06     2.54201E+06     2.35527E+06    -52.8586E-03     101.374E-03    -48.5158E-03     38.9745E-03    -53.0114E-03     101.109E-03    -48.3353E-03     38.6846E-03
            2145     7.72077E-03     17.7130E-03    -41.9244E+06    -93.7561E+06    -4.02949E+06     2.84353E+06    -51.9082E-03     99.9983E-03    -48.0901E-03     36.4354E-03    -52.0336E-03     99.6538E-03    -47.9135E-03     36.1995E-03
            2146     6.86569E-03     17.6737E-03     -46.551E+06    -109.678E+06    -10.8113E+06     3.39456E+06    -50.8920E-03     98.5700E-03    -47.6781E-03     33.4055E-03    -50.9930E-03     98.1478E-03    -47.5056E-03     33.2229E-03
            2147     6.00976E-03     17.6377E-03    -51.5762E+06    -123.654E+06    -18.1798E+06     3.97395E+06    -49.8582E-03     97.1438E-03    -47.2856E-03     30.0242E-03    -49.9412E-03     96.6575E-03    -47.1224E-03     29.8917E-03
            2148     5.15301E-03     17.6053E-03    -56.9954E+06    -136.107E+06    -26.3063E+06     4.38051E+06    -48.8629E-03     95.7851E-03    -46.9222E-03     26.3530E-03    -48.9335E-03     95.2465E-03    -46.7737E-03     26.2639E-03
            2149     4.29549E-03     17.5771E-03    -62.8269E+06    -149.014E+06    -35.8464E+06     4.55682E+06    -47.9608E-03     94.5559E-03    -46.5951E-03     22.4278E-03    -48.0206E-03     93.9676E-03    -46.4671E-03     22.3741E-03
            2150     3.43728E-03     17.5534E-03    -68.8352E+06    -160.208E+06    -47.0352E+06     4.25036E+06    -47.1791E-03     93.4844E-03    -46.3053E-03     18.2991E-03    -47.2311E-03     92.8596E-03    -46.2083E-03     18.2701E-03
            2151     2.57850E-03     17.5345E-03    -74.5242E+06    -169.300E+06    -59.5492E+06     3.47137E+06    -46.5446E-03     92.6028E-03    -46.0581E-03     13.9936E-03    -46.5899E-03     91.9551E-03    -46.0023E-03     13.9792E-03
            2152     1.71925E-03     17.5207E-03    -79.3383E+06    -177.492E+06    -71.5872E+06     2.51341E+06    -46.0839E-03     91.9503E-03    -45.8664E-03     9.55370E-03    -46.1214E-03     91.2836E-03    -45.8520E-03     9.54811E-03
            2153     859.711E-06     17.5122E-03    -82.6633E+06    -182.592E+06    -80.6065E+06     1.46485E+06    -45.8261E-03     91.5391E-03    -45.7129E-03     5.22598E-03    -45.8585E-03     90.8635E-03    -45.7314E-03     5.22488E-03
            2154     16.2458E-03     16.9991E-03    -4.12608E+06     110.892E+06     74.4495E+06     286.753E+03    -54.5965E-03     106.052E-03    -51.4557E-03     232.345E-06    -54.9203E-03     106.539E-03    -51.2382E-03    -106.125E-06
            2155     15.3938E-03     16.9924E-03    -8.03411E+06     107.326E+06     60.6888E+06     518.195E+03    -54.7183E-03     105.909E-03    -51.1909E-03     12.7337E-03    -55.0674E-03     106.435E-03    -51.0314E-03     12.3149E-03
            2156     14.5420E-03     16.9746E-03    -11.6970E+06     98.8312E+06     52.3511E+06     634.035E+03    -55.0520E-03     105.977E-03    -50.9246E-03     22.0630E-03    -55.4129E-03     106.495E-03    -50.7892E-03     21.6371E-03
            2157     13.6904E-03     16.9481E-03    -15.2527E+06     65.3749E+06     43.3666E+06     559.024E+03    -55.4859E-03     106.129E-03    -50.6428E-03     28.8028E-03    -55.8195E-03     106.514E-03    -50.4987E-03     28.3585E-03
            2158     12.8392E-03     16.9152E-03    -18.6561E+06     21.0328E+06     32.8035E+06     540.298E+03    -55.8256E-03     106.138E-03    -50.3127E-03     33.6813E-03    -56.1065E-03     106.333E-03    -50.1522E-03     33.2309E-03
            2159     11.9880E-03     16.8771E-03    -22.0686E+06    -435.363E+03     28.5913E+06     776.788E+03    -55.8437E-03     105.771E-03    -49.9269E-03     37.0500E-03    -56.1074E-03     105.872E-03    -49.7513E-03     36.6094E-03
            2160     11.1366E-03     16.8354E-03    -25.5962E+06    -22.3104E+06     21.6975E+06     1.13949E+06    -55.5966E-03     105.078E-03    -49.4810E-03     38.5786E-03    -55.8316E-03     105.080E-03    -49.3031E-03     38.1620E-03
            2161     10.2849E-03     16.7921E-03    -29.2390E+06    -42.5812E+06     15.7748E+06     1.52150E+06    -55.0545E-03     104.054E-03    -48.9998E-03     38.5306E-03    -55.2588E-03     103.958E-03    -48.8167E-03     38.1512E-03
            2162     9.43263E-03     16.7486E-03    -33.0414E+06    -59.8851E+06     9.14321E+06     1.98365E+06    -54.2381E-03     102.724E-03    -48.4857E-03     37.2564E-03    -54.4115E-03     102.541E-03    -48.3052E-03     36.9257E-03
            2163     8.57956E-03     16.7064E-03    -37.0071E+06    -78.4098E+06     2.51604E+06     2.56806E+06    -53.2140E-03     101.177E-03    -47.9629E-03     35.1286E-03    -53.3544E-03     100.900E-03    -47.7829E-03     34.8535E-03
            2164     7.72558E-03     16.6661E-03    -41.2211E+06    -93.8667E+06    -3.89356E+06     3.17463E+06    -52.0399E-03     99.4811E-03    -47.4412E-03     32.5091E-03    -52.1543E-03     99.1273E-03    -47.2648E-03     32.2909E-03
            2165     6.87060E-03     16.6285E-03    -45.7682E+06    -109.903E+06    -10.4646E+06     3.87892E+06    -50.7914E-03     97.7302E-03    -46.9388E-03     29.5462E-03    -50.8825E-03     97.2991E-03    -46.7654E-03     29.3833E-03
            2166     6.01459E-03     16.5941E-03    -50.7543E+06    -123.473E+06    -17.6107E+06     4.61038E+06    -49.5256E-03     95.9890E-03    -46.4634E-03     26.3870E-03    -49.6008E-03     95.4968E-03    -46.2989E-03     26.2757E-03
            2167     5.15753E-03     16.5632E-03    -56.2433E+06    -135.435E+06    -25.5455E+06     5.10464E+06    -48.3162E-03     94.3443E-03    -46.0281E-03     23.0711E-03    -48.3816E-03     93.8033E-03    -45.8779E-03     23.0030E-03
            2168     4.29952E-03     16.5364E-03    -62.0041E+06    -147.614E+06    -34.9921E+06     5.20453E+06    -47.2323E-03     92.8732E-03    -45.6409E-03     19.6005E-03    -47.2889E-03     92.2871E-03    -45.5119E-03     19.5652E-03
            2169     3.44068E-03     16.5139E-03    -67.7127E+06    -157.848E+06    -45.9618E+06     4.69504E+06    -46.3102E-03     91.6146E-03    -45.3045E-03     15.9919E-03    -46.3601E-03     90.9970E-03    -45.2072E-03     15.9766E-03
            2170     2.58112E-03     16.4960E-03    -73.0809E+06    -166.665E+06    -58.1696E+06     3.80371E+06    -45.5785E-03     90.6032E-03    -45.0248E-03     12.2395E-03    -45.6216E-03     89.9638E-03    -44.9680E-03     12.2353E-03
            2171     1.72105E-03     16.4829E-03    -77.6118E+06    -174.552E+06    -69.9577E+06     2.78811E+06    -45.0567E-03     89.8678E-03    -44.8112E-03     8.36587E-03    -45.0919E-03     89.2106E-03    -44.7953E-03     8.36780E-03
            2172     860.615E-06     16.4747E-03    -80.6792E+06    -179.256E+06    -78.5524E+06     1.66807E+06    -44.7670E-03     89.4108E-03    -44.6438E-03     4.57892E-03    -44.7971E-03     88.7459E-03    -44.6597E-03     4.58258E-03
            2173     16.2456E-03     15.9442E-03    -4.06174E+06     110.687E+06     74.5620E+06     208.891E+03    -54.8047E-03     106.263E-03    -51.4582E-03    -196.274E-06    -55.1272E-03     106.748E-03    -51.2400E-03    -536.304E-06
            2174     15.3939E-03     15.9375E-03    -7.86762E+06     107.105E+06     60.9166E+06     326.043E+03    -55.3035E-03     106.475E-03    -51.1716E-03     12.0316E-03    -55.6501E-03     106.997E-03    -51.0109E-03     11.6068E-03
            2175     14.5427E-03     15.9195E-03    -11.3921E+06     98.8086E+06     52.5293E+06     410.672E+03    -55.9413E-03     106.801E-03    -50.8595E-03     20.9076E-03    -56.2976E-03     107.315E-03    -50.7236E-03     20.4739E-03
            2176     13.6920E-03     15.8930E-03    -14.8683E+06     65.6402E+06     43.4861E+06     403.413E+03    -56.5692E-03     107.079E-03    -50.5101E-03     27.0035E-03    -56.8961E-03     107.460E-03    -50.3663E-03     26.5531E-03
            2177     12.8418E-03     15.8604E-03    -18.2501E+06     20.9567E+06     32.7853E+06     454.611E+03    -57.0006E-03     107.094E-03    -50.0937E-03     31.2124E-03    -57.2718E-03     107.280E-03    -49.9337E-03     30.7589E-03
            2178     11.9917E-03     15.8229E-03    -21.6292E+06    -748.277E+03     28.5708E+06     703.019E+03    -57.0142E-03     106.620E-03    -49.6057E-03     33.9156E-03    -57.2656E-03     106.709E-03    -49.4304E-03     33.4755E-03
            2179     11.1414E-03     15.7822E-03    -25.1284E+06    -22.5759E+06     21.7171E+06     1.10246E+06    -56.6744E-03     105.719E-03    -49.0443E-03     34.8343E-03    -56.8958E-03     105.708E-03    -48.8665E-03     34.4229E-03
            2180     10.2906E-03     15.7403E-03    -28.7169E+06    -42.8659E+06     15.8471E+06     1.55200E+06    -55.9550E-03     104.393E-03    -48.4384E-03     34.2637E-03    -56.1448E-03     104.283E-03    -48.2553E-03     33.8945E-03
            2181     9.43911E-03     15.6985E-03    -32.4436E+06    -60.1895E+06     9.28852E+06     2.08264E+06    -54.8894E-03     102.685E-03    -47.7956E-03     32.6152E-03    -55.0484E-03     102.488E-03    -47.6148E-03     32.2992E-03
            2182     8.58660E-03     15.6582E-03    -36.3245E+06    -78.7818E+06     2.71372E+06     2.75025E+06    -53.5728E-03     100.718E-03    -47.1449E-03     30.3075E-03    -53.6995E-03     100.428E-03    -46.9645E-03     30.0505E-03
            2183     7.73290E-03     15.6199E-03    -40.4565E+06    -94.0799E+06    -3.58475E+06     3.50608E+06    -52.0832E-03     98.5842E-03    -46.5010E-03     27.6994E-03    -52.1855E-03     98.2194E-03    -46.3238E-03     27.5022E-03
            2184     6.87792E-03     15.5844E-03     -45.005E+06    -110.194E+06    -9.93180E+06     4.37796E+06    -50.5197E-03     96.4065E-03    -45.8868E-03     24.9171E-03    -50.6006E-03     95.9653E-03    -45.7114E-03     24.7773E-03
            2185     6.02160E-03     15.5520E-03    -50.0099E+06    -123.311E+06    -16.7232E+06     5.24193E+06    -48.9569E-03     94.2694E-03    -45.3125E-03     22.0956E-03    -49.0249E-03     93.7706E-03    -45.1448E-03     22.0078E-03
            2186     5.16398E-03     15.5230E-03    -55.3785E+06    -134.516E+06    -24.2419E+06     5.71525E+06    -47.4851E-03     92.2781E-03    -44.7930E-03     19.2417E-03    -47.5459E-03     91.7350E-03    -44.6389E-03     19.1951E-03
            2187     4.30518E-03     15.4978E-03    -60.9634E+06    -145.765E+06    -33.5828E+06     5.55878E+06    -46.1836E-03     90.5200E-03    -44.3364E-03     16.3222E-03    -46.2374E-03     89.9372E-03    -44.2045E-03     16.3029E-03
            2188     3.44535E-03     15.4766E-03    -66.5224E+06    -155.243E+06    -44.7638E+06     4.84825E+06    -45.0976E-03     89.0436E-03    -43.9460E-03     13.3196E-03    -45.1456E-03     88.4340E-03    -43.8482E-03     13.3154E-03
            2189     2.58471E-03     15.4598E-03    -71.7219E+06    -163.875E+06    -56.7621E+06     3.86183E+06    -44.2580E-03     87.8879E-03    -43.6299E-03     10.2047E-03    -44.2996E-03     87.2575E-03    -43.5721E-03     10.2080E-03
            2190     1.72347E-03     15.4475E-03    -76.0516E+06    -171.330E+06    -68.0009E+06     2.64692E+06    -43.6683E-03     87.0610E-03    -43.3927E-03     6.98691E-03    -43.7029E-03     86.4144E-03    -43.3740E-03     6.99144E-03
            2191     861.845E-06     15.4398E-03    -78.8377E+06    -176.056E+06    -76.4025E+06     1.22569E+06    -43.3310E-03     86.5500E-03    -43.2190E-03     3.83669E-03    -43.3596E-03     85.8952E-03    -43.2314E-03     3.83697E-03
            2192     16.2459E-03     14.8889E-03    -4.01568E+06     110.621E+06     74.7810E+06     21.5523E+03    -55.5313E-03     106.963E-03    -51.4312E-03    -491.870E-06    -55.8533E-03     107.446E-03    -51.2119E-03    -839.947E-06
            2193     15.3950E-03     14.8818E-03    -7.71464E+06     106.963E+06     61.1659E+06     30.9073E+03    -56.3903E-03     107.483E-03    -51.0925E-03     11.1929E-03    -56.7344E-03     108.002E-03    -50.9306E-03     10.7563E-03
            2194     14.5449E-03     14.8634E-03    -11.1810E+06     98.7564E+06     52.6679E+06     87.3896E+03    -57.2659E-03     107.969E-03    -50.7035E-03     19.4147E-03    -57.6174E-03     108.479E-03    -50.5671E-03     18.9695E-03
            2195     13.6954E-03     14.8368E-03    -14.5650E+06     65.8212E+06     43.5896E+06     181.920E+03    -58.0224E-03     108.278E-03    -50.2556E-03     24.7378E-03    -58.3418E-03     108.653E-03    -50.1120E-03     24.2792E-03
            2196     12.8465E-03     14.8045E-03    -17.8579E+06     20.8860E+06     32.8205E+06     363.489E+03    -58.4865E-03     108.209E-03    -49.7221E-03     28.1855E-03    -58.7469E-03     108.385E-03    -49.5624E-03     27.7290E-03
            2197     11.9977E-03     14.7678E-03    -21.2179E+06    -1.03933E+06     28.6139E+06     655.592E+03    -58.4361E-03     107.537E-03    -49.1005E-03     30.1601E-03    -58.6745E-03     107.613E-03    -48.9252E-03     29.7221E-03
            2198     11.1486E-03     14.7284E-03    -24.7048E+06    -22.8346E+06     21.8246E+06     1.08119E+06    -57.9325E-03     106.325E-03    -48.3924E-03     30.4378E-03    -58.1397E-03     106.300E-03    -48.2144E-03     30.0335E-03
            2199     10.2989E-03     14.6882E-03    -28.2793E+06    -43.1697E+06     16.0081E+06     1.56778E+06    -56.9499E-03     104.582E-03    -47.6322E-03     29.3504E-03    -57.1253E-03     104.458E-03    -47.4486E-03     28.9934E-03
            2200     9.44826E-03     14.6486E-03    -31.9979E+06    -60.5129E+06     9.54949E+06     2.15941E+06    -55.5470E-03     102.381E-03    -46.8338E-03     27.3943E-03    -55.6925E-03     102.170E-03    -46.6519E-03     27.0948E-03
            2201     8.59626E-03     14.6106E-03    -35.8502E+06    -79.1261E+06     3.10640E+06     2.85506E+06    -53.8545E-03     99.8865E-03    -46.0320E-03     24.9942E-03    -53.9691E-03     99.5841E-03    -45.8498E-03     24.7563E-03
            2202     7.74273E-03     14.5749E-03    -39.8747E+06    -94.4801E+06    -3.09234E+06     3.70560E+06    -51.9798E-03     97.2254E-03    -45.2456E-03     22.4701E-03    -52.0712E-03     96.8490E-03    -45.0662E-03     22.2939E-03
            2203     6.88754E-03     14.5419E-03    -44.2286E+06    -110.552E+06    -9.09570E+06     4.78688E+06    -50.0530E-03     94.5550E-03    -44.5020E-03     19.9104E-03    -50.1244E-03     94.1034E-03    -44.3231E-03     19.7937E-03
            2204     6.03071E-03     14.5120E-03    -48.9709E+06    -122.995E+06    -15.2848E+06     5.61913E+06    -48.1609E-03     91.9728E-03    -43.8119E-03     17.4297E-03    -48.2215E-03     91.4673E-03    -43.6390E-03     17.3631E-03
            2205     5.17230E-03     14.4853E-03    -54.0533E+06    -133.402E+06    -22.6215E+06     5.98265E+06    -46.3968E-03     89.5857E-03    -43.1890E-03     15.0241E-03    -46.4515E-03     89.0406E-03    -43.0302E-03     14.9952E-03
            2206     4.31246E-03     14.4620E-03    -59.5191E+06    -143.638E+06    -32.1810E+06     5.83803E+06    -44.8462E-03     87.4884E-03    -42.6421E-03     12.6413E-03    -44.8956E-03     86.9097E-03    -42.5085E-03     12.6376E-03
            2207     3.45142E-03     14.4425E-03    -65.1214E+06    -152.385E+06    -43.5751E+06     4.98283E+06    -43.5572E-03     85.7351E-03    -42.1779E-03     10.2574E-03    -43.6027E-03     85.1346E-03    -42.0804E-03     10.2646E-03
            2208     2.58938E-03     14.4269E-03    -70.2404E+06    -160.842E+06    -55.4565E+06     3.70928E+06    -42.5607E-03     84.3668E-03    -41.8061E-03     7.83126E-03    -42.6004E-03     83.7467E-03    -41.7483E-03     7.83979E-03
            2209     1.72666E-03     14.4154E-03    -74.4385E+06    -168.114E+06    -66.6703E+06     2.33027E+06    -41.8589E-03     83.3884E-03    -41.5294E-03     5.35368E-03    -41.8918E-03     82.7531E-03    -41.5111E-03     5.35896E-03
            2210     863.450E-06     14.4083E-03    -77.4420E+06    -173.352E+06    -75.5603E+06     1.14736E+06    -41.4476E-03     82.7906E-03    -41.3430E-03     2.93543E-03    -41.4744E-03     82.1458E-03    -41.3571E-03     2.93733E-03
            2211     16.2469E-03     13.8325E-03    -4.03721E+06     110.708E+06     74.9728E+06    -189.920E+03    -56.8874E-03     108.253E-03    -51.3658E-03    -489.895E-06    -57.2100E-03     108.737E-03    -51.1456E-03    -852.827E-06
            2212     15.3974E-03     13.8248E-03    -7.77354E+06     106.943E+06     61.2710E+06    -313.124E+03    -58.0005E-03     108.941E-03    -50.9408E-03     10.5041E-03    -58.3438E-03     109.459E-03    -50.7782E-03     10.0495E-03
            2213     14.5487E-03     13.8058E-03    -11.1607E+06     98.7257E+06     52.6670E+06    -360.699E+03    -59.0138E-03     109.457E-03    -50.4431E-03     17.9849E-03    -59.3620E-03     109.963E-03    -50.3068E-03     17.5224E-03
            2214     13.7008E-03     13.7792E-03    -14.4451E+06     65.7909E+06     43.5585E+06    -138.531E+03    -59.8210E-03     109.688E-03    -49.8671E-03     22.4778E-03    -60.1341E-03     110.057E-03    -49.7237E-03     22.0068E-03
            2215     12.8535E-03     13.7474E-03    -17.7225E+06     20.7589E+06     32.7813E+06     273.395E+03    -60.2520E-03     109.439E-03    -49.1871E-03     25.0917E-03    -60.5035E-03     109.606E-03    -49.0276E-03     24.6304E-03
            2216     12.0062E-03     13.7117E-03    -21.0727E+06    -1.29773E+06     28.6044E+06     617.153E+03    -60.0585E-03     108.462E-03    -48.4037E-03     26.2706E-03    -60.2858E-03     108.527E-03    -48.2283E-03     25.8337E-03
            2217     11.1585E-03     13.6739E-03    -24.5459E+06    -23.0699E+06     21.8950E+06     1.06273E+06    -59.2868E-03     106.810E-03    -47.5236E-03     25.8689E-03    -59.4821E-03     106.773E-03    -47.3451E-03     25.4717E-03
            2218     10.3099E-03     13.6360E-03    -28.1211E+06    -43.4513E+06     16.1574E+06     1.58393E+06    -57.9383E-03     104.527E-03    -46.5884E-03     24.2828E-03    -58.1016E-03     104.389E-03    -46.4038E-03     23.9387E-03
            2219     9.46002E-03     13.5991E-03    -31.8464E+06    -60.8603E+06     9.82320E+06     2.21831E+06    -56.1234E-03     101.742E-03    -45.6181E-03     22.0742E-03    -56.2579E-03     101.519E-03    -45.4346E-03     21.7918E-03
            2220     8.60842E-03     13.5641E-03    -35.7309E+06    -79.3482E+06     3.60790E+06     2.92107E+06    -54.0134E-03     98.6651E-03    -44.6517E-03     19.6281E-03    -54.1191E-03     98.3522E-03    -44.4668E-03     19.4090E-03
            2221     7.75490E-03     13.5316E-03    -39.8298E+06    -95.0412E+06    -2.47884E+06     3.79789E+06    -51.7412E-03     95.4509E-03    -43.7097E-03     17.2039E-03    -51.8255E-03     95.0638E-03    -43.5265E-03     17.0471E-03
            2222     6.89941E-03     13.5017E-03    -44.0403E+06    -110.729E+06    -8.23878E+06     4.74594E+06    -49.4423E-03     92.2617E-03    -42.8194E-03     14.8743E-03    -49.5084E-03     91.8024E-03    -42.6362E-03     14.7742E-03
            2223     6.04196E-03     13.4746E-03    -48.3605E+06    -122.591E+06    -13.8238E+06     5.42309E+06    -47.2080E-03     89.2017E-03    -41.9937E-03     12.7239E-03    -47.2643E-03     88.6913E-03    -41.8150E-03     12.6703E-03
            2224     5.18263E-03     13.4506E-03    -53.1825E+06    -132.450E+06    -21.3477E+06     5.98041E+06    -45.1283E-03     86.3705E-03    -41.2422E-03     10.7503E-03    -45.1791E-03     85.8242E-03    -41.0798E-03     10.7347E-03
            2225     4.32161E-03     13.4297E-03    -58.3792E+06    -141.368E+06    -31.4608E+06     5.89587E+06    -43.2846E-03     83.8609E-03    -40.5763E-03     8.91427E-03    -43.3308E-03     83.2890E-03    -40.4440E-03     8.92225E-03
            2226     3.45911E-03     13.4121E-03    -63.4315E+06    -149.349E+06    -42.6969E+06     4.96025E+06    -41.7328E-03     81.7451E-03    -40.0123E-03     7.17247E-03    -41.7744E-03     81.1548E-03    -39.9172E-03     7.18795E-03
            2227     2.59541E-03     13.3980E-03    -68.2298E+06    -157.739E+06    -54.8847E+06     3.73865E+06    -40.5125E-03     80.0718E-03    -39.5593E-03     5.46549E-03    -40.5469E-03     79.4629E-03    -39.5061E-03     5.48071E-03
            2228     1.73078E-03     13.3877E-03    -72.5027E+06    -165.240E+06    -66.3488E+06     2.73018E+06    -39.6460E-03     78.8719E-03    -39.2259E-03     3.74684E-03    -39.6736E-03     78.2474E-03    -39.2129E-03     3.76150E-03
            2229     865.540E-06     13.3812E-03    -75.5609E+06    -170.232E+06    -74.0951E+06     1.79459E+06    -39.1498E-03     78.1508E-03    -39.0010E-03     2.05650E-03    -39.1738E-03     77.5166E-03    -39.0151E-03     2.06908E-03
            2230     16.2486E-03     12.7744E-03    -3.95530E+06     110.929E+06     75.1857E+06    -380.618E+03    -58.7721E-03     110.040E-03    -51.2683E-03    -79.9268E-06    -59.0960E-03     110.526E-03    -51.0474E-03    -463.740E-06
            2231     15.4007E-03     12.7659E-03    -7.70665E+06     107.135E+06     61.2811E+06    -642.573E+03    -60.0375E-03     110.766E-03    -50.7283E-03     10.2615E-03    -60.3812E-03     111.285E-03    -50.5661E-03     9.78266E-03
            2232     14.5539E-03     12.7465E-03    -11.2020E+06     98.7228E+06     52.5293E+06    -799.764E+03    -61.1228E-03     111.219E-03    -50.0963E-03     16.9972E-03    -61.4697E-03     111.725E-03    -49.9606E-03     16.5117E-03
            2233     13.7078E-03     12.7200E-03    -14.6055E+06     65.4627E+06     43.3275E+06    -441.584E+03    -61.9234E-03     111.291E-03    -49.3673E-03     20.6408E-03    -62.2329E-03     111.655E-03    -49.2244E-03     20.1523E-03
            2234     12.8623E-03     12.6889E-03    -17.8716E+06     20.5349E+06     32.6346E+06     154.429E+03    -62.2405E-03     110.758E-03    -48.5173E-03     22.3581E-03    -62.4863E-03     110.919E-03    -48.3580E-03     21.8871E-03
            2235     12.0167E-03     12.6546E-03    -21.1759E+06    -1.53476E+06     28.5323E+06     567.546E+03    -61.7867E-03     109.339E-03    -47.5523E-03     22.7085E-03    -62.0064E-03     109.396E-03    -47.3767E-03     22.2698E-03
            2236     11.1704E-03     12.6190E-03    -24.6566E+06    -23.2809E+06     21.8926E+06     1.04279E+06    -60.6276E-03     107.114E-03    -46.4866E-03     21.6538E-03    -60.8143E-03     107.068E-03    -46.3077E-03     21.2619E-03
            2237     10.3229E-03     12.5839E-03    -28.2374E+06    -43.6870E+06     16.2890E+06     1.56529E+06    -58.8298E-03     104.199E-03    -45.3696E-03     19.6463E-03    -58.9849E-03     104.052E-03    -45.1838E-03     19.3130E-03
            2238     9.47360E-03     12.5504E-03    -31.8896E+06    -61.1693E+06     10.1873E+06     2.16061E+06    -56.5658E-03     100.791E-03    -44.2254E-03     17.2685E-03    -56.6927E-03     100.559E-03    -44.0395E-03     16.9996E-03
            2239     8.62225E-03     12.5191E-03    -35.6829E+06    -79.6317E+06     4.26577E+06     2.93620E+06    -54.0344E-03     97.1282E-03    -43.0938E-03     14.8550E-03    -54.1339E-03     96.8064E-03    -42.9053E-03     14.6516E-03
            2240     7.76866E-03     12.4902E-03    -39.6622E+06    -95.4142E+06    -1.50651E+06     3.74333E+06    -51.3749E-03     93.3700E-03    -41.9952E-03     12.6128E-03    -51.4541E-03     92.9744E-03    -41.8068E-03     12.4704E-03
            2241     6.91276E-03     12.4639E-03    -43.7774E+06    -110.527E+06    -6.95669E+06     4.34884E+06    -48.7116E-03     89.6670E-03    -40.9553E-03     10.5963E-03    -48.7748E-03     89.2027E-03    -40.7664E-03     10.5049E-03
            2242     6.05458E-03     12.4403E-03    -48.2382E+06    -122.381E+06    -12.6471E+06     4.93582E+06    -46.1378E-03     86.1251E-03    -39.9873E-03     8.84146E-03    -46.1929E-03     85.6112E-03    -39.8031E-03     8.79321E-03
            2243     5.19421E-03     12.4195E-03    -52.8825E+06    -131.590E+06    -20.6171E+06     5.43639E+06    -43.7409E-03     82.8395E-03    -39.0986E-03     7.32129E-03    -43.7909E-03     82.2943E-03    -38.9342E-03     7.30813E-03
            2244     4.33184E-03     12.4014E-03    -57.2211E+06    -139.060E+06    -31.1520E+06     5.16824E+06    -41.5894E-03     79.8934E-03    -38.3040E-03     5.99671E-03    -41.6326E-03     79.3299E-03    -38.1752E-03     6.00270E-03
            2245     3.46770E-03     12.3861E-03    -61.1709E+06    -146.661E+06    -42.7421E+06     4.37083E+06    -39.7492E-03     77.3775E-03    -37.6283E-03     4.80356E-03    -39.7827E-03     76.7969E-03    -37.5406E-03     4.81696E-03
            2246     2.60206E-03     12.3739E-03    -64.7733E+06    -155.169E+06    -53.2516E+06     3.72283E+06    -38.2863E-03     75.3803E-03    -37.0940E-03     3.66985E-03    -38.3093E-03     74.7765E-03    -37.0414E-03     3.68880E-03
            2247     1.73532E-03     12.3649E-03    -67.8859E+06    -162.366E+06    -61.6702E+06     3.04651E+06    -37.2381E-03     73.9442E-03    -36.7061E-03     2.53284E-03    -37.2534E-03     73.3204E-03    -36.6806E-03     2.55412E-03
            2248     867.854E-06     12.3592E-03    -69.9168E+06    -166.370E+06    -68.0131E+06     1.82071E+06    -36.6341E-03     73.0580E-03    -36.4239E-03     1.40285E-03    -36.6442E-03     72.4260E-03    -36.4213E-03     1.41708E-03
            2249     16.2504E-03     11.7143E-03    -4.16306E+06     111.382E+06     75.4727E+06    -515.466E+03    -60.9481E-03     112.103E-03    -51.1550E-03     684.670E-06    -61.2763E-03     112.593E-03    -50.9331E-03     275.942E-06
            2250     15.4045E-03     11.7049E-03    -8.00213E+06     107.492E+06     61.2179E+06    -947.447E+03    -62.3341E-03     112.818E-03    -50.4838E-03     10.5292E-03    -62.6819E-03     113.341E-03    -50.3220E-03     10.0207E-03
            2251     14.5597E-03     11.6853E-03    -11.5340E+06     98.6598E+06     52.2551E+06    -1.11024E+06    -63.4937E-03     113.195E-03    -49.7010E-03     16.5479E-03    -63.8426E-03     113.701E-03    -49.5660E-03     16.0350E-03
            2252     13.7157E-03     11.6590E-03    -14.9415E+06     64.9473E+06     43.0062E+06    -703.882E+03    -64.2344E-03     113.037E-03    -48.8026E-03     19.3343E-03    -64.5433E-03     113.399E-03    -48.6601E-03     18.8231E-03
            2253     12.8721E-03     11.6289E-03    -18.1951E+06     20.1984E+06     32.4528E+06    -13.6784E+03    -64.3109E-03     112.081E-03    -47.7704E-03     20.1489E-03    -64.5542E-03     112.238E-03    -47.6111E-03     19.6634E-03
            2254     12.0282E-03     11.5966E-03    -21.4544E+06    -1.74301E+06     28.4850E+06     432.999E+03    -63.4558E-03     110.075E-03    -46.6195E-03     19.7193E-03    -63.6713E-03     110.126E-03    -46.4435E-03     19.2744E-03
            2255     11.1833E-03     11.5638E-03    -24.8177E+06    -23.5394E+06     21.9719E+06     936.312E+03    -61.8040E-03     107.177E-03    -45.3735E-03     18.1139E-03    -61.9852E-03     107.124E-03    -45.1935E-03     17.7236E-03
            2256     10.3366E-03     11.5323E-03    -28.3004E+06    -43.8460E+06     16.6122E+06     1.47704E+06    -59.5041E-03     103.592E-03    -44.0875E-03     15.8498E-03    -59.6538E-03     103.437E-03    -43.8998E-03     15.5234E-03
            2257     9.48775E-03     11.5028E-03    -31.9411E+06    -61.3916E+06     10.8068E+06     1.98899E+06    -56.7779E-03     99.5658E-03    -42.7880E-03     13.4818E-03    -56.9005E-03     99.3263E-03    -42.5986E-03     13.2214E-03
            2258     8.63645E-03     11.4757E-03    -35.6423E+06    -80.0241E+06     5.19752E+06     2.69412E+06    -53.8294E-03     95.3434E-03    -41.5140E-03     11.2835E-03    -53.9255E-03     95.0143E-03    -41.3203E-03     11.0881E-03
            2259     7.78255E-03     11.4511E-03    -39.3776E+06    -95.3595E+06     19.6472E+03     3.27589E+06    -50.7998E-03     91.0853E-03    -40.2855E-03     9.39624E-03    -50.8771E-03     90.6845E-03    -40.0900E-03     9.25810E-03
            2260     6.92603E-03     11.4290E-03    -43.3951E+06    -110.384E+06    -4.84450E+06     3.79792E+06    -47.8150E-03     86.9420E-03    -39.1270E-03     7.80260E-03    -47.8777E-03     86.4731E-03    -38.9282E-03     7.71276E-03
            2261     6.06693E-03     11.4093E-03    -47.7830E+06    -122.083E+06    -11.3072E+06     4.30926E+06    -44.9602E-03     83.0025E-03    -38.0423E-03     6.49250E-03    -45.0143E-03     82.4865E-03    -37.8525E-03     6.44306E-03
            2262     5.20542E-03     11.3920E-03    -52.0509E+06    -130.337E+06    -20.3941E+06     4.20715E+06    -42.3099E-03     79.3509E-03    -37.0410E-03     5.40233E-03    -42.3572E-03     78.8099E-03    -36.8785E-03     5.37845E-03
            2263     4.34167E-03     11.3772E-03    -55.6938E+06    -137.033E+06    -31.0388E+06     3.55277E+06    -39.9239E-03     76.0696E-03    -36.1457E-03     4.46432E-03    -39.9622E-03     75.5137E-03    -36.0214E-03     4.45313E-03
            2264     3.47590E-03     11.3647E-03    -58.7636E+06    -144.872E+06    -40.9988E+06     3.01986E+06    -37.8704E-03     73.2565E-03    -35.3861E-03     3.60408E-03    -37.8968E-03     72.6788E-03    -35.2959E-03     3.60255E-03
            2265     2.60848E-03     11.3547E-03    -61.5539E+06    -153.274E+06    -49.0344E+06     2.68771E+06    -36.2099E-03     70.9890E-03    -34.7791E-03     2.76494E-03    -36.2256E-03     70.3839E-03    -34.7128E-03     2.77214E-03
            2266     1.73976E-03     11.3473E-03    -63.8685E+06    -159.604E+06    -56.5687E+06     1.90031E+06    -34.9789E-03     69.2993E-03    -34.3204E-03     1.90979E-03    -34.9855E-03     68.6762E-03    -34.2792E-03     1.91721E-03
            2267     870.131E-06     11.3426E-03    -65.3863E+06    -163.336E+06    -63.0363E+06     931.576E+03    -34.2386E-03     68.2154E-03    -33.9768E-03     1.05467E-03    -34.2377E-03     67.5849E-03    -33.9603E-03     1.05788E-03
            2268     16.2523E-03     10.6518E-03    -4.10902E+06     112.061E+06     76.0293E+06    -465.725E+03    -63.1902E-03     114.231E-03    -51.0411E-03     1.65116E-03    -63.5229E-03     114.727E-03    -50.8175E-03     1.21750E-03
            2269     15.4084E-03     10.6417E-03    -8.19974E+06     108.047E+06     61.3874E+06    -1.06157E+06    -64.7217E-03     114.956E-03    -50.2348E-03     11.1673E-03    -65.0753E-03     115.486E-03    -50.0726E-03     10.6276E-03
            2270     14.5657E-03     10.6217E-03    -11.8827E+06     98.5047E+06     52.0483E+06    -1.35261E+06    -65.9492E-03     115.245E-03    -49.2960E-03     16.4940E-03    -66.3020E-03     115.755E-03    -49.1614E-03     15.9501E-03
            2271     13.7238E-03     10.5959E-03    -15.3621E+06     64.3715E+06     42.7701E+06    -914.313E+03    -66.5319E-03     114.759E-03    -48.2267E-03     18.4518E-03    -66.8425E-03     115.119E-03    -48.0839E-03     17.9149E-03
            2272     12.8821E-03     10.5674E-03    -18.6537E+06     19.7941E+06     32.3262E+06    -231.401E+03    -66.2200E-03     113.239E-03    -47.0188E-03     18.4483E-03    -66.4636E-03     113.393E-03    -46.8588E-03     17.9450E-03
            2273     12.0397E-03     10.5378E-03    -21.9066E+06    -1.95277E+06     28.5699E+06     227.403E+03    -64.8316E-03     110.532E-03    -45.7001E-03     17.3928E-03    -65.0465E-03     110.580E-03    -45.5227E-03     16.9389E-03
            2274     11.1957E-03     10.5086E-03    -25.2693E+06    -23.7683E+06     22.2486E+06     662.066E+03    -62.6044E-03     106.907E-03    -44.3030E-03     15.4690E-03    -62.7848E-03     106.850E-03    -44.1206E-03     15.0759E-03
            2275     10.3496E-03     10.4814E-03    -28.5994E+06    -44.0213E+06     17.2138E+06     1.12146E+06    -59.7657E-03     102.653E-03    -42.8874E-03     13.2319E-03    -59.9146E-03     102.495E-03    -42.6960E-03     12.9061E-03
            2276     9.50077E-03     10.4565E-03    -32.0699E+06    -61.6475E+06     11.8257E+06     1.69231E+06    -56.5750E-03     98.0559E-03    -41.4809E-03     11.1516E-03    -56.6972E-03     97.8116E-03    -41.2859E-03     10.8945E-03
            2277     8.64915E-03     10.4342E-03    -35.6866E+06    -80.0289E+06     6.79264E+06     2.08318E+06    -53.2429E-03     93.3643E-03    -40.1213E-03     9.41144E-03    -53.3403E-03     93.0316E-03    -39.9196E-03     9.21540E-03
            2278     7.79459E-03     10.4143E-03    -39.2896E+06    -95.2337E+06     2.19852E+06     2.31594E+06    -49.9131E-03     88.7390E-03    -38.8259E-03     8.05755E-03    -49.9928E-03     88.3351E-03    -38.6199E-03     7.91315E-03
            2279     6.93717E-03     10.3967E-03    -43.1592E+06    -110.563E+06    -2.22355E+06     2.89035E+06    -46.7113E-03     84.3268E-03    -37.6155E-03     6.97824E-03    -46.7763E-03     83.8528E-03    -37.4037E-03     6.88137E-03
            2280     6.07702E-03     10.3813E-03    -47.2448E+06    -121.313E+06    -9.55914E+06     3.08089E+06    -43.7025E-03     80.1835E-03    -36.4810E-03     6.12556E-03    -43.7577E-03     79.6683E-03    -36.2844E-03     6.06354E-03
            2281     5.21431E-03     10.3680E-03    -50.8275E+06    -128.556E+06    -19.8399E+06     2.26713E+06    -40.9440E-03     76.3786E-03    -35.4347E-03     5.39876E-03    -40.9888E-03     75.8444E-03    -35.2738E-03     5.35192E-03
            2282     4.34925E-03     10.3566E-03    -53.8919E+06    -135.756E+06    -28.9098E+06     1.42097E+06    -38.4868E-03     72.9999E-03    -34.5130E-03     4.70234E-03    -38.5213E-03     72.4450E-03    -34.3826E-03     4.66482E-03
            2283     3.48217E-03     10.3471E-03    -57.1989E+06    -144.110E+06    -36.8220E+06     1.28611E+06    -36.3738E-03     70.1016E-03    -33.7277E-03     3.96326E-03    -36.3998E-03     69.5197E-03    -33.6199E-03     3.93994E-03
            2284     2.61336E-03     10.3396E-03    -60.7077E+06    -151.805E+06    -46.1730E+06      978.27E+03    -34.6304E-03     67.7034E-03    -33.0730E-03     3.14394E-03    -34.6481E-03     67.1006E-03    -32.9957E-03     3.12934E-03
            2285     1.74313E-03     10.3340E-03    -63.6904E+06    -157.973E+06    -56.1749E+06     319.061E+03    -33.2985E-03     65.8622E-03    -32.5637E-03     2.22184E-03    -33.3070E-03     65.2466E-03    -32.5231E-03     2.20894E-03
            2286     871.857E-06     10.3305E-03    -65.7403E+06    -162.301E+06    -63.4393E+06    -14.7003E+03    -32.4718E-03     64.6643E-03    -32.1924E-03     1.24426E-03    -32.4735E-03     64.0402E-03    -32.1789E-03     1.23528E-03
            2287     16.2540E-03     9.58721E-03    -4.18494E+06     112.726E+06     76.7229E+06    -396.534E+03    -65.3518E-03     116.287E-03    -50.9349E-03     2.72944E-03    -65.6904E-03     116.788E-03    -50.7087E-03     2.27052E-03
            2288     15.4120E-03     9.57606E-03    -8.17844E+06     108.794E+06     61.9102E+06    -996.456E+03    -67.0222E-03     117.021E-03    -49.9990E-03     12.0136E-03    -67.3823E-03     117.559E-03    -49.8354E-03     11.4436E-03
            2289     14.5714E-03     9.55591E-03    -12.0059E+06     98.3998E+06     52.1821E+06    -1.37132E+06    -68.2187E-03     117.133E-03    -48.9138E-03     16.6438E-03    -68.5759E-03     117.645E-03    -48.7782E-03     16.0711E-03
            2290     13.7314E-03     9.53106E-03    -15.6936E+06     63.7237E+06     42.8090E+06    -988.760E+03    -68.4903E-03     116.182E-03    -47.6921E-03     17.8016E-03    -68.8038E-03     116.542E-03    -47.5476E-03     17.2414E-03
            2291     12.8913E-03     9.50476E-03    -19.1903E+06     19.4124E+06     32.4909E+06    -314.469E+03    -67.6306E-03     113.970E-03    -46.3399E-03     17.1469E-03    -67.8771E-03     114.124E-03    -46.1777E-03     16.6286E-03
            2292     12.0499E-03     9.47858E-03    -22.6984E+06    -2.15639E+06     28.9457E+06     74.6097E+03    -65.5878E-03     110.487E-03    -44.8996E-03     15.7696E-03    -65.8065E-03     110.534E-03    -44.7188E-03     15.3084E-03
            2293     11.2063E-03     9.45387E-03    -26.1893E+06    -23.7354E+06     22.9513E+06     285.452E+03    -62.7233E-03     106.135E-03    -43.4119E-03     13.9166E-03    -62.9086E-03     106.077E-03    -43.2247E-03     13.5198E-03
            2294     10.3600E-03     9.43163E-03    -29.5826E+06    -44.1591E+06     18.2543E+06     447.860E+03    -59.3424E-03     101.282E-03    -41.9399E-03     12.1090E-03    -59.4972E-03     101.123E-03    -41.7417E-03     11.7793E-03
            2295     9.51070E-03     9.41195E-03    -32.7906E+06    -61.9391E+06     13.3682E+06     769.831E+03    -55.7394E-03     96.2498E-03    -40.5103E-03     10.6667E-03    -55.8673E-03     96.0031E-03    -40.3062E-03     10.4035E-03
            2296     8.65821E-03     9.39482E-03    -35.9230E+06    -79.6275E+06     9.21413E+06     916.339E+03    -52.1340E-03     91.2912E-03    -39.1573E-03     9.63327E-03    -52.2375E-03     90.9583E-03    -38.9436E-03     9.42747E-03
            2297     7.80258E-03     9.37992E-03    -39.3857E+06    -95.2938E+06     5.12764E+06     959.958E+03    -48.6584E-03     86.5510E-03    -37.8926E-03     8.95057E-03    -48.7438E-03     86.1438E-03    -37.6716E-03     8.79272E-03
            2298     6.94400E-03     9.36704E-03    -43.0876E+06    -110.809E+06     107.210E+03     1.28613E+06    -45.4135E-03     82.1388E-03    -36.7253E-03     8.44294E-03    -45.4823E-03     81.6613E-03    -36.5016E-03     8.32811E-03
            2299     6.08264E-03     9.35596E-03    -46.4394E+06    -119.844E+06    -7.76019E+06     764.410E+03    -42.4447E-03     78.0883E-03    -35.6436E-03     8.01250E-03    -42.5017E-03     77.5778E-03    -35.4413E-03     7.92224E-03
            2300     5.21880E-03     9.34652E-03    -49.3647E+06    -127.128E+06    -16.8283E+06    -430.392E+03    -39.7900E-03     74.4582E-03    -34.6682E-03     7.52614E-03    -39.8348E-03     73.9255E-03    -34.4964E-03     7.44537E-03
            2301     4.35274E-03     9.33859E-03     -52.768E+06    -135.766E+06    -25.0731E+06    -630.125E+03    -37.4701E-03     71.2899E-03    -33.8198E-03     6.88869E-03    -37.5051E-03     70.7285E-03    -33.6718E-03     6.82520E-03
            2302     3.48476E-03     9.33206E-03    -56.7743E+06    -143.952E+06    -34.8464E+06    -413.401E+03    -35.4967E-03     68.5859E-03    -33.0891E-03     6.03001E-03    -35.5240E-03     68.0017E-03    -32.9723E-03     5.98513E-03
            2303     2.61515E-03     9.32699E-03    -60.6090E+06    -151.212E+06    -45.9885E+06    -551.650E+03    -33.8849E-03     66.3681E-03    -32.4832E-03     4.91685E-03    -33.9034E-03     65.7680E-03    -32.4060E-03     4.88281E-03
            2304     1.74423E-03     9.32331E-03    -64.0141E+06    -157.849E+06    -56.4071E+06    -599.035E+03    -32.6741E-03     64.6964E-03    -32.0223E-03     3.53993E-03    -32.6842E-03     64.0824E-03    -31.9826E-03     3.51547E-03
            2305     872.377E-06     9.32110E-03    -66.6062E+06    -162.757E+06    -64.2209E+06    -434.275E+03    -31.9254E-03     63.6238E-03    -31.6984E-03     2.00524E-03    -31.9296E-03     63.0000E-03    -31.6870E-03     1.99102E-03
            2306     16.2556E-03     8.52040E-03    -4.07247E+06     113.314E+06     77.7380E+06    -358.596E+03    -67.3218E-03     118.162E-03    -50.8406E-03     3.91305E-03    -67.6662E-03     118.669E-03    -50.6103E-03     3.42886E-03
            2307     15.4153E-03     8.50829E-03    -8.17497E+06     109.552E+06     62.7736E+06    -943.551E+03    -69.0395E-03     118.829E-03    -49.7894E-03     12.9513E-03    -69.4075E-03     119.375E-03    -49.6226E-03     12.3520E-03
            2308     14.5764E-03     8.48814E-03    -12.0222E+06     98.1959E+06     52.8228E+06    -1.17718E+06    -69.9941E-03     118.577E-03    -48.5830E-03     16.8053E-03    -70.3564E-03     119.092E-03    -48.4438E-03     16.2096E-03
            2309     13.7378E-03     8.46479E-03    -16.0320E+06     62.9839E+06     43.3223E+06    -608.835E+03    -69.7097E-03     116.960E-03    -47.2502E-03     17.2478E-03    -70.0273E-03     117.319E-03    -47.1017E-03     16.6759E-03
            2310     12.8985E-03     8.44158E-03    -20.0809E+06     19.1744E+06     33.1320E+06    -16.2585E+03    -68.1009E-03     113.916E-03    -45.8155E-03     16.2560E-03    -68.3540E-03     114.071E-03    -45.6485E-03     15.7346E-03
            2311     12.0573E-03     8.41971E-03    -23.9342E+06    -2.02758E+06     29.9689E+06     35.1877E+03    -65.2892E-03     109.625E-03    -44.3357E-03     15.0552E-03    -65.5169E-03     109.674E-03    -44.1482E-03     14.5949E-03
            2312     11.2133E-03     8.40017E-03    -27.5815E+06    -23.2798E+06     24.3902E+06    -269.801E+03    -61.7838E-03     104.640E-03    -42.8557E-03     13.8286E-03    -61.9802E-03     104.585E-03    -42.6600E-03     13.4312E-03
            2313     10.3660E-03     8.38347E-03    -30.8179E+06    -43.8928E+06     20.2083E+06    -713.573E+03    -57.9599E-03     99.3981E-03    -41.4381E-03     12.9193E-03    -58.1259E-03     99.2408E-03    -41.2288E-03     12.5829E-03
            2314     9.51535E-03     8.36933E-03    -33.6304E+06    -61.8930E+06     15.9363E+06    -1.11865E+06    -54.1189E-03     94.2221E-03    -40.1032E-03     12.4475E-03    -54.2570E-03     93.9754E-03    -39.8850E-03     12.1679E-03
            2315     8.66135E-03     8.35754E-03    -36.2720E+06    -79.6120E+06     12.4793E+06    -1.20706E+06    -50.4611E-03     89.3383E-03    -38.8771E-03     12.2951E-03    -50.5734E-03     89.0034E-03    -38.6467E-03     12.0685E-03
            2316     7.80425E-03     8.34758E-03    -39.3798E+06     -95.706E+06     9.04157E+06    -889.794E+03    -47.0890E-03     84.8532E-03    -37.7642E-03     12.3005E-03    -47.1816E-03     84.4404E-03    -37.5231E-03     12.1236E-03
            2317     6.94428E-03     8.33926E-03    -42.7602E+06    -110.290E+06     2.94726E+06    -1.26653E+06    -44.0607E-03     80.8153E-03    -36.7546E-03     12.2667E-03    -44.1345E-03     80.3377E-03    -36.5180E-03     12.1224E-03
            2318     6.08179E-03     8.33219E-03    -45.5822E+06    -118.355E+06    -6.62447E+06    -2.57861E+06    -41.3874E-03     77.2246E-03    -35.8372E-03     12.0676E-03    -41.4453E-03     76.7200E-03    -35.6326E-03     11.9366E-03
            2319     5.21708E-03     8.32631E-03    -48.6208E+06    -127.357E+06    -15.1562E+06    -3.03838E+06    -39.0858E-03     74.1317E-03    -35.0459E-03     11.5565E-03    -39.1299E-03     73.5953E-03    -34.8665E-03     11.4440E-03
            2320     4.35047E-03     8.32143E-03    -52.4408E+06    -136.751E+06    -23.9180E+06    -2.55075E+06    -37.1440E-03     71.5172E-03    -34.3732E-03     10.6624E-03    -37.1782E-03     70.9493E-03    -34.2185E-03     10.5757E-03
            2321     3.48227E-03     8.31751E-03    -56.2398E+06    -144.537E+06    -35.4404E+06    -2.14281E+06    -35.5540E-03     69.3565E-03    -33.8025E-03     9.32645E-03    -35.5773E-03     68.7698E-03    -33.6886E-03     9.26061E-03
            2322     2.61278E-03     8.31449E-03    -59.8903E+06    -152.113E+06    -46.8373E+06    -1.53694E+06    -34.3226E-03     67.6734E-03    -33.3508E-03     7.54880E-03    -34.3353E-03     67.0692E-03    -33.2776E-03     7.50312E-03
            2323     1.74235E-03     8.31238E-03    -63.3874E+06    -158.748E+06    -56.8678E+06    -769.885E+03    -33.4527E-03     66.4740E-03    -33.0213E-03     5.37766E-03    -33.4578E-03     65.8552E-03    -32.9836E-03     5.35172E-03
            2324     871.333E-06     8.31108E-03    -66.1428E+06    -163.614E+06    -64.1854E+06    -269.435E+03    -32.9383E-03     65.7422E-03    -32.8039E-03     3.02009E-03    -32.9392E-03     65.1132E-03    -32.7916E-03     3.00839E-03
            2325     16.2569E-03     7.45171E-03    -4.11797E+06     113.840E+06     78.9297E+06    -405.861E+03    -68.9726E-03     119.734E-03    -50.7612E-03     5.15155E-03    -69.3241E-03     120.246E-03    -50.5257E-03     4.64279E-03
            2326     15.4181E-03     7.43861E-03    -8.13483E+06     110.068E+06     63.8077E+06    -808.710E+03    -70.5171E-03     120.136E-03    -49.6192E-03     13.8440E-03    -70.8928E-03     120.689E-03    -49.4480E-03     13.2211E-03
            2327     14.5804E-03     7.41904E-03    -12.4442E+06     97.3807E+06     53.5177E+06    -510.794E+03    -70.8774E-03     119.214E-03    -48.3361E-03     16.9012E-03    -71.2459E-03     119.729E-03    -48.1916E-03     16.2978E-03
            2328     13.7424E-03     7.39807E-03    -17.1687E+06     62.1315E+06     44.2651E+06     462.029E+03    -69.6640E-03     116.630E-03    -46.9655E-03     16.9345E-03    -69.9901E-03     116.987E-03    -46.8094E-03     16.3732E-03
            2329     12.9028E-03     7.37889E-03    -21.8212E+06     19.5767E+06     34.5271E+06     712.764E+03    -67.0718E-03     112.621E-03    -45.5493E-03     16.2043E-03    -67.3384E-03     112.780E-03    -45.3734E-03     15.7001E-03
            2330     12.0604E-03     7.36226E-03    -26.0164E+06    -984.716E+03     31.9373E+06    -166.494E+03    -63.4659E-03     107.620E-03    -44.1537E-03     15.8883E-03    -63.7106E-03     107.676E-03    -43.9549E-03     15.4404E-03
            2331     11.2146E-03     7.34845E-03    -29.3853E+06    -22.0564E+06     26.9674E+06    -1.56515E+06    -59.4789E-03     102.297E-03    -42.8185E-03     15.8747E-03    -59.6923E-03     102.251E-03    -42.6090E-03     15.4780E-03
            2332     10.3652E-03     7.33754E-03    -32.0570E+06    -43.1558E+06     23.4198E+06    -2.85008E+06    -55.4937E-03     97.0895E-03    -41.5958E-03     16.2208E-03    -55.6743E-03     96.9359E-03    -41.3696E-03     15.8735E-03
            2333     9.51236E-03     7.32889E-03    -34.4817E+06    -61.3977E+06     19.8177E+06    -3.88843E+06    -51.7572E-03     92.2496E-03    -40.4924E-03     16.8411E-03    -51.9085E-03     92.0036E-03    -40.2543E-03     16.5399E-03
            2334     8.65637E-03     7.32210E-03    -36.9028E+06    -80.3025E+06     16.8409E+06    -4.32579E+06    -48.4102E-03     87.9329E-03    -39.5226E-03     17.4797E-03    -48.5333E-03     87.5915E-03    -39.2685E-03     17.2243E-03
            2335     7.79755E-03     7.31662E-03    -39.2313E+06    -96.5129E+06     13.0063E+06    -4.17578E+06    -45.4974E-03     84.1696E-03    -38.6721E-03     17.9267E-03    -45.5956E-03     83.7486E-03    -38.4103E-03     17.7163E-03
            2336     6.93635E-03     7.31217E-03    -41.4486E+06    -109.121E+06     5.60211E+06    -4.94011E+06    -43.0205E-03     80.9407E-03    -37.9203E-03     17.9842E-03    -43.0946E-03     80.4644E-03    -37.6739E-03     17.7993E-03
            2337     6.07309E-03     7.30850E-03    -44.2281E+06    -118.462E+06    -4.76964E+06    -5.78311E+06    -40.9462E-03     78.2109E-03    -37.2647E-03     17.5527E-03    -41.0008E-03     77.7019E-03    -37.0527E-03     17.3858E-03
            2338     5.20813E-03     7.30543E-03    -47.6368E+06    -129.203E+06    -14.7686E+06    -5.28427E+06    -39.2562E-03     75.9778E-03    -36.7216E-03     16.5292E-03    -39.2939E-03     75.4304E-03    -36.5391E-03     16.3919E-03
            2339     4.34184E-03     7.30287E-03    -51.1774E+06    -138.383E+06    -25.2989E+06    -4.44345E+06    -37.9122E-03     74.1860E-03    -36.2738E-03     14.9059E-03    -37.9362E-03     73.6101E-03    -36.1254E-03     14.7978E-03
            2340     3.47450E-03     7.30080E-03    -54.8708E+06    -146.651E+06    -37.1230E+06    -3.29844E+06    -36.8861E-03     72.7970E-03    -35.9109E-03     12.7103E-03    -36.8973E-03     72.2001E-03    -35.8043E-03     12.6315E-03
            2341     2.60642E-03     7.29918E-03    -58.5392E+06    -154.231E+06    -48.1044E+06    -1.74293E+06    -36.1477E-03     71.7833E-03    -35.6355E-03     10.0301E-03    -36.1490E-03     71.1681E-03    -35.5675E-03     9.98288E-03
            2342     1.73786E-03     7.29797E-03    -61.5524E+06    -160.185E+06    -56.9870E+06    -423.842E+03    -35.6600E-03     71.1024E-03    -35.4424E-03     6.98778E-03    -35.6540E-03     70.4738E-03    -35.4058E-03     6.96684E-03
            2343     868.992E-06     7.29725E-03    -63.4787E+06    -163.847E+06    -62.4858E+06     292.524E+03    -35.3845E-03     70.7109E-03    -35.3265E-03     3.86542E-03    -35.3743E-03     70.0742E-03    -35.3093E-03     3.86119E-03
            2344     16.2581E-03     6.38145E-03    -4.00457E+06     114.212E+06     79.8029E+06    -447.597E+03    -70.1314E-03     120.835E-03    -50.7035E-03     6.35315E-03    -70.4885E-03     121.352E-03    -50.4643E-03     5.82590E-03
            2345     15.4202E-03     6.36772E-03    -8.43527E+06     109.720E+06     64.3843E+06    -227.285E+03    -70.9838E-03     120.498E-03    -49.5145E-03     14.6959E-03    -71.3665E-03     121.054E-03    -49.3394E-03     14.0688E-03
            2346     14.5827E-03     6.34969E-03    -13.5530E+06     95.4255E+06     54.2804E+06     1.22467E+06    -70.2014E-03     118.438E-03    -48.2365E-03     17.2270E-03    -70.5773E-03     118.947E-03    -48.0838E-03     16.6487E-03
            2347     13.7438E-03     6.33239E-03    -19.5816E+06     61.5917E+06     46.0459E+06     2.58398E+06    -67.6627E-03     114.610E-03    -46.9472E-03     17.6205E-03    -68.0053E-03     114.969E-03    -46.7779E-03     17.1062E-03
            2348     12.9021E-03     6.31841E-03    -25.0181E+06     22.0523E+06     37.2173E+06     1.27529E+06    -64.0240E-03     109.719E-03    -45.6952E-03     18.0400E-03    -64.3164E-03     109.894E-03    -45.5048E-03     17.5736E-03
            2349     12.0567E-03     6.30761E-03    -28.4699E+06     1.57982E+06     35.6168E+06    -1.75467E+06    -59.8733E-03     104.417E-03    -44.5441E-03     19.2567E-03    -60.1413E-03     104.487E-03    -44.3270E-03     18.8225E-03
            2350     11.2077E-03     6.29964E-03    -30.7226E+06    -20.2935E+06     31.2663E+06    -4.27224E+06    -55.8407E-03     99.3510E-03    -43.5103E-03     20.7634E-03    -56.0713E-03     99.3106E-03    -43.2800E-03     20.3648E-03
            2351     10.3552E-03     6.29416E-03    -32.7063E+06    -42.0654E+06     28.3456E+06    -6.19701E+06    -52.2163E-03     94.8412E-03    -42.6249E-03     22.3038E-03    -52.4102E-03     94.6882E-03    -42.3747E-03     21.9423E-03
            2352     9.49966E-03     6.29031E-03    -34.6151E+06    -61.0326E+06     25.3668E+06    -7.69211E+06    -49.1209E-03     90.9942E-03    -41.8733E-03     23.6470E-03    -49.2822E-03     90.7431E-03    -41.6078E-03     23.3208E-03
            2353     8.64155E-03     6.28765E-03    -36.5004E+06    -81.2309E+06     22.6509E+06    -8.55107E+06    -46.5827E-03     87.8342E-03    -41.2515E-03     24.4856E-03    -46.7112E-03     87.4795E-03    -40.9676E-03     24.1948E-03
            2354     7.78140E-03     6.28560E-03    -38.1436E+06    -97.4204E+06     15.8224E+06    -9.11731E+06    -44.5423E-03     85.2575E-03    -40.7152E-03     24.6646E-03    -44.6379E-03     84.8261E-03    -40.4395E-03     24.4052E-03
            2355     6.91959E-03     6.28398E-03    -39.7485E+06    -109.596E+06     4.75965E+06    -9.28175E+06    -42.9364E-03     83.1860E-03    -40.2497E-03     24.0846E-03    -43.0000E-03     82.7055E-03    -40.0093E-03     23.8547E-03
            2356     6.05655E-03     6.28259E-03    -42.0051E+06    -120.665E+06    -4.87427E+06    -8.60943E+06    -41.6931E-03     81.5678E-03    -39.8747E-03     22.7663E-03    -41.7331E-03     81.0440E-03    -39.6632E-03     22.5705E-03
            2357     5.19259E-03     6.28133E-03    -45.0475E+06    -132.237E+06    -15.2918E+06    -7.26958E+06    -40.7478E-03     80.3171E-03    -39.5694E-03     20.7517E-03    -40.7673E-03     79.7510E-03    -39.3888E-03     20.5937E-03
            2358     4.32794E-03     6.28016E-03    -48.7717E+06    -141.558E+06    -27.8987E+06    -5.26584E+06    -40.0415E-03     79.3538E-03    -39.3123E-03     18.1349E-03    -40.0451E-03     78.7618E-03    -39.1758E-03     18.0189E-03
            2359     3.46281E-03     6.27913E-03    -52.9146E+06    -149.922E+06    -39.2133E+06    -3.04040E+06    -39.5360E-03     78.6486E-03    -39.1126E-03     15.0411E-03    -39.5298E-03     78.0351E-03    -39.0146E-03     14.9668E-03
            2360     2.59737E-03     6.27822E-03    -56.6878E+06    -156.658E+06    -48.5058E+06    -1.24146E+06    -39.1847E-03     78.1474E-03    -38.9627E-03     11.6059E-03    -39.1728E-03     77.5177E-03    -38.8959E-03     11.5654E-03
            2361     1.73170E-03     6.27751E-03    -59.5382E+06    -161.642E+06    -55.6656E+06     77.6111E+03    -38.9510E-03     77.8065E-03    -38.8555E-03     7.95658E-03    -38.9349E-03     77.1655E-03    -38.8131E-03     7.94202E-03
            2362     865.894E-06     6.27702E-03    -61.4297E+06    -163.059E+06    -60.3710E+06     870.248E+03    -38.8058E-03     77.5966E-03    -38.7907E-03     4.36048E-03    -38.7898E-03     76.9575E-03    -38.7671E-03     4.36359E-03
            2363     16.2587E-03     5.31030E-03    -4.39256E+06     113.937E+06     80.5045E+06    -15.8595E+03    -70.2565E-03     120.965E-03    -50.7086E-03     7.64853E-03    -70.6199E-03     121.484E-03    -50.4650E-03     7.12439E-03
            2364     15.4207E-03     5.29691E-03    -9.90420E+06     107.549E+06     64.9967E+06     1.70824E+06    -69.5684E-03     119.128E-03    -49.5598E-03     16.2900E-03    -69.9605E-03     119.679E-03    -49.3764E-03     15.7051E-03
            2365     14.5816E-03     5.28211E-03    -17.1668E+06     92.1486E+06     55.3785E+06     4.83108E+06    -67.0988E-03     115.521E-03    -48.4222E-03     19.0195E-03    -67.4926E-03     116.021E-03    -48.2540E-03     18.5234E-03
            2366     13.7393E-03     5.27007E-03    -24.2670E+06     64.0935E+06     49.4895E+06     4.72667E+06    -63.1579E-03     110.538E-03    -47.3805E-03     20.7944E-03    -63.5342E-03     110.913E-03    -47.1908E-03     20.3595E-03
            2367     12.8933E-03     5.26197E-03    -28.0575E+06     28.2597E+06     42.4699E+06    -748.209E+03    -58.9141E-03     105.382E-03    -46.4681E-03     23.0859E-03    -59.2385E-03     105.585E-03    -46.2560E-03     22.6510E-03
            2368     12.0435E-03     5.25698E-03    -29.3293E+06     4.70652E+06     41.3193E+06    -5.81354E+06    -54.9472E-03     100.667E-03    -45.7199E-03     25.8760E-03    -55.2310E-03     100.745E-03    -45.4776E-03     25.4452E-03
            2369     11.1902E-03     5.25413E-03    -30.3481E+06    -18.5794E+06     37.1092E+06    -8.61843E+06    -51.6651E-03     96.7758E-03    -45.1108E-03     28.3714E-03    -51.9023E-03     96.7326E-03    -44.8543E-03     27.9667E-03
            2370     10.3342E-03     5.25284E-03    -31.5008E+06    -41.1848E+06     33.9672E+06    -10.8342E+06    -49.1509E-03     93.7919E-03    -44.6410E-03     30.1250E-03    -49.3451E-03     93.6301E-03    -44.3657E-03     29.7454E-03
            2371     9.47627E-03     5.25237E-03    -32.7502E+06    -61.0966E+06     30.1010E+06    -12.5645E+06    -47.3004E-03     91.5724E-03    -44.2720E-03     31.0058E-03    -47.4560E-03     91.3079E-03    -43.9855E-03     30.6496E-03
            2372     8.61699E-03     5.25224E-03    -33.9322E+06    -82.2877E+06     25.2088E+06    -13.8938E+06    -45.9824E-03     89.9657E-03    -43.9833E-03     30.9153E-03    -46.0974E-03     89.5949E-03    -43.6887E-03     30.5801E-03
            2373     7.75675E-03     5.25220E-03    -35.2440E+06    -99.3832E+06     14.6124E+06    -14.1635E+06    -45.0465E-03     88.7701E-03    -43.7236E-03     29.9038E-03    -45.1208E-03     88.3237E-03    -43.4553E-03     29.5963E-03
            2374     6.89589E-03     5.25210E-03    -37.0605E+06    -113.132E+06     45.0968E+03    -12.8902E+06    -44.3779E-03     87.8663E-03    -43.4884E-03     28.0984E-03    -44.4145E-03     87.3689E-03    -43.2704E-03     27.8329E-03
            2375     6.03459E-03     5.25181E-03    -39.5917E+06    -124.813E+06    -11.9307E+06    -10.5304E+06    -43.8919E-03     87.1938E-03    -43.3019E-03     25.6745E-03    -43.9025E-03     86.6544E-03    -43.1231E-03     25.4605E-03
            2376     5.17299E-03     5.25140E-03    -43.0295E+06    -136.806E+06    -22.0260E+06    -7.80287E+06    -43.5439E-03     86.6993E-03    -43.1554E-03     22.7390E-03    -43.5364E-03     86.1162E-03    -43.0048E-03     22.5774E-03
            2377     4.31116E-03     5.25091E-03    -46.9676E+06    -146.418E+06    -31.5652E+06    -4.59086E+06    -43.2849E-03     86.3160E-03    -43.0311E-03     19.4265E-03    -43.2669E-03     85.7017E-03    -42.9085E-03     19.3205E-03
            2378     3.44917E-03     5.25033E-03    -50.8287E+06    -153.159E+06    -40.2620E+06    -1.83099E+06    -43.0862E-03     86.0106E-03    -42.9244E-03     15.8418E-03    -43.0633E-03     85.3790E-03    -42.8300E-03     15.7834E-03
            2379     2.58702E-03     5.24979E-03    -54.2557E+06    -158.519E+06    -47.4822E+06    -310.362E+03    -42.9321E-03     85.7700E-03    -42.8379E-03     12.0803E-03    -42.9068E-03     85.1257E-03    -42.7668E-03     12.0516E-03
            2380     1.72477E-03     5.24934E-03    -56.9780E+06    -162.494E+06    -52.9795E+06     520.102E+03    -42.8161E-03     85.5869E-03    -42.7709E-03     8.22221E-03    -42.7899E-03     84.9339E-03    -42.7175E-03     8.21298E-03
            2381     862.409E-06     5.24904E-03    -58.7290E+06    -161.680E+06    -57.1609E+06     822.208E+03    -42.7185E-03     85.4448E-03    -42.7263E-03     4.48865E-03    -42.6958E-03     84.8040E-03    -42.6925E-03     4.49089E-03
            2382     16.2574E-03     4.23983E-03    -4.83898E+06     111.922E+06     80.5927E+06     1.42470E+06    -68.1386E-03     119.036E-03    -50.8971E-03     10.3441E-03    -68.5042E-03     119.548E-03    -50.6494E-03     9.87053E-03
            2383     15.4168E-03     4.22870E-03    -11.6831E+06     102.998E+06     65.9638E+06     5.15799E+06    -65.2872E-03     115.231E-03    -49.9439E-03     20.4602E-03    -65.6863E-03     115.764E-03    -49.7465E-03     19.9826E-03
            2384     14.5732E-03     4.21908E-03    -18.5576E+06     90.0239E+06     57.6302E+06     8.23962E+06    -61.1787E-03     110.303E-03    -49.1241E-03     24.2583E-03    -61.5808E-03     110.792E-03    -48.9395E-03     23.8824E-03
            2385     13.7253E-03     4.21343E-03    -23.3564E+06     72.5417E+06     55.0088E+06     4.09388E+06    -56.6631E-03     105.163E-03    -48.4996E-03     27.8518E-03    -57.0524E-03     105.568E-03    -48.2959E-03     27.4918E-03
            2386     12.8732E-03     4.21074E-03    -25.8367E+06     37.1072E+06     48.6972E+06    -5.18965E+06    -53.0205E-03     101.080E-03    -48.0597E-03     31.3920E-03    -53.3493E-03     101.309E-03    -47.8326E-03     30.9801E-03
            2387     12.0181E-03     4.21033E-03    -27.2071E+06     6.84533E+06     44.6178E+06    -11.0380E+06    -50.4427E-03     98.2167E-03    -47.7741E-03     34.1664E-03    -50.7151E-03     98.2883E-03    -47.5214E-03     33.7388E-03
            2388     11.1612E-03     4.21062E-03    -27.9905E+06    -17.0234E+06     37.8013E+06    -14.0186E+06    -48.8093E-03     96.3861E-03    -47.5768E-03     35.7118E-03    -49.0288E-03     96.3365E-03    -47.3225E-03     35.2959E-03
            2389     10.3031E-03     4.21149E-03    -28.2147E+06    -41.4036E+06     30.8308E+06    -16.3795E+06    -47.9144E-03     95.3661E-03    -47.4517E-03     35.9082E-03    -48.0788E-03     95.1939E-03    -47.1966E-03     35.5023E-03
            2390     9.44481E-03     4.21231E-03    -28.6146E+06    -62.1600E+06     22.7283E+06    -17.4569E+06    -47.4680E-03     94.8259E-03    -47.3579E-03     35.0686E-03    -47.5838E-03     94.5531E-03    -47.1126E-03     34.6822E-03
            2391     8.58635E-03     4.21313E-03    -30.2209E+06    -84.4316E+06     13.3273E+06    -17.8733E+06    -47.2771E-03     94.5598E-03    -47.2827E-03     33.4076E-03    -47.3479E-03     94.1842E-03    -47.0498E-03     33.0437E-03
            2392     7.72790E-03     4.21365E-03    -32.7895E+06    -103.375E+06     2.20781E+06    -17.0441E+06    -47.1997E-03     94.4041E-03    -47.2044E-03     31.1259E-03    -47.2340E-03     93.9477E-03    -46.9959E-03     30.7960E-03
            2393     6.86947E-03     4.21405E-03    -35.6575E+06    -119.191E+06    -9.35645E+06    -14.4060E+06    -47.1571E-03     94.2799E-03    -47.1228E-03     28.4001E-03    -47.1616E-03     93.7608E-03    -46.9450E-03     28.1241E-03
            2394     6.01099E-03     4.21413E-03    -38.8205E+06    -131.111E+06    -20.9861E+06    -10.4027E+06    -47.1055E-03     94.1429E-03    -47.0374E-03     25.3668E-03    -47.0881E-03     93.5820E-03    -46.8960E-03     25.1596E-03
            2395     5.15247E-03     4.21404E-03    -42.3600E+06    -142.456E+06    -29.7088E+06    -6.43155E+06    -47.0525E-03     94.0207E-03    -46.9683E-03     22.1013E-03    -47.0210E-03     93.4182E-03    -46.8488E-03     21.9602E-03
            2396     4.29390E-03     4.21377E-03    -45.9188E+06    -151.327E+06    -35.3106E+06    -3.20504E+06    -46.9938E-03     93.9061E-03    -46.9123E-03     18.6759E-03    -46.9572E-03     93.2705E-03    -46.8029E-03     18.5893E-03
            2397     3.43526E-03     4.21345E-03    -48.8602E+06    -155.908E+06    -41.1274E+06    -795.860E+03    -46.9184E-03     93.7687E-03    -46.8503E-03     15.1196E-03    -46.8799E-03     93.1213E-03    -46.7590E-03     15.0752E-03
            2398     2.57655E-03     4.21311E-03    -51.2079E+06    -159.532E+06    -46.1758E+06     511.983E+03    -46.8419E-03     93.6365E-03    -46.7946E-03     11.4761E-03    -46.8015E-03     92.9806E-03    -46.7199E-03     11.4582E-03
            2399     1.71775E-03     4.21284E-03    -53.1850E+06    -162.234E+06    -49.9502E+06     714.267E+03    -46.7754E-03     93.5246E-03    -46.7492E-03     7.78860E-03    -46.7348E-03     92.8629E-03    -46.6866E-03     7.78193E-03
            2400     858.913E-06     4.21265E-03    -54.5749E+06    -160.555E+06    -53.2394E+06     266.832E+03    -46.6980E-03     93.4207E-03    -46.7227E-03     4.24497E-03    -46.6616E-03     92.7738E-03    -46.6770E-03     4.23999E-03
            2401     16.2494E-03     3.17272E-03    -6.08029E+06     108.314E+06     79.2348E+06     3.95599E+06    -62.3245E-03     113.840E-03    -51.5156E-03     17.0665E-03    -62.6924E-03     114.342E-03    -51.2677E-03     16.7023E-03
            2402     15.4032E-03     3.16643E-03    -11.7819E+06     99.3044E+06     67.7012E+06     6.45815E+06    -58.2749E-03     109.233E-03    -50.9578E-03     29.1134E-03    -58.6735E-03     109.747E-03    -50.7462E-03     28.7516E-03
            2403     14.5524E-03     3.16314E-03    -13.8592E+06     91.6087E+06     60.4009E+06     6.23455E+06    -54.0857E-03     104.675E-03    -50.5896E-03     33.3582E-03    -54.4646E-03     105.156E-03    -50.4004E-03     33.0575E-03
            2404     13.6975E-03     3.16277E-03    -15.0955E+06     82.7408E+06     54.5083E+06     1.37656E+06    -50.9313E-03     101.340E-03    -50.4089E-03     36.6159E-03    -51.2796E-03     101.771E-03    -50.2345E-03     36.3183E-03
            2405     12.8404E-03     3.16345E-03    -18.3970E+06     46.3898E+06     42.7174E+06    -7.51431E+06    -49.3815E-03     99.7544E-03    -50.3728E-03     38.3865E-03    -49.6612E-03     100.010E-03    -50.1998E-03     38.0296E-03
            2406     11.9828E-03     3.16458E-03    -21.5338E+06     8.77008E+06     32.4292E+06    -14.5715E+06    -48.9004E-03     99.3150E-03    -50.4147E-03     38.4902E-03    -49.1133E-03     99.3885E-03    -50.2340E-03     38.0854E-03
            2407     11.1254E-03     3.16564E-03    -23.1501E+06    -15.9997E+06     20.3807E+06    -18.0103E+06    -48.9402E-03     99.3933E-03    -50.4532E-03     37.3870E-03    -49.0974E-03     99.3520E-03    -50.2945E-03     36.9722E-03
            2408     10.2685E-03     3.16649E-03    -24.5091E+06    -42.8533E+06     8.69684E+06    -19.9420E+06    -49.2410E-03     99.7394E-03    -50.4984E-03     35.4682E-03    -49.3411E-03     99.5745E-03    -50.3572E-03     35.0558E-03
            2409     9.41200E-03     3.16732E-03    -26.5468E+06    -65.8862E+06    -1.95524E+06    -19.3697E+06    -49.6100E-03     100.143E-03    -50.5328E-03     33.1009E-03    -49.6652E-03     99.8748E-03    -50.4085E-03     32.7188E-03
            2410     8.55592E-03     3.16789E-03    -29.7165E+06    -88.2322E+06    -11.7117E+06    -17.6524E+06    -49.9475E-03     100.503E-03    -50.5552E-03     30.5099E-03    -49.9670E-03     100.137E-03    -50.4428E-03     30.1699E-03
            2411     7.70013E-03     3.16842E-03    -33.9650E+06    -108.769E+06    -19.1320E+06    -15.7244E+06    -50.2131E-03     100.783E-03    -50.5703E-03     27.7888E-03    -50.2094E-03     100.328E-03    -50.4590E-03     27.4912E-03
            2412     6.84450E-03     3.16871E-03    -38.4493E+06    -125.900E+06    -24.7274E+06    -12.8628E+06    -50.3948E-03     100.968E-03    -50.5732E-03     24.9712E-03    -50.3775E-03     100.438E-03    -50.4585E-03     24.7262E-03
            2413     5.98904E-03     3.16892E-03    -42.2433E+06    -138.727E+06    -30.3309E+06    -8.81258E+06    -50.4952E-03     101.051E-03    -50.5555E-03     22.0707E-03    -50.4677E-03     100.468E-03    -50.4448E-03     21.8922E-03
            2414     5.13356E-03     3.16891E-03    -45.4269E+06    -148.325E+06    -36.6274E+06    -4.35417E+06    -50.5290E-03     101.049E-03    -50.5203E-03     19.0954E-03    -50.4925E-03     100.430E-03    -50.4225E-03     18.9872E-03
            2415     4.27808E-03     3.16877E-03    -48.3370E+06    -154.717E+06    -42.2599E+06    -1.50416E+06    -50.5181E-03     100.997E-03    -50.4793E-03     16.0587E-03    -50.4774E-03     100.357E-03    -50.3961E-03     15.9984E-03
            2416     3.42256E-03     3.16858E-03    -50.5615E+06    -157.939E+06    -46.5037E+06    -68.5632E+03    -50.4821E-03     100.921E-03    -50.4387E-03     12.9660E-03    -50.4406E-03     100.273E-03    -50.3689E-03     12.9341E-03
            2417     2.56698E-03     3.16838E-03    -51.8137E+06    -159.933E+06    -49.4016E+06     783.146E+03    -50.4366E-03     100.840E-03    -50.4036E-03     9.82407E-03    -50.3935E-03     100.188E-03    -50.3436E-03     9.81190E-03
            2418     1.71136E-03     3.16821E-03    -52.4924E+06    -161.146E+06    -51.3403E+06     702.143E+03    -50.3936E-03     100.770E-03    -50.3760E-03     6.66134E-03    -50.3488E-03     100.114E-03    -50.3230E-03     6.65585E-03
            2419     855.685E-06     3.16813E-03    -52.9596E+06    -159.995E+06    -52.6857E+06     6.49638E+03    -50.3352E-03     100.713E-03    -50.3781E-03     3.62866E-03    -50.2922E-03     100.066E-03    -50.3327E-03     3.62096E-03
            2420     16.2281E-03     2.11307E-03    -5.38045E+06     105.515E+06     77.8732E+06     5.29723E+06    -54.0126E-03     106.850E-03    -52.8369E-03     28.5929E-03    -54.3729E-03     107.341E-03    -52.5927E-03     28.3396E-03
            2421     15.3738E-03     2.11145E-03    -8.86640E+06     100.759E+06     67.9596E+06     3.95983E+06    -52.0122E-03     104.754E-03    -52.7420E-03     38.4012E-03    -52.3871E-03     105.259E-03    -52.5355E-03     38.1113E-03
            2422     14.5171E-03     2.11278E-03    -9.54129E+06     94.7092E+06     55.3925E+06     875.267E+03    -50.2496E-03     102.983E-03    -52.7334E-03     39.2985E-03    -50.5801E-03     103.455E-03    -52.5799E-03     39.0330E-03
            2423     13.6596E-03     2.11392E-03    -9.71231E+06     87.3778E+06     38.0623E+06    -1.12964E+06    -49.7844E-03     102.562E-03    -52.7775E-03     38.5719E-03    -50.0624E-03     103.005E-03    -52.6998E-03     38.3344E-03
            2424     12.8029E-03     2.11469E-03    -11.9624E+06     54.8825E+06     16.2312E+06    -6.06092E+06    -50.2117E-03     103.073E-03    -52.8608E-03     36.3160E-03    -50.4094E-03     103.375E-03    -52.8419E-03     36.0536E-03
            2425     11.9473E-03     2.11507E-03    -16.0936E+06     12.8447E+06     1.63217E+06    -13.6572E+06    -50.8704E-03     103.857E-03    -52.9862E-03     33.5855E-03    -50.9977E-03     103.967E-03    -52.9734E-03     33.2534E-03
            2426     11.0925E-03     2.11548E-03    -20.0338E+06    -16.4923E+06    -10.7841E+06    -17.4149E+06    -51.4909E-03     104.574E-03    -53.0827E-03     30.7631E-03    -51.5710E-03     104.555E-03    -53.0836E-03     30.4050E-03
            2427     10.2382E-03     2.11576E-03    -24.4065E+06    -45.6892E+06    -22.0195E+06    -17.4568E+06    -52.0170E-03     105.180E-03    -53.1631E-03     28.0476E-03    -52.0557E-03     105.033E-03    -53.1716E-03     27.7075E-03
            2428     9.38434E-03     2.11602E-03    -29.4997E+06    -71.1846E+06    -29.5966E+06    -15.9388E+06    -52.4450E-03     105.681E-03    -53.2365E-03     25.4715E-03    -52.4577E-03     105.422E-03    -53.2385E-03     25.1669E-03
            2429     8.53078E-03     2.11633E-03    -34.2342E+06    -93.2744E+06    -35.3241E+06    -13.5020E+06    -52.7854E-03     106.079E-03    -53.2939E-03     23.0531E-03    -52.7787E-03     105.722E-03    -53.2856E-03     22.7941E-03
            2430     7.67744E-03     2.11654E-03    -38.6515E+06    -113.969E+06    -38.5948E+06    -11.0728E+06    -53.0464E-03     106.390E-03    -53.3431E-03     20.7390E-03    -53.0250E-03     105.938E-03    -53.3148E-03     20.5241E-03
            2431     6.82433E-03     2.11676E-03    -42.9005E+06    -131.239E+06    -40.4604E+06    -8.90682E+06    -53.2321E-03     106.610E-03    -53.3779E-03     18.5000E-03    -53.2025E-03     106.079E-03    -53.3278E-03     18.3247E-03
            2432     5.97126E-03     2.11686E-03    -46.6631E+06    -145.401E+06    -41.3001E+06    -6.14045E+06    -53.3509E-03     106.749E-03    -53.3986E-03     16.2857E-03    -53.3171E-03     106.153E-03    -53.3266E-03     16.1567E-03
            2433     5.11832E-03     2.11692E-03    -49.4302E+06    -153.737E+06    -43.5994E+06    -2.65727E+06    -53.4019E-03     106.793E-03    -53.3913E-03     14.0563E-03    -53.3655E-03     106.161E-03    -53.3147E-03     13.9818E-03
            2434     4.26534E-03     2.11688E-03    -51.1671E+06    -156.791E+06    -47.7279E+06    -161.846E+03    -53.3975E-03     106.758E-03    -53.3602E-03     11.8006E-03    -53.3585E-03     106.118E-03    -53.2973E-03     11.7670E-03
            2435     3.41233E-03     2.11677E-03    -52.3476E+06    -158.749E+06    -50.8832E+06     667.249E+03    -53.3708E-03     106.702E-03    -53.3308E-03     9.51629E-03    -53.3298E-03     106.058E-03    -53.2791E-03     9.50089E-03
            2436     2.55929E-03     2.11666E-03    -52.9440E+06    -159.765E+06    -52.5102E+06     722.905E+03    -53.3378E-03     106.646E-03    -53.3087E-03     7.20548E-03    -53.2955E-03     106.001E-03    -53.2628E-03     7.19747E-03
            2437     1.70620E-03     2.11657E-03    -52.8211E+06    -160.036E+06    -53.0047E+06     380.956E+03    -53.3083E-03     106.603E-03    -53.2943E-03     4.88207E-03    -53.2640E-03     105.956E-03    -53.2507E-03     4.87561E-03
            2438     853.107E-06     2.11651E-03    -52.3583E+06    -159.831E+06    -52.7328E+06    -80.0144E+03    -53.2605E-03     106.580E-03    -53.3198E-03     2.65651E-03    -53.2144E-03     105.933E-03    -53.2758E-03     2.64937E-03
            2439     16.1913E-03     1.05944E-03    -2.31229E+06     105.450E+06     78.7090E+06     3.16969E+06    -51.2404E-03     105.993E-03    -54.7522E-03     35.3214E-03    -51.5688E-03     106.458E-03    -54.5082E-03     35.1351E-03
            2440     15.3349E-03     1.05900E-03    -3.92117E+06     104.460E+06     66.7947E+06     1.87403E+06    -52.1131E-03     106.931E-03    -54.8176E-03     34.1317E-03    -52.4258E-03     107.406E-03    -54.6294E-03     33.9479E-03
            2441     14.4798E-03     1.06032E-03    -6.50793E+06     97.5299E+06     41.9519E+06    -957.753E+03    -52.4415E-03     107.255E-03    -54.8135E-03     29.4644E-03    -52.7035E-03     107.718E-03    -54.7357E-03     29.2967E-03
            2442     13.6265E-03     1.05991E-03    -8.73191E+06     86.7059E+06     14.8904E+06    -1.91932E+06    -53.0477E-03     107.841E-03    -54.7936E-03     25.6201E-03    -53.2568E-03     108.283E-03    -54.8323E-03     25.4706E-03
            2443     12.7741E-03     1.05987E-03    -10.9002E+06     60.4371E+06    -11.4138E+06    -3.03086E+06    -53.5607E-03     108.344E-03    -54.7830E-03     22.1613E-03    -53.6987E-03     108.690E-03    -54.9119E-03     22.0202E-03
            2444     11.9219E-03     1.05963E-03    -14.9485E+06     18.8115E+06    -28.5882E+06    -7.95392E+06    -53.9541E-03     108.784E-03    -54.8298E-03     19.5211E-03    -54.0236E-03     108.950E-03    -54.9783E-03     19.3327E-03
            2445     11.0698E-03     1.05952E-03    -20.9573E+06    -18.5149E+06    -36.9966E+06    -10.7033E+06    -54.2405E-03     109.148E-03    -54.9072E-03     17.2937E-03    -54.2714E-03     109.146E-03    -55.0350E-03     17.0824E-03
            2446     10.2179E-03     1.05949E-03    -27.3634E+06    -48.9713E+06    -43.3772E+06    -9.74401E+06    -54.4678E-03     109.445E-03    -54.9776E-03     15.4322E-03    -54.4757E-03     109.308E-03    -55.0838E-03     15.2436E-03
            2447     9.36601E-03     1.05952E-03    -33.2506E+06    -75.1418E+06    -47.0913E+06    -8.54798E+06    -54.6613E-03     109.708E-03    -55.0471E-03     13.8188E-03    -54.6541E-03     109.453E-03    -55.1254E-03     13.6546E-03
            2448     8.51430E-03     1.05956E-03    -38.3963E+06    -97.6357E+06    -49.3802E+06    -7.09213E+06    -54.8405E-03     109.950E-03    -55.1094E-03     12.3828E-03    -54.8222E-03     109.592E-03    -55.1591E-03     12.2450E-03
            2449     7.66271E-03     1.05966E-03    -42.5000E+06    -117.510E+06    -50.3511E+06    -5.64447E+06    -54.9988E-03     110.163E-03    -55.1640E-03     11.0741E-03    -54.9701E-03     109.712E-03    -55.1837E-03     10.9619E-03
            2450     6.81115E-03     1.05972E-03    -45.7699E+06    -134.677E+06    -50.1359E+06    -4.35879E+06    -55.1317E-03     110.341E-03    -55.2094E-03     9.84167E-03    -55.0941E-03     109.808E-03    -55.1984E-03     9.75234E-03
            2451     5.95977E-03     1.05979E-03    -48.5275E+06    -149.404E+06    -49.0976E+06    -2.93387E+06    -55.2314E-03     110.476E-03    -55.2444E-03     8.64662E-03    -55.1874E-03     109.871E-03    -55.2029E-03     8.58144E-03
            2452     5.10837E-03     1.05981E-03    -50.4461E+06    -157.354E+06    -48.4236E+06    -1.39454E+06    -55.2830E-03     110.540E-03    -55.2570E-03     7.45880E-03    -55.2377E-03     109.897E-03    -55.1978E-03     7.41873E-03
            2453     4.25704E-03     1.05981E-03    -51.2588E+06    -158.515E+06    -49.0200E+06     117.174E+03    -55.2882E-03     110.534E-03    -55.2455E-03     6.26033E-03    -55.2441E-03     109.887E-03    -55.1864E-03     6.24449E-03
            2454     3.40569E-03     1.05978E-03    -51.4571E+06    -158.631E+06    -50.0739E+06     844.135E+03    -55.2670E-03     110.494E-03    -55.2268E-03     5.04598E-03    -55.2220E-03     109.848E-03    -55.1725E-03     5.04369E-03
            2455     2.55428E-03     1.05973E-03    -51.4927E+06    -158.991E+06    -50.9022E+06     492.847E+03    -55.2383E-03     110.448E-03    -55.2101E-03     3.81694E-03    -55.1917E-03     109.802E-03    -55.1594E-03     3.81373E-03
            2456     1.70288E-03     1.05968E-03    -51.4873E+06    -159.468E+06    -51.2740E+06     45.9673E+03    -55.2125E-03     110.411E-03    -55.1986E-03     2.58435E-03    -55.1645E-03     109.763E-03    -55.1491E-03     2.57865E-03
            2457     851.444E-06     1.05965E-03    -51.6112E+06    -159.860E+06    -51.7777E+06    -8.52577E+03    -55.1578E-03     110.385E-03    -55.2276E-03     1.40569E-03    -55.1091E-03     109.736E-03    -55.1798E-03     1.40224E-03


