********************************************************************************
Field Output Report, written Tue May 28 22:06:40 2024

Source 1
---------

   ODB: G:/Abaqus_calc_2019/1740/Vel_10/odb/zeides_2a_32_red_250_cal_10_vel_10_fric_050.odb
   Step: Step-1
   Frame: Increment   6566014: Step Time =   0.8371

Loc 1 : Nodal values from source 1

Output sorted by column "Nodal Label".

Field Output reported at nodes for region: DIE_2A_32_D0_36-1.Region_1
   Computation algorithm: EXTRAPOLATE_COMPUTE_AVERAGE
   Averaged at nodes
   Averaging regions: ODB_REGIONS

      Node Label     COORD.COOR1     COORD.COOR2
                          @Loc 1          @Loc 1
-------------------------------------------------
               1     22.3874E-03     119.544E-03


Field Output reported at nodes for region: DIE_2A_32_D0_36-1.Region_2
   Computation algorithm: EXTRAPOLATE_COMPUTE_AVERAGE
   Averaged at nodes
   Averaging regions: ODB_REGIONS

      Node Label     COORD.COOR1     COORD.COOR2
                          @Loc 1          @Loc 1
-------------------------------------------------
               1     22.3874E-03     119.544E-03


Field Output reported at nodes for part: WIRE-1
   Computation algorithm: EXTRAPOLATE_COMPUTE_AVERAGE
   Averaged at nodes
   Averaging regions: ODB_REGIONS

      Node Label     COORD.COOR1     COORD.COOR2           S.S11           S.S22           S.S33           S.S12         PE.PE11         PE.PE22         PE.PE33         PE.PE12         LE.LE11         LE.LE22         LE.LE33         LE.LE12
                          @Loc 1          @Loc 1          @Loc 1          @Loc 1          @Loc 1          @Loc 1          @Loc 1          @Loc 1          @Loc 1          @Loc 1          @Loc 1          @Loc 1          @Loc 1          @Loc 1
-------------------------------------------------------------------------------------------------------------------------------------------------------------------------------------------------------------------------------------------------
               1    -58.5190E-09     57.4693E-03    -23.7855E+06    -113.749E+06    -23.8615E+06     30.6156E+03    -26.8260E-03     53.6575E-03    -26.8315E-03     3.39001E-03    -26.7454E-03     53.1580E-03    -26.7514E-03     3.38883E-03
               2     17.5280E-03     58.9380E-03    -2.89364E+06     179.451E+06     111.417E+06     59.4747E+03    -31.0304E-03     57.9435E-03    -26.9130E-03     211.202E-03    -38.2508E-03     65.4676E-03    -26.6119E-03     218.915E-03
               3     17.1556E-03     117.071E-03     12.9912E+06    -13.7414E+06     1.16315E+06     2.40899E+06     20.3960E-03     20.7270E-03    -41.1231E-03     2.12551E-03     20.4626E-03     20.6212E-03    -41.1161E-03     2.15660E-03
               4    -1.37405E-06     115.222E-03     33.8169E+06    -1.36596E+06     32.2274E+06    -1.54296E+06    -28.9381E-03     58.8282E-03    -29.8901E-03    -912.164E-06    -28.8153E-03     58.7241E-03    -29.7760E-03    -933.050E-06
               5    -18.0915E-09     41.6334E-18    -10.8946E+06    -91.0910E+06    -10.5851E+06     338.900E+03    -19.5311E-03     38.9731E-03    -19.4420E-03     218.423E-06    -19.4379E-03     38.5490E-03    -19.3471E-03     222.902E-06
               6     17.3987E-03     41.6334E-18     10.3680E+06     114.664E+06     88.0414E+06     4.33266E+06    -85.0538E-03     116.206E-03    -31.1525E-03     121.859E-03    -85.7877E-03     117.164E-03    -30.8936E-03     120.835E-03
               7     876.280E-06     57.4726E-03    -23.6335E+06    -113.415E+06    -23.3013E+06     68.0067E+03    -26.8378E-03     53.6703E-03    -26.8325E-03     5.68870E-03    -26.7579E-03     53.1714E-03    -26.7503E-03     5.68690E-03
               8     1.75247E-03     57.4801E-03    -23.1167E+06    -112.530E+06    -21.7144E+06     121.681E+03    -26.8584E-03     53.6955E-03    -26.8372E-03     10.5168E-03    -26.7797E-03     53.1983E-03    -26.7490E-03     10.5133E-03
               9     2.62875E-03     57.4925E-03    -22.2299E+06    -111.088E+06    -19.0434E+06     168.451E+03    -26.8838E-03     53.7297E-03    -26.8459E-03     15.6295E-03    -26.8072E-03     53.2351E-03    -26.7479E-03     15.6237E-03
              10     3.50498E-03     57.5098E-03    -21.0582E+06    -109.181E+06    -15.5130E+06     185.934E+03    -26.9222E-03     53.7786E-03    -26.8564E-03     20.8323E-03    -26.8484E-03     53.2875E-03    -26.7451E-03     20.8234E-03
              11     4.38126E-03     57.5321E-03    -19.5350E+06    -107.056E+06    -11.5583E+06     229.298E+03    -26.9757E-03     53.8431E-03    -26.8674E-03     26.0810E-03    -26.9044E-03     53.3559E-03    -26.7416E-03     26.0686E-03
              12     5.25754E-03     57.5593E-03    -17.8698E+06    -102.523E+06    -7.71697E+06     228.804E+03    -27.0395E-03     53.9132E-03    -26.8737E-03     31.3765E-03    -26.9738E-03     53.4425E-03    -26.7377E-03     31.3591E-03
              13     6.13381E-03     57.5917E-03    -16.1221E+06    -97.2294E+06    -3.93570E+06     225.025E+03    -27.1179E-03     53.9959E-03    -26.8780E-03     36.7033E-03    -27.0593E-03     53.5463E-03    -26.7334E-03     36.6797E-03
              14     7.01010E-03     57.6290E-03    -14.4590E+06    -92.4778E+06    -1.10002E+06     276.720E+03    -27.2158E-03     54.0945E-03    -26.8787E-03     42.0240E-03    -27.1637E-03     53.6659E-03    -26.7291E-03     41.9932E-03
              15     7.88640E-03     57.6715E-03    -12.9392E+06    -86.0468E+06     97.9141E+03     345.131E+03    -27.3262E-03     54.1954E-03    -26.8692E-03     47.3376E-03    -27.2831E-03     53.8006E-03    -26.7251E-03     47.2978E-03
              16     8.76268E-03     57.7190E-03    -11.6276E+06    -80.7299E+06     846.527E+03     359.765E+03    -27.4532E-03     54.3130E-03    -26.8597E-03     52.6335E-03    -27.4203E-03     53.9497E-03    -26.7216E-03     52.5815E-03
              17     9.63900E-03     57.7715E-03    -10.5179E+06    -76.1594E+06    -374.414E+03     370.231E+03    -27.6076E-03     54.4504E-03    -26.8429E-03     57.9263E-03    -27.5856E-03     54.1219E-03    -26.7191E-03     57.8589E-03
              18     10.5153E-03     57.8291E-03    -9.75595E+06    -67.7510E+06    -2.73423E+06     466.544E+03    -27.7547E-03     54.5710E-03    -26.8163E-03     63.1516E-03    -27.7548E-03     54.3038E-03    -26.7176E-03     63.0662E-03
              19     11.3915E-03     57.8914E-03    -9.27376E+06    -53.3617E+06    -1.97605E+06     589.863E+03    -27.9189E-03     54.7154E-03    -26.7965E-03     69.7856E-03    -27.9660E-03     54.5458E-03    -26.7156E-03     69.6777E-03
              20     12.2679E-03     57.9616E-03    -9.12152E+06    -38.9380E+06    -3.26379E+06     556.502E+03    -28.1759E-03     54.9422E-03    -26.7663E-03     77.9893E-03    -28.2850E-03     54.8902E-03    -26.7130E-03     77.8516E-03
              21     13.1438E-03     58.0394E-03    -9.37783E+06    -24.9704E+06    -10.2025E+06     259.473E+03    -28.2389E-03     54.9500E-03    -26.7111E-03     80.1994E-03    -28.4202E-03     55.0389E-03    -26.7123E-03     80.0240E-03
              22     14.0202E-03     58.1134E-03    -8.83068E+06     6.77085E+06    -13.0514E+06     204.730E+03    -28.7327E-03     55.3828E-03    -26.6501E-03     94.4497E-03    -29.1168E-03     55.7975E-03    -26.7124E-03     94.2345E-03
              23     14.8977E-03     58.2192E-03    -10.1303E+06     62.4099E+06    -10.6488E+06     274.375E+03    -32.6765E-03     59.2608E-03    -26.5843E-03     159.273E-03    -34.1121E-03     60.9128E-03    -26.7134E-03     159.061E-03
              24     15.7714E-03     58.4186E-03    -9.41384E+06     129.123E+06     22.4618E+06    -244.264E+03    -38.6776E-03     65.3132E-03    -26.6356E-03     260.005E-03    -45.0753E-03     72.0707E-03    -26.6968E-03     261.151E-03
              25     16.6533E-03     58.7187E-03    -4.83331E+06     171.532E+06     82.9350E+06    -328.392E+03    -36.1749E-03     62.9933E-03    -26.8184E-03     261.650E-03    -45.0204E-03     72.1902E-03    -26.6455E-03     266.748E-03
              26     17.5266E-03     59.9302E-03    -1.94606E+06     180.109E+06     112.312E+06    -62.2290E+03    -29.3961E-03     56.3736E-03    -26.9774E-03     205.121E-03    -36.3893E-03     63.6738E-03    -26.6742E-03     212.894E-03
              27     17.5277E-03     60.9155E-03    -3.70210E+06     177.842E+06     110.516E+06    -466.306E+03    -31.3587E-03     58.2859E-03    -26.9273E-03     196.407E-03    -38.0142E-03     65.2396E-03    -26.6272E-03     203.912E-03
              28     17.5256E-03     61.9313E-03    -3.33719E+06     177.732E+06     110.184E+06    -119.710E+03    -32.4934E-03     59.3938E-03    -26.9004E-03     197.751E-03    -39.1992E-03     66.3994E-03    -26.6024E-03     205.111E-03
              29     17.5286E-03     62.9301E-03    -3.20093E+06     177.857E+06     110.005E+06    -465.176E+03    -30.3793E-03     57.3332E-03    -26.9539E-03     203.211E-03    -37.3195E-03     64.5745E-03    -26.6571E-03     210.903E-03
              30     17.5253E-03     63.9285E-03    -1.98649E+06     179.934E+06     111.921E+06     398.621E+03    -29.7212E-03     56.6905E-03    -26.9692E-03     202.486E-03    -36.6233E-03     63.8997E-03    -26.6676E-03     210.220E-03
              31     17.5293E-03     64.9265E-03    -1.66143E+06     181.223E+06     112.675E+06    -19.9468E+03    -30.5426E-03     57.4658E-03    -26.9233E-03     202.686E-03    -37.4245E-03     64.6585E-03    -26.6203E-03     210.292E-03
              32     17.5265E-03     65.9291E-03    -2.91710E+06     181.767E+06     112.505E+06     153.129E+03    -32.2899E-03     59.1779E-03    -26.8880E-03     205.971E-03    -39.3432E-03     66.5400E-03    -26.5848E-03     213.544E-03
              33     17.5278E-03     66.9383E-03    -2.56906E+06     183.685E+06     112.946E+06     1.59222E+06    -30.6982E-03     57.6407E-03    -26.9425E-03     208.659E-03    -37.8577E-03     65.1159E-03    -26.6404E-03     216.383E-03
              34     17.5273E-03     67.9263E-03    -3.29600E+06     182.901E+06     111.626E+06     104.535E+03    -29.4155E-03     56.3788E-03    -26.9633E-03     205.976E-03    -36.4537E-03     63.7311E-03    -26.6656E-03     213.767E-03
              35     17.5272E-03     68.9256E-03    -3.25772E+06     182.611E+06     111.802E+06    -322.044E+03    -31.6569E-03     58.5625E-03    -26.9056E-03     200.872E-03    -38.5026E-03     65.7208E-03    -26.6067E-03     208.393E-03
              36     17.5273E-03     69.9297E-03    -3.27944E+06     182.417E+06     111.994E+06     155.566E+03    -31.8224E-03     58.7216E-03    -26.8992E-03     201.461E-03    -38.6845E-03     65.8948E-03    -26.5990E-03     208.949E-03
              37     17.5275E-03     70.9316E-03    -3.03168E+06     182.773E+06     112.247E+06    -13.6222E+03    -30.7464E-03     57.6754E-03    -26.9290E-03     203.849E-03    -37.7180E-03     64.9596E-03    -26.6284E-03     211.514E-03
              38     17.5272E-03     71.9287E-03     -2.7447E+06     182.799E+06     112.121E+06     224.591E+03    -30.8470E-03     57.7778E-03    -26.9308E-03     203.214E-03    -37.7940E-03     65.0388E-03    -26.6313E-03     210.873E-03
              39     17.5271E-03     72.9307E-03    -2.96919E+06     184.096E+06     112.393E+06     935.432E+03    -30.6498E-03     57.5832E-03    -26.9334E-03     201.955E-03    -37.5441E-03     64.7946E-03    -26.6341E-03     209.597E-03
              40     17.5275E-03     73.9279E-03    -3.42325E+06     185.370E+06     112.533E+06     206.864E+03    -30.6365E-03     57.5659E-03    -26.9294E-03     201.419E-03    -37.5082E-03     64.7572E-03    -26.6306E-03     209.042E-03
              41     17.5270E-03     74.9294E-03    -2.68165E+06     185.996E+06     113.124E+06    -16.5751E+03    -30.9973E-03     57.9177E-03    -26.9204E-03     201.075E-03    -37.8499E-03     65.0930E-03    -26.6206E-03     208.645E-03
              42     17.5277E-03     75.9303E-03    -2.70873E+06     185.998E+06     113.056E+06     67.7098E+03    -30.9455E-03     57.8650E-03    -26.9196E-03     202.799E-03    -37.8694E-03     65.1118E-03    -26.6200E-03     210.418E-03
              43     17.5272E-03     76.9317E-03    -2.76217E+06     185.944E+06     112.948E+06    -48.4043E+03    -30.8173E-03     57.7438E-03    -26.9265E-03     204.327E-03    -37.8075E-03     65.0568E-03    -26.6274E-03     211.991E-03
              44     17.5274E-03     77.9320E-03    -2.28579E+06     186.299E+06     112.722E+06     530.927E+03    -30.4002E-03     57.3356E-03    -26.9353E-03     204.015E-03    -37.3773E-03     64.6390E-03    -26.6385E-03     211.713E-03
              45     17.5274E-03     78.9280E-03    -3.37219E+06     187.059E+06     112.204E+06     625.370E+03    -30.8826E-03     57.8018E-03    -26.9192E-03     202.349E-03    -37.7993E-03     65.0453E-03    -26.6245E-03     209.988E-03
              46     17.5271E-03     79.9310E-03    -3.43609E+06     188.746E+06     113.173E+06     629.228E+03    -31.1842E-03     58.1008E-03    -26.9166E-03     201.238E-03    -38.0628E-03     65.3091E-03    -26.6195E-03     208.814E-03
              47     17.5274E-03     80.9307E-03    -2.67791E+06     189.959E+06     113.795E+06     230.691E+03    -30.4515E-03     57.3834E-03    -26.9319E-03     202.207E-03    -37.3655E-03     64.6322E-03    -26.6345E-03     209.863E-03
              48     17.5275E-03     81.9300E-03    -3.27790E+06     189.485E+06     113.011E+06    -328.662E+03    -30.7334E-03     57.6532E-03    -26.9198E-03     202.625E-03    -37.6636E-03     64.9167E-03    -26.6248E-03     210.268E-03
              49     17.5272E-03     82.9314E-03    -2.76050E+06     189.456E+06     113.245E+06     166.371E+03    -30.9988E-03     57.9125E-03    -26.9137E-03     202.516E-03    -37.9194E-03     65.1675E-03    -26.6182E-03     210.125E-03
              50     17.5276E-03     83.9312E-03    -2.59286E+06     189.894E+06     113.421E+06     214.118E+03    -30.1826E-03     57.1047E-03    -26.9220E-03     202.333E-03    -37.0938E-03     64.3518E-03    -26.6265E-03     210.002E-03
              51     17.5279E-03     84.9289E-03    -3.03132E+06     189.626E+06     113.093E+06    -127.349E+03    -30.7733E-03     57.6735E-03    -26.9002E-03     202.351E-03    -37.6933E-03     64.9280E-03    -26.6053E-03     209.994E-03
              52     17.5273E-03     85.9317E-03    -2.92829E+06     190.044E+06     113.477E+06     267.812E+03    -31.1927E-03     58.0812E-03    -26.8885E-03     202.966E-03    -38.1345E-03     65.3583E-03    -26.5925E-03     210.564E-03
              53     17.5284E-03     86.9333E-03    -2.65691E+06     190.814E+06     113.723E+06     733.800E+03    -30.0120E-03     56.9307E-03    -26.9187E-03     203.882E-03    -36.9998E-03     64.2567E-03    -26.6229E-03     211.616E-03
              54     17.5269E-03     87.9285E-03    -2.56238E+06     191.976E+06     113.956E+06     440.199E+03    -29.7957E-03     56.7027E-03    -26.9070E-03     202.393E-03    -36.7277E-03     63.9767E-03    -26.6119E-03     210.110E-03
              55     17.5298E-03     88.9271E-03    -3.04290E+06     192.168E+06     113.988E+06    -46.7493E+03    -30.5829E-03     57.4294E-03    -26.8464E-03     202.761E-03    -37.4632E-03     64.6505E-03    -26.5507E-03     210.328E-03
              56     17.5285E-03     89.9342E-03    -2.72483E+06     191.896E+06     113.755E+06    -101.082E+03    -31.5393E-03     58.3522E-03    -26.8129E-03     206.661E-03    -38.6108E-03     65.7654E-03    -26.5184E-03     214.270E-03
              57     17.5292E-03     90.9322E-03    -2.62462E+06     193.291E+06     114.098E+06     1.08015E+06    -30.8189E-03     57.6318E-03    -26.8128E-03     205.384E-03    -37.8698E-03     65.0286E-03    -26.5188E-03     213.070E-03
              58     17.5301E-03     91.9273E-03    -3.53924E+06     193.736E+06     114.106E+06     791.937E+03    -30.1533E-03     56.9455E-03    -26.7923E-03     201.807E-03    -37.0242E-03     64.1607E-03    -26.4975E-03     209.453E-03
              59     17.5298E-03     92.9288E-03    -3.24502E+06     193.481E+06     113.923E+06    -149.286E+03    -30.1397E-03     56.8861E-03    -26.7464E-03     198.856E-03    -36.9003E-03     63.9917E-03    -26.4527E-03     206.425E-03
              60     17.5322E-03     93.9236E-03    -4.04639E+06     192.608E+06     113.568E+06    -913.315E+03    -30.6108E-03     57.2672E-03    -26.6564E-03     197.560E-03    -37.3276E-03     64.3242E-03    -26.3620E-03     205.106E-03
              61     17.5329E-03     94.9274E-03    -2.67115E+06     194.096E+06     115.954E+06    -39.2903E+03    -31.2410E-03     57.7993E-03    -26.5584E-03     199.736E-03    -38.0432E-03     64.9450E-03    -26.2561E-03     207.259E-03
              62     17.5356E-03     95.9341E-03    -818.190E+03     195.271E+06     118.400E+06     713.512E+03    -30.3687E-03     56.8713E-03    -26.5026E-03     205.808E-03    -37.4029E-03     64.2525E-03    -26.1925E-03     213.480E-03
              63     17.5362E-03     96.9289E-03    -2.10295E+06     192.916E+06     117.463E+06    -278.266E+03    -30.4996E-03     56.8961E-03    -26.3965E-03     206.453E-03    -37.6021E-03     64.3355E-03    -26.0859E-03     214.172E-03
              64     17.5393E-03     97.9283E-03    -3.70528E+06     189.508E+06     115.986E+06    -287.560E+03    -32.6016E-03     58.8214E-03    -26.2198E-03     204.715E-03    -39.6291E-03     66.1723E-03    -25.9093E-03     212.229E-03
              65     17.5407E-03     98.9336E-03    -4.64939E+06     186.162E+06     116.598E+06    -1.33471E+06    -34.7322E-03     60.8028E-03    -26.0705E-03     203.233E-03    -41.6805E-03     68.0573E-03    -25.7507E-03     210.479E-03
              66     17.5418E-03     99.9344E-03    -2.94005E+06     184.647E+06     118.733E+06    -1.04395E+06    -35.1868E-03     61.1644E-03    -25.9775E-03     197.023E-03    -41.9219E-03     68.2000E-03    -25.6474E-03     204.170E-03
              67     17.5436E-03     100.933E-03    -3.17243E+06     181.887E+06     118.037E+06    -799.931E+03    -36.4241E-03     62.2814E-03    -25.8573E-03     194.158E-03    -43.0600E-03     69.2097E-03    -25.5262E-03     201.216E-03
              68     17.5446E-03     101.948E-03    -2.53308E+06     179.419E+06     117.277E+06    -734.789E+03    -37.4856E-03     63.2409E-03    -25.7553E-03     196.800E-03    -44.2375E-03     70.2809E-03    -25.4254E-03     203.761E-03
              69     17.5461E-03     102.953E-03    -2.79196E+06     175.880E+06     116.140E+06    -1.52882E+06    -38.0078E-03     63.6778E-03    -25.6701E-03     198.838E-03    -44.8596E-03     70.8071E-03    -25.3403E-03     205.744E-03
              70     17.5472E-03     103.955E-03    -3.32997E+06     170.096E+06     114.924E+06    -2.45376E+06    -40.9352E-03     66.4525E-03    -25.5173E-03     194.557E-03    -47.6053E-03     73.3814E-03    -25.1845E-03     201.015E-03
              71     17.5486E-03     104.969E-03    -2.28216E+06     164.938E+06     113.942E+06    -2.21100E+06    -43.7991E-03     69.1696E-03    -25.3705E-03     192.623E-03    -50.3837E-03     76.0014E-03    -25.0366E-03     198.659E-03
              72     17.5497E-03     105.983E-03    -1.92687E+06     158.958E+06     112.610E+06    -2.31053E+06    -47.1991E-03     72.4343E-03    -25.2351E-03     195.980E-03    -53.9257E-03     79.3921E-03    -24.8998E-03     201.690E-03
              73     17.5501E-03     107.004E-03    -3.83056E+06     152.421E+06     111.900E+06    -2.48960E+06    -54.0163E-03     79.0565E-03    -25.0402E-03     202.157E-03    -61.0049E-03     86.2493E-03    -24.6962E-03     207.317E-03
              74     17.5513E-03     108.036E-03    -4.70349E+06     147.183E+06     114.633E+06    -1.99648E+06    -61.8672E-03     86.7059E-03    -24.8387E-03     212.470E-03    -69.2398E-03     94.2542E-03    -24.4722E-03     216.978E-03
              75     17.5519E-03     109.078E-03    -3.22072E+06     144.364E+06     118.385E+06     540.029E+03    -67.9540E-03     92.6459E-03    -24.6919E-03     228.353E-03    -75.8732E-03     100.726E-03    -24.3046E-03     232.316E-03
              76     17.5531E-03     110.124E-03     -4.2282E+06     141.050E+06     114.532E+06    -913.406E+03    -72.5140E-03     97.0606E-03    -24.5466E-03     246.794E-03    -81.0060E-03     105.709E-03    -24.1723E-03     250.145E-03
              77     17.5547E-03     111.168E-03    -7.02491E+06     122.889E+06     105.758E+06    -10.3505E+06    -77.3370E-03     101.731E-03    -24.3941E-03     266.005E-03    -86.2756E-03     110.778E-03    -24.0333E-03     268.311E-03
              78     17.5556E-03     112.222E-03     3.86336E+06     108.433E+06     101.191E+06    -3.50921E+06    -79.6923E-03     104.007E-03    -24.3148E-03     287.604E-03    -88.8874E-03     113.312E-03    -23.9716E-03     288.815E-03
              79     17.5575E-03     113.269E-03    -11.6542E+06     90.3176E+06     67.4452E+06    -11.7649E+06    -72.9418E-03     97.3045E-03    -24.3627E-03     310.305E-03    -81.5366E-03     105.986E-03    -24.1395E-03     310.716E-03
              80     17.5595E-03     114.292E-03    -7.91010E+06     40.9708E+06     25.3123E+06    -28.3614E+06    -41.2694E-03     66.2418E-03    -24.9724E-03     305.652E-03    -46.5900E-03     71.6181E-03    -24.8938E-03     306.113E-03
              81     17.5593E-03     115.221E-03     8.86093E+06     7.41067E+06     15.7949E+06    -9.74566E+06     4.46037E-03     23.4046E-03    -27.8650E-03     216.907E-03     3.01337E-03     24.8675E-03    -27.8096E-03     217.421E-03
              82     17.4186E-03     116.117E-03     2.83600E+06    -4.96607E+06     7.80228E+06     3.17328E+06     22.6265E-03     13.0379E-03    -35.6644E-03     73.2400E-03     22.5576E-03     13.0530E-03    -35.6223E-03     73.3308E-03
              83     16.2833E-03     116.815E-03     2.74455E+06     14.7475E+06     38.8081E+06     2.24767E+06     16.7851E-03     25.2084E-03    -41.9935E-03     12.3148E-03     16.7112E-03     25.2120E-03    -41.8248E-03     12.3437E-03
              84     15.3970E-03     116.597E-03      -6.167E+06     7.48040E+06     69.8177E+06    -1.68677E+06    -8.87121E-03     51.8374E-03    -42.9661E-03     20.5735E-03    -9.02701E-03     51.7754E-03    -42.6190E-03     20.5297E-03
              85     14.5591E-03     116.356E-03     6.58247E+06    -9.19926E+06     60.6136E+06    -8.79878E+06    -34.2318E-03     76.6639E-03    -42.4321E-03     6.23159E-03    -34.2994E-03     76.5008E-03    -42.1252E-03     6.06942E-03
              86     13.7345E-03     116.154E-03     18.1080E+06    -8.12028E+06     61.3846E+06    -3.14905E+06    -38.7522E-03     80.0311E-03    -41.2789E-03    -10.0239E-03    -38.7608E-03     79.8530E-03    -40.9864E-03    -10.1153E-03
              87     12.8957E-03     115.998E-03     17.8604E+06    -1.37974E+06     67.7422E+06     2.15540E+06    -42.5161E-03     82.6934E-03    -40.1773E-03    -16.6188E-03    -42.5353E-03     82.5470E-03    -39.8625E-03    -16.6414E-03
              88     12.0569E-03     115.866E-03     18.9145E+06     2.08818E+06     64.5064E+06    -1.44064E+06    -46.1339E-03     85.0854E-03    -38.9515E-03    -18.9941E-03    -46.1451E-03     84.9614E-03    -38.6594E-03    -19.0643E-03
              89     11.2162E-03     115.755E-03     20.6467E+06    -3.52162E+06     62.2157E+06    -875.687E+03    -47.0481E-03     84.6959E-03    -37.6478E-03    -17.2367E-03    -47.0368E-03     84.5477E-03    -37.3615E-03    -17.2949E-03
              90     10.3707E-03     115.659E-03     20.9915E+06     1.03425E+06     61.3666E+06    -449.891E+03    -46.0928E-03     82.4291E-03    -36.3362E-03    -14.5790E-03    -46.0835E-03     82.3071E-03    -36.0613E-03    -14.6249E-03
              91     9.52181E-03     115.577E-03     21.3049E+06    -668.577E+03     58.7872E+06    -1.07452E+06    -43.9234E-03     79.0200E-03    -35.0966E-03    -12.0313E-03    -43.9054E-03     78.8945E-03    -34.8326E-03    -12.0781E-03
              92     8.66817E-03     115.506E-03     22.4533E+06     996.341E+03     57.4725E+06    -2.00871E+06    -41.3306E-03     75.3122E-03    -33.9816E-03    -9.74659E-03    -41.3066E-03     75.1967E-03    -33.7282E-03    -9.79843E-03
              93     7.81075E-03     115.447E-03     24.1969E+06    -925.790E+03     54.9354E+06    -2.16577E+06    -38.9440E-03     71.9456E-03    -33.0015E-03    -7.88021E-03    -38.9042E-03     71.8226E-03    -32.7606E-03    -7.92837E-03
              94     6.94998E-03     115.397E-03     25.7873E+06      160.87E+03     52.9533E+06    -1.90990E+06    -36.7299E-03     68.8818E-03    -32.1519E-03    -6.31165E-03    -36.6804E-03     68.7655E-03    -31.9248E-03    -6.35197E-03
              95     6.08638E-03     115.354E-03     26.7709E+06    -930.021E+03     47.3303E+06    -1.28428E+06    -34.7760E-03     66.1947E-03    -31.4188E-03    -5.03244E-03    -34.7115E-03     66.0803E-03    -31.2196E-03    -5.06117E-03
              96     5.22042E-03     115.318E-03     27.2584E+06     597.695E+03     42.4461E+06    -1.05381E+06    -33.1519E-03     63.9626E-03    -30.8108E-03    -4.02652E-03    -33.0798E-03     63.8625E-03    -30.6389E-03    -4.04959E-03
              97     4.35269E-03     115.289E-03     27.9914E+06    -69.6707E+03     40.4072E+06    -1.54794E+06    -31.8526E-03     62.1868E-03    -30.3342E-03    -3.22419E-03    -31.7728E-03     62.0854E-03    -30.1727E-03    -3.25153E-03
              98     3.48349E-03     115.265E-03     29.1409E+06    -90.6777E+03     37.4988E+06    -1.65611E+06    -30.8606E-03     60.8169E-03    -29.9563E-03    -2.56242E-03    -30.7708E-03     60.7182E-03    -29.8109E-03    -2.58941E-03
              99     2.61334E-03     115.247E-03     30.4577E+06    -486.985E+03     34.4207E+06    -1.43300E+06    -30.1263E-03     59.8030E-03    -29.6767E-03    -2.00254E-03    -30.0247E-03     59.7049E-03    -29.5481E-03    -2.02513E-03
             100     1.74241E-03     115.234E-03     31.7352E+06    -106.027E+03     33.3024E+06    -1.28642E+06    -29.6374E-03     59.1440E-03    -29.5066E-03    -1.48949E-03    -29.5284E-03     59.0475E-03    -29.3860E-03    -1.50884E-03
             101     871.080E-06     115.226E-03     33.0703E+06    -1.07876E+06     32.1834E+06    -1.43139E+06    -29.1984E-03     58.8663E-03    -29.6679E-03    -1.07364E-03    -29.0797E-03     58.7647E-03    -29.5533E-03    -1.09365E-03
             102     544.797E-09     114.217E-03     28.1503E+06    -3.47529E+06     27.6335E+06    -952.729E+03    -26.4543E-03     53.1367E-03    -26.6824E-03     22.0257E-06    -26.3497E-03     53.0374E-03    -26.5800E-03     8.65964E-06
             103    -102.264E-09     113.223E-03     17.2608E+06    -6.67671E+06     18.1444E+06    -828.077E+03    -21.9147E-03     43.5713E-03    -21.6566E-03     1.08538E-03    -21.8455E-03     43.4861E-03    -21.5812E-03     1.07355E-03
             104     129.039E-09     112.236E-03     2.39108E+06    -11.5765E+06     2.95602E+06    -1.81237E+06    -18.5426E-03     37.0558E-03    -18.5132E-03     1.55032E-03    -18.5184E-03     36.9901E-03    -18.4851E-03     1.52599E-03
             105    -95.5901E-09     111.255E-03    -16.3544E+06    -18.5314E+06    -15.9445E+06    -2.39612E+06    -16.4259E-03     32.8227E-03    -16.3968E-03     2.09700E-03    -16.4577E-03     32.7769E-03    -16.4260E-03     2.06544E-03
             106     117.297E-09     110.277E-03    -37.9975E+06    -26.9329E+06    -37.9832E+06    -2.74270E+06    -15.2233E-03     30.4365E-03    -15.2132E-03     2.50217E-03    -15.3191E-03     30.4121E-03    -15.3089E-03     2.46636E-03
             107    -123.555E-09     109.300E-03    -61.4540E+06    -35.5457E+06    -61.2640E+06    -2.58453E+06    -14.7246E-03     29.4577E-03    -14.7332E-03     2.81222E-03    -14.8914E-03     29.4581E-03    -14.8988E-03     2.77861E-03
             108     113.169E-09     108.324E-03    -83.6852E+06    -44.3047E+06    -83.4107E+06    -2.76082E+06    -14.7245E-03     29.4710E-03    -14.7465E-03     3.04224E-03    -14.9577E-03     29.4918E-03    -14.9779E-03     3.00647E-03
             109    -142.729E-09     107.346E-03    -98.2475E+06    -51.0413E+06    -99.4200E+06    -1.12521E+06    -15.0781E-03     30.1754E-03    -15.0973E-03     3.19537E-03    -15.3511E-03     30.2069E-03    -15.3780E-03     3.18077E-03
             110     120.131E-09     106.369E-03    -80.9472E+06    -46.9874E+06    -82.6225E+06     3.68056E+06    -15.7802E-03     31.5716E-03    -15.7914E-03     3.29661E-03    -15.9970E-03     31.5740E-03    -16.0190E-03     3.34410E-03
             111    -141.503E-09     105.389E-03    -46.5732E+06    -28.2071E+06    -47.0893E+06     7.65475E+06    -16.7730E-03     33.5577E-03    -16.7848E-03     3.40148E-03    -16.8967E-03     33.5525E-03    -16.9118E-03     3.50029E-03
             112     130.873E-09     104.408E-03    -25.0814E+06    -4.96365E+06    -23.5748E+06     6.28602E+06    -17.9701E-03     35.9433E-03    -17.9731E-03     3.51755E-03    -18.0542E-03     35.9890E-03    -18.0474E-03     3.59871E-03
             113    -113.734E-09     103.423E-03    -9.15728E+06     8.59761E+06    -7.96644E+06     1.86320E+06    -19.2976E-03     38.5945E-03    -19.2968E-03     3.60606E-03    -19.3444E-03     38.6623E-03    -19.3359E-03     3.63005E-03
             114     106.192E-09     102.436E-03     1.82765E+06     10.2217E+06     2.26062E+06    -876.620E+03    -20.6181E-03     41.2417E-03    -20.6236E-03     3.64056E-03    -20.6270E-03     41.2869E-03    -20.6298E-03     3.62906E-03
             115    -109.027E-09     101.446E-03     7.33193E+06     5.44938E+06     7.48013E+06    -1.97343E+06    -21.8347E-03     43.6782E-03    -21.8435E-03     3.64447E-03    -21.8168E-03     43.6840E-03    -21.8247E-03     3.61866E-03
             116     92.3858E-09     100.455E-03     9.11664E+06    -2.04340E+06     9.17609E+06    -2.46009E+06    -22.9049E-03     45.8172E-03    -22.9124E-03     3.63023E-03    -22.8696E-03     45.7806E-03    -22.8768E-03     3.59795E-03
             117    -93.9083E-09     99.4610E-03     8.57459E+06    -10.4296E+06     8.40725E+06    -2.46918E+06    -23.8175E-03     47.6346E-03    -23.8171E-03     3.60361E-03    -23.7717E-03     47.5579E-03    -23.7724E-03     3.57103E-03
             118     88.6818E-09     98.4660E-03     6.04149E+06    -18.9516E+06     6.18727E+06    -2.56754E+06    -24.5728E-03     49.1449E-03    -24.5721E-03     3.56796E-03    -24.5241E-03     49.0325E-03    -24.5225E-03     3.53392E-03
             119    -86.3109E-09     97.4690E-03     3.29766E+06    -28.2234E+06     3.23296E+06    -2.86258E+06    -25.1860E-03     50.3757E-03    -25.1897E-03     3.53258E-03    -25.1333E-03     50.2252E-03    -25.1374E-03     3.49456E-03
             120     71.1835E-09     96.4717E-03    -584.540E+03    -37.3843E+06    -789.024E+03    -2.51466E+06    -25.6678E-03     51.3457E-03    -25.6779E-03     3.49213E-03    -25.6154E-03     51.1609E-03    -25.6268E-03     3.45847E-03
             121    -81.5448E-09     95.4729E-03    -3.96754E+06    -45.3803E+06    -4.04295E+06    -2.16788E+06    -26.0427E-03     52.0974E-03    -26.0547E-03     3.46629E-03    -25.9909E-03     51.8822E-03    -26.0034E-03     3.43698E-03
             122     64.5372E-09     94.4741E-03    -7.67958E+06    -52.7025E+06    -7.69010E+06    -2.13981E+06    -26.3140E-03     52.6448E-03    -26.3308E-03     3.44734E-03    -26.2649E-03     52.4037E-03    -26.2817E-03     3.41830E-03
             123    -82.4193E-09     93.4743E-03    -12.5510E+06    -59.9419E+06    -12.6231E+06    -2.07485E+06    -26.5135E-03     53.0306E-03    -26.5171E-03     3.42942E-03    -26.4710E-03     52.7675E-03    -26.4751E-03     3.40115E-03
             124     87.7866E-09     92.4747E-03    -15.7703E+06    -66.4352E+06    -15.9323E+06    -1.74589E+06    -26.6560E-03     53.3098E-03    -26.6538E-03     3.41865E-03    -26.6154E-03     53.0238E-03    -26.6143E-03     3.39457E-03
             125    -96.5699E-09     91.4745E-03    -18.5715E+06    -72.4904E+06    -18.4318E+06    -1.74819E+06    -26.7417E-03     53.4983E-03    -26.7566E-03     3.41014E-03    -26.7027E-03     53.1896E-03    -26.7167E-03     3.38599E-03
             126     75.4869E-09     90.4745E-03    -20.3160E+06    -78.6112E+06    -20.4310E+06    -1.84805E+06    -26.8009E-03     53.6196E-03    -26.8187E-03     3.39435E-03    -26.7589E-03     53.2858E-03    -26.7774E-03     3.36889E-03
             127    -92.1857E-09     89.4741E-03    -22.7823E+06    -84.7766E+06    -22.7191E+06    -1.76273E+06    -26.8462E-03     53.7032E-03    -26.8570E-03     3.38790E-03    -26.8043E-03     53.3454E-03    -26.8146E-03     3.36353E-03
             128     85.5064E-09     88.4741E-03    -24.5495E+06    -90.6156E+06    -24.6979E+06    -1.66123E+06    -26.8868E-03     53.7704E-03    -26.8836E-03     3.38711E-03    -26.8424E-03     53.3889E-03    -26.8401E-03     3.36404E-03
             129    -80.1169E-09     87.4736E-03    -26.5664E+06    -95.2962E+06    -26.7835E+06    -1.07064E+06    -26.9058E-03     53.7944E-03    -26.8885E-03     3.39899E-03    -26.8617E-03     53.3954E-03    -26.8458E-03     3.38353E-03
             130     97.3287E-09     86.4734E-03    -28.1827E+06    -98.5159E+06    -28.1140E+06    -830.291E+03    -26.9051E-03     53.7943E-03    -26.8892E-03     3.42213E-03    -26.8624E-03     53.3835E-03    -26.8461E-03     3.40978E-03
             131    -91.2626E-09     85.4730E-03    -28.1760E+06    -101.508E+06    -28.2450E+06    -860.130E+03    -26.8969E-03     53.7977E-03    -26.9008E-03     3.42705E-03    -26.8496E-03     53.3721E-03    -26.8540E-03     3.41431E-03
             132     72.2625E-09     84.4729E-03    -28.5001E+06    -104.345E+06    -28.4704E+06    -794.048E+03    -26.8975E-03     53.7980E-03    -26.9005E-03     3.41110E-03    -26.8475E-03     53.3591E-03    -26.8502E-03     3.39922E-03
             133    -63.4033E-09     83.4726E-03    -28.3176E+06    -107.124E+06    -28.3371E+06    -828.171E+03    -26.9004E-03     53.7957E-03    -26.8953E-03     3.40362E-03    -26.8455E-03     53.3424E-03    -26.8406E-03     3.39130E-03
             134     57.8347E-09     82.4724E-03    -28.1908E+06    -109.967E+06    -28.1485E+06    -864.494E+03    -26.8928E-03     53.7944E-03    -26.9017E-03     3.40164E-03    -26.8335E-03     53.3264E-03    -26.8421E-03     3.38887E-03
             135    -72.6604E-09     81.4722E-03    -28.1545E+06    -112.485E+06    -28.3797E+06    -584.981E+03    -26.8905E-03     53.7926E-03    -26.9022E-03     3.39786E-03    -26.8270E-03     53.3123E-03    -26.8401E-03     3.38870E-03
             136     59.2099E-09     80.4720E-03    -27.8920E+06    -113.855E+06    -27.8778E+06    -208.921E+03    -26.8960E-03     53.7891E-03    -26.8931E-03     3.40159E-03    -26.8299E-03     53.3009E-03    -26.8270E-03     3.39729E-03
             137    -45.9202E-09     79.4718E-03    -27.3370E+06    -114.694E+06    -27.3310E+06    -279.073E+03    -26.8953E-03     53.7836E-03    -26.8883E-03     3.40297E-03    -26.8261E-03     53.2895E-03    -26.8190E-03     3.39777E-03
             138     39.6722E-09     78.4717E-03    -26.7828E+06    -115.361E+06    -26.8757E+06    -117.993E+03    -26.8940E-03     53.7818E-03    -26.8878E-03     3.40083E-03    -26.8217E-03     53.2830E-03    -26.8161E-03     3.39771E-03
             139    -28.8735E-09     77.4714E-03    -26.7001E+06    -115.674E+06    -26.6598E+06    -70.6313E+03    -26.8849E-03     53.7728E-03    -26.8879E-03     3.40655E-03    -26.8120E-03     53.2719E-03    -26.8148E-03     3.40404E-03
             140     7.92250E-09     76.4713E-03    -26.3648E+06    -115.834E+06    -26.4498E+06     5.51758E+03    -26.8702E-03     53.7562E-03    -26.8860E-03     3.41278E-03    -26.7958E-03     53.2538E-03    -26.8120E-03     3.41127E-03
             141    -20.8562E-09     75.4711E-03    -26.3195E+06    -115.896E+06    -26.2487E+06    -17.7450E+03    -26.8679E-03     53.7373E-03    -26.8695E-03     3.40262E-03    -26.7934E-03     53.2342E-03    -26.7945E-03     3.40080E-03
             142     26.4426E-09     74.4711E-03    -26.2241E+06    -116.064E+06    -26.2595E+06    -46.1369E+03    -26.8670E-03     53.7220E-03    -26.8550E-03     3.40223E-03    -26.7918E-03     53.2179E-03    -26.7799E-03     3.40004E-03
             143    -16.6058E-09     73.4709E-03    -26.0819E+06    -116.076E+06    -26.0997E+06    -5.60112E+03    -26.8568E-03     53.7159E-03    -26.8590E-03     3.40151E-03    -26.7811E-03     53.2113E-03    -26.7834E-03     3.39984E-03
             144    -2.64392E-09     72.4709E-03    -25.8083E+06    -115.892E+06    -25.8694E+06     100.672E+03    -26.8503E-03     53.7145E-03    -26.8642E-03     3.40377E-03    -26.7738E-03     53.2101E-03    -26.7881E-03     3.40348E-03
             145    -8.52975E-09     71.4707E-03    -25.5230E+06    -115.546E+06    -25.4434E+06     96.7470E+03    -26.8600E-03     53.7216E-03    -26.8616E-03     3.40302E-03    -26.7832E-03     53.2179E-03    -26.7843E-03     3.40269E-03
             146     12.3707E-09     70.4707E-03    -25.1566E+06    -115.269E+06    -25.2502E+06     81.4546E+03    -26.8783E-03     53.7364E-03    -26.8581E-03     3.40806E-03    -26.8004E-03     53.2333E-03    -26.7807E-03     3.40752E-03
             147     12.9177E-09     69.4704E-03    -25.0431E+06    -115.040E+06    -24.9496E+06     63.5161E+03    -26.8817E-03     53.7466E-03    -26.8649E-03     3.42057E-03    -26.8040E-03     53.2441E-03    -26.7866E-03     3.41979E-03
             148    -13.0690E-09     68.4705E-03    -24.8030E+06    -114.842E+06    -24.8677E+06     42.7337E+03    -26.8667E-03     53.7482E-03    -26.8815E-03     3.41669E-03    -26.7881E-03     53.2461E-03    -26.8034E-03     3.41565E-03
             149    -18.8693E-09     67.4702E-03    -24.6955E+06    -114.706E+06    -24.6481E+06     60.7902E+03    -26.8768E-03     53.7604E-03    -26.8835E-03     3.39677E-03    -26.7983E-03     53.2585E-03    -26.8046E-03     3.39598E-03
             150     34.2959E-09     66.4702E-03    -24.4512E+06    -114.531E+06    -24.4901E+06     17.0205E+03    -26.8936E-03     53.7666E-03    -26.8730E-03     3.39613E-03    -26.8143E-03     53.2651E-03    -26.7939E-03     3.39477E-03
             151    -19.2221E-09     65.4699E-03    -24.3241E+06    -114.363E+06    -24.3420E+06     95.9008E+03    -26.8931E-03     53.7639E-03    -26.8708E-03     3.40881E-03    -26.8136E-03     53.2628E-03    -26.7914E-03     3.40846E-03
             152     37.6761E-09     64.4699E-03    -24.1618E+06    -114.176E+06    -24.0942E+06     39.7464E+03    -26.8717E-03     53.7486E-03    -26.8769E-03     3.41734E-03    -26.7920E-03     53.2478E-03    -26.7968E-03     3.41625E-03
             153    -69.9846E-09     63.4696E-03    -24.0276E+06    -114.027E+06     -24.045E+06     31.3208E+03    -26.8442E-03     53.7205E-03    -26.8763E-03     3.41811E-03    -26.7641E-03     53.2202E-03    -26.7964E-03     3.41692E-03
             154     40.4347E-09     62.4697E-03    -24.0744E+06    -113.971E+06    -24.0297E+06    -16.8964E+03    -26.8413E-03     53.6971E-03    -26.8558E-03     3.39788E-03    -26.7616E-03     53.1972E-03    -26.7758E-03     3.39607E-03
             155    -41.1241E-09     61.4695E-03    -23.8814E+06    -113.935E+06    -23.9439E+06     48.6640E+03    -26.8486E-03     53.6842E-03    -26.8356E-03     3.39434E-03    -26.7681E-03     53.1840E-03    -26.7555E-03     3.39338E-03
             156     58.5760E-09     60.4695E-03    -24.0497E+06    -113.962E+06    -23.9903E+06    -13.9430E+03    -26.8494E-03     53.6753E-03    -26.8258E-03     3.40225E-03    -26.7697E-03     53.1753E-03    -26.7457E-03     3.40048E-03
             157    -39.3008E-09     59.4693E-03    -24.0173E+06    -113.935E+06    -24.0869E+06     39.2668E+03    -26.8441E-03     53.6668E-03    -26.8227E-03     3.41991E-03    -26.7641E-03     53.1671E-03    -26.7431E-03     3.41882E-03
             158     51.4340E-09     58.4694E-03    -23.9398E+06    -113.825E+06    -23.8541E+06     29.7166E+03    -26.8320E-03     53.6586E-03    -26.8266E-03     3.41725E-03    -26.7521E-03     53.1590E-03    -26.7461E-03     3.41603E-03
             159     49.7487E-09     56.4693E-03    -23.8335E+06    -113.550E+06    -23.7514E+06     77.2464E+03    -26.8489E-03     53.6798E-03    -26.8309E-03     3.39156E-03    -26.7690E-03     53.1812E-03    -26.7504E-03     3.39098E-03
             160    -13.6990E-09     55.4691E-03    -23.7759E+06    -113.516E+06    -23.7972E+06    -31.5619E+03    -26.8680E-03     53.6785E-03    -26.8105E-03     3.39142E-03    -26.7878E-03     53.1800E-03    -26.7304E-03     3.38942E-03
             161     73.0212E-09     54.4692E-03    -23.5688E+06    -113.497E+06    -23.5301E+06     5.19752E+03    -26.8518E-03     53.6736E-03    -26.8218E-03     3.37818E-03    -26.7710E-03     53.1746E-03    -26.7407E-03     3.37666E-03
             162    -84.5114E-09     53.4691E-03    -23.5364E+06    -113.492E+06    -23.5611E+06    -34.2619E+03    -26.8245E-03     53.6891E-03    -26.8646E-03     3.34114E-03    -26.7435E-03     53.1901E-03    -26.7837E-03     3.33915E-03
             163     20.3374E-09     52.4690E-03    -23.4514E+06    -113.398E+06    -23.4876E+06     94.9806E+03    -26.8330E-03     53.6958E-03    -26.8628E-03     3.35487E-03    -26.7518E-03     53.1971E-03    -26.7818E-03     3.35454E-03
             164    -13.8740E-09     51.4688E-03    -23.7191E+06    -113.322E+06    -23.6826E+06     12.9921E+03    -26.8402E-03     53.6666E-03    -26.8265E-03     3.37769E-03    -26.7601E-03     53.1689E-03    -26.7462E-03     3.37628E-03
             165     26.5411E-09     50.4689E-03    -23.7729E+06    -113.225E+06    -23.8154E+06     1.12183E+03    -26.8240E-03     53.6317E-03    -26.8077E-03     3.36497E-03    -26.7442E-03     53.1347E-03    -26.7281E-03     3.36343E-03
             166    -16.3452E-09     49.4689E-03    -23.6264E+06    -113.225E+06    -23.5576E+06    -19.5458E+03    -26.8100E-03     53.6363E-03    -26.8263E-03     3.36647E-03    -26.7299E-03     53.1388E-03    -26.7456E-03     3.36467E-03
             167    -26.6892E-09     48.4688E-03    -23.7340E+06    -113.373E+06    -23.8047E+06    -2.49705E+03    -26.7905E-03     53.5944E-03    -26.8038E-03     3.32522E-03    -26.7103E-03     53.0966E-03    -26.7240E-03     3.32366E-03
             168     40.5531E-09     47.4689E-03    -23.8682E+06    -113.359E+06    -23.7660E+06    -54.1043E+03    -26.7858E-03     53.5403E-03    -26.7545E-03     3.37024E-03    -26.7063E-03     53.0427E-03    -26.6744E-03     3.36797E-03
             169    -3.66795E-09     46.4689E-03    -23.7986E+06    -113.424E+06    -23.9262E+06    -20.9125E+03    -26.7523E-03     53.5078E-03    -26.7555E-03     3.42981E-03    -26.6722E-03     53.0100E-03    -26.6761E-03     3.42791E-03
             170    -45.5050E-09     45.4690E-03    -24.0289E+06    -113.517E+06    -23.9312E+06     14.2466E+03    -26.6679E-03     53.4181E-03    -26.7502E-03     3.41181E-03    -26.5888E-03     52.9202E-03    -26.6704E-03     3.41037E-03
             171    -53.7837E-09     44.4694E-03    -23.9306E+06    -113.518E+06    -24.0066E+06    -40.0930E+03    -26.6307E-03     53.3333E-03    -26.7026E-03     3.33926E-03    -26.5510E-03     52.8354E-03    -26.6234E-03     3.33721E-03
             172     21.0161E-09     43.4697E-03    -23.9091E+06    -113.455E+06    -23.9218E+06     55.0938E+03    -26.6517E-03     53.2723E-03    -26.6206E-03     3.26681E-03    -26.5720E-03     52.7745E-03    -26.5411E-03     3.26605E-03
             173     61.1187E-09     42.4700E-03    -23.9085E+06    -113.420E+06    -23.9015E+06     16.4377E+03    -26.6135E-03     53.1842E-03    -26.5707E-03     3.29641E-03    -26.5339E-03     52.6866E-03    -26.4911E-03     3.29512E-03
             174    -73.1501E-09     41.4706E-03    -23.8516E+06    -113.312E+06    -23.8686E+06     38.8161E+03    -26.5305E-03     53.0778E-03    -26.5472E-03     3.27291E-03    -26.4509E-03     52.5806E-03    -26.4677E-03     3.27192E-03
             175     50.8299E-09     40.4711E-03    -23.7807E+06    -113.160E+06    -23.7507E+06     13.6085E+03    -26.5016E-03     52.9562E-03    -26.4546E-03     3.22115E-03    -26.4220E-03     52.4595E-03    -26.3748E-03     3.21988E-03
             176     49.4157E-09     39.4719E-03    -23.7538E+06    -113.114E+06    -23.8137E+06     11.7079E+03    -26.4305E-03     52.8129E-03    -26.3823E-03     3.22820E-03    -26.3508E-03     52.3164E-03    -26.3030E-03     3.22689E-03
             177    -70.6514E-09     38.4727E-03    -23.8012E+06    -113.017E+06    -23.7553E+06     41.7522E+03    -26.3003E-03     52.6312E-03    -26.3310E-03     3.18972E-03    -26.2210E-03     52.1353E-03    -26.2514E-03     3.18884E-03
             178     33.9025E-09     37.4739E-03    -23.6689E+06    -112.856E+06    -23.7014E+06     42.4104E+03    -26.2124E-03     52.4313E-03    -26.2188E-03     3.21086E-03    -26.1328E-03     51.9358E-03    -26.1394E-03     3.20997E-03
             179    -13.4585E-09     36.4750E-03    -23.5751E+06    -112.657E+06    -23.5841E+06     77.9695E+03    -26.0810E-03     52.1907E-03    -26.1097E-03     3.20912E-03    -26.0014E-03     51.6959E-03    -26.0301E-03     3.20867E-03
             180    -62.1108E-09     35.4767E-03    -23.6043E+06    -112.557E+06    -23.6196E+06     63.6463E+03    -25.9445E-03     51.8956E-03    -25.9511E-03     3.07517E-03    -25.8650E-03     51.4014E-03    -25.8718E-03     3.07465E-03
             181     121.492E-09     34.4786E-03    -23.5063E+06    -112.299E+06    -23.4780E+06     59.8659E+03    -25.8452E-03     51.6104E-03    -25.7652E-03     3.02465E-03    -25.7658E-03     51.1171E-03    -25.6856E-03     3.02411E-03
             182    -44.3966E-09     33.4808E-03    -23.4439E+06    -112.104E+06    -23.4434E+06     64.1302E+03    -25.6376E-03     51.2787E-03    -25.6411E-03     3.05856E-03    -25.5582E-03     50.7863E-03    -25.5618E-03     3.05805E-03
             183    -43.2245E-09     32.4831E-03    -23.3561E+06    -111.837E+06    -23.3976E+06     85.2206E+03    -25.4023E-03     50.8591E-03    -25.4568E-03     3.04396E-03    -25.3230E-03     50.3678E-03    -25.3777E-03     3.04373E-03
             184     30.6060E-09     31.4863E-03    -23.3519E+06    -111.606E+06    -23.3756E+06     61.1522E+03    -25.1939E-03     50.4053E-03    -25.2114E-03     3.03447E-03    -25.1150E-03     49.9152E-03    -25.1326E-03     3.03392E-03
             185    -53.1557E-09     30.4896E-03    -23.2810E+06    -111.267E+06    -23.3395E+06     111.545E+03    -24.9362E-03     49.9157E-03    -24.9795E-03     2.99177E-03    -24.8574E-03     49.4271E-03    -24.9011E-03     2.99191E-03
             186    -5.19102E-09     29.4937E-03    -23.1921E+06    -110.856E+06    -23.2183E+06     176.571E+03    -24.6603E-03     49.3699E-03    -24.7096E-03     2.92162E-03    -24.5819E-03     48.8831E-03    -24.6313E-03     2.92266E-03
             187    -27.2692E-09     28.4981E-03    -22.9731E+06    -110.341E+06    -22.9925E+06     202.272E+03    -24.3572E-03     48.7603E-03    -24.4031E-03     2.84686E-03    -24.2788E-03     48.2754E-03    -24.3247E-03     2.84827E-03
             188    -24.6708E-09     27.5034E-03    -22.8648E+06    -109.848E+06    -22.8366E+06     117.663E+03    -24.0426E-03     48.0928E-03    -24.0503E-03     2.72072E-03    -23.9645E-03     47.6100E-03    -23.9720E-03     2.72110E-03
             189     60.0048E-09     26.5092E-03    -22.6799E+06    -109.311E+06    -22.7540E+06     134.268E+03    -23.7106E-03     47.3875E-03    -23.6770E-03     2.63025E-03    -23.6325E-03     46.9070E-03    -23.5994E-03     2.63089E-03
             190    -40.2744E-09     25.5159E-03    -22.4266E+06    -108.500E+06    -22.4623E+06     253.844E+03    -23.2867E-03     46.6048E-03    -23.3181E-03     2.55463E-03    -23.2090E-03     46.1276E-03    -23.2405E-03     2.55688E-03
             191    -37.8620E-09     24.5231E-03    -22.2577E+06    -107.681E+06    -22.3103E+06     278.832E+03    -22.8368E-03     45.7148E-03    -22.8780E-03     2.46758E-03    -22.7597E-03     45.2412E-03    -22.8011E-03     2.47019E-03
             192     40.3910E-09     23.5316E-03    -21.7500E+06    -106.525E+06    -21.8381E+06     410.762E+03    -22.3759E-03     44.7441E-03    -22.3682E-03     2.37461E-03    -22.2986E-03     44.2748E-03    -22.2914E-03     2.37899E-03
             193    -32.7261E-09     22.5409E-03    -21.3229E+06    -105.005E+06    -21.3006E+06     486.332E+03    -21.8616E-03     43.7048E-03    -21.8432E-03     2.24221E-03    -21.7851E-03     43.2417E-03    -21.7665E-03     2.24763E-03
             194     55.5571E-09     21.5514E-03    -20.9649E+06    -103.598E+06    -20.9819E+06     406.859E+03    -21.3100E-03     42.5921E-03    -21.2820E-03     2.12090E-03    -21.2342E-03     42.1350E-03    -21.2063E-03     2.12536E-03
             195    -31.1895E-09     20.5628E-03    -20.5013E+06    -102.266E+06    -20.5530E+06     433.049E+03    -20.6954E-03     41.3963E-03    -20.7009E-03     2.00850E-03    -20.6198E-03     40.9446E-03    -20.6256E-03     2.01334E-03
             196    -5.20767E-09     19.5757E-03    -19.7444E+06    -100.842E+06    -19.8121E+06     472.513E+03    -20.0430E-03     40.1213E-03    -20.0782E-03     1.83886E-03    -19.9668E-03     39.6745E-03    -20.0024E-03     1.84427E-03
             197    -22.6417E-09     18.5898E-03    -18.1300E+06    -98.7706E+06    -18.2868E+06     712.577E+03    -19.3875E-03     38.7904E-03    -19.4028E-03     1.63296E-03    -19.3084E-03     38.3494E-03    -19.3248E-03     1.64155E-03
             198     20.5708E-09     17.6053E-03    -16.7586E+06    -96.2349E+06    -16.7230E+06     786.868E+03    -18.6929E-03     37.3824E-03    -18.6895E-03     1.39824E-03    -18.6129E-03     36.9499E-03    -18.6093E-03     1.40787E-03
             199    -12.8691E-09     16.6221E-03    -15.4799E+06    -93.4276E+06    -15.6064E+06     834.919E+03    -17.9787E-03     35.9034E-03    -17.9247E-03     1.21413E-03    -17.8980E-03     35.4814E-03    -17.8448E-03     1.22444E-03
             200     98.8526E-09     15.6404E-03    -13.8466E+06    -89.9524E+06    -13.8877E+06     1.21252E+06    -17.2916E-03     34.3981E-03    -17.1065E-03     1.04696E-03    -17.2102E-03     33.9886E-03    -17.0254E-03     1.06220E-03
             201     141.968E-09     14.6602E-03    -10.8400E+06    -85.6104E+06    -10.8443E+06     1.43618E+06    -16.5009E-03     32.8465E-03    -16.3456E-03     958.233E-06    -16.4153E-03     32.4500E-03    -16.2600E-03     976.419E-06
             202    -108.087E-09     13.6814E-03    -7.49368E+06    -81.4979E+06    -7.35125E+06     1.12279E+06    -15.5776E-03     31.1443E-03    -15.5667E-03     782.259E-06    -15.4862E-03     30.7584E-03    -15.4744E-03     796.455E-06
             203     95.0563E-09     12.7045E-03    -7.09216E+06    -78.7793E+06    -6.99378E+06     598.350E+03    -14.6243E-03     29.1744E-03    -14.5502E-03     530.897E-06    -14.5354E-03     28.8011E-03    -14.4606E-03     538.376E-06
             204     51.0044E-09     11.7297E-03    -9.69660E+06    -77.2341E+06    -9.69513E+06     315.405E+03    -13.5991E-03     27.0931E-03    -13.4940E-03     416.394E-06    -13.5216E-03     26.7351E-03    -13.4164E-03     420.203E-06
             205    -10.0671E-09     10.7567E-03    -13.3446E+06    -76.8655E+06    -13.0892E+06    -96.4822E+03    -12.6396E-03     25.2582E-03    -12.6185E-03     371.341E-06    -12.5759E-03     24.9123E-03    -12.5532E-03     369.799E-06
             206     9.74328E-09     9.78547E-03    -16.0114E+06    -77.2413E+06    -15.7940E+06    -285.108E+03    -12.1279E-03     24.1808E-03    -12.0529E-03     492.982E-06    -12.0730E-03     23.8409E-03    -11.9967E-03     488.994E-06
             207     126.292E-09     8.81470E-03    -16.7077E+06    -78.1078E+06    -16.4647E+06    -337.000E+03    -12.1457E-03     24.2457E-03    -12.1001E-03     780.209E-06    -12.0921E-03     23.9034E-03    -12.0449E-03     775.568E-06
             208    -178.633E-09     7.84311E-03    -15.4267E+06    -79.5507E+06    -15.3401E+06    -473.923E+03    -12.6814E-03     25.4088E-03    -12.7275E-03     974.306E-06    -12.6209E-03     25.0558E-03    -12.6664E-03     967.947E-06
             209     149.842E-09     6.87017E-03    -12.5593E+06    -81.3352E+06    -12.4946E+06    -588.672E+03    -13.7003E-03     27.4385E-03    -13.7382E-03     1.13511E-03    -13.6271E-03     27.0683E-03    -13.6645E-03     1.12730E-03
             210    -187.564E-09     5.89455E-03    -10.0943E+06    -83.3729E+06    -10.2366E+06    -700.088E+03    -14.9185E-03     29.9016E-03    -14.9831E-03     1.21659E-03    -14.8332E-03     29.5143E-03    -14.8988E-03     1.20736E-03
             211     108.963E-09     4.91671E-03    -9.93780E+06    -85.6208E+06    -10.0124E+06    -690.327E+03    -16.1673E-03     32.3639E-03    -16.1967E-03     1.15947E-03    -16.0783E-03     31.9649E-03    -16.1082E-03     1.15040E-03
             212    -83.5061E-09     3.93646E-03    -10.4713E+06    -87.6371E+06    -10.4931E+06    -660.476E+03    -17.3101E-03     34.6045E-03    -17.2944E-03     1.07086E-03    -17.2201E-03     34.1969E-03    -17.2046E-03     1.06220E-03
             213     85.3908E-09     2.95415E-03    -11.0764E+06    -89.6758E+06    -11.2407E+06    -474.503E+03    -18.2348E-03     36.4684E-03    -18.2336E-03     874.554E-06    -18.1437E-03     36.0525E-03    -18.1437E-03     868.337E-06
             214    -87.4132E-09     1.97042E-03    -11.4871E+06    -91.0817E+06    -11.5803E+06    -228.473E+03    -18.9252E-03     37.8447E-03    -18.9194E-03     593.743E-06    -18.8336E-03     37.4228E-03    -18.8286E-03     590.708E-06
             215     98.2128E-09     985.412E-06    -11.1830E+06    -91.2778E+06    -11.0790E+06     65.9829E+03    -19.3695E-03     38.6878E-03    -19.3184E-03     313.318E-06    -19.2767E-03     38.2639E-03    -19.2252E-03     314.170E-06
             216     882.663E-06     41.6334E-18    -10.9102E+06    -91.2409E+06    -10.7462E+06     138.060E+03    -19.5933E-03     39.0856E-03    -19.4924E-03     288.623E-06    -19.4998E-03     38.6609E-03    -19.3980E-03     290.423E-06
             217     1.76515E-03     41.6334E-18    -10.8608E+06    -91.6097E+06    -11.0998E+06    -137.368E+03    -19.7877E-03     39.3784E-03    -19.5908E-03     478.826E-06    -19.6930E-03     38.9522E-03    -19.4977E-03     476.991E-06
             218     2.64741E-03     41.6334E-18    -10.5460E+06    -91.9024E+06    -11.3721E+06    -449.738E+03    -20.1289E-03     39.8364E-03    -19.7075E-03     756.547E-06    -20.0319E-03     39.4087E-03    -19.6158E-03     750.656E-06
             219     3.52927E-03     41.6334E-18    -9.91103E+06    -92.0532E+06    -11.6182E+06    -647.628E+03    -20.6171E-03     40.4843E-03    -19.8672E-03     1.04210E-03    -20.5163E-03     40.0552E-03    -19.7774E-03     1.03361E-03
             220     4.41069E-03     41.6334E-18    -9.22229E+06    -92.6494E+06    -12.7303E+06    -714.160E+03    -21.2500E-03     41.3195E-03    -20.0695E-03     1.36268E-03    -21.1433E-03     40.8881E-03    -19.9855E-03     1.35330E-03
             221     5.29138E-03     41.6334E-18    -8.39112E+06    -94.0379E+06    -15.7240E+06    -1.25608E+06    -22.0277E-03     42.3378E-03    -20.3101E-03     1.73622E-03    -21.9105E-03     41.9026E-03    -20.2402E-03     1.71977E-03
             222     6.17141E-03     41.6334E-18    -6.75145E+06    -95.7192E+06    -20.6918E+06    -2.25216E+06    -22.9543E-03     43.5411E-03    -20.5869E-03     2.19314E-03    -22.8192E-03     43.1023E-03    -20.5417E-03     2.16373E-03
             223     7.05040E-03     41.6334E-18    -4.15260E+06    -96.8144E+06    -26.3343E+06    -3.33773E+06    -24.0396E-03     44.9452E-03    -20.9056E-03     2.68999E-03    -23.8817E-03     44.5053E-03    -20.8909E-03     2.64641E-03
             224     7.92862E-03     41.6334E-18    -604.460E+03    -93.7257E+06    -31.1978E+06    -4.09872E+06    -25.2928E-03     46.5632E-03    -21.2704E-03     3.29918E-03    -25.1147E-03     46.1407E-03    -21.2896E-03     3.24553E-03
             225     8.80522E-03     41.6334E-18     3.33904E+06    -86.5643E+06    -37.3342E+06    -4.43406E+06    -26.6868E-03     48.3595E-03    -21.6727E-03     4.13825E-03    -26.4905E-03     47.9761E-03    -21.7387E-03     4.08008E-03
             226     9.68071E-03     41.6334E-18     7.50682E+06    -73.5510E+06    -41.9361E+06    -5.09084E+06    -28.1368E-03     50.2569E-03    -22.1201E-03     5.04065E-03    -27.9318E-03     49.9392E-03    -22.2340E-03     4.97331E-03
             227     10.5549E-03     41.6334E-18     11.4208E+06    -52.9752E+06    -40.8290E+06    -4.39579E+06    -29.6722E-03     52.2993E-03    -22.6271E-03     5.89658E-03    -29.4791E-03     52.0772E-03    -22.7710E-03     5.83731E-03
             228     11.4278E-03     41.6334E-18     14.2586E+06    -27.7549E+06    -34.0775E+06    -3.02102E+06    -31.3316E-03     54.5302E-03    -23.1986E-03     7.45611E-03    -31.1708E-03     54.4204E-03    -23.3494E-03     7.41357E-03
             229     12.2977E-03     41.6334E-18     14.5822E+06     5.24323E+06    -25.4583E+06    -1.47605E+06    -32.8887E-03     56.6958E-03    -23.8072E-03     8.54223E-03    -32.7867E-03     56.7382E-03    -23.9632E-03     8.51792E-03
             230     13.1695E-03     41.6334E-18     13.1373E+06     36.7168E+06    -9.41774E+06    -39.1735E+03    -34.8213E-03     59.3171E-03    -24.4958E-03     10.7591E-03    -34.7958E-03     59.4958E-03    -24.6152E-03     10.7503E-03
             231     14.0333E-03     41.6334E-18     12.1599E+06     57.9504E+06     16.1680E+06     327.654E+03    -39.2166E-03     64.5797E-03    -25.3632E-03     17.1034E-03    -39.2651E-03     64.8305E-03    -25.3840E-03     17.0891E-03
             232     14.8954E-03     41.6334E-18     8.85904E+06     72.4975E+06     45.1351E+06     2.32015E+06    -47.5095E-03     74.0497E-03    -26.5402E-03     28.1193E-03    -47.6376E-03     74.3353E-03    -26.4325E-03     28.1378E-03
             233     15.7388E-03     41.6334E-18     3.25065E+06     80.4394E+06     65.7016E+06     5.15631E+06    -56.0930E-03     84.1471E-03    -28.0541E-03     58.1795E-03    -56.3127E-03     84.4586E-03    -27.8469E-03     58.1929E-03
             234     16.5513E-03     41.6334E-18     5.44634E+06     98.6943E+06     79.2342E+06     5.34265E+06    -72.3033E-03     102.317E-03    -30.0138E-03     101.571E-03    -72.8035E-03     102.961E-03    -29.7686E-03     101.044E-03
             235     17.4593E-03     1.09679E-03    -2.22221E+06     115.840E+06     79.8231E+06     6.74763E+06    -91.7017E-03     121.277E-03    -29.5749E-03     124.568E-03    -92.9018E-03     122.676E-03    -29.3406E-03     123.199E-03
             236     17.4966E-03     2.21814E-03    -5.48988E+06     126.969E+06     78.6811E+06     9.15793E+06    -92.0409E-03     119.430E-03    -27.3887E-03     149.415E-03    -94.2542E-03     121.857E-03    -27.1714E-03     147.824E-03
             237     17.5140E-03     3.28223E-03     169.180E+03     140.963E+06     88.9564E+06     6.22815E+06    -86.9751E-03     113.403E-03    -26.4284E-03     172.725E-03    -90.0692E-03     116.744E-03    -26.1882E-03     171.295E-03
             238     17.5194E-03     4.35273E-03    -4.72191E+06     147.859E+06     94.2276E+06     2.39765E+06    -88.3311E-03     114.298E-03    -25.9667E-03     179.824E-03    -92.1585E-03     118.364E-03    -25.7031E-03     178.597E-03
             239     17.5223E-03     5.41781E-03    -3.90996E+06     155.214E+06     99.0641E+06     3.43251E+06    -84.1716E-03     110.071E-03    -25.8997E-03     191.369E-03    -88.6433E-03     114.796E-03    -25.6238E-03     190.728E-03
             240     17.5245E-03     6.47360E-03    -1.34594E+06     161.234E+06     102.009E+06     2.89749E+06    -77.7389E-03     103.704E-03    -25.9651E-03     200.999E-03    -82.6956E-03     108.933E-03    -25.6869E-03     201.076E-03
             241     17.5246E-03     7.50893E-03    -1.10253E+06     161.725E+06     102.006E+06    -91.3190E+03    -75.3137E-03     101.306E-03    -25.9921E-03     197.683E-03    -80.4238E-03     106.689E-03    -25.7149E-03     198.218E-03
             242     17.5235E-03     8.55144E-03    -2.44026E+06     161.370E+06     101.550E+06     369.354E+03    -73.5421E-03     99.6048E-03    -26.0626E-03     192.573E-03    -78.7454E-03     105.078E-03    -25.7853E-03     193.550E-03
             243     17.5227E-03     9.59625E-03    -2.88748E+06     163.495E+06     101.666E+06     1.19354E+06    -70.1490E-03     96.3410E-03    -26.1920E-03     194.805E-03    -75.6190E-03     102.086E-03    -25.9165E-03     196.336E-03
             244     17.5221E-03     10.6284E-03    -3.10099E+06     165.311E+06     102.157E+06     754.386E+03    -67.0623E-03     93.3768E-03    -26.3145E-03     193.059E-03    -72.6508E-03     99.2441E-03    -26.0389E-03     195.094E-03
             245     17.5204E-03     11.6633E-03    -2.49964E+06     166.174E+06     102.875E+06     671.156E+03    -64.3536E-03     90.7893E-03    -26.4358E-03     190.156E-03    -69.9872E-03     96.7055E-03    -26.1587E-03     192.637E-03
             246     17.5202E-03     12.6938E-03    -2.16133E+06     166.949E+06     103.423E+06     375.844E+03    -60.7750E-03     87.3296E-03    -26.5546E-03     187.235E-03    -66.4153E-03     93.2542E-03    -26.2764E-03     190.178E-03
             247     17.5198E-03     13.7183E-03    -2.22416E+06     168.287E+06     104.411E+06    -284.663E+03    -57.2923E-03     83.9238E-03    -26.6314E-03     183.525E-03    -62.8737E-03     89.7912E-03    -26.3502E-03     186.884E-03
             248     17.5212E-03     14.7431E-03    -1.51392E+06     169.041E+06     105.226E+06    -1.08072E+06    -55.4372E-03     82.0857E-03    -26.6486E-03     182.425E-03    -61.0262E-03     87.9645E-03    -26.3654E-03     186.081E-03
             249     17.5208E-03     15.7711E-03    -2.33863E+06     168.473E+06     104.703E+06    -554.628E+03    -54.2323E-03     80.8997E-03    -26.6674E-03     185.667E-03    -60.0076E-03     86.9618E-03    -26.3848E-03     189.640E-03
             250     17.5212E-03     16.7982E-03    -3.24484E+06     169.352E+06     104.702E+06     1.05394E+06    -50.4435E-03     77.1927E-03    -26.7492E-03     189.364E-03    -56.4153E-03     83.4508E-03    -26.4665E-03     193.865E-03
             251     17.5220E-03     17.8134E-03    -2.99351E+06     171.335E+06     105.637E+06     775.861E+03    -45.7787E-03     72.6129E-03    -26.8342E-03     190.548E-03    -51.8394E-03     78.9647E-03    -26.5501E-03     195.601E-03
             252     17.5223E-03     18.8253E-03    -2.75856E+06     171.959E+06     105.895E+06    -41.0950E+03    -43.8610E-03     70.7026E-03    -26.8417E-03     189.943E-03    -49.9382E-03     77.0734E-03    -26.5575E-03     195.277E-03
             253     17.5236E-03     19.8405E-03    -3.05433E+06     171.955E+06     105.854E+06     9.44829E+03    -43.0686E-03     69.8996E-03    -26.8311E-03     191.449E-03    -49.2445E-03     76.3684E-03    -26.5467E-03     196.992E-03
             254     17.5230E-03     20.8561E-03    -2.52328E+06     172.928E+06     106.471E+06     555.288E+03    -41.3966E-03     68.2497E-03    -26.8531E-03     195.840E-03    -47.7907E-03     74.9402E-03    -26.5679E-03     201.721E-03
             255     17.5248E-03     21.8660E-03    -3.05235E+06     174.255E+06     106.917E+06     832.885E+03    -39.4490E-03     66.3203E-03    -26.8713E-03     198.061E-03    -45.9640E-03     73.1329E-03    -26.5850E-03     204.269E-03
             256     17.5243E-03     22.8730E-03    -3.29181E+06     175.673E+06     107.761E+06     553.418E+03    -38.2992E-03     65.1800E-03    -26.8809E-03     197.062E-03    -44.8084E-03     71.9886E-03    -26.5920E-03     203.437E-03
             257     17.5249E-03     23.8805E-03    -2.69613E+06     176.616E+06     108.307E+06     525.459E+03    -36.9529E-03     63.8508E-03    -26.8979E-03     196.753E-03    -43.4718E-03     70.6730E-03    -26.6086E-03     203.292E-03
             258     17.5253E-03     24.8864E-03    -2.91600E+06     176.820E+06     108.260E+06     221.158E+03    -35.8866E-03     62.7830E-03    -26.8963E-03     197.339E-03    -42.4454E-03     69.6451E-03    -26.6072E-03     204.041E-03
             259     17.5259E-03     25.8904E-03    -3.42579E+06     176.693E+06     108.238E+06    -221.201E+03    -36.7444E-03     63.6068E-03    -26.8624E-03     198.254E-03    -43.3693E-03     70.5330E-03    -26.5724E-03     204.971E-03
             260     17.5253E-03     26.9017E-03    -2.93354E+06     177.545E+06     108.949E+06     739.948E+03    -35.7971E-03     62.6789E-03    -26.8818E-03     199.762E-03    -42.5053E-03     69.6912E-03    -26.5902E-03     206.639E-03
             261     17.5264E-03     27.9046E-03    -2.09512E+06     178.784E+06     109.733E+06     560.132E+03    -32.7979E-03     59.7344E-03    -26.9366E-03     200.213E-03    -39.5352E-03     66.7809E-03    -26.6441E-03     207.402E-03
             262     17.5263E-03     28.8998E-03    -2.63041E+06     178.337E+06     109.436E+06    -502.111E+03    -33.5012E-03     60.4027E-03    -26.9015E-03     198.165E-03    -40.1561E-03     67.3641E-03    -26.6091E-03     205.279E-03
             263     17.5264E-03     29.9093E-03    -2.94326E+06     178.071E+06     109.389E+06    -82.7021E+03    -34.8371E-03     61.7001E-03    -26.8629E-03     197.876E-03    -41.4929E-03     68.6604E-03    -26.5699E-03     204.875E-03
             264     17.5266E-03     30.9142E-03    -3.04438E+06     178.405E+06     109.376E+06     183.798E+03    -33.4545E-03     60.3472E-03    -26.8928E-03     200.853E-03    -40.2513E-03     67.4494E-03    -26.6002E-03     208.077E-03
             265     17.5267E-03     31.9150E-03    -3.13193E+06     178.570E+06     109.528E+06     133.904E+03    -32.7311E-03     59.6399E-03    -26.9088E-03     202.026E-03    -39.5880E-03     66.8020E-03    -26.6155E-03     209.386E-03
             266     17.5266E-03     32.9182E-03    -3.01136E+06     178.781E+06     110.028E+06     180.980E+03    -32.4143E-03     59.3289E-03    -26.9145E-03     201.596E-03    -39.2597E-03     66.4792E-03    -26.6193E-03     208.988E-03
             267     17.5269E-03     33.9185E-03    -2.88763E+06     178.977E+06     110.245E+06     187.063E+03    -31.9560E-03     58.8759E-03    -26.9199E-03     201.929E-03    -38.8174E-03     66.0427E-03    -26.6240E-03     209.382E-03
             268     17.5269E-03     34.9203E-03    -2.75319E+06     179.179E+06     110.507E+06     210.576E+03    -31.8412E-03     58.7596E-03    -26.9184E-03     202.128E-03    -38.7071E-03     65.9313E-03    -26.6217E-03     209.598E-03
             269     17.5270E-03     35.9220E-03    -2.53377E+06     179.333E+06     110.616E+06     22.3537E+03    -31.3348E-03     58.2601E-03    -26.9253E-03     201.803E-03    -38.1912E-03     65.4234E-03    -26.6286E-03     209.322E-03
             270     17.5272E-03     36.9198E-03    -2.65541E+06     179.249E+06     110.171E+06    -22.5566E+03    -31.7354E-03     58.6470E-03    -26.9116E-03     201.249E-03    -38.5816E-03     65.8006E-03    -26.6168E-03     208.754E-03
             271     17.5268E-03     37.9238E-03    -3.38567E+06     179.596E+06     110.091E+06     276.685E+03    -32.0761E-03     58.9830E-03    -26.9069E-03     201.298E-03    -38.9327E-03     66.1459E-03    -26.6119E-03     208.776E-03
             272     17.5272E-03     38.9253E-03    -2.70601E+06     180.360E+06     110.630E+06     234.737E+03    -30.9959E-03     57.9264E-03    -26.9305E-03     202.550E-03    -37.8951E-03     65.1354E-03    -26.6349E-03     210.142E-03
             273     17.5273E-03     39.9234E-03    -2.72019E+06     180.412E+06     110.862E+06         858.875    -31.1210E-03     58.0464E-03    -26.9254E-03     203.116E-03    -38.0435E-03     65.2782E-03    -26.6287E-03     210.728E-03
             274     17.5269E-03     40.9262E-03    -3.07770E+06     180.037E+06     111.022E+06    -85.6954E+03    -31.2434E-03     58.1656E-03    -26.9222E-03     202.565E-03    -38.1505E-03     65.3790E-03    -26.6237E-03     210.144E-03
             275     17.5276E-03     41.9253E-03    -2.58829E+06     179.540E+06     110.985E+06    -93.9528E+03    -30.5353E-03     57.4709E-03    -26.9357E-03     203.279E-03    -37.4643E-03     64.7063E-03    -26.6373E-03     210.939E-03
             276     17.5271E-03     42.9252E-03    -2.90324E+06     179.234E+06     110.902E+06    -65.6234E+03    -30.7535E-03     57.6836E-03    -26.9301E-03     202.507E-03    -37.6554E-03     64.8899E-03    -26.6313E-03     210.145E-03
             277     17.5274E-03     43.9240E-03    -2.87281E+06     179.274E+06     110.945E+06    -85.5349E+03    -30.9610E-03     57.8803E-03    -26.9193E-03     200.435E-03    -37.7783E-03     65.0021E-03    -26.6204E-03     208.000E-03
             278     17.5274E-03     44.9238E-03    -3.08791E+06     179.077E+06     110.733E+06    -267.820E+03    -31.4648E-03     58.3708E-03    -26.9060E-03     200.672E-03    -38.2922E-03     65.5018E-03    -26.6075E-03     208.207E-03
             279     17.5271E-03     45.9283E-03    -3.08829E+06     179.200E+06     110.871E+06    -14.3283E+03    -31.4829E-03     58.3977E-03    -26.9148E-03     202.255E-03    -38.3817E-03     65.6001E-03    -26.6158E-03     209.821E-03
             280     17.5273E-03     46.9276E-03    -2.77042E+06     179.605E+06     111.118E+06     215.927E+03    -30.6115E-03     57.5508E-03    -26.9393E-03     203.342E-03    -37.5526E-03     64.7975E-03    -26.6401E-03     211.012E-03
             281     17.5272E-03     47.9264E-03    -2.70633E+06     179.626E+06     111.112E+06     54.9392E+03    -30.4410E-03     57.3787E-03    -26.9378E-03     202.339E-03    -37.3353E-03     64.5789E-03    -26.6387E-03     209.999E-03
             282     17.5274E-03     48.9257E-03    -2.66943E+06     179.609E+06     111.330E+06    -67.2029E+03    -30.9416E-03     57.8647E-03    -26.9231E-03     202.008E-03    -37.8182E-03     65.0466E-03    -26.6231E-03     209.609E-03
             283     17.5272E-03     49.9281E-03    -2.75771E+06     179.574E+06     111.277E+06     81.6477E+03    -31.1459E-03     58.0655E-03    -26.9196E-03     203.435E-03    -38.0836E-03     65.3082E-03    -26.6196E-03     211.051E-03
             284     17.5275E-03     50.9289E-03    -2.83995E+06     179.584E+06     111.276E+06     166.254E+03    -30.6534E-03     57.5891E-03    -26.9358E-03     204.403E-03    -37.6395E-03     64.8800E-03    -26.6357E-03     212.094E-03
             285     17.5271E-03     51.9272E-03    -2.85725E+06     179.448E+06     111.451E+06     2.94673E+03    -30.2485E-03     57.1954E-03    -26.9469E-03     202.921E-03    -37.1770E-03     64.4276E-03    -26.6457E-03     210.620E-03
             286     17.5275E-03     52.9244E-03    -2.76132E+06     179.413E+06     111.175E+06    -34.3214E+03    -30.8842E-03     57.8105E-03    -26.9263E-03     200.814E-03    -37.7224E-03     64.9535E-03    -26.6266E-03     208.416E-03
             287     17.5270E-03     53.9267E-03    -3.25079E+06     179.824E+06     110.956E+06     36.4186E+03    -31.5114E-03     58.4198E-03    -26.9084E-03     200.568E-03    -38.3413E-03     65.5548E-03    -26.6097E-03     208.103E-03
             288     17.5275E-03     54.9286E-03    -3.22543E+06     179.910E+06     111.203E+06    -204.713E+03    -31.0062E-03     57.9263E-03    -26.9201E-03     201.516E-03    -37.8801E-03     65.1050E-03    -26.6203E-03     209.114E-03
             289     17.5272E-03     55.9273E-03    -2.86011E+06     179.409E+06     111.243E+06    -276.721E+03    -30.8496E-03     57.7818E-03    -26.9323E-03     201.654E-03    -37.7530E-03     64.9894E-03    -26.6320E-03     209.299E-03
             290     17.5268E-03     56.9286E-03    -2.39534E+06     179.886E+06     111.662E+06     257.779E+03    -30.6309E-03     57.5600E-03    -26.9291E-03     201.618E-03    -37.5445E-03     64.7799E-03    -26.6282E-03     209.283E-03
             291     17.5285E-03     57.9272E-03    -2.62929E+06     179.809E+06     111.438E+06     266.354E+03    -31.0361E-03     57.9287E-03    -26.8926E-03     206.985E-03    -38.1190E-03     65.3174E-03    -26.5923E-03     214.696E-03
             292     876.219E-06     58.4726E-03    -23.7439E+06    -113.539E+06    -23.3948E+06     55.2189E+03    -26.8387E-03     53.6679E-03    -26.8292E-03     5.69761E-03    -26.7590E-03     53.1687E-03    -26.7471E-03     5.69563E-03
             293     1.75251E-03     58.4802E-03    -23.1867E+06    -112.643E+06    -21.8147E+06     93.9461E+03    -26.8560E-03     53.6917E-03    -26.8357E-03     10.5113E-03    -26.7774E-03     53.1941E-03    -26.7478E-03     10.5074E-03
             294     2.62873E-03     58.4925E-03    -22.2807E+06    -111.217E+06    -19.1754E+06     141.021E+03    -26.8829E-03     53.7270E-03    -26.8441E-03     15.6256E-03    -26.8061E-03     53.2319E-03    -26.7464E-03     15.6195E-03
             295     3.50501E-03     58.5099E-03    -21.0268E+06    -109.253E+06    -15.6036E+06     201.373E+03    -26.9228E-03     53.7776E-03    -26.8548E-03     20.8264E-03    -26.8487E-03     53.2862E-03    -26.7439E-03     20.8177E-03
             296     4.38126E-03     58.5321E-03    -19.5524E+06    -107.116E+06    -11.5969E+06     178.304E+03    -26.9782E-03     53.8448E-03    -26.8666E-03     26.0765E-03    -26.9068E-03     53.3574E-03    -26.7410E-03     26.0634E-03
             297     5.25753E-03     58.5594E-03    -17.8423E+06    -102.547E+06    -7.73678E+06     175.263E+03    -27.0432E-03     53.9167E-03    -26.8735E-03     31.3731E-03    -26.9773E-03     53.4459E-03    -26.7376E-03     31.3550E-03
             298     6.13381E-03     58.5917E-03    -16.0736E+06    -97.2967E+06    -3.80407E+06     187.849E+03    -27.1216E-03     54.0008E-03    -26.8792E-03     36.6990E-03    -27.0628E-03     53.5506E-03    -26.7338E-03     36.6748E-03
             299     7.01010E-03     58.6291E-03    -14.2535E+06    -92.6365E+06    -722.094E+03     269.662E+03    -27.2215E-03     54.1030E-03    -26.8814E-03     42.0236E-03    -27.1687E-03     53.6728E-03    -26.7300E-03     41.9926E-03
             300     7.88637E-03     58.6716E-03    -12.6443E+06    -86.1974E+06     549.896E+03     388.319E+03    -27.3326E-03     54.2053E-03    -26.8726E-03     47.3373E-03    -27.2885E-03     53.8086E-03    -26.7266E-03     47.2980E-03
             301     8.76269E-03     58.7191E-03    -11.3250E+06    -80.7509E+06     1.33136E+06     447.036E+03    -27.4564E-03     54.3198E-03    -26.8634E-03     52.6397E-03    -27.4227E-03     53.9554E-03    -26.7232E-03     52.5888E-03
             302     9.63895E-03     58.7716E-03    -10.3318E+06    -76.2469E+06     22.4576E+03     454.913E+03    -27.6011E-03     54.4471E-03    -26.8460E-03     57.9535E-03    -27.5786E-03     54.1172E-03    -26.7203E-03     57.8872E-03
             303     10.5153E-03     58.8292E-03    -9.70843E+06    -67.9909E+06    -2.55899E+06     572.149E+03    -27.7376E-03     54.5551E-03    -26.8175E-03     63.1752E-03    -27.7374E-03     54.2865E-03    -26.7177E-03     63.0913E-03
             304     11.3916E-03     58.8916E-03    -9.26646E+06    -53.5364E+06    -1.80149E+06     734.225E+03    -27.8819E-03     54.6775E-03    -26.7956E-03     69.8005E-03    -27.9289E-03     54.5068E-03    -26.7135E-03     69.6946E-03
             305     12.2679E-03     58.9617E-03    -8.78807E+06    -39.0018E+06    -3.13186E+06     830.439E+03    -28.0758E-03     54.8356E-03    -26.7598E-03     77.9935E-03    -28.1830E-03     54.7822E-03    -26.7062E-03     77.8601E-03
             306     13.1447E-03     59.0396E-03    -8.63025E+06    -24.5423E+06    -10.1199E+06     698.968E+03    -28.1919E-03     54.8897E-03    -26.6978E-03     80.5361E-03    -28.3705E-03     54.9799E-03    -26.7003E-03     80.3667E-03
             307     14.0204E-03     59.1142E-03    -10.0914E+06     6.65916E+06    -14.3578E+06     544.944E+03    -29.0750E-03     55.7169E-03    -26.6420E-03     95.0861E-03    -29.4681E-03     56.1395E-03    -26.7088E-03     94.8710E-03
             308     14.8953E-03     59.2192E-03    -9.72100E+06     62.1855E+06    -12.8600E+06     761.890E+03    -32.0107E-03     58.5728E-03    -26.5621E-03     158.598E-03    -33.4125E-03     60.1981E-03    -26.7025E-03     158.410E-03
             309     15.7763E-03     59.4177E-03    -8.72956E+06     129.105E+06     21.9188E+06    -727.771E+03    -39.4655E-03     66.0885E-03    -26.6230E-03     260.505E-03    -45.9417E-03     72.9284E-03    -26.6879E-03     261.537E-03
             310     16.6451E-03     59.7219E-03    -5.65039E+06     171.590E+06     83.7335E+06    -1.20992E+06    -37.1284E-03     63.9883E-03    -26.8599E-03     260.079E-03    -45.9819E-03     73.1882E-03    -26.6818E-03     265.066E-03
             311     876.267E-06     59.4727E-03     -23.833E+06    -113.613E+06    -23.4788E+06     27.2684E+03    -26.8438E-03     53.6726E-03    -26.8288E-03     5.69996E-03    -26.7643E-03     53.1733E-03    -26.7469E-03     5.69761E-03
             312     1.75247E-03     59.4802E-03    -23.2629E+06    -112.730E+06    -21.8602E+06     41.0852E+03    -26.8553E-03     53.6929E-03    -26.8376E-03     10.5101E-03    -26.7769E-03     53.1951E-03    -26.7497E-03     10.5056E-03
             313     2.62876E-03     59.4926E-03    -22.3316E+06    -111.301E+06    -19.2608E+06     70.1923E+03    -26.8844E-03     53.7297E-03    -26.8452E-03     15.6215E-03    -26.8077E-03     53.2344E-03    -26.7478E-03     15.6144E-03
             314     3.50498E-03     59.5099E-03    -21.0601E+06    -109.361E+06    -15.7117E+06     98.4748E+03    -26.9258E-03     53.7818E-03    -26.8560E-03     20.8228E-03    -26.8515E-03     53.2901E-03    -26.7455E-03     20.8128E-03
             315     4.38126E-03     59.5322E-03    -19.5151E+06    -107.161E+06    -11.6140E+06     176.747E+03    -26.9825E-03     53.8510E-03    -26.8685E-03     26.0714E-03    -26.9108E-03     53.3633E-03    -26.7429E-03     26.0582E-03
             316     5.25752E-03     59.5594E-03    -17.9384E+06    -102.572E+06    -7.67331E+06     167.894E+03    -27.0471E-03     53.9235E-03    -26.8763E-03     31.3678E-03    -26.9818E-03     53.4525E-03    -26.7400E-03     31.3496E-03
             317     6.13380E-03     59.5918E-03    -16.2008E+06    -97.3234E+06    -3.74012E+06     142.609E+03    -27.1262E-03     54.0087E-03    -26.8825E-03     36.6939E-03    -27.0682E-03     53.5585E-03    -26.7366E-03     36.6692E-03
             318     7.01007E-03     59.6292E-03    -14.4674E+06    -92.8468E+06    -737.183E+03     206.949E+03    -27.2226E-03     54.1075E-03    -26.8848E-03     42.0174E-03    -27.1706E-03     53.6766E-03    -26.7329E-03     41.9855E-03
             319     7.88638E-03     59.6717E-03    -12.8522E+06    -86.4034E+06     457.898E+03     377.279E+03    -27.3322E-03     54.2076E-03    -26.8754E-03     47.3353E-03    -27.2886E-03     53.8104E-03    -26.7292E-03     47.2958E-03
             320     8.76263E-03     59.7192E-03    -11.4531E+06    -80.8349E+06     1.19904E+06     469.327E+03    -27.4553E-03     54.3207E-03    -26.8654E-03     52.6304E-03    -27.4219E-03     53.9562E-03    -26.7256E-03     52.5797E-03
             321     9.63899E-03     59.7717E-03    -10.3373E+06    -76.3679E+06    -27.7609E+03     549.532E+03    -27.5897E-03     54.4373E-03    -26.8476E-03     57.9357E-03    -27.5671E-03     54.1069E-03    -26.7220E-03     57.8707E-03
             322     10.5153E-03     59.8293E-03    -9.60662E+06    -68.2123E+06    -2.63691E+06     668.629E+03    -27.7255E-03     54.5434E-03    -26.8179E-03     63.1483E-03    -27.7243E-03     54.2736E-03    -26.7182E-03     63.0655E-03
             323     11.3916E-03     59.8917E-03    -9.06442E+06    -53.7662E+06    -1.85695E+06     799.873E+03    -27.8699E-03     54.6649E-03    -26.7950E-03     69.7070E-03    -27.9156E-03     54.4929E-03    -26.7132E-03     69.6017E-03
             324     12.2680E-03     59.9617E-03    -8.70925E+06    -39.0120E+06    -3.11109E+06     886.358E+03    -28.0248E-03     54.7825E-03    -26.7577E-03     77.7793E-03    -28.1313E-03     54.7286E-03    -26.7040E-03     77.6469E-03
             325     13.1442E-03     60.0395E-03    -8.67755E+06    -24.7855E+06    -9.95133E+06     1.01188E+06    -28.2658E-03     54.9639E-03    -26.6982E-03     80.4637E-03    -28.4460E-03     55.0542E-03    -26.6994E-03     80.2966E-03
             326     14.0212E-03     60.1146E-03    -8.99924E+06     7.24394E+06    -12.5129E+06     1.07242E+06    -28.7499E-03     55.3905E-03    -26.6407E-03     94.9525E-03    -29.1374E-03     55.8082E-03    -26.7007E-03     94.7482E-03
             327     14.8972E-03     60.2215E-03    -9.54792E+06     62.8299E+06    -11.3930E+06    -123.701E+03    -31.7455E-03     58.2915E-03    -26.5460E-03     157.657E-03    -33.1488E-03     59.9170E-03    -26.6802E-03     157.455E-03
             328     15.7725E-03     60.4117E-03    -8.31161E+06     130.330E+06     23.5983E+06    -714.330E+03    -39.3543E-03     65.9375E-03    -26.5832E-03     264.765E-03    -45.9681E-03     72.9161E-03    -26.6421E-03     265.828E-03
             329     16.6520E-03     60.7351E-03    -5.30840E+06     171.850E+06     84.6334E+06    -348.396E+03    -37.8219E-03     64.6294E-03    -26.8075E-03     260.722E-03    -46.6359E-03     73.7894E-03    -26.6258E-03     265.628E-03
             330     876.216E-06     60.4727E-03    -23.8355E+06    -113.645E+06    -23.4789E+06           -149.    -26.8484E-03     53.6805E-03    -26.8321E-03     5.69251E-03    -26.7689E-03     53.1811E-03    -26.7501E-03     5.68980E-03
             331     1.75250E-03     60.4803E-03    -23.2803E+06    -112.746E+06    -21.8713E+06     2.72248E+03    -26.8593E-03     53.7009E-03    -26.8415E-03     10.5110E-03    -26.7809E-03     53.2030E-03    -26.7537E-03     10.5059E-03
             332     2.62871E-03     60.4926E-03    -22.3923E+06    -111.345E+06    -19.2646E+06     5.02609E+03    -26.8886E-03     53.7380E-03    -26.8494E-03     15.6202E-03    -26.8121E-03     53.2426E-03    -26.7518E-03     15.6122E-03
             333     3.50499E-03     60.5100E-03    -21.1762E+06    -109.433E+06    -15.7364E+06     40.3014E+03    -26.9313E-03     53.7917E-03    -26.8605E-03     20.8221E-03    -26.8574E-03     53.2998E-03    -26.7498E-03     20.8113E-03
             334     4.38123E-03     60.5322E-03    -19.6743E+06    -107.303E+06    -11.7182E+06     97.8790E+03    -26.9886E-03     53.8618E-03    -26.8731E-03     26.0689E-03    -26.9174E-03     53.3738E-03    -26.7476E-03     26.0547E-03
             335     5.25749E-03     60.5596E-03    -17.9226E+06    -102.611E+06    -7.71458E+06     197.333E+03    -27.0535E-03     53.9347E-03    -26.8812E-03     31.3609E-03    -26.9880E-03     53.4636E-03    -26.7450E-03     31.3430E-03
             336     6.13376E-03     60.5919E-03    -16.2661E+06    -97.3387E+06    -3.80940E+06     211.031E+03    -27.1312E-03     54.0185E-03    -26.8874E-03     36.6876E-03    -27.0733E-03     53.5684E-03    -26.7417E-03     36.6637E-03
             337     7.01004E-03     60.6294E-03    -14.6199E+06    -93.0079E+06    -882.861E+03     259.456E+03    -27.2284E-03     54.1181E-03    -26.8898E-03     42.0023E-03    -27.1766E-03     53.6869E-03    -26.7381E-03     41.9711E-03
             338     7.88632E-03     60.6718E-03    -13.0518E+06    -86.5904E+06     243.300E+03     322.853E+03    -27.3339E-03     54.2140E-03    -26.8801E-03     47.3139E-03    -27.2908E-03     53.8164E-03    -26.7344E-03     47.2737E-03
             339     8.76265E-03     60.7194E-03    -11.6219E+06    -80.9374E+06     938.821E+03     398.794E+03    -27.4612E-03     54.3308E-03    -26.8697E-03     52.6012E-03    -27.4282E-03     53.9665E-03    -26.7307E-03     52.5495E-03
             340     9.63889E-03     60.7718E-03    -10.5095E+06    -76.5876E+06    -262.175E+03     503.523E+03    -27.5931E-03     54.4453E-03    -26.8522E-03     57.8588E-03    -27.5707E-03     54.1145E-03    -26.7272E-03     57.7930E-03
             341     10.5153E-03     60.8294E-03    -9.65617E+06    -68.4126E+06    -2.77101E+06      632.65E+03    -27.7328E-03     54.5558E-03    -26.8230E-03     63.0906E-03    -27.7315E-03     54.2854E-03    -26.7237E-03     63.0072E-03
             342     11.3915E-03     60.8918E-03    -9.01599E+06    -53.9556E+06    -2.01107E+06     735.111E+03    -27.8718E-03     54.6719E-03    -26.8001E-03     69.5713E-03    -27.9166E-03     54.4990E-03    -26.7188E-03     69.4651E-03
             343     12.2679E-03     60.9618E-03    -8.44904E+06    -39.1657E+06    -3.19701E+06     903.415E+03    -28.1909E-03     54.9594E-03    -26.7685E-03     77.5773E-03    -28.2968E-03     54.9055E-03    -26.7154E-03     77.4433E-03
             344     13.1446E-03     61.0393E-03    -8.33524E+06    -24.7306E+06    -10.1484E+06     985.415E+03    -28.2348E-03     54.9468E-03    -26.7120E-03     80.6557E-03    -28.4139E-03     55.0379E-03    -26.7147E-03     80.4884E-03
             345     14.0190E-03     61.1164E-03    -8.36266E+06     6.94798E+06    -12.4751E+06     1.00382E+06    -28.1074E-03     54.7421E-03    -26.6347E-03     94.5052E-03    -28.4850E-03     55.1508E-03    -26.6950E-03     94.3080E-03
             346     14.8984E-03     61.2172E-03    -8.14607E+06     64.0417E+06    -9.61044E+06     349.716E+03    -31.7891E-03     58.3174E-03    -26.5284E-03     157.370E-03    -33.2041E-03     59.9587E-03    -26.6575E-03     157.169E-03
             347     15.7759E-03     61.4174E-03    -8.11983E+06     131.230E+06     25.4624E+06    -422.749E+03    -38.9799E-03     65.5481E-03    -26.5682E-03     262.825E-03    -45.4935E-03     72.4249E-03    -26.6194E-03     263.946E-03
             348     16.6542E-03     61.7268E-03    -5.67520E+06     171.203E+06     84.9096E+06    -261.486E+03    -37.5365E-03     64.3220E-03    -26.7855E-03     259.033E-03    -46.2545E-03     73.3815E-03    -26.6010E-03     263.931E-03
             349     876.256E-06     61.4728E-03    -23.7594E+06    -113.633E+06    -23.4218E+06     15.3469E+03    -26.8521E-03     53.6920E-03    -26.8399E-03     5.68978E-03    -26.7723E-03     53.1924E-03    -26.7578E-03     5.68727E-03
             350     1.75246E-03     61.4803E-03    -23.2771E+06    -112.766E+06    -21.8588E+06     6.29637E+03    -26.8668E-03     53.7143E-03    -26.8475E-03     10.5101E-03    -26.7884E-03     53.2163E-03    -26.7596E-03     10.5050E-03
             351     2.62873E-03     61.4928E-03    -22.4308E+06    -111.362E+06    -19.2232E+06     27.6888E+03    -26.8964E-03     53.7526E-03    -26.8562E-03     15.6182E-03    -26.8201E-03     53.2571E-03    -26.7584E-03     15.6106E-03
             352     3.50495E-03     61.5100E-03    -21.2639E+06    -109.514E+06    -15.7881E+06     57.0341E+03    -26.9393E-03     53.8067E-03    -26.8674E-03     20.8197E-03    -26.8657E-03     53.3146E-03    -26.7567E-03     20.8091E-03
             353     4.38121E-03     61.5324E-03    -19.7922E+06    -107.340E+06    -11.7566E+06     69.7861E+03    -26.9964E-03     53.8768E-03    -26.8804E-03     26.0678E-03    -26.9256E-03     53.3888E-03    -26.7548E-03     26.0533E-03
             354     5.25745E-03     61.5596E-03    -18.1430E+06    -102.780E+06    -7.89297E+06     105.002E+03    -27.0615E-03     53.9498E-03    -26.8883E-03     31.3592E-03    -26.9966E-03     53.4785E-03    -26.7524E-03     31.3401E-03
             355     6.13372E-03     61.5921E-03    -16.3441E+06    -97.4782E+06    -4.05471E+06     303.483E+03    -27.1402E-03     54.0342E-03    -26.8941E-03     36.6779E-03    -27.0821E-03     53.5839E-03    -26.7493E-03     36.6551E-03
             356     7.00998E-03     61.6294E-03    -14.6853E+06    -93.0740E+06    -1.00547E+06     358.182E+03    -27.2391E-03     54.1363E-03    -26.8973E-03     41.9877E-03    -27.1874E-03     53.7050E-03    -26.7460E-03     41.9578E-03
             357     7.88626E-03     61.6720E-03    -13.1430E+06    -86.6241E+06     174.380E+03     313.317E+03    -27.3503E-03     54.2389E-03    -26.8885E-03     47.2885E-03    -27.3076E-03     53.8414E-03    -26.7430E-03     47.2480E-03
             358     8.76252E-03     61.7194E-03    -11.7422E+06    -81.0786E+06     830.203E+03     294.924E+03    -27.4713E-03     54.3500E-03    -26.8787E-03     52.5720E-03    -27.4385E-03     53.9853E-03    -26.7399E-03     52.5189E-03
             359     9.63883E-03     61.7721E-03    -10.5341E+06    -76.7568E+06    -383.993E+03     417.669E+03    -27.6273E-03     54.4896E-03    -26.8623E-03     57.8100E-03    -27.6047E-03     54.1582E-03    -26.7377E-03     57.7429E-03
             360     10.5151E-03     61.8294E-03    -9.74092E+06    -68.6042E+06    -2.96641E+06     493.200E+03    -27.7536E-03     54.5881E-03    -26.8345E-03     63.0090E-03    -27.7523E-03     54.3172E-03    -26.7357E-03     62.9236E-03
             361     11.3914E-03     61.8922E-03    -8.99027E+06    -54.1605E+06    -2.16079E+06     575.139E+03    -27.8991E-03     54.7119E-03    -26.8128E-03     69.4496E-03    -27.9433E-03     54.5381E-03    -26.7320E-03     69.3413E-03
             362     12.2678E-03     61.9615E-03    -8.33833E+06    -39.3788E+06    -3.29835E+06     639.973E+03    -28.2604E-03     55.0438E-03    -26.7834E-03     77.9521E-03    -28.3664E-03     54.9900E-03    -26.7307E-03     77.8139E-03
             363     13.1428E-03     62.0409E-03    -7.97194E+06    -24.9453E+06    -10.1318E+06     776.805E+03    -28.0441E-03     54.7661E-03    -26.7220E-03     80.3593E-03    -28.2191E-03     54.8536E-03    -26.7249E-03     80.1916E-03
             364     14.0227E-03     62.1136E-03    -7.48711E+06     7.29049E+06    -11.8486E+06     579.688E+03    -28.1078E-03     54.7488E-03    -26.6410E-03     93.4421E-03    -28.4804E-03     55.1551E-03    -26.7000E-03     93.2393E-03
             365     14.8970E-03     62.2194E-03    -7.58852E+06     64.1348E+06    -9.47309E+06     482.175E+03    -32.2227E-03     58.7690E-03    -26.5463E-03     157.296E-03    -33.6409E-03     60.4154E-03    -26.6756E-03     157.090E-03
             366     15.7726E-03     62.4146E-03    -7.17327E+06     131.637E+06     25.7015E+06     1.20181E+06    -39.8240E-03     66.4474E-03    -26.6233E-03     261.555E-03    -46.2591E-03     73.2497E-03    -26.6753E-03     262.624E-03
             367     16.6464E-03     62.7275E-03    -4.83790E+06     171.857E+06     85.3350E+06     546.440E+03    -37.1092E-03     63.9629E-03    -26.8537E-03     260.253E-03    -45.8628E-03     73.0620E-03    -26.6692E-03     265.261E-03
             368     876.213E-06     62.4728E-03    -23.8546E+06    -113.669E+06    -23.4450E+06     21.7833E+03    -26.8534E-03     53.7075E-03    -26.8541E-03     5.69074E-03    -26.7740E-03     53.2080E-03    -26.7719E-03     5.68832E-03
             369     1.75247E-03     62.4805E-03    -23.3088E+06    -112.805E+06    -21.8046E+06     61.2229E+03    -26.8770E-03     53.7334E-03    -26.8563E-03     10.5078E-03    -26.7988E-03     53.2352E-03    -26.7680E-03     10.5035E-03
             370     2.62868E-03     62.4928E-03    -22.4616E+06    -111.431E+06    -19.2747E+06     96.1202E+03    -26.9062E-03     53.7714E-03    -26.8652E-03     15.6172E-03    -26.8299E-03     53.2757E-03    -26.7674E-03     15.6104E-03
             371     3.50493E-03     62.5102E-03    -21.2912E+06    -109.534E+06    -15.8203E+06     101.179E+03    -26.9488E-03     53.8254E-03    -26.8766E-03     20.8203E-03    -26.8753E-03     53.3333E-03    -26.7660E-03     20.8103E-03
             372     4.38116E-03     62.5324E-03    -19.8683E+06    -107.398E+06    -11.8106E+06     117.145E+03    -27.0050E-03     53.8945E-03    -26.8895E-03     26.0682E-03    -26.9345E-03     53.4065E-03    -26.7641E-03     26.0543E-03
             373     5.25740E-03     62.5598E-03    -18.2929E+06    -102.864E+06    -7.91197E+06     170.276E+03    -27.0712E-03     53.9689E-03    -26.8978E-03     31.3596E-03    -27.0068E-03     53.4974E-03    -26.7617E-03     31.3413E-03
             374     6.13365E-03     62.5921E-03    -16.6070E+06    -97.7603E+06    -4.29425E+06     226.616E+03    -27.1516E-03     54.0548E-03    -26.9032E-03     36.6804E-03    -27.0942E-03     53.6038E-03    -26.7588E-03     36.6566E-03
             375     7.00991E-03     62.6296E-03    -14.7882E+06    -93.1381E+06    -1.27388E+06     386.513E+03    -27.2519E-03     54.1579E-03    -26.9060E-03     41.9922E-03    -27.2003E-03     53.7269E-03    -26.7559E-03     41.9625E-03
             376     7.88617E-03     62.6720E-03    -13.1655E+06    -86.5466E+06     46.7667E+03     311.709E+03    -27.3640E-03     54.2620E-03    -26.8980E-03     47.3013E-03    -27.3213E-03     53.8652E-03    -26.7532E-03     47.2608E-03
             377     8.76242E-03     62.7197E-03    -11.8304E+06    -81.1610E+06     619.468E+03     273.359E+03    -27.4882E-03     54.3768E-03    -26.8886E-03     52.5806E-03    -27.4555E-03     54.0122E-03    -26.7506E-03     52.5272E-03
             378     9.63871E-03     62.7720E-03    -10.7225E+06    -76.9393E+06    -665.393E+03     289.278E+03    -27.6482E-03     54.5210E-03    -26.8728E-03     57.8853E-03    -27.6259E-03     54.1894E-03    -26.7490E-03     57.8165E-03
             379     10.5149E-03     62.8299E-03    -9.81150E+06    -68.6436E+06    -3.19951E+06     327.281E+03    -27.7758E-03     54.6214E-03    -26.8456E-03     63.0262E-03    -27.7744E-03     54.3507E-03    -26.7478E-03     62.9387E-03
             380     11.3913E-03     62.8918E-03    -9.11495E+06    -54.4673E+06    -2.44692E+06     373.679E+03    -27.9146E-03     54.7390E-03    -26.8244E-03     69.5997E-03    -27.9587E-03     54.5644E-03    -26.7444E-03     69.4887E-03
             381     12.2672E-03     62.9624E-03    -8.42333E+06    -39.4296E+06    -3.57438E+06     381.976E+03    -28.1346E-03     54.9240E-03    -26.7895E-03     78.1219E-03    -28.2398E-03     54.8697E-03    -26.7380E-03     77.9817E-03
             382     13.1452E-03     63.0402E-03    -8.20792E+06    -25.0277E+06    -10.3722E+06     433.141E+03    -28.1033E-03     54.8291E-03    -26.7258E-03     80.0266E-03    -28.2780E-03     54.9158E-03    -26.7295E-03     79.8544E-03
             383     14.0179E-03     63.1144E-03    -8.16614E+06     7.52067E+06    -12.4257E+06     447.424E+03    -28.6008E-03     55.2613E-03    -26.6605E-03     93.3940E-03    -28.9803E-03     55.6746E-03    -26.7217E-03     93.1836E-03
             384     14.8974E-03     63.2175E-03    -9.00415E+06     63.9340E+06    -10.3922E+06     559.013E+03    -32.6090E-03     59.1983E-03    -26.5893E-03     157.888E-03    -34.0387E-03     60.8532E-03    -26.7209E-03     157.676E-03
             385     15.7733E-03     63.4186E-03    -8.76031E+06     130.289E+06     22.9833E+06     961.235E+03    -39.7068E-03     66.3682E-03    -26.6614E-03     262.347E-03    -46.1776E-03     73.2037E-03    -26.7227E-03     263.421E-03
             386     16.6517E-03     63.7276E-03    -4.69675E+06     172.521E+06     84.1928E+06     872.843E+03    -36.5811E-03     63.4535E-03    -26.8724E-03     260.334E-03    -45.3461E-03     72.5701E-03    -26.6948E-03     265.372E-03
             387     876.234E-06     63.4730E-03    -23.8833E+06    -113.763E+06    -23.5240E+06     48.7213E+03    -26.8598E-03     53.7295E-03    -26.8697E-03     5.69971E-03    -26.7803E-03     53.2296E-03    -26.7877E-03     5.69762E-03
             388     1.75243E-03     63.4805E-03    -23.3780E+06    -112.915E+06    -21.9319E+06     110.976E+03    -26.8867E-03     53.7534E-03    -26.8667E-03     10.5086E-03    -26.8084E-03     53.2549E-03    -26.7788E-03     10.5049E-03
             389     2.62866E-03     63.4930E-03    -22.5145E+06    -111.498E+06    -19.3240E+06     143.068E+03    -26.9156E-03     53.7911E-03    -26.8754E-03     15.6220E-03    -26.8394E-03     53.2952E-03    -26.7777E-03     15.6158E-03
             390     3.50488E-03     63.5102E-03    -21.3627E+06    -109.608E+06    -15.8554E+06     183.128E+03    -26.9574E-03     53.8440E-03    -26.8866E-03     20.8280E-03    -26.8841E-03     53.3517E-03    -26.7760E-03     20.8190E-03
             391     4.38111E-03     63.5326E-03    -19.9758E+06    -107.478E+06    -11.8570E+06     234.043E+03    -27.0135E-03     53.9128E-03    -26.8993E-03     26.0774E-03    -26.9433E-03     53.4246E-03    -26.7738E-03     26.0649E-03
             392     5.25735E-03     63.5598E-03    -18.4085E+06    -102.982E+06    -8.02989E+06     282.728E+03    -27.0784E-03     53.9854E-03    -26.9070E-03     31.3764E-03    -27.0143E-03     53.5136E-03    -26.7711E-03     31.3596E-03
             393     6.13359E-03     63.5924E-03    -16.7859E+06    -97.8301E+06    -4.39873E+06     316.131E+03    -27.1583E-03     54.0705E-03    -26.9121E-03     36.7020E-03    -27.1015E-03     53.6195E-03    -26.7679E-03     36.6793E-03
             394     7.00985E-03     63.6297E-03    -15.0545E+06    -93.1975E+06    -1.68910E+06     176.288E+03    -27.2569E-03     54.1701E-03    -26.9131E-03     42.0334E-03    -27.2059E-03     53.7397E-03    -26.7646E-03     42.0010E-03
             395     7.88608E-03     63.6723E-03    -13.3074E+06    -86.5379E+06    -287.382E+03     220.955E+03    -27.3648E-03     54.2694E-03    -26.9046E-03     47.3472E-03    -27.3223E-03     53.8733E-03    -26.7612E-03     47.3056E-03
             396     8.76238E-03     63.7197E-03    -11.9129E+06    -81.3134E+06     575.654E+03     330.666E+03    -27.4932E-03     54.3892E-03    -26.8961E-03     52.6444E-03    -27.4606E-03     54.0240E-03    -26.7580E-03     52.5917E-03
             397     9.63857E-03     63.7725E-03    -10.9104E+06    -76.8408E+06    -738.200E+03     268.483E+03    -27.6269E-03     54.5053E-03    -26.8784E-03     57.9794E-03    -27.6055E-03     54.1745E-03    -26.7549E-03     57.9105E-03
             398     10.5150E-03     63.8298E-03    -10.0665E+06    -68.6808E+06    -3.30528E+06     92.4890E+03    -27.7585E-03     54.6074E-03    -26.8490E-03     63.1461E-03    -27.7580E-03     54.3370E-03    -26.7513E-03     63.0557E-03
             399     11.3911E-03     63.8924E-03    -9.31262E+06    -54.5396E+06    -2.53464E+06     107.079E+03    -27.9413E-03     54.7689E-03    -26.8276E-03     69.7141E-03    -27.9863E-03     54.5946E-03    -26.7477E-03     69.5994E-03
             400     12.2679E-03     63.9620E-03    -8.68656E+06    -39.5754E+06    -3.60845E+06     205.266E+03    -28.1818E-03     54.9774E-03    -26.7956E-03     78.0321E-03    -28.2878E-03     54.9226E-03    -26.7437E-03     77.8896E-03
             401     13.1425E-03     64.0408E-03    -8.03154E+06    -24.9899E+06    -10.2682E+06     169.768E+03    -28.1259E-03     54.8600E-03    -26.7341E-03     79.8744E-03    -28.2998E-03     54.9464E-03    -26.7376E-03     79.6985E-03
             402     14.0227E-03     64.1141E-03    -8.80136E+06     7.07127E+06    -13.0028E+06     607.683E+03    -28.7631E-03     55.4348E-03    -26.6717E-03     93.9625E-03    -29.1467E-03     55.8500E-03    -26.7342E-03     93.7517E-03
             403     14.8948E-03     64.2198E-03    -9.29085E+06     63.3927E+06    -10.8487E+06     1.29585E+06    -32.5595E-03     59.1598E-03    -26.6003E-03     158.983E-03    -33.9979E-03     60.8218E-03    -26.7330E-03     158.785E-03
             404     15.7717E-03     64.4163E-03    -8.77234E+06     130.331E+06     23.0758E+06     1.25869E+06    -38.9731E-03     65.6194E-03    -26.6463E-03     263.556E-03    -45.4796E-03     72.4905E-03    -26.7072E-03     264.712E-03
             405     16.6471E-03     64.7277E-03    -5.27566E+06     172.813E+06     84.3245E+06     449.510E+03    -36.4768E-03     63.3071E-03    -26.8303E-03     261.141E-03    -45.2633E-03     72.4439E-03    -26.6516E-03     266.184E-03
             406     876.194E-06     64.4730E-03    -23.9800E+06    -113.894E+06    -23.6268E+06     81.9787E+03    -26.8770E-03     53.7526E-03    -26.8756E-03     5.70241E-03    -26.7976E-03     53.2523E-03    -26.7938E-03     5.70076E-03
             407     1.75242E-03     64.4807E-03    -23.4633E+06    -113.041E+06    -22.0882E+06     126.506E+03    -26.8937E-03     53.7707E-03    -26.8770E-03     10.5149E-03    -26.8155E-03     53.2719E-03    -26.7895E-03     10.5114E-03
             408     2.62863E-03     64.4930E-03    -22.6269E+06    -111.635E+06    -19.4539E+06     198.148E+03    -26.9228E-03     53.8073E-03    -26.8846E-03     15.6322E-03    -26.8467E-03     53.3111E-03    -26.7872E-03     15.6268E-03
             409     3.50485E-03     64.5104E-03    -21.4728E+06    -109.737E+06    -15.9486E+06     272.097E+03    -26.9639E-03     53.8592E-03    -26.8953E-03     20.8412E-03    -26.8907E-03     53.3665E-03    -26.7848E-03     20.8334E-03
             410     4.38108E-03     64.5327E-03    -20.0249E+06    -107.604E+06    -11.9809E+06     330.474E+03    -27.0186E-03     53.9257E-03    -26.9071E-03     26.0957E-03    -26.9483E-03     53.4371E-03    -26.7820E-03     26.0845E-03
             411     5.25730E-03     64.5601E-03    -18.4324E+06    -103.098E+06    -8.17279E+06     383.456E+03    -27.0807E-03     53.9945E-03    -26.9138E-03     31.3984E-03    -27.0163E-03     53.5224E-03    -26.7785E-03     31.3829E-03
             412     6.13356E-03     64.5924E-03    -16.6771E+06    -97.8216E+06    -4.44495E+06     337.531E+03    -27.1563E-03     54.0743E-03    -26.9179E-03     36.7369E-03    -27.0989E-03     53.6232E-03    -26.7741E-03     36.7145E-03
             413     7.00980E-03     64.6300E-03    -15.0164E+06    -92.9874E+06    -1.59386E+06     203.471E+03    -27.2504E-03     54.1684E-03    -26.9180E-03     42.0732E-03    -27.1996E-03     53.7389E-03    -26.7694E-03     42.0412E-03
             414     7.88609E-03     64.6723E-03    -13.6276E+06    -86.7973E+06    -439.548E+03     166.315E+03    -27.3550E-03     54.2629E-03    -26.9079E-03     47.3995E-03    -27.3135E-03     53.8662E-03    -26.7645E-03     47.3572E-03
             415     8.76231E-03     64.7201E-03    -12.2649E+06    -81.4036E+06     425.493E+03     297.429E+03    -27.4749E-03     54.3724E-03    -26.8975E-03     52.7110E-03    -27.4437E-03     54.0074E-03    -26.7595E-03     52.6580E-03
             416     9.63869E-03     64.7724E-03    -10.9731E+06    -76.6187E+06    -668.329E+03     169.008E+03    -27.6002E-03     54.4780E-03    -26.8778E-03     58.0097E-03    -27.5795E-03     54.1483E-03    -26.7542E-03     57.9397E-03
             417     10.5149E-03     64.8302E-03    -10.1964E+06    -68.5128E+06    -3.28860E+06     5.58093E+03    -27.7434E-03     54.5899E-03    -26.8466E-03     63.1884E-03    -27.7438E-03     54.3205E-03    -26.7489E-03     63.0971E-03
             418     11.3914E-03     64.8922E-03    -9.60812E+06    -54.5442E+06    -2.59937E+06    -117.196E+03    -27.9748E-03     54.8009E-03    -26.8260E-03     69.8100E-03    -28.0214E-03     54.6273E-03    -26.7460E-03     69.6923E-03
             419     12.2669E-03     64.9628E-03    -9.12630E+06    -39.8106E+06    -3.94691E+06     38.5426E+03    -28.1466E-03     54.9398E-03    -26.7932E-03     78.1501E-03    -28.2539E-03     54.8848E-03    -26.7420E-03     78.0058E-03
             420     13.1449E-03     65.0405E-03    -9.42590E+06    -25.5725E+06    -11.1066E+06     390.088E+03    -28.1187E-03     54.8478E-03    -26.7291E-03     80.3660E-03    -28.2982E-03     54.9352E-03    -26.7339E-03     80.1930E-03
             421     14.0175E-03     65.1145E-03    -9.20939E+06     6.87277E+06    -12.8380E+06     591.865E+03    -28.6156E-03     55.2796E-03    -26.6640E-03     94.5790E-03    -29.0028E-03     55.6958E-03    -26.7248E-03     94.3700E-03
             422     14.8981E-03     65.2197E-03    -9.11400E+06     62.4920E+06    -11.8238E+06     965.133E+03    -32.2717E-03     58.8462E-03    -26.5745E-03     158.957E-03    -33.7027E-03     60.5010E-03    -26.7110E-03     158.762E-03
             423     15.7746E-03     65.4178E-03    -7.62708E+06     130.375E+06     22.7366E+06     1.58009E+06    -38.3084E-03     64.9090E-03    -26.6006E-03     262.094E-03    -44.7313E-03     71.7017E-03    -26.6649E-03     263.293E-03
             424     16.6557E-03     65.7274E-03    -4.29072E+06     174.449E+06     85.6344E+06     1.07400E+06    -36.7631E-03     63.5510E-03    -26.7879E-03     261.535E-03    -45.5584E-03     72.7021E-03    -26.6064E-03     266.602E-03
             425     876.203E-06     65.4732E-03    -24.1429E+06    -114.065E+06    -23.7970E+06     87.2297E+03    -26.8910E-03     53.7673E-03    -26.8763E-03     5.70016E-03    -26.8119E-03     53.2667E-03    -26.7949E-03     5.69858E-03
             426     1.75240E-03     65.4807E-03    -23.6224E+06    -113.202E+06    -22.2068E+06     148.738E+03    -26.8994E-03     53.7837E-03    -26.8842E-03     10.5237E-03    -26.8216E-03     53.2845E-03    -26.7969E-03     10.5204E-03
             427     2.62861E-03     65.4932E-03    -22.7646E+06    -111.807E+06    -19.6255E+06     233.790E+03    -26.9268E-03     53.8176E-03    -26.8908E-03     15.6462E-03    -26.8510E-03     53.3210E-03    -26.7938E-03     15.6412E-03
             428     3.50483E-03     65.5105E-03    -21.5667E+06    -109.899E+06    -16.1281E+06     312.457E+03    -26.9667E-03     53.8672E-03    -26.9006E-03     20.8590E-03    -26.8935E-03     53.3741E-03    -26.7906E-03     20.8517E-03
             429     4.38104E-03     65.5329E-03    -20.1191E+06    -107.749E+06    -12.1128E+06     373.405E+03    -27.0181E-03     53.9298E-03    -26.9117E-03     26.1172E-03    -26.9479E-03     53.4407E-03    -26.7868E-03     26.1066E-03
             430     5.25729E-03     65.5601E-03    -18.4480E+06    -103.192E+06    -8.29034E+06     389.290E+03    -27.0769E-03     53.9939E-03    -26.9170E-03     31.4263E-03    -27.0123E-03     53.5215E-03    -26.7821E-03     31.4109E-03
             431     6.13353E-03     65.5927E-03    -16.7566E+06    -97.7445E+06    -4.51982E+06     326.105E+03    -27.1483E-03     54.0681E-03    -26.9197E-03     36.7676E-03    -27.0913E-03     53.6177E-03    -26.7763E-03     36.7452E-03
             432     7.00983E-03     65.6300E-03    -15.1158E+06    -93.0332E+06    -1.50343E+06     358.366E+03    -27.2372E-03     54.1564E-03    -26.9193E-03     42.1018E-03    -27.1870E-03     53.7267E-03    -26.7700E-03     42.0720E-03
             433     7.88605E-03     65.6726E-03    -13.6735E+06    -86.7952E+06    -325.558E+03     375.812E+03    -27.3378E-03     54.2451E-03    -26.9074E-03     47.4269E-03    -27.2967E-03     53.8483E-03    -26.7633E-03     47.3874E-03
             434     8.76243E-03     65.7200E-03    -12.3546E+06    -81.3571E+06     243.827E+03     147.915E+03    -27.4547E-03     54.3483E-03    -26.8936E-03     52.7432E-03    -27.4237E-03     53.9839E-03    -26.7565E-03     52.6884E-03
             435     9.63861E-03     65.7728E-03    -11.2775E+06    -76.5200E+06    -946.755E+03     103.649E+03    -27.5920E-03     54.4648E-03    -26.8727E-03     58.0140E-03    -27.5726E-03     54.1364E-03    -26.7501E-03     57.9432E-03
             436     10.5151E-03     65.8300E-03    -10.6036E+06    -68.4918E+06    -3.37985E+06     126.194E+03    -27.7348E-03     54.5771E-03    -26.8423E-03     63.2509E-03    -27.7372E-03     54.3086E-03    -26.7445E-03     63.1611E-03
             437     11.3910E-03     65.8929E-03    -10.2868E+06    -54.3804E+06    -2.81866E+06     18.5811E+03    -27.8775E-03     54.6951E-03    -26.8176E-03     69.9855E-03    -27.9272E-03     54.5234E-03    -26.7379E-03     69.8702E-03
             438     12.2681E-03     65.9626E-03    -9.78611E+06    -39.9360E+06    -4.29137E+06    -252.803E+03    -28.0637E-03     54.8424E-03    -26.7787E-03     78.1029E-03    -28.1733E-03     54.7879E-03    -26.7280E-03     77.9553E-03
             439     13.1432E-03     66.0405E-03    -9.25256E+06    -26.2800E+06    -11.4730E+06     231.448E+03    -28.0750E-03     54.7858E-03    -26.7108E-03     80.4093E-03    -28.2522E-03     54.8701E-03    -26.7167E-03     80.2347E-03
             440     14.0232E-03     66.1154E-03    -10.0765E+06     6.16338E+06    -13.9389E+06     1.10048E+06    -28.6447E-03     55.2891E-03    -26.6444E-03     94.4634E-03    -29.0333E-03     55.7042E-03    -26.7084E-03     94.2609E-03
             441     14.8957E-03     66.2192E-03    -10.6265E+06     62.9461E+06    -10.9669E+06     650.023E+03    -32.3553E-03     58.9253E-03    -26.5700E-03     158.361E-03    -33.7918E-03     60.5794E-03    -26.7007E-03     158.160E-03
             442     15.7724E-03     66.4175E-03    -9.35828E+06     129.879E+06     23.5212E+06    -260.398E+03    -38.9516E-03     65.5823E-03    -26.6307E-03     259.192E-03    -45.3282E-03     72.3185E-03    -26.6878E-03     260.281E-03
             443     16.6483E-03     66.7207E-03    -5.47837E+06     173.987E+06     84.9139E+06     514.259E+03    -36.6034E-03     63.4438E-03    -26.8404E-03     260.269E-03    -45.4031E-03     72.5956E-03    -26.6602E-03     265.311E-03
             444     876.197E-06     66.4733E-03    -24.3002E+06    -114.245E+06    -23.9677E+06     78.7929E+03    -26.8932E-03     53.7716E-03    -26.8785E-03     5.69593E-03    -26.8144E-03     53.2706E-03    -26.7974E-03     5.69425E-03
             445     1.75240E-03     66.4810E-03    -23.7944E+06    -113.387E+06    -22.3874E+06     158.320E+03    -26.9022E-03     53.7887E-03    -26.8865E-03     10.5313E-03    -26.8247E-03     53.2891E-03    -26.7995E-03     10.5283E-03
             446     2.62861E-03     66.4933E-03    -22.9149E+06    -111.978E+06    -19.7866E+06     234.574E+03    -26.9281E-03     53.8211E-03    -26.8930E-03     15.6604E-03    -26.8525E-03     53.3241E-03    -26.7963E-03     15.6554E-03
             447     3.50481E-03     66.5107E-03    -21.7128E+06    -110.082E+06    -16.3002E+06     308.034E+03    -26.9649E-03     53.8669E-03    -26.9021E-03     20.8753E-03    -26.8919E-03     53.3734E-03    -26.7925E-03     20.8679E-03
             448     4.38106E-03     66.5330E-03    -20.2056E+06    -107.886E+06    -12.2417E+06     370.863E+03    -27.0132E-03     53.9253E-03    -26.9122E-03     26.1347E-03    -26.9430E-03     53.4359E-03    -26.7877E-03     26.1241E-03
             449     5.25728E-03     66.5604E-03    -18.5760E+06    -103.256E+06    -8.29094E+06     382.621E+03    -27.0698E-03     53.9867E-03    -26.9170E-03     31.4451E-03    -27.0057E-03     53.5142E-03    -26.7818E-03     31.4297E-03
             450     6.13357E-03     66.5927E-03    -16.8877E+06    -97.7795E+06    -4.51442E+06     413.563E+03    -27.1388E-03     54.0574E-03    -26.9186E-03     36.7854E-03    -27.0824E-03     53.6070E-03    -26.7749E-03     36.7641E-03
             451     7.00980E-03     66.6303E-03    -15.2179E+06    -93.1617E+06    -1.60180E+06     426.427E+03    -27.2245E-03     54.1410E-03    -26.9165E-03     42.1142E-03    -27.1745E-03     53.7109E-03    -26.7674E-03     42.0852E-03
             452     7.88616E-03     66.6726E-03    -13.5541E+06    -86.7466E+06    -330.914E+03     391.356E+03    -27.3255E-03     54.2288E-03    -26.9033E-03     47.4388E-03    -27.2838E-03     53.8320E-03    -26.7595E-03     47.3995E-03
             453     8.76236E-03     66.7203E-03    -12.2471E+06    -81.0671E+06     321.358E+03     251.867E+03    -27.4386E-03     54.3272E-03    -26.8886E-03     52.7388E-03    -27.4076E-03     53.9640E-03    -26.7517E-03     52.6854E-03
             454     9.63883E-03     66.7727E-03    -11.3581E+06    -76.7494E+06    -1.00459E+06     248.168E+03    -27.5823E-03     54.4495E-03    -26.8672E-03     58.0426E-03    -27.5628E-03     54.1202E-03    -26.7445E-03     57.9737E-03
             455     10.5149E-03     66.8305E-03    -10.8651E+06    -68.5174E+06    -3.53951E+06     391.132E+03    -27.6901E-03     54.5247E-03    -26.8346E-03     63.2531E-03    -27.6935E-03     54.2565E-03    -26.7372E-03     63.1669E-03
             456     11.3917E-03     66.8926E-03    -10.4983E+06    -54.0999E+06    -2.90396E+06     242.463E+03    -27.7998E-03     54.6056E-03    -26.8058E-03     69.8870E-03    -27.8504E-03     54.4353E-03    -26.7266E-03     69.7752E-03
             457     12.2675E-03     66.9629E-03    -10.4962E+06    -39.6111E+06    -4.57730E+06     4.38009E+03    -28.0637E-03     54.8286E-03    -26.7649E-03     78.0093E-03    -28.1768E-03     54.7771E-03    -26.7151E-03     77.8652E-03
             458     13.1451E-03     67.0406E-03    -10.9855E+06    -26.9620E+06    -12.2671E+06    -98.5382E+03    -28.2114E-03     54.9148E-03    -26.7033E-03     80.2664E-03    -28.3954E-03     54.9996E-03    -26.7097E-03     80.0864E-03
             459     14.0182E-03     67.1148E-03    -10.3266E+06     5.35982E+06    -13.8780E+06     629.884E+03    -28.7018E-03     55.3484E-03    -26.6465E-03     94.2067E-03    -29.0894E-03     55.7586E-03    -26.7087E-03     93.9976E-03
             460     14.8977E-03     67.2207E-03    -9.82977E+06     63.9516E+06    -9.01884E+06     969.447E+03    -32.2740E-03     58.8508E-03    -26.5768E-03     158.365E-03    -33.7044E-03     60.4996E-03    -26.7004E-03     158.170E-03
             461     15.7741E-03     67.4172E-03    -9.24276E+06     130.662E+06     25.0112E+06     252.784E+03    -39.8310E-03     66.4788E-03    -26.6478E-03     261.882E-03    -46.3201E-03     73.3264E-03    -26.6988E-03     262.928E-03
             462     16.6475E-03     67.7267E-03    -5.81819E+06     173.619E+06     84.3612E+06     15.5390E+03    -36.8749E-03     63.7387E-03    -26.8638E-03     261.466E-03    -45.7289E-03     72.9438E-03    -26.6853E-03     266.493E-03
             463     876.195E-06     67.4735E-03    -24.4959E+06    -114.415E+06    -24.1413E+06     84.4321E+03    -26.8842E-03     53.7667E-03    -26.8825E-03     5.69810E-03    -26.8059E-03     53.2653E-03    -26.8018E-03     5.69650E-03
             464     1.75241E-03     67.4810E-03    -23.9574E+06    -113.555E+06    -22.5574E+06     155.792E+03    -26.9017E-03     53.7862E-03    -26.8844E-03     10.5371E-03    -26.8246E-03     53.2863E-03    -26.7978E-03     10.5340E-03
             465     2.62860E-03     67.4935E-03    -23.0867E+06    -112.162E+06    -19.9520E+06     220.519E+03    -26.9262E-03     53.8176E-03    -26.8914E-03     15.6688E-03    -26.8510E-03     53.3201E-03    -26.7950E-03     15.6637E-03
             466     3.50484E-03     67.5108E-03    -21.8606E+06    -110.236E+06    -16.4310E+06     285.603E+03    -26.9606E-03     53.8607E-03    -26.9002E-03     20.8835E-03    -26.8879E-03     53.3668E-03    -26.7908E-03     20.8759E-03
             467     4.38105E-03     67.5332E-03    -20.3726E+06    -108.034E+06    -12.3553E+06     337.323E+03    -27.0075E-03     53.9173E-03    -26.9098E-03     26.1419E-03    -26.9378E-03     53.4276E-03    -26.7854E-03     26.1308E-03
             468     5.25732E-03     67.5604E-03    -18.7008E+06    -103.379E+06    -8.40186E+06     421.546E+03    -27.0624E-03     53.9763E-03    -26.9138E-03     31.4523E-03    -26.9986E-03     53.5035E-03    -26.7788E-03     31.4374E-03
             469     6.13355E-03     67.5929E-03    -16.9931E+06    -97.8831E+06    -4.67696E+06     457.822E+03    -27.1288E-03     54.0432E-03    -26.9144E-03     36.7891E-03    -27.0725E-03     53.5926E-03    -26.7712E-03     36.7685E-03
             470     7.00990E-03     67.6303E-03    -15.2260E+06    -93.1397E+06    -1.72485E+06     402.901E+03    -27.2170E-03     54.1285E-03    -26.9115E-03     42.1177E-03    -27.1669E-03     53.6987E-03    -26.7630E-03     42.0885E-03
             471     7.88611E-03     67.6729E-03    -13.6236E+06    -86.7292E+06    -430.941E+03     298.001E+03    -27.3132E-03     54.2111E-03    -26.8979E-03     47.4404E-03    -27.2718E-03     53.8147E-03    -26.7546E-03     47.4000E-03
             472     8.76254E-03     67.7203E-03    -12.1996E+06    -81.0470E+06     231.622E+03     337.998E+03    -27.4283E-03     54.3107E-03    -26.8824E-03     52.7421E-03    -27.3969E-03     53.9476E-03    -26.7460E-03     52.6899E-03
             473     9.63870E-03     67.7730E-03    -11.1239E+06    -76.9093E+06    -1.06748E+06     408.885E+03    -27.5538E-03     54.4137E-03    -26.8599E-03     58.0433E-03    -27.5328E-03     54.0832E-03    -26.7376E-03     57.9766E-03
             474     10.5153E-03     67.8304E-03    -10.2654E+06    -68.5887E+06    -3.63843E+06     451.947E+03    -27.6845E-03     54.5098E-03    -26.8254E-03     63.2036E-03    -27.6846E-03     54.2405E-03    -26.7292E-03     63.1183E-03
             475     11.3913E-03     67.8928E-03    -9.76591E+06    -53.9468E+06    -2.80204E+06     539.058E+03    -27.8269E-03     54.6254E-03    -26.7984E-03     69.7696E-03    -27.8744E-03     54.4547E-03    -26.7201E-03     69.6613E-03
             476     12.2682E-03     67.9629E-03    -9.49564E+06    -39.3911E+06    -4.35808E+06     474.609E+03    -28.0942E-03     54.8543E-03    -26.7600E-03     77.9840E-03    -28.2029E-03     54.8020E-03    -26.7109E-03     77.8458E-03
             477     13.1436E-03     68.0407E-03    -9.20802E+06    -26.4841E+06    -11.7697E+06     184.582E+03    -28.2174E-03     54.9165E-03    -26.6992E-03     80.5376E-03    -28.3942E-03     55.0008E-03    -26.7063E-03     80.3613E-03
             478     14.0222E-03     68.1162E-03    -9.80379E+06     4.52945E+06    -17.0914E+06    -186.413E+03    -28.6544E-03     55.2794E-03    -26.6250E-03     94.6515E-03    -29.0332E-03     55.6890E-03    -26.7028E-03     94.4332E-03
             479     14.8961E-03     68.2191E-03    -9.57308E+06     63.2325E+06    -12.1794E+06     501.823E+03    -32.0470E-03     58.5941E-03    -26.5470E-03     158.464E-03    -33.4666E-03     60.2395E-03    -26.6857E-03     158.266E-03
             480     15.7733E-03     68.4180E-03    -8.26132E+06     131.658E+06     25.4725E+06     961.762E+03    -38.9066E-03     65.5025E-03    -26.5959E-03     263.322E-03    -45.4124E-03     72.3724E-03    -26.6474E-03     264.446E-03
             481     16.6528E-03     68.7285E-03    -5.50441E+06     174.134E+06     84.4529E+06     142.673E+03    -37.2715E-03     64.0642E-03    -26.7927E-03     260.475E-03    -46.0514E-03     73.1979E-03    -26.6150E-03     265.438E-03
             482     876.214E-06     68.4736E-03    -24.6548E+06    -114.572E+06    -24.3182E+06     81.6563E+03    -26.8785E-03     53.7579E-03    -26.8794E-03     5.70744E-03    -26.8005E-03     53.2562E-03    -26.7991E-03     5.70580E-03
             483     1.75240E-03     68.4813E-03    -24.1346E+06    -113.733E+06    -22.7194E+06     147.075E+03    -26.8989E-03     53.7793E-03    -26.8804E-03     10.5368E-03    -26.8221E-03     53.2789E-03    -26.7941E-03     10.5336E-03
             484     2.62863E-03     68.4936E-03    -23.2463E+06    -112.315E+06    -20.0902E+06     216.746E+03    -26.9217E-03     53.8093E-03    -26.8876E-03     15.6693E-03    -26.8468E-03     53.3114E-03    -26.7915E-03     15.6641E-03
             485     3.50483E-03     68.5110E-03    -22.0552E+06    -110.395E+06    -16.5714E+06     274.718E+03    -26.9552E-03     53.8514E-03    -26.8962E-03     20.8834E-03    -26.8831E-03     53.3572E-03    -26.7870E-03     20.8756E-03
             486     4.38109E-03     68.5333E-03    -20.5663E+06    -108.164E+06    -12.4926E+06     333.966E+03    -27.0016E-03     53.9072E-03    -26.9055E-03     26.1436E-03    -26.9325E-03     53.4173E-03    -26.7813E-03     26.1325E-03
             487     5.25731E-03     68.5607E-03    -18.8659E+06    -103.533E+06    -8.58931E+06     359.969E+03    -27.0552E-03     53.9642E-03    -26.9090E-03     31.4525E-03    -26.9918E-03     53.4912E-03    -26.7745E-03     31.4367E-03
             488     6.13363E-03     68.5930E-03    -17.0007E+06    -97.9572E+06    -4.85288E+06     390.839E+03    -27.1228E-03     54.0317E-03    -26.9089E-03     36.7865E-03    -27.0662E-03     53.5811E-03    -26.7665E-03     36.7649E-03
             489     7.00986E-03     68.6305E-03    -15.2248E+06    -93.0820E+06    -1.88500E+06     336.638E+03    -27.2076E-03     54.1131E-03    -26.9055E-03     42.1162E-03    -27.1573E-03     53.6838E-03    -26.7579E-03     42.0861E-03
             490     7.88625E-03     68.6729E-03    -13.5492E+06    -86.6169E+06    -553.723E+03     209.651E+03    -27.3046E-03     54.1961E-03    -26.8915E-03     47.4319E-03    -27.2628E-03     53.8003E-03    -26.7490E-03     47.3903E-03
             491     8.76247E-03     68.7205E-03    -12.0272E+06    -81.2177E+06     45.2845E+03     146.437E+03    -27.4170E-03     54.2924E-03    -26.8754E-03     52.7384E-03    -27.3842E-03     53.9285E-03    -26.7400E-03     52.6837E-03
             492     9.63896E-03     68.7729E-03    -10.6017E+06    -76.9741E+06    -1.03629E+06     218.230E+03    -27.5502E-03     54.4033E-03    -26.8531E-03     57.9990E-03    -27.5265E-03     54.0717E-03    -26.7313E-03     57.9298E-03
             493     10.5151E-03     68.8305E-03    -9.69525E+06    -68.8398E+06    -3.58046E+06     358.611E+03    -27.6897E-03     54.5090E-03    -26.8193E-03     63.1971E-03    -27.6867E-03     54.2376E-03    -26.7233E-03     63.1106E-03
             494     11.3918E-03     68.8930E-03    -8.96630E+06    -54.0843E+06    -2.52381E+06     520.158E+03    -27.8732E-03     54.6684E-03    -26.7951E-03     69.7470E-03    -27.9170E-03     54.4956E-03    -26.7163E-03     69.6382E-03
             495     12.2677E-03     68.9627E-03    -8.47052E+06    -39.5583E+06    -3.68087E+06     852.348E+03    -28.1118E-03     54.8725E-03    -26.7607E-03     78.0623E-03    -28.2163E-03     54.8172E-03    -26.7094E-03     77.9286E-03
             496     13.1448E-03     69.0414E-03    -8.97871E+06    -25.7147E+06    -10.5433E+06     489.099E+03    -28.1173E-03     54.8170E-03    -26.6997E-03     80.4967E-03    -28.2957E-03     54.9027E-03    -26.7021E-03     80.3249E-03
             497     14.0196E-03     69.1149E-03    -9.95572E+06     4.82882E+06    -16.0730E+06    -117.233E+03    -28.4021E-03     55.0180E-03    -26.6159E-03     94.1669E-03    -28.7804E-03     55.4247E-03    -26.6888E-03     93.9523E-03
             498     14.8980E-03     69.2211E-03    -10.1721E+06     61.6580E+06    -13.1541E+06     45.6887E+03    -31.9003E-03     58.4217E-03    -26.5214E-03     158.255E-03    -33.3219E-03     60.0642E-03    -26.6618E-03     158.054E-03
             499     15.7752E-03     69.4157E-03    -8.50595E+06     131.993E+06     25.3775E+06     342.351E+03    -38.9233E-03     65.4961E-03    -26.5728E-03     262.402E-03    -45.3995E-03     72.3370E-03    -26.6250E-03     263.518E-03
             500     16.6517E-03     69.7285E-03    -5.24033E+06     174.990E+06     85.4514E+06     294.029E+03    -37.3351E-03     64.1186E-03    -26.7834E-03     259.758E-03    -46.0878E-03     73.2261E-03    -26.6023E-03     264.703E-03
             501     876.198E-06     69.4738E-03    -24.8517E+06    -114.757E+06    -24.4625E+06     90.6859E+03    -26.8819E-03     53.7511E-03    -26.8693E-03     5.70804E-03    -26.8044E-03     53.2490E-03    -26.7892E-03     5.70651E-03
             502     1.75242E-03     69.4813E-03    -24.3120E+06    -113.895E+06    -22.8789E+06     158.583E+03    -26.8922E-03     53.7686E-03    -26.8764E-03     10.5352E-03    -26.8159E-03     53.2680E-03    -26.7904E-03     10.5321E-03
             503     2.62862E-03     69.4938E-03    -23.4382E+06    -112.484E+06    -20.2519E+06     223.860E+03    -26.9162E-03     53.7991E-03    -26.8829E-03     15.6670E-03    -26.8419E-03     53.3010E-03    -26.7871E-03     15.6619E-03
             504     3.50487E-03     69.5111E-03    -22.2234E+06    -110.529E+06    -16.7078E+06     283.357E+03    -26.9497E-03     53.8412E-03    -26.8914E-03     20.8796E-03    -26.8781E-03     53.3467E-03    -26.7825E-03     20.8719E-03
             505     4.38109E-03     69.5334E-03    -20.7039E+06    -108.273E+06    -12.6341E+06     296.145E+03    -26.9957E-03     53.8962E-03    -26.9005E-03     26.1384E-03    -26.9269E-03     53.4062E-03    -26.7767E-03     26.1269E-03
             506     5.25738E-03     69.5607E-03    -18.9576E+06    -103.553E+06    -8.67340E+06     259.422E+03    -27.0507E-03     53.9547E-03    -26.9040E-03     31.4462E-03    -26.9876E-03     53.4818E-03    -26.7698E-03     31.4292E-03
             507     6.13361E-03     69.5931E-03    -17.1041E+06    -98.0045E+06    -5.01126E+06     178.132E+03    -27.1173E-03     54.0209E-03    -26.9036E-03     36.7799E-03    -27.0609E-03     53.5704E-03    -26.7618E-03     36.7556E-03
             508     7.00997E-03     69.6305E-03    -15.1156E+06    -93.0070E+06    -2.08551E+06     117.322E+03    -27.2021E-03     54.1016E-03    -26.8995E-03     42.1030E-03    -27.1511E-03     53.6728E-03    -26.7531E-03     42.0701E-03
             509     7.88620E-03     69.6730E-03    -13.2777E+06    -86.4324E+06    -577.420E+03    -49.6999E+03    -27.3012E-03     54.1871E-03    -26.8859E-03     47.4155E-03    -27.2582E-03     53.7918E-03    -26.7442E-03     47.3706E-03
             510     8.76263E-03     69.7205E-03    -11.6862E+06    -81.2598E+06     173.659E+03    -133.126E+03    -27.4161E-03     54.2872E-03    -26.8710E-03     52.7011E-03    -27.3818E-03     53.9224E-03    -26.7354E-03     52.6428E-03
             511     9.63885E-03     69.7731E-03    -10.4850E+06    -77.1210E+06    -1.07483E+06    -89.5111E+03    -27.5585E-03     54.4075E-03    -26.8490E-03     57.9798E-03    -27.5340E-03     54.0751E-03    -26.7274E-03     57.9066E-03
             512     10.5153E-03     69.8306E-03    -9.49818E+06    -69.1160E+06    -3.48153E+06     63.0192E+03    -27.6938E-03     54.5106E-03    -26.8169E-03     63.1544E-03    -27.6895E-03     54.2374E-03    -26.7203E-03     63.0640E-03
             513     11.3915E-03     69.8929E-03    -8.73095E+06    -54.3466E+06    -2.43895E+06     301.026E+03    -27.8800E-03     54.6731E-03    -26.7931E-03     69.7926E-03    -27.9223E-03     54.4986E-03    -26.7138E-03     69.6809E-03
             514     12.2681E-03     69.9632E-03    -7.84559E+06    -40.0804E+06    -3.49692E+06     579.675E+03    -28.1027E-03     54.8617E-03    -26.7590E-03     77.9666E-03    -28.2037E-03     54.8027E-03    -26.7070E-03     77.8294E-03
             515     13.1441E-03     70.0406E-03    -7.18871E+06    -25.4835E+06    -10.0691E+06     1.09036E+06    -28.0480E-03     54.7419E-03    -26.6939E-03     80.6167E-03    -28.2183E-03     54.8254E-03    -26.6968E-03     80.4535E-03
             516     14.0214E-03     70.1167E-03    -7.23495E+06     5.47446E+06    -15.5071E+06     431.632E+03    -28.2886E-03     54.8915E-03    -26.6029E-03     94.0023E-03    -28.6543E-03     55.2959E-03    -26.6779E-03     93.7966E-03
             517     14.8976E-03     70.2177E-03    -8.23801E+06     61.4835E+06    -13.2470E+06     220.399E+03    -32.1279E-03     58.6391E-03    -26.5112E-03     157.896E-03    -33.5404E-03     60.2790E-03    -26.6546E-03     157.690E-03
             518     15.7737E-03     70.4185E-03    -8.68210E+06     131.884E+06     24.7122E+06     642.524E+03    -39.6068E-03     66.1963E-03    -26.5895E-03     262.006E-03    -46.0699E-03     73.0251E-03    -26.6446E-03     263.077E-03
             519     16.6494E-03     70.7263E-03    -5.57468E+06     175.202E+06     85.4704E+06     165.957E+03    -37.1901E-03     64.0082E-03    -26.8181E-03     260.436E-03    -45.9857E-03     73.1581E-03    -26.6367E-03     265.427E-03
             520     876.213E-06     70.4739E-03    -25.0195E+06    -114.967E+06    -24.6838E+06     119.605E+03    -26.8776E-03     53.7410E-03    -26.8635E-03     5.70413E-03    -26.8003E-03     53.2385E-03    -26.7839E-03     5.70298E-03
             521     1.75242E-03     70.4815E-03    -24.5349E+06    -114.080E+06    -23.0532E+06     191.793E+03    -26.8865E-03     53.7579E-03    -26.8714E-03     10.5373E-03    -26.8107E-03     53.2569E-03    -26.7856E-03     10.5346E-03
             522     2.62866E-03     70.4939E-03    -23.6492E+06    -112.623E+06    -20.3802E+06     243.375E+03    -26.9112E-03     53.7892E-03    -26.8780E-03     15.6643E-03    -26.8375E-03     53.2909E-03    -26.7823E-03     15.6594E-03
             523     3.50487E-03     70.5113E-03    -22.3953E+06    -110.648E+06    -16.8197E+06     256.089E+03    -26.9453E-03     53.8319E-03    -26.8867E-03     20.8738E-03    -26.8742E-03     53.3373E-03    -26.7779E-03     20.8657E-03
             524     4.38114E-03     70.5335E-03    -20.8357E+06    -108.289E+06    -12.6987E+06     233.240E+03    -26.9919E-03     53.8879E-03    -26.8960E-03     26.1315E-03    -26.9236E-03     53.3981E-03    -26.7723E-03     26.1191E-03
             525     5.25736E-03     70.5609E-03    -19.0859E+06    -103.499E+06    -8.79867E+06     134.072E+03    -27.0471E-03     53.9464E-03    -26.8993E-03     31.4392E-03    -26.9845E-03     53.4742E-03    -26.7656E-03     31.4206E-03
             526     6.13369E-03     70.5932E-03    -17.2050E+06    -97.8260E+06    -5.21759E+06    -45.8758E+03    -27.1153E-03     54.0139E-03    -26.8986E-03     36.7660E-03    -27.0594E-03     53.5648E-03    -26.7579E-03     36.7388E-03
             527     7.00992E-03     70.6306E-03    -15.2664E+06    -92.8250E+06    -2.40178E+06    -330.377E+03    -27.2025E-03     54.0970E-03    -26.8945E-03     42.0885E-03    -27.1521E-03     53.6698E-03    -26.7497E-03     42.0498E-03
             528     7.88630E-03     70.6731E-03    -13.3751E+06    -86.3037E+06    -838.775E+03    -429.582E+03    -27.3032E-03     54.1850E-03    -26.8818E-03     47.3947E-03    -27.2605E-03     53.7909E-03    -26.7415E-03     47.3449E-03
             529     8.76255E-03     70.7206E-03    -11.8592E+06    -81.3481E+06     90.7886E+03    -355.125E+03    -27.4241E-03     54.2933E-03    -26.8691E-03     52.6714E-03    -27.3905E-03     53.9285E-03    -26.7335E-03     52.6101E-03
             530     9.63897E-03     70.7731E-03    -10.6728E+06    -77.1519E+06    -1.19004E+06    -286.837E+03    -27.5628E-03     54.4106E-03    -26.8478E-03     57.9484E-03    -27.5390E-03     54.0785E-03    -26.7264E-03     57.8726E-03
             531     10.5152E-03     70.8307E-03    -9.82745E+06    -69.2342E+06    -3.62000E+06    -304.152E+03    -27.7060E-03     54.5227E-03    -26.8168E-03     63.1334E-03    -27.7030E-03     54.2496E-03    -26.7202E-03     63.0381E-03
             532     11.3916E-03     70.8931E-03    -8.98707E+06      -54.82E+06    -2.66075E+06    -46.4089E+03    -27.8599E-03     54.6527E-03    -26.7929E-03     69.7778E-03    -27.9025E-03     54.4766E-03    -26.7137E-03     69.6617E-03
             533     12.2679E-03     70.9631E-03    -8.46922E+06    -40.3994E+06    -3.66695E+06     250.932E+03    -28.0996E-03     54.8583E-03    -26.7587E-03     77.9293E-03    -28.2031E-03     54.7989E-03    -26.7061E-03     77.7878E-03
             534     13.1445E-03     71.0412E-03    -8.30318E+06    -25.9660E+06    -10.2136E+06     424.212E+03    -27.9490E-03     54.6412E-03    -26.6922E-03     80.2080E-03    -28.1227E-03     54.7228E-03    -26.6936E-03     80.0373E-03
             535     14.0209E-03     71.1152E-03    -8.37594E+06     5.55075E+06    -12.9717E+06     900.326E+03    -28.3902E-03     55.0056E-03    -26.6155E-03     93.5376E-03    -28.7645E-03     55.4075E-03    -26.6762E-03     93.3360E-03
             536     14.8974E-03     71.2195E-03    -8.71941E+06     61.3363E+06    -11.3994E+06     924.295E+03    -32.5158E-03     59.0500E-03    -26.5342E-03     158.117E-03    -33.9383E-03     60.6923E-03    -26.6675E-03     157.910E-03
             537     15.7738E-03     71.4176E-03    -7.80136E+06     132.196E+06     24.0588E+06     831.573E+03    -39.5400E-03     66.1431E-03    -26.6031E-03     262.724E-03    -46.0221E-03     72.9970E-03    -26.6632E-03     263.813E-03
             538     16.6509E-03     71.7291E-03    -4.79950E+06     176.088E+06     85.5358E+06     592.130E+03    -37.0174E-03     63.8418E-03    -26.8244E-03     260.533E-03    -45.8180E-03     73.0025E-03    -26.6451E-03     265.549E-03
             539     876.216E-06     71.4740E-03    -25.3201E+06    -115.229E+06    -24.9170E+06     152.725E+03    -26.8665E-03     53.7286E-03    -26.8621E-03     5.69953E-03    -26.7900E-03     53.2254E-03    -26.7829E-03     5.69881E-03
             540     1.75244E-03     71.4816E-03    -24.7644E+06    -114.276E+06    -23.2368E+06     238.423E+03    -26.8829E-03     53.7489E-03    -26.8659E-03     10.5336E-03    -26.8078E-03     53.2475E-03    -26.7805E-03     10.5316E-03
             541     2.62865E-03     71.4940E-03    -23.8622E+06    -112.756E+06    -20.4997E+06     265.045E+03    -26.9072E-03     53.7807E-03    -26.8735E-03     15.6596E-03    -26.8343E-03     53.2822E-03    -26.7779E-03     15.6551E-03
             542     3.50490E-03     71.5113E-03    -22.5811E+06    -110.659E+06    -16.8568E+06     215.520E+03    -26.9425E-03     53.8254E-03    -26.8829E-03     20.8667E-03    -26.8723E-03     53.3310E-03    -26.7739E-03     20.8581E-03
             543     4.38112E-03     71.5336E-03    -20.9589E+06    -108.267E+06    -12.7345E+06     121.493E+03    -26.9910E-03     53.8836E-03    -26.8926E-03     26.1225E-03    -26.9233E-03     53.3941E-03    -26.7689E-03     26.1087E-03
             544     5.25742E-03     71.5609E-03    -19.1293E+06    -103.311E+06    -8.90259E+06    -24.2293E+03    -27.0476E-03     53.9435E-03    -26.8959E-03     31.4253E-03    -26.9853E-03     53.4724E-03    -26.7629E-03     31.4045E-03
             545     6.13365E-03     71.5933E-03    -17.1903E+06    -97.4579E+06    -5.34645E+06    -344.282E+03    -27.1179E-03     54.0133E-03    -26.8954E-03     36.7504E-03    -27.0622E-03     53.5661E-03    -26.7559E-03     36.7193E-03
             546     7.00999E-03     71.6307E-03    -15.2871E+06    -92.4472E+06    -2.52300E+06    -649.948E+03    -27.2074E-03     54.0995E-03    -26.8921E-03     42.0690E-03    -27.1575E-03     53.6745E-03    -26.7485E-03     42.0261E-03
             547     7.88624E-03     71.6732E-03    -13.7158E+06    -86.4294E+06    -1.20876E+06    -661.260E+03    -27.3107E-03     54.1911E-03    -26.8804E-03     47.3734E-03    -27.2691E-03     53.7975E-03    -26.7412E-03     47.3205E-03
             548     8.76262E-03     71.7207E-03    -12.3114E+06    -81.3577E+06    -280.068E+03    -540.027E+03    -27.4315E-03     54.3002E-03    -26.8687E-03     52.6495E-03    -27.3996E-03     53.9366E-03    -26.7343E-03     52.5858E-03
             549     9.63886E-03     71.7732E-03    -11.1080E+06    -77.1719E+06    -1.56434E+06    -529.942E+03    -27.5730E-03     54.4213E-03    -26.8483E-03     57.9251E-03    -27.5508E-03     54.0903E-03    -26.7281E-03     57.8461E-03
             550     10.5153E-03     71.8308E-03    -10.2936E+06    -69.2126E+06    -4.07543E+06    -449.018E+03    -27.7114E-03     54.5289E-03    -26.8176E-03     63.1176E-03    -27.7102E-03     54.2573E-03    -26.7226E-03     63.0204E-03
             551     11.3915E-03     71.8931E-03    -9.75929E+06    -55.1662E+06    -3.35523E+06    -385.582E+03    -27.8723E-03     54.6665E-03    -26.7942E-03     69.7139E-03    -27.9172E-03     54.4907E-03    -26.7168E-03     69.5934E-03
             552     12.2679E-03     71.9633E-03    -8.98837E+06    -40.9063E+06    -4.54238E+06    -79.3157E+03    -28.0793E-03     54.8381E-03    -26.7588E-03     77.8477E-03    -28.1830E-03     54.7779E-03    -26.7092E-03     77.7023E-03
             553     13.1443E-03     72.0410E-03    -8.65571E+06    -26.4354E+06    -11.4780E+06     465.556E+03    -28.0172E-03     54.7091E-03    -26.6919E-03     79.9147E-03    -28.1896E-03     54.7902E-03    -26.6984E-03     79.7440E-03
             554     14.0208E-03     72.1152E-03    -8.76575E+06     5.17802E+06    -14.0647E+06     715.316E+03    -28.5328E-03     55.1545E-03    -26.6217E-03     93.9229E-03    -28.9089E-03     55.5586E-03    -26.6868E-03     93.7170E-03
             555     14.8972E-03     72.2196E-03    -8.53607E+06     61.5514E+06    -12.0232E+06     695.318E+03    -32.4453E-03     58.9869E-03    -26.5417E-03     158.571E-03    -33.8679E-03     60.6327E-03    -26.6786E-03     158.365E-03
             556     15.7732E-03     72.4183E-03    -7.79891E+06     131.877E+06     23.1237E+06     743.837E+03    -39.4571E-03     66.0623E-03    -26.6052E-03     262.566E-03    -45.9442E-03     72.9228E-03    -26.6695E-03     263.664E-03
             557     16.6502E-03     72.7278E-03    -5.05956E+06     176.521E+06     85.2435E+06     907.576E+03    -36.9464E-03     63.7727E-03    -26.8263E-03     259.947E-03    -45.7279E-03     72.9157E-03    -26.6487E-03     264.959E-03
             558     876.219E-06     72.4741E-03    -25.6185E+06    -115.530E+06    -25.2477E+06     148.938E+03    -26.8597E-03     53.7215E-03    -26.8618E-03     5.69861E-03    -26.7838E-03     53.2178E-03    -26.7834E-03     5.69783E-03
             559     1.75244E-03     72.4817E-03    -25.0105E+06    -114.506E+06    -23.4846E+06     236.080E+03    -26.8795E-03     53.7421E-03    -26.8626E-03     10.5296E-03    -26.8049E-03     53.2403E-03    -26.7777E-03     10.5275E-03
             560     2.62867E-03     72.4941E-03    -24.0274E+06    -112.852E+06    -20.6269E+06     269.675E+03    -26.9053E-03     53.7759E-03    -26.8706E-03     15.6523E-03    -26.8328E-03     53.2773E-03    -26.7753E-03     15.6477E-03
             561     3.50489E-03     72.5114E-03    -22.7244E+06    -110.599E+06    -16.8599E+06     193.031E+03    -26.9425E-03     53.8234E-03    -26.8809E-03     20.8580E-03    -26.8730E-03     53.3295E-03    -26.7719E-03     20.8492E-03
             562     4.38116E-03     72.5337E-03    -21.0889E+06    -108.058E+06    -12.7110E+06    -26.2102E+03    -26.9937E-03     53.8852E-03    -26.8914E-03     26.1103E-03    -26.9270E-03     53.3969E-03    -26.7677E-03     26.0945E-03
             563     5.25738E-03     72.5610E-03    -19.1627E+06    -103.016E+06    -9.04277E+06    -326.917E+03    -27.0518E-03     53.9464E-03    -26.8946E-03     31.4113E-03    -26.9900E-03     53.4770E-03    -26.7626E-03     31.3866E-03
             564     6.13369E-03     72.5934E-03    -17.1798E+06    -96.9181E+06    -5.60117E+06    -671.838E+03    -27.1220E-03     54.0158E-03    -26.8938E-03     36.7357E-03    -27.0667E-03     53.5718E-03    -26.7564E-03     36.7004E-03
             565     7.00994E-03     72.6308E-03    -15.4256E+06    -92.3349E+06    -2.79655E+06    -784.751E+03    -27.2138E-03     54.1058E-03    -26.8920E-03     42.0514E-03    -27.1643E-03     53.6819E-03    -26.7497E-03     42.0067E-03
             566     7.88627E-03     72.6733E-03    -13.8689E+06    -86.4046E+06    -1.54803E+06    -729.513E+03    -27.3187E-03     54.1995E-03    -26.8808E-03     47.3574E-03    -27.2773E-03     53.8067E-03    -26.7432E-03     47.3036E-03
             567     8.76253E-03     72.7208E-03    -12.4681E+06    -81.3524E+06    -803.976E+03    -755.298E+03    -27.4396E-03     54.3085E-03    -26.8689E-03     52.6408E-03    -27.4077E-03     53.9459E-03    -26.7369E-03     52.5743E-03
             568     9.63890E-03     72.7733E-03    -11.3333E+06    -77.1462E+06    -2.03020E+06    -684.511E+03    -27.5814E-03     54.4308E-03    -26.8494E-03     57.9171E-03    -27.5597E-03     54.1009E-03    -26.7313E-03     57.8360E-03
             569     10.5152E-03     72.8308E-03    -10.5515E+06    -69.3665E+06    -4.60268E+06    -575.952E+03    -27.7233E-03     54.5426E-03    -26.8193E-03     63.1210E-03    -27.7224E-03     54.2713E-03    -26.7264E-03     63.0221E-03
             570     11.3915E-03     72.8933E-03    -10.0469E+06    -55.2622E+06    -3.88618E+06    -378.196E+03    -27.8722E-03     54.6683E-03    -26.7961E-03     69.7223E-03    -27.9177E-03     54.4932E-03    -26.7208E-03     69.6019E-03
             571     12.2678E-03     72.9633E-03    -9.68641E+06    -40.9686E+06    -5.24298E+06    -567.066E+03    -28.0656E-03     54.8253E-03    -26.7597E-03     77.8750E-03    -28.1715E-03     54.7666E-03    -26.7124E-03     77.7236E-03
             572     13.1443E-03     73.0412E-03    -8.84139E+06    -27.5632E+06    -12.2199E+06    -225.940E+03    -28.0635E-03     54.7576E-03    -26.6941E-03     79.9506E-03    -28.2344E-03     54.8347E-03    -26.7024E-03     79.7705E-03
             573     14.0208E-03     73.1149E-03    -8.37160E+06     4.74801E+06    -13.9678E+06     737.919E+03    -28.5836E-03     55.2123E-03    -26.6286E-03     94.1028E-03    -28.9587E-03     55.6150E-03    -26.6932E-03     93.8964E-03
             574     14.8970E-03     73.2203E-03    -9.63220E+06     61.9730E+06    -11.1320E+06     849.278E+03    -32.3330E-03     58.8842E-03    -26.5512E-03     158.692E-03    -33.7631E-03     60.5324E-03    -26.6828E-03     158.493E-03
             575     15.7741E-03     73.4180E-03    -9.63315E+06     131.481E+06     23.1237E+06     705.930E+03    -39.4240E-03     66.0307E-03    -26.6066E-03     263.074E-03    -45.9375E-03     72.9096E-03    -26.6677E-03     264.171E-03
             576     16.6497E-03     73.7297E-03    -6.01253E+06     176.586E+06     84.6575E+06     465.061E+03    -37.0176E-03     63.8383E-03    -26.8207E-03     260.239E-03    -45.8084E-03     72.9891E-03    -26.6447E-03     265.234E-03
             577     876.220E-06     73.4742E-03    -25.8509E+06    -115.751E+06    -25.5492E+06     39.6608E+03    -26.8628E-03     53.7218E-03    -26.8590E-03     5.69776E-03    -26.7873E-03     53.2178E-03    -26.7814E-03     5.69557E-03
             578     1.75244E-03     73.4818E-03    -25.2076E+06    -114.704E+06    -23.7783E+06     128.640E+03    -26.8797E-03     53.7421E-03    -26.8624E-03     10.5253E-03    -26.8053E-03     53.2400E-03    -26.7784E-03     10.5218E-03
             579     2.62866E-03     73.4942E-03    -24.1820E+06    -112.983E+06    -20.8553E+06     203.233E+03    -26.9065E-03     53.7771E-03    -26.8707E-03     15.6432E-03    -26.8342E-03     53.2785E-03    -26.7761E-03     15.6379E-03
             580     3.50490E-03     73.5115E-03    -22.8088E+06    -110.476E+06    -17.0117E+06     142.492E+03    -26.9451E-03     53.8263E-03    -26.8812E-03     20.8488E-03    -26.8760E-03     53.3334E-03    -26.7730E-03     20.8393E-03
             581     4.38113E-03     73.5338E-03    -21.0872E+06    -107.572E+06    -12.7522E+06    -225.253E+03    -26.9974E-03     53.8896E-03    -26.8922E-03     26.1026E-03    -26.9313E-03     53.4038E-03    -26.7694E-03     26.0842E-03
             582     5.25740E-03     73.5611E-03    -19.1200E+06    -102.470E+06    -9.17947E+06    -741.773E+03    -27.0557E-03     53.9509E-03    -26.8952E-03     31.4021E-03    -26.9943E-03     53.4844E-03    -26.7648E-03     31.3720E-03
             583     6.13364E-03     73.5935E-03    -17.2953E+06    -96.7273E+06    -6.10037E+06    -851.485E+03    -27.1262E-03     54.0199E-03    -26.8937E-03     36.7288E-03    -27.0710E-03     53.5776E-03    -26.7589E-03     36.6911E-03
             584     7.00995E-03     73.6309E-03    -15.7032E+06    -92.2109E+06    -3.35003E+06    -812.013E+03    -27.2174E-03     54.1096E-03    -26.8922E-03     42.0451E-03    -27.1687E-03     53.6875E-03    -26.7525E-03     42.0001E-03
             585     7.88621E-03     73.6734E-03    -14.1565E+06    -86.2542E+06    -2.11648E+06    -936.552E+03    -27.3222E-03     54.2033E-03    -26.8811E-03     47.3584E-03    -27.2817E-03     53.8125E-03    -26.7461E-03     47.3019E-03
             586     8.76255E-03     73.7209E-03    -12.6515E+06    -81.1687E+06    -1.36414E+06    -1.04355E+06    -27.4443E-03     54.3135E-03    -26.8692E-03     52.6473E-03    -27.4128E-03     53.9529E-03    -26.7400E-03     52.5770E-03
             587     9.63881E-03     73.7734E-03    -11.3375E+06    -77.3635E+06    -2.52750E+06    -941.671E+03    -27.5874E-03     54.4379E-03    -26.8505E-03     57.9289E-03    -27.5647E-03     54.1077E-03    -26.7346E-03     57.8445E-03
             588     10.5151E-03     73.8310E-03    -10.4751E+06    -69.4359E+06    -5.04047E+06    -718.372E+03    -27.7172E-03     54.5372E-03    -26.8200E-03     63.1434E-03    -27.7152E-03     54.2661E-03    -26.7293E-03     63.0427E-03
             589     11.3915E-03     73.8933E-03    -9.81151E+06    -55.5424E+06    -4.28312E+06    -522.455E+03    -27.8479E-03     54.6434E-03    -26.7955E-03     69.7266E-03    -27.8911E-03     54.4671E-03    -26.7222E-03     69.6045E-03
             590     12.2679E-03     73.9634E-03    -9.64752E+06    -40.7371E+06    -5.55714E+06    -162.152E+03    -28.0513E-03     54.8088E-03    -26.7575E-03     77.8494E-03    -28.1568E-03     54.7515E-03    -26.7123E-03     77.7033E-03
             591     13.1444E-03     74.0410E-03    -10.6927E+06    -27.7849E+06    -13.2369E+06    -423.532E+03    -28.1297E-03     54.8234E-03    -26.6936E-03     80.0379E-03    -28.3086E-03     54.9041E-03    -26.7040E-03     79.8545E-03
             592     14.0204E-03     74.1154E-03    -11.2306E+06     3.43747E+06    -15.7680E+06    -101.649E+03    -28.6437E-03     55.2753E-03    -26.6317E-03     94.1168E-03    -29.0295E-03     55.6792E-03    -26.6992E-03     93.8990E-03
             593     14.8972E-03     74.2199E-03    -10.1488E+06     61.7373E+06    -12.3892E+06     923.637E+03    -32.2899E-03     58.8431E-03    -26.5531E-03     158.466E-03    -33.7184E-03     60.4906E-03    -26.6899E-03     158.268E-03
             594     15.7733E-03     74.4184E-03    -8.59728E+06     131.674E+06     21.9845E+06     973.538E+03    -39.1396E-03     65.7377E-03    -26.5981E-03     262.846E-03    -45.6400E-03     72.6113E-03    -26.6667E-03     263.970E-03
             595     16.6517E-03     74.7295E-03    -5.26094E+06     177.109E+06     84.2574E+06     388.488E+03    -36.9510E-03     63.7587E-03    -26.8077E-03     259.973E-03    -45.7255E-03     72.8989E-03    -26.6356E-03     264.966E-03
             596     876.211E-06     74.4743E-03    -26.0297E+06    -115.750E+06    -25.6866E+06    -68.3281E+03    -26.8712E-03     53.7304E-03    -26.8592E-03     5.69568E-03    -26.7963E-03     53.2268E-03    -26.7821E-03     5.69209E-03
             597     1.75243E-03     74.4819E-03    -25.3877E+06    -114.807E+06    -24.0136E+06    -52.9207E+03    -26.8848E-03     53.7515E-03    -26.8666E-03     10.5201E-03    -26.8109E-03     53.2495E-03    -26.7834E-03     10.5143E-03
             598     2.62865E-03     74.4943E-03    -24.3409E+06    -113.132E+06    -21.2101E+06     38.9110E+03    -26.9106E-03     53.7850E-03    -26.8744E-03     15.6368E-03    -26.8385E-03     53.2863E-03    -26.7811E-03     15.6292E-03
             599     3.50488E-03     74.5116E-03    -22.9746E+06    -110.319E+06    -17.5823E+06        -982.309    -26.9481E-03     53.8313E-03    -26.8831E-03     20.8435E-03    -26.8793E-03     53.3402E-03    -26.7778E-03     20.8321E-03
             600     4.38112E-03     74.5340E-03    -21.3579E+06    -106.741E+06    -13.9928E+06    -503.471E+03    -26.9962E-03     53.8855E-03    -26.8893E-03     26.0981E-03    -26.9310E-03     53.4061E-03    -26.7735E-03     26.0761E-03
             601     5.25736E-03     74.5613E-03    -19.7031E+06    -101.894E+06    -10.4853E+06    -1.00949E+06    -27.0541E-03     53.9461E-03    -26.8921E-03     31.4006E-03    -26.9944E-03     53.4853E-03    -26.7682E-03     31.3671E-03
             602     6.13364E-03     74.5936E-03    -17.9604E+06    -96.7732E+06    -6.90090E+06    -1.07229E+06    -27.1266E-03     54.0205E-03    -26.8939E-03     36.7300E-03    -27.0736E-03     53.5802E-03    -26.7620E-03     36.6894E-03
             603     7.00990E-03     74.6310E-03    -16.0547E+06    -91.9580E+06    -4.04987E+06    -1.07061E+06    -27.2176E-03     54.1094E-03    -26.8918E-03     42.0512E-03    -27.1700E-03     53.6901E-03    -26.7554E-03     42.0028E-03
             604     7.88621E-03     74.6735E-03    -14.2229E+06    -85.8550E+06    -2.59514E+06    -1.31075E+06    -27.3207E-03     54.2015E-03    -26.8809E-03     47.3675E-03    -27.2804E-03     53.8135E-03    -26.7487E-03     47.3062E-03
             605     8.76249E-03     74.7210E-03    -12.6518E+06    -81.0702E+06    -1.93538E+06    -1.42162E+06    -27.4427E-03     54.3110E-03    -26.8684E-03     52.6706E-03    -27.4104E-03     53.9517E-03    -26.7422E-03     52.5955E-03
             606     9.63882E-03     74.7736E-03    -11.3989E+06    -77.4354E+06    -3.18470E+06    -1.36735E+06    -27.5842E-03     54.4332E-03    -26.8491E-03     57.9592E-03    -27.5608E-03     54.1037E-03    -26.7362E-03     57.8693E-03
             607     10.5151E-03     74.8310E-03    -10.2945E+06    -69.7189E+06    -5.67612E+06    -1.15184E+06    -27.7080E-03     54.5258E-03    -26.8178E-03     63.1530E-03    -27.7037E-03     54.2539E-03    -26.7301E-03     63.0468E-03
             608     11.3915E-03     74.8935E-03    -9.43574E+06    -55.7485E+06    -4.70791E+06    -821.634E+03    -27.8435E-03     54.6368E-03    -26.7933E-03     69.6839E-03    -27.8839E-03     54.4594E-03    -26.7223E-03     69.5580E-03
             609     12.2679E-03     74.9633E-03    -8.49473E+06    -41.4520E+06    -5.88747E+06    -299.436E+03    -28.1033E-03     54.8600E-03    -26.7567E-03     77.8112E-03    -28.2016E-03     54.7980E-03    -26.7137E-03     77.6629E-03
             610     13.1442E-03     75.0413E-03    -7.84329E+06    -27.4443E+06    -12.7340E+06     315.206E+03    -28.1679E-03     54.8632E-03    -26.6953E-03     80.0576E-03    -28.3341E-03     54.9410E-03    -26.7078E-03     79.8835E-03
             611     14.0207E-03     75.1155E-03    -8.25129E+06     3.21774E+06    -17.8651E+06    -175.898E+03    -28.6660E-03     55.2875E-03    -26.6215E-03     94.1955E-03    -29.0336E-03     55.6890E-03    -26.7035E-03     93.9768E-03
             612     14.8966E-03     75.2203E-03    -9.07288E+06     60.1385E+06    -15.4294E+06     316.442E+03    -32.3805E-03     58.9254E-03    -26.5449E-03     158.542E-03    -33.7985E-03     60.5694E-03    -26.6961E-03     158.335E-03
             613     15.7738E-03     75.4180E-03    -8.52418E+06     132.214E+06     22.2890E+06     1.06790E+06    -39.1021E-03     65.7087E-03    -26.6066E-03     262.582E-03    -45.5879E-03     72.5690E-03    -26.6745E-03     263.714E-03
             614     16.6495E-03     75.7289E-03    -5.14026E+06     177.920E+06     84.6339E+06     369.167E+03    -36.8314E-03     63.6431E-03    -26.8117E-03     260.558E-03    -45.6255E-03     72.8052E-03    -26.6391E-03     265.582E-03
             615     876.215E-06     75.4744E-03    -26.1260E+06    -115.613E+06    -25.7174E+06    -57.9993E+03    -26.8751E-03     53.7454E-03    -26.8703E-03     5.69529E-03    -26.8009E-03     53.2427E-03    -26.7933E-03     5.69183E-03
             616     1.75241E-03     75.4820E-03    -25.5816E+06    -114.718E+06    -24.1400E+06    -157.217E+03    -26.8920E-03     53.7661E-03    -26.8741E-03     10.5182E-03    -26.8190E-03     53.2650E-03    -26.7914E-03     10.5110E-03
             617     2.62863E-03     75.4944E-03    -24.6578E+06    -113.261E+06    -21.6403E+06    -133.147E+03    -26.9168E-03     53.7975E-03    -26.8807E-03     15.6350E-03    -26.8454E-03     53.2993E-03    -26.7889E-03     15.6252E-03
             618     3.50485E-03     75.5118E-03    -23.3741E+06    -109.970E+06    -18.9051E+06    -282.025E+03    -26.9484E-03     53.8319E-03    -26.8835E-03     20.8421E-03    -26.8801E-03     53.3451E-03    -26.7847E-03     20.8270E-03
             619     4.38109E-03     75.5341E-03    -21.9069E+06    -105.772E+06    -15.8721E+06    -827.725E+03    -26.9915E-03     53.8761E-03    -26.8846E-03     26.0975E-03    -26.9276E-03     53.4050E-03    -26.7789E-03     26.0713E-03
             620     5.25735E-03     75.5614E-03    -20.2946E+06    -101.436E+06    -11.7982E+06    -1.24446E+06    -27.0503E-03     53.9400E-03    -26.8897E-03     31.4013E-03    -26.9924E-03     53.4842E-03    -26.7722E-03     31.3648E-03
             621     6.13361E-03     75.5937E-03    -18.4663E+06    -96.4986E+06    -7.61457E+06    -1.46944E+06    -27.1237E-03     54.0175E-03    -26.8938E-03     36.7337E-03    -27.0725E-03     53.5803E-03    -26.7652E-03     36.6881E-03
             622     7.00990E-03     75.6312E-03    -16.3666E+06    -91.5251E+06    -4.74825E+06    -1.79155E+06    -27.2132E-03     54.1038E-03    -26.8906E-03     42.0632E-03    -27.1667E-03     53.6881E-03    -26.7579E-03     42.0055E-03
             623     7.88619E-03     75.6736E-03    -14.3000E+06    -85.5072E+06    -3.19723E+06    -1.93075E+06    -27.3171E-03     54.1964E-03    -26.8793E-03     47.3811E-03    -27.2768E-03     53.8111E-03    -26.7506E-03     47.3118E-03
             624     8.76251E-03     75.7211E-03    -12.6280E+06    -81.0253E+06    -2.20935E+06    -1.86728E+06    -27.4368E-03     54.3048E-03    -26.8681E-03     52.6754E-03    -27.4041E-03     53.9461E-03    -26.7433E-03     52.5945E-03
             625     9.63883E-03     75.7736E-03    -11.2937E+06    -77.2983E+06    -3.32292E+06    -1.81787E+06    -27.5762E-03     54.4246E-03    -26.8484E-03     57.9625E-03    -27.5523E-03     54.0958E-03    -26.7366E-03     57.8669E-03
             626     10.5151E-03     75.8312E-03    -10.3433E+06    -69.9293E+06    -5.80952E+06    -1.76088E+06    -27.7096E-03     54.5271E-03    -26.8176E-03     63.1337E-03    -27.7050E-03     54.2545E-03    -26.7302E-03     63.0197E-03
             627     11.3915E-03     75.8934E-03    -9.40556E+06    -56.1765E+06    -4.84511E+06    -1.39893E+06    -27.8778E-03     54.6723E-03    -26.7946E-03     69.6613E-03    -27.9172E-03     54.4931E-03    -26.7237E-03     69.5277E-03
             628     12.2678E-03     75.9635E-03    -8.79885E+06    -42.1398E+06    -5.90910E+06    -890.768E+03    -28.1427E-03     54.9046E-03    -26.7620E-03     77.8610E-03    -28.2417E-03     54.8400E-03    -26.7177E-03     77.7047E-03
             629     13.1441E-03     76.0414E-03    -8.64303E+06    -27.9894E+06    -12.2610E+06    -400.317E+03    -28.1607E-03     54.8651E-03    -26.7044E-03     80.1188E-03    -28.3309E-03     54.9408E-03    -26.7126E-03     79.9354E-03
             630     14.0203E-03     76.1157E-03    -8.98411E+06     3.20925E+06    -14.6051E+06     535.683E+03    -28.5957E-03     55.2371E-03    -26.6413E-03     94.1736E-03    -28.9716E-03     55.6348E-03    -26.7060E-03     93.9644E-03
             631     14.8974E-03     76.2205E-03    -9.70924E+06     59.3732E+06    -13.4488E+06     788.829E+03    -32.4217E-03     58.9801E-03    -26.5584E-03     158.599E-03    -33.8466E-03     60.6204E-03    -26.6977E-03     158.396E-03
             632     15.7729E-03     76.4185E-03    -8.84899E+06     132.293E+06     21.7169E+06     451.005E+03    -39.1735E-03     65.7843E-03    -26.6108E-03     262.047E-03    -45.6392E-03     72.6252E-03    -26.6812E-03     263.161E-03
             633     16.6515E-03     76.7282E-03    -5.25235E+06     178.526E+06     84.8615E+06     206.789E+03    -36.7442E-03     63.5653E-03    -26.8212E-03     260.696E-03    -45.5501E-03     72.7402E-03    -26.6481E-03     265.734E-03
             634     876.187E-06     76.4745E-03    -26.2241E+06    -115.501E+06    -25.8964E+06    -29.3167E+03    -26.8793E-03     53.7619E-03    -26.8826E-03     5.69923E-03    -26.8056E-03     53.2602E-03    -26.8066E-03     5.69614E-03
             635     1.75241E-03     76.4822E-03    -25.7402E+06    -114.520E+06    -24.2808E+06    -118.393E+03    -26.8984E-03     53.7803E-03    -26.8819E-03     10.5177E-03    -26.8262E-03     53.2806E-03    -26.7999E-03     10.5110E-03
             636     2.62860E-03     76.4946E-03    -24.8147E+06    -113.104E+06    -21.9606E+06    -317.781E+03    -26.9217E-03     53.8087E-03    -26.8870E-03     15.6366E-03    -26.8509E-03     53.3119E-03    -26.7968E-03     15.6245E-03
             637     3.50483E-03     76.5119E-03    -23.4290E+06    -109.220E+06    -19.5823E+06    -813.119E+03    -26.9490E-03     53.8349E-03    -26.8859E-03     20.8450E-03    -26.8812E-03     53.3529E-03    -26.7914E-03     20.8231E-03
             638     4.38107E-03     76.5342E-03    -21.8038E+06    -104.972E+06    -16.2146E+06    -1.31301E+06    -26.9913E-03     53.8784E-03    -26.8871E-03     26.1000E-03    -26.9276E-03     53.4116E-03    -26.7843E-03     26.0676E-03
             639     5.25732E-03     76.5615E-03    -20.1033E+06    -100.903E+06    -11.8829E+06    -1.61973E+06    -27.0499E-03     53.9427E-03    -26.8927E-03     31.4020E-03    -26.9917E-03     53.4893E-03    -26.7767E-03     31.3606E-03
             640     6.13360E-03     76.5938E-03    -18.1761E+06    -95.7843E+06    -7.95798E+06    -2.04443E+06    -27.1198E-03     54.0140E-03    -26.8941E-03     36.7341E-03    -27.0678E-03     53.5804E-03    -26.7687E-03     36.6811E-03
             641     7.00988E-03     76.6313E-03    -16.2668E+06    -90.9051E+06    -5.03057E+06    -2.42089E+06    -27.2092E-03     54.0999E-03    -26.8907E-03     42.0634E-03    -27.1628E-03     53.6876E-03    -26.7605E-03     41.9976E-03
             642     7.88618E-03     76.6737E-03    -14.6211E+06    -85.3247E+06    -3.58258E+06    -2.52244E+06    -27.3144E-03     54.1940E-03    -26.8795E-03     47.3777E-03    -27.2755E-03     53.8106E-03    -26.7525E-03     47.3008E-03
             643     8.76249E-03     76.7212E-03    -12.9964E+06    -80.8603E+06    -2.55915E+06    -2.47808E+06    -27.4346E-03     54.3030E-03    -26.8683E-03     52.6629E-03    -27.4035E-03     53.9461E-03    -26.7450E-03     52.5741E-03
             644     9.63880E-03     76.7737E-03    -11.5541E+06    -77.2400E+06    -3.68579E+06    -2.38941E+06    -27.5698E-03     54.4180E-03    -26.8482E-03     57.9441E-03    -27.5467E-03     54.0904E-03    -26.7379E-03     57.8411E-03
             645     10.5151E-03     76.8312E-03    -10.5552E+06    -69.8902E+06    -6.12323E+06    -2.21451E+06    -27.7154E-03     54.5329E-03    -26.8175E-03     63.1257E-03    -27.7115E-03     54.2612E-03    -26.7315E-03     63.0057E-03
             646     11.3914E-03     76.8936E-03    -9.89277E+06    -56.5891E+06    -5.46978E+06    -2.03326E+06    -27.8995E-03     54.6946E-03    -26.7950E-03     69.6962E-03    -27.9400E-03     54.5149E-03    -26.7260E-03     69.5542E-03
             647     12.2678E-03     76.9636E-03    -8.92353E+06    -42.7960E+06    -6.64698E+06    -1.48209E+06    -28.1214E-03     54.8829E-03    -26.7615E-03     77.9146E-03    -28.2190E-03     54.8162E-03    -26.7197E-03     77.7509E-03
             648     13.1441E-03     77.0416E-03    -8.49408E+06    -28.9996E+06    -13.6716E+06    -447.634E+03    -28.1166E-03     54.8145E-03    -26.6980E-03     80.2524E-03    -28.2823E-03     54.8868E-03    -26.7119E-03     80.0689E-03
             649     14.0206E-03     77.1158E-03    -8.78383E+06     2.22121E+06    -16.3031E+06     423.466E+03    -28.6442E-03     55.2769E-03    -26.6327E-03     94.3512E-03    -29.0153E-03     55.6720E-03    -26.7047E-03     94.1404E-03
             650     14.8965E-03     77.2204E-03    -8.38188E+06     59.5825E+06    -14.3176E+06     800.672E+03    -32.3880E-03     58.9379E-03    -26.5499E-03     158.826E-03    -33.8055E-03     60.5787E-03    -26.6958E-03     158.626E-03
             651     15.7737E-03     77.4192E-03    -7.52055E+06     132.602E+06     21.1125E+06     638.316E+03    -39.3652E-03     65.9719E-03    -26.6067E-03     262.122E-03    -45.8278E-03     72.8173E-03    -26.6825E-03     263.215E-03
             652     16.6488E-03     77.7270E-03    -4.68146E+06     178.894E+06     84.5964E+06     479.800E+03    -36.8221E-03     63.6493E-03    -26.8272E-03     260.452E-03    -45.6239E-03     72.8242E-03    -26.6568E-03     265.480E-03
             653     876.204E-06     77.4747E-03    -26.4431E+06    -115.357E+06    -26.1128E+06    -105.458E+03    -26.8894E-03     53.7765E-03    -26.8871E-03     5.69813E-03    -26.8166E-03     53.2761E-03    -26.8121E-03     5.69405E-03
             654     1.75237E-03     77.4823E-03    -25.7703E+06    -114.292E+06    -24.5429E+06    -217.353E+03    -26.9024E-03     53.7902E-03    -26.8878E-03     10.5211E-03    -26.8304E-03     53.2921E-03    -26.8074E-03     10.5132E-03
             655     2.62860E-03     77.4947E-03    -24.6143E+06    -112.288E+06    -21.9971E+06    -744.285E+03    -26.9241E-03     53.8154E-03    -26.8913E-03     15.6408E-03    -26.8534E-03     53.3225E-03    -26.8028E-03     15.6232E-03
             656     3.50481E-03     77.5120E-03    -23.1105E+06    -108.167E+06    -19.0398E+06    -1.47675E+06    -26.9527E-03     53.8446E-03    -26.8919E-03     20.8493E-03    -26.8856E-03     53.3667E-03    -26.7968E-03     20.8188E-03
             657     4.38104E-03     77.5343E-03    -21.5704E+06    -104.394E+06    -15.5562E+06    -1.80749E+06    -26.9953E-03     53.8897E-03    -26.8944E-03     26.1026E-03    -26.9323E-03     53.4246E-03    -26.7895E-03     26.0638E-03
             658     5.25730E-03     77.5616E-03    -19.8923E+06    -100.141E+06    -11.7842E+06    -2.09249E+06    -27.0506E-03     53.9472E-03    -26.8966E-03     31.4020E-03    -26.9926E-03     53.4973E-03    -26.7815E-03     31.3545E-03
             659     6.13357E-03     77.5940E-03    -18.1063E+06    -94.7931E+06    -8.24974E+06    -2.60963E+06    -27.1199E-03     54.0153E-03    -26.8954E-03     36.7286E-03    -27.0685E-03     53.5870E-03    -26.7729E-03     36.6682E-03
             660     7.00986E-03     77.6314E-03    -16.3096E+06    -90.4388E+06    -5.30866E+06    -2.86829E+06    -27.2091E-03     54.1016E-03    -26.8926E-03     42.0505E-03    -27.1631E-03     53.6921E-03    -26.7643E-03     41.9789E-03
             661     7.88615E-03     77.6738E-03    -14.5623E+06    -84.8663E+06    -3.85489E+06    -2.97997E+06    -27.3131E-03     54.1939E-03    -26.8808E-03     47.3654E-03    -27.2741E-03     53.8132E-03    -26.7559E-03     47.2826E-03
             662     8.76246E-03     77.7213E-03    -13.0153E+06    -80.6433E+06    -3.10255E+06    -3.09066E+06    -27.4331E-03     54.3014E-03    -26.8683E-03     52.6540E-03    -27.4016E-03     53.9464E-03    -26.7480E-03     52.5573E-03
             663     9.63879E-03     77.7738E-03    -11.7181E+06    -77.1694E+06    -4.29741E+06    -2.95964E+06    -27.5707E-03     54.4187E-03    -26.8480E-03     57.9313E-03    -27.5476E-03     54.0925E-03    -26.7406E-03     57.8209E-03
             664     10.5151E-03     77.8313E-03    -10.7402E+06    -69.9998E+06    -6.75388E+06    -2.72588E+06    -27.7085E-03     54.5255E-03    -26.8170E-03     63.1458E-03    -27.7045E-03     54.2545E-03    -26.7337E-03     63.0193E-03
             665     11.3914E-03     77.8938E-03    -9.96490E+06    -56.6682E+06    -5.97212E+06    -2.42563E+06    -27.8780E-03     54.6716E-03    -26.7936E-03     69.7500E-03    -27.9180E-03     54.4924E-03    -26.7269E-03     69.6032E-03
             666     12.2678E-03     77.9637E-03    -9.41380E+06    -43.2627E+06    -7.37921E+06    -2.31334E+06    -28.1065E-03     54.8652E-03    -26.7587E-03     77.8961E-03    -28.2047E-03     54.7978E-03    -26.7192E-03     77.7217E-03
             667     13.1443E-03     78.0415E-03    -8.35372E+06    -30.6840E+06    -14.3061E+06    -1.54176E+06    -28.1121E-03     54.8080E-03    -26.6960E-03     80.1590E-03    -28.2737E-03     54.8726E-03    -26.7109E-03     79.9613E-03
             668     14.0207E-03     78.1159E-03    -7.58980E+06     1.03592E+06    -15.8771E+06     69.3283E+03    -28.5748E-03     55.2061E-03    -26.6313E-03     94.3798E-03    -28.9387E-03     55.5928E-03    -26.7012E-03     94.1650E-03
             669     14.8972E-03     78.2211E-03    -8.57057E+06     59.5322E+06    -13.3674E+06     735.626E+03    -32.2159E-03     58.7602E-03    -26.5444E-03     158.892E-03    -33.6326E-03     60.3966E-03    -26.6851E-03     158.694E-03
             670     15.7736E-03     78.4184E-03    -8.24946E+06     132.807E+06     21.7868E+06     695.188E+03    -39.3009E-03     65.8911E-03    -26.5903E-03     263.152E-03    -45.8016E-03     72.7708E-03    -26.6619E-03     264.252E-03
             671     16.6509E-03     78.7302E-03    -5.22349E+06     179.280E+06     84.4842E+06     695.352E+03    -37.1039E-03     63.9109E-03    -26.8070E-03     260.660E-03    -45.9117E-03     73.0916E-03    -26.6370E-03     265.665E-03
             672     876.165E-06     78.4749E-03    -26.6154E+06    -114.991E+06    -26.3810E+06    -247.949E+03    -26.8962E-03     53.7851E-03    -26.8890E-03     5.69573E-03    -26.8244E-03     53.2872E-03    -26.8155E-03     5.68981E-03
             673     1.75239E-03     78.4825E-03    -25.9101E+06    -113.728E+06    -24.8216E+06    -613.905E+03    -26.9059E-03     53.7970E-03    -26.8912E-03     10.5227E-03    -26.8349E-03     53.3024E-03    -26.8128E-03     10.5096E-03
             674     2.62857E-03     78.4949E-03    -24.8185E+06    -110.974E+06    -22.4465E+06    -1.28314E+06    -26.9247E-03     53.8171E-03    -26.8924E-03     15.6417E-03    -26.8563E-03     53.3317E-03    -26.8077E-03     15.6171E-03
             675     3.50480E-03     78.5122E-03    -23.6061E+06    -107.060E+06    -19.3726E+06    -1.92764E+06    -26.9537E-03     53.8477E-03    -26.8940E-03     20.8494E-03    -26.8901E-03     53.3764E-03    -26.8014E-03     20.8131E-03
             676     4.38102E-03     78.5344E-03    -22.1196E+06    -103.815E+06    -15.5967E+06    -2.22594E+06    -26.9981E-03     53.8970E-03    -26.8989E-03     26.1015E-03    -26.9385E-03     53.4356E-03    -26.7943E-03     26.0572E-03
             677     5.25727E-03     78.5617E-03    -20.3723E+06    -99.1016E+06    -12.0737E+06    -2.62015E+06    -27.0527E-03     53.9521E-03    -26.8993E-03     31.3980E-03    -26.9982E-03     53.5084E-03    -26.7865E-03     31.3437E-03
             678     6.13354E-03     78.5941E-03    -18.5707E+06    -93.8727E+06    -8.85322E+06    -3.05527E+06    -27.1213E-03     54.0181E-03    -26.8967E-03     36.7243E-03    -27.0727E-03     53.5959E-03    -26.7779E-03     36.6581E-03
             679     7.00981E-03     78.6315E-03     -16.748E+06    -89.7350E+06    -6.14166E+06    -3.45264E+06    -27.2095E-03     54.1024E-03    -26.8928E-03     42.0495E-03    -27.1656E-03     53.6982E-03    -26.7691E-03     41.9703E-03
             680     7.88611E-03     78.6739E-03    -14.8823E+06    -84.3697E+06    -4.71897E+06    -3.68315E+06    -27.3096E-03     54.1902E-03    -26.8806E-03     47.3675E-03    -27.2717E-03     53.8136E-03    -26.7603E-03     47.2755E-03
             681     8.76243E-03     78.7214E-03    -13.2100E+06    -80.2933E+06    -3.75391E+06    -3.66320E+06    -27.4291E-03     54.2975E-03    -26.8684E-03     52.6515E-03    -27.3981E-03     53.9455E-03    -26.7516E-03     52.5474E-03
             682     9.63874E-03     78.7739E-03    -11.8709E+06    -77.1449E+06    -4.93166E+06    -3.55749E+06    -27.5675E-03     54.4155E-03    -26.8480E-03     57.9326E-03    -27.5444E-03     54.0906E-03    -26.7436E-03     57.8145E-03
             683     10.5151E-03     78.8314E-03    -10.8018E+06    -69.9424E+06    -7.34738E+06    -3.39036E+06    -27.6973E-03     54.5136E-03    -26.8162E-03     63.1490E-03    -27.6928E-03     54.2437E-03    -26.7359E-03     63.0140E-03
             684     11.3914E-03     78.8938E-03    -9.87902E+06    -57.0564E+06    -6.55705E+06    -3.00579E+06    -27.8483E-03     54.6398E-03    -26.7915E-03     69.7386E-03    -27.8863E-03     54.4592E-03    -26.7272E-03     69.5845E-03
             685     12.2678E-03     78.9639E-03    -9.46097E+06    -43.3292E+06    -7.85522E+06    -2.36920E+06    -28.1105E-03     54.8663E-03    -26.7558E-03     77.9038E-03    -28.2082E-03     54.7994E-03    -26.7185E-03     77.7287E-03
             686     13.1441E-03     79.0416E-03    -10.2583E+06    -31.4151E+06    -15.5351E+06    -2.20788E+06    -28.1313E-03     54.8252E-03    -26.6939E-03     80.2075E-03    -28.3000E-03     54.8910E-03    -26.7111E-03     80.0009E-03
             687     14.0203E-03     79.1161E-03    -10.2769E+06    -1.11040E+06    -17.9142E+06    -1.25396E+06    -28.4798E-03     55.1064E-03    -26.6267E-03     94.3216E-03    -28.8503E-03     55.4884E-03    -26.6997E-03     94.0908E-03
             688     14.8972E-03     79.2205E-03    -8.90383E+06     58.9339E+06    -14.9385E+06     226.081E+03    -32.1445E-03     58.6773E-03    -26.5327E-03     158.538E-03    -33.5568E-03     60.3104E-03    -26.6800E-03     158.333E-03
             689     15.7743E-03     79.4190E-03    -7.83307E+06     132.535E+06     19.9298E+06     978.505E+03    -39.1509E-03     65.7237E-03    -26.5728E-03     262.480E-03    -45.6271E-03     72.5848E-03    -26.6540E-03     263.595E-03
             690     16.6514E-03     79.7294E-03    -5.41019E+06     179.633E+06     83.7570E+06     983.617E+03    -37.0868E-03     63.8826E-03    -26.7958E-03     259.697E-03    -45.8566E-03     73.0279E-03    -26.6296E-03     264.688E-03
             691     876.207E-06     79.4751E-03    -27.0563E+06    -114.291E+06    -26.7495E+06    -432.920E+03    -26.8988E-03     53.7893E-03    -26.8905E-03     5.69466E-03    -26.8297E-03     53.2960E-03    -26.8193E-03     5.68635E-03
             692     1.75235E-03     79.4826E-03    -26.4197E+06    -112.585E+06    -25.3940E+06    -1.01336E+06    -26.9078E-03     53.7999E-03    -26.8921E-03     10.5201E-03    -26.8403E-03     53.3125E-03    -26.8175E-03     10.5019E-03
             693     2.62858E-03     79.4950E-03    -25.5214E+06    -109.620E+06    -23.2691E+06    -1.68487E+06    -26.9247E-03     53.8168E-03    -26.8921E-03     15.6403E-03    -26.8606E-03     53.3404E-03    -26.8125E-03     15.6105E-03
             694     3.50477E-03     79.5123E-03    -24.3496E+06    -105.934E+06    -20.0395E+06    -2.19489E+06    -26.9543E-03     53.8492E-03    -26.8948E-03     20.8465E-03    -26.8952E-03     53.3856E-03    -26.8061E-03     20.8067E-03
             695     4.38101E-03     79.5346E-03    -22.8116E+06    -102.882E+06    -16.1373E+06    -2.70447E+06    -27.0003E-03     53.9011E-03    -26.9008E-03     26.0974E-03    -26.9448E-03     53.4462E-03    -26.7992E-03     26.0470E-03
             696     5.25724E-03     79.5619E-03    -20.9832E+06    -97.9901E+06    -12.6787E+06    -3.16847E+06    -27.0544E-03     53.9551E-03    -26.9007E-03     31.3957E-03    -27.0037E-03     53.5188E-03    -26.7916E-03     31.3343E-03
             697     6.13350E-03     79.5942E-03    -19.0072E+06    -92.8199E+06     -9.5601E+06    -3.71048E+06    -27.1209E-03     54.0181E-03    -26.8973E-03     36.7250E-03    -27.0749E-03     53.6030E-03    -26.7829E-03     36.6504E-03
             698     7.00979E-03     79.6316E-03    -16.9998E+06    -88.7934E+06    -6.85227E+06    -4.14980E+06    -27.2078E-03     54.1006E-03    -26.8928E-03     42.0547E-03    -27.1655E-03     53.7025E-03    -26.7736E-03     41.9665E-03
             699     7.88608E-03     79.6741E-03    -15.2604E+06    -83.7854E+06    -5.45304E+06    -4.38746E+06    -27.3072E-03     54.1878E-03    -26.8806E-03     47.3691E-03    -27.2710E-03     53.8158E-03    -26.7642E-03     47.2681E-03
             700     8.76239E-03     79.7215E-03    -13.6463E+06    -79.9615E+06    -4.63129E+06    -4.42520E+06    -27.4234E-03     54.2909E-03    -26.8675E-03     52.6623E-03    -27.3938E-03     53.9424E-03    -26.7549E-03     52.5485E-03
             701     9.63873E-03     79.7740E-03    -12.0858E+06    -76.8518E+06    -5.74557E+06    -4.40580E+06    -27.5615E-03     54.4078E-03    -26.8464E-03     57.9380E-03    -27.5386E-03     54.0859E-03    -26.7462E-03     57.8089E-03
             702     10.5151E-03     79.8315E-03    -10.8825E+06    -70.0251E+06    -8.25435E+06    -4.17132E+06    -27.6931E-03     54.5069E-03    -26.8139E-03     63.1471E-03    -27.6875E-03     54.2381E-03    -26.7378E-03     63.0019E-03
             703     11.3914E-03     79.8939E-03     -9.8473E+06    -57.1972E+06    -7.32089E+06    -3.88922E+06    -27.8396E-03     54.6287E-03    -26.7891E-03     69.7221E-03    -27.8762E-03     54.4485E-03    -26.7285E-03     69.5566E-03
             704     12.2678E-03     79.9638E-03    -8.43813E+06    -44.4064E+06    -8.54516E+06    -3.10238E+06    -28.0818E-03     54.8337E-03    -26.7519E-03     77.9658E-03    -28.1717E-03     54.7608E-03    -26.7180E-03     77.7815E-03
             705     13.1443E-03     80.0420E-03    -7.39735E+06    -31.5325E+06    -15.3007E+06    -1.85924E+06    -28.0961E-03     54.7838E-03    -26.6877E-03     80.1992E-03    -28.2502E-03     54.8440E-03    -26.7077E-03     79.9977E-03
             706     14.0209E-03     80.1157E-03    -8.06854E+06    -1.95566E+06    -20.6782E+06    -1.71864E+06    -28.5695E-03     55.1778E-03    -26.6083E-03     94.2601E-03    -28.9233E-03     55.5560E-03    -26.6972E-03     94.0230E-03
             707     14.8970E-03     80.2208E-03    -9.28358E+06     56.6118E+06    -18.8909E+06    -529.633E+03    -32.3881E-03     58.9117E-03    -26.5236E-03     158.550E-03    -33.7966E-03     60.5430E-03    -26.6867E-03     158.331E-03
             708     15.7732E-03     80.4184E-03    -9.14410E+06     131.923E+06     19.0339E+06     1.09916E+06    -39.4295E-03     66.0220E-03    -26.5925E-03     262.324E-03    -45.9095E-03     72.8826E-03    -26.6753E-03     263.425E-03
             709     16.6492E-03     80.7296E-03    -5.66847E+06     180.273E+06     83.6195E+06     735.004E+03    -36.8577E-03     63.6743E-03    -26.8166E-03     260.046E-03    -45.6435E-03     72.8375E-03    -26.6517E-03     265.063E-03
             710     876.149E-06     80.4752E-03    -27.6898E+06    -113.155E+06    -27.4948E+06    -620.754E+03    -26.8983E-03     53.7908E-03    -26.8924E-03     5.69304E-03    -26.8330E-03     53.3052E-03    -26.8257E-03     5.68230E-03
             711     1.75238E-03     80.4828E-03    -27.0409E+06    -111.027E+06    -26.1105E+06    -1.38792E+06    -26.9073E-03     53.7991E-03    -26.8918E-03     10.5188E-03    -26.8441E-03     53.3215E-03    -26.8222E-03     10.4957E-03
             712     2.62854E-03     80.4952E-03    -26.0197E+06    -108.257E+06    -23.4594E+06    -2.05020E+06    -26.9274E-03     53.8221E-03    -26.8947E-03     15.6387E-03    -26.8674E-03     53.3535E-03    -26.8173E-03     15.6041E-03
             713     3.50477E-03     80.5125E-03    -24.6062E+06    -104.670E+06    -20.1807E+06    -2.62336E+06    -26.9579E-03     53.8558E-03    -26.8980E-03     20.8444E-03    -26.9016E-03     53.3992E-03    -26.8114E-03     20.7990E-03
             714     4.38097E-03     80.5348E-03    -22.9185E+06    -101.553E+06    -16.5405E+06    -3.22251E+06    -27.0016E-03     53.9039E-03    -26.9023E-03     26.0964E-03    -26.9480E-03     53.4564E-03    -26.8045E-03     26.0392E-03
             715     5.25722E-03     80.5620E-03    -21.0874E+06    -96.8316E+06    -13.1337E+06    -3.79205E+06    -27.0540E-03     53.9557E-03    -26.9017E-03     31.3963E-03    -27.0048E-03     53.5260E-03    -26.7964E-03     31.3268E-03
             716     6.13348E-03     80.5944E-03    -19.2194E+06    -91.3982E+06    -9.94802E+06    -4.40865E+06    -27.1193E-03     54.0172E-03    -26.8978E-03     36.7265E-03    -27.0760E-03     53.6100E-03    -26.7872E-03     36.6428E-03
             717     7.00975E-03     80.6317E-03    -17.3666E+06    -87.8806E+06    -7.35891E+06    -4.91803E+06    -27.2048E-03     54.0980E-03    -26.8932E-03     42.0561E-03    -27.1648E-03     53.7058E-03    -26.7774E-03     41.9580E-03
             718     7.88606E-03     80.6742E-03    -15.4506E+06    -82.9644E+06    -5.97107E+06    -5.15988E+06    -27.3041E-03     54.1844E-03    -26.8803E-03     47.3728E-03    -27.2693E-03     53.8175E-03    -26.7675E-03     47.2618E-03
             719     8.76237E-03     80.7216E-03    -13.6202E+06    -79.4342E+06    -5.03850E+06    -5.36714E+06    -27.4209E-03     54.2883E-03    -26.8674E-03     52.6624E-03    -27.3914E-03     53.9431E-03    -26.7577E-03     52.5364E-03
             720     9.63871E-03     80.7741E-03    -12.1273E+06    -76.5012E+06    -6.15261E+06    -5.30585E+06    -27.5586E-03     54.4048E-03    -26.8462E-03     57.9427E-03    -27.5359E-03     54.0853E-03    -26.7484E-03     57.8021E-03
             721     10.5150E-03     80.8316E-03    -10.9763E+06    -70.0841E+06    -8.54192E+06    -5.07540E+06    -27.6873E-03     54.5017E-03    -26.8144E-03     63.1346E-03    -27.6817E-03     54.2331E-03    -26.7396E-03     62.9778E-03
             722     11.3914E-03     80.8939E-03    -10.1058E+06    -57.2147E+06    -7.62241E+06    -4.69039E+06    -27.8473E-03     54.6371E-03    -26.7898E-03     69.7146E-03    -27.8847E-03     54.4576E-03    -26.7303E-03     69.5387E-03
             723     12.2678E-03     80.9639E-03    -9.49718E+06    -45.0480E+06    -8.93571E+06    -4.46274E+06    -28.0601E-03     54.8141E-03    -26.7539E-03     77.8845E-03    -28.1537E-03     54.7400E-03    -26.7195E-03     77.6828E-03
             724     13.1443E-03     81.0418E-03    -8.57586E+06    -33.2232E+06    -15.5779E+06    -3.46857E+06    -28.0932E-03     54.7847E-03    -26.6915E-03     80.0994E-03    -28.2500E-03     54.8384E-03    -26.7088E-03     79.8772E-03
             725     14.0205E-03     81.1161E-03    -8.69470E+06    -2.78668E+06    -17.7049E+06    -1.11809E+06    -28.6516E-03     55.2811E-03    -26.6295E-03     94.0656E-03    -29.0126E-03     55.6527E-03    -26.7014E-03     93.8346E-03
             726     14.8972E-03     81.2207E-03    -10.4541E+06     54.7366E+06    -17.2837E+06     451.577E+03    -32.4352E-03     58.9792E-03    -26.5440E-03     158.644E-03    -33.8507E-03     60.6020E-03    -26.6946E-03     158.436E-03
             727     15.7733E-03     81.4196E-03    -9.83764E+06     131.553E+06     17.8397E+06     509.951E+03    -39.2654E-03     65.8551E-03    -26.5897E-03     263.057E-03    -45.7631E-03     72.7332E-03    -26.6770E-03     264.169E-03
             728     16.6507E-03     81.7296E-03    -5.75106E+06     181.136E+06     83.4521E+06    -28.3390E+03    -36.8389E-03     63.6460E-03    -26.8071E-03     260.705E-03    -45.6498E-03     72.8375E-03    -26.6442E-03     265.728E-03
             729     876.202E-06     81.4754E-03    -27.9265E+06    -111.449E+06    -27.8704E+06    -970.225E+03    -26.8959E-03     53.7933E-03    -26.8974E-03     5.69169E-03    -26.8336E-03     53.3171E-03    -26.8347E-03     5.67642E-03
             730     1.75233E-03     81.4830E-03    -27.2997E+06    -109.220E+06    -26.1915E+06    -1.77034E+06    -26.9095E-03     53.8037E-03    -26.8942E-03     10.5182E-03    -26.8501E-03     53.3356E-03    -26.8272E-03     10.4901E-03
             731     2.62856E-03     81.4954E-03    -26.2447E+06    -106.751E+06    -23.5106E+06    -2.44867E+06    -26.9309E-03     53.8290E-03    -26.8981E-03     15.6369E-03    -26.8742E-03     53.3684E-03    -26.8228E-03     15.5972E-03
             732     3.50472E-03     81.5127E-03    -24.8182E+06    -103.008E+06    -20.5129E+06    -3.20800E+06    -26.9593E-03     53.8591E-03    -26.8998E-03     20.8441E-03    -26.9060E-03     53.4116E-03    -26.8170E-03     20.7912E-03
             733     4.38097E-03     81.5349E-03    -23.0110E+06    -100.061E+06    -16.9146E+06    -3.95436E+06    -27.0014E-03     53.9049E-03    -26.9035E-03     26.0946E-03    -26.9498E-03     53.4655E-03    -26.8096E-03     26.0280E-03
             734     5.25719E-03     81.5622E-03    -20.9817E+06    -95.4230E+06    -13.2669E+06    -4.54889E+06    -27.0531E-03     53.9565E-03    -26.9034E-03     31.3928E-03    -27.0053E-03     53.5339E-03    -26.8009E-03     31.3135E-03
             735     6.13346E-03     81.5945E-03    -19.0274E+06    -90.0591E+06    -9.92605E+06    -5.02060E+06    -27.1181E-03     54.0178E-03    -26.8997E-03     36.7201E-03    -27.0758E-03     53.6170E-03    -26.7911E-03     36.6285E-03
             736     7.00974E-03     81.6319E-03    -17.1967E+06    -86.5511E+06    -7.22896E+06    -5.57077E+06    -27.2033E-03     54.0985E-03    -26.8952E-03     42.0457E-03    -27.1646E-03     53.7125E-03    -26.7809E-03     41.9391E-03
             737     7.88604E-03     81.6743E-03    -15.3822E+06    -82.0042E+06    -6.15772E+06    -6.12528E+06    -27.3005E-03     54.1814E-03    -26.8809E-03     47.3691E-03    -27.2665E-03     53.8195E-03    -26.7704E-03     47.2456E-03
             738     8.76235E-03     81.7218E-03    -13.6952E+06    -78.6906E+06    -5.32849E+06    -6.27122E+06    -27.4183E-03     54.2858E-03    -26.8675E-03     52.6624E-03    -27.3898E-03     53.9448E-03    -26.7601E-03     52.5247E-03
             739     9.63867E-03     81.7742E-03    -12.2664E+06    -76.2723E+06    -6.59620E+06    -6.17740E+06    -27.5541E-03     54.4000E-03    -26.8459E-03     57.9445E-03    -27.5318E-03     54.0824E-03    -26.7505E-03     57.7926E-03
             740     10.5150E-03     81.8317E-03    -11.1881E+06    -69.8532E+06    -9.04243E+06    -5.93174E+06    -27.6950E-03     54.5089E-03    -26.8139E-03     63.1296E-03    -27.6900E-03     54.2425E-03    -26.7416E-03     62.9617E-03
             741     11.3913E-03     81.8939E-03    -10.3429E+06    -57.6143E+06    -8.30855E+06    -5.43331E+06    -27.8642E-03     54.6544E-03    -26.7901E-03     69.7035E-03    -27.9013E-03     54.4743E-03    -26.7332E-03     69.5179E-03
             742     12.2677E-03     81.9640E-03    -9.94244E+06    -44.9781E+06    -9.66511E+06    -4.69330E+06    -28.0948E-03     54.8503E-03    -26.7555E-03     77.8114E-03    -28.1898E-03     54.7784E-03    -26.7242E-03     77.6064E-03
             743     13.1441E-03     82.0417E-03    -10.8224E+06    -34.5089E+06    -17.8618E+06    -4.07152E+06    -28.1329E-03     54.8253E-03    -26.6924E-03     80.1566E-03    -28.2960E-03     54.8793E-03    -26.7160E-03     79.9263E-03
             744     14.0205E-03     82.1164E-03    -10.8644E+06    -6.24615E+06    -21.0023E+06    -2.16276E+06    -28.6763E-03     55.3061E-03    -26.6298E-03     94.3000E-03    -29.0391E-03     55.6691E-03    -26.7100E-03     94.0554E-03
             745     14.8965E-03     82.2209E-03    -9.13722E+06     53.7699E+06    -19.4307E+06     37.2250E+03    -32.3017E-03     58.8392E-03    -26.5375E-03     158.606E-03    -33.7035E-03     60.4558E-03    -26.6993E-03     158.397E-03
             746     15.7738E-03     82.4191E-03    -7.41410E+06     132.041E+06     15.0867E+06     423.729E+03    -39.0016E-03     65.5683E-03    -26.5667E-03     262.497E-03    -45.4630E-03     72.4283E-03    -26.6720E-03     263.617E-03
             747     16.6511E-03     82.7294E-03    -4.69713E+06     181.508E+06     81.8577E+06     221.540E+03    -36.8560E-03     63.6445E-03    -26.7885E-03     260.235E-03    -45.6386E-03     72.8173E-03    -26.6356E-03     265.246E-03
             748     876.136E-06     82.4756E-03    -27.9758E+06    -109.205E+06    -27.6442E+06    -1.26333E+06    -26.8996E-03     53.7988E-03    -26.8992E-03     5.69428E-03    -26.8411E-03     53.3336E-03    -26.8385E-03     5.67522E-03
             749     1.75237E-03     82.4832E-03    -27.3694E+06    -107.262E+06    -26.1594E+06    -2.01331E+06    -26.9135E-03     53.8112E-03    -26.8976E-03     10.5179E-03    -26.8573E-03     53.3529E-03    -26.8332E-03     10.4867E-03
             750     2.62850E-03     82.4956E-03    -26.3390E+06    -104.843E+06    -23.7599E+06    -2.89411E+06    -26.9323E-03     53.8326E-03    -26.9003E-03     15.6361E-03    -26.8785E-03     53.3820E-03    -26.8289E-03     15.5907E-03
             751     3.50474E-03     82.5129E-03    -24.9126E+06    -101.041E+06    -20.7735E+06    -3.78949E+06    -26.9589E-03     53.8601E-03    -26.9012E-03     20.8429E-03    -26.9086E-03     53.4229E-03    -26.8224E-03     20.7824E-03
             752     4.38092E-03     82.5351E-03    -23.3110E+06    -98.2272E+06    -17.1489E+06    -4.66456E+06    -27.0004E-03     53.9054E-03    -26.9050E-03     26.0913E-03    -26.9527E-03     53.4759E-03    -26.8145E-03     26.0155E-03
             753     5.25717E-03     82.5624E-03    -21.4903E+06    -93.8720E+06    -13.7436E+06    -5.38049E+06    -27.0509E-03     53.9548E-03    -26.9039E-03     31.3904E-03    -27.0071E-03     53.5414E-03    -26.8054E-03     31.3004E-03
             754     6.13342E-03     82.5947E-03    -19.3757E+06    -88.6771E+06    -10.4325E+06    -5.91968E+06    -27.1142E-03     54.0138E-03    -26.8996E-03     36.7169E-03    -27.0749E-03     53.6211E-03    -26.7951E-03     36.6136E-03
             755     7.00971E-03     82.6320E-03    -17.1425E+06     -85.037E+06    -7.52792E+06    -6.44838E+06    -27.1981E-03     54.0927E-03    -26.8946E-03     42.0437E-03    -27.1609E-03     53.7146E-03    -26.7841E-03     41.9259E-03
             756     7.88600E-03     82.6744E-03    -15.2649E+06    -80.7557E+06    -6.40077E+06    -6.90991E+06    -27.2954E-03     54.1756E-03    -26.8801E-03     47.3673E-03    -27.2623E-03     53.8201E-03    -26.7729E-03     47.2337E-03
             757     8.76234E-03     82.7218E-03    -13.6580E+06    -77.9864E+06    -5.94856E+06    -7.15856E+06    -27.4096E-03     54.2745E-03    -26.8649E-03     52.6742E-03    -27.3811E-03     53.9378E-03    -26.7617E-03     52.5251E-03
             758     9.63867E-03     82.7743E-03    -12.1662E+06    -75.7179E+06    -7.25108E+06    -7.16023E+06    -27.5536E-03     54.3961E-03    -26.8426E-03     57.9631E-03    -27.5305E-03     54.0822E-03    -26.7514E-03     57.7986E-03
             759     10.5150E-03     82.8317E-03    -10.9614E+06    -69.8525E+06    -9.91823E+06    -6.85064E+06    -27.7073E-03     54.5177E-03    -26.8104E-03     63.1771E-03    -27.7000E-03     54.2523E-03    -26.7428E-03     62.9973E-03
             760     11.3913E-03     82.8942E-03    -9.96939E+06    -57.7875E+06    -9.02063E+06    -6.30946E+06    -27.8819E-03     54.6701E-03    -26.7882E-03     69.7492E-03    -27.9158E-03     54.4897E-03    -26.7351E-03     69.5523E-03
             761     12.2677E-03     82.9639E-03    -8.83602E+06    -45.9534E+06    -10.3292E+06    -5.35797E+06    -28.1454E-03     54.9010E-03    -26.7557E-03     77.8753E-03    -28.2326E-03     54.8237E-03    -26.7279E-03     77.6615E-03
             762     13.1440E-03     83.0420E-03    -7.86610E+06    -35.1695E+06    -17.4188E+06    -3.92969E+06    -28.1513E-03     54.8474E-03    -26.6961E-03     80.2009E-03    -28.2995E-03     54.8934E-03    -26.7208E-03     79.9722E-03
             763     14.0203E-03     83.1162E-03    -7.81996E+06    -8.41553E+06    -23.0885E+06    -3.13967E+06    -28.5584E-03     55.1765E-03    -26.6181E-03     94.5095E-03    -28.8988E-03     55.5262E-03    -26.7100E-03     94.2541E-03
             764     14.8972E-03     83.2214E-03    -8.25569E+06     51.3886E+06    -22.6276E+06    -1.46683E+06    -32.2912E-03     58.8094E-03    -26.5182E-03     158.784E-03    -33.6808E-03     60.4177E-03    -26.6939E-03     158.556E-03
             765     15.7732E-03     83.4185E-03    -8.22997E+06     131.993E+06     14.5438E+06     167.797E+03    -39.3833E-03     65.9528E-03    -26.5695E-03     262.515E-03    -45.8592E-03     72.8259E-03    -26.6763E-03     263.609E-03
             766     16.6497E-03     83.7294E-03    -5.28831E+06     181.530E+06     81.3954E+06     221.893E+03    -36.7432E-03     63.5417E-03    -26.7985E-03     260.211E-03    -45.5331E-03     72.7213E-03    -26.6471E-03     265.230E-03
             767     876.200E-06     83.4759E-03    -28.1533E+06    -106.657E+06    -27.8256E+06    -1.29181E+06    -26.9049E-03     53.8020E-03    -26.8971E-03     5.69554E-03    -26.8508E-03     53.3501E-03    -26.8407E-03     5.67611E-03
             768     1.75230E-03     83.4834E-03    -27.5425E+06    -105.044E+06    -26.4048E+06    -2.28009E+06    -26.9152E-03     53.8145E-03    -26.8993E-03     10.5176E-03    -26.8627E-03     53.3679E-03    -26.8391E-03     10.4829E-03
             769     2.62853E-03     83.4958E-03    -26.5158E+06    -102.487E+06    -24.0362E+06    -3.32149E+06    -26.9320E-03     53.8331E-03    -26.9012E-03     15.6349E-03    -26.8820E-03     53.3949E-03    -26.8343E-03     15.5839E-03
             770     3.50468E-03     83.5130E-03    -25.1773E+06    -98.8455E+06    -21.0716E+06    -4.37415E+06    -26.9572E-03     53.8590E-03    -26.9018E-03     20.8410E-03    -26.9110E-03     53.4336E-03    -26.8273E-03     20.7730E-03
             771     4.38093E-03     83.5353E-03    -23.5123E+06    -96.1559E+06    -17.4247E+06    -5.24280E+06    -26.9977E-03     53.9029E-03    -26.9051E-03     26.0881E-03    -26.9536E-03     53.4845E-03    -26.8187E-03     26.0048E-03
             772     5.25714E-03     83.5625E-03    -21.7130E+06    -91.9855E+06    -14.1037E+06    -6.08227E+06    -27.0468E-03     53.9501E-03    -26.9033E-03     31.3894E-03    -27.0064E-03     53.5470E-03    -26.8090E-03     31.2903E-03
             773     6.13341E-03     83.5948E-03    -19.7605E+06    -86.8541E+06    -11.2405E+06     -6.9778E+06    -27.1059E-03     54.0021E-03    -26.8962E-03     36.7265E-03    -27.0700E-03     53.6203E-03    -26.7978E-03     36.6096E-03
             774     7.00969E-03     83.6321E-03    -17.6840E+06    -83.6018E+06    -8.50011E+06    -7.58213E+06    -27.1869E-03     54.0769E-03    -26.8900E-03     42.0588E-03    -27.1531E-03     53.7082E-03    -26.7857E-03     41.9263E-03
             775     7.88602E-03     83.6745E-03    -15.5854E+06    -79.4421E+06    -7.06170E+06    -7.91333E+06    -27.2845E-03     54.1603E-03    -26.8759E-03     47.3836E-03    -27.2538E-03     53.8128E-03    -26.7734E-03     47.2371E-03
             776     8.76232E-03     83.7219E-03    -13.6667E+06    -76.9378E+06    -6.46750E+06    -8.24112E+06    -27.4015E-03     54.2619E-03    -26.8604E-03     52.6867E-03    -27.3737E-03     53.9313E-03    -26.7614E-03     52.5237E-03
             777     9.63870E-03     83.7743E-03    -12.0393E+06    -75.1284E+06    -7.73385E+06    -8.30333E+06    -27.5453E-03     54.3834E-03    -26.8380E-03     58.0046E-03    -27.5218E-03     54.0728E-03    -26.7503E-03     57.8254E-03
             778     10.5150E-03     83.8319E-03    -10.7788E+06    -69.7563E+06    -10.2535E+06    -7.98575E+06    -27.7006E-03     54.5071E-03    -26.8065E-03     63.2425E-03    -27.6920E-03     54.2424E-03    -26.7410E-03     63.0481E-03
             779     11.3914E-03     83.8941E-03    -9.77528E+06    -58.1063E+06    -9.37403E+06    -7.30341E+06    -27.8875E-03     54.6721E-03    -26.7846E-03     69.8313E-03    -27.9195E-03     54.4903E-03    -26.7330E-03     69.6215E-03
             780     12.2677E-03     83.9642E-03    -9.17064E+06    -46.8067E+06    -10.6458E+06    -6.43587E+06    -28.1457E-03     54.8995E-03    -26.7538E-03     78.0089E-03    -28.2331E-03     54.8190E-03    -26.7259E-03     77.7811E-03
             781     13.1440E-03     84.0419E-03    -8.66741E+06    -36.6094E+06    -17.5456E+06    -5.38763E+06    -28.1104E-03     54.8058E-03    -26.6954E-03     80.2802E-03    -28.2605E-03     54.8460E-03    -26.7175E-03     80.0329E-03
             782     14.0206E-03     84.1163E-03    -8.24863E+06    -9.69849E+06    -20.6924E+06    -3.39899E+06    -28.5092E-03     55.1360E-03    -26.6268E-03     94.4460E-03    -28.8532E-03     55.4763E-03    -26.7042E-03     94.1875E-03
             783     14.8971E-03     84.2208E-03    -9.28954E+06     49.0777E+06    -22.3955E+06    -1.62274E+06    -32.2497E-03     58.7661E-03    -26.5164E-03     158.761E-03    -33.6408E-03     60.3634E-03    -26.6861E-03     158.531E-03
             784     15.7740E-03     84.4197E-03    -8.81476E+06     130.941E+06     12.0196E+06    -461.825E+03    -39.2022E-03     65.7450E-03    -26.5428E-03     263.315E-03    -45.6940E-03     72.6355E-03    -26.6598E-03     264.415E-03
             785     16.6501E-03     84.7300E-03    -5.17190E+06     181.879E+06     80.8957E+06     44.4117E+03    -36.8842E-03     63.6568E-03    -26.7726E-03     260.978E-03    -45.6958E-03     72.8612E-03    -26.6244E-03     265.998E-03
             786     876.119E-06     84.4761E-03    -28.2482E+06    -103.924E+06    -27.9717E+06    -1.38226E+06    -26.9032E-03     53.8030E-03    -26.8998E-03     5.69826E-03    -26.8533E-03     53.3651E-03    -26.8480E-03     5.67765E-03
             787     1.75235E-03     84.4837E-03    -27.6278E+06    -102.388E+06    -26.5242E+06    -2.55833E+06    -26.9147E-03     53.8143E-03    -26.8996E-03     10.5159E-03    -26.8663E-03     53.3813E-03    -26.8437E-03     10.4776E-03
             788     2.62847E-03     84.4960E-03    -26.6503E+06    -99.8852E+06    -24.2338E+06    -3.74459E+06    -26.9302E-03     53.8309E-03    -26.9007E-03     15.6334E-03    -26.8844E-03     53.4062E-03    -26.8384E-03     15.5770E-03
             789     3.50471E-03     84.5133E-03    -25.3310E+06    -96.2841E+06    -21.3681E+06    -4.89627E+06    -26.9534E-03     53.8536E-03    -26.9002E-03     20.8402E-03    -26.9112E-03     53.4416E-03    -26.8307E-03     20.7655E-03
             790     4.38088E-03     84.5355E-03    -23.6932E+06    -93.9118E+06    -17.8908E+06    -5.97494E+06    -26.9913E-03     53.8936E-03    -26.9023E-03     26.0912E-03    -26.9506E-03     53.4873E-03    -26.8212E-03     25.9984E-03
             791     5.25715E-03     84.5627E-03    -21.6512E+06    -89.6819E+06    -14.4482E+06    -6.95900E+06    -27.0371E-03     53.9365E-03    -26.8994E-03     31.3960E-03    -26.9992E-03     53.5453E-03    -26.8102E-03     31.2856E-03
             792     6.13340E-03     84.5950E-03    -19.5983E+06    -84.6921E+06    -11.3488E+06    -7.88874E+06    -27.0954E-03     53.9876E-03    -26.8922E-03     36.7329E-03    -27.0617E-03     53.6166E-03    -26.7977E-03     36.6043E-03
             793     7.00971E-03     84.6323E-03    -17.6056E+06    -81.9169E+06    -8.69851E+06    -8.63927E+06    -27.1751E-03     54.0604E-03    -26.8853E-03     42.0683E-03    -27.1431E-03     53.7003E-03    -26.7845E-03     41.9222E-03
             794     7.88601E-03     84.6746E-03    -15.6416E+06    -78.0497E+06    -7.36146E+06    -9.13071E+06    -27.2709E-03     54.1411E-03    -26.8702E-03     47.4016E-03    -27.2422E-03     53.8011E-03    -26.7711E-03     47.2394E-03
             795     8.76238E-03     84.7220E-03    -13.7839E+06    -75.6051E+06    -6.67896E+06    -9.46716E+06    -27.3911E-03     54.2457E-03    -26.8545E-03     52.7132E-03    -27.3656E-03     53.9222E-03    -26.7583E-03     52.5343E-03
             796     9.63868E-03     84.7744E-03    -12.1579E+06    -74.5048E+06    -8.16356E+06    -9.55884E+06    -27.5285E-03     54.3597E-03    -26.8313E-03     58.0365E-03    -27.5058E-03     54.0531E-03    -26.7464E-03     57.8412E-03
             797     10.5151E-03     84.8319E-03    -10.8509E+06    -69.5660E+06    -10.7255E+06    -9.19409E+06    -27.6763E-03     54.4750E-03    -26.7987E-03     63.3126E-03    -27.6677E-03     54.2119E-03    -26.7357E-03     63.1029E-03
             798     11.3914E-03     84.8943E-03    -9.77365E+06    -58.5673E+06    -10.0475E+06    -8.45609E+06    -27.8623E-03     54.6371E-03    -26.7748E-03     69.9336E-03    -27.8926E-03     54.4539E-03    -26.7260E-03     69.7092E-03
             799     12.2678E-03     84.9642E-03    -8.79767E+06    -47.6570E+06    -11.3776E+06    -7.22123E+06    -28.0983E-03     54.8395E-03    -26.7412E-03     78.1122E-03    -28.1813E-03     54.7552E-03    -26.7163E-03     77.8748E-03
             800     13.1442E-03     85.0422E-03    -8.82867E+06    -37.3869E+06    -19.1149E+06    -6.00078E+06    -28.1265E-03     54.8049E-03    -26.6785E-03     80.2811E-03    -28.2739E-03     54.8437E-03    -26.7070E-03     80.0259E-03
             801     14.0207E-03     85.1160E-03    -8.91212E+06    -11.8526E+06    -23.0070E+06    -4.65585E+06    -28.6187E-03     55.2319E-03    -26.6133E-03     94.3972E-03    -28.9601E-03     55.5664E-03    -26.6982E-03     94.1213E-03
             802     14.8969E-03     85.2214E-03    -7.84100E+06     46.6573E+06    -26.1273E+06    -2.37057E+06    -32.2911E-03     58.7889E-03    -26.4977E-03     158.707E-03    -33.6663E-03     60.3776E-03    -26.6846E-03     158.467E-03
             803     15.7737E-03     85.4186E-03    -7.17327E+06     129.665E+06     7.93476E+06    -505.627E+03    -38.8378E-03     65.3531E-03    -26.5153E-03     262.222E-03    -45.2734E-03     72.2005E-03    -26.6533E-03     263.342E-03
             804     16.6532E-03     85.7300E-03    -5.01464E+06     181.828E+06     79.8701E+06     147.570E+03    -36.7482E-03     63.5028E-03    -26.7546E-03     260.250E-03    -45.5281E-03     72.6787E-03    -26.6116E-03     265.268E-03
             805     876.197E-06     85.4764E-03    -28.0548E+06    -100.963E+06    -27.7695E+06    -1.47447E+06    -26.9021E-03     53.8016E-03    -26.8995E-03     5.70506E-03    -26.8558E-03     53.3779E-03    -26.8513E-03     5.68326E-03
             806     1.75228E-03     85.4839E-03    -27.4973E+06    -99.3600E+06    -26.3601E+06    -2.81327E+06    -26.9120E-03     53.8104E-03    -26.8984E-03     10.5144E-03    -26.8676E-03     53.3921E-03    -26.8463E-03     10.4728E-03
             807     2.62852E-03     85.4963E-03    -26.4434E+06    -96.9027E+06    -24.1271E+06    -4.22859E+06    -26.9257E-03     53.8241E-03    -26.8984E-03     15.6331E-03    -26.8834E-03     53.4139E-03    -26.8402E-03     15.5704E-03
             808     3.50466E-03     85.5135E-03    -25.0128E+06    -93.4746E+06    -21.3277E+06    -5.53292E+06    -26.9464E-03     53.8430E-03    -26.8966E-03     20.8412E-03    -26.9068E-03     53.4446E-03    -26.8314E-03     20.7582E-03
             809     4.38093E-03     85.5357E-03    -23.2783E+06    -91.1722E+06    -17.7377E+06    -6.76803E+06    -26.9816E-03     53.8795E-03    -26.8979E-03     26.0945E-03    -26.9431E-03     53.4861E-03    -26.8206E-03     25.9915E-03
             810     5.25713E-03     85.5629E-03    -21.4243E+06    -87.1508E+06    -14.3910E+06    -7.93478E+06    -27.0243E-03     53.9181E-03    -26.8937E-03     31.4005E-03    -26.9891E-03     53.5391E-03    -26.8083E-03     31.2775E-03
             811     6.13344E-03     85.5951E-03    -19.4053E+06    -82.3945E+06    -11.2745E+06    -8.85127E+06    -27.0797E-03     53.9653E-03    -26.8856E-03     36.7419E-03    -27.0484E-03     53.6053E-03    -26.7944E-03     36.6009E-03
             812     7.00971E-03     85.6324E-03    -17.4051E+06    -79.8796E+06    -8.68478E+06    -9.62821E+06    -27.1594E-03     54.0369E-03    -26.8775E-03     42.0840E-03    -27.1293E-03     53.6866E-03    -26.7799E-03     41.9252E-03
             813     7.88608E-03     85.6747E-03    -15.4578E+06    -76.3352E+06    -7.48141E+06    -10.2907E+06    -27.2521E-03     54.1131E-03    -26.8610E-03     47.4301E-03    -27.2247E-03     53.7815E-03    -26.7653E-03     47.2530E-03
             814     8.76239E-03     85.7221E-03    -13.6239E+06    -74.2405E+06    -6.89244E+06    -10.6748E+06    -27.3698E-03     54.2139E-03    -26.8440E-03     52.7647E-03    -27.3451E-03     53.8972E-03    -26.7511E-03     52.5704E-03
             815     9.63882E-03     85.7745E-03    -12.0431E+06    -73.5350E+06    -8.44652E+06    -10.8153E+06    -27.5126E-03     54.3326E-03    -26.8200E-03     58.0860E-03    -27.4903E-03     54.0310E-03    -26.7381E-03     57.8746E-03
             816     10.5151E-03     85.8319E-03    -10.7022E+06    -69.4393E+06    -11.2816E+06    -10.5619E+06    -27.6386E-03     54.4241E-03    -26.7855E-03     63.3841E-03    -27.6285E-03     54.1622E-03    -26.7257E-03     63.1569E-03
             817     11.3916E-03     85.8943E-03    -9.42026E+06    -58.8490E+06    -10.5196E+06    -9.78068E+06    -27.8113E-03     54.5707E-03    -26.7594E-03     70.0516E-03    -27.8385E-03     54.3860E-03    -26.7130E-03     69.8106E-03
             818     12.2680E-03     85.9643E-03    -8.24248E+06    -48.8726E+06    -12.0144E+06    -8.63556E+06    -28.0791E-03     54.8030E-03    -26.7239E-03     78.1576E-03    -28.1564E-03     54.7125E-03    -26.7012E-03     77.9022E-03
             819     13.1445E-03     86.0420E-03    -6.94479E+06    -38.6915E+06    -18.9555E+06    -6.80156E+06    -28.2080E-03     54.8736E-03    -26.6656E-03     80.4362E-03    -28.3447E-03     54.9032E-03    -26.6942E-03     80.1703E-03
             820     14.0205E-03     86.1165E-03    -6.79983E+06    -12.8137E+06    -21.9645E+06    -5.50315E+06    -28.7135E-03     55.3231E-03    -26.6096E-03     94.3628E-03    -29.0447E-03     55.6484E-03    -26.6910E-03     94.0752E-03
             821     14.8973E-03     86.2208E-03    -7.92724E+06     43.4560E+06    -27.6405E+06    -3.78747E+06    -32.4459E-03     58.9408E-03    -26.4949E-03     158.662E-03    -33.8164E-03     60.5176E-03    -26.6847E-03     158.401E-03
             822     15.7736E-03     86.4194E-03    -7.45518E+06     127.201E+06     5.71256E+06    -785.817E+03    -39.3990E-03     65.9284E-03    -26.5293E-03     261.693E-03    -45.8138E-03     72.7516E-03    -26.6744E-03     262.770E-03
             823     16.6481E-03     86.7271E-03    -4.60457E+06     182.010E+06     79.4871E+06     664.394E+03    -36.5776E-03     63.3637E-03    -26.7861E-03     260.017E-03    -45.3607E-03     72.5461E-03    -26.6459E-03     265.069E-03
             824     876.112E-06     86.4766E-03    -27.8588E+06    -97.7477E+06    -27.5422E+06    -1.59005E+06    -26.9024E-03     53.7943E-03    -26.8919E-03     5.70251E-03    -26.8602E-03     53.3861E-03    -26.8475E-03     5.67922E-03
             825     1.75235E-03     86.4842E-03    -27.0448E+06    -95.8272E+06    -26.0282E+06    -3.22404E+06    -26.9048E-03     53.7985E-03    -26.8938E-03     10.5154E-03    -26.8637E-03     53.3968E-03    -26.8457E-03     10.4685E-03
             826     2.62846E-03     86.4965E-03    -25.8808E+06    -93.5323E+06    -23.7523E+06    -4.84289E+06    -26.9170E-03     53.8095E-03    -26.8925E-03     15.6348E-03    -26.8772E-03     53.4148E-03    -26.8382E-03     15.5642E-03
             827     3.50472E-03     86.5138E-03    -24.4829E+06    -90.3599E+06    -20.9533E+06    -6.24052E+06    -26.9349E-03     53.8247E-03    -26.8898E-03     20.8440E-03    -26.8977E-03     53.4405E-03    -26.8280E-03     20.7519E-03
             828     4.38090E-03     86.5359E-03    -22.8855E+06    -88.1060E+06    -17.4552E+06    -7.55341E+06    -26.9664E-03     53.8559E-03    -26.8894E-03     26.1002E-03    -26.9308E-03     53.4769E-03    -26.8158E-03     25.9871E-03
             829     5.25719E-03     86.5631E-03    -20.9992E+06    -84.2726E+06    -14.0944E+06    -8.80706E+06    -27.0059E-03     53.8899E-03    -26.8840E-03     31.4108E-03    -26.9731E-03     53.5243E-03    -26.8019E-03     31.2766E-03
             830     6.13345E-03     86.5952E-03    -19.0551E+06    -79.9890E+06    -11.1775E+06    -9.83786E+06    -27.0570E-03     53.9310E-03    -26.8740E-03     36.7601E-03    -27.0276E-03     53.5824E-03    -26.7863E-03     36.6064E-03
             831     7.00982E-03     86.6325E-03    -17.0185E+06    -77.5542E+06    -8.57268E+06    -10.6768E+06    -27.1325E-03     53.9967E-03    -26.8641E-03     42.1185E-03    -27.1040E-03     53.6573E-03    -26.7699E-03     41.9463E-03
             832     7.88612E-03     86.6748E-03    -15.1005E+06    -74.3645E+06    -7.45264E+06    -11.3998E+06    -27.2234E-03     54.0693E-03    -26.8458E-03     47.4745E-03    -27.1971E-03     53.7469E-03    -26.7534E-03     47.2833E-03
             833     8.76257E-03     86.7222E-03    -13.3738E+06    -72.7168E+06    -6.92514E+06    -11.8432E+06    -27.3368E-03     54.1643E-03    -26.8275E-03     52.8358E-03    -27.3130E-03     53.8549E-03    -26.7373E-03     52.6267E-03
             834     9.63889E-03     86.7745E-03    -11.8587E+06    -72.3352E+06    -8.46513E+06    -12.0371E+06    -27.4811E-03     54.2834E-03    -26.8023E-03     58.1766E-03    -27.4596E-03     53.9875E-03    -26.7225E-03     57.9496E-03
             835     10.5154E-03     86.8319E-03    -10.6457E+06    -68.9426E+06    -11.3500E+06    -11.9424E+06    -27.6077E-03     54.3750E-03    -26.7674E-03     63.4415E-03    -27.5978E-03     54.1155E-03    -26.7087E-03     63.1968E-03
             836     11.3918E-03     86.8942E-03    -9.52609E+06    -59.1534E+06    -10.8539E+06    -11.3049E+06    -27.7756E-03     54.5155E-03    -26.7399E-03     70.1552E-03    -27.8023E-03     54.3298E-03    -26.6946E-03     69.8950E-03
             837     12.2683E-03     86.9644E-03    -8.39729E+06    -49.5662E+06    -12.1666E+06    -10.2201E+06    -28.1296E-03     54.8370E-03    -26.7074E-03     78.2715E-03    -28.2065E-03     54.7435E-03    -26.6842E-03     77.9956E-03
             838     13.1445E-03     87.0420E-03    -7.75826E+06    -40.7710E+06    -20.0312E+06    -8.75030E+06    -28.2472E-03     54.8985E-03    -26.6513E-03     80.5379E-03    -28.3835E-03     54.9205E-03    -26.6811E-03     80.2467E-03
             839     14.0210E-03     87.1169E-03    -7.67087E+06    -14.6081E+06    -20.2099E+06    -6.23634E+06    -28.7662E-03     55.3790E-03    -26.6128E-03     94.4031E-03    -29.1027E-03     55.6950E-03    -26.6816E-03     94.1050E-03
             840     14.8969E-03     87.2208E-03    -7.99694E+06     41.1012E+06    -24.5605E+06    -3.67969E+06    -32.4821E-03     58.9895E-03    -26.5074E-03     158.808E-03    -33.8558E-03     60.5519E-03    -26.6782E-03     158.547E-03
             841     15.7734E-03     87.4197E-03    -8.29896E+06     123.840E+06     4.46581E+06    -1.26123E+06    -39.5192E-03     66.0412E-03    -26.5219E-03     263.099E-03    -45.9796E-03     72.8987E-03    -26.6671E-03     264.161E-03
             842     16.6509E-03     87.7297E-03    -5.38398E+06     181.621E+06     78.3771E+06     349.341E+03    -36.6356E-03     63.4079E-03    -26.7723E-03     260.497E-03    -45.4391E-03     72.6097E-03    -26.6359E-03     265.530E-03
             843     876.195E-06     87.4769E-03    -26.3652E+06    -93.9126E+06    -26.5602E+06    -2.03500E+06    -26.8977E-03     53.7849E-03    -26.8871E-03     5.69265E-03    -26.8550E-03     53.3922E-03    -26.8455E-03     5.66362E-03
             844     1.75229E-03     87.4844E-03    -25.7632E+06    -91.8121E+06    -25.3636E+06    -3.83155E+06    -26.8930E-03     53.7772E-03    -26.8843E-03     10.5178E-03    -26.8523E-03     53.3927E-03    -26.8406E-03     10.4631E-03
             845     2.62854E-03     87.4968E-03    -24.8391E+06    -89.8617E+06    -22.9981E+06    -5.43369E+06    -26.9029E-03     53.7848E-03    -26.8819E-03     15.6370E-03    -26.8644E-03     53.4058E-03    -26.8306E-03     15.5587E-03
             846     3.50470E-03     87.5139E-03    -23.5814E+06    -86.9566E+06    -20.1667E+06    -6.88961E+06    -26.9181E-03     53.7964E-03    -26.8783E-03     20.8473E-03    -26.8825E-03     53.4268E-03    -26.8188E-03     20.7468E-03
             847     4.38099E-03     87.5361E-03    -21.9714E+06    -84.7478E+06    -16.7651E+06    -8.30347E+06    -26.9442E-03     53.8200E-03    -26.8758E-03     26.1094E-03    -26.9099E-03     53.4554E-03    -26.8048E-03     25.9867E-03
             848     5.25723E-03     87.5632E-03    -20.2068E+06    -81.1328E+06    -13.5334E+06    -9.66106E+06    -26.9782E-03     53.8463E-03    -26.8681E-03     31.4271E-03    -26.9468E-03     53.4944E-03    -26.7888E-03     31.2820E-03
             849     6.13358E-03     87.5954E-03    -18.2550E+06    -77.2537E+06    -10.5890E+06    -10.8055E+06    -27.0250E-03     53.8815E-03    -26.8565E-03     36.7859E-03    -26.9964E-03     53.5446E-03    -26.7710E-03     36.6199E-03
             850     7.00989E-03     87.6325E-03    -16.3464E+06    -75.1156E+06    -8.20610E+06    -11.6986E+06    -27.0912E-03     53.9348E-03    -26.8435E-03     42.1623E-03    -27.0634E-03     53.6060E-03    -26.7520E-03     41.9771E-03
             851     7.88635E-03     87.6749E-03    -14.5881E+06    -72.1806E+06    -7.10148E+06    -12.3745E+06    -27.1809E-03     54.0040E-03    -26.8231E-03     47.5402E-03    -27.1556E-03     53.6912E-03    -26.7328E-03     47.3366E-03
             852     8.76268E-03     87.7221E-03    -12.9851E+06    -70.9671E+06    -6.66464E+06    -12.9261E+06    -27.2916E-03     54.0943E-03    -26.8027E-03     52.9170E-03    -27.2686E-03     53.7926E-03    -26.7143E-03     52.6942E-03
             853     9.63922E-03     87.7745E-03    -11.5922E+06    -71.0004E+06    -8.37457E+06    -13.1487E+06    -27.4363E-03     54.2115E-03    -26.7753E-03     58.2924E-03    -27.4153E-03     53.9217E-03    -26.6974E-03     58.0515E-03
             854     10.5156E-03     87.8318E-03    -10.5683E+06    -68.0534E+06    -11.4582E+06    -13.0981E+06    -27.6024E-03     54.3424E-03    -26.7400E-03     63.5283E-03    -27.5933E-03     54.0874E-03    -26.6833E-03     63.2688E-03
             855     11.3921E-03     87.8942E-03    -9.70622E+06    -59.1919E+06    -11.3982E+06    -12.6908E+06    -27.7799E-03     54.4938E-03    -26.7138E-03     70.2330E-03    -27.8066E-03     54.3089E-03    -26.6709E-03     69.9549E-03
             856     12.2685E-03     87.9643E-03    -8.54815E+06    -49.9647E+06    -12.8539E+06    -11.8510E+06    -28.1156E-03     54.7975E-03    -26.6819E-03     78.6370E-03    -28.1916E-03     54.7031E-03    -26.6613E-03     78.3406E-03
             857     13.1447E-03     88.0426E-03    -7.73566E+06    -42.4035E+06    -21.1714E+06    -10.2230E+06    -28.3276E-03     54.9551E-03    -26.6275E-03     80.8695E-03    -28.4599E-03     54.9708E-03    -26.6607E-03     80.5591E-03
             858     14.0209E-03     88.1164E-03    -7.13756E+06    -18.1018E+06    -21.2344E+06    -7.66665E+06    -28.7053E-03     55.2978E-03    -26.5925E-03     94.6408E-03    -29.0331E-03     55.5975E-03    -26.6620E-03     94.3252E-03
             859     14.8975E-03     88.2219E-03    -6.94236E+06     37.5030E+06    -27.0366E+06    -3.64684E+06    -32.5507E-03     59.0293E-03    -26.4787E-03     159.144E-03    -33.9140E-03     60.5795E-03    -26.6582E-03     158.882E-03
             860     15.7745E-03     88.4186E-03    -7.47712E+06     121.929E+06    -278.908E+03    -554.119E+03    -38.9570E-03     65.4249E-03    -26.4679E-03     262.768E-03    -45.3878E-03     72.2628E-03    -26.6352E-03     263.898E-03
             861     16.6510E-03     88.7309E-03    -5.42349E+06     181.310E+06     75.8369E+06    -73.8973E+03    -36.2517E-03     62.9585E-03    -26.7068E-03     260.222E-03    -45.0047E-03     72.1161E-03    -26.5827E-03     265.238E-03
             862     876.116E-06     88.4771E-03    -24.5609E+06    -89.1894E+06    -24.8960E+06    -2.56454E+06    -26.8802E-03     53.7567E-03    -26.8765E-03     5.68832E-03    -26.8377E-03     53.3826E-03    -26.8360E-03     5.65245E-03
             863     1.75238E-03     88.4847E-03    -24.3507E+06    -87.4435E+06    -24.1874E+06    -4.35626E+06    -26.8759E-03     53.7437E-03    -26.8679E-03     10.5218E-03    -26.8362E-03     53.3773E-03    -26.8267E-03     10.4603E-03
             864     2.62852E-03     88.4969E-03    -23.5787E+06    -85.9836E+06    -21.9604E+06    -5.98094E+06    -26.8819E-03     53.7463E-03    -26.8644E-03     15.6412E-03    -26.8443E-03     53.3834E-03    -26.8153E-03     15.5559E-03
             865     3.50481E-03     88.5142E-03    -22.2746E+06    -83.1121E+06    -19.0972E+06    -7.60058E+06    -26.8920E-03     53.7510E-03    -26.8590E-03     20.8547E-03    -26.8569E-03     53.3972E-03    -26.8017E-03     20.7451E-03
             866     4.38102E-03     88.5362E-03    -20.6229E+06    -81.1904E+06    -15.7439E+06    -9.14252E+06    -26.9122E-03     53.7665E-03    -26.8543E-03     26.1220E-03    -26.8778E-03     53.4163E-03    -26.7854E-03     25.9886E-03
             867     5.25737E-03     88.5633E-03    -18.7668E+06    -77.7421E+06    -12.5356E+06    -10.4858E+06    -26.9385E-03     53.7823E-03    -26.8438E-03     31.4506E-03    -26.9062E-03     53.4438E-03    -26.7666E-03     31.2949E-03
             868     6.13368E-03     88.5954E-03    -17.0452E+06     -74.332E+06    -9.73179E+06    -11.6301E+06    -26.9771E-03     53.8064E-03    -26.8294E-03     36.8231E-03    -26.9478E-03     53.4810E-03    -26.7455E-03     36.6466E-03
             869     7.01014E-03     88.6326E-03    -15.3717E+06    -72.5152E+06    -7.47753E+06    -12.5071E+06    -27.0373E-03     53.8505E-03    -26.8132E-03     42.2164E-03    -27.0094E-03     53.5323E-03    -26.7232E-03     42.0210E-03
             870     7.88652E-03     88.6747E-03    -13.7276E+06    -69.8564E+06    -6.61469E+06    -13.2834E+06    -27.1182E-03     53.9069E-03    -26.7886E-03     47.6304E-03    -27.0926E-03     53.6037E-03    -26.7005E-03     47.4155E-03
             871     8.76307E-03     88.7221E-03    -12.2372E+06    -68.9496E+06    -6.31599E+06    -13.8407E+06    -27.2331E-03     53.9981E-03    -26.7650E-03     53.0319E-03    -27.2096E-03     53.7048E-03    -26.6789E-03     52.7977E-03
             872     9.63947E-03     88.7743E-03    -10.9508E+06    -69.5321E+06    -8.20162E+06    -14.1961E+06    -27.3860E-03     54.1215E-03    -26.7355E-03     58.4511E-03    -27.3640E-03     53.8376E-03    -26.6598E-03     58.1972E-03
             873     10.5160E-03     88.8319E-03    -9.84512E+06    -66.9867E+06    -11.4682E+06    -14.1778E+06    -27.5785E-03     54.2777E-03    -26.6992E-03     63.7763E-03    -27.5671E-03     54.0268E-03    -26.6451E-03     63.5035E-03
             874     11.3923E-03     88.8940E-03    -8.90845E+06    -58.7972E+06    -11.4984E+06    -13.8723E+06    -27.7826E-03     54.4573E-03    -26.6747E-03     70.4724E-03    -27.8057E-03     54.2734E-03    -26.6340E-03     70.1794E-03
             875     12.2689E-03     88.9642E-03    -8.12022E+06    -50.1022E+06    -13.3909E+06    -13.3067E+06    -28.0002E-03     54.6398E-03    -26.6396E-03     79.0054E-03    -28.0726E-03     54.5443E-03    -26.6221E-03     78.6916E-03
             876     13.1456E-03     89.0425E-03    -7.39813E+06    -44.3047E+06    -21.6930E+06    -11.6586E+06    -28.1398E-03     54.7184E-03    -26.5786E-03     81.7284E-03    -28.2660E-03     54.7240E-03    -26.6121E-03     81.4022E-03
             877     14.0213E-03     89.1175E-03    -7.50581E+06    -21.0388E+06    -22.0817E+06    -8.83489E+06    -29.0235E-03     55.5725E-03    -26.5489E-03     95.2321E-03    -29.3504E-03     55.8621E-03    -26.6180E-03     94.8986E-03
             878     14.8986E-03     89.2200E-03    -8.39362E+06     33.0399E+06    -28.5182E+06    -4.69853E+06    -32.7766E-03     59.2306E-03    -26.4540E-03     159.038E-03    -34.1373E-03     60.7615E-03    -26.6323E-03     158.763E-03
             879     15.7730E-03     89.4222E-03    -6.61500E+06     118.879E+06    -3.06227E+06    -520.489E+03    -38.4400E-03     64.8685E-03    -26.4285E-03     261.620E-03    -44.7795E-03     71.6155E-03    -26.6066E-03     262.773E-03
             880     16.6535E-03     89.7239E-03    -3.53813E+06     181.775E+06     73.7699E+06     515.696E+03    -36.3775E-03     63.0349E-03    -26.6574E-03     261.138E-03    -45.1415E-03     72.2177E-03    -26.5470E-03     266.202E-03
             881     876.235E-06     89.4775E-03    -22.5633E+06    -83.7984E+06    -22.2578E+06    -2.77352E+06    -26.8499E-03     53.7023E-03    -26.8524E-03     5.68875E-03    -26.8090E-03     53.3484E-03    -26.8095E-03     5.65019E-03
             882     1.75236E-03     89.4848E-03    -22.0842E+06    -82.9276E+06    -21.1309E+06    -4.57338E+06    -26.8542E-03     53.7011E-03    -26.8468E-03     10.5198E-03    -26.8142E-03     53.3495E-03    -26.8002E-03     10.4556E-03
             883     2.62864E-03     89.4972E-03    -21.3228E+06    -81.5381E+06    -19.6927E+06    -6.48348E+06    -26.8531E-03     53.6930E-03    -26.8399E-03     15.6442E-03    -26.8139E-03     53.3458E-03    -26.7892E-03     15.5525E-03
             884     3.50485E-03     89.5142E-03    -20.1761E+06    -78.9608E+06    -17.6243E+06    -8.34276E+06    -26.8532E-03     53.6822E-03    -26.8289E-03     20.8666E-03    -26.8158E-03     53.3440E-03    -26.7733E-03     20.7476E-03
             885     4.38120E-03     89.5364E-03    -18.7987E+06    -77.3664E+06    -14.5717E+06    -9.89970E+06    -26.8641E-03     53.6843E-03    -26.8202E-03     26.1474E-03    -26.8278E-03     53.3488E-03    -26.7536E-03     26.0043E-03
             886     5.25751E-03     89.5633E-03    -17.3373E+06    -74.2966E+06    -11.6718E+06    -11.2445E+06    -26.8801E-03     53.6855E-03    -26.8054E-03     31.4905E-03    -26.8469E-03     53.3609E-03    -26.7309E-03     31.3253E-03
             887     6.13397E-03     89.5955E-03    -15.7235E+06    -71.2927E+06    -8.80183E+06    -12.2878E+06    -26.9097E-03     53.6976E-03    -26.7879E-03     36.8788E-03    -26.8795E-03     53.3841E-03    -26.7057E-03     36.6941E-03
             888     7.01037E-03     89.6324E-03    -14.0339E+06    -69.6608E+06    -6.65497E+06    -13.3121E+06    -26.9628E-03     53.7300E-03    -26.7673E-03     42.3023E-03    -26.9334E-03     53.4228E-03    -26.6792E-03     42.0968E-03
             889     7.88696E-03     89.6747E-03    -12.4801E+06    -67.4607E+06    -5.90996E+06    -14.0546E+06    -27.0369E-03     53.7756E-03    -26.7387E-03     47.7476E-03    -27.0094E-03     53.4814E-03    -26.6524E-03     47.5231E-03
             890     8.76344E-03     89.7218E-03    -11.1532E+06    -66.7635E+06    -5.64123E+06    -14.6350E+06    -27.1509E-03     53.8626E-03    -26.7116E-03     53.2056E-03    -27.1261E-03     53.5774E-03    -26.6268E-03     52.9618E-03
             891     9.64007E-03     89.7743E-03    -9.97281E+06    -67.6527E+06    -7.50476E+06    -15.1639E+06    -27.3143E-03     53.9942E-03    -26.6799E-03     58.6759E-03    -27.2910E-03     53.7171E-03    -26.6049E-03     58.4101E-03
             892     10.5165E-03     89.8315E-03    -9.03877E+06    -65.9419E+06    -11.0832E+06    -15.3121E+06    -27.4964E-03     54.1373E-03    -26.6408E-03     64.0930E-03    -27.4828E-03     53.8896E-03    -26.5875E-03     63.8064E-03
             893     11.3932E-03     89.8942E-03    -8.15474E+06    -57.8415E+06    -10.9304E+06    -15.0805E+06    -27.7486E-03     54.3649E-03    -26.6164E-03     70.8147E-03    -27.7700E-03     54.1838E-03    -26.5753E-03     70.5067E-03
             894     12.2696E-03     89.9638E-03    -7.45267E+06    -50.1823E+06    -12.8251E+06    -14.4789E+06    -28.0518E-03     54.6388E-03    -26.5870E-03     79.0776E-03    -28.1219E-03     54.5414E-03    -26.5675E-03     78.7483E-03
             895     13.1463E-03     90.0423E-03    -7.35787E+06    -46.0379E+06    -21.8204E+06    -13.0886E+06    -28.1192E-03     54.6502E-03    -26.5309E-03     81.3306E-03    -28.2421E-03     54.6468E-03    -26.5626E-03     80.9860E-03
             896     14.0240E-03     90.1170E-03    -7.90370E+06    -24.4755E+06    -22.9198E+06    -9.91756E+06    -29.0193E-03     55.5218E-03    -26.5024E-03     95.7073E-03    -29.3412E-03     55.7952E-03    -26.5701E-03     95.3604E-03
             897     14.8964E-03     90.2241E-03    -7.33882E+06     27.8857E+06    -28.7337E+06    -5.59283E+06    -32.3613E-03     58.7618E-03    -26.4005E-03     159.320E-03    -33.6995E-03     60.2564E-03    -26.5740E-03     159.048E-03
             898     15.7766E-03     90.4167E-03    -6.85627E+06     115.092E+06    -2.82711E+06    -1.92973E+06    -39.0392E-03     65.4224E-03    -26.3832E-03     261.878E-03    -45.4163E-03     72.1920E-03    -26.5543E-03     262.941E-03
             899     16.6518E-03     90.7275E-03    -5.02682E+06     181.242E+06     73.5342E+06     337.580E+03    -37.0838E-03     63.7253E-03    -26.6415E-03     261.280E-03    -45.8935E-03     72.9473E-03    -26.5293E-03     266.285E-03
             900     876.187E-06     90.4776E-03    -20.2026E+06    -78.2326E+06    -19.8390E+06    -2.77147E+06    -26.8069E-03     53.6208E-03    -26.8139E-03     5.69332E-03    -26.7659E-03     53.2879E-03    -26.7703E-03     5.65481E-03
             901     1.75249E-03     90.4851E-03    -19.6185E+06    -78.1797E+06    -18.3683E+06    -4.71140E+06    -26.8132E-03     53.6219E-03    -26.8087E-03     10.5236E-03    -26.7717E-03     53.2865E-03    -26.7588E-03     10.4576E-03
             902     2.62869E-03     90.4973E-03    -18.7524E+06    -76.5144E+06    -17.1800E+06    -6.85205E+06    -26.8047E-03     53.6032E-03    -26.7985E-03     15.6563E-03    -26.7635E-03     53.2737E-03    -26.7463E-03     15.5599E-03
             903     3.50505E-03     90.5144E-03    -17.8902E+06    -74.5355E+06    -15.8134E+06    -8.88827E+06    -26.7948E-03     53.5770E-03    -26.7822E-03     20.8915E-03    -26.7550E-03     53.2550E-03    -26.7273E-03     20.7656E-03
             904     4.38136E-03     90.5363E-03    -16.8284E+06    -73.4060E+06    -13.2474E+06    -10.4750E+06    -26.7937E-03     53.5617E-03    -26.7680E-03     26.1883E-03    -26.7551E-03     53.2412E-03    -26.7034E-03     26.0380E-03
             905     5.25783E-03     90.5634E-03    -15.4659E+06    -70.6581E+06    -10.3924E+06    -11.8539E+06    -26.7992E-03     53.5481E-03    -26.7489E-03     31.5487E-03    -26.7637E-03     53.2370E-03    -26.6760E-03     31.3759E-03
             906     6.13427E-03     90.5952E-03    -13.9818E+06    -68.2219E+06    -7.81282E+06    -12.9828E+06    -26.8174E-03     53.5433E-03    -26.7259E-03     36.9670E-03    -26.7843E-03     53.2411E-03    -26.6458E-03     36.7737E-03
             907     7.01088E-03     90.6324E-03    -12.5979E+06    -66.5545E+06    -5.71688E+06    -13.9143E+06    -26.8602E-03     53.5604E-03    -26.7002E-03     42.4281E-03    -26.8294E-03     53.2652E-03    -26.6140E-03     42.2154E-03
             908     7.88743E-03     90.6743E-03    -11.2887E+06    -65.0281E+06    -5.05104E+06    -14.7598E+06    -26.9328E-03     53.6006E-03    -26.6678E-03     47.9120E-03    -26.9039E-03     53.3155E-03    -26.5824E-03     47.6791E-03
             909     8.76414E-03     90.7216E-03    -9.96018E+06    -64.3394E+06    -4.82808E+06    -15.4050E+06    -27.0417E-03     53.6779E-03    -26.6362E-03     53.4338E-03    -27.0153E-03     53.4017E-03    -26.5526E-03     53.1808E-03
             910     9.64075E-03     90.7738E-03    -8.93230E+06    -65.6570E+06    -6.63352E+06    -15.9121E+06    -27.2117E-03     53.8137E-03    -26.6020E-03     58.9674E-03    -27.1871E-03     53.5435E-03    -26.5270E-03     58.6929E-03
             911     10.5175E-03     90.8314E-03    -8.33903E+06    -64.4485E+06    -10.5702E+06    -16.1767E+06    -27.4145E-03     53.9747E-03    -26.5602E-03     64.3991E-03    -27.3999E-03     53.7324E-03    -26.5075E-03     64.1023E-03
             912     11.3940E-03     90.8935E-03    -7.92372E+06    -56.9558E+06    -10.8291E+06    -16.0713E+06    -27.6931E-03     54.2282E-03    -26.5351E-03     71.2140E-03    -27.7145E-03     54.0507E-03    -26.4952E-03     70.8942E-03
             913     12.2705E-03     90.9642E-03    -7.31803E+06    -49.7630E+06    -12.6840E+06    -15.5864E+06    -28.1771E-03     54.6906E-03    -26.5135E-03     79.6041E-03    -28.2478E-03     54.5955E-03    -26.4942E-03     79.2602E-03
             914     13.1465E-03     91.0419E-03    -6.66665E+06    -47.4467E+06    -21.6668E+06    -14.2064E+06    -28.4866E-03     54.9652E-03    -26.4786E-03     82.1279E-03    -28.6072E-03     54.9565E-03    -26.5085E-03     81.7657E-03
             915     14.0210E-03     91.1175E-03    -6.01019E+06    -28.7809E+06    -23.5857E+06    -11.0193E+06    -28.4688E-03     54.9134E-03    -26.4447E-03     96.2486E-03    -28.7693E-03     55.1588E-03    -26.5122E-03     95.8954E-03
             916     14.9024E-03     91.2227E-03    -6.74780E+06     23.2741E+06    -30.4221E+06    -6.62055E+06    -31.9827E-03     58.2979E-03    -26.3152E-03     158.921E-03    -33.2947E-03     59.7568E-03    -26.4913E-03     158.637E-03
             917     15.7766E-03     91.4176E-03    -7.90475E+06     111.513E+06    -6.70547E+06    -2.41781E+06    -40.0317E-03     66.3383E-03    -26.3066E-03     262.566E-03    -46.4864E-03     73.1803E-03    -26.4904E-03     263.567E-03
             918     16.6515E-03     91.7302E-03    -5.70784E+06     180.005E+06      70.855E+06     150.266E+03    -37.3485E-03     63.9503E-03    -26.6018E-03     260.597E-03    -46.1538E-03     73.1688E-03    -26.5002E-03     265.537E-03
             919     876.308E-06     91.4778E-03    -18.3803E+06    -72.6473E+06    -18.2409E+06    -2.78302E+06    -26.7429E-03     53.4926E-03    -26.7497E-03     5.70848E-03    -26.7032E-03     53.1827E-03    -26.7089E-03     5.66987E-03
             920     1.75254E-03     91.4852E-03    -17.7719E+06    -72.7998E+06    -17.1614E+06    -5.11742E+06    -26.7393E-03     53.4793E-03    -26.7399E-03     10.5456E-03    -26.6982E-03     53.1663E-03    -26.6944E-03     10.4744E-03
             921     2.62892E-03     91.4974E-03    -16.6698E+06    -71.2252E+06    -15.3348E+06    -7.50149E+06    -26.7254E-03     53.4539E-03    -26.7285E-03     15.6883E-03    -26.6841E-03     53.1451E-03    -26.6778E-03     15.5836E-03
             922     3.50525E-03     91.5143E-03    -15.5250E+06    -70.0906E+06    -13.2422E+06    -9.28460E+06    -26.7104E-03     53.4234E-03    -26.7130E-03     20.9291E-03    -26.6689E-03     53.1164E-03    -26.6551E-03     20.7982E-03
             923     4.38173E-03     91.5363E-03    -14.4590E+06    -69.0872E+06    -11.2090E+06    -10.9785E+06    -26.6956E-03     53.3877E-03    -26.6920E-03     26.2493E-03    -26.6544E-03     53.0823E-03    -26.6269E-03     26.0928E-03
             924     5.25820E-03     91.5631E-03    -13.1776E+06    -66.8595E+06    -9.04412E+06    -12.5513E+06    -26.6854E-03     53.3502E-03    -26.6648E-03     31.6449E-03    -26.6458E-03     53.0527E-03    -26.5940E-03     31.4635E-03
             925     6.13485E-03     91.5951E-03    -11.8978E+06    -65.2013E+06    -6.50788E+06    -13.4749E+06    -26.6944E-03     53.3314E-03    -26.6370E-03     37.0961E-03    -26.6571E-03     53.0392E-03    -26.5577E-03     36.8970E-03
             926     7.01146E-03     91.6318E-03    -10.6784E+06    -63.4119E+06    -4.39975E+06    -14.3400E+06    -26.7271E-03     53.3327E-03    -26.6055E-03     42.6053E-03    -26.6930E-03     53.0482E-03    -26.5201E-03     42.3878E-03
             927     7.88825E-03     91.6740E-03    -9.46342E+06    -62.1933E+06    -3.72027E+06    -15.3287E+06    -26.7975E-03     53.3659E-03    -26.5684E-03     48.1478E-03    -26.7653E-03     53.0902E-03    -26.4831E-03     47.9085E-03
             928     8.76497E-03     91.7209E-03    -8.42254E+06    -61.9789E+06    -3.84873E+06    -16.0484E+06    -26.9095E-03     53.4412E-03    -26.5317E-03     53.7346E-03    -26.8800E-03     53.1729E-03    -26.4489E-03     53.4744E-03
             929     9.64182E-03     91.7735E-03    -7.49949E+06    -63.4821E+06    -5.53865E+06    -16.5475E+06    -27.0810E-03     53.5758E-03    -26.4948E-03     59.3550E-03    -27.0535E-03     53.3124E-03    -26.4196E-03     59.0736E-03
             930     10.5185E-03     91.8307E-03    -6.90588E+06    -62.9347E+06    -9.71730E+06    -16.6999E+06    -27.3253E-03     53.7764E-03    -26.4511E-03     64.8954E-03    -27.3066E-03     53.5379E-03    -26.3984E-03     64.5931E-03
             931     11.3952E-03     91.8935E-03    -6.59408E+06    -55.6739E+06    -10.1636E+06    -16.7220E+06    -27.6279E-03     54.0541E-03    -26.4262E-03     71.8150E-03    -27.6451E-03     53.8797E-03    -26.3867E-03     71.4882E-03
             932     12.2719E-03     91.9635E-03    -6.29247E+06     -49.269E+06    -12.1918E+06    -16.4913E+06    -28.0716E-03     54.4762E-03    -26.4046E-03     80.5100E-03    -28.1380E-03     54.3808E-03    -26.3850E-03     80.1564E-03
             933     13.1483E-03     92.0429E-03    -6.75947E+06    -49.0429E+06    -21.6382E+06    -14.9378E+06    -28.3694E-03     54.7381E-03    -26.3687E-03     83.3911E-03    -28.4881E-03     54.7215E-03    -26.3960E-03     83.0221E-03
             934     14.0258E-03     92.1175E-03    -7.37136E+06    -32.2156E+06    -24.6285E+06    -11.8112E+06    -28.8266E-03     55.1735E-03    -26.3469E-03     96.0795E-03    -29.1275E-03     55.4053E-03    -26.4126E-03     95.7133E-03
             935     14.8996E-03     92.2200E-03    -7.81064E+06     18.0180E+06    -32.2423E+06    -7.29596E+06    -32.6570E-03     58.9073E-03    -26.2502E-03     159.222E-03    -33.9747E-03     60.3546E-03    -26.4262E-03     158.914E-03
             936     15.7770E-03     92.4210E-03    -8.45983E+06     107.216E+06    -10.9184E+06    -3.02248E+06    -40.0968E-03     66.3446E-03    -26.2478E-03     263.496E-03    -46.5559E-03     73.1859E-03    -26.4456E-03     264.523E-03
             937     16.6545E-03     92.7292E-03    -5.97921E+06     178.686E+06     67.1894E+06    -745.457E+03    -37.1416E-03     63.6829E-03    -26.5413E-03     258.900E-03    -45.8899E-03     72.8494E-03    -26.4557E-03     263.841E-03
             938     876.319E-06     92.4777E-03    -15.5971E+06    -66.7048E+06    -15.5907E+06    -3.01090E+06    -26.6504E-03     53.3011E-03    -26.6507E-03     5.72291E-03    -26.6092E-03     53.0130E-03    -26.6093E-03     5.68142E-03
             939     1.75276E-03     92.4852E-03    -15.0305E+06    -66.6565E+06    -14.6483E+06    -5.70757E+06    -26.6346E-03     53.2755E-03    -26.6409E-03     10.5753E-03    -26.5922E-03     52.9857E-03    -26.5957E-03     10.4967E-03
             940     2.62913E-03     92.4972E-03    -14.2609E+06    -65.7153E+06    -13.1013E+06    -8.19260E+06    -26.6115E-03     53.2372E-03    -26.6257E-03     15.7347E-03    -26.5694E-03     52.9492E-03    -26.5752E-03     15.6213E-03
             941     3.50565E-03     92.5142E-03    -13.0842E+06    -65.6604E+06    -10.9131E+06    -10.0238E+06    -26.5868E-03     53.1944E-03    -26.6076E-03     20.9936E-03    -26.5428E-03     52.9026E-03    -26.5480E-03     20.8535E-03
             942     4.38216E-03     92.5359E-03    -11.5585E+06      -64.34E+06    -8.91893E+06    -11.7461E+06    -26.5570E-03     53.1368E-03    -26.5797E-03     26.3455E-03    -26.5114E-03     52.8476E-03    -26.5143E-03     26.1795E-03
             943     5.25886E-03     92.5628E-03    -10.3609E+06    -63.2624E+06    -6.98512E+06    -13.0683E+06    -26.5347E-03     53.0814E-03    -26.5467E-03     31.7745E-03    -26.4892E-03     52.7948E-03    -26.4749E-03     31.5870E-03
             944     6.13555E-03     92.5944E-03    -9.30884E+06    -62.1308E+06    -4.82455E+06    -13.9019E+06    -26.5294E-03     53.0408E-03    -26.5113E-03     37.2809E-03    -26.4859E-03     52.7576E-03    -26.4319E-03     37.0770E-03
             945     7.01242E-03     92.6314E-03    -8.04254E+06    -60.1036E+06    -2.88658E+06    -14.9003E+06    -26.5524E-03     53.0242E-03    -26.4718E-03     42.8616E-03    -26.5118E-03     52.7500E-03    -26.3874E-03     42.6380E-03
             946     7.88927E-03     92.6731E-03    -6.96754E+06    -59.4998E+06    -1.97688E+06    -15.6441E+06    -26.6201E-03     53.0508E-03    -26.4307E-03     48.4842E-03    -26.5816E-03     52.7820E-03    -26.3442E-03     48.2420E-03
             947     8.76625E-03     92.7204E-03    -6.19723E+06    -59.2262E+06    -2.12459E+06    -16.3807E+06    -26.7386E-03     53.1277E-03    -26.3891E-03     54.1624E-03    -26.7040E-03     52.8669E-03    -26.3048E-03     53.8993E-03
             948     9.64316E-03     92.7724E-03    -5.54574E+06    -61.3165E+06    -3.85393E+06    -17.0887E+06    -26.9236E-03     53.2732E-03    -26.3497E-03     59.8856E-03    -26.8914E-03     53.0149E-03    -26.2720E-03     59.5988E-03
             949     10.5201E-03     92.8302E-03    -5.14285E+06    -61.5487E+06    -8.20060E+06    -17.1451E+06    -27.1960E-03     53.5009E-03    -26.3049E-03     65.5572E-03    -27.1720E-03     53.2640E-03    -26.2492E-03     65.2510E-03
             950     11.3969E-03     92.8926E-03    -5.05500E+06    -53.9909E+06    -8.46967E+06    -17.1037E+06    -27.5683E-03     53.8510E-03    -26.2828E-03     72.5121E-03    -27.5821E-03     53.6799E-03    -26.2395E-03     72.1819E-03
             951     12.2735E-03     92.9635E-03    -5.39696E+06    -48.7405E+06    -10.4736E+06    -16.8469E+06    -28.0307E-03     54.2997E-03    -26.2690E-03     81.0324E-03    -28.0955E-03     54.2027E-03    -26.2429E-03     80.6755E-03
             952     13.1504E-03     93.0419E-03    -5.92395E+06    -50.7944E+06    -19.8302E+06    -15.1196E+06    -28.2784E-03     54.5195E-03    -26.2411E-03     83.3770E-03    -28.3910E-03     54.4883E-03    -26.2580E-03     83.0082E-03
             953     14.0257E-03     93.1178E-03    -6.64174E+06    -34.7186E+06    -24.2366E+06    -12.2436E+06    -29.2731E-03     55.5046E-03    -26.2315E-03     96.4735E-03    -29.5686E-03     55.7236E-03    -26.2927E-03     96.0985E-03
             954     14.9025E-03     93.2219E-03    -6.80678E+06     12.1589E+06    -33.9568E+06    -8.34967E+06    -33.2412E-03     59.4042E-03    -26.1630E-03     160.127E-03    -34.5572E-03     60.8377E-03    -26.3406E-03     159.800E-03
             955     15.7784E-03     93.4191E-03    -6.87634E+06     102.400E+06    -14.3396E+06    -3.35126E+06    -40.0064E-03     66.1645E-03    -26.1581E-03     265.476E-03    -46.4645E-03     73.0033E-03    -26.3683E-03     266.534E-03
             956     16.6523E-03     93.7329E-03    -5.65718E+06     177.902E+06     64.5329E+06    -839.808E+03    -37.2065E-03     63.6465E-03    -26.4401E-03     259.926E-03    -45.9329E-03     72.7973E-03    -26.3672E-03     264.893E-03
             957     876.509E-06     93.4776E-03    -12.2989E+06    -60.0864E+06    -12.2774E+06    -3.42853E+06    -26.5076E-03     53.0193E-03    -26.5118E-03     5.74294E-03    -26.4643E-03     52.7547E-03    -26.4682E-03     5.69615E-03
             958     1.75295E-03     93.4849E-03    -11.8142E+06    -60.0414E+06    -11.4703E+06    -6.17601E+06    -26.4868E-03     52.9850E-03    -26.4982E-03     10.6167E-03    -26.4426E-03     52.7189E-03    -26.4513E-03     10.5322E-03
             959     2.62955E-03     93.4970E-03    -11.1748E+06    -59.9852E+06    -10.4430E+06    -8.66693E+06    -26.4514E-03     52.9293E-03    -26.4778E-03     15.8014E-03    -26.4061E-03     52.6616E-03    -26.4269E-03     15.6821E-03
             960     3.50614E-03     93.5137E-03    -10.2527E+06    -60.4942E+06    -8.97672E+06    -10.9344E+06    -26.4097E-03     52.8610E-03    -26.4514E-03     21.0969E-03    -26.3618E-03     52.5881E-03    -26.3937E-03     20.9454E-03
             961     4.38289E-03     93.5355E-03    -9.16598E+06    -59.8071E+06    -7.25508E+06    -12.6674E+06    -26.3652E-03     52.7819E-03    -26.4167E-03     26.4885E-03    -26.3166E-03     52.5095E-03    -26.3530E-03     26.3111E-03
             962     5.25968E-03     93.5620E-03    -7.95744E+06    -59.8174E+06    -5.22940E+06    -13.6594E+06    -26.3289E-03     52.7074E-03    -26.3785E-03     31.9668E-03    -26.2787E-03     52.4318E-03    -26.3063E-03     31.7724E-03
             963     6.13664E-03     93.5937E-03    -6.59294E+06    -58.6687E+06    -3.39772E+06    -14.6646E+06    -26.3062E-03     52.6392E-03    -26.3331E-03     37.5495E-03    -26.2559E-03     52.3671E-03    -26.2555E-03     37.3369E-03
             964     7.01366E-03     93.6302E-03    -5.45817E+06    -57.1535E+06    -1.52022E+06    -15.3827E+06    -26.3169E-03     52.6029E-03    -26.2860E-03     43.2220E-03    -26.2693E-03     52.3374E-03    -26.2028E-03     42.9934E-03
             965     7.89079E-03     93.6723E-03    -4.67990E+06    -56.9591E+06    -377.857E+03    -15.8212E+06    -26.3831E-03     52.6226E-03    -26.2396E-03     48.9482E-03    -26.3386E-03     52.3604E-03    -26.1521E-03     48.7053E-03
             966     8.76793E-03     93.7190E-03    -4.02144E+06    -56.2461E+06    -315.758E+03    -16.5641E+06    -26.5125E-03     52.7052E-03    -26.1927E-03     54.7460E-03    -26.4733E-03     52.4530E-03    -26.1069E-03     54.4824E-03
             967     9.64511E-03     93.7716E-03    -3.58384E+06    -59.0009E+06    -1.88748E+06    -17.2908E+06    -26.7394E-03     52.8919E-03    -26.1526E-03     60.5824E-03    -26.7029E-03     52.6388E-03    -26.0713E-03     60.2950E-03
             968     10.5222E-03     93.8289E-03    -3.44668E+06    -60.2103E+06    -6.68878E+06    -17.4548E+06    -27.0719E-03     53.1807E-03    -26.1088E-03     66.3885E-03    -27.0430E-03     52.9452E-03    -26.0499E-03     66.0803E-03
             969     11.3990E-03     93.8922E-03    -3.49920E+06    -52.6490E+06    -7.25043E+06    -17.1700E+06    -27.5215E-03     53.6128E-03    -26.0913E-03     73.4499E-03    -27.5306E-03     53.4437E-03    -26.0462E-03     73.1208E-03
             970     12.2758E-03     93.9626E-03    -3.60164E+06    -47.8994E+06    -8.51795E+06    -16.6413E+06    -28.1211E-03     54.2149E-03    -26.0938E-03     82.0625E-03    -28.1809E-03     54.1166E-03    -26.0617E-03     81.7095E-03
             971     13.1516E-03     94.0422E-03    -4.10529E+06    -53.0196E+06    -19.1195E+06    -15.0415E+06    -28.5768E-03     54.6621E-03    -26.0853E-03     84.5697E-03    -28.6791E-03     54.6170E-03    -26.0981E-03     84.2012E-03
             972     14.0288E-03     94.1174E-03    -4.75572E+06    -37.0197E+06    -24.5924E+06    -12.6737E+06    -29.4004E-03     55.4899E-03    -26.0895E-03     97.7953E-03    -29.6839E-03     55.6964E-03    -26.1519E-03     97.4164E-03
             973     14.9039E-03     94.2232E-03    -5.63465E+06     7.91602E+06    -32.6988E+06    -9.63531E+06    -33.6479E-03     59.7018E-03    -26.0540E-03     160.545E-03    -34.9663E-03     61.1232E-03    -26.2208E-03     160.195E-03
             974     15.7792E-03     94.4195E-03    -5.80751E+06     95.8325E+06    -18.5880E+06    -4.07611E+06    -39.8501E-03     65.8938E-03    -26.0437E-03     263.900E-03    -46.2225E-03     72.6396E-03    -26.2671E-03     264.969E-03
             975     16.6609E-03     94.7329E-03    -3.99122E+06     176.288E+06     60.4733E+06    -233.200E+03    -36.8766E-03     63.1946E-03    -26.3180E-03     259.700E-03    -45.5530E-03     72.3072E-03    -26.2654E-03     264.688E-03
             976     876.615E-06     94.4770E-03    -7.73204E+06    -52.8907E+06    -7.78245E+06    -3.59667E+06    -26.3070E-03     52.6264E-03    -26.3194E-03     5.77124E-03    -26.2578E-03     52.3846E-03    -26.2704E-03     5.72240E-03
             977     1.75335E-03     94.4844E-03    -7.66768E+06    -53.1917E+06    -7.81192E+06    -6.46470E+06    -26.2784E-03     52.5744E-03    -26.2960E-03     10.6714E-03    -26.2287E-03     52.3313E-03    -26.2468E-03     10.5834E-03
             978     2.63005E-03     94.4962E-03     -7.2955E+06    -53.8022E+06    -7.38222E+06    -9.20606E+06    -26.2293E-03     52.4978E-03    -26.2685E-03     15.8920E-03    -26.1779E-03     52.2509E-03    -26.2168E-03     15.7661E-03
             979     3.50692E-03     94.5130E-03    -6.71994E+06    -54.7651E+06    -6.36306E+06    -11.5856E+06    -26.1705E-03     52.4047E-03    -26.2342E-03     21.2308E-03    -26.1170E-03     52.1514E-03    -26.1769E-03     21.0714E-03
             980     4.38382E-03     94.5344E-03    -6.06299E+06    -55.4122E+06     -5.1747E+06    -13.2836E+06    -26.1075E-03     52.2992E-03    -26.1917E-03     26.6783E-03    -26.0526E-03     52.0410E-03    -26.1284E-03     26.4938E-03
             981     5.26091E-03     94.5610E-03    -5.12994E+06    -55.9946E+06    -3.65959E+06    -14.5675E+06    -26.0504E-03     52.1937E-03    -26.1433E-03     32.2311E-03    -25.9937E-03     51.9307E-03    -26.0730E-03     32.0260E-03
             982     6.13808E-03     94.5923E-03    -4.06456E+06    -55.1968E+06    -2.01177E+06    -15.5045E+06    -26.0106E-03     52.0994E-03    -26.0887E-03     37.9055E-03    -25.9544E-03     51.8386E-03    -26.0129E-03     37.6833E-03
             983     7.01540E-03     94.6290E-03    -3.16129E+06    -54.8283E+06    -239.726E+03    -15.7716E+06    -26.0093E-03     52.0433E-03    -26.0340E-03     43.6829E-03    -25.9550E-03     51.7839E-03    -25.9511E-03     43.4510E-03
             984     7.89281E-03     94.6705E-03    -2.38055E+06    -54.3016E+06     1.09293E+06    -16.0170E+06    -26.0741E-03     52.0538E-03    -25.9797E-03     49.5472E-03    -26.0235E-03     51.7988E-03    -25.8921E-03     49.3039E-03
             985     8.77025E-03     94.7177E-03    -1.88788E+06    -53.5415E+06     1.37397E+06    -16.5651E+06    -26.2300E-03     52.1583E-03    -25.9282E-03     55.4921E-03    -26.1858E-03     51.9133E-03    -25.8410E-03     55.2309E-03
             986     9.64766E-03     94.7698E-03    -1.71215E+06    -56.4904E+06     102.659E+03    -17.1807E+06    -26.5103E-03     52.3989E-03    -25.8886E-03     61.5021E-03    -26.4701E-03     52.1518E-03    -25.8037E-03     61.2187E-03
             987     10.5249E-03     94.8279E-03    -1.69651E+06    -58.5742E+06    -4.91089E+06    -17.6182E+06    -26.9289E-03     52.7777E-03    -25.8488E-03     67.5147E-03    -26.8953E-03     52.5444E-03    -25.7860E-03     67.2070E-03
             988     11.4020E-03     94.8908E-03    -1.68552E+06    -51.6971E+06    -5.80370E+06    -17.3157E+06    -27.4406E-03     53.2792E-03    -25.8386E-03     74.7503E-03    -27.4434E-03     53.1093E-03    -25.7902E-03     74.4219E-03
             989     12.2787E-03     94.9624E-03    -1.72651E+06    -47.5791E+06    -6.29258E+06    -16.5891E+06    -28.1592E-03     54.0174E-03    -25.8581E-03     83.4944E-03    -28.2132E-03     53.9145E-03    -25.8181E-03     83.1439E-03
             990     13.1556E-03     95.0416E-03    -2.70659E+06    -54.2167E+06    -17.1455E+06    -14.9875E+06    -28.8434E-03     54.7165E-03    -25.8730E-03     86.0283E-03    -28.9407E-03     54.6614E-03    -25.8762E-03     85.6609E-03
             991     14.0301E-03     95.1185E-03    -3.95299E+06    -38.7025E+06    -23.0585E+06    -12.8216E+06    -29.9421E-03     55.8534E-03    -25.9113E-03     99.1022E-03    -30.2268E-03     56.0536E-03    -25.9648E-03     98.7174E-03
             992     14.9065E-03     95.2230E-03    -4.85820E+06     2.76126E+06    -30.2907E+06    -9.84175E+06    -34.4237E-03     60.3527E-03    -25.9291E-03     162.066E-03    -35.7535E-03     61.7630E-03    -26.0775E-03     161.703E-03
             993     15.7809E-03     95.4234E-03    -5.97094E+06     89.2136E+06    -22.1846E+06    -4.69593E+06    -40.4400E-03     66.3837E-03    -25.9436E-03     261.958E-03    -46.7672E-03     73.0707E-03    -26.1752E-03     262.999E-03
             994     16.6540E-03     95.7249E-03    -3.66445E+06     174.567E+06     56.6034E+06    -459.075E+03    -36.6038E-03     62.8408E-03    -26.2370E-03     259.864E-03    -45.3427E-03     72.0223E-03    -26.2018E-03     264.905E-03
             995     876.914E-06     95.4762E-03    -3.90625E+06    -45.3738E+06    -4.15972E+06    -3.71207E+06    -26.0292E-03     52.0711E-03    -26.0419E-03     5.80862E-03    -25.9770E-03     51.8561E-03    -25.9912E-03     5.75845E-03
             996     1.75379E-03     95.4833E-03    -3.76255E+06    -45.9618E+06    -4.30632E+06    -6.81540E+06    -25.9896E-03     52.0043E-03    -26.0147E-03     10.7450E-03    -25.9359E-03     51.7866E-03    -25.9641E-03     10.6528E-03
             997     2.63083E-03     95.4952E-03    -3.57591E+06    -47.1950E+06    -4.21186E+06    -9.68978E+06    -25.9273E-03     51.9083E-03    -25.9810E-03     16.0073E-03    -25.8714E-03     51.6843E-03    -25.9284E-03     15.8758E-03
             998     3.50790E-03     95.5116E-03    -3.26592E+06    -48.9027E+06    -3.74381E+06    -12.1176E+06    -25.8500E-03     51.7883E-03    -25.9383E-03     21.4017E-03    -25.7915E-03     51.5554E-03    -25.8814E-03     21.2362E-03
             999     4.38516E-03     95.5330E-03    -2.68456E+06    -50.7522E+06    -2.99507E+06    -13.9355E+06    -25.7659E-03     51.6527E-03    -25.8868E-03     26.9161E-03    -25.7039E-03     51.4096E-03    -25.8243E-03     26.7241E-03
            1000     5.26252E-03     95.5591E-03    -1.95939E+06    -51.6468E+06    -1.83692E+06    -15.3751E+06    -25.6872E-03     51.5148E-03    -25.8276E-03     32.5576E-03    -25.6234E-03     51.2660E-03    -25.7591E-03     32.3434E-03
            1001     6.14006E-03     95.5905E-03    -1.35294E+06    -52.3420E+06    -431.284E+03    -16.0100E+06    -25.6307E-03     51.3952E-03    -25.7646E-03     38.3312E-03    -25.5669E-03     51.1421E-03    -25.6889E-03     38.1042E-03
            1002     7.01772E-03     95.6267E-03    -742.484E+03    -52.3399E+06     1.11477E+06    -16.1964E+06    -25.6191E-03     51.3191E-03    -25.7000E-03     44.2456E-03    -25.5578E-03     51.0660E-03    -25.6174E-03     44.0103E-03
            1003     7.89547E-03     95.6685E-03    -35.7197E+03    -52.0557E+06     2.34747E+06    -16.3475E+06    -25.6873E-03     51.3245E-03    -25.6372E-03     50.2808E-03    -25.6293E-03     51.0747E-03    -25.5499E-03     50.0358E-03
            1004     8.77330E-03     95.7153E-03     203.770E+03    -51.4403E+06     2.97512E+06    -16.1388E+06    -25.8730E-03     51.4552E-03    -25.5822E-03     56.4262E-03    -25.8227E-03     51.2144E-03    -25.4930E-03     56.1735E-03
            1005     9.65098E-03     95.7680E-03    -33.7841E+03    -53.5458E+06     2.36259E+06    -16.7679E+06    -26.2220E-03     51.7664E-03    -25.5444E-03     62.6589E-03    -26.1799E-03     51.5272E-03    -25.4549E-03     62.3840E-03
            1006     10.5286E-03     95.8257E-03    -400.202E+03    -56.6690E+06    -2.54144E+06    -17.4981E+06    -26.7143E-03     52.2261E-03    -25.5118E-03     68.8771E-03    -26.6793E-03     51.9959E-03    -25.4418E-03     68.5742E-03
            1007     11.4057E-03     95.8898E-03    -840.160E+03    -50.6347E+06    -4.07166E+06    -17.4267E+06    -27.3611E-03     52.8725E-03    -25.5113E-03     76.2661E-03    -27.3629E-03     52.7033E-03    -25.4571E-03     75.9391E-03
            1008     12.2828E-03     95.9609E-03    -1.25624E+06    -47.5925E+06    -4.38969E+06    -16.5892E+06    -28.2677E-03     53.8217E-03    -25.5540E-03     85.1526E-03    -28.3221E-03     53.7153E-03    -25.5051E-03     84.8037E-03
            1009     13.1582E-03     96.0422E-03    -1.85044E+06    -55.6578E+06    -15.3081E+06    -14.5539E+06    -29.0864E-03     54.6840E-03    -25.5976E-03     87.7514E-03    -29.1800E-03     54.6178E-03    -25.5907E-03     87.3909E-03
            1010     14.0351E-03     96.1184E-03    -3.65424E+06    -39.0065E+06    -21.1823E+06    -12.4997E+06    -30.6435E-03     56.3198E-03    -25.6763E-03     101.207E-03    -30.9360E-03     56.5224E-03    -25.7204E-03     100.822E-03
            1011     14.9084E-03     96.2260E-03    -5.71444E+06    -2.44648E+06    -27.6236E+06    -9.73792E+06    -35.0626E-03     60.8165E-03    -25.7538E-03     163.868E-03    -36.4005E-03     62.2055E-03    -25.8801E-03     163.501E-03
            1012     15.7830E-03     96.4247E-03    -6.43264E+06     83.3381E+06    -21.7189E+06    -4.64664E+06    -41.0273E-03     66.8238E-03    -25.7965E-03     262.715E-03    -47.3637E-03     73.4962E-03    -26.0166E-03     263.743E-03
            1013     16.6613E-03     96.7284E-03    -4.31094E+06     173.550E+06     55.1719E+06    -918.787E+03    -37.1704E-03     63.2790E-03    -26.1086E-03     260.400E-03    -45.9571E-03     72.5065E-03    -26.0781E-03     265.450E-03
            1014     877.179E-06     96.4745E-03    -563.476E+03    -37.3527E+06    -953.781E+03    -4.12279E+06    -25.6525E-03     51.3172E-03    -25.6646E-03     5.85701E-03    -25.5999E-03     51.1328E-03    -25.6144E-03     5.80175E-03
            1015     1.75449E-03     96.4818E-03    -470.278E+03    -38.3616E+06    -1.05684E+06    -7.26779E+06    -25.6051E-03     51.2415E-03    -25.6365E-03     10.8356E-03    -25.5506E-03     51.0523E-03    -25.5854E-03     10.7379E-03
            1016     2.63179E-03     96.4933E-03    -281.734E+03    -40.3616E+06    -1.19768E+06    -10.1731E+06    -25.5277E-03     51.1254E-03    -25.5978E-03     16.1480E-03    -25.4695E-03     50.9265E-03    -25.5448E-03     16.0108E-03
            1017     3.50929E-03     96.5097E-03    -92.6776E+03    -42.8702E+06    -1.35964E+06    -12.6178E+06    -25.4303E-03     50.9761E-03    -25.5459E-03     21.6056E-03    -25.3679E-03     50.7652E-03    -25.4904E-03     21.4346E-03
            1018     4.38687E-03     96.5307E-03     95.9679E+03    -45.6848E+06    -1.22125E+06    -14.5902E+06    -25.3239E-03     50.8080E-03    -25.4841E-03     27.2003E-03    -25.2577E-03     50.5834E-03    -25.4241E-03     27.0010E-03
            1019     5.26467E-03     96.5569E-03     214.706E+03    -47.4682E+06    -880.317E+03    -15.8222E+06    -25.2219E-03     50.6347E-03    -25.4128E-03     32.9465E-03    -25.1543E-03     50.4019E-03    -25.3487E-03     32.7281E-03
            1020     6.14261E-03     96.5877E-03     383.455E+03    -49.5850E+06     95.6058E+03    -16.3504E+06    -25.1497E-03     50.4896E-03    -25.3398E-03     38.8432E-03    -25.0816E-03     50.2465E-03    -25.2680E-03     38.6138E-03
            1021     7.02070E-03     96.6241E-03     673.020E+03    -49.7626E+06     1.32033E+06    -16.5178E+06    -25.1301E-03     50.3946E-03    -25.2645E-03     44.9229E-03    -25.0650E-03     50.1514E-03    -25.1867E-03     44.6860E-03
            1022     7.89894E-03     96.6654E-03     732.779E+03    -50.2624E+06     2.59445E+06    -16.3466E+06    -25.2083E-03     50.4042E-03    -25.1959E-03     51.1531E-03    -25.1485E-03     50.1610E-03    -25.1111E-03     50.9111E-03
            1023     8.77713E-03     96.7126E-03     819.086E+03    -50.0894E+06     3.41988E+06    -15.8715E+06    -25.4311E-03     50.5690E-03    -25.1379E-03     57.5447E-03    -25.3792E-03     50.3323E-03    -25.0494E-03     57.2989E-03
            1024     9.65532E-03     96.7650E-03     593.734E+03    -50.7273E+06     3.76482E+06    -15.8265E+06    -25.8517E-03     50.9545E-03    -25.1028E-03     64.0645E-03    -25.8113E-03     50.7252E-03    -25.0113E-03     63.8055E-03
            1025     10.5330E-03     96.8237E-03    -492.155E+03    -54.5072E+06    -552.660E+03    -16.5701E+06    -26.4663E-03     51.5488E-03    -25.0826E-03     70.4639E-03    -26.4364E-03     51.3253E-03    -25.0056E-03     70.1768E-03
            1026     11.4107E-03     96.8874E-03    -1.53199E+06    -49.1130E+06    -2.73210E+06    -17.0329E+06    -27.3024E-03     52.4002E-03    -25.0979E-03     78.1567E-03    -27.3109E-03     52.2369E-03    -25.0381E-03     77.8378E-03
            1027     12.2871E-03     96.9605E-03    -1.99113E+06    -47.3788E+06    -2.76365E+06    -16.5734E+06    -28.4411E-03     53.6135E-03    -25.1724E-03     87.2400E-03    -28.5018E-03     53.5070E-03    -25.1147E-03     86.8931E-03
            1028     13.1641E-03     97.0413E-03    -2.90299E+06    -58.0982E+06    -15.1516E+06    -14.4899E+06    -29.5991E-03     54.8551E-03    -25.2560E-03     89.6476E-03    -29.6964E-03     54.7799E-03    -25.2434E-03     89.2867E-03
            1029     14.0381E-03     97.1199E-03    -3.89735E+06    -39.5670E+06    -18.9147E+06    -12.1331E+06    -31.0250E-03     56.4103E-03    -25.3853E-03     103.377E-03    -31.3256E-03     56.6115E-03    -25.4169E-03     102.996E-03
            1030     14.9128E-03     97.2289E-03    -5.44525E+06    -5.22541E+06    -22.1528E+06    -9.33305E+06    -35.1884E-03     60.6953E-03    -25.5070E-03     165.860E-03    -36.5389E-03     62.0723E-03    -25.6023E-03     165.501E-03
            1031     15.7878E-03     97.4260E-03    -6.56849E+06     78.5693E+06    -20.2455E+06    -4.85702E+06    -41.2816E-03     66.8326E-03    -25.5510E-03     263.884E-03    -47.6221E-03     73.4875E-03    -25.7567E-03     264.891E-03
            1032     16.6611E-03     97.7296E-03    -5.03067E+06     171.037E+06     53.5197E+06    -1.36647E+06    -38.3635E-03     64.2553E-03    -25.8919E-03     259.994E-03    -47.1105E-03     73.4365E-03    -25.8650E-03     264.917E-03
            1033     877.669E-06     97.4723E-03     3.17977E+06    -28.8039E+06     2.95029E+06    -4.36017E+06    -25.1662E-03     50.3439E-03    -25.1777E-03     5.91227E-03    -25.1129E-03     50.1911E-03    -25.1258E-03     5.85418E-03
            1034     1.75529E-03     97.4791E-03     2.96921E+06    -30.4981E+06     2.27327E+06    -7.53955E+06    -25.1078E-03     50.2544E-03    -25.1467E-03     10.9369E-03    -25.0523E-03     50.0946E-03    -25.0954E-03     10.8362E-03
            1035     2.63312E-03     97.4908E-03     2.76171E+06    -33.3010E+06     1.44106E+06    -10.5528E+06    -25.0150E-03     50.1159E-03    -25.1009E-03     16.3083E-03    -24.9557E-03     49.9440E-03    -25.0494E-03     16.1669E-03
            1036     3.51100E-03     97.5068E-03     2.52181E+06    -36.7962E+06     548.859E+03    -12.9589E+06    -24.8964E-03     49.9363E-03    -25.0399E-03     21.8368E-03    -24.8325E-03     49.7491E-03    -24.9875E-03     21.6624E-03
            1037     4.38912E-03     97.5277E-03     2.14910E+06    -40.4186E+06    -194.935E+03    -14.8143E+06    -24.7663E-03     49.7327E-03    -24.9664E-03     27.5229E-03    -24.6987E-03     49.5298E-03    -24.9119E-03     27.3222E-03
            1038     5.26739E-03     97.5533E-03     1.65602E+06    -43.7874E+06    -650.605E+03    -15.8251E+06    -24.6437E-03     49.5278E-03    -24.8841E-03     33.3824E-03    -24.5742E-03     49.3106E-03    -24.8263E-03     33.1658E-03
            1039     6.14587E-03     97.5842E-03     1.14717E+06    -46.3978E+06    -375.602E+03    -16.3586E+06    -24.5566E-03     49.3557E-03    -24.7991E-03     39.4300E-03    -24.4881E-03     49.1276E-03    -24.7354E-03     39.2028E-03
            1040     7.02451E-03     97.6201E-03     518.475E+03    -47.8861E+06     500.451E+03    -16.2209E+06    -24.5392E-03     49.2555E-03    -24.7164E-03     45.6854E-03    -24.4756E-03     49.0223E-03    -24.6452E-03     45.4551E-03
            1041     7.90323E-03     97.6616E-03    -157.797E+03    -48.4965E+06     1.83495E+06    -15.7262E+06    -24.6342E-03     49.2772E-03    -24.6430E-03     52.1356E-03    -24.5792E-03     49.0441E-03    -24.5633E-03     51.9049E-03
            1042     8.78201E-03     97.7084E-03    -656.237E+03    -48.7617E+06     2.63388E+06    -15.5491E+06    -24.9075E-03     49.4915E-03    -24.5840E-03     58.8155E-03    -24.8624E-03     49.2633E-03    -24.4992E-03     58.5777E-03
            1043     9.66053E-03     97.7616E-03    -1.18829E+06    -49.5255E+06     3.34930E+06    -14.7763E+06    -25.4056E-03     49.9599E-03    -24.5543E-03     65.6356E-03    -25.3736E-03     49.7381E-03    -24.4640E-03     65.3945E-03
            1044     10.5389E-03     97.8203E-03    -2.31699E+06    -51.6249E+06     1.14096E+06    -14.7945E+06    -26.1953E-03     50.7494E-03    -24.5540E-03     72.3307E-03    -26.1797E-03     50.5389E-03    -24.4701E-03     72.0705E-03
            1045     11.4162E-03     97.8854E-03    -3.96472E+06    -47.1693E+06    -1.04445E+06    -15.8421E+06    -27.2635E-03     51.8597E-03    -24.5962E-03     80.2911E-03    -27.2886E-03     51.7063E-03    -24.5272E-03     79.9908E-03
            1046     12.2937E-03     97.9588E-03    -4.75121E+06    -46.0809E+06    -1.30161E+06    -16.5170E+06    -28.6760E-03     53.3848E-03    -24.7088E-03     89.6152E-03    -28.7550E-03     53.2871E-03    -24.6416E-03     89.2705E-03
            1047     13.1684E-03     98.0419E-03    -4.72236E+06    -60.5778E+06    -14.3357E+06    -15.0208E+06    -30.0510E-03     54.8918E-03    -24.8408E-03     92.4652E-03    -30.1578E-03     54.8083E-03    -24.8178E-03     92.0973E-03
            1048     14.0434E-03     98.1213E-03    -4.50307E+06    -41.3493E+06    -16.9310E+06    -12.1459E+06    -31.3635E-03     56.3809E-03    -25.0174E-03     105.815E-03    -31.6728E-03     56.5765E-03    -25.0355E-03     105.432E-03
            1049     14.9188E-03     98.2295E-03    -5.01628E+06    -8.23126E+06    -16.9480E+06    -8.62011E+06    -35.4093E-03     60.5966E-03    -25.1873E-03     167.405E-03    -36.7586E-03     61.9480E-03    -25.2528E-03     167.058E-03
            1050     15.7925E-03     98.4303E-03    -5.82091E+06     74.2217E+06    -17.9677E+06    -4.43149E+06    -42.1421E-03     67.4057E-03    -25.2636E-03     264.231E-03    -48.5332E-03     74.0917E-03    -25.4526E-03     265.199E-03
            1051     16.6701E-03     98.7310E-03    -5.24709E+06     169.328E+06     53.4851E+06    -2.00981E+06    -40.1628E-03     65.8422E-03    -25.6794E-03     258.926E-03    -48.9313E-03     75.0382E-03    -25.6499E-03     263.665E-03
            1052     878.129E-06     98.4687E-03     5.99550E+06    -20.0794E+06     5.83931E+06    -4.28635E+06    -24.5497E-03     49.1105E-03    -24.5609E-03     5.97189E-03    -24.4991E-03     48.9931E-03    -24.5112E-03     5.91504E-03
            1053     1.75642E-03     98.4757E-03     5.70314E+06    -22.4733E+06     4.76923E+06    -7.59443E+06    -24.4806E-03     49.0076E-03    -24.5270E-03     11.0468E-03    -24.4267E-03     48.8803E-03    -24.4789E-03     10.9459E-03
            1054     2.63471E-03     98.4869E-03     5.07539E+06    -26.1967E+06     3.26812E+06    -10.5405E+06    -24.3725E-03     48.8467E-03    -24.4742E-03     16.4792E-03    -24.3145E-03     48.7042E-03    -24.4272E-03     16.3388E-03
            1055     3.51323E-03     98.5029E-03     4.18975E+06    -30.7683E+06     1.42242E+06    -12.8929E+06    -24.2344E-03     48.6380E-03    -24.4036E-03     22.0846E-03    -24.1719E-03     48.4770E-03    -24.3579E-03     21.9122E-03
            1056     4.39189E-03     98.5233E-03     3.01133E+06    -35.5750E+06    -392.898E+03    -14.4139E+06    -24.0831E-03     48.4021E-03    -24.3190E-03     27.8683E-03    -24.0176E-03     48.2221E-03    -24.2737E-03     27.6743E-03
            1057     5.27079E-03     98.5489E-03     1.56260E+06    -40.2584E+06    -1.75745E+06    -15.2093E+06    -23.9436E-03     48.1699E-03    -24.2263E-03     33.8507E-03    -23.8776E-03     47.9716E-03    -24.1790E-03     33.6440E-03
            1058     6.14989E-03     98.5792E-03    -166.923E+03    -43.5886E+06    -2.34960E+06    -15.3520E+06    -23.8494E-03     47.9808E-03    -24.1314E-03     40.0609E-03    -23.7880E-03     47.7708E-03    -24.0797E-03     39.8493E-03
            1059     7.02914E-03     98.6152E-03    -2.04394E+06    -46.4967E+06    -1.86163E+06    -14.8609E+06    -23.8439E-03     47.8883E-03    -24.0444E-03     46.5066E-03    -23.7908E-03     47.6683E-03    -23.9833E-03     46.2969E-03
            1060     7.90851E-03     98.6563E-03    -3.71504E+06    -46.7190E+06    -605.861E+03    -14.4088E+06    -23.9774E-03     47.9465E-03    -23.9691E-03     53.2090E-03    -23.9381E-03     47.7299E-03    -23.8990E-03     52.9989E-03
            1061     8.78779E-03     98.7036E-03     -5.2919E+06    -47.3125E+06     785.526E+03    -14.1387E+06    -24.3214E-03     48.2396E-03    -23.9182E-03     60.1648E-03    -24.2974E-03     48.0265E-03    -23.8380E-03     59.9493E-03
            1062     9.66697E-03     98.7567E-03    -6.32973E+06    -48.8565E+06     1.85629E+06    -13.8201E+06    -24.9384E-03     48.8406E-03    -23.9022E-03     67.2971E-03    -24.9293E-03     48.6301E-03    -23.8129E-03     67.0727E-03
            1063     10.5455E-03     98.8165E-03    -7.06216E+06    -50.0081E+06     1.02323E+06    -13.1938E+06    -25.8869E-03     49.8125E-03    -23.9256E-03     74.3700E-03    -25.8955E-03     49.6155E-03    -23.8377E-03     74.1350E-03
            1064     11.4236E-03     98.8823E-03    -8.14811E+06    -43.6741E+06     819.280E+03    -14.0125E+06    -27.2758E-03     51.2823E-03    -24.0065E-03     82.7081E-03    -27.3290E-03     51.1491E-03    -23.9272E-03     82.4343E-03
            1065     12.2998E-03     98.9574E-03    -9.06515E+06    -43.4227E+06     456.384E+03    -16.1525E+06    -28.8049E-03     52.9671E-03    -24.1622E-03     92.2365E-03    -28.9120E-03     52.8866E-03    -24.0838E-03     91.8987E-03
            1066     13.1764E-03     99.0418E-03    -8.88546E+06    -63.7657E+06    -14.3037E+06    -15.6473E+06    -30.2073E-03     54.5410E-03    -24.3337E-03     95.3192E-03    -30.3311E-03     54.4484E-03    -24.2999E-03     94.9458E-03
            1067     14.0510E-03     99.1223E-03    -9.10868E+06    -42.0849E+06    -16.1543E+06    -13.3802E+06    -32.3491E-03     56.9209E-03    -24.5718E-03     108.139E-03    -32.6896E-03     57.1266E-03    -24.5783E-03     107.733E-03
            1068     14.9233E-03     99.2326E-03    -7.85757E+06    -13.0367E+06    -14.2260E+06    -10.1810E+06    -36.6073E-03     61.4517E-03    -24.8444E-03     167.215E-03    -37.9652E-03     62.7768E-03    -24.8852E-03     166.826E-03
            1069     15.7989E-03     99.4310E-03    -5.92796E+06     67.5879E+06    -15.4586E+06    -5.43543E+06    -43.9667E-03     68.9896E-03    -25.0229E-03     264.385E-03    -50.4597E-03     75.7465E-03    -25.1896E-03     265.223E-03
            1070     16.6670E-03     99.7378E-03    -4.47296E+06     169.102E+06     55.7800E+06    -2.00144E+06    -41.8504E-03     67.3857E-03    -25.5354E-03     256.951E-03    -50.6324E-03     76.5905E-03    -25.4952E-03     261.535E-03
            1071     878.868E-06     99.4641E-03       8.231E+06    -11.4627E+06     7.77835E+06    -4.15766E+06    -23.7899E-03     47.5928E-03    -23.8028E-03     6.02908E-03    -23.7435E-03     47.5123E-03    -23.7593E-03     5.97420E-03
            1072     1.75769E-03     99.4707E-03     7.36059E+06    -14.6370E+06     6.13638E+06    -7.32823E+06    -23.7109E-03     47.4750E-03    -23.7641E-03     11.1549E-03    -23.6620E-03     47.3824E-03    -23.7228E-03     11.0581E-03
            1073     2.63675E-03     99.4820E-03     6.08142E+06    -19.3735E+06     3.70545E+06    -10.0432E+06    -23.5882E-03     47.2920E-03    -23.7038E-03     16.6506E-03    -23.5355E-03     47.1813E-03    -23.6660E-03     16.5175E-03
            1074     3.51589E-03     99.4974E-03     4.22245E+06    -25.2223E+06     702.773E+03    -11.9865E+06    -23.4351E-03     47.0595E-03    -23.6243E-03     22.3322E-03    -23.3793E-03     46.9270E-03    -23.5904E-03     22.1727E-03
            1075     4.39530E-03     99.5178E-03     1.75013E+06    -31.4816E+06    -2.43580E+06    -13.0188E+06    -23.2695E-03     46.8000E-03    -23.5305E-03     28.2122E-03    -23.2130E-03     46.6450E-03    -23.4996E-03     28.0379E-03
            1076     5.27490E-03     99.5427E-03    -1.24924E+06    -37.2707E+06    -4.91304E+06    -13.2600E+06    -23.1240E-03     46.5542E-03    -23.4302E-03     34.3219E-03    -23.0714E-03     46.3790E-03    -23.3989E-03     34.1425E-03
            1077     6.15472E-03     99.5731E-03    -4.60897E+06    -41.7882E+06    -6.20187E+06    -12.8101E+06    -23.0359E-03     46.3678E-03    -23.3318E-03     40.6911E-03    -22.9930E-03     46.1781E-03    -23.2956E-03     40.5149E-03
            1078     7.03470E-03     99.6085E-03    -7.70562E+06    -44.9555E+06    -5.72029E+06    -12.3647E+06    -23.0621E-03     46.3084E-03    -23.2463E-03     47.3465E-03    -23.0330E-03     46.1089E-03    -23.1985E-03     47.1722E-03
            1079     7.91471E-03     99.6499E-03    -10.3971E+06    -45.5642E+06    -3.74983E+06    -11.8104E+06    -23.2637E-03     46.4450E-03    -23.1813E-03     54.2997E-03    -23.2535E-03     46.2470E-03    -23.1189E-03     54.1268E-03
            1080     8.79465E-03     99.6971E-03    -12.3871E+06    -45.2962E+06    -1.11585E+06    -11.8676E+06    -23.7159E-03     46.8637E-03    -23.1479E-03     61.5585E-03    -23.7260E-03     46.6723E-03    -23.0698E-03     61.3763E-03
            1081     9.67415E-03     99.7510E-03    -13.3629E+06    -47.4440E+06     515.061E+03    -12.5614E+06    -24.4821E-03     47.6379E-03    -23.1558E-03     69.0331E-03    -24.5065E-03     47.4449E-03    -23.0650E-03     68.8292E-03
            1082     10.5533E-03     99.8113E-03    -13.5340E+06    -49.7951E+06    -12.1023E+03    -12.2165E+06    -25.6374E-03     48.8489E-03    -23.2114E-03     76.4977E-03    -25.6755E-03     48.6622E-03    -23.1197E-03     76.2794E-03
            1083     11.4311E-03     99.8787E-03    -13.3352E+06    -39.5679E+06     1.81910E+06    -12.8328E+06    -27.2249E-03     50.5586E-03    -23.3337E-03     85.3732E-03    -27.3106E-03     50.4512E-03    -23.2479E-03     85.1182E-03
            1084     12.3082E-03     99.9559E-03    -13.1468E+06    -39.5803E+06     2.68670E+06    -15.3422E+06    -28.9423E-03     52.4825E-03    -23.5402E-03     94.5377E-03    -29.0784E-03     52.4237E-03    -23.4503E-03     94.2127E-03
            1085     13.1836E-03     100.040E-03    -13.1470E+06    -65.4104E+06    -14.2941E+06    -16.2919E+06    -30.9747E-03     54.7494E-03    -23.7747E-03     97.6995E-03    -31.1217E-03     54.6591E-03    -23.7322E-03     97.3141E-03
            1086     14.0574E-03     100.125E-03    -12.8183E+06    -42.0100E+06    -15.1814E+06    -15.2782E+06    -33.5772E-03     57.6824E-03    -24.1052E-03     110.380E-03    -33.9451E-03     57.8999E-03    -24.1016E-03     109.940E-03
            1087     14.9295E-03     100.237E-03    -11.2530E+06    -16.9596E+06    -12.3494E+06    -13.5822E+06    -38.6734E-03     63.1823E-03    -24.5088E-03     167.607E-03    -40.0776E-03     64.5222E-03    -24.5297E-03     167.124E-03
            1088     15.7995E-03     100.433E-03    -9.09148E+06     60.0936E+06    -15.8533E+06    -8.58524E+06    -45.9094E-03     70.7153E-03    -24.8058E-03     266.120E-03    -52.5121E-03     77.5451E-03    -24.9591E-03     266.832E-03
            1089     16.6729E-03     100.749E-03    -5.60689E+06     166.108E+06     55.1649E+06    -2.75528E+06    -42.9329E-03     68.3223E-03    -25.3893E-03     257.535E-03    -51.7437E-03     77.5429E-03    -25.3462E-03     262.022E-03
            1090     879.570E-06     100.458E-03     8.64307E+06    -3.37827E+06     8.17219E+06    -3.84446E+06    -22.8744E-03     45.7681E-03    -22.8937E-03     6.07945E-03    -22.8382E-03     45.7269E-03    -22.8604E-03     6.02894E-03
            1091     1.75933E-03     100.464E-03     7.27313E+06    -7.47925E+06     5.71408E+06    -6.53046E+06    -22.7894E-03     45.6371E-03    -22.8478E-03     11.2530E-03    -22.7506E-03     45.5810E-03    -22.8189E-03     11.1670E-03
            1092     2.63910E-03     100.475E-03     4.98591E+06    -13.4460E+06     2.17436E+06    -8.66412E+06    -22.6598E-03     45.4415E-03    -22.7817E-03     16.8033E-03    -22.6189E-03     45.3642E-03    -22.7586E-03     16.6889E-03
            1093     3.51913E-03     100.490E-03     1.76938E+06    -20.9051E+06    -2.04428E+06    -9.80019E+06    -22.5006E-03     45.1981E-03    -22.6976E-03     22.5505E-03    -22.4591E-03     45.0946E-03    -22.6800E-03     22.4205E-03
            1094     4.39931E-03     100.510E-03    -2.34408E+06    -28.6098E+06    -6.16277E+06    -9.95009E+06    -22.3384E-03     44.9402E-03    -22.6018E-03     28.5149E-03    -22.3009E-03     44.8105E-03    -22.5877E-03     28.3819E-03
            1095     5.27974E-03     100.535E-03    -7.05226E+06    -35.5198E+06    -9.20089E+06    -9.43504E+06    -22.2066E-03     44.7103E-03    -22.5037E-03     34.7374E-03    -22.1788E-03     44.5580E-03    -22.4880E-03     34.6095E-03
            1096     6.16035E-03     100.565E-03    -11.4750E+06    -40.5250E+06    -10.1163E+06    -8.88826E+06    -22.1518E-03     44.5656E-03    -22.4138E-03     41.2558E-03    -22.1386E-03     44.3971E-03    -22.3890E-03     41.1328E-03
            1097     7.04107E-03     100.601E-03    -15.1731E+06    -43.5170E+06    -8.59299E+06    -8.62979E+06    -22.2393E-03     44.5824E-03    -22.3431E-03     48.1178E-03    -22.2444E-03     44.4040E-03    -22.3010E-03     47.9946E-03
            1098     7.92178E-03     100.642E-03    -17.5338E+06    -44.4070E+06    -5.42223E+06    -8.73932E+06    -22.5356E-03     44.8347E-03    -22.2992E-03     55.3304E-03    -22.5591E-03     44.6540E-03    -22.2365E-03     55.2005E-03
            1099     8.80227E-03     100.689E-03    -18.4255E+06    -42.6493E+06    -1.62273E+06    -9.61195E+06    -23.1177E-03     45.4074E-03    -22.2897E-03     62.9404E-03    -23.1596E-03     45.2371E-03    -22.2092E-03     62.7911E-03
            1100     9.68238E-03     100.744E-03    -18.5716E+06    -45.0882E+06     764.126E+03    -10.9838E+06    -24.0730E-03     46.4042E-03    -22.3312E-03     70.7727E-03    -24.1255E-03     46.2285E-03    -22.2350E-03     70.5931E-03
            1101     10.5616E-03     100.805E-03    -17.5610E+06    -48.7870E+06     276.282E+03    -12.0988E+06    -25.4745E-03     47.9029E-03    -22.4284E-03     78.7525E-03    -25.5333E-03     47.7254E-03    -22.3309E-03     78.5394E-03
            1102     11.4398E-03     100.874E-03    -15.6675E+06    -36.5687E+06     2.64447E+06    -12.8713E+06    -27.1952E-03     49.7904E-03    -22.5952E-03     87.9240E-03    -27.2969E-03     49.6990E-03    -22.5062E-03     87.6720E-03
            1103     12.3166E-03     100.953E-03    -14.6989E+06    -35.8435E+06     4.59123E+06    -14.1262E+06    -29.4593E-03     52.3266E-03    -22.8673E-03     97.0917E-03    -29.6130E-03     52.2877E-03    -22.7711E-03     96.7819E-03
            1104     13.1918E-03     101.040E-03    -15.1606E+06    -63.1338E+06    -13.2153E+06    -16.4862E+06    -32.2183E-03     55.4131E-03    -23.1948E-03     100.908E-03    -32.3874E-03     55.3427E-03    -23.1474E-03     100.513E-03
            1105     14.0636E-03     101.128E-03    -14.4357E+06    -42.2538E+06    -14.8220E+06    -17.1594E+06    -34.8641E-03     58.4954E-03    -23.6313E-03     113.005E-03    -35.2504E-03     58.7237E-03    -23.6232E-03     112.529E-03
            1106     14.9353E-03     101.240E-03    -12.1937E+06    -18.9602E+06    -10.6077E+06    -16.1010E+06    -40.8682E-03     65.0297E-03    -24.1615E-03     170.424E-03    -42.3296E-03     66.4116E-03    -24.1694E-03     169.857E-03
            1107     15.8040E-03     101.444E-03    -9.66410E+06     52.8326E+06    -10.9792E+06    -12.0249E+06    -47.7767E-03     72.3889E-03    -24.6123E-03     265.046E-03    -54.3162E-03     79.1137E-03    -24.7298E-03     265.650E-03
            1108     16.6750E-03     101.748E-03    -5.35908E+06     158.682E+06     58.3148E+06    -4.48562E+06    -43.7086E-03     68.9909E-03    -25.2823E-03     255.696E-03    -52.4638E-03     78.1214E-03    -25.2131E-03     260.095E-03
            1109     880.589E-06     101.449E-03     6.53451E+06     3.42119E+06     6.16715E+06    -2.99696E+06    -21.8046E-03     43.6293E-03    -21.8247E-03     6.11096E-03    -21.7859E-03     43.6280E-03    -21.8083E-03     6.07170E-03
            1110     1.76113E-03     101.456E-03     4.22727E+06    -1.85310E+06     2.72120E+06    -4.80213E+06    -21.7204E-03     43.4977E-03    -21.7773E-03     11.3191E-03    -21.7007E-03     43.4784E-03    -21.7671E-03     11.2560E-03
            1111     2.64193E-03     101.467E-03     473.646E+03    -9.50995E+06    -1.97551E+06    -5.70922E+06    -21.5957E-03     43.3076E-03    -21.7119E-03     16.9048E-03    -21.5770E-03     43.2624E-03    -21.7087E-03     16.8295E-03
            1112     3.52280E-03     101.481E-03    -4.59896E+06    -18.5445E+06    -6.99564E+06    -5.62235E+06    -21.4524E-03     43.0856E-03    -21.6332E-03     22.6975E-03    -21.4388E-03     43.0100E-03    -21.6346E-03     22.6226E-03
            1113     4.40394E-03     101.501E-03    -10.3229E+06    -27.5681E+06    -11.1669E+06    -4.87254E+06    -21.3198E-03     42.8693E-03    -21.5496E-03     28.7283E-03    -21.3160E-03     42.7634E-03    -21.5505E-03     28.6623E-03
            1114     5.28520E-03     101.525E-03    -15.7236E+06    -34.7628E+06    -13.2993E+06    -4.14179E+06    -21.2323E-03     42.7020E-03    -21.4698E-03     35.0444E-03    -21.2425E-03     42.5715E-03    -21.4630E-03     34.9866E-03
            1115     6.16664E-03     101.555E-03    -20.1459E+06    -39.3771E+06    -12.8288E+06    -4.08771E+06    -21.2432E-03     42.6461E-03    -21.4029E-03     41.7132E-03    -21.2705E-03     42.4992E-03    -21.3807E-03     41.6543E-03
            1116     7.04809E-03     101.591E-03    -22.8267E+06    -41.8554E+06    -10.0312E+06    -4.82325E+06    -21.4149E-03     42.7725E-03    -21.3576E-03     48.7850E-03    -21.4577E-03     42.6147E-03    -21.3140E-03     48.7136E-03
            1117     7.92947E-03     101.632E-03    -23.4212E+06    -41.8160E+06     -5.8528E+06    -6.59108E+06    -21.8232E-03     43.1639E-03    -21.3407E-03     56.2967E-03    -21.8781E-03     43.0042E-03    -21.2754E-03     56.1976E-03
            1118     8.81055E-03     101.680E-03    -22.7037E+06    -40.3423E+06    -1.47348E+06    -8.12445E+06    -22.5467E-03     43.9103E-03    -21.3636E-03     64.2649E-03    -22.6120E-03     43.7561E-03    -21.2796E-03     64.1383E-03
            1119     9.69103E-03     101.736E-03    -21.3226E+06    -41.5584E+06     1.48044E+06    -9.98664E+06    -23.6974E-03     45.1399E-03    -21.4426E-03     72.5724E-03    -23.7683E-03     44.9833E-03    -21.3440E-03     72.4093E-03
            1120     10.5706E-03     101.798E-03    -19.2687E+06    -45.5517E+06     1.18986E+06    -12.9287E+06    -25.3115E-03     46.8977E-03    -21.5862E-03     81.1144E-03    -25.3835E-03     46.7362E-03    -21.4863E-03     80.8940E-03
            1121     11.4488E-03     101.869E-03    -16.9740E+06    -35.6262E+06     2.67667E+06    -13.6055E+06    -27.3534E-03     49.1616E-03    -21.8082E-03     90.6209E-03    -27.4625E-03     49.0763E-03    -21.7186E-03     90.3619E-03
            1122     12.3257E-03     101.950E-03    -14.5609E+06    -32.5408E+06     5.86842E+06    -14.2246E+06    -30.2569E-03     52.4171E-03    -22.1602E-03     100.683E-03    -30.4204E-03     52.3966E-03    -22.0626E-03     100.369E-03
            1123     13.1992E-03     102.041E-03    -12.5888E+06    -58.4710E+06    -9.35635E+06    -16.7317E+06    -33.3168E-03     55.9094E-03    -22.5927E-03     104.504E-03    -33.4910E-03     55.8587E-03    -22.5364E-03     104.100E-03
            1124     14.0714E-03     102.131E-03    -11.4623E+06    -40.9378E+06    -12.1535E+06    -18.3106E+06    -36.4260E-03     59.5615E-03    -23.1355E-03     116.387E-03    -36.8210E-03     59.8059E-03    -23.1203E-03     115.879E-03
            1125     14.9405E-03     102.247E-03    -9.33434E+06    -19.7966E+06    -8.37342E+06    -18.2336E+06    -42.8685E-03     66.6518E-03    -23.7833E-03     174.567E-03    -44.3607E-03     68.0652E-03    -23.7829E-03     173.932E-03
            1126     15.8075E-03     102.454E-03    -7.53328E+06     45.0610E+06    -7.41250E+06    -13.6795E+06    -50.1364E-03     74.5176E-03    -24.3812E-03     265.794E-03    -56.6626E-03     81.1986E-03    -24.4727E-03     266.221E-03
            1127     16.6734E-03     102.754E-03    -5.07941E+06     149.639E+06     59.4534E+06    -5.59354E+06    -45.3962E-03     70.5611E-03    -25.1649E-03     255.312E-03    -54.1674E-03     79.6730E-03    -25.0772E-03     259.543E-03
            1128     881.554E-06     102.439E-03     540.164E+03     7.46381E+06     532.391E+03    -1.14661E+06    -20.5939E-03     41.2024E-03    -20.6085E-03     6.10898E-03    -20.6029E-03     41.2382E-03    -20.6174E-03     6.09387E-03
            1129     1.76330E-03     102.445E-03    -3.15392E+06     626.258E+03    -3.58398E+06    -1.19142E+06    -20.5257E-03     41.0964E-03    -20.5708E-03     11.3218E-03    -20.5372E-03     41.1093E-03    -20.5850E-03     11.3058E-03
            1130     2.64501E-03     102.455E-03    -8.60084E+06    -8.68377E+06    -8.41292E+06    -423.349E+03    -20.4310E-03     40.9524E-03    -20.5215E-03     16.9122E-03    -20.4494E-03     40.9337E-03    -20.5385E-03     16.9058E-03
            1131     3.52697E-03     102.470E-03    -14.8038E+06    -18.7759E+06    -12.7191E+06     816.608E+03    -20.3345E-03     40.8009E-03    -20.4664E-03     22.7275E-03    -20.3632E-03     40.7472E-03    -20.4813E-03     22.7367E-03
            1132     4.40896E-03     102.490E-03    -20.6918E+06    -27.9020E+06    -15.3452E+06     1.69043E+06    -20.2622E-03     40.6748E-03    -20.4126E-03     28.8078E-03    -20.3035E-03     40.5880E-03    -20.4189E-03     28.8277E-03
            1133     5.29114E-03     102.514E-03    -25.2705E+06    -34.3333E+06    -15.7164E+06     1.60156E+06    -20.2497E-03     40.6147E-03    -20.3650E-03     35.2188E-03    -20.3044E-03     40.5033E-03    -20.3571E-03     35.2367E-03
            1134     6.17334E-03     102.543E-03    -27.8332E+06    -37.6736E+06    -13.7958E+06     315.982E+03    -20.3439E-03     40.6737E-03    -20.3297E-03     42.0418E-03    -20.4101E-03     40.5472E-03    -20.3037E-03     42.0416E-03
            1135     7.05555E-03     102.579E-03    -28.1962E+06    -38.7156E+06    -10.1402E+06    -2.39197E+06    -20.6105E-03     40.9252E-03    -20.3147E-03     49.3502E-03    -20.6838E-03     40.7902E-03    -20.2683E-03     49.3124E-03
            1136     7.93757E-03     102.621E-03    -26.9159E+06    -37.9907E+06    -5.58073E+06    -5.59156E+06    -21.1313E-03     41.4612E-03    -20.3299E-03     57.1932E-03    -21.2085E-03     41.3241E-03    -20.2637E-03     57.1098E-03
            1137     8.81919E-03     102.670E-03    -24.6237E+06    -38.0752E+06    -1.46768E+06    -7.87570E+06    -21.9965E-03     42.3854E-03    -20.3889E-03     65.5747E-03    -22.0734E-03     42.2439E-03    -20.3054E-03     65.4544E-03
            1138     9.70017E-03     102.726E-03    -21.3761E+06    -36.6540E+06     2.20048E+06    -10.7210E+06    -23.3098E-03     43.8164E-03    -20.5066E-03     74.4787E-03    -23.3875E-03     43.6817E-03    -20.4114E-03     74.3097E-03
            1139     10.5800E-03     102.791E-03    -17.9927E+06    -41.2981E+06     2.74256E+06    -13.9966E+06    -25.1347E-03     45.8354E-03    -20.7006E-03     83.5477E-03    -25.2073E-03     45.6895E-03    -20.6010E-03     83.3171E-03
            1140     11.4585E-03     102.863E-03    -14.9999E+06    -35.6797E+06     3.34606E+06    -14.6981E+06    -27.6495E-03     48.6350E-03    -20.9855E-03     93.8207E-03    -27.7497E-03     48.5457E-03    -20.8953E-03     93.5493E-03
            1141     12.3346E-03     102.948E-03    -11.6994E+06    -28.0983E+06     7.60909E+06    -15.9292E+06    -30.8900E-03     52.3025E-03    -21.4124E-03     105.050E-03    -31.0515E-03     52.3007E-03    -21.3167E-03     104.713E-03
            1142     13.2083E-03     103.043E-03    -8.19521E+06    -55.7860E+06    -6.18335E+06    -18.2739E+06    -34.2226E-03     56.1591E-03    -21.9365E-03     109.028E-03    -34.3895E-03     56.1170E-03    -21.8746E-03     108.600E-03
            1143     14.0787E-03     103.135E-03    -6.35671E+06    -38.9049E+06    -9.66454E+06    -18.9157E+06    -38.1280E-03     60.7069E-03    -22.5789E-03     121.585E-03    -38.5283E-03     60.9750E-03    -22.5616E-03     121.048E-03
            1144     14.9469E-03     103.257E-03    -6.95209E+06    -19.1391E+06    -6.83168E+06    -18.9936E+06    -44.8598E-03     68.2078E-03    -23.3479E-03     178.985E-03    -46.3773E-03     69.6527E-03    -23.3443E-03     178.299E-03
            1145     15.8137E-03     103.464E-03    -7.06525E+06     36.6908E+06    -15.1570E+06    -14.4812E+06    -51.7826E-03     75.8050E-03    -24.0224E-03     267.877E-03    -58.3430E-03     82.5147E-03    -24.1412E-03     268.192E-03
            1146     16.6811E-03     103.768E-03    -4.88840E+06     141.319E+06     50.5658E+06    -6.18722E+06    -47.6250E-03     72.5369E-03    -24.9120E-03     253.974E-03    -56.3299E-03     81.5796E-03    -24.8570E-03     257.902E-03
            1147     882.807E-06     103.426E-03    -11.0862E+06     5.82583E+06    -9.60082E+06     2.80803E+06    -19.2868E-03     38.5792E-03    -19.2924E-03     6.04994E-03    -19.3368E-03     38.6383E-03    -19.3328E-03     6.08608E-03
            1148     1.76551E-03     103.432E-03    -15.5830E+06    -1.64609E+06    -12.6815E+06     4.80028E+06    -19.2581E-03     38.5401E-03    -19.2821E-03     11.2188E-03    -19.3153E-03     38.5728E-03    -19.3205E-03     11.2805E-03
            1149     2.64842E-03     103.442E-03    -20.8604E+06    -11.5508E+06    -15.2516E+06     6.86571E+06    -19.2240E-03     38.4930E-03    -19.2690E-03     16.7897E-03    -19.2895E-03     38.4876E-03    -19.2982E-03     16.8780E-03
            1150     3.53126E-03     103.457E-03    -25.9438E+06    -21.2954E+06    -16.8618E+06     8.36481E+06    -19.2020E-03     38.4565E-03    -19.2545E-03     22.6181E-03    -19.2766E-03     38.4121E-03    -19.2703E-03     22.7255E-03
            1151     4.41427E-03     103.476E-03    -29.8163E+06    -28.5463E+06    -17.0400E+06     8.27117E+06    -19.2147E-03     38.4549E-03    -19.2402E-03     28.7512E-03    -19.2979E-03     38.3803E-03    -19.2408E-03     28.8570E-03
            1152     5.29724E-03     103.500E-03    -31.5833E+06    -33.0215E+06    -15.7592E+06     6.20325E+06    -19.2928E-03     38.5222E-03    -19.2294E-03     35.2663E-03    -19.3805E-03     38.4262E-03    -19.2145E-03     35.3447E-03
            1153     6.18026E-03     103.530E-03    -31.2412E+06    -34.7313E+06    -13.1117E+06     2.89784E+06    -19.4724E-03     38.6999E-03    -19.2274E-03     42.2466E-03    -19.5604E-03     38.5916E-03    -19.1973E-03     42.2811E-03
            1154     7.06316E-03     103.565E-03    -29.8824E+06    -34.2067E+06    -9.39582E+06    -1.00644E+06    -19.8244E-03     39.0683E-03    -19.2440E-03     49.8056E-03    -19.9129E-03     38.9566E-03    -19.1980E-03     49.7876E-03
            1155     7.94584E-03     103.608E-03    -28.2789E+06    -33.5364E+06    -5.45962E+06    -4.93464E+06    -20.4373E-03     39.7293E-03    -19.2921E-03     57.9956E-03    -20.5269E-03     39.6153E-03    -19.2297E-03     57.9229E-03
            1156     8.82806E-03     103.657E-03    -25.4821E+06    -33.8690E+06    -1.74858E+06    -8.98232E+06    -21.4245E-03     40.8110E-03    -19.3865E-03     66.8724E-03    -21.5099E-03     40.6907E-03    -19.3092E-03     66.7408E-03
            1157     9.70947E-03     103.715E-03    -21.6400E+06    -31.6164E+06     2.07171E+06    -12.6345E+06    -22.8622E-03     42.4047E-03    -19.5425E-03     76.4010E-03    -22.9466E-03     42.2940E-03    -19.4549E-03     76.2109E-03
            1158     10.5898E-03     103.781E-03    -18.3339E+06    -37.3562E+06     2.64026E+06    -15.3182E+06    -24.9106E-03     44.6933E-03    -19.7826E-03     86.1799E-03    -24.9887E-03     44.5660E-03    -19.6887E-03     85.9361E-03
            1159     11.4682E-03     103.857E-03    -14.9211E+06    -34.1379E+06     2.87976E+06    -17.1180E+06    -27.7718E-03     47.8948E-03    -20.1230E-03     97.7072E-03    -27.8729E-03     47.8134E-03    -20.0374E-03     97.4073E-03
            1160     12.3444E-03     103.945E-03    -10.9959E+06    -24.1806E+06     7.70955E+06    -18.4527E+06    -31.1526E-03     51.7600E-03    -20.6074E-03     109.731E-03    -31.3175E-03     51.7779E-03    -20.5179E-03     109.364E-03
            1161     13.2182E-03     104.043E-03    -8.54732E+06    -53.5698E+06    -5.84053E+06    -20.3215E+06    -35.0029E-03     56.2084E-03    -21.2055E-03     114.405E-03    -35.1825E-03     56.1848E-03    -21.1447E-03     113.946E-03
            1162     14.0884E-03     104.141E-03    -7.63388E+06    -38.5011E+06    -10.2285E+06    -20.2341E+06    -39.8710E-03     61.8205E-03    -21.9494E-03     127.596E-03    -40.3009E-03     62.1167E-03    -21.9337E-03     127.020E-03
            1163     14.9547E-03     104.267E-03    -6.70833E+06    -17.8331E+06    -5.24773E+06    -18.7971E+06    -47.2329E-03     70.0938E-03    -22.8609E-03     183.058E-03    -48.7851E-03     71.5745E-03    -22.8515E-03     182.318E-03
            1164     15.8184E-03     104.476E-03    -6.53941E+06     28.9368E+06    -19.5843E+06    -15.4187E+06    -53.9040E-03     77.5623E-03    -23.6583E-03     267.735E-03    -60.3858E-03     84.1806E-03    -23.7887E-03     267.894E-03
            1165     16.6835E-03     104.778E-03    -4.59739E+06     131.324E+06     43.6786E+06    -7.25503E+06    -49.8833E-03     74.5582E-03    -24.6749E-03     251.733E-03    -58.4534E-03     83.4517E-03    -24.6403E-03     255.331E-03
            1166     883.883E-06     104.410E-03    -26.7350E+06    -5.38403E+06    -23.2604E+06     8.90715E+06    -17.9774E-03     35.9592E-03    -17.9818E-03     5.90858E-03    -18.0696E-03     36.0048E-03    -18.0515E-03     6.02356E-03
            1167     1.76787E-03     104.416E-03    -30.3811E+06    -9.23545E+06    -22.2919E+06     12.7786E+06    -17.9983E-03     36.0035E-03    -18.0051E-03     10.9953E-03    -18.1046E-03     36.0336E-03    -18.0592E-03     11.1602E-03
            1168     2.65169E-03     104.426E-03    -33.5202E+06    -17.0952E+06    -20.9752E+06     14.4256E+06    -18.0354E-03     36.0690E-03    -18.0336E-03     16.5335E-03    -18.1478E-03     36.0625E-03    -18.0651E-03     16.7197E-03
            1169     3.53564E-03     104.441E-03    -34.7380E+06    -24.5974E+06    -19.3156E+06     14.4255E+06    -18.1000E-03     36.1589E-03    -18.0590E-03     22.3796E-03    -18.2100E-03     36.1143E-03    -18.0695E-03     22.5656E-03
            1170     4.41946E-03     104.460E-03    -34.1994E+06    -28.6175E+06    -17.0567E+06     12.5460E+06    -18.2039E-03     36.2844E-03    -18.0806E-03     28.5738E-03    -18.3087E-03     36.2157E-03    -18.0748E-03     28.7354E-03
            1171     5.30334E-03     104.484E-03    -32.9703E+06    -30.4000E+06    -14.7388E+06     8.95217E+06    -18.3648E-03     36.4672E-03    -18.1024E-03     35.1797E-03    -18.4645E-03     36.3846E-03    -18.0842E-03     35.2944E-03
            1172     6.18707E-03     104.514E-03    -31.7185E+06    -30.6247E+06    -12.2862E+06     4.47123E+06    -18.6216E-03     36.7533E-03    -18.1317E-03     42.3071E-03    -18.7187E-03     36.6646E-03    -18.1027E-03     42.3631E-03
            1173     7.07074E-03     104.550E-03    -30.0004E+06    -29.2150E+06    -9.08573E+06    -187.446E+03    -19.0403E-03     37.2192E-03    -18.1789E-03     50.1003E-03    -19.1365E-03     37.1314E-03    -18.1384E-03     50.0944E-03
            1174     7.95407E-03     104.593E-03    -27.5156E+06    -28.4332E+06    -5.30737E+06    -4.64491E+06    -19.7286E-03     37.9871E-03    -18.2585E-03     58.6422E-03    -19.8211E-03     37.8963E-03    -18.2039E-03     58.5754E-03
            1175     8.83691E-03     104.643E-03    -25.3148E+06    -27.5730E+06    -1.69153E+06    -9.40850E+06    -20.7922E-03     39.1767E-03    -18.3845E-03     68.0433E-03    -20.8846E-03     39.0862E-03    -18.3163E-03     67.9090E-03
            1176     9.71888E-03     104.703E-03    -23.6200E+06    -26.9484E+06     825.447E+03    -13.4921E+06    -22.3165E-03     40.8884E-03    -18.5719E-03     78.2043E-03    -22.4138E-03     40.8038E-03    -18.4944E-03     78.0068E-03
            1177     10.5997E-03     104.771E-03    -21.3125E+06    -32.8429E+06     1.16042E+06    -16.6818E+06    -24.5132E-03     43.3594E-03    -18.8462E-03     88.9753E-03    -24.6082E-03     43.2588E-03    -18.7619E-03     88.7183E-03
            1178     11.4786E-03     104.849E-03    -18.0360E+06    -29.8914E+06     1.84930E+06    -20.1537E+06    -27.5127E-03     46.7366E-03    -19.2239E-03     101.755E-03    -27.6319E-03     46.6804E-03    -19.1452E-03     101.421E-03
            1179     12.3552E-03     104.941E-03    -13.9003E+06    -22.2634E+06     6.26662E+06    -21.8763E+06    -31.2812E-03     51.0331E-03    -19.7519E-03     114.561E-03    -31.4612E-03     51.0667E-03    -19.6681E-03     114.153E-03
            1180     13.2287E-03     105.043E-03    -10.8744E+06    -50.9291E+06    -5.61620E+06    -21.9399E+06    -36.0100E-03     56.4394E-03    -20.4294E-03     120.330E-03    -36.2132E-03     56.4399E-03    -20.3679E-03     119.845E-03
            1181     14.0977E-03     105.147E-03    -9.44907E+06    -38.0678E+06    -10.2847E+06    -21.8476E+06    -41.6811E-03     62.9670E-03    -21.2859E-03     133.700E-03    -42.1403E-03     63.2880E-03    -21.2684E-03     133.083E-03
            1182     14.9626E-03     105.279E-03    -7.33832E+06    -18.4243E+06    -4.82137E+06    -20.9173E+06    -49.6738E-03     72.0100E-03    -22.3361E-03     187.858E-03    -51.2474E-03     73.5065E-03    -22.3229E-03     187.028E-03
            1183     15.8246E-03     105.492E-03    -5.28366E+06     21.7145E+06    -19.8849E+06    -16.2231E+06    -56.7273E-03     80.0148E-03    -23.2875E-03     269.415E-03    -63.0810E-03     86.4847E-03    -23.4108E-03     269.343E-03
            1184     16.6862E-03     105.791E-03    -3.29683E+06     120.864E+06     41.3000E+06    -7.28295E+06    -53.0031E-03     77.4611E-03    -24.4580E-03     252.986E-03    -61.5087E-03     86.2644E-03    -24.4220E-03     256.248E-03
            1185     885.034E-06     105.392E-03    -45.1219E+06    -25.3996E+06    -42.7404E+06     11.7984E+06    -16.7857E-03     33.5830E-03    -16.7974E-03     5.72057E-03    -16.9125E-03     33.5834E-03    -16.9088E-03     5.87287E-03
            1186     1.76989E-03     105.398E-03    -42.3786E+06    -22.1159E+06    -33.4689E+06     18.0519E+06    -16.8291E-03     33.6659E-03    -16.8368E-03     10.6886E-03    -16.9604E-03     33.6653E-03    -16.9107E-03     10.9216E-03
            1187     2.65484E-03     105.408E-03    -40.3417E+06    -23.7857E+06    -25.6281E+06     19.9035E+06    -16.9215E-03     33.8117E-03    -16.8902E-03     16.1878E-03    -17.0516E-03     33.7884E-03    -16.9253E-03     16.4448E-03
            1188     3.53960E-03     105.423E-03    -38.5106E+06    -26.8424E+06    -21.0603E+06     17.8905E+06    -17.0637E-03     34.0028E-03    -16.9390E-03     22.0545E-03    -17.1868E-03     33.9548E-03    -16.9495E-03     22.2855E-03
            1189     4.42441E-03     105.442E-03    -35.8444E+06    -27.5918E+06    -17.9546E+06     13.9993E+06    -17.2379E-03     34.2211E-03    -16.9832E-03     28.2698E-03    -17.3511E-03     34.1611E-03    -16.9809E-03     28.4505E-03
            1190     5.30904E-03     105.467E-03    -32.4213E+06    -27.2106E+06    -14.9894E+06     9.52430E+06    -17.4622E-03     34.4919E-03    -17.0296E-03     34.9210E-03    -17.5633E-03     34.4246E-03    -17.0181E-03     35.0436E-03
            1191     6.19363E-03     105.497E-03    -28.9878E+06    -26.2864E+06    -11.7285E+06     4.99576E+06    -17.7869E-03     34.8730E-03    -17.0861E-03     42.1715E-03    -17.8771E-03     34.8009E-03    -17.0646E-03     42.2350E-03
            1192     7.07793E-03     105.533E-03    -26.5482E+06    -24.1023E+06    -8.01821E+06     498.604E+03    -18.2734E-03     35.4353E-03    -17.1620E-03     50.1716E-03    -18.3607E-03     35.3661E-03    -17.1286E-03     50.1757E-03
            1193     7.96199E-03     105.577E-03    -25.1127E+06    -22.9097E+06    -4.57462E+06    -4.10412E+06    -19.0120E-03     36.2808E-03    -17.2688E-03     59.0393E-03    -19.1007E-03     36.2122E-03    -17.2220E-03     58.9813E-03
            1194     8.84544E-03     105.628E-03    -23.4738E+06    -20.9063E+06    -1.08433E+06    -8.85064E+06    -20.0941E-03     37.5122E-03    -17.4182E-03     68.9029E-03    -20.1863E-03     37.4501E-03    -17.3592E-03     68.7785E-03
            1195     9.72813E-03     105.689E-03    -21.5689E+06    -22.0733E+06     1.43999E+06    -12.8809E+06    -21.6758E-03     39.3050E-03    -17.6293E-03     79.7222E-03    -21.7685E-03     39.2387E-03    -17.5588E-03     79.5364E-03
            1196     10.6095E-03     105.759E-03    -19.5691E+06    -26.3800E+06     2.55261E+06    -17.3773E+06    -23.9261E-03     41.8507E-03    -17.9245E-03     91.4726E-03    -24.0207E-03     41.7747E-03    -17.8451E-03     91.2119E-03
            1197     11.4891E-03     105.840E-03    -16.9097E+06    -23.8861E+06     3.62582E+06    -22.0963E+06    -27.0685E-03     45.3930E-03    -18.3245E-03     105.328E-03    -27.1895E-03     45.3588E-03    -18.2472E-03     104.976E-03
            1198     12.3662E-03     105.936E-03    -14.2055E+06    -20.2947E+06     6.48107E+06    -24.2747E+06    -31.4378E-03     50.3259E-03    -18.8882E-03     119.420E-03    -31.6210E-03     50.3682E-03    -18.8057E-03     118.985E-03
            1199     13.2395E-03     106.044E-03    -11.3636E+06    -49.0761E+06    -4.52420E+06    -24.8047E+06    -36.9595E-03     56.5991E-03    -19.6396E-03     126.915E-03    -37.1742E-03     56.6128E-03    -19.5746E-03     126.390E-03
            1200     14.1073E-03     106.155E-03    -7.74509E+06    -37.2817E+06    -8.17930E+06    -24.1466E+06    -43.2828E-03     63.8804E-03    -20.5976E-03     141.075E-03    -43.7545E-03     64.2166E-03    -20.5732E-03     140.410E-03
            1201     14.9711E-03     106.291E-03    -5.61357E+06    -19.2012E+06    -3.00784E+06    -22.7409E+06    -51.5489E-03     73.3046E-03    -21.7557E-03     194.214E-03    -53.1186E-03     74.7955E-03    -21.7348E-03     193.310E-03
            1202     15.8317E-03     106.510E-03    -5.48560E+06     12.8002E+06    -22.1312E+06    -17.5992E+06    -58.9232E-03     81.7302E-03    -22.8070E-03     273.208E-03    -65.0569E-03     87.9544E-03    -22.9283E-03     272.914E-03
            1203     16.6933E-03     106.807E-03    -4.67551E+06     109.983E+06     37.6000E+06    -7.77066E+06    -57.6904E-03     81.8311E-03    -24.1407E-03     257.126E-03    -66.1176E-03     90.5238E-03    -24.1054E-03     259.939E-03
            1204     885.711E-06     106.371E-03    -76.2258E+06    -43.3890E+06    -76.5434E+06     6.39238E+06    -15.7797E-03     31.5757E-03    -15.7960E-03     5.53976E-03    -15.9869E-03     31.5803E-03    -16.0053E-03     5.62225E-03
            1205     1.77164E-03     106.378E-03    -64.2960E+06    -36.3013E+06    -60.5799E+06     11.8533E+06    -15.8052E-03     31.6328E-03    -15.8277E-03     10.3473E-03    -15.9862E-03     31.6324E-03    -15.9847E-03     10.5003E-03
            1206     2.65741E-03     106.388E-03    -50.0618E+06    -31.3088E+06    -41.7928E+06     15.3563E+06    -15.9066E-03     31.7947E-03    -15.8881E-03     15.7172E-03    -16.0509E-03     31.7713E-03    -15.9791E-03     15.9155E-03
            1207     3.54320E-03     106.403E-03    -38.3270E+06    -28.7949E+06    -27.8573E+06     15.3003E+06    -16.0886E-03     32.0379E-03    -15.9493E-03     21.5417E-03    -16.1980E-03     31.9898E-03    -15.9913E-03     21.7393E-03
            1208     4.42869E-03     106.422E-03    -31.4298E+06    -26.7435E+06    -20.1440E+06     13.0905E+06    -16.3245E-03     32.3300E-03    -16.0055E-03     27.7753E-03    -16.4136E-03     32.2710E-03    -16.0219E-03     27.9444E-03
            1209     5.31419E-03     106.447E-03    -28.7101E+06    -24.2986E+06    -15.6637E+06     9.75575E+06    -16.6171E-03     32.6850E-03    -16.0679E-03     34.4632E-03    -16.7027E-03     32.6278E-03    -16.0693E-03     34.5891E-03
            1210     6.19944E-03     106.477E-03    -27.3100E+06    -21.4445E+06    -11.9739E+06     4.89422E+06    -16.9972E-03     33.1418E-03    -16.1446E-03     41.7595E-03    -17.0856E-03     33.0918E-03    -16.1338E-03     41.8222E-03
            1211     7.08457E-03     106.514E-03    -24.4229E+06    -19.1959E+06    -7.85928E+06    -157.098E+03    -17.5299E-03     33.7721E-03    -16.2423E-03     49.8860E-03    -17.6136E-03     33.7237E-03    -16.2183E-03     49.8825E-03
            1212     7.96918E-03     106.558E-03    -20.6117E+06    -17.7418E+06    -3.44321E+06    -4.22194E+06    -18.2931E-03     34.6620E-03    -16.3689E-03     59.0084E-03    -18.3676E-03     34.6103E-03    -16.3305E-03     58.9503E-03
            1213     8.85335E-03     106.611E-03    -18.5828E+06    -15.3768E+06     811.687E+03    -7.72210E+06    -19.3817E-03     35.9176E-03    -16.5359E-03     69.2665E-03    -19.4588E-03     35.8719E-03    -16.4826E-03     69.1590E-03
            1214     9.73666E-03     106.673E-03    -17.8657E+06    -16.2787E+06     3.91763E+06    -11.8245E+06    -20.9606E-03     37.7225E-03    -16.7619E-03     80.6865E-03    -21.0443E-03     37.6737E-03    -16.6928E-03     80.5182E-03
            1215     10.6188E-03     106.745E-03    -16.3369E+06    -17.9556E+06     5.92267E+06    -17.5475E+06    -23.2245E-03     40.2897E-03    -17.0652E-03     93.3061E-03    -23.3161E-03     40.2424E-03    -16.9859E-03     93.0487E-03
            1216     11.4991E-03     106.830E-03    -14.9856E+06    -18.1460E+06     6.55977E+06    -22.1959E+06    -26.5802E-03     44.0582E-03    -17.4781E-03     108.403E-03    -26.6990E-03     44.0405E-03    -17.3972E-03     108.056E-03
            1217     12.3767E-03     106.930E-03    -14.1436E+06    -16.9689E+06     7.84821E+06    -24.4675E+06    -31.4222E-03     49.4861E-03    -18.0639E-03     124.440E-03    -31.6075E-03     49.5385E-03    -17.9796E-03     124.008E-03
            1218     13.2497E-03     107.044E-03    -12.0659E+06    -43.6627E+06    -1.56750E+06    -28.7353E+06    -37.2728E-03     56.1325E-03    -18.8597E-03     133.751E-03    -37.5017E-03     56.1685E-03    -18.7867E-03     133.180E-03
            1219     14.1184E-03     107.162E-03    -7.29708E+06    -38.5306E+06    -5.87351E+06    -29.8459E+06    -44.0932E-03     63.9650E-03    -19.8719E-03     149.305E-03    -44.5697E-03     64.2966E-03    -19.8348E-03     148.560E-03
            1220     14.9811E-03     107.307E-03    -2.44318E+06    -23.2164E+06    -314.267E+03    -23.9351E+06    -53.0892E-03     74.1933E-03    -21.1040E-03     200.859E-03    -54.6269E-03     75.6414E-03    -21.0684E-03     199.895E-03
            1221     15.8423E-03     107.526E-03    -2.56172E+06     4.40435E+06    -18.7085E+06    -16.1399E+06    -61.5940E-03     83.8707E-03    -22.2767E-03     276.055E-03    -67.3857E-03     89.7238E-03    -22.3729E-03     275.498E-03
            1222     16.7013E-03     107.828E-03    -4.50391E+06     99.0108E+06     39.3473E+06    -6.94942E+06    -63.3761E-03     87.1851E-03    -23.8090E-03     262.993E-03    -71.6803E-03     95.7122E-03    -23.7493E-03     265.243E-03
            1223     886.378E-06     107.349E-03    -95.5176E+06    -48.5287E+06    -95.9049E+06    -1.45944E+06    -15.0742E-03     30.1668E-03    -15.0926E-03     5.36907E-03    -15.3424E-03     30.2018E-03    -15.3633E-03     5.35012E-03
            1224     1.77266E-03     107.355E-03    -86.8868E+06    -43.0633E+06    -85.6001E+06    -1.13041E+06    -15.0713E-03     30.1691E-03    -15.0978E-03     10.0042E-03    -15.3192E-03     30.2039E-03    -15.3374E-03     9.98938E-03
            1225     2.65919E-03     107.366E-03    -73.1605E+06    -36.6186E+06    -70.8905E+06     532.577E+03    -15.0993E-03     30.2192E-03    -15.1199E-03     15.1296E-03    -15.3092E-03     30.2450E-03    -15.3152E-03     15.1363E-03
            1226     3.54565E-03     107.381E-03    -57.0577E+06    -31.2820E+06    -55.6753E+06     2.13357E+06    -15.2096E-03     30.3584E-03    -15.1488E-03     20.6982E-03    -15.3688E-03     30.3655E-03    -15.2991E-03     20.7256E-03
            1227     4.43221E-03     107.401E-03    -41.3408E+06    -28.1258E+06    -39.8826E+06     3.53142E+06    -15.4408E-03     30.6426E-03    -15.2018E-03     26.7741E-03    -15.5489E-03     30.6197E-03    -15.3004E-03     26.8196E-03
            1228     5.31840E-03     107.426E-03    -28.2747E+06    -23.8320E+06    -24.4826E+06     4.44844E+06    -15.7892E-03     31.0698E-03    -15.2806E-03     33.4425E-03    -15.8606E-03     31.0271E-03    -15.3275E-03     33.4999E-03
            1229     6.20437E-03     107.457E-03    -20.3331E+06    -17.5939E+06    -12.8507E+06     3.34669E+06    -16.2569E-03     31.6317E-03    -15.3748E-03     40.8450E-03    -16.3146E-03     31.5920E-03    -15.3841E-03     40.8878E-03
            1230     7.08989E-03     107.494E-03    -18.3154E+06    -14.5894E+06    -6.34901E+06     98.9470E+03    -16.8644E-03     32.3528E-03    -15.4885E-03     49.0852E-03    -16.9262E-03     32.3162E-03    -15.4725E-03     49.0854E-03
            1231     7.97526E-03     107.539E-03    -18.8331E+06    -12.9555E+06    -2.61792E+06    -3.85601E+06    -17.6345E-03     33.2616E-03    -15.6271E-03     58.3045E-03    -17.7077E-03     33.2295E-03    -15.5941E-03     58.2522E-03
            1232     8.86001E-03     107.592E-03    -17.3659E+06    -10.7278E+06     1.91757E+06    -7.62203E+06    -18.6922E-03     34.4959E-03    -15.8037E-03     68.8152E-03    -18.7703E-03     34.4687E-03    -15.7534E-03     68.7111E-03
            1233     9.74401E-03     107.656E-03    -14.5097E+06    -10.2918E+06     6.62625E+06    -11.2797E+06    -20.2227E-03     36.2563E-03    -16.0336E-03     80.7335E-03    -20.2997E-03     36.2260E-03    -15.9645E-03     80.5757E-03
            1234     10.6268E-03     107.730E-03    -13.7911E+06    -9.49401E+06     9.81369E+06    -15.9585E+06    -22.4744E-03     38.8102E-03    -16.3358E-03     94.1905E-03    -22.5666E-03     38.7913E-03    -16.2530E-03     93.9594E-03
            1235     11.5079E-03     107.818E-03    -14.2485E+06    -12.5688E+06     10.3025E+06    -20.4426E+06    -25.9646E-03     42.7152E-03    -16.7506E-03     110.743E-03    -26.0859E-03     42.7115E-03    -16.6602E-03     110.426E-03
            1236     12.3859E-03     107.922E-03    -14.1884E+06    -12.6767E+06     10.8155E+06    -23.2270E+06    -30.9038E-03     48.2353E-03    -17.3314E-03     128.893E-03    -31.0898E-03     48.2948E-03    -17.2384E-03     128.488E-03
            1237     13.2602E-03     108.043E-03    -13.9657E+06    -31.9109E+06     4.37871E+06    -30.0965E+06    -36.8777E-03     55.0056E-03    -18.1279E-03     140.158E-03    -37.1310E-03     55.0838E-03    -18.0395E-03     139.580E-03
            1238     14.1288E-03     108.168E-03    -12.1498E+06    -37.6538E+06    -3.53183E+06    -36.2962E+06    -44.4329E-03     63.5860E-03    -19.1531E-03     157.120E-03    -44.9297E-03     63.9171E-03    -19.0985E-03     156.294E-03
            1239     14.9930E-03     108.321E-03    -6.94917E+06    -35.4319E+06    -1.61154E+06    -30.2197E+06    -55.1291E-03     75.5874E-03    -20.4584E-03     206.674E-03    -56.6299E-03     76.9436E-03    -20.4050E-03     205.570E-03
            1240     15.8503E-03     108.546E-03    -2.00714E+06    -7.57214E+06    -13.8913E+06    -16.1919E+06    -65.5189E-03     87.3341E-03    -21.8152E-03     277.365E-03    -70.8794E-03     92.7016E-03    -21.8707E-03     276.442E-03
            1241     16.7054E-03     108.850E-03    -1.91303E+06     89.7962E+06     44.9497E+06    -4.09435E+06    -68.7731E-03     92.3360E-03    -23.5629E-03     270.658E-03    -76.9534E-03     100.700E-03    -23.4656E-03     272.346E-03
            1242     886.647E-06     108.326E-03    -83.1548E+06    -42.8899E+06    -82.2645E+06    -4.36945E+06    -14.7347E-03     29.4785E-03    -14.7438E-03     5.13438E-03    -14.9690E-03     29.5040E-03    -14.9724E-03     5.07774E-03
            1243     1.77342E-03     108.332E-03    -81.4703E+06    -39.5769E+06    -79.1281E+06    -7.53251E+06    -14.7479E-03     29.4930E-03    -14.7451E-03     9.57248E-03    -14.9831E-03     29.5280E-03    -14.9652E-03     9.47482E-03
            1244     2.66006E-03     108.343E-03    -77.6322E+06    -35.0831E+06    -74.3905E+06    -9.98902E+06    -14.7520E-03     29.5020E-03    -14.7500E-03     14.4074E-03    -14.9816E-03     29.5471E-03    -14.9585E-03     14.2778E-03
            1245     3.54693E-03     108.358E-03    -70.8187E+06    -30.6963E+06    -67.4877E+06    -11.1503E+06    -14.7783E-03     29.5345E-03    -14.7562E-03     19.5792E-03    -14.9902E-03     29.5817E-03    -14.9465E-03     19.4345E-03
            1246     4.43370E-03     108.378E-03    -60.5856E+06    -28.5857E+06    -57.4271E+06    -11.3310E+06    -14.8719E-03     29.6488E-03    -14.7769E-03     25.2364E-03    -15.0504E-03     29.6772E-03    -14.9347E-03     25.0894E-03
            1247     5.32065E-03     108.403E-03    -46.7992E+06    -24.8866E+06    -45.0868E+06    -10.3244E+06    -15.0939E-03     29.9054E-03    -14.8115E-03     31.5860E-03    -15.2268E-03     29.9145E-03    -14.9330E-03     31.4520E-03
            1248     6.20738E-03     108.434E-03    -31.4964E+06    -18.3480E+06    -31.5604E+06    -7.53918E+06    -15.5182E-03     30.3874E-03    -14.8692E-03     38.8319E-03    -15.6037E-03     30.3874E-03    -14.9547E-03     38.7338E-03
            1249     7.09381E-03     108.472E-03    -18.9341E+06    -14.0164E+06    -15.6212E+06    -4.08237E+06    -16.1724E-03     31.1553E-03    -14.9829E-03     47.0945E-03    -16.2247E-03     31.1359E-03    -15.0132E-03     47.0407E-03
            1250     7.97938E-03     108.518E-03    -12.1267E+06    -9.09152E+06    -1.21892E+06    -3.70506E+06    -17.0403E-03     32.1817E-03    -15.1414E-03     56.4952E-03    -17.0873E-03     32.1569E-03    -15.1168E-03     56.4453E-03
            1251     8.86455E-03     108.572E-03    -10.8658E+06    -6.11157E+06     6.04677E+06    -6.47620E+06    -18.1441E-03     33.4675E-03    -15.3235E-03     67.1914E-03    -18.2014E-03     33.4471E-03    -15.2686E-03     67.1034E-03
            1252     9.74907E-03     108.637E-03    -11.8280E+06    -5.17500E+06     9.93400E+06    -9.83790E+06    -19.5790E-03     35.1259E-03    -15.5470E-03     79.3490E-03    -19.6524E-03     35.1102E-03    -15.4726E-03     79.2128E-03
            1253     10.6326E-03     108.713E-03    -11.6918E+06    -2.52621E+06     14.2820E+06    -13.5296E+06    -21.7373E-03     37.5763E-03    -15.8390E-03     93.5673E-03    -21.8305E-03     37.5776E-03    -15.7470E-03     93.3732E-03
            1254     11.5143E-03     108.803E-03    -10.9142E+06    -5.93802E+06     16.3855E+06    -18.1245E+06    -25.1752E-03     41.4139E-03    -16.2387E-03     111.479E-03    -25.2885E-03     41.4200E-03    -16.1323E-03     111.203E-03
            1255     12.3934E-03     108.913E-03    -10.2309E+06    -8.78151E+06     16.8933E+06    -21.1796E+06    -29.9057E-03     46.6929E-03    -16.7872E-03     131.273E-03    -30.0692E-03     46.7401E-03    -16.6751E-03     130.911E-03
            1256     13.2688E-03     109.039E-03    -11.3826E+06    -18.4044E+06     14.1054E+06    -26.0780E+06    -35.9878E-03     53.5336E-03    -17.5458E-03     144.768E-03    -36.2389E-03     53.6385E-03    -17.4321E-03     144.262E-03
            1257     14.1393E-03     109.173E-03    -16.5231E+06    -28.4408E+06     3.84132E+06    -34.2058E+06    -44.8436E-03     63.4113E-03    -18.5677E-03     163.692E-03    -45.3601E-03     63.7580E-03    -18.4833E-03     162.899E-03
            1258     15.0009E-03     109.336E-03    -19.9649E+06    -45.2856E+06    -2.82583E+06    -36.4106E+06    -57.4079E-03     77.3510E-03    -19.9431E-03     212.952E-03    -58.8898E-03     78.6108E-03    -19.8626E-03     211.707E-03
            1259     15.8566E-03     109.570E-03    -17.1927E+06    -27.9061E+06    -14.9379E+06    -26.1272E+06    -69.4440E-03     90.9127E-03    -21.4687E-03     280.773E-03    -74.3516E-03     95.7045E-03    -21.4780E-03     279.379E-03
            1260     16.7085E-03     109.875E-03    -9.39782E+06     74.2316E+06     43.6247E+06    -9.06036E+06    -73.4194E-03     96.7917E-03    -23.3723E-03     280.594E-03    -81.4580E-03     104.936E-03    -23.2482E-03     281.635E-03
            1261     886.849E-06     109.303E-03    -60.8585E+06    -34.1360E+06    -60.0587E+06    -4.43925E+06    -14.7510E-03     29.4917E-03    -14.7407E-03     4.76958E-03    -14.9187E-03     29.4964E-03    -14.9032E-03     4.71185E-03
            1262     1.77353E-03     109.309E-03    -59.2213E+06    -31.2779E+06    -56.2700E+06    -8.27547E+06    -14.8225E-03     29.5926E-03    -14.7702E-03     8.89426E-03    -14.9917E-03     29.6038E-03    -14.9203E-03     8.78664E-03
            1263     2.66031E-03     109.319E-03    -57.3105E+06    -28.2962E+06    -50.9739E+06    -11.7942E+06    -14.9103E-03     29.7272E-03    -14.8169E-03     13.3490E-03    -15.0821E-03     29.7429E-03    -14.9477E-03     13.1955E-03
            1264     3.54685E-03     109.334E-03    -55.6598E+06    -25.5932E+06    -46.7894E+06    -14.5642E+06    -14.9748E-03     29.8325E-03    -14.8577E-03     18.0888E-03    -15.1485E-03     29.8534E-03    -14.9738E-03     17.8992E-03
            1265     4.43358E-03     109.354E-03    -54.1609E+06    -24.0424E+06    -44.6029E+06    -17.2863E+06    -15.0233E-03     29.9055E-03    -14.8822E-03     23.2198E-03    -15.1951E-03     29.9290E-03    -14.9919E-03     22.9947E-03
            1266     5.32027E-03     109.379E-03    -51.7277E+06    -22.2663E+06    -42.5344E+06    -19.8070E+06    -15.1106E-03     30.0087E-03    -14.8982E-03     28.9387E-03    -15.2760E-03     30.0348E-03    -15.0035E-03     28.6809E-03
            1267     6.20708E-03     109.411E-03    -46.0914E+06    -19.4248E+06    -37.7429E+06    -20.1397E+06    -15.3009E-03     30.2239E-03    -14.9229E-03     35.5134E-03    -15.4495E-03     30.2493E-03    -15.0167E-03     35.2512E-03
            1268     7.09375E-03     109.449E-03    -34.9087E+06    -17.0957E+06    -27.1258E+06    -17.4770E+06    -15.6908E-03     30.6730E-03    -14.9822E-03     43.2600E-03    -15.8024E-03     30.6786E-03    -15.0424E-03     43.0322E-03
            1269     7.98039E-03     109.496E-03    -20.3641E+06    -9.84068E+06    -13.1740E+06    -13.1690E+06    -16.4071E-03     31.4825E-03    -15.0754E-03     52.5040E-03    -16.4771E-03     31.4834E-03    -15.0974E-03     52.3314E-03
            1270     8.86600E-03     109.551E-03    -8.78402E+06    -5.69642E+06     1.81730E+06    -8.97000E+06    -17.5309E-03     32.7624E-03    -15.2314E-03     63.3727E-03    -17.5718E-03     32.7466E-03    -15.2013E-03     63.2531E-03
            1271     9.75064E-03     109.617E-03    -3.18072E+06    -990.998E+03     15.2314E+06    -8.28916E+06    -19.0508E-03     34.5022E-03    -15.4514E-03     75.8772E-03    -19.0928E-03     34.4852E-03    -15.3692E-03     75.7633E-03
            1272     10.6344E-03     109.695E-03    -1.91255E+06     2.50023E+06     21.8350E+06    -10.8557E+06    -21.2179E-03     36.9430E-03    -15.7251E-03     90.6683E-03    -21.2756E-03     36.9395E-03    -15.6168E-03     90.5136E-03
            1273     11.5169E-03     109.788E-03    -3.07008E+06     498.880E+03     25.3519E+06    -13.8477E+06    -24.3313E-03     40.4290E-03    -16.0977E-03     109.318E-03    -24.4160E-03     40.4312E-03    -15.9672E-03     109.107E-03
            1274     12.3967E-03     109.901E-03    -3.79089E+06    -2.36694E+06     26.7670E+06    -18.9760E+06    -28.7241E-03     45.3207E-03    -16.5966E-03     130.409E-03    -28.8563E-03     45.3537E-03    -16.4538E-03     130.093E-03
            1275     13.2738E-03     110.033E-03    -3.95960E+06    -13.8934E+06     23.7666E+06    -19.9332E+06    -34.9905E-03     52.2823E-03    -17.2918E-03     146.446E-03    -35.1904E-03     52.3504E-03    -17.1471E-03     146.045E-03
            1276     14.1442E-03     110.176E-03    -7.59981E+06    -12.9692E+06     17.8882E+06    -23.6066E+06    -44.6580E-03     62.9328E-03    -18.2748E-03     168.741E-03    -45.1204E-03     63.2714E-03    -18.1556E-03     168.109E-03
            1277     15.0069E-03     110.352E-03    -12.1025E+06    -40.8466E+06     7.75836E+06    -31.7575E+06    -58.5407E-03     78.1954E-03    -19.6546E-03     218.985E-03    -59.8797E-03     79.3252E-03    -19.5391E-03     217.784E-03
            1278     15.8619E-03     110.593E-03    -14.0786E+06    -43.7317E+06    -9.49555E+06    -27.6830E+06    -71.6915E-03     92.9327E-03    -21.2412E-03     284.868E-03    -75.9503E-03     97.0147E-03    -21.2048E-03     283.233E-03
            1279     16.7118E-03     110.905E-03    -10.8245E+06     56.1467E+06     42.7835E+06    -16.0266E+06    -77.1460E-03     100.353E-03    -23.2073E-03     291.668E-03    -84.8752E-03     108.121E-03    -23.0591E-03     291.963E-03
            1280     886.434E-06     110.279E-03    -37.7171E+06    -25.3145E+06    -36.8336E+06    -4.46631E+06    -15.2652E-03     30.4979E-03    -15.2328E-03     4.23630E-03    -15.3637E-03     30.4795E-03    -15.3256E-03     4.17794E-03
            1281     1.77292E-03     110.286E-03    -37.1586E+06    -22.7758E+06    -33.5557E+06    -7.81151E+06    -15.3822E-03     30.6694E-03    -15.2871E-03     7.88553E-03    -15.4865E-03     30.6581E-03    -15.3680E-03     7.78336E-03
            1282     2.65911E-03     110.296E-03    -36.3558E+06    -20.9869E+06    -29.6080E+06    -10.6835E+06    -15.5507E-03     30.9128E-03    -15.3621E-03     11.8039E-03    -15.6595E-03     30.9038E-03    -15.4270E-03     11.6640E-03
            1283     3.54533E-03     110.312E-03    -35.0970E+06    -18.7726E+06    -25.8431E+06    -13.3661E+06    -15.7425E-03     31.1887E-03    -15.4462E-03     15.9319E-03    -15.8539E-03     31.1837E-03    -15.4973E-03     15.7565E-03
            1284     4.43127E-03     110.331E-03    -33.3443E+06    -16.9647E+06    -21.8002E+06    -16.3593E+06    -15.9326E-03     31.4686E-03    -15.5360E-03     20.3698E-03    -16.0441E-03     31.4646E-03    -15.5720E-03     20.1550E-03
            1285     5.31717E-03     110.357E-03    -32.0909E+06    -16.0781E+06    -17.9998E+06    -19.2274E+06    -16.0820E-03     31.7051E-03    -15.6231E-03     25.3032E-03    -16.1945E-03     31.6987E-03    -15.6432E-03     25.0505E-03
            1286     6.20295E-03     110.388E-03    -32.3081E+06    -15.9103E+06    -15.7212E+06    -21.4862E+06    -16.1791E-03     31.8740E-03    -15.6948E-03     30.9649E-03    -16.2967E-03     31.8658E-03    -15.7035E-03     30.6825E-03
            1287     7.08894E-03     110.427E-03    -32.7214E+06    -15.4649E+06    -15.1368E+06    -23.6615E+06    -16.2839E-03     32.0288E-03    -15.7448E-03     37.6630E-03    -16.4055E-03     32.0230E-03    -15.7506E-03     37.3523E-03
            1288     7.97483E-03     110.473E-03    -29.9205E+06    -12.4011E+06    -13.6501E+06    -23.3781E+06    -16.5180E-03     32.3017E-03    -15.7837E-03     45.8423E-03    -16.6325E-03     32.3055E-03    -15.7906E-03     45.5354E-03
            1289     8.86105E-03     110.529E-03    -21.2333E+06    -9.51956E+06    -4.94198E+06    -19.5205E+06    -17.1161E-03     32.9766E-03    -15.8605E-03     55.9799E-03    -17.2045E-03     32.9700E-03    -15.8406E-03     55.7228E-03
            1290     9.74658E-03     110.596E-03    -9.48237E+06    -1.66085E+06     8.83493E+06    -14.8194E+06    -18.3857E-03     34.3789E-03    -15.9932E-03     68.5087E-03    -18.4478E-03     34.3759E-03    -15.9329E-03     68.3113E-03
            1291     10.6305E-03     110.676E-03    -1.09774E+06     3.88387E+06     21.8141E+06    -11.4981E+06    -20.5578E-03     36.7704E-03    -16.2126E-03     84.0254E-03    -20.6090E-03     36.7684E-03    -16.1075E-03     83.8667E-03
            1292     11.5125E-03     110.772E-03     3.39443E+06     4.80935E+06     32.3815E+06    -11.7218E+06    -23.5565E-03     40.0993E-03    -16.5428E-03     103.141E-03    -23.6140E-03     40.0920E-03    -16.3928E-03     102.968E-03
            1293     12.3935E-03     110.887E-03     3.79081E+06     4.92136E+06     36.6409E+06    -14.0672E+06    -27.7278E-03     44.7105E-03    -16.9827E-03     125.150E-03    -27.8221E-03     44.7296E-03    -16.8121E-03     124.918E-03
            1294     13.2706E-03     111.025E-03     2.95560E+06    -13.5882E+06     32.1555E+06    -16.3183E+06    -33.6768E-03     51.2764E-03    -17.5996E-03     143.910E-03    -33.8103E-03     51.2793E-03    -17.4234E-03     143.588E-03
            1295     14.1430E-03     111.177E-03     3.73146E+06    -4.89582E+06     30.6614E+06    -16.0301E+06    -43.3417E-03     61.8291E-03    -18.4874E-03     170.230E-03    -43.6940E-03     62.0893E-03    -18.3324E-03     169.747E-03
            1296     15.0074E-03     111.365E-03     162.484E+03    -24.8921E+06     21.9447E+06    -21.8418E+06    -57.8683E-03     77.6419E-03    -19.7736E-03     221.343E-03    -58.9782E-03     78.6017E-03    -19.6280E-03     220.324E-03
            1297     15.8624E-03     111.618E-03    -423.223E+03    -51.2372E+06    -3.47789E+06    -26.3530E+06    -71.1846E-03     92.4699E-03    -21.2853E-03     284.082E-03    -74.6030E-03     95.7158E-03    -21.2278E-03     282.416E-03
            1298     16.7158E-03     111.931E-03     3.24863E+06     37.7205E+06     42.0612E+06    -13.5867E+06    -77.9436E-03     101.119E-03    -23.1752E-03     301.184E-03    -85.1295E-03     108.330E-03    -23.0243E-03     300.846E-03
            1299     885.576E-06     111.258E-03    -16.3881E+06    -17.2589E+06    -15.1410E+06    -3.74592E+06    -16.4816E-03     32.9103E-03    -16.4286E-03     3.51592E-03    -16.5167E-03     32.8697E-03    -16.4555E-03     3.46648E-03
            1300     1.77090E-03     111.264E-03    -16.2143E+06    -15.5010E+06    -13.0842E+06    -6.39863E+06    -16.6441E-03     33.1484E-03    -16.5043E-03     6.50072E-03    -16.6841E-03     33.1135E-03    -16.5237E-03     6.41604E-03
            1301     2.65623E-03     111.275E-03    -15.5696E+06    -14.2385E+06    -9.92653E+06    -9.19776E+06    -16.9082E-03     33.5178E-03    -16.6097E-03     9.67818E-03    -16.9515E-03     33.4839E-03    -16.6161E-03     9.55619E-03
            1302     3.54114E-03     111.291E-03     -14.674E+06    -12.4274E+06    -5.79928E+06    -11.7882E+06    -17.2454E-03     33.9924E-03    -16.7470E-03     12.9872E-03    -17.2932E-03     33.9605E-03    -16.7367E-03     12.8304E-03
            1303     4.42580E-03     111.311E-03    -14.4451E+06    -10.4649E+06    -2.00653E+06    -14.1412E+06    -17.5913E-03     34.4945E-03    -16.9032E-03     16.5423E-03    -17.6468E-03     34.4670E-03    -16.8771E-03     16.3536E-03
            1304     5.31013E-03     111.336E-03    -14.6850E+06    -10.2115E+06     316.292E+03    -16.2891E+06    -17.8981E-03     34.9599E-03    -17.0619E-03     20.4880E-03    -17.9592E-03     34.9314E-03    -17.0242E-03     20.2702E-03
            1305     6.19435E-03     111.368E-03    -14.5139E+06    -10.8278E+06     2.37466E+06    -17.8972E+06    -18.1345E-03     35.3491E-03    -17.2146E-03     25.0139E-03    -18.1976E-03     35.3149E-03    -17.1660E-03     24.7738E-03
            1306     7.07829E-03     111.406E-03    -14.9372E+06    -9.88306E+06     5.42501E+06    -19.6348E+06    -18.2665E-03     35.6218E-03    -17.3553E-03     30.3956E-03    -18.3384E-03     35.5893E-03    -17.2922E-03     30.1320E-03
            1307     7.96243E-03     111.453E-03    -16.8731E+06    -9.93344E+06     7.15405E+06    -21.7957E+06    -18.2915E-03     35.7606E-03    -17.4691E-03     36.9958E-03    -18.3764E-03     35.7290E-03    -17.3944E-03     36.7037E-03
            1308     8.84653E-03     111.508E-03    -18.6436E+06    -9.90115E+06     6.46180E+06    -23.2261E+06    -18.3101E-03     35.8537E-03    -17.5436E-03     45.3429E-03    -18.4035E-03     35.8265E-03    -17.4699E-03     45.0327E-03
            1309     9.73120E-03     111.576E-03    -17.4878E+06    -5.29628E+06     8.63626E+06    -21.4912E+06    -18.7000E-03     36.3101E-03    -17.6101E-03     56.3049E-03    -18.7979E-03     36.3016E-03    -17.5339E-03     56.0178E-03
            1310     10.6158E-03     111.657E-03    -11.7522E+06     1.04538E+06     19.7005E+06    -17.3142E+06    -19.9942E-03     37.7360E-03    -17.7418E-03     70.9613E-03    -20.0898E-03     37.7362E-03    -17.6277E-03     70.7279E-03
            1311     11.4990E-03     111.755E-03    -4.77641E+06     6.76898E+06     33.0920E+06    -15.0111E+06    -22.5004E-03     40.4671E-03    -17.9668E-03     90.0109E-03    -22.5937E-03     40.4716E-03    -17.8042E-03     89.8028E-03
            1312     12.3787E-03     111.872E-03    -440.488E+03     4.18082E+06     39.8718E+06    -11.8441E+06    -26.3392E-03     44.6406E-03    -18.3014E-03     113.219E-03    -26.4334E-03     44.6327E-03    -18.1075E-03     113.035E-03
            1313     13.2567E-03     112.015E-03    -2.80928E+06    -6.86728E+06     38.4259E+06    -11.4916E+06    -31.8899E-03     50.6898E-03    -18.7999E-03     134.483E-03    -32.0216E-03     50.6761E-03    -18.5938E-03     134.261E-03
            1314     14.1305E-03     112.173E-03    -8.06208E+06    -6.13749E+06     35.7294E+06    -13.7129E+06    -41.2843E-03     60.8503E-03    -19.5660E-03     163.838E-03    -41.5949E-03     61.0076E-03    -19.3667E-03     163.453E-03
            1315     14.9959E-03     112.375E-03    -8.76675E+06    -7.64465E+06     36.2697E+06    -18.5349E+06    -54.9678E-03     75.6793E-03    -20.7115E-03     215.540E-03    -55.8648E-03     76.4140E-03    -20.5063E-03     214.706E-03
            1316     15.8539E-03     112.635E-03    -12.1666E+06    -46.5133E+06     5.45793E+06    -28.6191E+06    -66.9103E-03     88.9305E-03    -22.0201E-03     275.414E-03    -69.4434E-03     91.2403E-03    -21.9077E-03     273.894E-03
            1317     16.7075E-03     112.952E-03    -13.9496E+06     6.30711E+06     20.9512E+06    -22.6011E+06    -72.1110E-03     95.6187E-03    -23.5077E-03     307.263E-03    -78.2700E-03     101.691E-03    -23.3919E-03     306.542E-03
            1318     883.710E-06     112.239E-03     2.46111E+06    -10.8117E+06     3.18187E+06    -2.80366E+06    -18.6225E-03     37.1745E-03    -18.5521E-03     2.58507E-03    -18.5994E-03     37.1121E-03    -18.5240E-03     2.54728E-03
            1319     1.76741E-03     112.246E-03     2.62966E+06    -9.33758E+06     4.93836E+06    -5.15681E+06    -18.8645E-03     37.5201E-03    -18.6556E-03     4.72972E-03    -18.8455E-03     37.4623E-03    -18.6212E-03     4.66009E-03
            1320     2.65065E-03     112.257E-03     2.87546E+06    -8.25986E+06     8.42542E+06    -7.55849E+06    -19.2338E-03     38.0431E-03    -18.8093E-03     6.97190E-03    -19.2204E-03     37.9855E-03    -18.7594E-03     6.86956E-03
            1321     3.53360E-03     112.273E-03     2.84458E+06    -7.36448E+06     11.7711E+06    -9.33074E+06    -19.6786E-03     38.6797E-03    -19.0011E-03     9.30064E-03    -19.6719E-03     38.6221E-03    -18.9357E-03     9.17349E-03
            1322     4.41605E-03     112.294E-03     2.59380E+06    -5.47286E+06     14.3644E+06    -10.7447E+06    -20.1767E-03     39.3941E-03    -19.2174E-03     11.7990E-03    -20.1782E-03     39.3431E-03    -19.1414E-03     11.6514E-03
            1323     5.29808E-03     112.320E-03     2.20615E+06    -5.04452E+06     16.9242E+06     -12.611E+06    -20.6973E-03     40.1553E-03    -19.4580E-03     14.5726E-03    -20.7058E-03     40.1038E-03    -19.3693E-03     14.3985E-03
            1324     6.17951E-03     112.352E-03     1.36407E+06    -6.85244E+06     19.0897E+06    -14.1657E+06    -21.1710E-03     40.8834E-03    -19.7125E-03     17.7804E-03    -21.1851E-03     40.8218E-03    -19.6091E-03     17.5838E-03
            1325     7.06070E-03     112.390E-03    -151.359E+03    -6.31737E+06     20.6770E+06    -14.4106E+06    -21.5357E-03     41.4964E-03    -19.9607E-03     21.6250E-03    -21.5616E-03     41.4383E-03    -19.8479E-03     21.4228E-03
            1326     7.94146E-03     112.436E-03    -2.03463E+06    -4.70666E+06     22.5638E+06    -15.4944E+06    -21.7723E-03     41.9692E-03    -20.1969E-03     26.3488E-03    -21.8140E-03     41.9202E-03    -20.0743E-03     26.1306E-03
            1327     8.82231E-03     112.492E-03    -4.06947E+06    -5.79156E+06     24.0414E+06    -17.6792E+06    -21.8842E-03     42.2986E-03    -20.4144E-03     32.3473E-03    -21.9381E-03     42.2461E-03    -20.2799E-03     32.0994E-03
            1328     9.70307E-03     112.558E-03    -6.06908E+06    -5.60763E+06     25.6480E+06    -18.7023E+06    -21.8987E-03     42.5034E-03    -20.6047E-03     40.3530E-03    -21.9665E-03     42.4535E-03    -20.4595E-03     40.0914E-03
            1329     10.5841E-03     112.639E-03    -7.66237E+06    -1.30463E+06     29.8166E+06    -17.7413E+06    -22.0156E-03     42.7936E-03    -20.7781E-03     51.5209E-03    -22.1045E-03     42.7623E-03    -20.6160E-03     51.2729E-03
            1330     11.4655E-03     112.737E-03    -8.66302E+06     5.33304E+06     36.1583E+06    -14.7685E+06    -22.7649E-03     43.7212E-03    -20.9563E-03     67.3136E-03    -22.8784E-03     43.7162E-03    -20.7706E-03     67.1059E-03
            1331     12.3470E-03     112.857E-03    -8.68026E+06     844.148E+03     40.5396E+06    -11.2747E+06    -24.7248E-03     45.9036E-03    -21.1788E-03     88.5447E-03    -24.8412E-03     45.8736E-03    -20.9648E-03     88.3812E-03
            1332     13.2254E-03     113.001E-03    -5.30990E+06    -5.06877E+06     45.2787E+06    -7.18690E+06    -29.3037E-03     50.8315E-03    -21.5278E-03     111.789E-03    -29.4194E-03     50.7792E-03    -21.2864E-03     111.659E-03
            1333     14.0980E-03     113.168E-03    -1.37367E+06    -1.65570E+06     48.2930E+06    -7.77893E+06    -38.1239E-03     60.2485E-03    -22.1246E-03     143.462E-03    -38.3174E-03     60.2917E-03    -21.8787E-03     143.235E-03
            1334     14.9649E-03     113.376E-03    -4.57952E+06     873.713E+03     45.8486E+06    -10.2962E+06    -49.5932E-03     72.6285E-03    -23.0353E-03     193.752E-03    -50.1403E-03     73.0302E-03    -22.8007E-03     193.234E-03
            1335     15.8261E-03     113.645E-03    -9.44081E+06    -25.8729E+06     29.5344E+06    -17.2029E+06    -58.4315E-03     82.5315E-03    -24.1001E-03     248.984E-03    -59.9422E-03     83.8316E-03    -23.9012E-03     247.975E-03
            1336     16.6904E-03     113.958E-03    -9.09534E+06    -6.57433E+06     20.1112E+06    -26.5523E+06    -51.3252E-03     76.1271E-03    -24.8019E-03     289.995E-03    -55.0805E-03     79.7742E-03    -24.6786E-03     289.565E-03
            1337     881.012E-06     113.226E-03     17.2991E+06    -5.85231E+06     18.3901E+06    -1.93051E+06    -22.0034E-03     43.7813E-03    -21.7778E-03     1.56173E-03    -21.9357E-03     43.6997E-03    -21.7025E-03     1.53478E-03
            1338     1.76165E-03     113.233E-03     17.2959E+06    -4.41581E+06     19.9211E+06    -3.84732E+06    -22.2722E-03     44.2600E-03    -21.9877E-03     2.58353E-03    -22.2091E-03     44.1834E-03    -21.9068E-03     2.52995E-03
            1339     2.64202E-03     113.245E-03     17.0688E+06    -3.79543E+06     22.5053E+06    -5.34287E+06    -22.6897E-03     44.8740E-03    -22.1842E-03     3.71839E-03    -22.6325E-03     44.7972E-03    -22.0910E-03     3.64339E-03
            1340     3.52185E-03     113.261E-03     16.8114E+06    -3.72309E+06     24.9248E+06    -6.46374E+06    -23.2338E-03     45.6543E-03    -22.4205E-03     4.93762E-03    -23.1817E-03     45.5750E-03    -22.3149E-03     4.84576E-03
            1341     4.40115E-03     113.283E-03     16.4704E+06    -2.04498E+06     27.5643E+06    -7.43360E+06    -23.8951E-03     46.5949E-03    -22.6999E-03     6.26872E-03    -23.8514E-03     46.5210E-03    -22.5829E-03     6.16166E-03
            1342     5.27967E-03     113.310E-03     15.3659E+06    -1.31980E+06     30.7188E+06    -8.15764E+06    -24.6474E-03     47.6751E-03    -23.0277E-03     7.76155E-03    -24.6154E-03     47.6022E-03    -22.8945E-03     7.64211E-03
            1343     6.15754E-03     113.342E-03     13.3326E+06    -3.70635E+06     32.5298E+06    -8.83028E+06    -25.4620E-03     48.8562E-03    -23.3942E-03     9.47734E-03    -25.4401E-03     48.7722E-03    -23.2455E-03     9.34577E-03
            1344     7.03448E-03     113.381E-03     11.9056E+06    -4.27005E+06     33.2310E+06    -9.55612E+06    -26.2765E-03     50.0609E-03    -23.7844E-03     11.5322E-03    -26.2629E-03     49.9758E-03    -23.6293E-03     11.3875E-03
            1345     7.91079E-03     113.428E-03     11.1277E+06    -1.16875E+06     36.2275E+06    -10.1177E+06    -27.0675E-03     51.2731E-03    -24.2057E-03     14.0445E-03    -27.0678E-03     51.2011E-03    -24.0390E-03     13.8884E-03
            1346     8.78611E-03     113.483E-03     9.19416E+06    -2.08180E+06     39.6009E+06    -10.6894E+06    -27.8363E-03     52.4951E-03    -24.6588E-03     17.2269E-03    -27.8515E-03     52.4174E-03    -24.4711E-03     17.0589E-03
            1347     9.66063E-03     113.549E-03     6.34336E+06    -2.75677E+06     41.3243E+06    -11.7843E+06    -28.4127E-03     53.5323E-03    -25.1195E-03     21.5952E-03    -28.4458E-03     53.4540E-03    -24.9181E-03     21.4089E-03
            1348     10.5346E-03     113.628E-03     4.15698E+06    -1.52837E+06     43.1516E+06    -11.8822E+06    -28.5781E-03     54.1504E-03    -25.5723E-03     27.8370E-03    -28.6286E-03     54.0798E-03    -25.3604E-03     27.6470E-03
            1349     11.4087E-03     113.725E-03     2.47427E+06     1.38747E+06     45.5530E+06    -8.96696E+06    -28.1323E-03     54.1226E-03    -25.9903E-03     36.9849E-03    -28.2005E-03     54.0661E-03    -25.7682E-03     36.8339E-03
            1350     12.2830E-03     113.842E-03     1.60650E+06     726.059E+03     49.2692E+06    -6.47896E+06    -27.3725E-03     53.7327E-03    -26.3602E-03     50.6347E-03    -27.4497E-03     53.6686E-03    -26.1172E-03     50.5212E-03
            1351     13.1594E-03     113.986E-03     4.98638E+06    -6.15422E+06     55.0337E+06    -7.87093E+06    -28.3282E-03     55.0564E-03    -26.7281E-03     70.0597E-03    -28.3897E-03     54.9485E-03    -26.4513E-03     69.9295E-03
            1352     14.0334E-03     114.159E-03     10.7344E+06    -3.73179E+06     54.3117E+06    -4.31582E+06    -32.9503E-03     60.1073E-03    -27.1570E-03     100.074E-03    -33.0112E-03     60.0336E-03    -26.8956E-03     99.9609E-03
            1353     14.8990E-03     114.372E-03     15.1785E+06     3.84626E+06     56.3635E+06     338.606E+03    -41.6796E-03     69.5042E-03    -27.8245E-03     146.572E-03    -41.8666E-03     69.5940E-03    -27.5703E-03     146.389E-03
            1354     15.7626E-03     114.638E-03     21.5344E+06    -2.59004E+06     63.0702E+06    -7.82305E+06    -45.1108E-03     73.7213E-03    -28.6105E-03     194.291E-03    -45.6618E-03     74.1576E-03    -28.3226E-03     193.800E-03
            1355     16.6240E-03     114.949E-03     17.3851E+06    -2.32266E+06     39.6776E+06    -12.5626E+06    -19.3344E-03     47.7500E-03    -28.4156E-03     215.593E-03    -20.4579E-03     48.8165E-03    -28.2390E-03     215.505E-03
            1356     876.942E-06     114.220E-03     27.9995E+06    -2.36669E+06     28.4546E+06    -1.39730E+06    -26.6247E-03     53.2980E-03    -26.6733E-03    -2.57886E-06    -26.5238E-03     53.2032E-03    -26.5682E-03    -22.4654E-06
            1357     1.75348E-03     114.228E-03     27.6013E+06    -1.26921E+06     29.8884E+06    -2.18870E+06    -26.9674E-03     53.7103E-03    -26.7429E-03    -36.5365E-06    -26.8722E-03     53.6194E-03    -26.6317E-03    -68.2748E-06
            1358     2.62966E-03     114.240E-03     26.9354E+06    -1.19263E+06     31.4146E+06    -2.74735E+06    -27.4226E-03     54.3570E-03    -26.9345E-03    -25.3798E-06    -27.3330E-03     54.2653E-03    -26.8147E-03    -66.1374E-06
            1359     3.50534E-03     114.258E-03     25.9902E+06    -1.20568E+06     33.9315E+06    -3.40305E+06    -28.0893E-03     55.2912E-03    -27.2019E-03     16.7717E-06    -28.0082E-03     55.1971E-03    -27.0682E-03    -34.4769E-06
            1360     4.38021E-03     114.280E-03     24.8350E+06    -309.370E+03     36.7600E+06    -3.64477E+06    -28.9541E-03     56.5006E-03    -27.5465E-03     54.0948E-06    -28.8844E-03     56.4086E-03    -27.3983E-03    -2.56521E-06
            1361     5.25423E-03     114.308E-03     23.5771E+06     177.723E+03     39.2079E+06    -3.37672E+06    -30.0399E-03     58.0097E-03    -27.9698E-03     64.3949E-06    -29.9811E-03     57.9185E-03    -27.8082E-03     8.51520E-06
            1362     6.12698E-03     114.342E-03     22.5461E+06    -1.55826E+06     42.5422E+06    -3.51273E+06    -31.3648E-03     59.8508E-03    -28.4860E-03     20.5640E-06    -31.3139E-03     59.7475E-03    -28.3037E-03    -40.3362E-06
            1363     6.99838E-03     114.382E-03     21.4260E+06    -1.57266E+06     46.1820E+06    -4.73777E+06    -32.8913E-03     61.9827E-03    -29.0915E-03    -77.9134E-06    -32.8518E-03     61.8756E-03    -28.8893E-03    -158.632E-06
            1364     7.86802E-03     114.430E-03     20.0170E+06    -436.132E+03     48.8090E+06    -4.93397E+06    -34.5753E-03     64.3575E-03    -29.7821E-03    -206.239E-06    -34.5491E-03     64.2542E-03    -29.5665E-03    -294.394E-06
            1365     8.73588E-03     114.487E-03     19.0051E+06     34.8997E+03     52.1301E+06    -4.48453E+06    -36.3738E-03     66.9421E-03    -30.5683E-03    -282.572E-06    -36.3591E-03     66.8377E-03    -30.3353E-03    -370.857E-06
            1366     9.60159E-03     114.553E-03     17.6869E+06    -740.967E+03     54.1807E+06    -4.42448E+06    -38.1899E-03     69.6311E-03    -31.4412E-03    -210.537E-06    -38.1851E-03     69.5213E-03    -31.1948E-03    -304.772E-06
            1367     10.4651E-03     114.633E-03     15.3470E+06    -282.843E+03     55.4830E+06    -4.66366E+06    -39.5746E-03     71.9593E-03    -32.3847E-03     236.457E-06    -39.5858E-03     71.8529E-03    -32.1291E-03     132.805E-06
            1368     11.3263E-03     114.728E-03     13.8593E+06    -2.10673E+06     56.3269E+06    -3.30698E+06    -39.7928E-03     73.1465E-03    -33.3537E-03     1.58915E-03    -39.8122E-03     73.0310E-03    -33.0891E-03     1.49895E-03
            1369     12.1875E-03     114.841E-03     15.0179E+06     1.40306E+06     60.5093E+06    -2.66269E+06    -38.3885E-03     72.6716E-03    -34.2831E-03     5.17559E-03    -38.4156E-03     72.5645E-03    -34.0043E-03     5.09377E-03
            1370     13.0483E-03     114.978E-03     13.4209E+06    -2.82465E+06     63.7168E+06    -3.47378E+06    -35.7500E-03     70.8759E-03    -35.1259E-03     13.7842E-03    -35.7857E-03     70.7449E-03    -34.8227E-03     13.6963E-03
            1371     13.9107E-03     115.147E-03     10.2697E+06    -9.58181E+06     55.0033E+06    -4.47934E+06    -34.2700E-03     70.1314E-03    -35.8614E-03     30.6427E-03    -34.3034E-03     69.9834E-03    -35.5874E-03     30.5441E-03
            1372     14.7784E-03     115.356E-03     15.5265E+06    -1.87952E+06     63.8809E+06    -3.38981E+06    -35.6449E-03     72.3775E-03    -36.7327E-03     60.8911E-03    -35.7077E-03     72.2794E-03    -36.4331E-03     60.7699E-03
            1373     15.6317E-03     115.628E-03     16.3309E+06     7.89355E+06     76.2504E+06    -4.69158E+06    -22.9507E-03     60.2597E-03    -37.3091E-03     90.1352E-03    -23.1059E-03     60.2710E-03    -36.9629E-03     89.9633E-03
            1374     16.5147E-03     115.899E-03     7.23165E+06     4.79130E+06     40.2182E+06    -2.74659E+06     6.85987E-03     29.6504E-03    -36.5103E-03     86.6109E-03     6.71587E-03     29.7099E-03    -36.3266E-03     86.5455E-03
            1375     16.6500E-03     57.7282E-03    -5.22284E+06     171.298E+06     83.2940E+06     658.552E+03    -36.1876E-03     62.9961E-03    -26.8085E-03     262.411E-03    -44.9881E-03     72.1446E-03    -26.6328E-03     267.517E-03
            1376     15.7724E-03     57.4147E-03    -8.60689E+06     130.431E+06     24.5741E+06     309.361E+03    -38.7317E-03     65.3767E-03    -26.6451E-03     261.750E-03    -45.1594E-03     72.1657E-03    -26.6988E-03     262.897E-03
            1377     14.8963E-03     57.2189E-03    -9.51164E+06     61.9773E+06    -12.8696E+06    -1.05874E+06    -32.7995E-03     59.3753E-03    -26.5758E-03     158.345E-03    -34.2352E-03     61.0346E-03    -26.7162E-03     158.112E-03
            1378     14.0207E-03     57.1135E-03    -8.67696E+06     5.38815E+06    -16.6112E+06    -337.932E+03    -28.7349E-03     55.3654E-03    -26.6305E-03     94.5456E-03    -29.1099E-03     55.7769E-03    -26.7088E-03     94.3244E-03
            1379     13.1443E-03     57.0392E-03    -7.88847E+06    -24.6458E+06    -10.0347E+06     737.191E+03    -28.1617E-03     54.8702E-03    -26.7085E-03     79.9863E-03    -28.3359E-03     54.9580E-03    -26.7115E-03     79.8176E-03
            1380     12.2678E-03     56.9613E-03    -8.56314E+06    -39.0192E+06    -3.48471E+06     477.202E+03    -28.1961E-03     54.9615E-03    -26.7654E-03     77.8086E-03    -28.3021E-03     54.9087E-03    -26.7138E-03     77.6697E-03
            1381     11.3916E-03     56.8914E-03    -9.21783E+06    -53.1744E+06    -2.19497E+06     437.319E+03    -27.9469E-03     54.7406E-03    -26.7938E-03     69.6889E-03    -27.9937E-03     54.5723E-03    -26.7143E-03     69.5787E-03
            1382     10.5153E-03     56.8288E-03    -9.77320E+06    -67.7391E+06    -2.91998E+06     486.284E+03    -27.7517E-03     54.5645E-03    -26.8127E-03     63.0951E-03    -27.7517E-03     54.2977E-03    -26.7150E-03     63.0100E-03
            1383     9.63900E-03     56.7714E-03    -10.6171E+06    -75.9237E+06    -439.409E+03     465.192E+03    -27.5954E-03     54.4354E-03    -26.8400E-03     57.8913E-03    -27.5742E-03     54.1083E-03    -26.7168E-03     57.8251E-03
            1384     8.76271E-03     56.7188E-03    -11.7543E+06    -80.7209E+06     609.713E+03     327.415E+03    -27.4443E-03     54.3014E-03    -26.8571E-03     52.6215E-03    -27.4117E-03     53.9388E-03    -26.7200E-03     52.5691E-03
            1385     7.88640E-03     56.6714E-03    -13.0746E+06    -85.9250E+06    -83.9859E+03     305.109E+03    -27.3150E-03     54.1826E-03    -26.8675E-03     47.3340E-03    -27.2725E-03     53.7888E-03    -26.7244E-03     47.2937E-03
            1386     7.01009E-03     56.6289E-03    -14.5922E+06    -92.3401E+06    -1.26787E+06     212.041E+03    -27.2080E-03     54.0861E-03    -26.8781E-03     42.0240E-03    -27.1565E-03     53.6587E-03    -26.7294E-03     41.9923E-03
            1387     6.13381E-03     56.5916E-03    -16.2588E+06    -97.2136E+06    -3.98749E+06     182.230E+03    -27.1133E-03     53.9923E-03    -26.8791E-03     36.7026E-03    -27.0552E-03     53.5431E-03    -26.7345E-03     36.6784E-03
            1388     5.25751E-03     56.5592E-03    -17.9152E+06    -102.510E+06    -7.69173E+06     216.453E+03    -27.0371E-03     53.9127E-03    -26.8756E-03     31.3773E-03    -26.9717E-03     53.4421E-03    -26.7395E-03     31.3597E-03
            1389     4.38125E-03     56.5320E-03    -19.5263E+06    -106.967E+06    -11.4836E+06     215.518E+03    -26.9751E-03     53.8451E-03    -26.8701E-03     26.0819E-03    -26.9039E-03     53.3582E-03    -26.7441E-03     26.0693E-03
            1390     3.50499E-03     56.5097E-03    -20.9661E+06    -109.077E+06    -15.4660E+06     177.654E+03    -26.9233E-03     53.7826E-03    -26.8593E-03     20.8351E-03    -26.8492E-03     53.2917E-03    -26.7481E-03     20.8261E-03
            1391     2.62871E-03     56.4924E-03    -22.2097E+06    -111.003E+06    -18.9437E+06     133.946E+03    -26.8867E-03     53.7363E-03    -26.8496E-03     15.6316E-03    -26.8102E-03     53.2419E-03    -26.7511E-03     15.6254E-03
            1392     1.75250E-03     56.4801E-03    -23.0729E+06    -112.404E+06    -21.5560E+06     96.8114E+03    -26.8580E-03     53.7002E-03    -26.8422E-03     10.5168E-03    -26.7795E-03     53.2033E-03    -26.7535E-03     10.5130E-03
            1393     876.208E-06     56.4725E-03    -23.6250E+06    -113.284E+06    -23.2268E+06     60.7720E+03    -26.8465E-03     53.6815E-03    -26.8350E-03     5.68912E-03    -26.7668E-03     53.1832E-03    -26.7526E-03     5.68722E-03
            1394     16.6504E-03     56.7274E-03    -4.63644E+06     172.237E+06     84.2916E+06     645.368E+03    -36.8910E-03     63.7162E-03    -26.8252E-03     260.485E-03    -45.6773E-03     72.8531E-03    -26.6468E-03     265.519E-03
            1395     15.7740E-03     56.4163E-03    -7.76734E+06     130.817E+06     24.6903E+06     362.692E+03    -39.2080E-03     65.8333E-03    -26.6253E-03     262.672E-03    -45.6908E-03     72.6814E-03    -26.6803E-03     263.779E-03
            1396     14.8967E-03     56.2179E-03    -9.17229E+06     61.7327E+06    -13.3409E+06    -112.768E+03    -32.3520E-03     58.9088E-03    -26.5567E-03     158.031E-03    -33.7733E-03     60.5554E-03    -26.6997E-03     157.818E-03
            1397     14.0204E-03     56.1133E-03    -10.1439E+06     4.34649E+06    -16.5313E+06      -308.9E+03    -28.7385E-03     55.3678E-03    -26.6293E-03     94.0783E-03    -29.1194E-03     55.7760E-03    -26.7035E-03     93.8570E-03
            1398     13.1442E-03     56.0391E-03    -9.98662E+06    -25.2456E+06    -10.7499E+06     76.3763E+03    -28.1587E-03     54.8606E-03    -26.7019E-03     80.0559E-03    -28.3415E-03     54.9495E-03    -26.7046E-03     79.8787E-03
            1399     12.2680E-03     55.9612E-03    -9.26591E+06    -38.6239E+06    -3.87668E+06     489.325E+03    -28.1623E-03     54.9198E-03    -26.7575E-03     77.8122E-03    -28.2718E-03     54.8705E-03    -26.7074E-03     77.6736E-03
            1400     11.3916E-03     55.8910E-03    -9.50417E+06    -53.3073E+06    -2.30566E+06     337.471E+03    -27.9252E-03     54.7140E-03    -26.7888E-03     69.6055E-03    -27.9731E-03     54.5456E-03    -26.7093E-03     69.4940E-03
            1401     10.5154E-03     55.8288E-03    -10.0349E+06    -67.7163E+06    -3.07323E+06     458.238E+03    -27.7285E-03     54.5371E-03    -26.8086E-03     63.0757E-03    -27.7295E-03     54.2710E-03    -26.7112E-03     62.9903E-03
            1402     9.63903E-03     55.7712E-03    -10.7004E+06    -75.8203E+06    -321.020E+03     466.067E+03    -27.5753E-03     54.4137E-03    -26.8383E-03     57.8946E-03    -27.5548E-03     54.0869E-03    -26.7145E-03     57.8286E-03
            1403     8.76273E-03     55.7188E-03    -11.8026E+06    -80.4844E+06     654.584E+03     395.587E+03    -27.4314E-03     54.2875E-03    -26.8562E-03     52.6223E-03    -27.3994E-03     53.9261E-03    -26.7191E-03     52.5708E-03
            1404     7.88639E-03     55.6713E-03    -13.1511E+06    -85.8409E+06    -133.891E+03     196.408E+03    -27.3063E-03     54.1737E-03    -26.8674E-03     47.3428E-03    -27.2642E-03     53.7805E-03    -26.7246E-03     47.3011E-03
            1405     7.01010E-03     55.6289E-03    -14.5906E+06    -92.2167E+06    -1.35710E+06     156.426E+03    -27.2014E-03     54.0800E-03    -26.8786E-03     42.0295E-03    -27.1500E-03     53.6533E-03    -26.7305E-03     41.9971E-03
            1406     6.13378E-03     55.5915E-03    -16.2456E+06    -97.2344E+06    -4.04063E+06     137.129E+03    -27.1103E-03     53.9911E-03    -26.8808E-03     36.7040E-03    -27.0522E-03     53.5418E-03    -26.7364E-03     36.6792E-03
            1407     5.25752E-03     55.5592E-03    -17.9437E+06    -102.476E+06    -7.69479E+06     146.349E+03    -27.0363E-03     53.9145E-03    -26.8782E-03     31.3762E-03    -26.9711E-03     53.4441E-03    -26.7421E-03     31.3578E-03
            1408     4.38123E-03     55.5319E-03    -19.5157E+06    -106.914E+06    -11.5182E+06     136.386E+03    -26.9760E-03     53.8489E-03    -26.8728E-03     26.0822E-03    -26.9049E-03     53.3623E-03    -26.7471E-03     26.0686E-03
            1409     3.50496E-03     55.5097E-03    -20.9504E+06    -108.998E+06    -15.4128E+06     138.000E+03    -26.9257E-03     53.7885E-03    -26.8628E-03     20.8351E-03    -26.8518E-03     53.2979E-03    -26.7514E-03     20.8256E-03
            1410     2.62873E-03     55.4924E-03    -22.1080E+06    -110.901E+06    -18.8805E+06     100.607E+03    -26.8891E-03     53.7424E-03    -26.8533E-03     15.6310E-03    -26.8124E-03     53.2483E-03    -26.7549E-03     15.6243E-03
            1411     1.75246E-03     55.4800E-03    -23.0097E+06    -112.320E+06    -21.4837E+06     57.6102E+03    -26.8636E-03     53.7094E-03    -26.8458E-03     10.5078E-03    -26.7850E-03     53.2127E-03    -26.7570E-03     10.5034E-03
            1412     876.251E-06     55.4724E-03    -23.5743E+06    -113.193E+06    -23.1531E+06     25.3911E+03    -26.8610E-03     53.6876E-03    -26.8266E-03     5.68094E-03    -26.7813E-03     53.1896E-03    -26.7440E-03     5.67858E-03
            1413     16.6506E-03     55.7278E-03    -4.71638E+06     171.715E+06     83.3458E+06    -15.3952E+03    -37.1078E-03     63.9267E-03    -26.8189E-03     260.440E-03    -45.9091E-03     73.0791E-03    -26.6443E-03     265.449E-03
            1414     15.7732E-03     55.4157E-03    -7.83768E+06     130.246E+06     23.7269E+06     907.180E+03    -39.4322E-03     66.0387E-03    -26.6065E-03     262.988E-03    -45.9350E-03     72.9072E-03    -26.6653E-03     264.092E-03
            1415     14.8975E-03     55.2181E-03    -9.48278E+06     63.2377E+06    -11.4808E+06     1.04690E+06    -32.3313E-03     58.8755E-03    -26.5442E-03     158.377E-03    -33.7575E-03     60.5259E-03    -26.6796E-03     158.179E-03
            1416     14.0208E-03     55.1130E-03    -9.42912E+06     4.91403E+06    -15.0390E+06     133.149E+03    -28.5691E-03     55.1897E-03    -26.6206E-03     93.9509E-03    -28.9483E-03     55.5965E-03    -26.6892E-03     93.7370E-03
            1417     13.1444E-03     55.0391E-03    -9.26450E+06    -25.9884E+06    -10.9349E+06    -281.207E+03    -28.1314E-03     54.8235E-03    -26.6921E-03     79.9878E-03    -28.3091E-03     54.9078E-03    -26.6957E-03     79.8063E-03
            1418     12.2680E-03     54.9609E-03    -9.53619E+06    -38.5791E+06    -3.80315E+06    -56.4785E+03    -28.1303E-03     54.8811E-03    -26.7508E-03     77.8262E-03    -28.2412E-03     54.8323E-03    -26.7001E-03     77.6808E-03
            1419     11.3917E-03     54.8911E-03    -9.68211E+06    -53.5518E+06    -2.39966E+06     231.265E+03    -27.8678E-03     54.6523E-03    -26.7845E-03     69.6194E-03    -27.9160E-03     54.4829E-03    -26.7048E-03     69.5069E-03
            1420     10.5153E-03     54.8286E-03    -10.1012E+06    -67.6842E+06    -3.07182E+06      326.02E+03    -27.7054E-03     54.5124E-03    -26.8071E-03     63.1050E-03    -27.7067E-03     54.2466E-03    -26.7096E-03     63.0180E-03
            1421     9.63906E-03     54.7712E-03    -10.8068E+06    -75.8850E+06    -435.268E+03     398.630E+03    -27.5655E-03     54.4034E-03    -26.8379E-03     57.9184E-03    -27.5453E-03     54.0766E-03    -26.7143E-03     57.8515E-03
            1422     8.76269E-03     54.7187E-03    -11.8139E+06    -80.1753E+06     717.383E+03     358.603E+03    -27.4229E-03     54.2797E-03    -26.8568E-03     52.6401E-03    -27.3915E-03     53.9197E-03    -26.7198E-03     52.5881E-03
            1423     7.88640E-03     54.6713E-03    -13.0987E+06    -85.6591E+06    -189.352E+03     175.604E+03    -27.3048E-03     54.1730E-03    -26.8682E-03     47.3481E-03    -27.2626E-03     53.7807E-03    -26.7259E-03     47.3062E-03
            1424     7.01005E-03     54.6288E-03    -14.6644E+06    -92.2106E+06    -1.59008E+06     79.8231E+03    -27.2003E-03     54.0795E-03    -26.8792E-03     42.0334E-03    -27.1489E-03     53.6533E-03    -26.7322E-03     42.0001E-03
            1425     6.13379E-03     54.5914E-03    -16.2688E+06    -97.1860E+06    -4.32342E+06     86.0815E+03    -27.1106E-03     53.9920E-03    -26.8814E-03     36.7009E-03    -27.0522E-03     53.5433E-03    -26.7385E-03     36.6755E-03
            1426     5.25747E-03     54.5591E-03    -17.8824E+06    -102.479E+06    -7.75135E+06     67.6434E+03    -27.0388E-03     53.9188E-03    -26.8800E-03     31.3697E-03    -26.9732E-03     53.4484E-03    -26.7443E-03     31.3502E-03
            1427     4.38122E-03     54.5319E-03    -19.4843E+06    -106.871E+06    -11.5151E+06     82.9619E+03    -26.9793E-03     53.8541E-03    -26.8748E-03     26.0717E-03    -26.9080E-03     53.3677E-03    -26.7492E-03     26.0574E-03
            1428     3.50496E-03     54.5096E-03    -20.8937E+06    -108.954E+06    -15.4570E+06     50.0254E+03    -26.9280E-03     53.7923E-03    -26.8643E-03     20.8269E-03    -26.8538E-03     53.3020E-03    -26.7533E-03     20.8162E-03
            1429     2.62870E-03     54.4923E-03    -22.0442E+06    -110.855E+06    -18.9068E+06     54.1912E+03    -26.8910E-03     53.7460E-03    -26.8550E-03     15.6220E-03    -26.8140E-03     53.2520E-03    -26.7568E-03     15.6147E-03
            1430     1.75248E-03     54.4799E-03    -22.8822E+06    -112.236E+06    -21.4545E+06     37.7274E+03    -26.8686E-03     53.7154E-03    -26.8468E-03     10.5073E-03    -26.7896E-03     53.2189E-03    -26.7581E-03     10.5026E-03
            1431     876.240E-06     54.4723E-03    -23.4066E+06    -113.159E+06    -23.0268E+06    -11.1006E+03    -26.8568E-03     53.6890E-03    -26.8322E-03     5.67909E-03    -26.7765E-03     53.1907E-03    -26.7493E-03     5.67625E-03
            1432     16.6499E-03     54.7266E-03    -5.80093E+06     171.557E+06     84.6520E+06    -464.521E+03    -37.1098E-03     63.9231E-03    -26.8133E-03     259.863E-03    -45.8806E-03     73.0368E-03    -26.6304E-03     264.848E-03
            1433     15.7743E-03     54.4160E-03    -8.27528E+06     128.461E+06     21.5565E+06     36.4575E+03    -39.3168E-03     65.9007E-03    -26.5839E-03     262.575E-03    -45.7947E-03     72.7428E-03    -26.6504E-03     263.674E-03
            1434     14.8971E-03     54.2175E-03    -7.87754E+06     63.1992E+06    -11.3895E+06     1.40443E+06    -32.2581E-03     58.7891E-03    -26.5310E-03     158.459E-03    -33.6769E-03     60.4373E-03    -26.6682E-03     158.268E-03
            1435     14.0209E-03     54.1133E-03    -8.47343E+06     6.63703E+06    -12.0907E+06     1.07852E+06    -28.5359E-03     55.1592E-03    -26.6233E-03     94.1660E-03    -28.9174E-03     55.5693E-03    -26.6811E-03     93.9648E-03
            1436     13.1444E-03     54.0388E-03    -9.06857E+06    -25.7978E+06    -11.0246E+06    -52.9741E+03    -28.1044E-03     54.7895E-03    -26.6850E-03     80.2154E-03    -28.2814E-03     54.8747E-03    -26.6896E-03     80.0371E-03
            1437     12.2682E-03     53.9609E-03    -8.99944E+06    -38.9425E+06    -3.58710E+06    -170.051E+03    -28.0796E-03     54.8281E-03    -26.7485E-03     77.9007E-03    -28.1874E-03     54.7762E-03    -26.6970E-03     77.7542E-03
            1438     11.3916E-03     53.8909E-03    -9.45075E+06    -53.8252E+06    -2.51645E+06     54.5216E+03    -27.8433E-03     54.6272E-03    -26.7839E-03     69.7061E-03    -27.8897E-03     54.4562E-03    -26.7047E-03     69.5916E-03
            1439     10.5154E-03     53.8286E-03    -9.91887E+06    -67.7725E+06    -2.95392E+06     276.979E+03    -27.6996E-03     54.5085E-03    -26.8089E-03     63.1337E-03    -27.7001E-03     54.2418E-03    -26.7111E-03     63.0461E-03
            1440     9.63898E-03     53.7711E-03    -10.5981E+06    -75.8917E+06    -456.282E+03     337.964E+03    -27.5672E-03     54.4065E-03    -26.8393E-03     57.9292E-03    -27.5458E-03     54.0795E-03    -26.7162E-03     57.8616E-03
            1441     8.76271E-03     53.7187E-03    -11.5959E+06    -79.9624E+06     716.150E+03     252.516E+03    -27.4282E-03     54.2862E-03    -26.8580E-03     52.6426E-03    -27.3961E-03     53.9269E-03    -26.7216E-03     52.5893E-03
            1442     7.88635E-03     53.6711E-03    -12.8820E+06    -85.5396E+06    -154.514E+03     205.171E+03    -27.3098E-03     54.1792E-03    -26.8694E-03     47.3413E-03    -27.2667E-03     53.7872E-03    -26.7275E-03     47.2997E-03
            1443     7.01009E-03     53.6287E-03    -14.4491E+06    -92.1405E+06    -1.47485E+06     166.657E+03    -27.2062E-03     54.0867E-03    -26.8805E-03     42.0150E-03    -27.1540E-03     53.6604E-03    -26.7333E-03     41.9827E-03
            1444     6.13375E-03     53.5913E-03    -16.1956E+06    -97.0843E+06    -4.43999E+06     41.6470E+03    -27.1131E-03     53.9944E-03    -26.8813E-03     36.6888E-03    -27.0543E-03     53.5463E-03    -26.7392E-03     36.6628E-03
            1445     5.25751E-03     53.5590E-03    -17.8623E+06    -102.513E+06    -7.83488E+06     12.5415E+03    -27.0424E-03     53.9223E-03    -26.8800E-03     31.3553E-03    -26.9765E-03     53.4518E-03    -26.7446E-03     31.3351E-03
            1446     4.38121E-03     53.5318E-03    -19.4174E+06    -106.832E+06    -11.5069E+06     11.9327E+03    -26.9816E-03     53.8561E-03    -26.8745E-03     26.0587E-03    -26.9100E-03     53.3697E-03    -26.7490E-03     26.0434E-03
            1447     3.50497E-03     53.5095E-03    -20.8506E+06    -108.942E+06    -15.4859E+06     16.9221E+03    -26.9287E-03     53.7922E-03    -26.8636E-03     20.8171E-03    -26.8543E-03     53.3020E-03    -26.7528E-03     20.8060E-03
            1448     2.62872E-03     53.4922E-03    -22.0112E+06    -110.838E+06    -18.9711E+06     7.68015E+03    -26.8908E-03     53.7446E-03    -26.8538E-03     15.6168E-03    -26.8135E-03     53.2507E-03    -26.7560E-03     15.6089E-03
            1449     1.75247E-03     53.4798E-03    -22.8222E+06    -112.210E+06    -21.4840E+06     5.98196E+03    -26.8639E-03     53.7110E-03    -26.8471E-03     10.5075E-03    -26.7846E-03     53.2146E-03    -26.7587E-03     10.5024E-03
            1450     876.231E-06     53.4723E-03    -23.3260E+06    -113.123E+06    -23.0107E+06     11.1849E+03    -26.8385E-03     53.6931E-03    -26.8546E-03     5.66294E-03    -26.7578E-03     53.1949E-03    -26.7718E-03     5.66041E-03
            1451     16.6522E-03     53.7273E-03    -5.53030E+06     172.176E+06     86.5872E+06     36.0684E+03    -37.2329E-03     64.0405E-03    -26.8076E-03     259.688E-03    -45.9955E-03     73.1436E-03    -26.6163E-03     264.662E-03
            1452     15.7740E-03     53.4161E-03    -9.18801E+06     128.404E+06     23.6532E+06    -653.315E+03    -39.1309E-03     65.7155E-03    -26.5846E-03     263.120E-03    -45.6300E-03     72.5692E-03    -26.6392E-03     264.228E-03
            1453     14.8977E-03     53.2177E-03    -9.67797E+06     60.9097E+06    -12.7539E+06    -221.779E+03    -32.1664E-03     58.6951E-03    -26.5286E-03     158.820E-03    -33.5910E-03     60.3385E-03    -26.6667E-03     158.610E-03
            1454     14.0207E-03     53.1131E-03    -7.69099E+06     7.51052E+06    -11.9377E+06     1.18772E+06    -28.5153E-03     55.1400E-03    -26.6247E-03     94.3468E-03    -28.8946E-03     55.5533E-03    -26.6841E-03     94.1471E-03
            1455     13.1445E-03     53.0387E-03    -7.18304E+06    -24.7578E+06    -9.81380E+06      714.52E+03    -28.1152E-03     54.8063E-03    -26.6911E-03     80.3126E-03    -28.2864E-03     54.8926E-03    -26.6938E-03     80.1439E-03
            1456     12.2680E-03     52.9609E-03    -8.18614E+06    -39.3444E+06    -3.46898E+06     229.059E+03    -28.0904E-03     54.8433E-03    -26.7529E-03     77.9748E-03    -28.1938E-03     54.7880E-03    -26.7014E-03     77.8334E-03
            1457     11.3917E-03     52.8908E-03    -9.04377E+06    -53.6510E+06    -2.48432E+06     265.431E+03    -27.8661E-03     54.6531E-03    -26.7870E-03     69.7557E-03    -27.9107E-03     54.4824E-03    -26.7086E-03     69.6438E-03
            1458     10.5153E-03     52.8285E-03    -9.76513E+06    -68.0996E+06    -3.20965E+06     236.426E+03    -27.7145E-03     54.5253E-03    -26.8108E-03     63.1394E-03    -27.7134E-03     54.2570E-03    -26.7139E-03     63.0512E-03
            1459     9.63901E-03     52.7710E-03    -10.4600E+06    -75.6181E+06    -583.988E+03     284.910E+03    -27.5783E-03     54.4184E-03    -26.8401E-03     57.9236E-03    -27.5564E-03     54.0927E-03    -26.7182E-03     57.8552E-03
            1460     8.76265E-03     52.7185E-03    -11.5209E+06    -80.0250E+06     627.003E+03     240.204E+03    -27.4398E-03     54.2984E-03    -26.8586E-03     52.6243E-03    -27.4070E-03     53.9388E-03    -26.7228E-03     52.5707E-03
            1461     7.88639E-03     52.6711E-03    -12.9174E+06    -85.4005E+06    -167.300E+03     271.154E+03    -27.3177E-03     54.1870E-03    -26.8693E-03     47.3200E-03    -27.2750E-03     53.7957E-03    -26.7276E-03     47.2792E-03
            1462     7.01005E-03     52.6286E-03    -14.4529E+06    -92.0490E+06    -1.41805E+06     170.219E+03    -27.2110E-03     54.0909E-03    -26.8799E-03     41.9933E-03    -27.1590E-03     53.6649E-03    -26.7326E-03     41.9611E-03
            1463     6.13380E-03     52.5913E-03    -16.0676E+06    -96.9197E+06    -4.15363E+06     97.0193E+03    -27.1168E-03     53.9976E-03    -26.8807E-03     36.6686E-03    -27.0581E-03     53.5497E-03    -26.7376E-03     36.6433E-03
            1464     5.25748E-03     52.5589E-03    -17.7693E+06    -102.498E+06    -7.87285E+06    -17.9999E+03    -27.0420E-03     53.9195E-03    -26.8775E-03     31.3428E-03    -26.9756E-03     53.4490E-03    -26.7425E-03     31.3222E-03
            1465     4.38124E-03     52.5317E-03    -19.4036E+06    -106.854E+06    -11.5364E+06    -11.2667E+03    -26.9809E-03     53.8529E-03    -26.8720E-03     26.0455E-03    -26.9092E-03     53.3665E-03    -26.7466E-03     26.0300E-03
            1466     3.50497E-03     52.5094E-03    -20.8578E+06    -108.926E+06    -15.4617E+06    -1.71922E+03    -26.9280E-03     53.7888E-03    -26.8608E-03     20.8068E-03    -26.8537E-03     53.2986E-03    -26.7500E-03     20.7955E-03
            1467     2.62872E-03     52.4921E-03    -22.0263E+06    -110.826E+06    -18.9778E+06    -12.3023E+03    -26.8880E-03     53.7386E-03    -26.8506E-03     15.6060E-03    -26.8109E-03     53.2449E-03    -26.7528E-03     15.5979E-03
            1468     1.75248E-03     52.4798E-03    -22.8759E+06    -112.231E+06    -21.5769E+06     10.0787E+03    -26.8566E-03     53.7012E-03    -26.8446E-03     10.4967E-03    -26.7773E-03     53.2049E-03    -26.7566E-03     10.4917E-03
            1469     876.233E-06     52.4722E-03    -23.3482E+06    -113.104E+06    -23.0477E+06     42.6216E+03    -26.8382E-03     53.6913E-03    -26.8531E-03     5.66638E-03    -26.7576E-03     53.1932E-03    -26.7705E-03     5.66425E-03
            1470     16.6500E-03     52.7271E-03    -5.03457E+06     172.051E+06     85.4080E+06     220.026E+03    -37.1435E-03     63.9653E-03    -26.8218E-03     259.947E-03    -45.9154E-03     73.0824E-03    -26.6369E-03     264.934E-03
            1471     15.7741E-03     52.4159E-03    -8.63860E+06     129.765E+06     24.9515E+06     372.950E+03    -39.3702E-03     65.9773E-03    -26.6071E-03     263.274E-03    -45.8806E-03     72.8453E-03    -26.6580E-03     264.371E-03
            1472     14.8969E-03     52.2180E-03    -10.0371E+06     60.7345E+06    -13.9867E+06    -866.198E+03    -32.2311E-03     58.7664E-03    -26.5353E-03     159.065E-03    -33.6573E-03     60.4132E-03    -26.6788E-03     158.846E-03
            1473     14.0208E-03     52.1129E-03    -9.32865E+06     5.46855E+06    -16.3670E+06    -691.870E+03    -28.5568E-03     55.1751E-03    -26.6183E-03     94.5968E-03    -28.9348E-03     55.5869E-03    -26.6946E-03     94.3728E-03
            1474     13.1442E-03     52.0387E-03    -8.14339E+06    -24.2790E+06    -10.6379E+06     1.05258E+06    -28.1382E-03     54.8352E-03    -26.6970E-03     80.3369E-03    -28.3137E-03     54.9265E-03    -26.7032E-03     80.1725E-03
            1475     12.2680E-03     51.9607E-03    -8.31855E+06    -38.8243E+06    -3.75708E+06     923.624E+03    -28.1467E-03     54.9046E-03    -26.7579E-03     77.9409E-03    -28.2512E-03     54.8526E-03    -26.7083E-03     77.8082E-03
            1476     11.3916E-03     51.8908E-03    -9.18605E+06    -53.5347E+06    -2.55346E+06     520.816E+03    -27.9007E-03     54.6913E-03    -26.7906E-03     69.7119E-03    -27.9462E-03     54.5215E-03    -26.7124E-03     69.6031E-03
            1477     10.5153E-03     51.8284E-03    -9.85243E+06    -67.9118E+06    -3.35520E+06     356.949E+03    -27.7322E-03     54.5440E-03    -26.8118E-03     63.1096E-03    -27.7316E-03     54.2771E-03    -26.7158E-03     63.0229E-03
            1478     9.63896E-03     51.7709E-03    -10.6551E+06    -75.6154E+06    -643.950E+03     202.815E+03    -27.5934E-03     54.4339E-03    -26.8405E-03     57.8939E-03    -27.5725E-03     54.1086E-03    -26.7186E-03     57.8244E-03
            1479     8.76270E-03     51.7184E-03    -11.6581E+06     -79.974E+06     646.931E+03     234.257E+03    -27.4497E-03     54.3076E-03    -26.8579E-03     52.5960E-03    -27.4178E-03     53.9484E-03    -26.7218E-03     52.5424E-03
            1480     7.88637E-03     51.6710E-03    -12.8802E+06    -85.4270E+06    -12.0359E+03     236.859E+03    -27.3232E-03     54.1912E-03    -26.8680E-03     47.2889E-03    -27.2805E-03     53.7995E-03    -26.7255E-03     47.2477E-03
            1481     7.01011E-03     51.6285E-03    -14.3723E+06    -91.7723E+06    -1.32927E+06     177.380E+03    -27.2133E-03     54.0902E-03    -26.8769E-03     41.9721E-03    -27.1614E-03     53.6654E-03    -26.7297E-03     41.9400E-03
            1482     6.13379E-03     51.5912E-03    -16.0393E+06    -96.9108E+06    -4.09005E+06     32.4100E+03    -27.1173E-03     53.9947E-03    -26.8774E-03     36.6485E-03    -27.0585E-03     53.5468E-03    -26.7341E-03     36.6223E-03
            1483     5.25754E-03     51.5589E-03    -17.7096E+06    -102.407E+06    -7.79764E+06     72.4298E+03    -27.0401E-03     53.9136E-03    -26.8736E-03     31.3269E-03    -26.9736E-03     53.4434E-03    -26.7384E-03     31.3075E-03
            1484     4.38124E-03     51.5316E-03    -19.3829E+06    -106.866E+06    -11.6284E+06     7.06481E+03    -26.9789E-03     53.8459E-03    -26.8670E-03     26.0325E-03    -26.9069E-03     53.3595E-03    -26.7421E-03     26.0172E-03
            1485     3.50500E-03     51.5094E-03    -20.8580E+06    -108.914E+06    -15.4792E+06         754.496    -26.9250E-03     53.7807E-03    -26.8557E-03     20.7922E-03    -26.8507E-03     53.2906E-03    -26.7449E-03     20.7809E-03
            1486     2.62874E-03     51.4921E-03    -22.0906E+06    -110.840E+06    -18.9772E+06     20.9150E+03    -26.8821E-03     53.7274E-03    -26.8454E-03     15.5966E-03    -26.8052E-03     53.2337E-03    -26.7475E-03     15.5889E-03
            1487     1.75249E-03     51.4797E-03    -23.0074E+06    -112.235E+06    -21.5678E+06     20.5885E+03    -26.8550E-03     53.6932E-03    -26.8382E-03     10.4897E-03    -26.7764E-03     53.1970E-03    -26.7499E-03     10.4848E-03
            1488     876.227E-06     51.4721E-03    -23.5345E+06    -113.071E+06    -23.1868E+06     29.1156E+03    -26.8429E-03     53.6736E-03    -26.8307E-03     5.67274E-03    -26.7632E-03     53.1762E-03    -26.7486E-03     5.67043E-03
            1489     16.6498E-03     51.7250E-03    -5.34844E+06     171.617E+06     83.9193E+06     134.482E+03    -36.9098E-03     63.7499E-03    -26.8401E-03     260.093E-03    -45.6920E-03     72.8789E-03    -26.6616E-03     265.108E-03
            1490     15.7733E-03     51.4161E-03    -8.27624E+06     129.584E+06     23.0474E+06     300.757E+03    -39.5353E-03     66.1553E-03    -26.6200E-03     262.238E-03    -46.0078E-03     72.9915E-03    -26.6806E-03     263.313E-03
            1491     14.8971E-03     51.2177E-03    -9.29598E+06     62.2456E+06    -11.2247E+06     349.228E+03    -32.3376E-03     58.8952E-03    -26.5575E-03     158.803E-03    -33.7670E-03     60.5450E-03    -26.6904E-03     158.597E-03
            1492     14.0203E-03     51.1130E-03    -10.6558E+06     4.78481E+06    -14.3694E+06    -343.452E+03    -28.6119E-03     55.2492E-03    -26.6373E-03     94.3842E-03    -28.9989E-03     55.6571E-03    -26.7006E-03     94.1636E-03
            1493     13.1442E-03     51.0384E-03    -10.8179E+06    -25.5054E+06    -11.5756E+06    -368.315E+03    -28.1650E-03     54.8654E-03    -26.7004E-03     80.1490E-03    -28.3506E-03     54.9557E-03    -26.7057E-03     79.9659E-03
            1494     12.2678E-03     50.9606E-03    -9.78127E+06    -38.3699E+06    -3.82654E+06     485.152E+03    -28.1405E-03     54.9003E-03    -26.7598E-03     77.7872E-03    -28.2528E-03     54.8527E-03    -26.7091E-03     77.6487E-03
            1495     11.3916E-03     50.8906E-03    -9.62095E+06    -53.4760E+06    -2.51106E+06     490.704E+03    -27.9021E-03     54.6937E-03    -26.7916E-03     69.6416E-03    -27.9499E-03     54.5248E-03    -26.7127E-03     69.5323E-03
            1496     10.5153E-03     50.8283E-03    -10.0521E+06    -67.5440E+06    -3.17632E+06     344.688E+03    -27.7441E-03     54.5559E-03    -26.8118E-03     63.0744E-03    -27.7453E-03     54.2909E-03    -26.7152E-03     62.9874E-03
            1497     9.63902E-03     50.7707E-03    -10.7073E+06    -75.5991E+06    -674.710E+03     201.167E+03    -27.6046E-03     54.4431E-03    -26.8385E-03     57.8640E-03    -27.5839E-03     54.1180E-03    -26.7167E-03     57.7945E-03
            1498     8.76271E-03     50.7183E-03    -11.7878E+06    -79.9467E+06     581.083E+03     160.016E+03    -27.4544E-03     54.3091E-03    -26.8546E-03     52.5669E-03    -27.4231E-03     53.9504E-03    -26.7187E-03     52.5123E-03
            1499     7.88643E-03     50.6708E-03    -13.1068E+06    -85.3973E+06    -280.378E+03     148.724E+03    -27.3246E-03     54.1877E-03    -26.8631E-03     47.2703E-03    -27.2827E-03     53.7969E-03    -26.7216E-03     47.2280E-03
            1500     7.01011E-03     50.6285E-03    -14.5408E+06    -91.6349E+06    -1.61305E+06     103.023E+03    -27.2134E-03     54.0844E-03    -26.8710E-03     41.9530E-03    -27.1621E-03     53.6609E-03    -26.7251E-03     41.9200E-03
            1501     6.13385E-03     50.5911E-03    -16.1980E+06    -96.8572E+06    -4.44087E+06     105.552E+03    -27.1155E-03     53.9860E-03    -26.8706E-03     36.6286E-03    -27.0570E-03     53.5391E-03    -26.7288E-03     36.6035E-03
            1502     5.25754E-03     50.5588E-03    -17.9239E+06    -102.391E+06    -7.92364E+06     31.1324E+03    -27.0380E-03     53.9053E-03    -26.8673E-03     31.3099E-03    -26.9725E-03     53.4357E-03    -26.7325E-03     31.2899E-03
            1503     4.38129E-03     50.5316E-03    -19.4613E+06    -106.796E+06    -11.6536E+06     34.3918E+03    -26.9757E-03     53.8358E-03    -26.8601E-03     26.0205E-03    -26.9043E-03     53.3499E-03    -26.7353E-03     26.0056E-03
            1504     3.50501E-03     50.5093E-03    -20.9348E+06    -108.958E+06    -15.5677E+06     26.7536E+03    -26.9175E-03     53.7657E-03    -26.8481E-03     20.7713E-03    -26.8434E-03     53.2755E-03    -26.7376E-03     20.7603E-03
            1505     2.62875E-03     50.4920E-03    -22.1367E+06    -110.817E+06    -18.9636E+06     38.4095E+03    -26.8729E-03     53.7114E-03    -26.8385E-03     15.5890E-03    -26.7963E-03     53.2178E-03    -26.7405E-03     15.5815E-03
            1506     1.75249E-03     50.4797E-03    -23.0356E+06    -112.224E+06    -21.5813E+06     45.7530E+03    -26.8530E-03     53.6829E-03    -26.8299E-03     10.4950E-03    -26.7745E-03     53.1869E-03    -26.7417E-03     10.4904E-03
            1507     876.284E-06     50.4721E-03    -23.6101E+06    -113.003E+06    -23.2065E+06     21.5147E+03    -26.8368E-03     53.6535E-03    -26.8167E-03     5.66434E-03    -26.7575E-03     53.1566E-03    -26.7346E-03     5.66194E-03
            1508     16.6498E-03     50.7244E-03    -5.23185E+06     171.422E+06     84.7004E+06     138.748E+03    -36.8005E-03     63.6374E-03    -26.8369E-03     260.440E-03    -45.5902E-03     72.7714E-03    -26.6543E-03     265.476E-03
            1509     15.7735E-03     50.4155E-03    -8.65368E+06     129.342E+06     24.0504E+06     90.1866E+03    -39.2653E-03     65.8923E-03    -26.6270E-03     261.725E-03    -45.7189E-03     72.7046E-03    -26.6818E-03     262.822E-03
            1510     14.8969E-03     50.2178E-03    -9.38966E+06     61.9165E+06    -11.0493E+06     484.707E+03    -32.4533E-03     59.0154E-03    -26.5621E-03     158.675E-03    -33.8837E-03     60.6643E-03    -26.6935E-03     158.469E-03
            1511     14.0208E-03     50.1127E-03    -8.47373E+06     5.92848E+06    -13.3195E+06     617.642E+03    -28.7050E-03     55.3392E-03    -26.6342E-03     94.3027E-03    -29.0851E-03     55.7488E-03    -26.6971E-03     94.0933E-03
            1512     13.1444E-03     50.0384E-03    -8.40417E+06    -25.5875E+06    -10.6825E+06    -208.103E+03    -28.1589E-03     54.8543E-03    -26.6954E-03     80.0730E-03    -28.3334E-03     54.9390E-03    -26.6995E-03     79.8922E-03
            1513     12.2681E-03     49.9604E-03    -9.13308E+06    -39.2388E+06    -3.80210E+06    -218.792E+03    -28.1013E-03     54.8570E-03    -26.7557E-03     77.8048E-03    -28.2089E-03     54.8039E-03    -26.7046E-03     77.6577E-03
            1514     11.3916E-03     49.8905E-03    -9.40428E+06    -53.2391E+06    -2.41524E+06     278.120E+03    -27.8935E-03     54.6821E-03    -26.7886E-03     69.6489E-03    -27.9406E-03     54.5138E-03    -26.7099E-03     69.5370E-03
            1515     10.5153E-03     49.8281E-03    -9.76187E+06    -67.5242E+06    -3.17788E+06     236.185E+03    -27.7526E-03     54.5609E-03    -26.8083E-03     63.0451E-03    -27.7523E-03     54.2955E-03    -26.7122E-03     62.9568E-03
            1516     9.63904E-03     49.7707E-03    -10.4707E+06    -75.4379E+06    -729.881E+03     250.733E+03    -27.6093E-03     54.4431E-03    -26.8338E-03     57.8313E-03    -27.5876E-03     54.1185E-03    -26.7129E-03     57.7624E-03
            1517     8.76276E-03     49.7182E-03    -11.6072E+06    -80.0033E+06     451.392E+03     250.551E+03    -27.4584E-03     54.3076E-03    -26.8492E-03     52.5334E-03    -27.4258E-03     53.9485E-03    -26.7141E-03     52.4800E-03
            1518     7.88645E-03     49.6708E-03    -13.0091E+06    -85.1782E+06    -405.622E+03     175.033E+03    -27.3276E-03     54.1840E-03    -26.8564E-03     47.2376E-03    -27.2853E-03     53.7943E-03    -26.7161E-03     47.1956E-03
            1519     7.01017E-03     49.6284E-03    -14.6458E+06    -91.7275E+06    -1.88394E+06     139.143E+03    -27.2145E-03     54.0778E-03    -26.8633E-03     41.9184E-03    -27.1632E-03     53.6544E-03    -26.7185E-03     41.8858E-03
            1520     6.13387E-03     49.5910E-03    -16.3304E+06    -96.7041E+06    -4.60350E+06     128.108E+03    -27.1150E-03     53.9770E-03    -26.8620E-03     36.5941E-03    -27.0572E-03     53.5313E-03    -26.7211E-03     36.5692E-03
            1521     5.25761E-03     49.5587E-03    -17.9582E+06    -102.317E+06    -8.04276E+06     20.4435E+03    -27.0348E-03     53.8926E-03    -26.8578E-03     31.2786E-03    -26.9694E-03     53.4235E-03    -26.7236E-03     31.2585E-03
            1522     4.38131E-03     49.5315E-03    -19.6084E+06    -106.841E+06    -11.7208E+06    -2.40248E+03    -26.9680E-03     53.8184E-03    -26.8504E-03     25.9966E-03    -26.8971E-03     53.3326E-03    -26.7256E-03     25.9812E-03
            1523     3.50506E-03     49.5093E-03    -21.0242E+06    -108.926E+06    -15.6203E+06     22.0606E+03    -26.9101E-03     53.7477E-03    -26.8376E-03     20.7445E-03    -26.8364E-03     53.2580E-03    -26.7273E-03     20.7335E-03
            1524     2.62878E-03     49.4920E-03    -22.1917E+06    -110.830E+06    -19.0377E+06     6.37844E+03    -26.8664E-03     53.6929E-03    -26.8265E-03     15.5651E-03    -26.7900E-03     53.1994E-03    -26.7288E-03     15.5572E-03
            1525     1.75252E-03     49.4796E-03    -23.0097E+06    -112.173E+06    -21.6091E+06     15.2086E+03    -26.8343E-03     53.6532E-03    -26.8189E-03     10.4824E-03    -26.7558E-03     53.1575E-03    -26.7309E-03     10.4775E-03
            1526     876.235E-06     49.4720E-03    -23.4605E+06    -112.980E+06    -23.1504E+06    -5.33914E+03    -26.8155E-03     53.6366E-03    -26.8211E-03     5.65826E-03    -26.7356E-03     53.1395E-03    -26.7390E-03     5.65552E-03
            1527     16.6512E-03     49.7252E-03    -5.04239E+06     171.239E+06     85.1238E+06     129.730E+03    -36.8622E-03     63.6841E-03    -26.8219E-03     260.501E-03    -45.6459E-03     72.8110E-03    -26.6373E-03     265.523E-03
            1528     15.7733E-03     49.4155E-03    -8.25484E+06     129.381E+06     24.4527E+06     274.187E+03    -39.0490E-03     65.6666E-03    -26.6177E-03     262.116E-03    -45.5172E-03     72.4940E-03    -26.6710E-03     263.240E-03
            1529     14.8970E-03     49.2172E-03    -8.98495E+06     61.7566E+06    -12.6818E+06     40.6999E+03    -32.4182E-03     58.9691E-03    -26.5509E-03     158.582E-03    -33.8412E-03     60.6162E-03    -26.6908E-03     158.370E-03
            1530     14.0206E-03     49.1124E-03    -8.46128E+06     5.79979E+06    -14.8073E+06     90.2541E+03    -28.6919E-03     55.3174E-03    -26.6255E-03     94.3477E-03    -29.0694E-03     55.7284E-03    -26.6957E-03     94.1318E-03
            1531     13.1444E-03     49.0382E-03    -7.99054E+06    -25.0404E+06    -10.6873E+06     554.703E+03    -28.1589E-03     54.8522E-03    -26.6932E-03     80.1385E-03    -28.3321E-03     54.9391E-03    -26.6988E-03     79.9676E-03
            1532     12.2679E-03     48.9605E-03    -8.39123E+06    -39.3506E+06    -4.05086E+06     273.866E+03    -28.1356E-03     54.8876E-03    -26.7520E-03     77.9074E-03    -28.2390E-03     54.8333E-03    -26.7031E-03     77.7665E-03
            1533     11.3917E-03     48.8903E-03    -9.18736E+06    -53.3745E+06    -2.73739E+06     105.722E+03    -27.9214E-03     54.7046E-03    -26.7833E-03     69.6593E-03    -27.9668E-03     54.5359E-03    -26.7062E-03     69.5451E-03
            1534     10.5154E-03     48.8280E-03    -9.70517E+06    -67.4427E+06    -3.49484E+06     243.025E+03    -27.7571E-03     54.5585E-03    -26.8014E-03     63.0114E-03    -27.7562E-03     54.2938E-03    -26.7070E-03     62.9232E-03
            1535     9.63910E-03     48.7705E-03    -10.4526E+06    -75.5682E+06    -881.165E+03     311.832E+03    -27.6122E-03     54.4393E-03    -26.8271E-03     57.7832E-03    -27.5899E-03     54.1142E-03    -26.7068E-03     57.7152E-03
            1536     8.76281E-03     48.7181E-03    -11.5222E+06    -79.8259E+06     337.381E+03     343.035E+03    -27.4625E-03     54.3037E-03    -26.8411E-03     52.4868E-03    -27.4296E-03     53.9455E-03    -26.7070E-03     52.4346E-03
            1537     7.88653E-03     48.6707E-03    -12.9047E+06    -85.1662E+06    -361.287E+03     315.837E+03    -27.3324E-03     54.1804E-03    -26.8480E-03     47.1861E-03    -27.2896E-03     53.7905E-03    -26.7076E-03     47.1459E-03
            1538     7.01023E-03     48.6283E-03    -14.5220E+06    -91.6087E+06    -1.73300E+06     310.316E+03    -27.2162E-03     54.0698E-03    -26.8537E-03     41.8672E-03    -27.1647E-03     53.6466E-03    -26.7084E-03     41.8368E-03
            1539     6.13396E-03     48.5910E-03    -16.2467E+06    -96.5221E+06    -4.53056E+06     116.231E+03    -27.1119E-03     53.9624E-03    -26.8505E-03     36.5507E-03    -27.0540E-03     53.5173E-03    -26.7096E-03     36.5256E-03
            1540     5.25766E-03     48.5587E-03    -17.9621E+06    -102.271E+06    -7.93303E+06     45.9374E+03    -27.0274E-03     53.8730E-03    -26.8456E-03     31.2416E-03    -26.9621E-03     53.4039E-03    -26.7109E-03     31.2218E-03
            1541     4.38139E-03     48.5315E-03    -19.5843E+06    -106.808E+06    -11.7217E+06     7.87387E+03    -26.9562E-03     53.7931E-03    -26.8369E-03     25.9658E-03    -26.8852E-03     53.3074E-03    -26.7123E-03     25.9506E-03
            1542     3.50509E-03     48.5092E-03    -21.0523E+06    -108.933E+06    -15.6387E+06    -37.9223E+03    -26.9017E-03     53.7249E-03    -26.8232E-03     20.7258E-03    -26.8281E-03     53.2352E-03    -26.7129E-03     20.7140E-03
            1543     2.62884E-03     48.4920E-03    -22.2118E+06    -110.813E+06    -19.0950E+06    -23.2906E+03    -26.8598E-03     53.6690E-03    -26.8092E-03     15.5425E-03    -26.7834E-03     53.1758E-03    -26.7118E-03     15.5342E-03
            1544     1.75256E-03     48.4796E-03    -23.0447E+06    -112.178E+06    -21.6418E+06    -46.8650E+03    -26.8184E-03     53.6175E-03    -26.7991E-03     10.4570E-03    -26.7400E-03     53.1218E-03    -26.7112E-03     10.4513E-03
            1545     876.271E-06     48.4720E-03    -23.5563E+06    -113.032E+06    -23.2010E+06    -23.9294E+03    -26.7949E-03     53.5947E-03    -26.7999E-03     5.63243E-03    -26.7152E-03     53.0976E-03    -26.7178E-03     5.62946E-03
            1546     16.6504E-03     48.7264E-03    -5.10892E+06     171.041E+06     83.8179E+06    -6.17678E+03    -36.9419E-03     63.7601E-03    -26.8182E-03     260.441E-03    -45.7221E-03     72.8863E-03    -26.6397E-03     265.444E-03
            1547     15.7738E-03     48.4150E-03    -8.43183E+06     129.161E+06     23.4281E+06     240.667E+03    -39.2260E-03     65.8384E-03    -26.6123E-03     262.886E-03    -45.7220E-03     72.6950E-03    -26.6703E-03     263.997E-03
            1548     14.8972E-03     48.2175E-03    -9.36760E+06     62.3671E+06    -12.4232E+06     155.720E+03    -32.3784E-03     58.9288E-03    -26.5505E-03     158.744E-03    -33.8039E-03     60.5786E-03    -26.6894E-03     158.534E-03
            1549     14.0207E-03     48.1120E-03    -9.39459E+06     5.25228E+06    -15.6543E+06    -18.4810E+03    -28.6325E-03     55.2579E-03    -26.6254E-03     94.3149E-03    -29.0119E-03     55.6680E-03    -26.6976E-03     94.0983E-03
            1550     13.1442E-03     48.0383E-03    -9.28186E+06    -25.4571E+06    -11.7181E+06     334.425E+03    -28.1824E-03     54.8758E-03    -26.6934E-03     80.0554E-03    -28.3599E-03     54.9640E-03    -26.7016E-03     79.8814E-03
            1551     12.2680E-03     47.9601E-03    -9.16055E+06    -38.7468E+06    -4.43303E+06     478.856E+03    -28.2064E-03     54.9558E-03    -26.7494E-03     77.8542E-03    -28.3142E-03     54.9065E-03    -26.7021E-03     77.7154E-03
            1552     11.3917E-03     47.8902E-03    -9.52494E+06    -53.3926E+06    -3.09408E+06     237.394E+03    -27.9506E-03     54.7274E-03    -26.7768E-03     69.5975E-03    -27.9971E-03     54.5595E-03    -26.7011E-03     69.4849E-03
            1553     10.5155E-03     47.8278E-03    -10.1932E+06    -67.4842E+06    -3.87277E+06     226.799E+03    -27.7666E-03     54.5594E-03    -26.7928E-03     62.9691E-03    -27.7674E-03     54.2957E-03    -26.6995E-03     62.8807E-03
            1554     9.63919E-03     47.7704E-03    -10.8906E+06    -75.6263E+06    -1.19032E+06     311.067E+03    -27.6165E-03     54.4338E-03    -26.8172E-03     57.7315E-03    -27.5959E-03     54.1094E-03    -26.6977E-03     57.6634E-03
            1555     8.76291E-03     47.7180E-03    -11.9267E+06    -79.7534E+06     102.318E+03     329.730E+03    -27.4645E-03     54.2943E-03    -26.8298E-03     52.4370E-03    -27.4333E-03     53.9374E-03    -26.6964E-03     52.3847E-03
            1556     7.88662E-03     47.6706E-03    -13.2121E+06    -85.1807E+06    -502.955E+03     373.799E+03    -27.3321E-03     54.1677E-03    -26.8356E-03     47.1333E-03    -27.2907E-03     53.7784E-03    -26.6954E-03     47.0939E-03
            1557     7.01034E-03     47.6282E-03    -14.6696E+06    -91.3973E+06    -1.73241E+06     300.232E+03    -27.2123E-03     54.0522E-03    -26.8398E-03     41.8214E-03    -27.1619E-03     53.6302E-03    -26.6947E-03     41.7909E-03
            1558     6.13404E-03     47.5909E-03    -16.2824E+06    -96.2976E+06    -4.49889E+06     174.771E+03    -27.1053E-03     53.9404E-03    -26.8351E-03     36.5085E-03    -27.0479E-03     53.4965E-03    -26.6944E-03     36.4843E-03
            1559     5.25775E-03     47.5587E-03    -17.9689E+06    -102.224E+06    -7.90774E+06     36.0723E+03    -27.0190E-03     53.8480E-03    -26.8290E-03     31.1986E-03    -26.9539E-03     53.3791E-03    -26.6943E-03     31.1788E-03
            1560     4.38145E-03     47.5315E-03    -19.5817E+06    -106.749E+06    -11.6444E+06    -6.07720E+03    -26.9458E-03     53.7647E-03    -26.8189E-03     25.9219E-03    -26.8750E-03     53.2792E-03    -26.6940E-03     25.9066E-03
            1561     3.50517E-03     47.5092E-03    -21.0327E+06    -108.920E+06    -15.6555E+06    -30.0383E+03    -26.8851E-03     53.6886E-03    -26.8035E-03     20.6962E-03    -26.8114E-03     53.1989E-03    -26.6933E-03     20.6846E-03
            1562     2.62888E-03     47.4920E-03    -22.2446E+06    -110.820E+06    -19.0995E+06    -60.8475E+03    -26.8405E-03     53.6296E-03    -26.7891E-03     15.5129E-03    -26.7642E-03     53.1363E-03    -26.6917E-03     15.5042E-03
            1563     1.75260E-03     47.4797E-03    -23.1290E+06    -112.221E+06    -21.7170E+06    -39.3316E+03    -26.8020E-03     53.5791E-03    -26.7771E-03     10.4458E-03    -26.7238E-03     53.0834E-03    -26.6894E-03     10.4402E-03
            1564     876.320E-06     47.4721E-03    -23.6812E+06    -113.094E+06    -23.3067E+06    -50.2216E+03    -26.7846E-03     53.5478E-03    -26.7632E-03     5.66639E-03    -26.7054E-03     53.0507E-03    -26.6814E-03     5.66305E-03
            1565     16.6501E-03     47.7257E-03    -5.23361E+06     171.022E+06     83.6251E+06     40.3970E+03    -36.9139E-03     63.7484E-03    -26.8345E-03     260.584E-03    -45.7053E-03     72.8858E-03    -26.6568E-03     265.595E-03
            1566     15.7732E-03     47.4151E-03    -8.71181E+06     128.796E+06     23.2185E+06     236.531E+03    -39.5288E-03     66.1514E-03    -26.6226E-03     262.869E-03    -46.0278E-03     73.0093E-03    -26.6806E-03     263.958E-03
            1567     14.8968E-03     47.2167E-03    -9.82017E+06     62.6048E+06    -10.9127E+06     591.099E+03    -32.4541E-03     59.0118E-03    -26.5578E-03     158.484E-03    -33.8844E-03     60.6612E-03    -26.6889E-03     158.277E-03
            1568     14.0206E-03     47.1122E-03    -10.1987E+06     5.61236E+06    -14.4105E+06     310.748E+03    -28.6237E-03     55.2522E-03    -26.6284E-03     94.0854E-03    -29.0089E-03     55.6629E-03    -26.6938E-03     93.8729E-03
            1569     13.1443E-03     47.0378E-03    -10.0271E+06    -25.8326E+06    -12.0624E+06    -82.8212E+03    -28.1924E-03     54.8808E-03    -26.6884E-03     80.0104E-03    -28.3726E-03     54.9686E-03    -26.6967E-03     79.8310E-03
            1570     12.2681E-03     46.9600E-03    -9.69538E+06    -38.7890E+06    -4.52730E+06     64.9476E+03    -28.2199E-03     54.9631E-03    -26.7432E-03     77.7345E-03    -28.3302E-03     54.9145E-03    -26.6956E-03     77.5901E-03
            1571     11.3918E-03     46.8900E-03    -9.88746E+06    -53.3214E+06    -3.10356E+06     252.624E+03    -27.9585E-03     54.7274E-03    -26.7688E-03     69.5162E-03    -28.0069E-03     54.5604E-03    -26.6927E-03     69.4037E-03
            1572     10.5156E-03     46.8278E-03    -10.3496E+06    -67.4946E+06    -3.80061E+06     255.196E+03    -27.7776E-03     54.5608E-03    -26.7832E-03     62.9030E-03    -27.7793E-03     54.2971E-03    -26.6893E-03     62.8149E-03
            1573     9.63930E-03     46.7703E-03    -11.0852E+06    -75.6144E+06    -1.19034E+06     229.643E+03    -27.6222E-03     54.4276E-03    -26.8054E-03     57.6802E-03    -27.6025E-03     54.1035E-03    -26.6856E-03     57.6111E-03
            1574     8.76303E-03     46.7179E-03    -12.0713E+06    -79.7962E+06     105.277E+03     295.895E+03    -27.4657E-03     54.2819E-03    -26.8162E-03     52.3860E-03    -27.4351E-03     53.9249E-03    -26.6825E-03     52.3332E-03
            1575     7.88675E-03     46.6705E-03    -13.3233E+06    -85.0964E+06    -562.938E+03     289.290E+03    -27.3275E-03     54.1473E-03    -26.8198E-03     47.0857E-03    -27.2866E-03     53.7587E-03    -26.6799E-03     47.0453E-03
            1576     7.01045E-03     46.6282E-03    -14.7686E+06    -91.2402E+06    -1.71473E+06     216.637E+03    -27.2058E-03     54.0287E-03    -26.8229E-03     41.7722E-03    -27.1560E-03     53.6075E-03    -26.6778E-03     41.7407E-03
            1577     6.13416E-03     46.5909E-03    -16.3413E+06    -96.1279E+06    -4.43201E+06     106.404E+03    -27.0976E-03     53.9143E-03    -26.8167E-03     36.4611E-03    -27.0408E-03     53.4712E-03    -26.6758E-03     36.4360E-03
            1578     5.25786E-03     46.5587E-03    -17.9634E+06    -102.122E+06    -7.90816E+06     30.9898E+03    -27.0110E-03     53.8193E-03    -26.8083E-03     31.1552E-03    -26.9460E-03     53.3509E-03    -26.6737E-03     31.1353E-03
            1579     4.38157E-03     46.5315E-03    -19.6012E+06    -106.744E+06    -11.6707E+06    -12.7199E+03    -26.9351E-03     53.7309E-03    -26.7958E-03     25.8823E-03    -26.8643E-03     53.2455E-03    -26.6710E-03     25.8668E-03
            1580     3.50526E-03     46.5093E-03    -21.0859E+06    -108.890E+06    -15.6239E+06    -25.4734E+03    -26.8643E-03     53.6431E-03    -26.7788E-03     20.6608E-03    -26.7909E-03     53.1536E-03    -26.6684E-03     20.6492E-03
            1581     2.62895E-03     46.4921E-03    -22.2946E+06    -110.842E+06    -19.1441E+06    -43.3892E+03    -26.8099E-03     53.5743E-03    -26.7645E-03     15.4836E-03    -26.7338E-03     53.0811E-03    -26.6671E-03     15.4752E-03
            1582     1.75263E-03     46.4797E-03    -23.1930E+06    -112.260E+06    -21.7847E+06    -51.2630E+03    -26.7721E-03     53.5274E-03    -26.7553E-03     10.4163E-03    -26.6941E-03     53.0318E-03    -26.6678E-03     10.4106E-03
            1583     876.280E-06     46.4722E-03    -23.6761E+06    -113.131E+06    -23.3997E+06    -19.3054E+03    -26.7544E-03     53.5083E-03    -26.7538E-03     5.67923E-03    -26.6750E-03     53.0111E-03    -26.6725E-03     5.67627E-03
            1584     16.6495E-03     46.7252E-03    -5.34319E+06     170.973E+06     84.0164E+06     270.020E+03    -37.0266E-03     63.8603E-03    -26.8337E-03     260.445E-03    -45.8151E-03     72.9932E-03    -26.6538E-03     265.452E-03
            1585     15.7735E-03     46.4144E-03    -8.84163E+06     128.462E+06     23.0469E+06     404.854E+03    -39.5072E-03     66.1198E-03    -26.6126E-03     262.068E-03    -45.9778E-03     72.9482E-03    -26.6708E-03     263.148E-03
            1586     14.8975E-03     46.2166E-03    -9.50513E+06     62.4343E+06    -11.2118E+06     546.653E+03    -32.4005E-03     58.9449E-03    -26.5444E-03     158.165E-03    -33.8272E-03     60.5920E-03    -26.6772E-03     157.959E-03
            1587     14.0209E-03     46.1121E-03    -9.01263E+06     6.40565E+06    -13.7043E+06     524.105E+03    -28.6431E-03     55.2599E-03    -26.6168E-03     93.9375E-03    -29.0242E-03     55.6715E-03    -26.6816E-03     93.7278E-03
            1588     13.1445E-03     46.0377E-03    -9.01842E+06    -25.5389E+06    -11.6481E+06     123.409E+03    -28.1829E-03     54.8580E-03    -26.6751E-03     79.9718E-03    -28.3588E-03     54.9450E-03    -26.6832E-03     79.7952E-03
            1589     12.2682E-03     45.9598E-03    -9.43838E+06    -39.1501E+06    -4.50346E+06    -32.2157E+03    -28.1782E-03     54.9092E-03    -26.7310E-03     77.6584E-03    -28.2865E-03     54.8581E-03    -26.6831E-03     77.5131E-03
            1590     11.3919E-03     45.8899E-03    -9.92955E+06    -53.4037E+06    -3.10064E+06     149.250E+03    -27.9474E-03     54.7048E-03    -26.7574E-03     69.4650E-03    -27.9958E-03     54.5374E-03    -26.6811E-03     69.3512E-03
            1591     10.5157E-03     45.8276E-03    -10.4174E+06    -67.4790E+06    -3.77165E+06     213.340E+03    -27.7809E-03     54.5519E-03    -26.7710E-03     62.8621E-03    -27.7829E-03     54.2883E-03    -26.6769E-03     62.7735E-03
            1592     9.63945E-03     45.7702E-03    -11.0680E+06    -75.5631E+06    -1.11852E+06     203.538E+03    -27.6300E-03     54.4214E-03    -26.7914E-03     57.6406E-03    -27.6103E-03     54.0975E-03    -26.6714E-03     57.5712E-03
            1593     8.76318E-03     45.7178E-03    -12.0852E+06    -79.8386E+06     136.725E+03     182.177E+03    -27.4670E-03     54.2673E-03    -26.8002E-03     52.3397E-03    -27.4365E-03     53.9100E-03    -26.6663E-03     52.2855E-03
            1594     7.88688E-03     45.6705E-03    -13.2955E+06    -85.0057E+06    -533.435E+03     198.931E+03    -27.3248E-03     54.1265E-03    -26.8018E-03     47.0397E-03    -27.2839E-03     53.7382E-03    -26.6619E-03     46.9982E-03
            1595     7.01060E-03     45.6282E-03    -14.7071E+06    -91.0773E+06    -1.66637E+06     94.0050E+03    -27.2000E-03     54.0029E-03    -26.8029E-03     41.7233E-03    -27.1502E-03     53.5824E-03    -26.6578E-03     41.6902E-03
            1596     6.13430E-03     45.5909E-03    -16.2767E+06    -96.0643E+06    -4.40877E+06     23.8234E+03    -27.0896E-03     53.8843E-03    -26.7947E-03     36.4139E-03    -27.0326E-03     53.4413E-03    -26.6539E-03     36.3878E-03
            1597     5.25798E-03     45.5587E-03    -17.9534E+06    -102.086E+06    -7.86998E+06     30.8925E+03    -26.9994E-03     53.7837E-03    -26.7843E-03     31.1077E-03    -26.9344E-03     53.3154E-03    -26.6496E-03     31.0879E-03
            1598     4.38168E-03     45.5316E-03    -19.5991E+06    -106.690E+06    -11.6080E+06     9.93637E+03    -26.9176E-03     53.6875E-03    -26.7699E-03     25.8376E-03    -26.8470E-03     53.2023E-03    -26.6448E-03     25.8225E-03
            1599     3.50536E-03     45.5094E-03    -21.0979E+06    -108.892E+06    -15.6232E+06    -25.8618E+03    -26.8422E-03     53.5932E-03    -26.7509E-03     20.6231E-03    -26.7689E-03     53.1037E-03    -26.6406E-03     20.6116E-03
            1600     2.62903E-03     45.4922E-03    -22.3234E+06    -110.847E+06    -19.1619E+06    -29.2293E+03    -26.7849E-03     53.5198E-03    -26.7349E-03     15.4530E-03    -26.7089E-03     53.0267E-03    -26.6377E-03     15.4447E-03
            1601     1.75267E-03     45.4799E-03    -23.1965E+06    -112.282E+06    -21.8009E+06    -26.3530E+03    -26.7498E-03     53.4721E-03    -26.7223E-03     10.3794E-03    -26.6717E-03     52.9763E-03    -26.6349E-03     10.3740E-03
            1602     876.367E-06     45.4723E-03    -23.7908E+06    -113.187E+06    -23.3883E+06    -16.3021E+03    -26.7032E-03     53.4366E-03    -26.7334E-03     5.64442E-03    -26.6242E-03     52.9393E-03    -26.6518E-03     5.64153E-03
            1603     16.6512E-03     45.7246E-03    -5.11542E+06     170.664E+06     84.4579E+06     271.963E+03    -37.1852E-03     63.9915E-03    -26.8063E-03     260.063E-03    -45.9534E-03     73.1025E-03    -26.6241E-03     265.051E-03
            1604     15.7744E-03     45.4148E-03    -8.07265E+06     128.358E+06     23.0467E+06     745.859E+03    -39.1912E-03     65.7769E-03    -26.5857E-03     262.368E-03    -45.6603E-03     72.6061E-03    -26.6449E-03     263.486E-03
            1605     14.8971E-03     45.2164E-03    -9.06928E+06     62.4919E+06    -11.6409E+06     674.635E+03    -32.3484E-03     58.8747E-03    -26.5263E-03     158.303E-03    -33.7724E-03     60.5221E-03    -26.6619E-03     158.100E-03
            1606     14.0210E-03     45.1119E-03    -9.02102E+06     6.75437E+06    -13.4659E+06     474.555E+03    -28.6220E-03     55.2261E-03    -26.6041E-03     93.9602E-03    -29.0037E-03     55.6389E-03    -26.6682E-03     93.7501E-03
            1607     13.1448E-03     45.0376E-03    -8.80117E+06    -25.0485E+06    -11.3190E+06     496.467E+03    -28.1629E-03     54.8259E-03    -26.6630E-03     80.0815E-03    -28.3389E-03     54.9146E-03    -26.6705E-03     79.9099E-03
            1608     12.2684E-03     44.9597E-03    -9.11750E+06    -39.1082E+06    -4.31104E+06     305.372E+03    -28.1642E-03     54.8835E-03    -26.7193E-03     77.7591E-03    -28.2712E-03     54.8318E-03    -26.6710E-03     77.6184E-03
            1609     11.3921E-03     44.8897E-03    -9.75071E+06    -53.4950E+06     -3.0643E+06     174.468E+03    -27.9488E-03     54.6940E-03    -26.7452E-03     69.4751E-03    -27.9961E-03     54.5257E-03    -26.6688E-03     69.3618E-03
            1610     10.5158E-03     44.8275E-03    -10.2852E+06    -67.4614E+06    -3.73452E+06     177.638E+03    -27.7892E-03     54.5465E-03    -26.7573E-03     62.8311E-03    -27.7906E-03     54.2827E-03    -26.6632E-03     62.7421E-03
            1611     9.63959E-03     44.7701E-03    -11.0024E+06    -75.5098E+06    -1.08624E+06     174.786E+03    -27.6383E-03     54.4139E-03    -26.7757E-03     57.5841E-03    -27.6183E-03     54.0900E-03    -26.6557E-03     57.5144E-03
            1612     8.76333E-03     44.7178E-03    -12.0663E+06    -79.8256E+06     210.231E+03     172.202E+03    -27.4713E-03     54.2538E-03    -26.7824E-03     52.2788E-03    -27.4408E-03     53.8964E-03    -26.6481E-03     52.2246E-03
            1613     7.88706E-03     44.6705E-03    -13.3664E+06    -84.8609E+06    -635.065E+03     52.7878E+03    -27.3240E-03     54.1046E-03    -26.7806E-03     46.9842E-03    -27.2835E-03     53.7172E-03    -26.6414E-03     46.9409E-03
            1614     7.01075E-03     44.6282E-03    -14.7375E+06    -90.9699E+06    -1.80497E+06    -58.8470E+03    -27.1953E-03     53.9744E-03    -26.7791E-03     41.6658E-03    -27.1456E-03     53.5547E-03    -26.6349E-03     41.6309E-03
            1615     6.13444E-03     44.5910E-03    -16.3288E+06    -96.1442E+06    -4.37104E+06    -17.3174E+03    -27.0796E-03     53.8494E-03    -26.7697E-03     36.3533E-03    -27.0228E-03     53.4060E-03    -26.6285E-03     36.3267E-03
            1616     5.25814E-03     44.5588E-03    -17.9892E+06    -102.045E+06    -7.80415E+06     18.7223E+03    -26.9823E-03     53.7394E-03    -26.7571E-03     31.0523E-03    -26.9177E-03     53.2713E-03    -26.6220E-03     31.0324E-03
            1617     4.38181E-03     44.5317E-03    -19.6063E+06    -106.669E+06    -11.5864E+06    -7.44979E+03    -26.8945E-03     53.6353E-03    -26.7407E-03     25.7809E-03    -26.8240E-03     53.1501E-03    -26.6156E-03     25.7657E-03
            1618     3.50547E-03     44.5095E-03    -21.0840E+06    -108.878E+06    -15.6419E+06    -2.90732E+03    -26.8167E-03     53.5369E-03    -26.7202E-03     20.5760E-03    -26.7433E-03     53.0474E-03    -26.6099E-03     20.5648E-03
            1619     2.62911E-03     44.4924E-03    -22.3138E+06    -110.853E+06    -19.1782E+06     2.47484E+03    -26.7615E-03     53.4634E-03    -26.7019E-03     15.4226E-03    -26.6855E-03     52.9702E-03    -26.6047E-03     15.4148E-03
            1620     1.75277E-03     44.4801E-03    -23.2377E+06    -112.295E+06    -21.8110E+06     9.24009E+03    -26.7221E-03     53.4074E-03    -26.6853E-03     10.3723E-03    -26.6442E-03     52.9117E-03    -26.5979E-03     10.3674E-03
            1621     876.389E-06     44.4726E-03    -23.7663E+06    -113.206E+06    -23.4609E+06    -8.19178E+03    -26.6678E-03     53.3577E-03    -26.6899E-03     5.61323E-03    -26.5886E-03     52.8603E-03    -26.6086E-03     5.61050E-03
            1622     16.6518E-03     44.7266E-03    -5.20456E+06     170.038E+06     84.0656E+06     57.3916E+03    -37.2937E-03     64.0890E-03    -26.7953E-03     260.023E-03    -46.0541E-03     73.1908E-03    -26.6140E-03     264.987E-03
            1623     15.7735E-03     44.4142E-03    -8.37417E+06     128.137E+06     23.2050E+06     568.932E+03    -39.2661E-03     65.8412E-03    -26.5752E-03     262.927E-03    -45.7625E-03     72.6956E-03    -26.6328E-03     264.038E-03
            1624     14.8981E-03     44.2164E-03    -9.15686E+06     62.7073E+06    -11.1645E+06     783.957E+03    -32.2190E-03     58.7387E-03    -26.5197E-03     158.379E-03    -33.6415E-03     60.3837E-03    -26.6532E-03     158.180E-03
            1625     14.0212E-03     44.1118E-03    -8.77607E+06     6.73321E+06    -13.3531E+06     770.389E+03    -28.5611E-03     55.1626E-03    -26.6015E-03     94.3394E-03    -28.9419E-03     55.5748E-03    -26.6653E-03     94.1340E-03
            1626     13.1447E-03     44.0376E-03    -8.77688E+06    -24.8118E+06    -11.1533E+06     639.480E+03    -28.2369E-03     54.8975E-03    -26.6607E-03     80.2468E-03    -28.4137E-03     54.9875E-03    -26.6677E-03     80.0765E-03
            1627     12.2685E-03     43.9595E-03    -9.00134E+06    -38.7990E+06    -4.09783E+06     490.503E+03    -28.2371E-03     54.9490E-03    -26.7119E-03     77.7917E-03    -28.3443E-03     54.8983E-03    -26.6630E-03     77.6530E-03
            1628     11.3922E-03     43.8896E-03    -9.50988E+06    -53.3572E+06    -2.92549E+06     319.216E+03    -27.9850E-03     54.7176E-03    -26.7327E-03     69.4242E-03    -28.0314E-03     54.5494E-03    -26.6561E-03     69.3127E-03
            1629     10.5160E-03     43.8273E-03    -10.1289E+06    -67.4092E+06    -3.63037E+06     199.736E+03    -27.8022E-03     54.5438E-03    -26.7416E-03     62.7684E-03    -27.8029E-03     54.2798E-03    -26.6474E-03     62.6797E-03
            1630     9.63977E-03     43.7700E-03    -10.8607E+06    -75.4813E+06    -950.608E+03     174.490E+03    -27.6437E-03     54.4015E-03    -26.7578E-03     57.5148E-03    -27.6232E-03     54.0773E-03    -26.6374E-03     57.4452E-03
            1631     8.76352E-03     43.7177E-03    -11.8668E+06    -79.7437E+06     400.243E+03     114.494E+03    -27.4791E-03     54.2412E-03    -26.7621E-03     52.2037E-03    -27.4479E-03     53.8836E-03    -26.6272E-03     52.1488E-03
            1632     7.88723E-03     43.6705E-03    -13.0757E+06    -84.6478E+06    -368.364E+03    -12.0823E+03    -27.3274E-03     54.0846E-03    -26.7572E-03     46.9030E-03    -27.2860E-03     53.6974E-03    -26.6174E-03     46.8589E-03
            1633     7.01094E-03     43.6282E-03    -14.6192E+06    -90.9754E+06    -1.66808E+06    -98.1073E+03    -27.1908E-03     53.9434E-03    -26.7526E-03     41.5854E-03    -27.1406E-03     53.5232E-03    -26.6078E-03     41.5501E-03
            1634     6.13464E-03     43.5911E-03    -16.2772E+06    -96.2380E+06    -4.32416E+06    -64.0071E+03    -27.0661E-03     53.8063E-03    -26.7402E-03     36.2727E-03    -27.0090E-03     53.3623E-03    -26.5987E-03     36.2456E-03
            1635     5.25829E-03     43.5589E-03    -17.9457E+06    -102.043E+06    -7.81640E+06    -14.9918E+03    -26.9579E-03     53.6830E-03    -26.7252E-03     30.9799E-03    -26.8930E-03     53.2149E-03    -26.5903E-03     30.9597E-03
            1636     4.38195E-03     43.5318E-03    -19.5910E+06    -106.668E+06    -11.6452E+06     2.86160E+03    -26.8666E-03     53.5740E-03    -26.7074E-03     25.7185E-03    -26.7959E-03     53.0888E-03    -26.5825E-03     25.7035E-03
            1637     3.50559E-03     43.5098E-03    -21.1039E+06    -108.897E+06    -15.6853E+06     25.5199E+03    -26.7890E-03     53.4744E-03    -26.6855E-03     20.5255E-03    -26.7156E-03     52.9850E-03    -26.5754E-03     20.5148E-03
            1638     2.62921E-03     43.4926E-03    -22.3295E+06    -110.845E+06    -19.2048E+06     45.9563E+03    -26.7284E-03     53.3942E-03    -26.6658E-03     15.3834E-03    -26.6524E-03     52.9011E-03    -26.5687E-03     15.3762E-03
            1639     1.75280E-03     43.4804E-03    -23.2209E+06    -112.282E+06    -21.8488E+06     36.5223E+03    -26.6824E-03     53.3320E-03    -26.6496E-03     10.3365E-03    -26.6044E-03     52.8363E-03    -26.5624E-03     10.3320E-03
            1640     876.407E-06     43.4728E-03    -23.7533E+06    -113.165E+06    -23.4181E+06     39.3706E+03    -26.6571E-03     53.2887E-03    -26.6316E-03     5.56215E-03    -26.5780E-03     52.7915E-03    -26.5502E-03     5.56008E-03
            1641     16.6496E-03     43.7252E-03    -5.31945E+06     169.546E+06     83.6915E+06     36.5247E+03    -37.2491E-03     64.0561E-03    -26.8069E-03     259.490E-03    -45.9935E-03     73.1407E-03    -26.6266E-03     264.445E-03
            1642     15.7752E-03     43.4142E-03    -8.14769E+06     127.647E+06     22.4709E+06     387.896E+03    -39.3839E-03     65.9648E-03    -26.5809E-03     262.937E-03    -45.8707E-03     72.8107E-03    -26.6418E-03     264.024E-03
            1643     14.8972E-03     43.2169E-03    -8.77073E+06     62.7103E+06    -11.6859E+06     788.580E+03    -32.2569E-03     58.7795E-03    -26.5227E-03     158.890E-03    -33.6813E-03     60.4293E-03    -26.6593E-03     158.692E-03
            1644     14.0207E-03     43.1116E-03    -9.00757E+06     6.86354E+06    -13.7540E+06     941.270E+03    -28.7176E-03     55.3191E-03    -26.6014E-03     94.3286E-03    -29.0996E-03     55.7333E-03    -26.6671E-03     94.1237E-03
            1645     13.1447E-03     43.0372E-03    -8.83283E+06    -24.5513E+06    -11.0666E+06     729.903E+03    -28.3057E-03     54.9607E-03    -26.6550E-03     80.0169E-03    -28.4831E-03     55.0516E-03    -26.6619E-03     79.8473E-03
            1646     12.2686E-03     42.9593E-03    -8.94244E+06    -38.6457E+06    -3.82389E+06     519.412E+03    -28.2898E-03     54.9915E-03    -26.7017E-03     77.6128E-03    -28.3973E-03     54.9411E-03    -26.6518E-03     77.4741E-03
            1647     11.3924E-03     42.8894E-03    -9.38856E+06    -53.0388E+06    -2.56754E+06     388.761E+03    -28.0056E-03     54.7241E-03    -26.7185E-03     69.3399E-03    -28.0522E-03     54.5566E-03    -26.6409E-03     69.2293E-03
            1648     10.5162E-03     42.8272E-03    -9.90545E+06    -67.3319E+06    -3.31502E+06     240.949E+03    -27.8159E-03     54.5405E-03    -26.7246E-03     62.7072E-03    -27.8159E-03     54.2760E-03    -26.6292E-03     62.6191E-03
            1649     9.63997E-03     42.7699E-03    -10.6325E+06    -75.4174E+06    -752.811E+03     171.387E+03    -27.6583E-03     54.3955E-03    -26.7372E-03     57.4491E-03    -27.6369E-03     54.0708E-03    -26.6162E-03     57.3796E-03
            1650     8.76372E-03     42.7177E-03    -11.6515E+06    -79.5728E+06     629.839E+03     35.1089E+03    -27.4917E-03     54.2295E-03    -26.7378E-03     52.1082E-03    -27.4598E-03     53.8720E-03    -26.6024E-03     52.0524E-03
            1651     7.88747E-03     42.6705E-03    -12.9519E+06    -84.5683E+06    -222.381E+03    -56.0573E+03    -27.3298E-03     54.0587E-03    -26.7289E-03     46.7994E-03    -27.2881E-03     53.6714E-03    -26.5886E-03     46.7549E-03
            1652     7.01117E-03     42.6283E-03    -14.4266E+06    -90.9856E+06    -1.63461E+06    -43.4203E+03    -27.1828E-03     53.9031E-03    -26.7203E-03     41.4892E-03    -27.1316E-03     53.4825E-03    -26.5756E-03     41.4547E-03
            1653     6.13484E-03     42.5912E-03    -16.1367E+06    -96.3149E+06    -4.42997E+06    -11.6378E+03    -27.0496E-03     53.7541E-03    -26.7045E-03     36.1762E-03    -26.9914E-03     53.3095E-03    -26.5636E-03     36.1500E-03
            1654     5.25851E-03     42.5591E-03    -17.9104E+06    -102.051E+06    -7.92487E+06     21.1810E+03    -26.9308E-03     53.6179E-03    -26.6871E-03     30.8830E-03    -26.8655E-03     53.1497E-03    -26.5528E-03     30.8633E-03
            1655     4.38211E-03     42.5321E-03    -19.5968E+06    -106.697E+06    -11.7327E+06     48.7699E+03    -26.8323E-03     53.5003E-03    -26.6680E-03     25.6387E-03    -26.7614E-03     53.0151E-03    -26.5435E-03     25.6244E-03
            1656     3.50573E-03     42.5100E-03    -21.0871E+06    -108.891E+06    -15.7396E+06     72.8747E+03    -26.7540E-03     53.3988E-03    -26.6449E-03     20.4565E-03    -26.6804E-03     52.9095E-03    -26.5351E-03     20.4464E-03
            1657     2.62931E-03     42.4929E-03    -22.3226E+06    -110.829E+06    -19.2327E+06     69.6565E+03    -26.6900E-03     53.3139E-03    -26.6240E-03     15.3274E-03    -26.6139E-03     52.8209E-03    -26.5271E-03     15.3206E-03
            1658     1.75290E-03     42.4807E-03    -23.1965E+06    -112.222E+06    -21.8167E+06     69.8485E+03    -26.6411E-03     53.2481E-03    -26.6070E-03     10.2884E-03    -26.5631E-03     52.7526E-03    -26.5197E-03     10.2844E-03
            1659     876.456E-06     42.4732E-03    -23.7137E+06    -113.101E+06    -23.3873E+06     44.6846E+03    -26.6176E-03     53.2027E-03    -26.5851E-03     5.54850E-03    -26.5383E-03     52.7057E-03    -26.5037E-03     5.54650E-03
            1660     16.6516E-03     42.7235E-03    -5.15283E+06     169.383E+06     84.0726E+06     131.656E+03    -37.0333E-03     63.8595E-03    -26.8263E-03     260.087E-03    -45.8006E-03     72.9661E-03    -26.6441E-03     265.087E-03
            1661     15.7728E-03     42.4151E-03    -8.46557E+06     127.245E+06     23.0111E+06     256.260E+03    -39.5125E-03     66.1164E-03    -26.6039E-03     262.474E-03    -45.9837E-03     72.9426E-03    -26.6611E-03     263.559E-03
            1662     14.8971E-03     42.2158E-03    -9.46662E+06     62.1244E+06    -11.6665E+06     657.156E+03    -32.5741E-03     59.1034E-03    -26.5293E-03     158.560E-03    -34.0024E-03     60.7525E-03    -26.6640E-03     158.351E-03
            1663     14.0216E-03     42.1116E-03    -8.97174E+06     7.25712E+06    -13.0595E+06     899.630E+03    -28.8228E-03     55.4178E-03    -26.5950E-03     94.0638E-03    -29.2062E-03     55.8330E-03    -26.6578E-03     93.8571E-03
            1664     13.1451E-03     42.0369E-03    -8.53511E+06    -24.2133E+06    -10.1311E+06     624.874E+03    -28.3145E-03     54.9591E-03    -26.6446E-03     80.0310E-03    -28.4922E-03     55.0499E-03    -26.6478E-03     79.8599E-03
            1665     12.2689E-03     41.9591E-03    -8.56479E+06    -38.5767E+06    -3.44578E+06     551.865E+03    -28.2761E-03     54.9642E-03    -26.6880E-03     77.5842E-03    -28.3820E-03     54.9127E-03    -26.6369E-03     77.4463E-03
            1666     11.3926E-03     41.8893E-03    -8.92751E+06    -52.7635E+06    -2.23981E+06     414.302E+03    -28.0307E-03     54.7332E-03    -26.7026E-03     69.3058E-03    -28.0757E-03     54.5658E-03    -26.6243E-03     69.1956E-03
            1667     10.5164E-03     41.8271E-03    -9.47186E+06    -67.2401E+06    -3.07794E+06     288.275E+03    -27.8564E-03     54.5607E-03    -26.7043E-03     62.6190E-03    -27.8546E-03     54.2955E-03    -26.6085E-03     62.5316E-03
            1668     9.64020E-03     41.7698E-03    -10.1877E+06    -75.2722E+06    -612.058E+03     196.554E+03    -27.6872E-03     54.3984E-03    -26.7112E-03     57.3302E-03    -27.6639E-03     54.0735E-03    -26.5903E-03     57.2610E-03
            1669     8.76400E-03     41.7177E-03    -11.3143E+06    -79.4330E+06     659.150E+03     123.807E+03    -27.5003E-03     54.2070E-03    -26.7068E-03     51.9793E-03    -27.4669E-03     53.8496E-03    -26.5719E-03     51.9247E-03
            1670     7.88773E-03     41.6705E-03    -12.7707E+06    -84.4770E+06    -270.755E+03     37.8853E+03    -27.3294E-03     54.0232E-03    -26.6937E-03     46.6686E-03    -27.2868E-03     53.6361E-03    -26.5541E-03     46.6254E-03
            1671     7.01143E-03     41.6284E-03    -14.4503E+06    -91.0921E+06    -1.80629E+06     54.6240E+03    -27.1694E-03     53.8508E-03    -26.6814E-03     41.3589E-03    -27.1179E-03     53.4299E-03    -26.5374E-03     41.3258E-03
            1672     6.13511E-03     41.5914E-03    -16.1863E+06    -96.2953E+06    -4.58925E+06     117.075E+03    -27.0235E-03     53.6860E-03    -26.6625E-03     36.0618E-03    -26.9654E-03     53.2418E-03    -26.5223E-03     36.0373E-03
            1673     5.25872E-03     41.5594E-03    -17.9119E+06    -102.072E+06    -8.02269E+06     100.706E+03    -26.9033E-03     53.5459E-03    -26.6427E-03     30.7775E-03    -26.8378E-03     53.0778E-03    -26.5088E-03     30.7589E-03
            1674     4.38234E-03     41.5324E-03    -19.5824E+06    -106.688E+06    -11.7960E+06     119.665E+03    -26.7987E-03     53.4194E-03    -26.6207E-03     25.5488E-03    -26.7276E-03     52.9343E-03    -26.4966E-03     25.5355E-03
            1675     3.50589E-03     41.5104E-03    -21.0875E+06    -108.878E+06    -15.7854E+06     112.772E+03    -26.7081E-03     53.3039E-03    -26.5958E-03     20.3746E-03    -26.6344E-03     52.8146E-03    -26.4863E-03     20.3651E-03
            1676     2.62945E-03     41.4933E-03    -22.2769E+06    -110.765E+06    -19.2168E+06     107.930E+03    -26.6409E-03     53.2154E-03    -26.5745E-03     15.2664E-03    -26.5647E-03     52.7226E-03    -26.4776E-03     15.2601E-03
            1677     1.75297E-03     41.4811E-03    -23.1613E+06    -112.142E+06    -21.7776E+06     83.5004E+03    -26.5937E-03     53.1504E-03    -26.5567E-03     10.2447E-03    -26.5157E-03     52.6552E-03    -26.4694E-03     10.2409E-03
            1678     876.495E-06     41.4737E-03    -23.6907E+06    -113.004E+06    -23.3386E+06     50.9378E+03    -26.5523E-03     53.1002E-03    -26.5479E-03     5.50734E-03    -26.4731E-03     52.6035E-03    -26.4664E-03     5.50544E-03
            1679     16.6484E-03     41.7235E-03    -5.07827E+06     168.878E+06     84.2312E+06     134.578E+03    -37.0022E-03     63.8363E-03    -26.8341E-03     260.081E-03    -45.7705E-03     72.9418E-03    -26.6504E-03     265.079E-03
            1680     15.7741E-03     41.4135E-03    -8.62647E+06     127.449E+06     24.4172E+06     390.443E+03    -39.6578E-03     66.2685E-03    -26.6107E-03     261.631E-03    -46.1179E-03     73.0796E-03    -26.6609E-03     262.703E-03
            1681     14.8981E-03     41.2162E-03    -8.99446E+06     61.9050E+06    -13.7320E+06     65.2950E+03    -32.5988E-03     59.1087E-03    -26.5098E-03     158.396E-03    -34.0189E-03     60.7564E-03    -26.6552E-03     158.180E-03
            1682     14.0209E-03     41.1110E-03    -7.72881E+06     6.48211E+06    -16.1050E+06     537.134E+03    -28.8131E-03     55.3826E-03    -26.5695E-03     94.3036E-03    -29.1843E-03     55.7960E-03    -26.6482E-03     94.0931E-03
            1683     13.1451E-03     41.0368E-03    -7.35196E+06    -23.7615E+06    -10.0145E+06     1.11291E+06    -28.3679E-03     54.9999E-03    -26.6320E-03     80.0156E-03    -28.5404E-03     55.0910E-03    -26.6370E-03     79.8506E-03
            1684     12.2689E-03     40.9589E-03    -7.96744E+06    -38.3278E+06    -3.58485E+06     731.274E+03    -28.3281E-03     54.9991E-03    -26.6710E-03     77.5423E-03    -28.4309E-03     54.9479E-03    -26.6218E-03     77.4066E-03
            1685     11.3928E-03     40.8891E-03    -8.64227E+06    -52.5044E+06    -2.38940E+06     527.240E+03    -28.0902E-03     54.7705E-03    -26.6804E-03     69.1531E-03    -28.1338E-03     54.6040E-03    -26.6037E-03     69.0443E-03
            1686     10.5167E-03     40.8269E-03    -9.26407E+06    -67.0942E+06    -3.27772E+06     378.140E+03    -27.8993E-03     54.5752E-03    -26.6758E-03     62.4495E-03    -27.8963E-03     54.3105E-03    -26.5815E-03     62.3632E-03
            1687     9.64055E-03     40.7698E-03    -10.0823E+06    -75.1603E+06    -748.996E+03     313.481E+03    -27.7046E-03     54.3822E-03    -26.6776E-03     57.1668E-03    -27.6806E-03     54.0578E-03    -26.5578E-03     57.0992E-03
            1688     8.76431E-03     40.7177E-03    -11.2008E+06    -79.3108E+06     491.549E+03     245.283E+03    -27.5046E-03     54.1729E-03    -26.6683E-03     51.8359E-03    -27.4704E-03     53.8160E-03    -26.5346E-03     51.7831E-03
            1689     7.88807E-03     40.6706E-03    -12.6170E+06    -84.4837E+06    -170.714E+03     283.951E+03    -27.3259E-03     53.9782E-03    -26.6522E-03     46.5080E-03    -27.2826E-03     53.5906E-03    -26.5123E-03     46.4681E-03
            1690     7.01177E-03     40.6286E-03    -14.3449E+06    -91.0664E+06    -1.69885E+06     322.764E+03    -27.1512E-03     53.7869E-03    -26.6357E-03     41.1955E-03    -27.0993E-03     53.3657E-03    -26.4913E-03     41.1660E-03
            1691     6.13539E-03     40.5916E-03    -16.1799E+06    -96.2016E+06    -4.63565E+06     228.616E+03    -26.9928E-03     53.6054E-03    -26.6126E-03     35.9179E-03    -26.9346E-03     53.1617E-03    -26.4728E-03     35.8950E-03
            1692     5.25900E-03     40.5597E-03    -17.9191E+06    -102.035E+06    -8.09784E+06     190.033E+03    -26.8681E-03     53.4577E-03    -26.5896E-03     30.6455E-03    -26.8026E-03     52.9898E-03    -26.4562E-03     30.6282E-03
            1693     4.38256E-03     40.5328E-03    -19.5773E+06    -106.651E+06    -11.8035E+06     175.445E+03    -26.7597E-03     53.3242E-03    -26.5645E-03     25.4299E-03    -26.6887E-03     52.8393E-03    -26.4405E-03     25.4173E-03
            1694     3.50611E-03     40.5108E-03    -21.0523E+06    -108.799E+06    -15.7472E+06     162.192E+03    -26.6579E-03     53.1944E-03    -26.5365E-03     20.2723E-03    -26.5842E-03     52.7054E-03    -26.4269E-03     20.2635E-03
            1695     2.62959E-03     40.4939E-03    -22.2654E+06    -110.706E+06    -19.1963E+06     132.818E+03    -26.5821E-03     53.0955E-03    -26.5133E-03     15.1870E-03    -26.5060E-03     52.6029E-03    -26.4165E-03     15.1811E-03
            1696     1.75309E-03     40.4816E-03    -23.1260E+06    -112.066E+06    -21.7630E+06     89.7604E+03    -26.5319E-03     53.0268E-03    -26.4949E-03     10.1787E-03    -26.4538E-03     52.5319E-03    -26.4077E-03     10.1750E-03
            1697     876.555E-06     40.4743E-03    -23.6258E+06    -112.891E+06    -23.2889E+06     32.5190E+03    -26.5061E-03     52.9767E-03    -26.4706E-03     5.44839E-03    -26.4268E-03     52.4804E-03    -26.3891E-03     5.44630E-03
            1698     16.6520E-03     40.7234E-03    -5.33532E+06     168.287E+06     83.8484E+06     76.5539E+03    -37.1632E-03     63.9790E-03    -26.8157E-03     260.088E-03    -45.9270E-03     73.0780E-03    -26.6328E-03     265.067E-03
            1699     15.7739E-03     40.4131E-03    -8.18513E+06     127.273E+06     24.4367E+06     333.153E+03    -39.3700E-03     65.9681E-03    -26.5981E-03     262.108E-03    -45.8348E-03     72.7848E-03    -26.6486E-03     263.204E-03
            1700     14.8970E-03     40.2159E-03    -9.28103E+06     62.6649E+06    -13.7366E+06     265.758E+03    -32.6474E-03     59.1523E-03    -26.5049E-03     158.457E-03    -34.0692E-03     60.8035E-03    -26.6510E-03     158.243E-03
            1701     14.0217E-03     40.1107E-03    -9.81608E+06     5.53455E+06    -17.2422E+06     89.9882E+03    -28.9513E-03     55.5087E-03    -26.5574E-03     94.0357E-03    -29.3297E-03     55.9219E-03    -26.6374E-03     93.8176E-03
            1702     13.1453E-03     40.0365E-03    -9.05865E+06    -24.1104E+06    -10.7704E+06     578.963E+03    -28.4000E-03     55.0127E-03    -26.6128E-03     79.6672E-03    -28.5789E-03     55.1051E-03    -26.6185E-03     79.4950E-03
            1703     12.2693E-03     39.9586E-03    -8.39033E+06    -37.7901E+06    -3.70570E+06     840.297E+03    -28.3880E-03     55.0340E-03    -26.6460E-03     77.2967E-03    -28.4933E-03     54.9861E-03    -26.5975E-03     77.1621E-03
            1704     11.3932E-03     39.8888E-03    -8.80112E+06    -52.3220E+06    -2.51066E+06     570.466E+03    -28.1215E-03     54.7708E-03    -26.6493E-03     68.9565E-03    -28.1658E-03     54.6054E-03    -26.5733E-03     68.8482E-03
            1705     10.5171E-03     39.8268E-03    -9.36650E+06    -66.9267E+06    -3.39573E+06     523.079E+03    -27.9101E-03     54.5500E-03    -26.6399E-03     62.2766E-03    -27.9075E-03     54.2864E-03    -26.5463E-03     62.1924E-03
            1706     9.64089E-03     39.7697E-03    -10.1708E+06    -75.0881E+06    -826.313E+03     472.771E+03    -27.7145E-03     54.3518E-03    -26.6373E-03     56.9886E-03    -27.6908E-03     54.0279E-03    -26.5178E-03     56.9232E-03
            1707     8.76472E-03     39.7177E-03    -11.3819E+06    -79.1608E+06     309.705E+03     433.415E+03    -27.5083E-03     54.1305E-03    -26.6223E-03     51.6545E-03    -27.4749E-03     53.7748E-03    -26.4895E-03     51.6042E-03
            1708     7.88846E-03     39.6707E-03    -12.8530E+06    -84.5945E+06    -404.994E+03     457.770E+03    -27.3120E-03     53.9134E-03    -26.6014E-03     46.3249E-03    -27.2692E-03     53.5258E-03    -26.4621E-03     46.2874E-03
            1709     7.01213E-03     39.6289E-03    -14.4189E+06    -90.9104E+06    -1.70860E+06     499.830E+03    -27.1306E-03     53.7112E-03    -26.5806E-03     41.0118E-03    -27.0792E-03     53.2908E-03    -26.4364E-03     40.9847E-03
            1710     6.13578E-03     39.5920E-03    -16.1285E+06    -95.9975E+06    -4.56726E+06     400.649E+03    -26.9637E-03     53.5165E-03    -26.5528E-03     35.7478E-03    -26.9056E-03     53.0736E-03    -26.4130E-03     35.7272E-03
            1711     5.25933E-03     39.5601E-03    -17.8949E+06    -101.942E+06    -8.03822E+06     273.991E+03    -26.8257E-03     53.3512E-03    -26.5255E-03     30.4965E-03    -26.7603E-03     52.8837E-03    -26.3919E-03     30.4804E-03
            1712     4.38288E-03     39.5333E-03    -19.5473E+06    -106.577E+06    -11.7680E+06     224.642E+03    -26.7058E-03     53.2024E-03    -26.4966E-03     25.2868E-03    -26.6347E-03     52.7177E-03    -26.3726E-03     25.2749E-03
            1713     3.50635E-03     39.5115E-03    -21.0202E+06    -108.714E+06    -15.7063E+06     196.281E+03    -26.6001E-03     53.0654E-03    -26.4652E-03     20.1575E-03    -26.5265E-03     52.5767E-03    -26.3556E-03     20.1493E-03
            1714     2.62982E-03     39.4945E-03    -22.2168E+06    -110.589E+06    -19.1409E+06     153.020E+03    -26.5179E-03     52.9562E-03    -26.4383E-03     15.0997E-03    -26.4418E-03     52.4641E-03    -26.3414E-03     15.0941E-03
            1715     1.75322E-03     39.4823E-03    -23.0920E+06    -111.958E+06    -21.7107E+06     87.2264E+03    -26.4529E-03     52.8713E-03    -26.4184E-03     10.1150E-03    -26.3749E-03     52.3769E-03    -26.3312E-03     10.1113E-03
            1716     876.609E-06     39.4750E-03    -23.5893E+06    -112.806E+06    -23.2803E+06     39.6738E+03    -26.4279E-03     52.8245E-03    -26.3965E-03     5.43278E-03    -26.3487E-03     52.3286E-03    -26.3152E-03     5.43079E-03
            1717     16.6503E-03     39.7236E-03    -5.25740E+06     167.811E+06     83.5924E+06     160.570E+03    -37.2958E-03     64.1150E-03    -26.8191E-03     260.826E-03    -46.0817E-03     73.2355E-03    -26.6369E-03     265.803E-03
            1718     15.7736E-03     39.4133E-03    -8.92383E+06     126.738E+06     25.4017E+06     435.330E+03    -39.6742E-03     66.2746E-03    -26.6004E-03     262.270E-03    -46.1536E-03     73.0985E-03    -26.6442E-03     263.343E-03
            1719     14.8980E-03     39.2148E-03    -9.81902E+06     63.3574E+06    -12.1549E+06     436.670E+03    -32.7448E-03     59.2408E-03    -26.4959E-03     157.887E-03    -34.1673E-03     60.8885E-03    -26.6343E-03     157.671E-03
            1720     14.0217E-03     39.1104E-03    -9.05107E+06     5.73853E+06    -16.5983E+06     53.2268E+03    -28.9789E-03     55.5146E-03    -26.5358E-03     93.7421E-03    -29.3542E-03     55.9263E-03    -26.6139E-03     93.5231E-03
            1721     13.1459E-03     39.0362E-03    -8.77097E+06    -24.7252E+06    -11.0347E+06     41.4827E+03    -28.4492E-03     55.0332E-03    -26.5839E-03     79.6423E-03    -28.6254E-03     55.1225E-03    -26.5905E-03     79.4629E-03
            1722     12.2697E-03     38.9584E-03    -8.94254E+06    -37.7295E+06    -4.24551E+06     474.582E+03    -28.4054E-03     55.0169E-03    -26.6116E-03     77.2623E-03    -28.5126E-03     54.9707E-03    -26.5651E-03     77.1231E-03
            1723     11.3936E-03     38.8887E-03    -9.10584E+06    -52.1859E+06    -2.80985E+06     626.570E+03    -28.1395E-03     54.7509E-03    -26.6115E-03     68.8547E-03    -28.1848E-03     54.5868E-03    -26.5367E-03     68.7472E-03
            1724     10.5175E-03     38.8267E-03    -9.68751E+06    -66.8813E+06    -3.74018E+06     634.257E+03    -27.9323E-03     54.5291E-03    -26.5968E-03     62.1165E-03    -27.9306E-03     54.2664E-03    -26.5045E-03     62.0338E-03
            1725     9.64138E-03     38.7697E-03    -10.4998E+06    -74.9373E+06    -1.13525E+06     631.262E+03    -27.7319E-03     54.3200E-03    -26.5880E-03     56.7926E-03    -27.7095E-03     53.9975E-03    -26.4698E-03     56.7294E-03
            1726     8.76519E-03     38.7178E-03    -11.6422E+06    -79.1015E+06     62.8992E+03     620.595E+03    -27.5063E-03     54.0734E-03    -26.5671E-03     51.4389E-03    -27.4738E-03     53.7186E-03    -26.4352E-03     51.3912E-03
            1727     7.88893E-03     38.6710E-03    -13.0303E+06    -84.5070E+06    -543.329E+03     594.412E+03    -27.2936E-03     53.8346E-03    -26.5410E-03     46.1143E-03    -27.2515E-03     53.4478E-03    -26.4023E-03     46.0788E-03
            1728     7.01261E-03     38.6291E-03    -14.5832E+06    -90.7854E+06    -1.75511E+06     507.960E+03    -27.1044E-03     53.6196E-03    -26.5152E-03     40.8107E-03    -27.0539E-03     53.2001E-03    -26.3712E-03     40.7838E-03
            1729     6.13619E-03     38.5924E-03    -16.1840E+06    -95.7531E+06    -4.44642E+06     429.328E+03    -26.9301E-03     53.4123E-03    -26.4821E-03     35.5550E-03    -26.8728E-03     52.9704E-03    -26.3421E-03     35.5349E-03
            1730     5.25975E-03     38.5607E-03    -17.8208E+06    -101.821E+06    -7.92452E+06     350.749E+03    -26.7746E-03     53.2240E-03    -26.4495E-03     30.3266E-03    -26.7090E-03     52.7568E-03    -26.3156E-03     30.3117E-03
            1731     4.38322E-03     38.5340E-03    -19.4813E+06    -106.459E+06    -11.7008E+06     292.317E+03    -26.6396E-03     53.0561E-03    -26.4165E-03     25.1378E-03    -26.5685E-03     52.5718E-03    -26.2924E-03     25.1269E-03
            1732     3.50665E-03     38.5122E-03    -20.9715E+06    -108.604E+06    -15.6575E+06     222.590E+03    -26.5283E-03     52.9101E-03    -26.3818E-03     20.0404E-03    -26.4545E-03     52.4218E-03    -26.2722E-03     20.0326E-03
            1733     2.63003E-03     38.4953E-03    -22.1572E+06    -110.463E+06    -19.0850E+06     167.720E+03    -26.4393E-03     52.7911E-03    -26.3519E-03     15.0035E-03    -26.3631E-03     52.2995E-03    -26.2550E-03     14.9982E-03
            1734     1.75339E-03     38.4832E-03    -23.0241E+06    -111.814E+06    -21.6459E+06     105.697E+03    -26.3677E-03     52.6973E-03    -26.3296E-03     10.0465E-03    -26.2897E-03     52.2034E-03    -26.2423E-03     10.0431E-03
            1735     876.692E-06     38.4759E-03    -23.6015E+06    -112.701E+06    -23.2314E+06     45.9620E+03    -26.3186E-03     52.6445E-03    -26.3259E-03     5.39360E-03    -26.2396E-03     52.1491E-03    -26.2445E-03     5.39172E-03
            1736     16.6494E-03     38.7224E-03    -5.39906E+06     167.451E+06     83.3534E+06     315.054E+03    -37.4874E-03     64.3046E-03    -26.8172E-03     259.962E-03    -46.2443E-03     73.3951E-03    -26.6354E-03     264.901E-03
            1737     15.7747E-03     38.4119E-03    -8.79394E+06     126.435E+06     25.2237E+06     631.588E+03    -39.9510E-03     66.5307E-03    -26.5796E-03     261.492E-03    -46.4117E-03     73.3358E-03    -26.6241E-03     262.540E-03
            1738     14.8984E-03     38.2150E-03    -9.21458E+06     64.2016E+06    -11.8567E+06     264.535E+03    -32.6616E-03     59.1270E-03    -26.4654E-03     157.787E-03    -34.0818E-03     60.7768E-03    -26.6044E-03     157.571E-03
            1739     14.0222E-03     38.1098E-03    -9.06562E+06     5.81221E+06    -17.2820E+06    -43.0216E+03    -28.8704E-03     55.3767E-03    -26.5063E-03     93.8549E-03    -29.2440E-03     55.7889E-03    -26.5880E-03     93.6362E-03
            1740     13.1460E-03     38.0360E-03    -9.14409E+06    -25.0923E+06    -12.2931E+06     330.558E+03    -28.4985E-03     55.0517E-03    -26.5532E-03     79.6576E-03    -28.6741E-03     55.1414E-03    -26.5650E-03     79.4817E-03
            1741     12.2700E-03     37.9581E-03    -9.36850E+06    -37.7865E+06    -4.85053E+06     349.221E+03    -28.4884E-03     55.0654E-03    -26.5770E-03     77.1988E-03    -28.5967E-03     55.0204E-03    -26.5329E-03     77.0576E-03
            1742     11.3940E-03     37.8885E-03    -9.85776E+06    -52.3263E+06    -3.29653E+06     503.555E+03    -28.1970E-03     54.7668E-03    -26.5698E-03     68.6873E-03    -28.2450E-03     54.6035E-03    -26.4961E-03     68.5782E-03
            1743     10.5180E-03     37.8266E-03    -10.2901E+06    -66.7886E+06    -4.02245E+06     668.877E+03    -27.9717E-03     54.5190E-03    -26.5474E-03     61.9085E-03    -27.9725E-03     54.2579E-03    -26.4557E-03     61.8263E-03
            1744     9.64192E-03     37.7697E-03    -10.9602E+06    -74.8597E+06    -1.30415E+06     657.316E+03    -27.7452E-03     54.2766E-03    -26.5314E-03     56.5731E-03    -27.7247E-03     53.9552E-03    -26.4135E-03     56.5105E-03
            1745     8.76574E-03     37.7179E-03    -11.9135E+06    -78.9678E+06     48.9890E+03     601.607E+03    -27.5037E-03     54.0076E-03    -26.5039E-03     51.2084E-03    -27.4726E-03     53.6537E-03    -26.3719E-03     51.1607E-03
            1746     7.88949E-03     37.6712E-03    -13.0759E+06    -84.4384E+06    -506.229E+03     574.215E+03    -27.2789E-03     53.7499E-03    -26.4710E-03     45.8838E-03    -27.2371E-03     53.3633E-03    -26.3321E-03     45.8482E-03
            1747     7.01313E-03     37.6296E-03    -14.4844E+06    -90.5189E+06    -1.66413E+06     503.319E+03    -27.0748E-03     53.5131E-03    -26.4383E-03     40.5895E-03    -27.0242E-03     53.0946E-03    -26.2944E-03     40.5628E-03
            1748     6.13673E-03     37.5930E-03    -16.1161E+06    -95.6441E+06    -4.37271E+06     380.661E+03    -26.8861E-03     53.2852E-03    -26.3991E-03     35.3332E-03    -26.8287E-03     52.8437E-03    -26.2589E-03     35.3127E-03
            1749     5.26021E-03     37.5614E-03    -17.8107E+06    -101.696E+06    -7.83716E+06     390.321E+03    -26.7119E-03     53.0729E-03    -26.3610E-03     30.1216E-03    -26.6466E-03     52.6061E-03    -26.2269E-03     30.1073E-03
            1750     4.38363E-03     37.5347E-03    -19.4265E+06    -106.302E+06    -11.6206E+06     337.994E+03    -26.5649E-03     52.8882E-03    -26.3233E-03     24.9692E-03    -26.4938E-03     52.4044E-03    -26.1991E-03     24.9590E-03
            1751     3.50698E-03     37.5131E-03    -20.8990E+06    -108.439E+06    -15.5809E+06     261.570E+03    -26.4417E-03     52.7267E-03    -26.2850E-03     19.8931E-03    -26.3680E-03     52.2390E-03    -26.1754E-03     19.8859E-03
            1752     2.63029E-03     37.4962E-03    -22.1118E+06    -110.336E+06    -19.0377E+06     188.743E+03    -26.3413E-03     52.5945E-03    -26.2533E-03     14.8894E-03    -26.2651E-03     52.1033E-03    -26.1564E-03     14.8844E-03
            1753     1.75355E-03     37.4842E-03    -22.9820E+06    -111.690E+06    -21.6270E+06     119.985E+03    -26.2690E-03     52.4994E-03    -26.2304E-03     9.97226E-03    -26.1910E-03     52.0061E-03    -26.1433E-03     9.96908E-03
            1754     876.790E-06     37.4769E-03    -23.4892E+06    -112.541E+06    -23.1928E+06     69.4091E+03    -26.2259E-03     52.4460E-03    -26.2201E-03     5.37683E-03    -26.1466E-03     51.9512E-03    -26.1388E-03     5.37526E-03
            1755     16.6523E-03     37.7225E-03    -5.18332E+06     167.510E+06     83.7532E+06     326.925E+03    -37.7586E-03     64.5470E-03    -26.7884E-03     259.802E-03    -46.5012E-03     73.6229E-03    -26.6050E-03     264.712E-03
            1756     15.7746E-03     37.4113E-03    -7.98574E+06     126.211E+06     24.6690E+06     497.216E+03    -39.6198E-03     66.1685E-03    -26.5487E-03     261.970E-03    -46.0815E-03     72.9784E-03    -26.5968E-03     263.045E-03
            1757     14.8987E-03     37.2145E-03    -9.49368E+06     64.4256E+06    -10.0027E+06     1.07859E+06    -32.6660E-03     59.1232E-03    -26.4572E-03     157.791E-03    -34.0893E-03     60.7705E-03    -26.5868E-03     157.585E-03
            1758     14.0224E-03     37.1099E-03    -10.4944E+06     6.46551E+06    -14.7002E+06     713.515E+03    -28.9566E-03     55.4550E-03    -26.4984E-03     93.9237E-03    -29.3423E-03     55.8690E-03    -26.5661E-03     93.7135E-03
            1759     13.1464E-03     37.0354E-03    -10.5078E+06    -25.3289E+06    -12.5674E+06    -75.1004E+03    -28.5633E-03     55.0884E-03    -26.5251E-03     79.5807E-03    -28.7447E-03     55.1790E-03    -26.5359E-03     79.3993E-03
            1760     12.2705E-03     36.9578E-03    -9.99282E+06    -37.8969E+06    -4.80955E+06     171.703E+03    -28.5805E-03     55.1212E-03    -26.5407E-03     76.9425E-03    -28.6917E-03     55.0763E-03    -26.4953E-03     76.7986E-03
            1761     11.3946E-03     36.8882E-03    -10.2358E+06    -52.5497E+06    -3.31343E+06     407.945E+03    -28.2671E-03     54.7901E-03    -26.5230E-03     68.4648E-03    -28.3164E-03     54.6261E-03    -26.4485E-03     68.3544E-03
            1762     10.5186E-03     36.8265E-03    -10.7146E+06    -66.7568E+06    -3.99892E+06     510.399E+03    -28.0054E-03     54.4968E-03    -26.4914E-03     61.6725E-03    -28.0081E-03     54.2361E-03    -26.3991E-03     61.5884E-03
            1763     9.64255E-03     36.7698E-03    -11.1923E+06    -74.7122E+06    -1.44402E+06     460.134E+03    -27.7599E-03     54.2259E-03    -26.4660E-03     56.3281E-03    -27.7403E-03     53.9055E-03    -26.3487E-03     56.2631E-03
            1764     8.76639E-03     36.7182E-03    -12.0384E+06    -78.9438E+06    -44.5070E+03     455.952E+03    -27.5053E-03     53.9360E-03    -26.4307E-03     50.9466E-03    -27.4745E-03     53.5823E-03    -26.2990E-03     50.8973E-03
            1765     7.89011E-03     36.6716E-03    -13.2427E+06    -84.2901E+06    -739.588E+03     447.859E+03    -27.2671E-03     53.6557E-03    -26.3886E-03     45.6198E-03    -27.2258E-03     53.2703E-03    -26.2509E-03     45.5828E-03
            1766     7.01378E-03     36.6301E-03    -14.6010E+06    -90.3526E+06    -1.84889E+06     358.495E+03    -27.0422E-03     53.3901E-03    -26.3479E-03     40.3332E-03    -26.9921E-03     52.9727E-03    -26.2050E-03     40.3048E-03
            1767     6.13730E-03     36.5937E-03    -16.1162E+06    -95.5887E+06    -4.40235E+06     389.665E+03    -26.8293E-03     53.1317E-03    -26.3024E-03     35.0801E-03    -26.7718E-03     52.6904E-03    -26.1624E-03     35.0599E-03
            1768     5.26075E-03     36.5622E-03    -17.7601E+06    -101.601E+06    -7.77970E+06     383.645E+03    -26.6421E-03     52.9004E-03    -26.2584E-03     29.8879E-03    -26.5767E-03     52.4339E-03    -26.1242E-03     29.8737E-03
            1769     4.38410E-03     36.5357E-03    -19.3902E+06    -106.139E+06    -11.5554E+06     360.156E+03    -26.4792E-03     52.6942E-03    -26.2150E-03     24.7736E-03    -26.4082E-03     52.2111E-03    -26.0908E-03     24.7639E-03
            1770     3.50739E-03     36.5141E-03    -20.8511E+06    -108.277E+06    -15.5240E+06     292.612E+03    -26.3387E-03     52.5114E-03    -26.1728E-03     19.7268E-03    -26.2650E-03     52.0244E-03    -26.0632E-03     19.7201E-03
            1771     2.63059E-03     36.4974E-03    -22.0407E+06    -110.160E+06    -18.9647E+06     207.384E+03    -26.2298E-03     52.3689E-03    -26.1391E-03     14.7631E-03    -26.1536E-03     51.8784E-03    -26.0422E-03     14.7585E-03
            1772     1.75375E-03     36.4855E-03    -22.9121E+06    -111.541E+06    -21.5515E+06     134.548E+03    -26.1564E-03     52.2711E-03    -26.1147E-03     9.87806E-03    -26.0783E-03     51.7783E-03    -26.0275E-03     9.87514E-03
            1773     876.862E-06     36.4782E-03    -23.4280E+06    -112.389E+06    -23.0982E+06     91.8493E+03    -26.1053E-03     52.2126E-03    -26.1073E-03     5.33196E-03    -26.0261E-03     51.7183E-03    -26.0259E-03     5.33071E-03
            1774     16.6510E-03     36.7226E-03    -4.96116E+06     167.190E+06     83.9535E+06     146.794E+03    -37.8394E-03     64.6330E-03    -26.7936E-03     260.115E-03    -46.5920E-03     73.7181E-03    -26.6091E-03     265.016E-03
            1775     15.7750E-03     36.4110E-03    -8.11847E+06     125.567E+06     24.3886E+06     747.581E+03    -39.8702E-03     66.4167E-03    -26.5465E-03     262.378E-03    -46.3425E-03     73.2353E-03    -26.5949E-03     263.434E-03
            1776     14.8985E-03     36.2139E-03    -9.00615E+06     63.9382E+06    -10.2002E+06     1.43147E+06    -32.7800E-03     59.2255E-03    -26.4455E-03     157.735E-03    -34.1973E-03     60.8674E-03    -26.5762E-03     157.532E-03
            1777     14.0228E-03     36.1094E-03    -8.50016E+06     7.91121E+06    -13.5335E+06     1.33547E+06    -29.1957E-03     55.6727E-03    -26.4769E-03     93.7851E-03    -29.5759E-03     56.0900E-03    -26.5437E-03     93.5805E-03
            1778     13.1470E-03     36.0351E-03    -8.58786E+06    -24.6043E+06    -11.6848E+06     424.847E+03    -28.7198E-03     55.2086E-03    -26.4888E-03     79.4821E-03    -28.8936E-03     55.2985E-03    -26.4991E-03     79.3063E-03
            1779     12.2711E-03     35.9573E-03    -9.47433E+06    -38.4298E+06    -4.78193E+06     109.249E+03    -28.6438E-03     55.1373E-03    -26.4935E-03     76.7217E-03    -28.7511E-03     55.0884E-03    -26.4480E-03     76.5770E-03
            1780     11.3952E-03     35.8880E-03    -9.94476E+06    -52.6183E+06    -3.26784E+06     399.175E+03    -28.3215E-03     54.7884E-03    -26.4669E-03     68.1871E-03    -28.3689E-03     54.6231E-03    -26.3925E-03     68.0766E-03
            1781     10.5193E-03     35.8264E-03    -10.3483E+06    -66.6731E+06    -3.90713E+06     342.144E+03    -28.0441E-03     54.4702E-03    -26.4261E-03     61.3864E-03    -28.0449E-03     54.2089E-03    -26.3339E-03     61.3004E-03
            1782     9.64326E-03     35.7699E-03    -10.9844E+06    -74.6054E+06    -1.46863E+06     294.316E+03    -27.7852E-03     54.1759E-03    -26.3907E-03     56.0312E-03    -27.7644E-03     53.8556E-03    -26.2740E-03     55.9643E-03
            1783     8.76711E-03     35.7184E-03    -11.9436E+06    -79.0332E+06    -72.3551E+03     348.434E+03    -27.5129E-03     53.8588E-03    -26.3460E-03     50.6284E-03    -27.4812E-03     53.5044E-03    -26.2144E-03     50.5779E-03
            1784     7.89087E-03     35.6721E-03    -13.1055E+06    -84.0685E+06    -677.773E+03     333.513E+03    -27.2508E-03     53.5449E-03    -26.2941E-03     45.3033E-03    -27.2091E-03     53.1602E-03    -26.1566E-03     45.2651E-03
            1785     7.01448E-03     35.6308E-03    -14.5469E+06    -90.3126E+06    -1.90884E+06     282.892E+03    -26.9991E-03     53.2434E-03    -26.2443E-03     40.0252E-03    -26.9485E-03     52.8261E-03    -26.1018E-03     39.9961E-03
            1786     6.13800E-03     35.5945E-03    -16.1537E+06    -95.5982E+06    -4.49177E+06     319.940E+03    -26.7639E-03     52.9549E-03    -26.1910E-03     34.7950E-03    -26.7063E-03     52.5136E-03    -26.0514E-03     34.7742E-03
            1787     5.26137E-03     35.5632E-03    -17.7683E+06    -101.510E+06    -7.86375E+06     378.933E+03    -26.5609E-03     52.7007E-03    -26.1398E-03     29.6299E-03    -26.4955E-03     52.2346E-03    -26.0062E-03     29.6158E-03
            1788     4.38466E-03     35.5369E-03    -19.3625E+06    -106.003E+06    -11.5267E+06     352.928E+03    -26.3791E-03     52.4699E-03    -26.0908E-03     24.5478E-03    -26.3082E-03     51.9874E-03    -25.9666E-03     24.5381E-03
            1789     3.50782E-03     35.5155E-03    -20.7890E+06    -108.095E+06    -15.4775E+06     294.381E+03    -26.2232E-03     52.2670E-03    -26.0439E-03     19.5404E-03    -26.1495E-03     51.7807E-03    -25.9344E-03     19.5339E-03
            1790     2.63094E-03     35.4988E-03    -21.9601E+06    -109.988E+06    -18.9222E+06     224.443E+03    -26.1056E-03     52.1123E-03    -26.0067E-03     14.6195E-03    -26.0293E-03     51.6224E-03    -25.9100E-03     14.6152E-03
            1791     1.75399E-03     35.4870E-03    -22.8431E+06    -111.365E+06    -21.4492E+06     163.004E+03    -26.0306E-03     52.0089E-03    -25.9784E-03     9.79481E-03    -25.9525E-03     51.5167E-03    -25.8910E-03     9.79231E-03
            1792     877.042E-06     35.4797E-03    -23.3960E+06    -112.237E+06    -23.0433E+06     95.1973E+03    -25.9751E-03     51.9336E-03    -25.9585E-03     5.23610E-03    -25.8960E-03     51.4399E-03    -25.8770E-03     5.23497E-03
            1793     16.6498E-03     35.7194E-03    -5.22956E+06     166.794E+06     83.3748E+06     121.274E+03    -37.6769E-03     64.4822E-03    -26.8054E-03     259.470E-03    -46.4046E-03     73.5417E-03    -26.6228E-03     264.369E-03
            1794     15.7748E-03     35.4106E-03    -8.61821E+06     124.512E+06     22.4581E+06     604.695E+03    -40.1012E-03     66.6468E-03    -26.5456E-03     261.688E-03    -46.5475E-03     73.4394E-03    -26.6013E-03     262.728E-03
            1795     14.8990E-03     35.2134E-03    -9.06792E+06     63.6901E+06    -11.4159E+06     996.806E+03    -33.1311E-03     59.5580E-03    -26.4269E-03     157.772E-03    -34.5520E-03     61.2060E-03    -26.5632E-03     157.555E-03
            1796     14.0230E-03     35.1087E-03    -8.79375E+06     8.61318E+06    -13.8729E+06     1.10414E+06    -29.4206E-03     55.8633E-03    -26.4426E-03     93.3731E-03    -29.8023E-03     56.2845E-03    -26.5117E-03     93.1631E-03
            1797     13.1474E-03     35.0345E-03    -8.49512E+06    -23.8237E+06    -11.4646E+06     1.03879E+06    -28.8337E-03     55.2758E-03    -26.4421E-03     79.1187E-03    -29.0078E-03     55.3685E-03    -26.4526E-03     78.9502E-03
            1798     12.2718E-03     34.9570E-03    -8.72998E+06    -38.3342E+06    -4.33187E+06     626.741E+03    -28.7123E-03     55.1497E-03    -26.4374E-03     76.4179E-03    -28.8161E-03     55.0990E-03    -26.3909E-03     76.2798E-03
            1799     11.3960E-03     34.8877E-03    -9.40828E+06    -52.6210E+06    -3.08393E+06     356.532E+03    -28.3659E-03     54.7664E-03    -26.4005E-03     67.8579E-03    -28.4103E-03     54.5995E-03    -26.3260E-03     67.7472E-03
            1800     10.5201E-03     34.8264E-03    -9.90399E+06    -66.5046E+06    -3.62179E+06     327.076E+03    -28.0886E-03     54.4386E-03    -26.3500E-03     61.0347E-03    -28.0875E-03     54.1768E-03    -26.2574E-03     60.9487E-03
            1801     9.64409E-03     34.7700E-03    -10.6339E+06    -74.6219E+06    -1.22226E+06     310.940E+03    -27.8129E-03     54.1167E-03    -26.3038E-03     55.6597E-03    -27.7904E-03     53.7951E-03    -26.1863E-03     55.5933E-03
            1802     8.76800E-03     34.7188E-03    -11.6408E+06    -78.9833E+06     39.6605E+03     289.489E+03    -27.5129E-03     53.7602E-03    -26.2473E-03     50.2566E-03    -27.4797E-03     53.4052E-03    -26.1157E-03     50.2057E-03
            1803     7.89172E-03     34.6727E-03    -12.9178E+06    -84.0270E+06    -679.750E+03     302.312E+03    -27.2215E-03     53.4064E-03    -26.1848E-03     44.9440E-03    -27.1787E-03     53.0214E-03    -26.0477E-03     44.9057E-03
            1804     7.01534E-03     34.6316E-03    -14.4087E+06    -90.2312E+06    -1.94091E+06     330.644E+03    -26.9444E-03     53.0701E-03    -26.1257E-03     39.6767E-03    -26.8931E-03     52.6529E-03    -25.9836E-03     39.6485E-03
            1805     6.13875E-03     34.5956E-03    -16.0797E+06    -95.6192E+06    -4.58035E+06     338.102E+03    -26.6901E-03     52.7539E-03    -26.0638E-03     34.4748E-03    -26.6318E-03     52.3124E-03    -25.9248E-03     34.4544E-03
            1806     5.26209E-03     34.5645E-03    -17.7516E+06    -101.421E+06    -7.91670E+06     345.983E+03    -26.4643E-03     52.4693E-03    -26.0050E-03     29.3385E-03    -26.3987E-03     52.0037E-03    -25.8718E-03     29.3242E-03
            1807     4.38526E-03     34.5384E-03    -19.3028E+06    -105.878E+06    -11.5828E+06     328.995E+03    -26.2656E-03     52.2149E-03    -25.9493E-03     24.2934E-03    -26.1944E-03     51.7329E-03    -25.8257E-03     24.2837E-03
            1808     3.50836E-03     34.5170E-03    -20.7367E+06    -107.941E+06    -15.4739E+06     299.201E+03    -26.0967E-03     51.9935E-03    -25.8968E-03     19.3326E-03    -26.0229E-03     51.5078E-03    -25.7876E-03     19.3263E-03
            1809     2.63134E-03     34.5006E-03    -21.9322E+06    -109.819E+06    -18.8836E+06     258.754E+03    -25.9648E-03     51.8198E-03    -25.8549E-03     14.4600E-03    -25.8887E-03     51.3307E-03    -25.7583E-03     14.4563E-03
            1810     1.75426E-03     34.4887E-03    -22.7915E+06    -111.183E+06    -21.4423E+06     184.385E+03    -25.8726E-03     51.6982E-03    -25.8256E-03     9.70340E-03    -25.7946E-03     51.2068E-03    -25.7385E-03     9.70124E-03
            1811     877.126E-06     34.4816E-03    -23.3278E+06    -112.029E+06    -22.9954E+06     100.948E+03    -25.8411E-03     51.6307E-03    -25.7896E-03     5.18521E-03    -25.7620E-03     51.1379E-03    -25.7083E-03     5.18418E-03
            1812     16.6519E-03     34.7195E-03    -5.04776E+06     166.668E+06     84.0063E+06     346.777E+03    -37.8112E-03     64.6086E-03    -26.7974E-03     259.399E-03    -46.5269E-03     73.6544E-03    -26.6117E-03     264.279E-03
            1813     15.7744E-03     34.4098E-03    -8.66959E+06     124.462E+06     23.4797E+06     314.505E+03    -40.1359E-03     66.6684E-03    -26.5325E-03     261.148E-03    -46.5658E-03     73.4413E-03    -26.5830E-03     262.182E-03
            1814     14.8990E-03     34.2118E-03    -9.62088E+06     62.7763E+06    -11.5386E+06     625.721E+03    -33.3433E-03     59.7418E-03    -26.3985E-03     157.221E-03    -34.7623E-03     61.3830E-03    -26.5333E-03     156.993E-03
            1815     14.0241E-03     34.1080E-03    -8.90690E+06     8.62235E+06    -13.5491E+06     1.11021E+06    -29.5407E-03     55.9411E-03    -26.4004E-03     92.9827E-03    -29.9218E-03     56.3604E-03    -26.4677E-03     92.7717E-03
            1816     13.1484E-03     34.0339E-03    -8.43739E+06    -23.3027E+06    -10.6585E+06     943.389E+03    -28.9328E-03     55.3228E-03    -26.3900E-03     78.8540E-03    -29.1080E-03     55.4162E-03    -26.3973E-03     78.6838E-03
            1817     12.2726E-03     33.9566E-03    -8.25836E+06    -38.0112E+06    -3.89822E+06     799.421E+03    -28.7901E-03     55.1622E-03    -26.3721E-03     76.1445E-03    -28.8920E-03     55.1112E-03    -26.3245E-03     76.0086E-03
            1818     11.3969E-03     33.8875E-03    -8.69942E+06    -52.2504E+06    -2.70385E+06     613.098E+03    -28.4404E-03     54.7633E-03    -26.3229E-03     67.5243E-03    -28.4818E-03     54.5962E-03    -26.2480E-03     67.4170E-03
            1819     10.5210E-03     33.8264E-03    -9.41908E+06    -66.4975E+06    -3.48494E+06     448.359E+03    -28.1392E-03     54.3987E-03    -26.2595E-03     60.6389E-03    -28.1355E-03     54.1356E-03    -26.1669E-03     60.5547E-03
            1820     9.64512E-03     33.7702E-03    -10.1636E+06    -74.4595E+06    -1.08559E+06     411.165E+03    -27.8284E-03     54.0294E-03    -26.2010E-03     55.2383E-03    -27.8036E-03     53.7073E-03    -26.0837E-03     55.1736E-03
            1821     8.76897E-03     33.7193E-03    -11.3121E+06    -79.0156E+06     26.8574E+03     412.879E+03    -27.4967E-03     53.6298E-03    -26.1331E-03     49.8457E-03    -27.4615E-03     53.2739E-03    -26.0020E-03     49.7967E-03
            1822     7.89272E-03     33.6734E-03    -12.7503E+06    -83.9397E+06    -725.324E+03     459.333E+03    -27.1801E-03     53.2402E-03    -26.0601E-03     44.5356E-03    -27.1363E-03     52.8552E-03    -25.9235E-03     44.4997E-03
            1823     7.01625E-03     33.6326E-03    -14.3622E+06    -90.1610E+06     -1.9657E+06     407.716E+03    -26.8816E-03     52.8728E-03    -25.9912E-03     39.2874E-03    -26.8299E-03     52.4557E-03    -25.8494E-03     39.2606E-03
            1824     6.13967E-03     33.5968E-03    -15.9675E+06    -95.5228E+06    -4.56286E+06     365.758E+03    -26.6033E-03     52.5233E-03    -25.9199E-03     34.1092E-03    -26.5446E-03     52.0820E-03    -25.7811E-03     34.0895E-03
            1825     5.26287E-03     33.5660E-03    -17.5885E+06    -101.374E+06    -7.94583E+06     362.394E+03    -26.3542E-03     52.2068E-03    -25.8525E-03     29.0078E-03    -26.2878E-03     51.7411E-03    -25.7198E-03     28.9941E-03
            1826     4.38598E-03     33.5400E-03    -19.2390E+06    -105.749E+06    -11.6329E+06     374.007E+03    -26.1359E-03     51.9255E-03    -25.7896E-03     24.0079E-03    -26.0644E-03     51.4440E-03    -25.6665E-03     23.9990E-03
            1827     3.50892E-03     33.5189E-03    -20.7170E+06    -107.810E+06    -15.4876E+06     333.504E+03    -25.9512E-03     51.6824E-03    -25.7312E-03     19.1034E-03    -25.8775E-03     51.1973E-03    -25.6223E-03     19.0977E-03
            1828     2.63180E-03     33.5025E-03    -21.8949E+06    -109.641E+06    -18.8568E+06     275.189E+03    -25.8073E-03     51.4916E-03    -25.6843E-03     14.2870E-03    -25.7313E-03     51.0033E-03    -25.5878E-03     14.2836E-03
            1829     1.75457E-03     33.4909E-03    -22.7437E+06    -110.970E+06    -21.3922E+06     196.373E+03    -25.6980E-03     51.3509E-03    -25.6529E-03     9.57970E-03    -25.6201E-03     50.8604E-03    -25.5659E-03     9.57779E-03
            1830     877.278E-06     33.4837E-03    -23.2551E+06    -111.797E+06    -22.9270E+06     108.275E+03    -25.6444E-03     51.2858E-03    -25.6415E-03     5.15446E-03    -25.5654E-03     50.7940E-03    -25.5603E-03     5.15355E-03
            1831     16.6501E-03     33.7184E-03    -5.24529E+06     166.325E+06     84.1921E+06     297.632E+03    -38.2857E-03     65.0748E-03    -26.7891E-03     259.410E-03    -47.0015E-03     74.1182E-03    -26.6017E-03     264.236E-03
            1832     15.7761E-03     33.4086E-03    -8.40977E+06     124.869E+06     24.9641E+06     436.260E+03    -40.5598E-03     67.0634E-03    -26.5036E-03     260.923E-03    -46.9869E-03     73.8315E-03    -26.5477E-03     261.913E-03
            1833     14.9005E-03     33.2114E-03    -8.68056E+06     62.2920E+06    -13.7324E+06     229.351E+03    -33.3063E-03     59.6441E-03    -26.3378E-03     156.973E-03    -34.7090E-03     61.2769E-03    -26.4842E-03     156.740E-03
            1834     14.0242E-03     33.1069E-03    -7.54920E+06     7.87413E+06    -16.4240E+06     668.052E+03    -29.5687E-03     55.9016E-03    -26.3330E-03     92.7970E-03    -29.9355E-03     56.3172E-03    -26.4155E-03     92.5808E-03
            1835     13.1490E-03     33.0334E-03    -7.09209E+06    -22.7902E+06    -10.3400E+06     1.25448E+06    -29.0689E-03     55.3964E-03    -26.3276E-03     78.4434E-03    -29.2380E-03     55.4895E-03    -26.3359E-03     78.2764E-03
            1836     12.2735E-03     32.9561E-03    -7.74879E+06    -37.8000E+06    -4.03594E+06     1.01329E+06    -28.9101E-03     55.2048E-03    -26.2948E-03     75.7944E-03    -29.0091E-03     55.1538E-03    -26.2489E-03     75.6610E-03
            1837     11.3979E-03     32.8873E-03    -8.42413E+06    -51.8672E+06    -2.70711E+06     843.939E+03    -28.5275E-03     54.7591E-03    -26.2316E-03     67.0976E-03    -28.5676E-03     54.5930E-03    -26.1577E-03     66.9933E-03
            1838     10.5222E-03     32.8264E-03    -9.03022E+06    -66.3408E+06    -3.60026E+06     711.826E+03    -28.1788E-03     54.3329E-03    -26.1540E-03     60.2068E-03    -28.1727E-03     54.0696E-03    -26.0627E-03     60.1264E-03
            1839     9.64621E-03     32.7706E-03    -10.0163E+06    -74.3912E+06    -1.10560E+06     701.306E+03    -27.8341E-03     53.9179E-03    -26.0839E-03     54.7942E-03    -27.8082E-03     53.5957E-03    -25.9670E-03     54.7336E-03
            1840     8.77014E-03     32.7199E-03    -11.2941E+06    -78.8856E+06     44.1855E+03     680.748E+03    -27.4759E-03     53.4801E-03    -26.0042E-03     49.3914E-03    -27.4405E-03     53.1244E-03    -25.8732E-03     49.3464E-03
            1841     7.89381E-03     32.6744E-03    -12.6585E+06    -83.8416E+06    -725.708E+03     579.312E+03    -27.1316E-03     53.0509E-03    -25.9194E-03     44.0851E-03    -27.0872E-03     52.6661E-03    -25.7831E-03     44.0512E-03
            1842     7.01735E-03     32.6338E-03    -14.0914E+06    -89.9573E+06    -1.90814E+06     507.456E+03    -26.8065E-03     52.6460E-03    -25.8394E-03     38.8558E-03    -26.7537E-03     52.2292E-03    -25.6981E-03     38.8307E-03
            1843     6.14063E-03     32.5983E-03    -15.7879E+06    -95.4650E+06    -4.55273E+06     456.450E+03    -26.5025E-03     52.2608E-03    -25.7583E-03     33.7080E-03    -26.4428E-03     51.8193E-03    -25.6197E-03     33.6899E-03
            1844     5.26379E-03     32.5677E-03    -17.5658E+06    -101.292E+06    -7.96861E+06     488.613E+03    -26.2312E-03     51.9129E-03    -25.6817E-03     28.6453E-03    -26.1647E-03     51.4476E-03    -25.5492E-03     28.6334E-03
            1845     4.38675E-03     32.5421E-03    -19.2180E+06    -105.596E+06    -11.6233E+06     446.248E+03    -25.9904E-03     51.6010E-03    -25.6106E-03     23.6888E-03    -25.9190E-03     51.1203E-03    -25.4877E-03     23.6811E-03
            1846     3.50959E-03     32.5211E-03    -20.6607E+06    -107.630E+06    -15.4793E+06     371.925E+03    -25.7858E-03     51.3314E-03    -25.5456E-03     18.8428E-03    -25.7121E-03     50.8471E-03    -25.4370E-03     18.8378E-03
            1847     2.63228E-03     32.5049E-03    -21.8350E+06    -109.434E+06    -18.8392E+06     285.875E+03    -25.6285E-03     51.1222E-03    -25.4936E-03     14.0868E-03    -25.5525E-03     50.6347E-03    -25.3975E-03     14.0837E-03
            1848     1.75491E-03     32.4933E-03    -22.6956E+06    -110.755E+06    -21.3339E+06     204.922E+03    -25.5156E-03     50.9722E-03    -25.4566E-03     9.44327E-03    -25.4379E-03     50.4826E-03    -25.3697E-03     9.44157E-03
            1849     877.471E-06     32.4863E-03    -23.2096E+06    -111.579E+06    -22.8842E+06     124.649E+03    -25.4362E-03     50.8855E-03    -25.4493E-03     5.09871E-03    -25.3574E-03     50.3946E-03    -25.3683E-03     5.09805E-03
            1850     16.6517E-03     32.7165E-03    -5.21479E+06     166.004E+06     83.4914E+06     253.938E+03    -38.5955E-03     65.3682E-03    -26.7727E-03     259.213E-03    -47.2929E-03     74.3943E-03    -26.5884E-03     263.997E-03
            1851     15.7759E-03     32.4067E-03    -8.21818E+06     124.924E+06     25.1119E+06     330.737E+03    -40.7948E-03     67.2691E-03    -26.4743E-03     260.682E-03    -47.2108E-03     74.0266E-03    -26.5180E-03     261.654E-03
            1852     14.9006E-03     32.2109E-03    -9.27018E+06     62.9180E+06    -13.3705E+06     262.141E+03    -33.5835E-03     59.8753E-03    -26.2918E-03     156.691E-03    -34.9880E-03     61.5091E-03    -26.4365E-03     156.452E-03
            1853     14.0256E-03     32.1060E-03    -9.38376E+06     6.97684E+06    -17.5815E+06     179.114E+03    -29.6688E-03     55.9362E-03    -26.2674E-03     92.4820E-03    -30.0400E-03     56.3498E-03    -26.3518E-03     92.2588E-03
            1854     13.1501E-03     32.0327E-03    -8.76396E+06    -23.4427E+06    -11.2932E+06     788.331E+03    -29.1200E-03     55.3717E-03    -26.2517E-03     78.0005E-03    -29.2940E-03     55.4641E-03    -26.2615E-03     77.8275E-03
            1855     12.2746E-03     31.9557E-03    -8.19636E+06    -37.2392E+06    -4.24999E+06     1.20374E+06    -29.0294E-03     55.2356E-03    -26.2061E-03     75.3844E-03    -29.1306E-03     55.1877E-03    -26.1615E-03     75.2532E-03
            1856     11.3991E-03     31.8871E-03    -8.51258E+06    -51.6850E+06    -2.82615E+06     968.499E+03    -28.5934E-03     54.7218E-03    -26.1283E-03     66.6534E-03    -28.6333E-03     54.5561E-03    -26.0552E-03     66.5510E-03
            1857     10.5233E-03     31.8265E-03    -9.19534E+06    -66.2180E+06    -3.73640E+06     1.03246E+06    -28.2090E-03     54.2461E-03    -26.0371E-03     59.7404E-03    -28.2030E-03     53.9833E-03    -25.9464E-03     59.6646E-03
            1858     9.64751E-03     31.7710E-03    -10.0820E+06    -74.3261E+06    -1.21320E+06     1.08111E+06    -27.8407E-03     53.7942E-03    -25.9535E-03     54.3134E-03    -27.8147E-03     53.4721E-03    -25.8372E-03     54.2583E-03
            1859     8.77137E-03     31.7207E-03    -11.3152E+06    -78.5318E+06     2.21789E+03     946.591E+03    -27.4553E-03     53.3153E-03    -25.8600E-03     48.8961E-03    -27.4201E-03     52.9612E-03    -25.7298E-03     48.8551E-03
            1860     7.89509E-03     31.6754E-03    -12.7100E+06    -83.5379E+06    -940.859E+03     651.662E+03    -27.0783E-03     52.8396E-03    -25.7613E-03     43.5998E-03    -27.0340E-03     52.4564E-03    -25.6265E-03     43.5673E-03
            1861     7.01850E-03     31.6353E-03    -14.2085E+06    -89.8895E+06    -2.20284E+06     548.537E+03    -26.7200E-03     52.3893E-03    -25.6693E-03     38.3834E-03    -26.6672E-03     51.9733E-03    -25.5294E-03     38.3593E-03
            1862     6.14176E-03     31.6001E-03    -15.8317E+06    -95.4057E+06     -4.5761E+06     655.350E+03    -26.3886E-03     51.9670E-03    -25.5783E-03     33.2617E-03    -26.3291E-03     51.5258E-03    -25.4399E-03     33.2465E-03
            1863     5.26477E-03     31.5698E-03    -17.5312E+06    -101.092E+06    -7.91432E+06     597.456E+03    -26.0932E-03     51.5849E-03    -25.4917E-03     28.2396E-03    -26.0268E-03     51.1203E-03    -25.3593E-03     28.2295E-03
            1864     4.38764E-03     31.5444E-03    -19.1382E+06    -105.404E+06    -11.6320E+06     501.852E+03    -25.8303E-03     51.2413E-03    -25.4111E-03     23.3353E-03    -25.7587E-03     50.7613E-03    -25.2886E-03     23.3286E-03
            1865     3.51030E-03     31.5237E-03    -20.5909E+06    -107.410E+06    -15.4710E+06     425.636E+03    -25.6042E-03     50.9424E-03    -25.3382E-03     18.5534E-03    -25.5303E-03     50.4590E-03    -25.2300E-03     18.5493E-03
            1866     2.63286E-03     31.5076E-03    -21.7826E+06    -109.206E+06    -18.8309E+06     335.622E+03    -25.4292E-03     50.7094E-03    -25.2802E-03     13.8660E-03    -25.3532E-03     50.2230E-03    -25.1844E-03     13.8637E-03
            1867     1.75529E-03     31.4962E-03    -22.6558E+06    -110.524E+06    -21.3367E+06     238.156E+03    -25.3072E-03     50.5450E-03    -25.2378E-03     9.29559E-03    -25.2296E-03     50.0565E-03    -25.1514E-03     9.29442E-03
            1868     877.669E-06     31.4892E-03    -23.1708E+06    -111.331E+06    -22.8612E+06     124.981E+03    -25.2267E-03     50.4426E-03    -25.2159E-03     5.03750E-03    -25.1480E-03     49.9528E-03    -25.1352E-03     5.03688E-03
            1869     16.6516E-03     31.7153E-03    -5.32889E+06     165.739E+06     83.3484E+06     168.401E+03    -38.9592E-03     65.7189E-03    -26.7597E-03     259.447E-03    -47.6563E-03     74.7438E-03    -26.5756E-03     264.185E-03
            1870     15.7762E-03     31.4052E-03    -8.61210E+06     124.990E+06     26.3566E+06     232.209E+03    -41.1456E-03     67.5925E-03    -26.4469E-03     259.997E-03    -47.5492E-03     74.3328E-03    -26.4838E-03     260.934E-03
            1871     14.9018E-03     31.2090E-03    -9.17307E+06     63.2715E+06    -12.1954E+06     328.166E+03    -33.7846E-03     60.0252E-03    -26.2405E-03     155.618E-03    -35.1799E-03     61.6479E-03    -26.3799E-03     155.375E-03
            1872     14.0265E-03     31.1055E-03    -8.72646E+06     6.67060E+06    -17.8608E+06     503.996E+03    -29.7641E-03     55.9573E-03    -26.1932E-03     92.1679E-03    -30.1294E-03     56.3671E-03    -26.2795E-03     91.9486E-03
            1873     13.1511E-03     31.0320E-03    -8.81733E+06    -24.0974E+06    -11.8604E+06     585.185E+03    -29.2045E-03     55.3710E-03    -26.1664E-03     77.9130E-03    -29.3760E-03     55.4600E-03    -26.1780E-03     77.7375E-03
            1874     12.2758E-03     30.9551E-03    -8.87114E+06    -37.1812E+06    -4.74399E+06     819.556E+03    -29.1203E-03     55.2284E-03    -26.1081E-03     75.0228E-03    -29.2234E-03     55.1818E-03    -26.0651E-03     74.8867E-03
            1875     11.4003E-03     30.8869E-03    -9.06628E+06    -51.5436E+06    -3.07065E+06     1.09030E+06    -28.6699E-03     54.6860E-03    -26.0161E-03     66.1855E-03    -28.7116E-03     54.5215E-03    -25.9436E-03     66.0850E-03
            1876     10.5248E-03     30.8267E-03    -9.52529E+06    -66.2280E+06    -3.95524E+06     1.13745E+06    -28.2561E-03     54.1651E-03    -25.9091E-03     59.2386E-03    -28.2508E-03     53.9024E-03    -25.8190E-03     59.1646E-03
            1877     9.64884E-03     30.7716E-03    -10.0971E+06    -74.1652E+06    -1.37520E+06     1.18273E+06    -27.8541E-03     53.6634E-03    -25.8093E-03     53.7841E-03    -27.8276E-03     53.3418E-03    -25.6940E-03     53.7309E-03
            1878     8.77280E-03     30.7216E-03    -10.9443E+06    -78.1418E+06     131.694E+03     1.06146E+06    -27.4334E-03     53.1346E-03    -25.7012E-03     48.3457E-03    -27.3967E-03     52.7812E-03    -25.5713E-03     48.3067E-03
            1879     7.89641E-03     30.6768E-03    -12.2537E+06    -83.1701E+06    -600.973E+03     907.429E+03    -27.0239E-03     52.6127E-03    -25.5887E-03     43.0450E-03    -26.9781E-03     52.2298E-03    -25.4534E-03     43.0164E-03
            1880     7.01985E-03     30.6370E-03    -13.9932E+06    -89.8152E+06    -1.97977E+06     830.308E+03    -26.6306E-03     52.1135E-03    -25.4829E-03     37.8439E-03    -26.5769E-03     51.6970E-03    -25.3423E-03     37.8240E-03
            1881     6.14297E-03     30.6022E-03    -15.7710E+06    -95.2331E+06    -4.64825E+06     728.365E+03    -26.2643E-03     51.6422E-03    -25.3778E-03     32.7636E-03    -26.2045E-03     51.2017E-03    -25.2401E-03     32.7498E-03
            1882     5.26591E-03     30.5722E-03    -17.3783E+06    -100.891E+06    -7.98170E+06     675.712E+03    -25.9382E-03     51.2181E-03    -25.2798E-03     27.7857E-03    -25.8711E-03     50.7542E-03    -25.1483E-03     27.7770E-03
            1883     4.38859E-03     30.5471E-03    -19.0061E+06    -105.166E+06    -11.6573E+06     624.210E+03    -25.6508E-03     50.8404E-03    -25.1896E-03     22.9405E-03    -25.5788E-03     50.3614E-03    -25.0679E-03     22.9357E-03
            1884     3.51113E-03     30.5266E-03    -20.5012E+06    -107.155E+06    -15.4765E+06     525.865E+03    -25.4051E-03     50.5132E-03    -25.1081E-03     18.2268E-03    -25.3311E-03     50.0310E-03    -25.0004E-03     18.2243E-03
            1885     2.63347E-03     30.5109E-03    -21.7177E+06    -108.951E+06    -18.8292E+06     421.741E+03    -25.2112E-03     50.2536E-03    -25.0424E-03     13.6169E-03    -25.1352E-03     49.7683E-03    -24.9471E-03     13.6158E-03
            1886     1.75572E-03     30.4995E-03    -22.5908E+06    -110.224E+06    -21.3116E+06     294.423E+03    -25.0708E-03     50.0655E-03    -24.9947E-03     9.12468E-03    -24.9933E-03     49.5783E-03    -24.9086E-03     9.12435E-03
            1887     877.876E-06     30.4927E-03    -23.1180E+06    -111.008E+06    -22.8381E+06     167.180E+03    -24.9750E-03     49.9525E-03    -24.9775E-03     4.94818E-03    -24.8967E-03     49.4643E-03    -24.8972E-03     4.94817E-03
            1888     16.6510E-03     30.7123E-03    -5.23435E+06     165.682E+06     83.8908E+06     132.936E+03    -39.4170E-03     66.1478E-03    -26.7308E-03     258.142E-03    -48.0526E-03     75.1097E-03    -26.5440E-03     262.801E-03
            1889     15.7779E-03     30.4027E-03    -8.18867E+06     124.987E+06     26.8220E+06     231.995E+03    -41.1632E-03     67.5596E-03    -26.3964E-03     259.254E-03    -47.5301E-03     74.2633E-03    -26.4317E-03     260.183E-03
            1890     14.9028E-03     30.2082E-03    -9.21878E+06     62.9175E+06    -12.7082E+06     477.725E+03    -33.8075E-03     59.9869E-03    -26.1794E-03     155.445E-03    -35.1979E-03     61.6047E-03    -26.3208E-03     155.205E-03
            1891     14.0274E-03     30.1046E-03    -9.17092E+06     6.72541E+06    -18.1045E+06     703.557E+03    -29.9804E-03     56.1018E-03    -26.1214E-03     91.8761E-03    -30.3466E-03     56.5118E-03    -26.2084E-03     91.6572E-03
            1892     13.1524E-03     30.0313E-03    -8.79918E+06    -23.9238E+06    -11.8878E+06     756.693E+03    -29.3651E-03     55.4418E-03    -26.0767E-03     77.5853E-03    -29.5356E-03     55.5306E-03    -26.0887E-03     77.4114E-03
            1893     12.2770E-03     29.9546E-03    -8.93223E+06    -37.5334E+06    -5.00812E+06     771.668E+03    -29.2048E-03     55.2068E-03    -26.0020E-03     74.5677E-03    -29.3061E-03     55.1577E-03    -25.9597E-03     74.4313E-03
            1894     11.4018E-03     29.8867E-03    -9.41221E+06    -51.5856E+06    -3.33562E+06     1.00252E+06    -28.7509E-03     54.6450E-03    -25.8941E-03     65.6417E-03    -28.7930E-03     54.4803E-03    -25.8224E-03     65.5405E-03
            1895     10.5261E-03     29.8270E-03    -9.83180E+06    -66.1156E+06    -4.24823E+06     1.09651E+06    -28.3207E-03     54.0896E-03    -25.7689E-03     58.6675E-03    -28.3160E-03     53.8276E-03    -25.6800E-03     58.5935E-03
            1896     9.65043E-03     29.7722E-03    -10.3405E+06    -73.9749E+06    -1.78472E+06     997.606E+03    -27.8759E-03     53.5261E-03    -25.6502E-03     53.1875E-03    -27.8497E-03     53.2057E-03    -25.5369E-03     53.1325E-03
            1897     8.77429E-03     29.7228E-03    -11.1634E+06    -77.9470E+06    -197.727E+03     982.495E+03    -27.4125E-03     52.9375E-03    -25.5250E-03     47.7353E-03    -27.3762E-03     52.5855E-03    -25.3968E-03     47.6960E-03
            1898     7.89797E-03     29.6783E-03    -12.3494E+06    -83.0776E+06    -765.198E+03     1.11525E+06    -26.9650E-03     52.3618E-03    -25.3968E-03     42.4254E-03    -26.9192E-03     51.9794E-03    -25.2622E-03     42.4001E-03
            1899     7.02127E-03     29.6390E-03    -13.8047E+06    -89.4787E+06    -1.98338E+06     1.09869E+06    -26.5350E-03     51.8102E-03    -25.2752E-03     37.2422E-03    -26.4806E-03     51.3949E-03    -25.1353E-03     37.2262E-03
            1900     6.14436E-03     29.6046E-03    -15.4743E+06    -94.9488E+06    -4.74294E+06     925.429E+03    -26.1291E-03     51.2843E-03    -25.1551E-03     32.1997E-03    -26.0679E-03     50.8448E-03    -25.0187E-03     32.1889E-03
            1901     5.26712E-03     29.5751E-03    -17.2772E+06    -100.712E+06    -8.17606E+06     846.818E+03    -25.7663E-03     50.8109E-03    -25.0446E-03     27.2796E-03    -25.6985E-03     50.3479E-03    -24.9144E-03     27.2735E-03
            1902     4.38968E-03     29.5502E-03    -18.9282E+06    -104.882E+06    -11.6974E+06     784.856E+03    -25.4512E-03     50.3955E-03    -24.9442E-03     22.4997E-03    -25.3791E-03     49.9177E-03    -24.8232E-03     22.4972E-03
            1903     3.51200E-03     29.5301E-03    -20.4021E+06    -106.838E+06    -15.4715E+06     668.131E+03    -25.1847E-03     50.0378E-03    -24.8532E-03     17.8616E-03    -25.1106E-03     49.5570E-03    -24.7460E-03     17.8611E-03
            1904     2.63418E-03     29.5145E-03    -21.6029E+06    -108.609E+06    -18.7875E+06     524.034E+03    -24.9701E-03     49.7490E-03    -24.7788E-03     13.3307E-03    -24.8941E-03     49.2652E-03    -24.6840E-03     13.3311E-03
            1905     1.75620E-03     29.5034E-03    -22.4714E+06    -109.876E+06    -21.2542E+06     382.008E+03    -24.8092E-03     49.5341E-03    -24.7249E-03     8.93231E-03    -24.7317E-03     49.0484E-03    -24.6393E-03     8.93323E-03
            1906     878.122E-06     29.4965E-03    -23.0008E+06    -110.613E+06    -22.7241E+06     245.011E+03    -24.7022E-03     49.4089E-03    -24.7066E-03     4.84653E-03    -24.6240E-03     48.9223E-03    -24.6265E-03     4.84760E-03
            1907     16.6547E-03     29.7105E-03    -4.85639E+06     165.693E+06     84.0125E+06     44.3282E+03    -39.7015E-03     66.3925E-03    -26.6911E-03     257.078E-03    -48.2740E-03     75.2925E-03    -26.5042E-03     261.670E-03
            1908     15.7780E-03     29.4019E-03    -8.14003E+06     124.539E+06     26.2159E+06     545.831E+03    -40.8648E-03     67.2193E-03    -26.3544E-03     259.989E-03    -47.2384E-03     73.9300E-03    -26.3921E-03     260.959E-03
            1909     14.9027E-03     29.2062E-03    -9.65512E+06     62.8485E+06    -13.5295E+06     872.328E+03    -34.1844E-03     60.3189E-03    -26.1345E-03     155.435E-03    -35.5745E-03     61.9371E-03    -26.2792E-03     155.190E-03
            1910     14.0287E-03     29.1036E-03    -9.50809E+06     7.10464E+06    -18.5437E+06     702.825E+03    -30.3980E-03     56.4478E-03    -26.0498E-03     91.3323E-03    -30.7642E-03     56.8593E-03    -26.1390E-03     91.1092E-03
            1911     13.1536E-03     29.0305E-03    -8.88360E+06    -24.0020E+06    -12.2689E+06     713.336E+03    -29.5688E-03     55.5481E-03    -25.9793E-03     77.1926E-03    -29.7377E-03     55.6358E-03    -25.9929E-03     77.0174E-03
            1912     12.2786E-03     28.9541E-03    -8.80293E+06    -37.6169E+06    -5.28173E+06     943.199E+03    -29.3167E-03     55.2026E-03    -25.8859E-03     74.1609E-03    -29.4156E-03     55.1521E-03    -25.8450E-03     74.0271E-03
            1913     11.4032E-03     28.8867E-03    -9.25694E+06    -51.6713E+06    -3.65256E+06     1.05077E+06    -28.8556E-03     54.6150E-03    -25.7594E-03     65.0673E-03    -28.8953E-03     54.4490E-03    -25.6893E-03     64.9672E-03
            1914     10.5278E-03     28.8272E-03    -9.76738E+06    -65.9209E+06    -4.50671E+06     1.08016E+06    -28.3912E-03     54.0055E-03    -25.6142E-03     57.9880E-03    -28.3853E-03     53.7439E-03    -25.5270E-03     57.9144E-03
            1915     9.65201E-03     28.7731E-03    -10.4517E+06    -73.6929E+06    -2.23824E+06     987.572E+03    -27.9036E-03     53.3781E-03    -25.4746E-03     52.4906E-03    -27.8770E-03     53.0594E-03    -25.3637E-03     52.4362E-03
            1916     8.77602E-03     28.7240E-03    -11.4809E+06    -77.9984E+06    -792.378E+03     991.744E+03    -27.3943E-03     52.7242E-03    -25.3298E-03     47.0244E-03    -27.3582E-03     52.3727E-03    -25.2040E-03     46.9859E-03
            1917     7.89959E-03     28.6802E-03    -12.6837E+06    -83.0312E+06    -1.43213E+06     1.11551E+06    -26.8984E-03     52.0809E-03    -25.1825E-03     41.7254E-03    -26.8529E-03     51.6999E-03    -25.0509E-03     41.7008E-03
            1918     7.02291E-03     28.6413E-03    -13.9975E+06    -89.1799E+06    -2.50970E+06     1.12397E+06    -26.4258E-03     51.4696E-03    -25.0439E-03     36.5684E-03    -26.3717E-03     51.0566E-03    -24.9068E-03     36.5534E-03
            1919     6.14584E-03     28.6074E-03    -15.5342E+06    -94.7229E+06    -4.89577E+06     1.15431E+06    -25.9795E-03     50.8892E-03    -24.9097E-03     31.5661E-03    -25.9185E-03     50.4510E-03    -24.7743E-03     31.5588E-03
            1920     5.26850E-03     28.5782E-03    -17.1769E+06    -100.388E+06    -8.22750E+06     1.09839E+06    -25.5780E-03     50.3632E-03    -24.7852E-03     26.7139E-03    -25.5100E-03     49.9017E-03    -24.6559E-03     26.7115E-03
            1921     4.39086E-03     28.5539E-03    -18.8291E+06    -104.552E+06    -11.7318E+06     954.299E+03    -25.2303E-03     49.9032E-03    -24.6729E-03     22.0134E-03    -25.1580E-03     49.4269E-03    -24.5526E-03     22.0135E-03
            1922     3.51301E-03     28.5340E-03    -20.2841E+06    -106.441E+06    -15.4363E+06     811.603E+03    -24.9358E-03     49.5079E-03    -24.5721E-03     17.4619E-03    -24.8617E-03     49.0287E-03    -24.4655E-03     17.4636E-03
            1923     2.63494E-03     28.5187E-03    -21.4663E+06    -108.206E+06    -18.7282E+06     646.502E+03    -24.6991E-03     49.1892E-03    -24.4902E-03     13.0234E-03    -24.6230E-03     48.7071E-03    -24.3958E-03     13.0256E-03
            1924     1.75672E-03     28.5077E-03    -22.3235E+06    -109.424E+06    -21.1011E+06     468.132E+03    -24.5269E-03     48.9569E-03    -24.4300E-03     8.72755E-03    -24.4496E-03     48.4730E-03    -24.3445E-03     8.72972E-03
            1925     878.380E-06     28.5011E-03    -22.8225E+06    -110.124E+06    -22.5206E+06     286.687E+03    -24.4077E-03     48.8120E-03    -24.4043E-03     4.73554E-03    -24.3296E-03     48.3272E-03    -24.3241E-03     4.73721E-03
            1926     16.6526E-03     28.7098E-03    -5.31513E+06     165.094E+06     83.3708E+06    -39.5618E+03    -39.8741E-03     66.6015E-03    -26.7274E-03     257.691E-03    -48.4635E-03     75.5164E-03    -26.5422E-03     262.246E-03
            1927     15.7776E-03     28.3998E-03    -8.93494E+06     123.836E+06     26.0251E+06     751.063E+03    -42.1733E-03     68.5311E-03    -26.3577E-03     260.128E-03    -48.5604E-03     75.2506E-03    -26.3942E-03     260.991E-03
            1928     14.9040E-03     28.2041E-03    -9.53340E+06     63.2161E+06    -13.0730E+06     905.405E+03    -34.7112E-03     60.7958E-03    -26.0845E-03     154.353E-03    -36.0917E-03     62.4047E-03    -26.2277E-03     154.093E-03
            1929     14.0293E-03     28.1019E-03    -8.87412E+06     7.47511E+06    -18.6839E+06     755.779E+03    -30.5178E-03     56.4876E-03    -25.9699E-03     90.3852E-03    -30.8756E-03     56.8947E-03    -26.0613E-03     90.1626E-03
            1930     13.1551E-03     28.0297E-03    -8.71507E+06    -24.1828E+06    -12.7656E+06     847.229E+03    -29.7891E-03     55.6698E-03    -25.8807E-03     76.8132E-03    -29.9553E-03     55.7562E-03    -25.8968E-03     76.6388E-03
            1931     12.2799E-03     27.9537E-03    -8.93505E+06    -37.7287E+06    -5.82995E+06     983.103E+03    -29.5689E-03     55.3314E-03    -25.7625E-03     73.6683E-03    -29.6667E-03     55.2805E-03    -25.7240E-03     73.5342E-03
            1932     11.4050E-03     27.8864E-03    -9.24618E+06    -51.6484E+06    -4.06633E+06     1.13865E+06    -29.0009E-03     54.6111E-03    -25.6103E-03     64.3722E-03    -29.0389E-03     54.4448E-03    -25.5423E-03     64.2735E-03
            1933     10.5295E-03     27.8278E-03    -9.70571E+06    -65.7436E+06    -4.83702E+06     1.16928E+06    -28.4713E-03     53.9132E-03    -25.4418E-03     57.1982E-03    -28.4640E-03     53.6520E-03    -25.3566E-03     57.1263E-03
            1934     9.65395E-03     27.7739E-03    -10.3815E+06    -73.4510E+06    -2.51445E+06     1.13575E+06    -27.9326E-03     53.2125E-03    -25.2799E-03     51.6765E-03    -27.9050E-03     52.8946E-03    -25.1709E-03     51.6247E-03
            1935     8.77786E-03     27.7256E-03    -11.3743E+06    -77.9745E+06    -1.08529E+06     1.13588E+06    -27.3736E-03     52.4873E-03    -25.1137E-03     46.1977E-03    -27.3360E-03     52.1357E-03    -24.9895E-03     46.1618E-03
            1936     7.90149E-03     27.6822E-03    -12.5876E+06    -82.8997E+06    -1.73542E+06     1.13831E+06    -26.8217E-03     51.7676E-03    -24.9458E-03     40.9157E-03    -26.7752E-03     51.3871E-03    -24.8160E-03     40.8920E-03
            1937     7.02466E-03     27.6440E-03    -13.9940E+06    -89.0552E+06    -2.87863E+06     1.20713E+06    -26.2977E-03     51.0862E-03    -24.7885E-03     35.8018E-03    -26.2430E-03     50.6740E-03    -24.6535E-03     35.7885E-03
            1938     6.14752E-03     27.6105E-03    -15.5393E+06    -94.5468E+06    -5.11174E+06     1.26747E+06    -25.8118E-03     50.4500E-03    -24.6382E-03     30.8504E-03    -25.7505E-03     50.0127E-03    -24.5041E-03     30.8451E-03
            1939     5.27000E-03     27.5820E-03    -17.1243E+06    -100.024E+06    -8.25493E+06     1.26515E+06    -25.3699E-03     49.8688E-03    -24.4989E-03     26.0729E-03    -25.3019E-03     49.4089E-03    -24.3703E-03     26.0731E-03
            1940     4.39218E-03     27.5579E-03    -18.6778E+06    -104.126E+06    -11.7320E+06     1.15422E+06    -24.9832E-03     49.3566E-03    -24.3735E-03     21.4679E-03    -24.9106E-03     48.8822E-03    -24.2541E-03     21.4710E-03
            1941     3.51408E-03     27.5385E-03    -20.1520E+06    -105.993E+06    -15.3915E+06     976.989E+03    -24.6556E-03     48.9186E-03    -24.2630E-03     17.0091E-03    -24.5816E-03     48.4414E-03    -24.1571E-03     17.0132E-03
            1942     2.63576E-03     27.5234E-03    -21.3348E+06    -107.688E+06    -18.5566E+06     763.243E+03    -24.3984E-03     48.5731E-03    -24.1747E-03     12.6772E-03    -24.3226E-03     48.0931E-03    -24.0804E-03     12.6811E-03
            1943     1.75727E-03     27.5127E-03    -22.1723E+06    -108.863E+06    -20.8757E+06     507.280E+03    -24.2179E-03     48.3261E-03    -24.1082E-03     8.49419E-03    -24.1410E-03     47.8445E-03    -24.0225E-03     8.49701E-03
            1944     878.689E-06     27.5061E-03    -22.6835E+06    -109.594E+06    -22.3276E+06     248.713E+03    -24.0949E-03     48.1601E-03    -24.0651E-03     4.58068E-03    -24.0172E-03     47.6775E-03    -23.9850E-03     4.58195E-03
            1945     16.6480E-03     27.7016E-03    -5.32129E+06     164.738E+06     83.2909E+06     475.393E+03    -40.2431E-03     66.9902E-03    -26.7472E-03     256.247E-03    -48.7689E-03     75.8405E-03    -26.5619E-03     260.742E-03
            1946     15.7785E-03     27.3963E-03    -9.23169E+06     123.214E+06     26.0048E+06     363.672E+03    -43.0173E-03     69.3452E-03    -26.3279E-03     256.634E-03    -49.2889E-03     75.9460E-03    -26.3631E-03     257.391E-03
            1947     14.9053E-03     27.2015E-03    -9.30489E+06     63.2726E+06    -12.8289E+06     561.422E+03    -34.7883E-03     60.7995E-03    -26.0112E-03     153.100E-03    -36.1550E-03     62.3951E-03    -26.1536E-03     152.833E-03
            1948     14.0312E-03     27.1012E-03    -9.00539E+06     7.68117E+06    -18.9524E+06     867.154E+03    -30.6294E-03     56.5092E-03    -25.8797E-03     89.8228E-03    -30.9853E-03     56.9153E-03    -25.9726E-03     89.6013E-03
            1949     13.1557E-03     27.0284E-03    -9.06181E+06    -24.0893E+06    -13.2351E+06     861.912E+03    -30.0548E-03     55.8243E-03    -25.7695E-03     76.0599E-03    -30.2209E-03     55.9111E-03    -25.7876E-03     75.8840E-03
            1950     12.2818E-03     26.9529E-03    -8.94876E+06    -37.9226E+06    -6.22377E+06     927.536E+03    -29.8002E-03     55.4241E-03    -25.6240E-03     72.8209E-03    -29.8960E-03     55.3716E-03    -25.5871E-03     72.6855E-03
            1951     11.4067E-03     26.8864E-03    -9.25901E+06    -51.6847E+06    -4.32855E+06     1.17335E+06    -29.1766E-03     54.6204E-03    -25.4437E-03     63.4697E-03    -29.2132E-03     54.4531E-03    -25.3770E-03     63.3716E-03
            1952     10.5317E-03     26.8281E-03    -9.70432E+06    -65.5396E+06    -5.03634E+06     1.27972E+06    -28.5464E-03     53.7952E-03    -25.2488E-03     56.2737E-03    -28.5380E-03     53.5343E-03    -25.1649E-03     56.2040E-03
            1953     9.65596E-03     26.7752E-03    -10.3157E+06    -73.3243E+06    -2.75643E+06     1.25244E+06    -27.9559E-03     53.0184E-03    -25.0625E-03     50.7625E-03    -27.9270E-03     52.7006E-03    -24.9551E-03     50.7130E-03
            1954     8.78001E-03     26.7272E-03    -11.2412E+06    -77.8216E+06    -1.28371E+06     1.26595E+06    -27.3402E-03     52.2133E-03    -24.8731E-03     45.2717E-03    -27.3013E-03     51.8619E-03    -24.7504E-03     45.2383E-03
            1955     7.90353E-03     26.6848E-03    -12.4698E+06    -82.7428E+06    -1.95803E+06     1.30630E+06    -26.7312E-03     51.4146E-03    -24.6833E-03     40.0163E-03    -26.6835E-03     51.0346E-03    -24.5551E-03     39.9957E-03
            1956     7.02666E-03     26.6470E-03    -13.8628E+06    -88.9548E+06    -3.18172E+06     1.34502E+06    -26.1557E-03     50.6613E-03    -24.5056E-03     34.9501E-03    -26.0997E-03     50.2495E-03    -24.3724E-03     34.9393E-03
            1957     6.14935E-03     26.6143E-03    -15.3819E+06    -94.3669E+06    -5.44699E+06     1.43294E+06    -25.6203E-03     49.9571E-03    -24.3368E-03     30.0579E-03    -25.5578E-03     49.5207E-03    -24.2049E-03     30.0554E-03
            1958     5.27167E-03     26.5861E-03    -16.9884E+06    -99.6843E+06    -8.40746E+06     1.43751E+06    -25.1378E-03     49.3197E-03    -24.1819E-03     25.3604E-03    -25.0693E-03     48.8614E-03    -24.0548E-03     25.3634E-03
            1959     4.39363E-03     26.5627E-03    -18.5886E+06    -103.660E+06    -11.6942E+06     1.34643E+06    -24.7107E-03     48.7538E-03    -24.0431E-03     20.8521E-03    -24.6384E-03     48.2814E-03    -23.9243E-03     20.8581E-03
            1960     3.51529E-03     26.5435E-03    -20.0045E+06    -105.409E+06    -15.2304E+06     1.14080E+06    -24.3503E-03     48.2717E-03    -23.9214E-03     16.4959E-03    -24.2765E-03     47.7969E-03    -23.8157E-03     16.5025E-03
            1961     2.63669E-03     26.5289E-03    -21.1597E+06    -107.068E+06    -18.3683E+06     836.337E+03    -24.0686E-03     47.8927E-03    -23.8240E-03     12.2806E-03    -23.9932E-03     47.4153E-03    -23.7300E-03     12.2858E-03
            1962     1.75790E-03     26.5183E-03    -21.9865E+06    -108.257E+06    -20.7365E+06     541.945E+03    -23.8647E-03     47.6172E-03    -23.7524E-03     8.22782E-03    -23.7879E-03     47.1381E-03    -23.6673E-03     8.23126E-03
            1963     878.985E-06     26.5120E-03    -22.4983E+06    -109.033E+06    -22.2325E+06     270.000E+03    -23.7466E-03     47.4467E-03    -23.7001E-03     4.43315E-03    -23.6689E-03     46.9666E-03    -23.6206E-03     4.43478E-03
            1964     16.6555E-03     26.6994E-03    -4.72722E+06     165.011E+06     84.1549E+06     832.374E+03    -41.1397E-03     67.8102E-03    -26.6705E-03     255.871E-03    -49.6149E-03     76.6104E-03    -26.4822E-03     260.254E-03
            1965     15.7804E-03     26.3917E-03    -8.12448E+06     123.509E+06     26.4262E+06     829.215E+03    -42.2872E-03     68.5248E-03    -26.2376E-03     255.531E-03    -48.5033E-03     75.0738E-03    -26.2728E-03     256.335E-03
            1966     14.9063E-03     26.2008E-03    -9.58024E+06     62.5942E+06    -14.2086E+06     825.024E+03    -34.8958E-03     60.8181E-03    -25.9223E-03     151.992E-03    -36.2438E-03     62.3955E-03    -26.0702E-03     151.726E-03
            1967     14.0315E-03     26.0986E-03    -9.17401E+06     8.04366E+06    -19.1909E+06     879.035E+03    -31.0042E-03     56.7745E-03    -25.7703E-03     88.8855E-03    -31.3586E-03     57.1805E-03    -25.8646E-03     88.6603E-03
            1968     13.1587E-03     26.0276E-03    -8.87274E+06    -23.6630E+06    -13.1807E+06     860.695E+03    -30.2729E-03     55.9047E-03    -25.6318E-03     75.1147E-03    -30.4358E-03     55.9903E-03    -25.6505E-03     74.9384E-03
            1969     12.2833E-03     25.9520E-03    -8.88958E+06    -38.0679E+06    -6.56299E+06     929.793E+03    -29.9717E-03     55.4311E-03    -25.4594E-03     72.0096E-03    -30.0649E-03     55.3766E-03    -25.4241E-03     71.8745E-03
            1970     11.4091E-03     25.8861E-03    -9.13458E+06    -51.7747E+06    -4.61970E+06     1.14704E+06    -29.3072E-03     54.5599E-03    -25.2527E-03     62.3227E-03    -29.3409E-03     54.3908E-03    -25.1875E-03     62.2249E-03
            1971     10.5338E-03     25.8289E-03    -9.45670E+06    -65.4100E+06    -5.25759E+06     1.31193E+06    -28.6107E-03     53.6418E-03    -25.0312E-03     55.2690E-03    -28.5997E-03     53.3804E-03    -24.9489E-03     55.2007E-03
            1972     9.65836E-03     25.7763E-03    -10.0362E+06    -73.1833E+06    -2.89339E+06     1.40245E+06    -27.9661E-03     52.7860E-03    -24.8199E-03     49.7265E-03    -27.9349E-03     52.4677E-03    -24.7137E-03     49.6800E-03
            1973     8.78231E-03     25.7294E-03    -11.0550E+06    -77.7005E+06    -1.51820E+06     1.48509E+06    -27.2830E-03     51.8890E-03    -24.6060E-03     44.2446E-03    -27.2422E-03     51.5376E-03    -24.4849E-03     44.2150E-03
            1974     7.90583E-03     25.6874E-03    -12.2945E+06    -82.5610E+06    -2.20411E+06     1.51478E+06    -26.6259E-03     51.0192E-03    -24.3933E-03     39.0303E-03    -26.5767E-03     50.6397E-03    -24.2668E-03     39.0133E-03
            1975     7.02884E-03     25.6506E-03    -13.7121E+06    -88.7962E+06    -3.44201E+06     1.57004E+06    -25.9976E-03     50.1914E-03    -24.1938E-03     34.0112E-03    -25.9403E-03     49.7802E-03    -24.0624E-03     34.0042E-03
            1976     6.15139E-03     25.6183E-03    -15.2537E+06    -94.1976E+06    -5.79080E+06     1.63796E+06    -25.4093E-03     49.4140E-03    -24.0047E-03     29.1932E-03    -25.3456E-03     48.9786E-03    -23.8750E-03     29.1940E-03
            1977     5.27350E-03     25.5909E-03    -16.8201E+06    -99.3229E+06    -8.62259E+06     1.69357E+06    -24.8810E-03     48.7134E-03    -23.8323E-03     24.5772E-03    -24.8117E-03     48.2567E-03    -23.7070E-03     24.5841E-03
            1978     4.39523E-03     25.5679E-03    -18.3785E+06    -103.070E+06    -11.5884E+06     1.54373E+06    -24.4146E-03     48.0935E-03    -23.6789E-03     20.1709E-03    -24.3421E-03     47.6235E-03    -23.5607E-03     20.1799E-03
            1979     3.51662E-03     25.5494E-03    -19.7790E+06    -104.722E+06    -15.1046E+06     1.23879E+06    -24.0180E-03     47.5614E-03    -23.5434E-03     15.9393E-03    -23.9443E-03     47.0894E-03    -23.4384E-03     15.9475E-03
            1980     2.63772E-03     25.5349E-03    -20.8971E+06    -106.398E+06    -18.3127E+06     955.868E+03    -23.7039E-03     47.1390E-03    -23.4350E-03     11.8534E-03    -23.6281E-03     46.6644E-03    -23.3420E-03     11.8604E-03
            1981     1.75860E-03     25.5248E-03    -21.7682E+06    -107.617E+06    -20.6745E+06     660.136E+03    -23.4741E-03     46.8324E-03    -23.3583E-03     7.93642E-03    -23.3972E-03     46.3561E-03    -23.2740E-03     7.94156E-03
            1982     879.323E-06     25.5184E-03    -22.2844E+06    -108.319E+06    -22.0604E+06     374.567E+03    -23.3341E-03     46.6572E-03    -23.3231E-03     4.28681E-03    -23.2565E-03     46.1800E-03    -23.2440E-03     4.28988E-03
            1983     16.6541E-03     25.6965E-03    -5.28689E+06     164.218E+06     83.7193E+06     321.532E+03    -41.7709E-03     68.4095E-03    -26.6386E-03     256.199E-03    -50.2157E-03     77.1758E-03    -26.4504E-03     260.479E-03
            1984     15.7805E-03     25.3889E-03    -8.06565E+06     123.635E+06     27.3277E+06     1.26064E+06    -42.7445E-03     68.9309E-03    -26.1864E-03     256.366E-03    -48.9631E-03     75.4806E-03    -26.2174E-03     257.141E-03
            1985     14.9074E-03     25.1979E-03    -9.61442E+06     62.8178E+06    -14.0867E+06     1.45902E+06    -35.5564E-03     61.3906E-03    -25.8342E-03     151.110E-03    -36.8914E-03     62.9553E-03    -25.9818E-03     150.836E-03
            1986     14.0352E-03     25.0968E-03    -9.15924E+06     8.09059E+06    -20.0365E+06     1.11956E+06    -31.4161E-03     57.0523E-03    -25.6362E-03     87.8681E-03    -31.7629E-03     57.4534E-03    -25.7348E-03     87.6427E-03
            1987     13.1595E-03     25.0267E-03    -8.32833E+06    -23.2041E+06    -13.2973E+06     1.02700E+06    -30.4997E-03     55.9677E-03    -25.4680E-03     74.3076E-03    -30.6577E-03     56.0523E-03    -25.4888E-03     74.1333E-03
            1988     12.2862E-03     24.9508E-03    -8.67014E+06    -38.0807E+06    -6.95872E+06     1.07449E+06    -30.1414E-03     55.4090E-03    -25.2676E-03     71.0047E-03    -30.2306E-03     55.3525E-03    -25.2346E-03     70.8720E-03
            1989     11.4113E-03     24.8864E-03    -8.96810E+06    -51.8873E+06    -5.10964E+06     1.14565E+06    -29.3632E-03     54.3982E-03    -25.0350E-03     61.2123E-03    -29.3932E-03     54.2269E-03    -24.9723E-03     61.1160E-03
            1990     10.5365E-03     24.8294E-03    -9.35987E+06    -65.4261E+06    -5.73248E+06     1.36562E+06    -28.6795E-03     53.4672E-03    -24.7877E-03     54.1663E-03    -28.6660E-03     53.2049E-03    -24.7079E-03     54.0997E-03
            1991     9.66093E-03     24.7780E-03    -9.92966E+06    -73.1870E+06    -3.30513E+06     1.60574E+06    -27.9534E-03     52.5031E-03    -24.5497E-03     48.5954E-03    -27.9200E-03     52.1842E-03    -24.4457E-03     48.5528E-03
            1992     8.78491E-03     24.7317E-03    -10.8653E+06    -77.5424E+06    -1.81113E+06     1.74323E+06    -27.2170E-03     51.5276E-03    -24.3107E-03     43.1273E-03    -27.1743E-03     51.1764E-03    -24.1916E-03     43.1022E-03
            1993     7.90833E-03     24.6907E-03    -12.1093E+06    -82.3939E+06    -2.52779E+06     1.82006E+06    -26.5019E-03     50.5753E-03    -24.0734E-03     37.9329E-03    -26.4510E-03     50.1962E-03    -23.9490E-03     37.9208E-03
            1994     7.03123E-03     24.6544E-03    -13.5953E+06    -88.6049E+06    -3.72741E+06     1.90998E+06    -25.8177E-03     49.6687E-03    -23.8510E-03     32.9655E-03    -25.7593E-03     49.2583E-03    -23.7215E-03     32.9637E-03
            1995     6.15362E-03     24.6231E-03     -15.217E+06    -93.9324E+06    -6.12366E+06     1.96690E+06    -25.1767E-03     48.8169E-03    -23.6402E-03     28.2283E-03    -25.1124E-03     48.3829E-03    -23.5125E-03     28.2341E-03
            1996     5.27553E-03     24.5963E-03    -16.7747E+06    -98.8571E+06    -8.96887E+06     1.88590E+06    -24.5963E-03     48.0445E-03    -23.4481E-03     23.7206E-03    -24.5268E-03     47.5904E-03    -23.3253E-03     23.7306E-03
            1997     4.39699E-03     24.5740E-03    -18.1533E+06    -102.373E+06    -11.6876E+06     1.67329E+06    -24.0870E-03     47.3655E-03    -23.2784E-03     19.4326E-03    -24.0142E-03     46.8986E-03    -23.1621E-03     19.4438E-03
            1998     3.51808E-03     24.5558E-03    -19.4677E+06    -104.030E+06    -15.1273E+06     1.41739E+06    -23.6510E-03     46.7800E-03    -23.1290E-03     15.3303E-03    -23.5765E-03     46.3110E-03    -23.0256E-03     15.3412E-03
            1999     2.63884E-03     24.5419E-03    -20.6332E+06    -105.699E+06    -18.3156E+06     1.17471E+06    -23.3048E-03     46.3149E-03    -23.0100E-03     11.3905E-03    -23.2287E-03     45.8434E-03    -22.9184E-03     11.4006E-03
            2000     1.75935E-03     24.5319E-03    -21.5028E+06    -106.777E+06    -20.4876E+06     871.229E+03    -23.0575E-03     45.9826E-03    -22.9251E-03     7.61841E-03    -22.9807E-03     45.5098E-03    -22.8415E-03     7.62646E-03
            2001     879.727E-06     24.5259E-03    -22.0623E+06    -107.445E+06    -21.8243E+06     482.962E+03    -22.8975E-03     45.7821E-03    -22.8845E-03     4.11894E-03    -22.8205E-03     45.3086E-03    -22.8059E-03     4.12351E-03
            2002     16.6525E-03     24.6894E-03    -5.61790E+06     163.420E+06     83.1300E+06     336.185E+03    -42.1662E-03     68.8231E-03    -26.6569E-03     254.246E-03    -50.5193E-03     77.4953E-03    -26.4700E-03     258.430E-03
            2003     15.7814E-03     24.3861E-03    -9.05598E+06     122.738E+06     27.2820E+06     688.701E+03    -44.0334E-03     70.1836E-03    -26.1502E-03     254.240E-03    -50.1868E-03     76.6615E-03    -26.1786E-03     254.905E-03
            2004     14.9092E-03     24.1932E-03    -9.59675E+06     63.4251E+06    -13.3026E+06     1.28732E+06    -36.0507E-03     61.7855E-03    -25.7348E-03     149.457E-03    -37.3715E-03     63.3360E-03    -25.8794E-03     149.164E-03
            2005     14.0353E-03     24.0958E-03    -9.42838E+06     8.54699E+06    -20.5819E+06     1.44762E+06    -31.7355E-03     57.2299E-03    -25.4944E-03     86.7494E-03    -32.0767E-03     57.6277E-03    -25.5960E-03     86.5268E-03
            2006     13.1632E-03     24.0245E-03    -9.07315E+06    -23.3224E+06    -14.3457E+06     1.19592E+06    -30.8853E-03     56.1750E-03    -25.2897E-03     73.6052E-03    -31.0438E-03     56.2602E-03    -25.3145E-03     73.4311E-03
            2007     12.2885E-03     23.9508E-03    -8.76839E+06    -37.9858E+06    -7.59263E+06     1.19110E+06    -30.3067E-03     55.3627E-03    -25.0561E-03     69.9729E-03    -30.3929E-03     55.3051E-03    -25.0262E-03     69.8427E-03
            2008     11.4142E-03     23.8861E-03    -8.94980E+06    -51.9817E+06    -5.66865E+06     1.31640E+06    -29.4752E-03     54.2700E-03    -24.7947E-03     60.1518E-03    -29.5022E-03     54.0971E-03    -24.7347E-03     60.0590E-03
            2009     10.5392E-03     23.8306E-03    -9.34750E+06    -65.5821E+06    -6.24197E+06     1.56588E+06    -28.7277E-03     53.2464E-03    -24.5187E-03     52.9239E-03    -28.7117E-03     52.9826E-03    -24.4413E-03     52.8613E-03
            2010     9.66377E-03     23.7797E-03    -9.95695E+06    -73.2190E+06    -3.86356E+06     1.80187E+06    -27.9412E-03     52.1930E-03    -24.2518E-03     47.3663E-03    -27.9060E-03     51.8737E-03    -24.1505E-03     47.3275E-03
            2011     8.78775E-03     23.7346E-03    -10.8083E+06    -77.4532E+06    -2.25617E+06     1.95985E+06    -27.1470E-03     51.1318E-03    -23.9848E-03     41.8865E-03    -27.1027E-03     50.7808E-03    -23.8681E-03     41.8655E-03
            2012     7.91111E-03     23.6942E-03    -11.9555E+06    -82.2490E+06    -2.88201E+06     2.14780E+06    -26.3634E-03     50.0841E-03    -23.7207E-03     36.7144E-03    -26.3109E-03     49.7055E-03    -23.5985E-03     36.7077E-03
            2013     7.03388E-03     23.6591E-03    -13.3499E+06    -88.4338E+06    -4.03885E+06     2.34046E+06    -25.6138E-03     49.0873E-03    -23.4735E-03     31.8087E-03    -25.5535E-03     48.6774E-03    -23.3461E-03     31.8134E-03
            2014     6.15607E-03     23.6284E-03    -14.9145E+06    -93.4817E+06    -6.37748E+06     2.38200E+06    -24.9129E-03     48.1529E-03    -23.2400E-03     27.1615E-03    -24.8472E-03     47.7208E-03    -23.1147E-03     27.1735E-03
            2015     5.27773E-03     23.6024E-03    -16.4394E+06    -98.1299E+06    -9.23801E+06     2.12691E+06    -24.2787E-03     47.3063E-03    -23.0275E-03     22.7790E-03    -24.2079E-03     46.8556E-03    -22.9076E-03     22.7927E-03
            2016     4.39890E-03     23.5806E-03    -17.8986E+06    -101.724E+06    -12.0094E+06     1.83998E+06    -23.7222E-03     46.5630E-03    -22.8408E-03     18.6258E-03    -23.6484E-03     46.0994E-03    -22.7274E-03     18.6396E-03
            2017     3.51966E-03     23.5632E-03    -19.2348E+06    -103.369E+06    -15.2336E+06     1.69478E+06    -23.2484E-03     45.9267E-03    -22.6784E-03     14.6591E-03    -23.1735E-03     45.4608E-03    -22.5768E-03     14.6740E-03
            2018     2.64005E-03     23.5496E-03    -20.3692E+06    -104.828E+06    -18.1630E+06     1.45665E+06    -22.8741E-03     45.4224E-03    -22.5483E-03     10.8816E-03    -22.7981E-03     44.9546E-03    -22.4576E-03     10.8956E-03
            2019     1.76020E-03     23.5400E-03    -21.1761E+06    -105.776E+06    -20.2548E+06     1.06960E+06    -22.6055E-03     45.0581E-03    -22.4527E-03     7.27175E-03    -22.5288E-03     44.5895E-03    -22.3699E-03     7.28256E-03
            2020     880.144E-06     23.5341E-03    -21.6094E+06    -106.336E+06    -21.4626E+06     636.720E+03    -22.4366E-03     44.8273E-03    -22.3907E-03     3.93815E-03    -22.3594E-03     44.3582E-03    -22.3125E-03     3.94481E-03
            2021     16.6533E-03     23.6843E-03    -5.50723E+06     162.954E+06     83.0060E+06     679.188E+03    -43.0935E-03     69.7240E-03    -26.6305E-03     253.148E-03    -51.3825E-03     78.3312E-03    -26.4438E-03     257.178E-03
            2022     15.7827E-03     23.3787E-03    -9.05671E+06     122.068E+06     26.6563E+06     814.649E+03    -44.6359E-03     70.7055E-03    -26.0695E-03     252.053E-03    -50.7220E-03     77.1155E-03    -26.1001E-03     252.636E-03
            2023     14.9114E-03     23.1916E-03    -9.90945E+06     63.6617E+06    -14.2597E+06     1.15226E+06    -36.4180E-03     62.0264E-03    -25.6084E-03     147.472E-03    -37.7126E-03     63.5533E-03    -25.7576E-03     147.168E-03
            2024     14.0388E-03     23.0926E-03    -9.57700E+06     9.15238E+06    -21.1520E+06     1.43511E+06    -32.0236E-03     57.3588E-03    -25.3352E-03     85.5288E-03    -32.3585E-03     57.7535E-03    -25.4403E-03     85.3049E-03
            2025     13.1644E-03     23.0232E-03    -8.76672E+06    -23.2979E+06    -14.6329E+06     1.31709E+06    -31.1437E-03     56.2444E-03    -25.1007E-03     72.4678E-03    -31.2967E-03     56.3260E-03    -25.1274E-03     72.2950E-03
            2026     12.2914E-03     22.9497E-03    -8.50022E+06    -37.9232E+06    -7.83874E+06     1.30118E+06    -30.5923E-03     55.4240E-03    -24.8317E-03     68.7886E-03    -30.6747E-03     55.3644E-03    -24.8036E-03     68.6599E-03
            2027     11.4171E-03     22.8866E-03    -8.82113E+06    -52.0774E+06    -5.98477E+06     1.51124E+06    -29.6567E-03     54.1892E-03    -24.5325E-03     58.8296E-03    -29.6803E-03     54.0141E-03    -24.4742E-03     58.7404E-03
            2028     10.5423E-03     22.8315E-03    -9.19663E+06    -65.6972E+06    -6.63127E+06     1.82000E+06    -28.7723E-03     52.9945E-03    -24.2222E-03     51.5665E-03    -28.7532E-03     52.7288E-03    -24.1468E-03     51.5088E-03
            2029     9.66696E-03     22.7820E-03    -9.75326E+06    -73.1665E+06    -4.25798E+06     2.03141E+06    -27.9349E-03     51.8583E-03    -23.9234E-03     45.9751E-03    -27.8970E-03     51.5384E-03    -23.8245E-03     45.9407E-03
            2030     8.79087E-03     22.7376E-03    -10.6568E+06    -77.4052E+06    -2.73806E+06     2.22368E+06    -27.0577E-03     50.6831E-03    -23.6253E-03     40.5088E-03    -27.0112E-03     50.3319E-03    -23.5113E-03     40.4926E-03
            2031     7.91418E-03     22.6985E-03    -11.7941E+06    -82.1727E+06    -3.33865E+06     2.45986E+06    -26.2025E-03     49.5352E-03    -23.3327E-03     35.3805E-03    -26.1479E-03     49.1568E-03    -23.2132E-03     35.3790E-03
            2032     7.03678E-03     22.6641E-03    -13.0612E+06    -88.2574E+06    -4.45787E+06     2.69347E+06    -25.3830E-03     48.4422E-03    -23.0591E-03     30.5551E-03    -25.3205E-03     48.0329E-03    -22.9345E-03     30.5654E-03
            2033     6.15877E-03     22.6345E-03    -14.3857E+06    -92.9117E+06    -6.66096E+06     2.75149E+06    -24.6176E-03     47.4195E-03    -22.8019E-03     26.0077E-03    -24.5493E-03     46.9896E-03    -22.6796E-03     26.0253E-03
            2034     5.28014E-03     22.6092E-03    -15.8777E+06    -97.3100E+06    -9.38578E+06     2.60108E+06    -23.9274E-03     46.4966E-03    -22.5692E-03     21.7485E-03    -23.8546E-03     46.0492E-03    -22.4520E-03     21.7691E-03
            2035     4.40100E-03     22.5883E-03    -17.5282E+06    -100.971E+06    -12.1830E+06     2.34406E+06    -23.3203E-03     45.6856E-03    -22.3653E-03     17.7345E-03    -23.2454E-03     45.2253E-03    -22.2543E-03     17.7554E-03
            2036     3.52137E-03     22.5713E-03    -19.0283E+06    -102.566E+06    -15.3040E+06     2.02291E+06    -22.8096E-03     44.9983E-03    -22.1887E-03     13.9301E-03    -22.7346E-03     44.5361E-03    -22.0889E-03     13.9496E-03
            2037     2.64139E-03     22.5583E-03    -20.0862E+06    -103.783E+06    -17.9240E+06     1.66282E+06    -22.4072E-03     44.4538E-03    -22.0466E-03     10.3241E-03    -22.3316E-03     43.9904E-03    -21.9566E-03     10.3411E-03
            2038     1.76109E-03     22.5490E-03    -20.8000E+06    -104.621E+06    -19.8759E+06     1.22039E+06    -22.1091E-03     44.0498E-03    -21.9407E-03     6.88709E-03    -22.0328E-03     43.5859E-03    -21.8582E-03     6.90004E-03
            2039     880.613E-06     22.5434E-03    -21.2121E+06    -104.990E+06    -20.9881E+06     728.931E+03    -21.9239E-03     43.7941E-03    -21.8702E-03     3.72445E-03    -21.8474E-03     43.3304E-03    -21.7921E-03     3.73241E-03
            2040     16.6550E-03     22.6771E-03    -5.11304E+06     162.890E+06     83.2098E+06     933.835E+03    -44.0800E-03     70.6682E-03    -26.5881E-03     252.889E-03    -52.2951E-03     79.2020E-03    -26.4009E-03     256.773E-03
            2041     15.7843E-03     22.3736E-03    -8.31755E+06     121.994E+06     26.6959E+06     1.34315E+06    -45.1018E-03     71.0837E-03    -25.9819E-03     250.556E-03    -51.0915E-03     77.3996E-03    -26.0133E-03     251.072E-03
            2042     14.9128E-03     22.1869E-03    -9.69550E+06     63.1833E+06    -15.1807E+06     1.40409E+06    -36.9588E-03     62.4357E-03    -25.4769E-03     145.693E-03    -38.2213E-03     63.9322E-03    -25.6304E-03     145.382E-03
            2043     14.0405E-03     22.0907E-03    -9.13031E+06     9.44501E+06    -21.6917E+06     1.34790E+06    -32.5273E-03     57.6860E-03    -25.1586E-03     84.1642E-03    -32.8529E-03     58.0756E-03    -25.2675E-03     83.9355E-03
            2044     13.1681E-03     22.0215E-03    -8.28790E+06    -22.8315E+06    -14.8929E+06     1.30832E+06    -31.4042E-03     56.2898E-03    -24.8856E-03     71.2142E-03    -31.5503E-03     56.3686E-03    -24.9149E-03     71.0421E-03
            2045     12.2942E-03     21.9488E-03    -8.11652E+06    -38.0316E+06    -8.29226E+06     1.49725E+06    -30.8492E-03     55.4290E-03    -24.5799E-03     67.3314E-03    -30.9261E-03     55.3663E-03    -24.5544E-03     67.2056E-03
            2046     11.4205E-03     21.8868E-03    -8.45616E+06    -52.2128E+06    -6.32046E+06     1.80172E+06    -29.8330E-03     54.0752E-03    -24.2421E-03     57.2078E-03    -29.8519E-03     53.8971E-03    -24.1858E-03     57.1235E-03
            2047     10.5458E-03     21.8331E-03    -8.91080E+06    -65.6916E+06    -7.01760E+06     2.07211E+06    -28.8387E-03     52.7327E-03    -23.8941E-03     50.0649E-03    -28.8159E-03     52.4655E-03    -23.8210E-03     50.0120E-03
            2048     9.67041E-03     21.7843E-03    -9.43238E+06    -73.1626E+06    -4.66689E+06     2.32618E+06    -27.9021E-03     51.4630E-03    -23.5609E-03     44.4513E-03    -27.8608E-03     51.1420E-03    -23.4644E-03     44.4223E-03
            2049     8.79437E-03     21.7413E-03    -10.2948E+06    -77.3236E+06    -3.17588E+06     2.58308E+06    -26.9418E-03     50.1728E-03    -23.2309E-03     39.0119E-03    -26.8921E-03     49.8212E-03    -23.1198E-03     39.0017E-03
            2050     7.91750E-03     21.7031E-03    -11.4473E+06    -82.1493E+06    -3.86778E+06     2.87368E+06    -26.0085E-03     48.9173E-03    -22.9089E-03     33.9516E-03    -25.9508E-03     48.5386E-03    -22.7925E-03     33.9567E-03
            2051     7.03996E-03     21.6699E-03    -12.7609E+06    -87.9227E+06    -4.88784E+06     3.06231E+06    -25.1239E-03     47.7323E-03    -22.6085E-03     29.2055E-03    -25.0593E-03     47.3245E-03    -22.4869E-03     29.2216E-03
            2052     6.16168E-03     21.6412E-03    -14.1648E+06    -92.4281E+06    -7.18587E+06     3.13032E+06    -24.2931E-03     46.6191E-03    -22.3260E-03     24.7699E-03    -24.2233E-03     46.1918E-03    -22.2074E-03     24.7933E-03
            2053     5.28277E-03     21.6169E-03    -15.6063E+06    -96.6242E+06    -9.75341E+06     3.21966E+06    -23.5428E-03     45.6147E-03    -22.0719E-03     20.6414E-03    -23.4689E-03     45.1707E-03    -21.9580E-03     20.6707E-03
            2054     4.40325E-03     21.5967E-03    -17.1529E+06    -99.8939E+06    -12.0289E+06     3.00224E+06    -22.8864E-03     44.7374E-03    -21.8510E-03     16.7782E-03    -22.8112E-03     44.2816E-03    -21.7415E-03     16.8082E-03
            2055     3.52325E-03     21.5805E-03    -18.5789E+06    -101.377E+06    -14.9619E+06     2.43757E+06    -22.3335E-03     43.9925E-03    -21.6590E-03     13.1449E-03    -22.2585E-03     43.5350E-03    -21.5599E-03     13.1702E-03
            2056     2.64282E-03     21.5679E-03    -19.6866E+06    -102.597E+06    -17.5469E+06     1.83026E+06    -21.8939E-03     43.3984E-03    -21.5045E-03     9.72549E-03    -21.8185E-03     42.9398E-03    -21.4149E-03     9.74492E-03
            2057     1.76209E-03     21.5591E-03    -20.4224E+06    -103.276E+06    -19.2915E+06     1.27138E+06    -21.5691E-03     42.9600E-03    -21.3909E-03     6.47768E-03    -21.4937E-03     42.5014E-03    -21.3080E-03     6.49149E-03
            2058     881.086E-06     21.5537E-03    -20.8302E+06    -103.568E+06    -20.5057E+06     703.923E+03    -21.3726E-03     42.6858E-03    -21.3132E-03     3.50814E-03    -21.2969E-03     42.2280E-03    -21.2353E-03     3.51587E-03
            2059     16.6542E-03     21.6678E-03    -4.93369E+06     162.226E+06     83.3512E+06     1.00418E+06    -45.0299E-03     71.5835E-03    -26.5535E-03     251.756E-03    -53.1537E-03     80.0240E-03    -26.3649E-03     255.503E-03
            2060     15.7854E-03     21.3675E-03    -7.78469E+06     122.073E+06     27.9352E+06     1.44189E+06    -45.8025E-03     71.6959E-03    -25.8934E-03     247.857E-03    -51.6736E-03     77.8917E-03    -25.9194E-03     248.310E-03
            2061     14.9150E-03     21.1825E-03    -8.58247E+06     63.5468E+06    -14.7916E+06     1.67820E+06    -37.4930E-03     62.8228E-03    -25.3298E-03     143.230E-03    -38.7215E-03     64.2894E-03    -25.4834E-03     142.908E-03
            2062     14.0437E-03     21.0875E-03    -8.22369E+06     9.84425E+06    -22.2223E+06     1.50307E+06    -32.9914E-03     57.9513E-03    -24.9599E-03     82.0781E-03    -33.3043E-03     58.3344E-03    -25.0734E-03     81.8480E-03
            2063     13.1706E-03     21.0200E-03    -7.97280E+06    -22.9650E+06    -15.4845E+06     1.41540E+06    -31.8188E-03     56.4608E-03    -24.6419E-03     69.8627E-03    -31.9589E-03     56.5360E-03    -24.6745E-03     69.6907E-03
            2064     12.2979E-03     20.9478E-03    -7.96987E+06    -38.1140E+06    -8.79172E+06     1.71473E+06    -31.0656E-03     55.3596E-03    -24.2941E-03     65.7544E-03    -31.1377E-03     55.2937E-03    -24.2712E-03     65.6326E-03
            2065     11.4241E-03     20.8872E-03    -8.23693E+06    -52.2952E+06    -6.77635E+06     2.10523E+06    -29.9458E-03     53.8641E-03    -23.9183E-03     55.4297E-03    -29.9603E-03     53.6834E-03    -23.8645E-03     55.3510E-03
            2066     10.5496E-03     20.8346E-03    -8.59678E+06    -65.7175E+06    -7.47609E+06     2.37964E+06    -28.8880E-03     52.4209E-03    -23.5329E-03     48.3946E-03    -28.8612E-03     52.1520E-03    -23.4625E-03     48.3473E-03
            2067     9.67428E-03     20.7873E-03    -9.10558E+06    -73.1356E+06    -5.08621E+06     2.63709E+06    -27.8395E-03     51.0041E-03    -23.1646E-03     42.8238E-03    -27.7946E-03     50.6821E-03    -23.0708E-03     42.8005E-03
            2068     8.79809E-03     20.7453E-03    -9.88683E+06    -77.3512E+06    -3.54251E+06     2.96140E+06    -26.7949E-03     49.5978E-03    -22.8029E-03     37.4077E-03    -26.7416E-03     49.2451E-03    -22.6942E-03     37.4039E-03
            2069     7.92115E-03     20.7085E-03    -10.9040E+06    -82.1035E+06    -4.27927E+06     3.33367E+06    -25.7873E-03     48.2379E-03    -22.4507E-03     32.4237E-03    -25.7257E-03     47.8586E-03    -22.3372E-03     32.4361E-03
            2070     7.04335E-03     20.6763E-03    -12.1220E+06    -87.4784E+06    -5.22922E+06     3.57707E+06    -24.8318E-03     46.9543E-03    -22.1225E-03     27.7691E-03    -24.7637E-03     46.5478E-03    -22.0043E-03     27.7930E-03
            2071     6.16484E-03     20.6488E-03    -13.5768E+06    -92.0395E+06    -6.91168E+06     3.74067E+06    -23.9402E-03     45.7583E-03    -21.8181E-03     23.4510E-03    -23.8681E-03     45.3313E-03    -21.6996E-03     23.4832E-03
            2072     5.28558E-03     20.6255E-03    -15.1716E+06    -95.9430E+06    -9.32494E+06     3.87055E+06    -23.1290E-03     44.6707E-03    -21.5418E-03     19.4664E-03    -23.0543E-03     44.2287E-03    -21.4273E-03     19.5048E-03
            2073     4.40570E-03     20.6062E-03    -16.6056E+06    -98.4234E+06    -11.6937E+06     3.50535E+06    -22.4190E-03     43.7182E-03    -21.2991E-03     15.7744E-03    -22.3436E-03     43.2683E-03    -21.1908E-03     15.8115E-03
            2074     3.52526E-03     20.5906E-03    -17.8485E+06    -99.9428E+06    -14.3677E+06     2.83073E+06    -21.8230E-03     42.9142E-03    -21.0912E-03     12.3195E-03    -21.7472E-03     42.4619E-03    -20.9923E-03     12.3503E-03
            2075     2.64437E-03     20.5787E-03    -18.9735E+06    -101.071E+06    -16.8264E+06     2.14273E+06    -21.3432E-03     42.2670E-03    -20.9238E-03     9.08251E-03    -21.2675E-03     41.8139E-03    -20.8339E-03     9.10629E-03
            2076     1.76309E-03     20.5702E-03    -19.8733E+06    -101.798E+06    -18.7584E+06     1.32318E+06    -20.9908E-03     41.7916E-03    -20.8008E-03     6.02875E-03    -20.9155E-03     41.3387E-03    -20.7181E-03     6.04342E-03
            2077     881.629E-06     20.5652E-03    -20.3628E+06    -102.172E+06    -20.0975E+06     672.707E+03    -20.7723E-03     41.4979E-03    -20.7256E-03     3.27645E-03    -20.6969E-03     41.0458E-03    -20.6484E-03     3.28388E-03
            2078     16.6564E-03     20.6586E-03    -5.02889E+06     161.336E+06     82.9205E+06     777.265E+03    -46.3097E-03     72.8051E-03    -26.4954E-03     249.323E-03    -54.3021E-03     81.1120E-03    -26.3074E-03     252.848E-03
            2079     15.7877E-03     20.3607E-03    -8.28708E+06     121.507E+06     27.9070E+06     1.39999E+06    -46.4744E-03     72.2415E-03    -25.7672E-03     244.942E-03    -52.2498E-03     78.3381E-03    -25.7918E-03     245.324E-03
            2080     14.9181E-03     20.1772E-03    -8.71799E+06     64.2423E+06    -15.2386E+06     1.82639E+06    -38.0080E-03     63.1516E-03    -25.1436E-03     140.485E-03    -39.2050E-03     64.5901E-03    -25.3003E-03     140.152E-03
            2081     14.0463E-03     20.0849E-03    -8.25666E+06     10.6939E+06    -23.2102E+06     1.68264E+06    -33.3726E-03     58.0959E-03    -24.7234E-03     79.9876E-03    -33.6753E-03     58.4747E-03    -24.8430E-03     79.7587E-03
            2082     13.1748E-03     20.0177E-03    -7.82068E+06    -23.1056E+06    -16.1487E+06     1.62854E+06    -32.1657E-03     56.5296E-03    -24.3640E-03     68.0204E-03    -32.2989E-03     56.6000E-03    -24.3999E-03     67.8508E-03
            2083     12.3018E-03     19.9472E-03    -7.66632E+06    -38.3760E+06    -9.28059E+06     2.00799E+06    -31.2389E-03     55.2138E-03    -23.9749E-03     63.9647E-03    -31.3046E-03     55.1430E-03    -23.9545E-03     63.8484E-03
            2084     11.4282E-03     19.8878E-03    -7.97318E+06    -52.3975E+06    -7.09381E+06     2.45927E+06    -30.0231E-03     53.5852E-03    -23.5621E-03     53.6282E-03    -30.0329E-03     53.4013E-03    -23.5100E-03     53.5561E-03
            2085     10.5537E-03     19.8366E-03    -8.30458E+06    -65.5935E+06    -7.80369E+06     2.68348E+06    -28.8854E-03     52.0254E-03    -23.1400E-03     46.5859E-03    -28.8550E-03     51.7553E-03    -23.0718E-03     46.5445E-03
            2086     9.67838E-03     19.7906E-03    -8.69662E+06    -73.1959E+06    -5.39892E+06     2.91223E+06    -27.7489E-03     50.4861E-03    -22.7372E-03     41.0769E-03    -27.7001E-03     50.1623E-03    -22.6454E-03     41.0590E-03
            2087     8.80217E-03     19.7501E-03    -9.35939E+06    -77.4001E+06    -3.75091E+06     3.31201E+06    -26.6189E-03     48.9624E-03    -22.3435E-03     35.7205E-03    -26.5615E-03     48.6080E-03    -22.2365E-03     35.7230E-03
            2088     7.92501E-03     19.7145E-03    -10.2477E+06    -82.0885E+06    -4.43811E+06     3.74718E+06    -25.5378E-03     47.4990E-03    -21.9612E-03     30.8106E-03    -25.4720E-03     47.1184E-03    -21.8495E-03     30.8298E-03
            2089     7.04702E-03     19.6837E-03    -11.3172E+06    -87.0951E+06    -5.41278E+06     4.11154E+06    -24.5111E-03     46.1155E-03    -21.6044E-03     26.2613E-03    -24.4387E-03     45.7096E-03    -21.4888E-03     26.2933E-03
            2090     6.16816E-03     19.6572E-03    -12.6632E+06    -91.7282E+06    -6.20212E+06     4.47529E+06    -23.5590E-03     44.8377E-03    -21.2788E-03     22.0586E-03    -23.4835E-03     44.4097E-03    -21.1584E-03     22.1013E-03
            2091     5.28859E-03     19.6350E-03    -14.2049E+06    -94.9206E+06    -8.10827E+06     4.54207E+06    -22.6900E-03     43.6700E-03    -20.9800E-03     18.2150E-03    -22.6135E-03     43.2296E-03    -20.8623E-03     18.2629E-03
            2092     4.40828E-03     19.6166E-03    -15.7015E+06    -96.6927E+06    -11.2151E+06     3.98489E+06    -21.9203E-03     42.6321E-03    -20.7119E-03     14.7008E-03    -21.8434E-03     42.1888E-03    -20.6050E-03     14.7446E-03
            2093     3.52739E-03     19.6019E-03    -16.9658E+06    -98.3652E+06    -14.0020E+06     3.24107E+06    -21.2737E-03     41.7607E-03    -20.4870E-03     11.4378E-03    -21.1962E-03     41.3144E-03    -20.3898E-03     11.4743E-03
            2094     2.64600E-03     19.5906E-03    -17.9782E+06    -99.2688E+06    -16.1204E+06     2.48139E+06    -20.7584E-03     41.0668E-03    -20.3084E-03     8.41608E-03    -20.6813E-03     40.6202E-03    -20.2190E-03     8.44456E-03
            2095     1.76426E-03     19.5827E-03    -18.8127E+06    -100.045E+06    -17.9328E+06     1.62403E+06    -20.3854E-03     40.5610E-03    -20.1756E-03     5.57822E-03    -20.3085E-03     40.1141E-03    -20.0929E-03     5.59697E-03
            2096     882.176E-06     19.5778E-03    -19.4805E+06    -100.652E+06    -19.3298E+06     826.270E+03    -20.1392E-03     40.2385E-03    -20.0992E-03     3.01305E-03    -20.0627E-03     39.7915E-03    -20.0217E-03     3.02257E-03
            2097     16.6575E-03     19.6502E-03    -5.08716E+06     160.838E+06     82.9047E+06     649.995E+03    -47.6808E-03     74.1154E-03    -26.4346E-03     246.880E-03    -55.5111E-03     82.2583E-03    -26.2459E-03     250.165E-03
            2098     15.7899E-03     19.3514E-03    -8.66831E+06     120.954E+06     27.9141E+06     1.82767E+06    -47.4271E-03     73.0608E-03    -25.6337E-03     243.011E-03    -53.1218E-03     79.0733E-03    -25.6569E-03     243.309E-03
            2099     14.9212E-03     19.1730E-03    -10.1321E+06     64.2836E+06    -16.2361E+06     2.02424E+06    -38.8128E-03     63.7504E-03    -24.9377E-03     137.595E-03    -39.9777E-03     65.1548E-03    -25.0974E-03     137.246E-03
            2100     14.0506E-03     19.0810E-03    -9.24885E+06     11.7185E+06    -24.1296E+06     1.52316E+06    -33.8765E-03     58.3308E-03    -24.4543E-03     77.7272E-03    -34.1720E-03     58.7051E-03    -24.5785E-03     77.4948E-03
            2101     13.1786E-03     19.0161E-03    -8.15057E+06    -23.2242E+06    -17.0378E+06     1.49147E+06    -32.3642E-03     56.4145E-03    -24.0503E-03     66.1783E-03    -32.4915E-03     56.4799E-03    -24.0900E-03     66.0090E-03
            2102     12.3060E-03     18.9465E-03    -7.71048E+06    -39.1187E+06    -10.0845E+06     2.15495E+06    -31.3933E-03     55.0168E-03    -23.6234E-03     62.1364E-03    -31.4530E-03     54.9395E-03    -23.6060E-03     62.0243E-03
            2103     11.4326E-03     18.8887E-03    -7.69282E+06    -52.3602E+06    -7.27622E+06     2.76956E+06    -30.0891E-03     53.2620E-03    -23.1729E-03     51.5988E-03    -30.0942E-03     53.0751E-03    -23.1222E-03     51.5332E-03
            2104     10.5582E-03     18.8390E-03    -7.86281E+06    -65.4120E+06    -7.94779E+06     2.92850E+06    -28.8333E-03     51.5471E-03    -22.7138E-03     44.6151E-03    -28.7986E-03     51.2754E-03    -22.6473E-03     44.5793E-03
            2105     9.68283E-03     18.7945E-03    -8.16175E+06    -73.2441E+06    -5.66714E+06     3.18986E+06    -27.6205E-03     49.8971E-03    -22.2767E-03     39.1538E-03    -27.5670E-03     49.5712E-03    -22.1870E-03     39.1417E-03
            2106     8.80644E-03     18.7554E-03    -8.77195E+06    -77.5376E+06    -3.98407E+06     3.65257E+06    -26.4148E-03     48.2656E-03    -21.8508E-03     33.8702E-03    -26.3530E-03     47.9089E-03    -21.7456E-03     33.8790E-03
            2107     7.92914E-03     18.7213E-03    -9.69175E+06    -82.1104E+06    -4.54714E+06     4.22782E+06    -25.2604E-03     46.6986E-03    -21.4382E-03     29.0321E-03    -25.1908E-03     46.3164E-03    -21.3278E-03     29.0591E-03
            2108     7.05085E-03     18.6918E-03    -10.9271E+06    -86.9009E+06    -5.58241E+06     4.78877E+06    -24.1650E-03     45.2170E-03    -21.0520E-03     24.5858E-03    -24.0902E-03     44.8112E-03    -20.9381E-03     24.6279E-03
            2109     6.17173E-03     18.6666E-03    -12.2885E+06    -91.1831E+06    -6.61384E+06     5.09716E+06    -23.1458E-03     43.8436E-03    -20.6977E-03     20.5209E-03    -23.0683E-03     43.4179E-03    -20.5807E-03     20.5727E-03
            2110     5.29175E-03     18.6455E-03    -13.5009E+06    -93.6521E+06    -8.11277E+06     4.98406E+06    -22.2144E-03     42.5895E-03    -20.3751E-03     16.8338E-03    -22.1360E-03     42.1543E-03    -20.2603E-03     16.8882E-03
            2111     4.41104E-03     18.6282E-03    -14.6624E+06    -94.9317E+06    -10.7317E+06     4.55229E+06    -21.3860E-03     41.4731E-03    -20.0871E-03     13.5112E-03    -21.3070E-03     41.0362E-03    -19.9818E-03     13.5630E-03
            2112     3.52966E-03     18.6143E-03    -15.8536E+06    -96.4466E+06    -13.6112E+06     3.78746E+06    -20.6865E-03     40.5313E-03    -19.8448E-03     10.4653E-03    -20.6067E-03     40.0923E-03    -19.7500E-03     10.5094E-03
            2113     2.64771E-03     18.6038E-03    -16.8245E+06    -97.2980E+06    -15.5356E+06     2.85802E+06    -20.1337E-03     39.7890E-03    -19.6553E-03     7.67057E-03    -20.0545E-03     39.3497E-03    -19.5675E-03     7.70425E-03
            2114     1.76534E-03     18.5962E-03    -17.5410E+06    -98.0633E+06    -16.9558E+06     1.99715E+06    -19.7399E-03     39.2560E-03    -19.5162E-03     5.07166E-03    -19.6609E-03     38.8158E-03    -19.4333E-03     5.09544E-03
            2115     882.790E-06     18.5917E-03    -17.9854E+06    -98.6360E+06    -17.9696E+06     1.14489E+06    -19.4857E-03     38.9163E-03    -19.4306E-03     2.71647E-03    -19.4066E-03     38.4753E-03    -19.3514E-03     2.73022E-03
            2116     16.6579E-03     18.6382E-03    -5.50794E+06     159.397E+06     81.5644E+06     800.914E+03    -49.2653E-03     75.6603E-03    -26.3950E-03     244.591E-03    -56.9427E-03     83.6475E-03    -26.2103E-03     247.629E-03
            2117     15.7917E-03     18.3427E-03    -9.04277E+06     120.206E+06     28.3527E+06     2.13687E+06    -49.1502E-03     74.6454E-03    -25.4952E-03     239.019E-03    -54.7022E-03     80.5100E-03    -25.5147E-03     239.159E-03
            2118     14.9242E-03     18.1657E-03    -9.61799E+06     65.6688E+06    -14.8083E+06     2.12561E+06    -39.5547E-03     64.2577E-03    -24.7030E-03     133.170E-03    -40.6678E-03     65.6129E-03    -24.8583E-03     132.805E-03
            2119     14.0548E-03     18.0780E-03    -8.82837E+06     12.4804E+06    -24.7771E+06     1.44618E+06    -34.1443E-03     58.2971E-03    -24.1528E-03     74.8736E-03    -34.4229E-03     58.6607E-03    -24.2820E-03     74.6425E-03
            2120     13.1831E-03     18.0143E-03    -8.09305E+06    -23.5917E+06    -17.9101E+06     1.50236E+06    -32.6032E-03     56.3113E-03    -23.7081E-03     64.3805E-03    -32.7227E-03     56.3704E-03    -23.7517E-03     64.2134E-03
            2121     12.3108E-03     17.9460E-03    -7.78355E+06    -39.9617E+06    -11.2923E+06     2.05304E+06    -31.6200E-03     54.8556E-03    -23.2356E-03     60.0001E-03    -31.6729E-03     54.7718E-03    -23.2229E-03     59.8887E-03
            2122     11.4375E-03     17.8899E-03    -7.43275E+06    -52.5129E+06    -7.85420E+06     2.73266E+06    -30.1077E-03     52.8514E-03    -22.7437E-03     49.3070E-03    -30.1071E-03     52.6608E-03    -22.6960E-03     49.2441E-03
            2123     10.5631E-03     17.8418E-03    -7.39930E+06    -65.2711E+06    -8.13961E+06     3.21480E+06    -28.7461E-03     50.9952E-03    -22.2490E-03     42.4723E-03    -28.7067E-03     50.7214E-03    -22.1844E-03     42.4431E-03
            2124     9.68762E-03     17.7989E-03    -7.75904E+06    -73.2616E+06    -6.05606E+06     3.51336E+06    -27.4665E-03     49.2429E-03    -21.7763E-03     37.0294E-03    -27.4088E-03     48.9151E-03    -21.6891E-03     37.0240E-03
            2125     8.81115E-03     17.7614E-03    -8.36437E+06    -77.7501E+06    -4.32320E+06     4.01648E+06    -26.1842E-03     47.5011E-03    -21.3169E-03     31.8027E-03    -26.1183E-03     47.1420E-03    -21.2136E-03     31.8184E-03
            2126     7.93360E-03     17.7288E-03    -9.27041E+06    -82.3933E+06    -4.78167E+06     4.84447E+06    -24.9544E-03     45.8268E-03    -20.8724E-03     27.0485E-03    -24.8812E-03     45.4421E-03    -20.7634E-03     27.0853E-03
            2127     7.05509E-03     17.7008E-03    -10.3756E+06    -86.6314E+06    -5.73232E+06     5.54143E+06    -23.7819E-03     44.2372E-03    -20.4553E-03     22.7257E-03    -23.7039E-03     43.8315E-03    -20.3433E-03     22.7790E-03
            2128     6.17557E-03     17.6770E-03    -11.4823E+06    -90.1881E+06     -6.9165E+06     5.61684E+06    -22.6862E-03     42.7577E-03    -20.0716E-03     18.8328E-03    -22.6052E-03     42.3359E-03    -19.9587E-03     18.8925E-03
            2129     5.29519E-03     17.6572E-03    -12.5852E+06    -92.3624E+06    -8.49434E+06     5.37717E+06    -21.6885E-03     41.4130E-03    -19.7245E-03     15.3407E-03    -21.6066E-03     40.9832E-03    -19.6148E-03     15.4011E-03
            2130     4.41398E-03     17.6409E-03    -13.6960E+06    -93.2833E+06    -10.4493E+06     5.06795E+06    -20.8050E-03     40.2243E-03    -19.4193E-03     12.2242E-03    -20.7239E-03     39.7937E-03    -19.3164E-03     12.2833E-03
            2131     3.53205E-03     17.6280E-03    -14.7132E+06    -94.1831E+06    -12.7588E+06     4.38931E+06    -20.0606E-03     39.2226E-03    -19.1620E-03     9.41700E-03    -19.9796E-03     38.7920E-03    -19.0679E-03     9.46936E-03
            2132     2.64959E-03     17.6181E-03    -15.6184E+06    -95.0596E+06    -14.7202E+06     3.37422E+06    -19.4719E-03     38.4305E-03    -18.9586E-03     6.87268E-03    -19.3910E-03     37.9994E-03    -18.8718E-03     6.91336E-03
            2133     1.76667E-03     17.6112E-03    -16.2645E+06    -95.7836E+06    -15.9031E+06     2.33723E+06    -19.0459E-03     37.8580E-03    -18.8121E-03     4.52927E-03    -18.9654E-03     37.4258E-03    -18.7291E-03     4.55765E-03
            2134     883.374E-06     17.6070E-03    -16.6375E+06    -96.1693E+06    -16.5500E+06     1.30703E+06    -18.7839E-03     37.5050E-03    -18.7211E-03     2.39517E-03    -18.7037E-03     37.0723E-03    -18.6403E-03     2.41113E-03
            2135     16.6568E-03     17.6219E-03    -5.56526E+06     158.403E+06     80.4064E+06     1.15348E+06    -51.4842E-03     77.7989E-03    -26.3147E-03     241.186E-03    -58.9573E-03     85.5814E-03    -26.1343E-03     243.915E-03
            2136     15.7959E-03     17.3311E-03    -8.70200E+06     119.794E+06     28.8350E+06     1.47757E+06    -50.6667E-03     75.9553E-03    -25.2886E-03     232.264E-03    -55.9742E-03     81.5739E-03    -25.3055E-03     232.219E-03
            2137     14.9300E-03     17.1596E-03    -8.41982E+06     66.2642E+06    -13.5371E+06     1.81496E+06    -39.6957E-03     64.1069E-03    -24.4113E-03     128.146E-03    -40.7435E-03     65.3996E-03    -24.5628E-03     127.775E-03
            2138     14.0592E-03     17.0750E-03    -7.70941E+06     12.9359E+06    -25.3055E+06     2.14959E+06    -34.2238E-03     58.0385E-03    -23.8147E-03     72.0171E-03    -34.4812E-03     58.3879E-03    -23.9488E-03     71.8001E-03
            2139     13.1878E-03     17.0123E-03    -7.78159E+06    -23.3468E+06    -18.7049E+06     2.00430E+06    -32.9389E-03     56.2675E-03    -23.3286E-03     62.3442E-03    -33.0501E-03     56.3225E-03    -23.3770E-03     62.1850E-03
            2140     12.3160E-03     16.9455E-03    -7.52050E+06    -40.3747E+06    -12.4938E+06     2.07887E+06    -31.7789E-03     54.5854E-03    -22.8065E-03     57.5306E-03    -31.8230E-03     54.4957E-03    -22.7995E-03     57.4225E-03
            2141     11.4429E-03     16.8916E-03    -7.42686E+06    -53.1444E+06    -8.81937E+06     2.72662E+06    -30.1044E-03     52.3777E-03    -22.2733E-03     46.8626E-03    -30.0977E-03     52.1816E-03    -22.2296E-03     46.8032E-03
            2142     10.5684E-03     16.8452E-03    -7.47691E+06    -65.2448E+06    -8.53733E+06     3.42772E+06    -28.6625E-03     50.4037E-03    -21.7412E-03     40.1753E-03    -28.6203E-03     50.1282E-03    -21.6784E-03     40.1521E-03
            2143     9.69292E-03     16.8041E-03    -7.66769E+06    -73.2718E+06    -6.42592E+06     3.84522E+06    -27.3008E-03     48.5305E-03    -21.2297E-03     34.7047E-03    -27.2402E-03     48.2013E-03    -21.1445E-03     34.7064E-03
            2144     8.81625E-03     16.7682E-03    -8.24513E+06    -78.0199E+06    -4.59466E+06     4.42228E+06    -25.9274E-03     46.6614E-03    -20.7340E-03     29.5325E-03    -25.8588E-03     46.2999E-03    -20.6319E-03     29.5558E-03
            2145     7.93850E-03     16.7373E-03    -8.91220E+06    -82.8080E+06    -4.89070E+06     5.25987E+06    -24.6019E-03     44.8579E-03    -20.2560E-03     24.8852E-03    -24.5253E-03     44.4699E-03    -20.1475E-03     24.9293E-03
            2146     7.05962E-03     16.7108E-03    -9.49975E+06    -86.2460E+06    -5.78640E+06     5.95880E+06    -23.3391E-03     43.1463E-03    -19.8072E-03     20.7158E-03    -23.2567E-03     42.7408E-03    -19.6973E-03     20.7762E-03
            2147     6.17973E-03     16.6885E-03    -10.2955E+06    -89.0386E+06    -6.74313E+06     6.15697E+06    -22.1594E-03     41.5572E-03    -19.3978E-03     17.0166E-03    -22.0740E-03     41.1388E-03    -19.2875E-03     17.0846E-03
            2148     5.29884E-03     16.6700E-03    -11.4285E+06    -91.0556E+06    -8.23072E+06     6.04682E+06    -21.0940E-03     40.1249E-03    -19.0309E-03     13.7580E-03    -21.0084E-03     39.6993E-03    -18.9234E-03     13.8281E-03
            2149     4.41711E-03     16.6549E-03    -12.5807E+06    -91.4394E+06    -10.0328E+06     5.62451E+06    -20.1633E-03     38.8729E-03    -18.7097E-03     10.8933E-03    -20.0797E-03     38.4492E-03    -18.6090E-03     10.9603E-03
            2150     3.53465E-03     16.6430E-03    -13.5222E+06    -91.8900E+06    -11.8147E+06     4.88064E+06    -19.3827E-03     37.8239E-03    -18.4412E-03     8.35789E-03    -19.3003E-03     37.4015E-03    -18.3474E-03     8.41707E-03
            2151     2.65151E-03     16.6339E-03    -14.2684E+06    -92.4621E+06    -13.4844E+06     3.94558E+06    -18.7662E-03     36.9946E-03    -18.2284E-03     6.08303E-03    -18.6841E-03     36.5727E-03    -18.1411E-03     6.13141E-03
            2152     1.76793E-03     16.6275E-03    -14.9446E+06    -93.0700E+06    -14.7191E+06     2.76442E+06    -18.3176E-03     36.3922E-03    -18.0746E-03     4.00646E-03    -18.2361E-03     35.9699E-03    -17.9916E-03     4.04056E-03
            2153     884.084E-06     16.6237E-03    -15.3676E+06    -93.3741E+06    -15.4003E+06     1.48059E+06    -18.0566E-03     36.0253E-03    -17.9687E-03     2.11672E-03    -17.9757E-03     35.6031E-03    -17.8881E-03     2.13502E-03
            2154     16.6623E-03     16.6037E-03    -4.39820E+06     158.258E+06     80.9345E+06     1.13507E+06    -54.0217E-03     80.1748E-03    -26.1531E-03     237.019E-03    -61.2236E-03     87.6886E-03    -25.9715E-03     239.397E-03
            2155     15.8008E-03     16.3186E-03    -6.74693E+06     119.909E+06     29.4915E+06     1.44709E+06    -50.7764E-03     75.7980E-03    -25.0216E-03     225.862E-03    -55.8018E-03     81.1400E-03    -25.0382E-03     225.746E-03
            2156     14.9339E-03     16.1540E-03    -8.72195E+06     65.6287E+06    -14.8710E+06     2.32765E+06    -39.8271E-03     63.9199E-03    -24.0928E-03     123.803E-03    -40.8139E-03     65.1522E-03    -24.2497E-03     123.441E-03
            2157     14.0644E-03     16.0720E-03    -8.70630E+06     13.4899E+06    -26.8455E+06     2.72117E+06    -34.6767E-03     58.1228E-03    -23.4461E-03     69.6347E-03    -34.9252E-03     58.4663E-03    -23.5873E-03     69.4256E-03
            2158     13.1937E-03     16.0102E-03    -7.51378E+06    -22.8209E+06    -19.4539E+06     2.37466E+06    -33.2342E-03     56.1430E-03    -22.9088E-03     60.1977E-03    -33.3368E-03     56.1944E-03    -22.9621E-03     60.0456E-03
            2159     12.3218E-03     15.9456E-03    -7.28991E+06    -40.5204E+06    -13.0765E+06     2.51860E+06    -31.8686E-03     54.2094E-03    -22.3408E-03     54.8959E-03    -31.9045E-03     54.1136E-03    -22.3368E-03     54.7976E-03
            2160     11.4486E-03     15.8937E-03    -7.56702E+06    -53.5909E+06    -9.38285E+06     3.01296E+06    -30.1389E-03     51.9024E-03    -21.7635E-03     44.2635E-03    -30.1274E-03     51.7011E-03    -21.7218E-03     44.2116E-03
            2161     10.5743E-03     15.8492E-03    -7.68886E+06    -65.3726E+06    -8.90667E+06     3.51340E+06    -28.6261E-03     49.8114E-03    -21.1853E-03     37.6365E-03    -28.5816E-03     49.5335E-03    -21.1239E-03     37.6177E-03
            2162     9.69869E-03     15.8098E-03    -7.75674E+06    -73.3971E+06    -6.72722E+06     4.07433E+06    -27.1357E-03     47.7643E-03    -20.6286E-03     32.1148E-03    -27.0730E-03     47.4331E-03    -20.5446E-03     32.1224E-03
            2163     8.82191E-03     15.7759E-03    -8.14659E+06    -78.3096E+06    -4.68642E+06     4.78760E+06    -25.6337E-03     45.7266E-03    -20.0929E-03     26.9926E-03    -25.5628E-03     45.3624E-03    -19.9909E-03     27.0232E-03
            2164     7.94385E-03     15.7467E-03    -8.81426E+06    -82.9727E+06    -4.79263E+06     5.49640E+06    -24.1840E-03     43.7644E-03    -19.5804E-03     22.4803E-03    -24.1059E-03     43.3744E-03    -19.4713E-03     22.5297E-03
            2165     7.06461E-03     15.7220E-03    -9.47266E+06    -85.9746E+06    -6.09754E+06     6.12642E+06    -22.8088E-03     41.9094E-03    -19.1006E-03     18.5016E-03    -22.7256E-03     41.5050E-03    -18.9926E-03     18.5658E-03
            2166     6.18421E-03     15.7013E-03    -10.1163E+06    -88.1041E+06    -7.10037E+06     6.58160E+06    -21.5379E-03     40.2066E-03    -18.6687E-03     15.0441E-03    -21.4521E-03     39.7927E-03    -18.5617E-03     15.1188E-03
            2167     5.30278E-03     15.6842E-03    -10.7734E+06    -89.5535E+06    -7.89132E+06     6.52968E+06    -20.4057E-03     38.6954E-03    -18.2897E-03     12.0767E-03    -20.3192E-03     38.2756E-03    -18.1837E-03     12.1539E-03
            2168     4.42042E-03     15.6703E-03    -11.3676E+06    -89.3844E+06    -9.44155E+06     6.03698E+06    -19.4330E-03     37.3936E-03    -17.9606E-03     9.51579E-03    -19.3471E-03     36.9774E-03    -17.8617E-03     9.58882E-03
            2169     3.53727E-03     15.6594E-03    -11.9786E+06    -89.5692E+06    -11.0520E+06     5.36222E+06    -18.6382E-03     36.3271E-03    -17.6889E-03     7.29033E-03    -18.5525E-03     35.9129E-03    -17.5969E-03     7.35619E-03
            2170     2.65354E-03     15.6511E-03    -12.6309E+06    -89.7442E+06    -12.2715E+06     4.49892E+06    -18.0176E-03     35.4937E-03    -17.4761E-03     5.29526E-03    -17.9330E-03     35.0813E-03    -17.3890E-03     5.35111E-03
            2171     1.76931E-03     15.6454E-03    -13.1804E+06    -89.8732E+06    -13.2768E+06      3.3285E+06    -17.5664E-03     34.8882E-03    -17.3219E-03     3.47929E-03    -17.4828E-03     34.4773E-03    -17.2388E-03     3.52088E-03
            2172     884.694E-06     15.6418E-03    -13.6426E+06    -89.9468E+06    -13.8274E+06     1.92935E+06    -17.3379E-03     34.5209E-03    -17.1830E-03     1.84069E-03    -17.2557E-03     34.1111E-03    -17.1019E-03     1.86489E-03
            2173     16.6662E-03     15.5848E-03    -3.75946E+06     157.499E+06     80.2905E+06     388.109E+03    -56.0600E-03     82.0640E-03    -26.0040E-03     232.534E-03    -62.9653E-03     89.2830E-03    -25.8255E-03     234.589E-03
            2174     15.8044E-03     15.3074E-03    -6.82238E+06     118.460E+06     28.4135E+06     2.38831E+06    -51.1461E-03     75.9273E-03    -24.7812E-03     220.645E-03    -55.9191E-03     81.0147E-03    -24.8010E-03     220.476E-03
            2175     14.9387E-03     15.1473E-03    -9.33201E+06     65.4535E+06    -16.0137E+06     3.49320E+06    -40.5171E-03     64.3056E-03    -23.7884E-03     119.528E-03    -41.4428E-03     65.4772E-03    -23.9499E-03     119.173E-03
            2176     14.0699E-03     15.0685E-03    -9.26038E+06     14.8653E+06    -28.1874E+06     3.07645E+06    -35.4244E-03     58.4900E-03    -23.0655E-03     67.0487E-03    -35.6624E-03     58.8297E-03    -23.2146E-03     66.8431E-03
            2177     13.1994E-03     15.0084E-03    -8.19400E+06    -22.4964E+06    -20.8938E+06     2.74798E+06    -33.6391E-03     56.1012E-03    -22.4621E-03     57.9885E-03    -33.7353E-03     56.1492E-03    -22.5221E-03     57.8442E-03
            2178     12.3279E-03     14.9459E-03    -7.85655E+06    -40.6525E+06    -14.1691E+06     3.03281E+06    -32.0834E-03     53.9219E-03    -21.8385E-03     52.1663E-03    -32.1139E-03     53.8214E-03    -21.8390E-03     52.0792E-03
            2179     11.4550E-03     14.8962E-03    -7.72205E+06    -53.6150E+06    -9.82538E+06     3.33677E+06    -30.2840E-03     51.4908E-03    -21.2068E-03     41.4451E-03    -30.2685E-03     51.2861E-03    -21.1670E-03     41.4013E-03
            2180     10.5807E-03     14.8536E-03    -7.78872E+06    -65.3993E+06    -9.16073E+06     3.64917E+06    -28.6432E-03     49.2152E-03    -20.5719E-03     34.7512E-03    -28.5960E-03     48.9348E-03    -20.5116E-03     34.7376E-03
            2181     9.70521E-03     14.8164E-03    -7.88924E+06    -73.6808E+06    -6.92452E+06     4.15231E+06    -26.9711E-03     46.9337E-03    -19.9626E-03     29.1895E-03    -26.9064E-03     46.5996E-03    -19.8789E-03     29.2013E-03
            2182     8.82817E-03     14.7845E-03    -8.17318E+06    -78.7030E+06    -4.61979E+06     4.98041E+06    -25.2898E-03     44.6728E-03    -19.3830E-03     24.1614E-03    -25.2171E-03     44.3052E-03    -19.2802E-03     24.1971E-03
            2183     7.94981E-03     14.7573E-03    -8.71908E+06    -82.8750E+06    -4.27160E+06     5.75043E+06    -23.6830E-03     42.5193E-03    -18.8362E-03     19.8229E-03    -23.6045E-03     42.1280E-03    -18.7248E-03     19.8777E-03
            2184     7.07007E-03     14.7344E-03    -9.39602E+06    -85.7324E+06    -5.14424E+06     6.28770E+06    -22.1800E-03     40.5124E-03    -18.3324E-03     16.0854E-03    -22.0976E-03     40.1072E-03    -18.2202E-03     16.1534E-03
            2185     6.18910E-03     14.7154E-03    -9.91714E+06    -87.2652E+06    -6.30245E+06     6.63788E+06    -20.8162E-03     38.6981E-03    -17.8819E-03     12.9119E-03    -20.7315E-03     38.2867E-03    -17.7725E-03     12.9886E-03
            2186     5.30698E-03     14.6998E-03    -10.2108E+06    -87.8548E+06    -7.55342E+06     6.50471E+06    -19.6230E-03     37.1134E-03    -17.4904E-03     10.2552E-03    -19.5365E-03     36.7007E-03    -17.3860E-03     10.3330E-03
            2187     4.42391E-03     14.6872E-03    -10.4504E+06    -87.5215E+06    -9.01531E+06     6.12821E+06    -18.6218E-03     35.7810E-03    -17.1592E-03     8.00469E-03    -18.5345E-03     35.3720E-03    -17.0622E-03     8.07958E-03
            2188     3.54005E-03     14.6773E-03    -10.6794E+06    -87.2590E+06    -10.2632E+06     5.68316E+06    -17.8167E-03     34.7081E-03    -16.8914E-03     6.08501E-03    -17.7289E-03     34.3024E-03    -16.8007E-03     6.15549E-03
            2189     2.65555E-03     14.6698E-03    -10.8454E+06    -86.8883E+06    -10.9351E+06     4.86502E+06    -17.2035E-03     33.8903E-03    -16.6868E-03     4.40949E-03    -17.1160E-03     33.4876E-03    -16.5998E-03     4.47040E-03
            2190     1.77061E-03     14.6647E-03    -10.9026E+06    -86.3674E+06    -11.0545E+06     3.68362E+06    -16.7761E-03     33.3181E-03    -16.5419E-03     2.89967E-03    -16.6895E-03     32.9181E-03    -16.4562E-03     2.94606E-03
            2191     885.429E-06     14.6615E-03    -10.8505E+06    -85.8223E+06    -10.9182E+06     2.22720E+06    -16.5536E-03     32.9682E-03    -16.4146E-03     1.57599E-03    -16.4676E-03     32.5707E-03    -16.3290E-03     1.60414E-03
            2192     16.6654E-03     14.5624E-03    -4.78686E+06     155.788E+06     79.1897E+06    -6.41518E+03    -57.7238E-03     83.6473E-03    -25.9235E-03     225.956E-03    -64.2929E-03     90.5234E-03    -25.7465E-03     227.705E-03
            2193     15.8071E-03     14.2943E-03    -9.27238E+06     115.501E+06     27.2639E+06     2.61997E+06    -52.7158E-03     77.2923E-03    -24.5765E-03     212.146E-03    -57.1878E-03     82.0631E-03    -24.5942E-03     211.823E-03
            2194     14.9428E-03     14.1398E-03    -9.39504E+06     66.1541E+06    -15.0691E+06     3.97610E+06    -41.3179E-03     64.7938E-03    -23.4759E-03     113.913E-03    -42.1727E-03     65.8942E-03    -23.6336E-03     113.555E-03
            2195     14.0751E-03     14.0645E-03    -8.64433E+06     16.6116E+06    -27.7694E+06     3.49482E+06    -36.0644E-03     58.7357E-03    -22.6713E-03     63.7078E-03    -36.2865E-03     59.0668E-03    -22.8217E-03     63.5083E-03
            2196     13.2055E-03     14.0065E-03    -8.63944E+06    -22.1891E+06    -21.4387E+06     3.13962E+06    -34.2397E-03     56.2334E-03    -21.9937E-03     55.1125E-03    -34.3297E-03     56.2763E-03    -22.0562E-03     54.9748E-03
            2197     12.3345E-03     13.9464E-03    -8.25002E+06    -40.5621E+06    -14.6003E+06     3.24025E+06    -32.4988E-03     53.7950E-03    -21.2961E-03     48.9576E-03    -32.5241E-03     53.6895E-03    -21.2984E-03     48.8770E-03
            2198     11.4619E-03     13.8990E-03    -8.11762E+06    -53.5314E+06    -9.93648E+06     3.50918E+06    -30.5232E-03     51.1172E-03    -20.5940E-03     38.2365E-03    -30.5054E-03     50.9096E-03    -20.5543E-03     38.1988E-03
            2199     10.5880E-03     13.8587E-03    -8.06380E+06    -65.2949E+06    -9.07708E+06     3.75862E+06    -28.6771E-03     48.5698E-03    -19.8927E-03     31.4842E-03    -28.6287E-03     48.2875E-03    -19.8317E-03     31.4756E-03
            2200     9.71236E-03     13.8238E-03    -8.17682E+06    -73.9618E+06    -6.84304E+06     4.23217E+06    -26.7736E-03     45.9988E-03    -19.2251E-03     25.9415E-03    -26.7082E-03     45.6617E-03    -19.1402E-03     25.9576E-03
            2201     8.83520E-03     13.7942E-03    -8.55073E+06    -79.1842E+06    -4.27791E+06     5.04311E+06    -24.8843E-03     43.4838E-03    -18.5994E-03     21.0764E-03    -24.8121E-03     43.1126E-03    -18.4936E-03     21.1157E-03
            2202     7.95637E-03     13.7692E-03    -9.09313E+06    -82.7262E+06    -3.59055E+06     5.80474E+06    -23.1053E-03     41.1221E-03    -18.0169E-03     16.9500E-03    -23.0290E-03     40.7303E-03    -17.9017E-03     17.0077E-03
            2203     7.07608E-03     13.7483E-03    -9.56230E+06    -85.2403E+06    -3.70036E+06     6.16619E+06    -21.4755E-03     38.9653E-03    -17.4898E-03     13.4615E-03    -21.3962E-03     38.5603E-03    -17.3708E-03     13.5295E-03
            2204     6.19443E-03     13.7311E-03    -9.89674E+06    -86.3692E+06    -4.99776E+06     6.32350E+06    -20.0236E-03     37.0439E-03    -17.0203E-03     10.5698E-03    -19.9417E-03     36.6347E-03    -16.9057E-03     10.6436E-03
            2205     5.31161E-03     13.7171E-03    -10.1552E+06    -86.2454E+06    -7.15948E+06     6.23930E+06    -18.7747E-03     35.3875E-03    -16.6128E-03     8.22084E-03    -18.6907E-03     34.9819E-03    -16.5088E-03     8.29610E-03
            2206     4.42778E-03     13.7058E-03    -10.2361E+06    -85.8033E+06    -8.49762E+06     5.88713E+06    -17.7409E-03     34.0179E-03    -16.2769E-03     6.30268E-03    -17.6557E-03     33.6163E-03    -16.1802E-03     6.37508E-03
            2207     3.54315E-03     13.6969E-03    -9.96911E+06    -84.9874E+06    -8.98235E+06     5.34415E+06    -16.9163E-03     32.9281E-03    -16.0117E-03     4.71920E-03    -16.8301E-03     32.5308E-03    -15.9189E-03     4.78577E-03
            2208     2.65787E-03     13.6902E-03    -9.37669E+06    -83.9452E+06    -8.81441E+06     4.44793E+06    -16.3024E-03     32.1167E-03    -15.8143E-03     3.39439E-03    -16.2149E-03     31.7234E-03    -15.7230E-03     3.45024E-03
            2209     1.77215E-03     13.6855E-03    -8.58267E+06    -82.8905E+06    -8.30105E+06     3.18240E+06    -15.8905E-03     31.5692E-03    -15.6786E-03     2.21607E-03    -15.8013E-03     31.1792E-03    -15.5875E-03     2.25620E-03
            2210     886.111E-06     13.6827E-03    -7.83597E+06    -81.9372E+06    -7.66887E+06     1.79588E+06    -15.6544E-03     31.2504E-03    -15.5960E-03     1.21641E-03    -15.5636E-03     30.8632E-03    -15.5042E-03     1.23911E-03
            2211     16.6668E-03     13.5350E-03    -5.09146E+06     154.632E+06     80.0402E+06     505.460E+03    -59.9151E-03     85.7551E-03    -25.8400E-03     219.457E-03    -66.1575E-03     92.2967E-03    -25.6567E-03     220.886E-03
            2212     15.8123E-03     13.2793E-03    -8.47759E+06     113.440E+06     26.8665E+06     2.21857E+06    -54.3726E-03     78.7067E-03    -24.3341E-03     200.748E-03    -58.4470E-03     83.0770E-03    -24.3520E-03     200.243E-03
            2213     14.9492E-03     13.1325E-03    -8.92507E+06     65.8554E+06    -16.8071E+06     4.12218E+06    -41.8946E-03     65.0048E-03    -23.1102E-03     107.676E-03    -42.6648E-03     66.0263E-03    -23.2768E-03     107.318E-03
            2214     14.0813E-03     13.0603E-03    -8.39489E+06     18.3032E+06    -28.0482E+06     4.44832E+06    -36.6748E-03     58.9133E-03    -22.2385E-03     60.5306E-03    -36.8812E-03     59.2363E-03    -22.3931E-03     60.3463E-03
            2215     13.2122E-03     13.0042E-03    -7.95343E+06    -21.4208E+06    -21.8249E+06     3.61097E+06    -35.0395E-03     56.5195E-03    -21.4800E-03     51.8268E-03    -35.1184E-03     56.5576E-03    -21.5465E-03     51.6958E-03
            2216     12.3420E-03     12.9470E-03    -7.85407E+06    -40.5377E+06    -14.6934E+06     3.59880E+06    -33.0491E-03     53.7448E-03    -20.6956E-03     45.1564E-03    -33.0655E-03     53.6322E-03    -20.6989E-03     45.0841E-03
            2217     11.4698E-03     12.9021E-03    -8.00749E+06    -53.2649E+06    -9.59412E+06     3.83262E+06    -30.7531E-03     50.6675E-03    -19.9145E-03     34.6450E-03    -30.7313E-03     50.4563E-03    -19.8736E-03     34.6157E-03
            2218     10.5960E-03     12.8643E-03    -8.41406E+06    -65.0988E+06    -8.65744E+06     4.00914E+06    -28.6520E-03     47.7963E-03    -19.1443E-03     27.8978E-03    -28.6035E-03     47.5121E-03    -19.0810E-03     27.8963E-03
            2219     9.72037E-03     12.8322E-03    -8.80849E+06    -74.1193E+06    -6.47008E+06     4.38591E+06    -26.5024E-03     44.9206E-03    -18.4182E-03     22.4747E-03    -26.4386E-03     44.5813E-03    -18.3303E-03     22.4960E-03
            2220     8.84282E-03     12.8051E-03    -9.32094E+06    -79.5786E+06    -3.60938E+06     5.05149E+06    -24.4115E-03     42.1583E-03    -17.7467E-03     17.8547E-03    -24.3424E-03     41.7842E-03    -17.6359E-03     17.8968E-03
            2221     7.96358E-03     12.7825E-03    -9.90851E+06    -82.5020E+06    -2.96149E+06     5.66232E+06    -22.4742E-03     39.5997E-03    -17.1255E-03     13.9932E-03    -22.4025E-03     39.2086E-03    -17.0064E-03     14.0510E-03
            2222     7.08271E-03     12.7638E-03    -10.5165E+06    -84.4102E+06    -3.54611E+06     5.80101E+06    -20.7196E-03     37.2865E-03    -16.5669E-03     10.8079E-03    -20.6461E-03     36.8863E-03    -16.4470E-03     10.8727E-03
            2223     6.20040E-03     12.7485E-03    -10.9541E+06    -85.4622E+06    -4.55734E+06     5.72123E+06    -19.1810E-03     35.2590E-03    -16.0780E-03     8.25057E-03    -19.1061E-03     34.8550E-03    -15.9609E-03     8.31763E-03
            2224     5.31681E-03     12.7361E-03    -10.9820E+06    -84.7565E+06    -6.12583E+06     5.49371E+06    -17.8715E-03     33.5288E-03    -15.6572E-03     6.25516E-03    -17.7951E-03     33.1302E-03    -15.5491E-03     6.32147E-03
            2225     4.43219E-03     12.7261E-03    -10.5631E+06    -83.9795E+06    -7.11420E+06     4.91863E+06    -16.7909E-03     32.1036E-03    -15.3127E-03     4.69679E-03    -16.7119E-03     31.7095E-03    -15.2111E-03     4.75714E-03
            2226     3.54667E-03     12.7183E-03    -9.82675E+06    -82.7747E+06    -7.13586E+06     4.09215E+06    -15.9471E-03     30.9907E-03    -15.0436E-03     3.47685E-03    -15.8660E-03     30.6015E-03    -14.9450E-03     3.52755E-03
            2227     2.66054E-03     12.7124E-03    -8.91034E+06    -81.3386E+06    -7.05598E+06     3.08461E+06    -15.3292E-03     30.1705E-03    -14.8413E-03     2.48776E-03    -15.2457E-03     29.7870E-03    -14.7457E-03     2.52619E-03
            2228     1.77391E-03     12.7082E-03    -8.00348E+06    -80.0906E+06    -7.24555E+06     2.00871E+06    -14.9106E-03     29.6096E-03    -14.6990E-03     1.61494E-03    -14.8241E-03     29.2313E-03    -14.6075E-03     1.64003E-03
            2229     887.050E-06     12.7056E-03    -7.32652E+06    -79.1504E+06    -7.14144E+06     1.03480E+06    -14.6872E-03     29.2837E-03    -14.5965E-03     862.901E-06    -14.5988E-03     28.9090E-03    -14.5068E-03     875.837E-06
            2230     16.6688E-03     12.5025E-03    -4.71830E+06     153.546E+06     81.7327E+06     947.442E+03    -62.1152E-03     87.8169E-03    -25.7017E-03     213.345E-03    -68.0128E-03     94.0064E-03    -25.5088E-03     214.458E-03
            2231     15.8166E-03     12.2622E-03    -7.96028E+06     111.340E+06     27.7321E+06     2.28810E+06    -55.1905E-03     79.2529E-03    -24.0624E-03     188.257E-03    -58.8242E-03     83.1745E-03    -24.0736E-03     187.641E-03
            2232     14.9543E-03     12.1252E-03    -9.05423E+06     65.0804E+06    -17.0819E+06     4.32749E+06    -42.7129E-03     65.4438E-03    -22.7309E-03     101.204E-03    -43.4091E-03     66.3890E-03    -22.8976E-03     100.848E-03
            2233     14.0874E-03     12.0558E-03    -9.15529E+06     20.2381E+06    -28.1657E+06     5.01004E+06    -37.6033E-03     59.3698E-03    -21.7666E-03     57.2902E-03    -37.7993E-03     59.6871E-03    -21.9235E-03     57.1152E-03
            2234     13.2196E-03     12.0011E-03    -8.57252E+06    -20.3253E+06    -23.3478E+06     4.22780E+06    -35.8858E-03     56.7922E-03    -20.9064E-03     48.1623E-03    -35.9577E-03     56.8295E-03    -20.9813E-03     48.0415E-03
            2235     12.3503E-03     11.9477E-03    -8.43603E+06    -40.4760E+06    -15.5815E+06     4.15757E+06    -33.5859E-03     53.6173E-03    -20.0314E-03     40.8953E-03    -33.5970E-03     53.5002E-03    -20.0383E-03     40.8344E-03
            2236     11.4785E-03     11.9056E-03    -8.66802E+06    -52.9938E+06    -9.81606E+06     4.38703E+06    -30.9063E-03     50.0771E-03    -19.1708E-03     30.8932E-03    -30.8837E-03     49.8644E-03    -19.1305E-03     30.8760E-03
            2237     10.6047E-03     11.8708E-03    -9.09661E+06    -64.6971E+06    -8.19732E+06     4.51400E+06    -28.5007E-03     46.8384E-03    -18.3377E-03     24.2198E-03    -28.4542E-03     46.5538E-03    -18.2716E-03     24.2290E-03
            2238     9.72884E-03     11.8417E-03    -9.73059E+06    -74.0460E+06    -6.03710E+06     4.66666E+06    -26.1102E-03     43.6697E-03    -17.5595E-03     19.0304E-03    -26.0501E-03     43.3299E-03    -17.4682E-03     19.0587E-03
            2239     8.85100E-03     11.8174E-03    -10.4434E+06    -79.6375E+06    -2.89024E+06     5.01138E+06    -23.8301E-03     40.6791E-03    -16.8491E-03     14.7892E-03    -23.7666E-03     40.3044E-03    -16.7329E-03     14.8332E-03
            2240     7.97121E-03     11.7974E-03    -11.0744E+06    -82.1089E+06    -2.52590E+06     5.28478E+06    -21.7430E-03     37.9387E-03    -16.1956E-03     11.3359E-03    -21.6778E-03     37.5501E-03    -16.0731E-03     11.3905E-03
            2241     7.08968E-03     11.7810E-03    -11.5515E+06    -83.4615E+06    -3.32725E+06     5.30083E+06    -19.8843E-03     35.4981E-03    -15.6138E-03     8.58436E-03    -19.8174E-03     35.1036E-03    -15.4927E-03     8.64377E-03
            2242     6.20660E-03     11.7677E-03    -11.9262E+06    -84.1537E+06    -3.55853E+06     4.82708E+06    -18.2785E-03     33.3924E-03    -15.1139E-03     6.45367E-03    -18.2116E-03     32.9948E-03    -14.9924E-03     6.50984E-03
            2243     5.32222E-03     11.7569E-03    -11.8823E+06    -83.2155E+06    -4.46245E+06     4.00565E+06    -16.9281E-03     31.6145E-03    -14.6864E-03     4.83824E-03    -16.8608E-03     31.2225E-03    -14.5708E-03     4.88569E-03
            2244     4.43670E-03     11.7484E-03    -11.4241E+06    -82.2699E+06    -5.62681E+06     3.23445E+06    -15.8313E-03     30.1643E-03    -14.3330E-03     3.59969E-03    -15.7613E-03     29.7779E-03    -14.2253E-03     3.63847E-03
            2245     3.55034E-03     11.7416E-03    -10.9094E+06    -80.8951E+06    -6.63985E+06     2.40392E+06    -14.9798E-03     29.0307E-03    -14.0509E-03     2.65704E-03    -14.9076E-03     28.6517E-03    -13.9509E-03     2.68601E-03
            2246     2.66329E-03     11.7365E-03    -10.5088E+06    -79.5049E+06    -7.85926E+06     1.56448E+06    -14.3485E-03     28.1812E-03    -13.8327E-03     1.87782E-03    -14.2745E-03     27.8103E-03    -13.7415E-03     1.89662E-03
            2247     1.77580E-03     11.7329E-03    -10.1949E+06    -78.4204E+06    -9.08400E+06     919.648E+03    -13.9075E-03     27.5823E-03    -13.6748E-03     1.22034E-03    -13.8316E-03     27.2182E-03    -13.5918E-03     1.23135E-03
            2248     887.973E-06     11.7306E-03    -9.88155E+06    -77.5913E+06    -9.63154E+06     489.547E+03    -13.6654E-03     27.2180E-03    -13.5526E-03     675.208E-06    -13.5884E-03     26.8584E-03    -13.4739E-03     681.083E-06
            2249     16.6738E-03     11.4692E-03    -4.79978E+06     152.147E+06     82.9021E+06     1.46950E+06    -64.0602E-03     89.5858E-03    -25.5256E-03     206.973E-03    -69.5722E-03     95.3814E-03    -25.3248E-03     207.771E-03
            2250     15.8213E-03     11.2450E-03    -9.02692E+06     109.145E+06     30.8412E+06     3.02405E+06    -55.9018E-03     79.6809E-03    -23.7791E-03     175.163E-03    -59.0977E-03     83.1443E-03    -23.7701E-03     174.463E-03
            2251     14.9605E-03     11.1160E-03    -10.7768E+06     64.2025E+06    -13.4245E+06     4.17842E+06    -43.8690E-03     66.2085E-03    -22.3395E-03     93.4453E-03    -44.5042E-03     67.0730E-03    -22.4841E-03     93.0831E-03
            2252     14.0954E-03     11.0509E-03    -10.0149E+06     21.5466E+06    -26.2441E+06     4.86560E+06    -38.6623E-03     59.9153E-03    -21.2530E-03     53.4825E-03    -38.8503E-03     60.2207E-03    -21.4010E-03     53.3082E-03
            2253     13.2280E-03     10.9976E-03    -9.42577E+06    -19.3178E+06    -23.4347E+06     4.98812E+06    -36.5795E-03     56.8643E-03    -20.2848E-03     44.3219E-03    -36.6470E-03     56.8981E-03    -20.3603E-03     44.2157E-03
            2254     12.3591E-03     10.9485E-03    -9.58122E+06    -39.9788E+06    -15.5841E+06     4.84204E+06    -33.9179E-03     53.2429E-03    -19.3250E-03     36.4193E-03    -33.9284E-03     53.1230E-03    -19.3311E-03     36.3731E-03
            2255     11.4877E-03     10.9098E-03    -9.84994E+06    -52.3966E+06    -9.76219E+06     4.73077E+06    -30.9016E-03     49.2945E-03    -18.3929E-03     27.1174E-03    -30.8820E-03     49.0824E-03    -18.3514E-03     27.1099E-03
            2256     10.6137E-03     10.8783E-03    -9.93574E+06    -64.2582E+06    -7.53374E+06     4.68384E+06    -28.1474E-03     45.6564E-03    -17.5090E-03     20.7385E-03    -28.1043E-03     45.3720E-03    -17.4391E-03     20.7542E-03
            2257     9.73758E-03     10.8524E-03    -10.2444E+06    -73.7787E+06    -4.94868E+06     4.91678E+06    -25.5049E-03     42.2029E-03    -16.6980E-03     15.9914E-03    -25.4480E-03     41.8623E-03    -16.6009E-03     16.0261E-03
            2258     8.85910E-03     10.8312E-03    -10.9520E+06    -79.1296E+06    -1.62449E+06     4.92872E+06    -23.0450E-03     39.0141E-03    -15.9691E-03     12.3113E-03    -22.9860E-03     38.6401E-03    -15.8466E-03     12.3564E-03
            2259     7.97858E-03     10.8139E-03    -11.7235E+06    -81.4223E+06    -429.214E+03     4.68621E+06    -20.8443E-03     36.1577E-03    -15.3135E-03     9.41587E-03    -20.7861E-03     35.7702E-03    -15.1805E-03     9.46414E-03
            2260     7.09622E-03     10.7999E-03    -12.2155E+06    -82.4547E+06    -1.21031E+06     4.33525E+06    -18.9384E-03     33.6724E-03    -14.7340E-03     7.17767E-03    -18.8792E-03     33.2807E-03    -14.6028E-03     7.22535E-03
            2261     6.21231E-03     10.7887E-03    -12.3778E+06    -82.3825E+06    -1.85672E+06     3.50995E+06    -17.3299E-03     31.5678E-03    -14.2379E-03     5.49126E-03    -17.2703E-03     31.1772E-03    -14.1098E-03     5.53078E-03
            2262     5.32704E-03     10.7797E-03    -12.6188E+06    -81.6962E+06    -3.14578E+06     2.44886E+06    -16.0074E-03     29.8245E-03    -13.8170E-03     4.20554E-03    -15.9479E-03     29.4393E-03    -13.6960E-03     4.23301E-03
            2263     4.44075E-03     10.7725E-03    -12.9484E+06    -80.9617E+06    -5.60483E+06     1.62275E+06    -14.9492E-03     28.4117E-03    -13.4625E-03     3.22043E-03    -14.8886E-03     28.0340E-03    -13.3544E-03     3.23839E-03
            2264     3.55360E-03     10.7668E-03    -13.1576E+06    -79.6301E+06    -8.19248E+06     962.512E+03    -14.1185E-03     27.2900E-03    -13.1715E-03     2.44915E-03    -14.0571E-03     26.9230E-03    -13.0779E-03     2.45943E-03
            2265     2.66581E-03     10.7625E-03    -13.2719E+06    -78.5230E+06    -10.3996E+06     447.283E+03    -13.4827E-03     26.4257E-03    -12.9430E-03     1.77447E-03    -13.4202E-03     26.0674E-03    -12.8619E-03     1.77876E-03
            2266     1.77749E-03     10.7595E-03    -13.3485E+06    -77.7287E+06    -12.0163E+06     155.039E+03    -13.0283E-03     25.8031E-03    -12.7748E-03     1.16633E-03    -12.9650E-03     25.4513E-03    -12.7028E-03     1.16739E-03
            2267     888.840E-06     10.7576E-03    -13.3549E+06    -77.0970E+06    -12.8590E+06    -16.5383E+03    -12.7424E-03     25.4044E-03    -12.6620E-03     625.879E-06    -12.6788E-03     25.0570E-03    -12.5951E-03     625.172E-06
            2268     16.6753E-03     10.4345E-03    -5.31770E+06     149.872E+06     83.1743E+06     1.69496E+06    -66.1557E-03     91.4974E-03    -25.3417E-03     199.935E-03    -71.2635E-03     96.8781E-03    -25.1355E-03     200.404E-03
            2269     15.8265E-03     10.2246E-03    -8.32060E+06     107.540E+06     34.2350E+06     3.38255E+06    -57.0868E-03     80.5605E-03    -23.4737E-03     161.527E-03    -59.8454E-03     83.5738E-03    -23.4464E-03     160.724E-03
            2270     14.9679E-03     10.1066E-03    -9.79997E+06     64.0158E+06    -9.86614E+06     4.51649E+06    -44.9709E-03     66.8844E-03    -21.9135E-03     86.3302E-03    -45.5402E-03     67.6755E-03    -22.0414E-03     85.9743E-03
            2271     14.1030E-03     10.0450E-03    -10.2763E+06     21.4998E+06    -25.2487E+06     5.56054E+06    -39.8071E-03     60.5143E-03    -20.7072E-03     50.1008E-03    -39.9818E-03     60.8024E-03    -20.8497E-03     49.9394E-03
            2272     13.2369E-03     9.99432E-03    -9.89644E+06     -18.629E+06    -22.8082E+06     6.05997E+06    -37.1947E-03     56.8324E-03    -19.6377E-03     40.4617E-03    -37.2565E-03     56.8595E-03    -19.7104E-03     40.3758E-03
            2273     12.3683E-03     9.94956E-03    -9.82102E+06    -38.7869E+06    -14.3348E+06     5.60494E+06    -33.9707E-03     52.5765E-03    -18.6058E-03     32.0044E-03    -33.9792E-03     52.4544E-03    -18.6070E-03     31.9754E-03
            2274     11.4967E-03     9.91476E-03    -10.0855E+06    -51.2131E+06    -8.34935E+06     4.91454E+06    -30.5412E-03     48.1682E-03    -17.6269E-03     23.5053E-03    -30.5231E-03     47.9570E-03    -17.5798E-03     23.5061E-03
            2275     10.6225E-03     9.88708E-03    -10.4585E+06    -63.7632E+06    -6.00651E+06     4.52245E+06    -27.4407E-03     44.1637E-03    -16.7230E-03     17.7972E-03    -27.4013E-03     43.8785E-03    -16.6454E-03     17.8151E-03
            2276     9.74557E-03     9.86474E-03    -10.6899E+06    -73.4902E+06    -2.91730E+06     4.61938E+06    -24.5815E-03     40.4968E-03    -15.9154E-03     13.7420E-03    -24.5294E-03     40.1545E-03    -15.8079E-03     13.7757E-03
            2277     8.86625E-03     9.84672E-03    -11.0374E+06    -78.2231E+06     516.231E+03     4.53942E+06    -22.0060E-03     37.2097E-03    -15.2038E-03     10.7333E-03    -21.9514E-03     36.8369E-03    -15.0717E-03     10.7751E-03
            2278     7.98475E-03     9.83220E-03    -11.7256E+06    -80.2822E+06     2.27021E+06     3.93869E+06    -19.7689E-03     34.3508E-03    -14.5818E-03     8.46111E-03    -19.7162E-03     33.9649E-03    -14.4371E-03     8.50074E-03
            2279     7.10145E-03     9.82063E-03    -12.3873E+06    -81.1276E+06     1.56547E+06     3.01452E+06    -17.9025E-03     31.9442E-03    -14.0418E-03     6.77815E-03    -17.8501E-03     31.5554E-03    -13.8983E-03     6.80929E-03
            2280     6.21661E-03     9.81138E-03    -12.9185E+06    -80.7902E+06    -143.960E+03     2.01455E+06    -16.3877E-03     29.9688E-03    -13.5811E-03     5.51592E-03    -16.3356E-03     29.5845E-03    -13.4459E-03     5.53634E-03
            2281     5.33060E-03     9.80398E-03    -13.5910E+06    -80.5402E+06    -2.81846E+06     1.25107E+06    -15.1743E-03     28.3659E-03    -13.1915E-03     4.50793E-03    -15.1219E-03     27.9874E-03    -13.0691E-03     4.51998E-03
            2282     4.44357E-03     9.79815E-03    -14.4174E+06    -79.9124E+06      -6.604E+06     553.084E+03    -14.2142E-03     27.0763E-03    -12.8620E-03     3.70238E-03    -14.1612E-03     26.7075E-03    -12.7583E-03     3.70649E-03
            2283     3.55580E-03     9.79350E-03    -15.0581E+06    -78.9590E+06    -9.92691E+06    -107.163E+03    -13.4586E-03     26.0512E-03    -12.5926E-03     2.99041E-03    -13.4052E-03     25.6928E-03    -12.5060E-03     2.98684E-03
            2284     2.66739E-03     9.79005E-03    -15.4593E+06    -78.2754E+06    -12.5159E+06    -362.365E+03    -12.8772E-03     25.2586E-03    -12.3814E-03     2.28319E-03    -12.8229E-03     24.9078E-03    -12.3080E-03     2.27698E-03
            2285     1.77855E-03     9.78754E-03    -15.7258E+06    -77.7268E+06    -14.3507E+06    -413.592E+03    -12.4591E-03     24.6847E-03    -12.2256E-03     1.56646E-03    -12.4042E-03     24.3397E-03    -12.1618E-03     1.56014E-03
            2286     889.397E-06     9.78609E-03    -15.9219E+06    -77.3472E+06    -15.4272E+06    -359.936E+03    -12.2087E-03     24.3158E-03    -12.1071E-03     845.639E-06    -12.1538E-03     23.9746E-03    -12.0490E-03     840.478E-06
            2287     16.6795E-03     9.39344E-03    -5.14282E+06     147.999E+06     82.9768E+06     1.73002E+06    -68.0974E-03     93.2536E-03    -25.1563E-03     192.746E-03    -72.8168E-03     98.2407E-03    -24.9485E-03     192.893E-03
            2288     15.8328E-03     9.20487E-03    -8.37371E+06     105.463E+06     33.4591E+06     3.04009E+06    -58.4905E-03     81.6427E-03    -23.1522E-03     147.849E-03    -60.8667E-03     84.2685E-03    -23.1257E-03     146.964E-03
            2289     14.9733E-03     9.09554E-03    -9.03616E+06     63.0701E+06    -8.91973E+06     5.31554E+06    -46.5426E-03     68.0028E-03    -21.4603E-03     77.8002E-03    -47.0455E-03     68.7245E-03    -21.5832E-03     77.4491E-03
            2290     14.1111E-03     9.03816E-03    -9.62607E+06     21.7422E+06    -22.7997E+06     7.08219E+06    -40.6160E-03     60.7619E-03    -20.1459E-03     45.3060E-03    -40.7744E-03     61.0298E-03    -20.2774E-03     45.1710E-03
            2291     13.2456E-03     8.99103E-03    -10.5405E+06    -17.5210E+06    -20.8674E+06     6.97070E+06    -37.3692E-03     56.3683E-03    -18.9991E-03     36.1892E-03    -37.4291E-03     56.3896E-03    -19.0627E-03     36.1236E-03
            2292     12.3773E-03     8.95136E-03    -10.5502E+06    -36.9817E+06    -11.9103E+06     5.95647E+06    -33.5443E-03     51.4719E-03    -17.9276E-03     27.8924E-03    -33.5567E-03     51.3506E-03    -17.9183E-03     27.8766E-03
            2293     11.5052E-03     8.92108E-03    -10.6743E+06    -49.8826E+06    -5.81375E+06     4.92539E+06    -29.6428E-03     46.5879E-03    -16.9451E-03     20.5752E-03    -29.6305E-03     46.3778E-03    -16.8864E-03     20.5826E-03
            2294     10.6299E-03     8.89744E-03    -10.9449E+06    -62.9235E+06    -3.09172E+06     4.25865E+06    -26.2803E-03     42.3506E-03    -16.0703E-03     15.7856E-03    -26.2476E-03     42.0648E-03    -15.9786E-03     15.8047E-03
            2295     9.75192E-03     8.87881E-03    -11.3060E+06    -73.0124E+06     172.705E+03     3.87043E+06    -23.3162E-03     38.6295E-03    -15.3132E-03     12.5381E-03    -23.2719E-03     38.2854E-03    -15.1901E-03     12.5649E-03
            2296     8.87141E-03     8.86399E-03    -11.6481E+06    -77.2735E+06     2.73578E+06     3.54654E+06    -20.7273E-03     35.3893E-03    -14.6619E-03     10.2700E-03    -20.6803E-03     35.0187E-03    -14.5193E-03     10.3006E-03
            2297     7.98882E-03     8.85226E-03    -12.0382E+06    -78.8346E+06     3.62316E+06     2.80954E+06    -18.5628E-03     32.6743E-03    -14.1115E-03     8.66540E-03    -18.5157E-03     32.2941E-03    -13.9616E-03     8.69138E-03
            2298     7.10442E-03     8.84295E-03    -12.6822E+06    -79.5821E+06     3.24794E+06     1.66608E+06    -16.8477E-03     30.5028E-03    -13.6551E-03     7.52163E-03    -16.8016E-03     30.1197E-03    -13.5051E-03     7.53585E-03
            2299     6.21874E-03     8.83544E-03    -13.5651E+06    -79.6782E+06     884.896E+03     694.091E+03    -15.5210E-03     28.7945E-03    -13.2734E-03     6.60102E-03    -15.4754E-03     28.4152E-03    -13.1338E-03     6.60466E-03
            2300     5.33196E-03     8.82953E-03    -14.4194E+06    -79.8511E+06    -3.10215E+06     77.2219E+03    -14.5051E-03     27.4591E-03    -12.9540E-03     5.78454E-03    -14.4574E-03     27.0858E-03    -12.8328E-03     5.78160E-03
            2301     4.44442E-03     8.82477E-03    -15.0401E+06    -79.1666E+06    -7.07646E+06    -447.592E+03    -13.7264E-03     26.4178E-03    -12.6914E-03     5.00614E-03    -13.6769E-03     26.0543E-03    -12.5902E-03     4.99744E-03
            2302     3.55623E-03     8.82109E-03    -15.6352E+06    -78.7117E+06    -10.4786E+06    -874.053E+03    -13.1281E-03     25.6103E-03    -12.4821E-03     4.18690E-03    -13.0772E-03     25.2548E-03    -12.3977E-03     4.17352E-03
            2303     2.66759E-03     8.81826E-03    -16.1775E+06    -78.5436E+06    -13.2731E+06    -1.02390E+06    -12.6812E-03     25.0028E-03    -12.3216E-03     3.27609E-03    -12.6290E-03     24.6529E-03    -12.2507E-03     3.26142E-03
            2304     1.77858E-03     8.81633E-03    -16.4810E+06    -78.2982E+06    -15.1339E+06    -884.969E+03    -12.3642E-03     24.5733E-03    -12.2091E-03     2.28016E-03    -12.3112E-03     24.2277E-03    -12.1473E-03     2.26782E-03
            2305     889.300E-06     8.81512E-03    -16.6376E+06    -78.1531E+06    -16.1800E+06    -547.721E+03    -12.1914E-03     24.3237E-03    -12.1323E-03     1.27099E-03    -12.1378E-03     23.9806E-03    -12.0758E-03     1.26344E-03
            2306     16.6828E-03     8.35785E-03    -3.41016E+06     146.684E+06     83.6669E+06     1.24305E+06    -70.1155E-03     95.0747E-03    -24.9591E-03     183.484E-03    -74.3939E-03     99.6206E-03    -24.7485E-03     183.305E-03
            2307     15.8346E-03     8.17786E-03    -7.82917E+06     102.769E+06     31.9855E+06     3.90099E+06    -59.3087E-03     82.1366E-03    -22.8279E-03     133.775E-03    -61.3206E-03     84.3949E-03    -22.8056E-03     132.859E-03
            2308     14.9835E-03     8.08361E-03    -11.4681E+06     59.8577E+06    -9.80942E+06     7.20458E+06    -47.6937E-03     68.7328E-03    -21.0391E-03     70.4720E-03    -48.1405E-03     69.3810E-03    -21.1584E-03     70.1533E-03
            2309     14.1201E-03     8.03185E-03    -11.6303E+06     22.6890E+06    -20.6092E+06     8.73173E+06    -41.4303E-03     61.0677E-03    -19.6374E-03     42.5021E-03    -41.5900E-03     61.3270E-03    -19.7565E-03     42.3964E-03
            2310     13.2541E-03     7.98832E-03    -11.8073E+06    -14.8619E+06    -18.5589E+06     7.82467E+06    -37.0839E-03     55.5179E-03    -18.4340E-03     32.7409E-03    -37.1483E-03     55.5420E-03    -18.4881E-03     32.6988E-03
            2311     12.3848E-03     7.95450E-03    -12.1575E+06    -34.8921E+06    -8.92255E+06     5.99452E+06    -32.4306E-03     49.8044E-03    -17.3738E-03     24.6358E-03    -32.4534E-03     49.6865E-03    -17.3502E-03     24.6310E-03
            2312     11.5114E-03     7.92916E-03    -12.2610E+06    -48.0201E+06    -2.51227E+06     4.34447E+06    -28.1936E-03     44.6394E-03    -16.4458E-03     18.7436E-03    -28.1946E-03     44.4340E-03    -16.3710E-03     18.7506E-03
            2313     10.6349E-03     7.90970E-03    -12.0419E+06    -61.7841E+06     411.822E+03     3.21151E+06    -24.6984E-03     40.3529E-03    -15.6545E-03     15.0232E-03    -24.6770E-03     40.0685E-03    -15.5454E-03     15.0333E-03
            2314     9.75541E-03     7.89473E-03    -11.6774E+06    -72.1768E+06     3.91492E+06     2.48168E+06    -21.7472E-03     36.7486E-03    -15.0015E-03     12.6515E-03    -21.7110E-03     36.4036E-03    -14.8603E-03     12.6631E-03
            2315     8.87358E-03     7.88300E-03    -11.5607E+06    -76.4834E+06     6.44660E+06     1.93196E+06    -19.2894E-03     33.7561E-03    -14.4667E-03     11.1477E-03    -19.2484E-03     33.3839E-03    -14.3068E-03     11.1592E-03
            2316     7.98967E-03     7.87386E-03    -11.8659E+06    -77.5319E+06     6.25522E+06     1.26823E+06    -17.3673E-03     31.3999E-03    -14.0326E-03     10.1504E-03    -17.3250E-03     31.0222E-03    -13.8717E-03     10.1574E-03
            2317     7.10433E-03     7.86638E-03    -12.5346E+06    -78.2068E+06     4.54246E+06     292.693E+03    -15.9340E-03     29.6239E-03    -13.6900E-03     9.36049E-03    -15.8910E-03     29.2457E-03    -13.5357E-03     9.35761E-03
            2318     6.21784E-03     7.86043E-03    -13.3905E+06    -78.9131E+06     1.42194E+06    -597.227E+03    -14.8950E-03     28.3147E-03    -13.4197E-03     8.57532E-03    -14.8504E-03     27.9383E-03    -13.2787E-03     8.56275E-03
            2319     5.33061E-03     7.85554E-03    -14.0836E+06    -79.3438E+06    -2.65170E+06    -1.30627E+06    -14.1615E-03     27.3663E-03    -13.2048E-03     7.71295E-03    -14.1136E-03     26.9944E-03    -13.0826E-03     7.69250E-03
            2320     4.44280E-03     7.85168E-03    -14.4906E+06    -79.0479E+06    -6.39110E+06    -1.74428E+06    -13.6356E-03     26.6724E-03    -13.0368E-03     6.74357E-03    -13.5845E-03     26.3078E-03    -12.9332E-03     6.71843E-03
            2321     3.55463E-03     7.84857E-03    -14.7292E+06    -79.0035E+06    -9.51049E+06    -1.78701E+06    -13.2594E-03     26.1692E-03    -12.9098E-03     5.64486E-03    -13.2049E-03     25.8095E-03    -12.8214E-03     5.61993E-03
            2322     2.66616E-03     7.84626E-03    -14.9651E+06    -79.1895E+06    -12.1389E+06    -1.64133E+06    -12.9966E-03     25.8140E-03    -12.8173E-03     4.40044E-03    -12.9391E-03     25.4574E-03    -12.7415E-03     4.37798E-03
            2323     1.77752E-03     7.84459E-03    -15.2423E+06    -79.3576E+06    -13.9325E+06    -1.30458E+06    -12.8320E-03     25.5875E-03    -12.7555E-03     3.04689E-03    -12.7730E-03     25.2331E-03    -12.6880E-03     3.02926E-03
            2324     888.818E-06     7.84362E-03    -15.4068E+06    -79.5035E+06    -14.9834E+06    -770.581E+03    -12.7277E-03     25.4571E-03    -12.7295E-03     1.66019E-03    -12.6677E-03     25.1038E-03    -12.6667E-03     1.64983E-03
            2325     16.6867E-03     7.31378E-03    -4.68264E+06     143.159E+06     82.5240E+06     1.39504E+06    -72.2665E-03     97.0949E-03    -24.8284E-03     178.012E-03    -76.2287E-03     101.311E-03    -24.6166E-03     177.552E-03
            2326     15.8450E-03     7.15576E-03    -9.83099E+06     98.0633E+06     32.7382E+06     6.09511E+06    -60.6427E-03     83.2306E-03    -22.5879E-03     120.716E-03    -62.3357E-03     85.1447E-03    -22.5521E-03     119.787E-03
            2327     14.9832E-03     7.06986E-03    -12.7713E+06     58.5814E+06    -5.62865E+06     9.48591E+06    -48.1934E-03     68.9125E-03    -20.7191E-03     62.7246E-03    -48.5919E-03     69.4910E-03    -20.8137E-03     62.4600E-03
            2328     14.1242E-03     7.02338E-03    -15.0342E+06     23.7702E+06    -17.6562E+06     9.47658E+06    -41.6824E-03     60.9393E-03    -19.2568E-03     37.6426E-03    -41.8512E-03     61.1909E-03    -19.3578E-03     37.5582E-03
            2329     13.2599E-03     6.98695E-03    -16.0750E+06    -11.6622E+06    -16.0577E+06     8.12843E+06    -36.0970E-03     54.1406E-03    -18.0436E-03     29.0612E-03    -36.1823E-03     54.1747E-03    -18.0837E-03     29.0382E-03
            2330     12.3894E-03     6.95954E-03    -15.9645E+06    -31.4282E+06    -5.69061E+06     5.21695E+06    -30.6430E-03     47.6959E-03    -17.0530E-03     22.5447E-03    -30.6906E-03     47.5923E-03    -17.0127E-03     22.5413E-03
            2331     11.5145E-03     6.93919E-03    -15.2035E+06    -45.5674E+06     846.237E+03     2.50358E+06    -26.2207E-03     42.4623E-03    -16.2416E-03     18.3567E-03    -26.2433E-03     42.2670E-03    -16.1492E-03     18.3473E-03
            2332     10.6361E-03     6.92400E-03    -14.1582E+06    -60.4485E+06     3.84198E+06     897.377E+03    -22.7793E-03     38.3721E-03    -15.5928E-03     15.8581E-03    -22.7748E-03     38.0918E-03    -15.4654E-03     15.8429E-03
            2333     9.75498E-03     6.91237E-03    -13.1777E+06    -71.3222E+06     6.91898E+06    -69.9072E+03    -20.0426E-03     35.1359E-03    -15.0932E-03     14.3178E-03    -20.0193E-03     34.7927E-03    -14.9361E-03     14.2994E-03
            2334     8.87156E-03     6.90356E-03    -12.4289E+06    -76.0330E+06     9.25560E+06    -579.754E+03    -17.9551E-03     32.6702E-03    -14.7151E-03     13.3859E-03    -17.9231E-03     32.2974E-03    -14.5406E-03     13.3667E-03
            2335     7.98662E-03     6.89627E-03    -12.0228E+06    -76.8693E+06     8.36221E+06    -931.394E+03    -16.4661E-03     30.8910E-03    -14.4248E-03     12.6531E-03    -16.4287E-03     30.5137E-03    -14.2541E-03     12.6329E-03
            2336     7.10053E-03     6.89040E-03    -12.0574E+06    -77.3229E+06     5.44287E+06    -1.47152E+06    -15.4436E-03     29.6521E-03    -14.2085E-03     11.8459E-03    -15.4008E-03     29.2763E-03    -14.0517E-03     11.8210E-03
            2337     6.21373E-03     6.88535E-03    -12.2767E+06    -78.2731E+06     2.27149E+06    -2.31658E+06    -14.7730E-03     28.8271E-03    -14.0541E-03     10.8689E-03    -14.7249E-03     28.4510E-03    -13.9115E-03     10.8348E-03
            2338     5.32648E-03     6.88122E-03    -12.3288E+06    -79.1147E+06    -1.22867E+06    -3.07268E+06    -14.3476E-03     28.2892E-03    -13.9416E-03     9.67654E-03    -14.2932E-03     27.9138E-03    -13.8152E-03     9.63378E-03
            2339     4.43896E-03     6.87777E-03    -12.2644E+06    -79.6145E+06    -4.63059E+06    -3.30516E+06    -14.0789E-03     27.9388E-03    -13.8599E-03     8.32727E-03    -14.0184E-03     27.5655E-03    -13.7498E-03     8.28237E-03
            2340     3.55126E-03     6.87503E-03    -12.2405E+06    -80.0391E+06    -7.42964E+06    -2.97992E+06    -13.9106E-03     27.7138E-03    -13.8033E-03     6.84065E-03    -13.8452E-03     27.3423E-03    -13.7066E-03     6.80061E-03
            2341     2.66349E-03     6.87288E-03    -12.3057E+06    -80.4322E+06    -9.57486E+06    -2.38308E+06    -13.8125E-03     27.5784E-03    -13.7659E-03     5.24660E-03    -13.7436E-03     27.2080E-03    -13.6793E-03     5.21478E-03
            2342     1.77567E-03     6.87137E-03    -12.4489E+06    -80.8848E+06    -11.2382E+06    -1.69344E+06    -13.7624E-03     27.5033E-03    -13.7409E-03     3.59279E-03    -13.6912E-03     27.1332E-03    -13.6618E-03     3.57027E-03
            2343     887.834E-06     6.87038E-03    -12.5436E+06    -81.2425E+06    -12.2397E+06    -958.144E+03    -13.7228E-03     27.4571E-03    -13.7344E-03     1.94456E-03    -13.6500E-03     27.0869E-03    -13.6596E-03     1.93185E-03
            2344     16.6823E-03     6.26200E-03    -6.80098E+06     138.614E+06     81.0887E+06     3.50990E+06    -73.8473E-03     98.6006E-03    -24.7533E-03     169.494E-03    -77.4809E-03     102.468E-03    -24.5390E-03     168.808E-03
            2345     15.8409E-03     6.12902E-03    -12.7024E+06     93.7864E+06     35.9205E+06     6.63756E+06    -62.1727E-03     84.5915E-03    -22.4188E-03     103.075E-03    -63.5811E-03     86.1862E-03    -22.3567E-03     102.151E-03
            2346     14.9939E-03     6.05600E-03    -15.0031E+06     56.8683E+06     906.615E+03     10.7699E+06    -48.5170E-03     68.9845E-03    -20.4675E-03     52.4639E-03    -48.8782E-03     69.4935E-03    -20.5237E-03     52.2376E-03
            2347     14.1306E-03     6.01622E-03    -18.2019E+06     24.9344E+06    -14.0843E+06     12.1260E+06    -39.6222E-03     58.6354E-03    -19.0132E-03     32.9777E-03    -39.7968E-03     58.8754E-03    -19.0934E-03     32.9578E-03
            2348     13.2624E-03     5.98738E-03    -20.1652E+06    -5.24473E+06    -11.9046E+06     8.48924E+06    -33.6231E-03     51.5461E-03    -17.9230E-03     26.4958E-03    -33.7366E-03     51.6045E-03    -17.9457E-03     26.4977E-03
            2349     12.3898E-03     5.96673E-03    -20.1147E+06    -26.3488E+06    -1.36652E+06     2.70387E+06    -28.1731E-03     45.2692E-03    -17.0961E-03     22.3323E-03    -28.2521E-03     45.1877E-03    -17.0356E-03     22.3084E-03
            2350     11.5125E-03     5.95155E-03    -18.5140E+06    -43.0830E+06     4.39456E+06    -915.024E+03    -23.9301E-03     40.3940E-03    -16.4640E-03     20.0080E-03    -23.9768E-03     40.2096E-03    -16.3527E-03     19.9616E-03
            2351     10.6322E-03     5.94001E-03    -16.7449E+06    -59.2487E+06     7.03553E+06    -2.71205E+06    -20.8768E-03     36.8791E-03    -16.0023E-03     18.4375E-03    -20.8910E-03     36.6034E-03    -15.8570E-03     18.3803E-03
            2352     9.74928E-03     5.93153E-03    -15.2823E+06    -70.8951E+06     9.28303E+06    -3.56634E+06    -18.6867E-03     34.3659E-03    -15.6793E-03     17.2722E-03    -18.6776E-03     34.0241E-03    -15.5079E-03     17.2115E-03
            2353     8.86488E-03     5.92458E-03    -14.1516E+06    -75.9505E+06     10.0242E+06    -4.05100E+06    -17.2039E-03     32.6561E-03    -15.4523E-03     16.4016E-03    -17.1815E-03     32.2849E-03    -15.2715E-03     16.3394E-03
            2354     7.97941E-03     5.91879E-03    -12.9630E+06    -77.0070E+06     8.22343E+06    -4.30929E+06    -16.2693E-03     31.5569E-03    -15.2876E-03     15.3871E-03    -16.2360E-03     31.1803E-03    -15.1160E-03     15.3245E-03
            2355     7.09333E-03     5.91369E-03    -11.5991E+06    -77.2957E+06     5.58719E+06    -4.43034E+06    -15.6948E-03     30.8675E-03    -15.1727E-03     14.1270E-03    -15.6499E-03     30.4907E-03    -15.0158E-03     14.0648E-03
            2356     6.20691E-03     5.90925E-03    -10.5421E+06    -78.1245E+06     2.53002E+06    -4.73542E+06    -15.3529E-03     30.4471E-03    -15.0942E-03     12.6553E-03    -15.2967E-03     30.0687E-03    -14.9530E-03     12.5906E-03
            2357     5.32031E-03     5.90538E-03    -10.0803E+06    -79.5657E+06    -995.268E+03    -5.00611E+06    -15.1581E-03     30.1978E-03    -15.0397E-03     10.9949E-03    -15.0921E-03     29.8164E-03    -14.9147E-03     10.9276E-03
            2358     4.43362E-03     5.90216E-03    -9.97388E+06    -80.9300E+06    -4.15516E+06    -4.75132E+06    -15.0546E-03     30.0575E-03    -15.0029E-03     9.24378E-03    -14.9814E-03     29.6735E-03    -14.8918E-03     9.18056E-03
            2359     3.54691E-03     5.89949E-03    -9.98512E+06    -81.7943E+06    -6.45033E+06    -4.02746E+06    -15.0007E-03     29.9795E-03    -14.9788E-03     7.42957E-03    -14.9228E-03     29.5944E-03    -14.8780E-03     7.37624E-03
            2360     2.66017E-03     5.89743E-03    -10.0426E+06    -82.3792E+06    -8.04388E+06    -3.09455E+06    -14.9714E-03     29.9345E-03    -14.9631E-03     5.60715E-03    -14.8907E-03     29.5489E-03    -14.8693E-03     5.56630E-03
            2361     1.77346E-03     5.89588E-03    -10.1446E+06    -82.9150E+06    -9.28148E+06    -2.05344E+06    -14.9527E-03     29.9062E-03    -14.9535E-03     3.78733E-03    -14.8698E-03     29.5197E-03    -14.8650E-03     3.76026E-03
            2362     886.723E-06     5.89501E-03    -10.1573E+06    -83.2864E+06    -10.0468E+06    -1.11141E+06    -14.9312E-03     29.8978E-03    -14.9666E-03     2.04390E-03    -14.8467E-03     29.5107E-03    -14.8813E-03     2.02925E-03
            2363     16.6923E-03     5.22416E-03    -5.57036E+06     135.023E+06     82.9443E+06     5.70698E+06    -76.3313E-03     100.953E-03    -24.6212E-03     156.351E-03    -79.4588E-03     104.302E-03    -24.3942E-03     155.414E-03
            2364     15.8501E-03     5.09367E-03    -11.4803E+06     89.8124E+06     40.7661E+06     9.77853E+06    -60.1654E-03     82.4191E-03    -22.2537E-03     86.8291E-03    -61.2684E-03     83.6846E-03    -22.1635E-03     86.0671E-03
            2365     14.9940E-03     5.04464E-03    -18.9166E+06     51.7041E+06     5.08415E+06     14.5723E+06    -45.7303E-03     66.1426E-03    -20.4124E-03     44.5987E-03    -46.0564E-03     66.5722E-03    -20.4345E-03     44.4821E-03
            2366     14.1295E-03     5.01271E-03    -22.9638E+06     29.9268E+06    -8.31449E+06     15.1942E+06    -36.3116E-03     55.4383E-03    -19.1268E-03     33.3612E-03    -36.5136E-03     55.6899E-03    -19.1784E-03     33.4170E-03
            2367     13.2591E-03     4.99077E-03    -23.2128E+06     5.67896E+06    -6.41391E+06     7.22297E+06    -30.2877E-03     48.5330E-03    -18.2453E-03     27.7466E-03    -30.4340E-03     48.6363E-03    -18.2519E-03     27.7551E-03
            2368     12.3833E-03     4.97640E-03    -21.8052E+06    -20.6022E+06     2.66009E+06    -889.722E+03    -25.5167E-03     43.1623E-03    -17.6457E-03     24.8490E-03    -25.6156E-03     43.1033E-03    -17.5709E-03     24.7906E-03
            2369     11.5040E-03     4.96558E-03    -20.5527E+06    -40.8771E+06     6.82847E+06    -4.82502E+06    -22.0687E-03     39.2890E-03    -17.2203E-03     23.4592E-03    -22.1310E-03     39.1136E-03    -17.0971E-03     23.3689E-03
            2370     10.6219E-03     4.95717E-03    -19.1541E+06    -58.2121E+06     8.50273E+06    -7.11108E+06    -19.7840E-03     36.7198E-03    -16.9358E-03     21.9675E-03    -19.8131E-03     36.4497E-03    -16.7811E-03     21.8576E-03
            2371     9.73844E-03     4.95061E-03    -16.8942E+06    -71.0341E+06     9.61111E+06    -8.33455E+06    -18.3646E-03     35.1158E-03    -16.7512E-03     20.4302E-03    -18.3634E-03     34.7745E-03    -16.5756E-03     20.3105E-03
            2372     8.85393E-03     4.94501E-03    -14.3567E+06    -76.7063E+06     9.12411E+06    -8.50949E+06    -17.5469E-03     34.1660E-03    -16.6191E-03     18.9633E-03    -17.5228E-03     33.7920E-03    -16.4414E-03     18.8450E-03
            2373     7.96903E-03     4.93979E-03    -12.2842E+06    -77.7010E+06     6.82406E+06    -8.43276E+06    -17.0804E-03     33.5948E-03    -16.5143E-03     17.2184E-03    -17.0404E-03     33.2154E-03    -16.3497E-03     17.1036E-03
            2374     7.08392E-03     4.93519E-03    -10.5012E+06    -78.4418E+06     3.70145E+06    -8.28980E+06    -16.7988E-03     33.2295E-03    -16.4308E-03     15.3246E-03    -16.7438E-03     32.8479E-03    -16.2833E-03     15.2134E-03
            2375     6.19862E-03     4.93093E-03    -9.00726E+06    -79.5396E+06     572.729E+03    -7.45695E+06    -16.6127E-03     32.9770E-03    -16.3642E-03     13.3183E-03    -16.5439E-03     32.5919E-03    -16.2330E-03     13.2190E-03
            2376     5.31324E-03     4.92728E-03    -8.46866E+06    -81.1844E+06    -2.69227E+06    -6.34152E+06    -16.4812E-03     32.7918E-03    -16.3106E-03     11.2735E-03    -16.4023E-03     32.4023E-03    -16.1941E-03     11.1894E-03
            2377     4.42779E-03     4.92410E-03    -8.75977E+06    -82.8627E+06    -5.61453E+06    -5.40373E+06    -16.3888E-03     32.6569E-03    -16.2680E-03     9.27460E-03    -16.3046E-03     32.2635E-03    -16.1633E-03     9.20323E-03
            2378     3.54230E-03     4.92151E-03    -9.20345E+06    -84.0344E+06    -7.53779E+06    -4.48537E+06    -16.3192E-03     32.5546E-03    -16.2354E-03     7.33611E-03    -16.2326E-03     32.1587E-03    -16.1379E-03     7.27705E-03
            2379     2.65678E-03     4.91946E-03    -9.52740E+06    -84.7840E+06    -8.72191E+06    -3.37385E+06    -16.2607E-03     32.4711E-03    -16.2104E-03     5.46298E-03    -16.1729E-03     32.0736E-03    -16.1172E-03     5.41864E-03
            2380     1.77119E-03     4.91800E-03    -9.74417E+06    -85.2822E+06    -9.51615E+06    -2.19583E+06    -16.2135E-03     32.4065E-03    -16.1930E-03     3.65277E-03    -16.1248E-03     32.0080E-03    -16.1028E-03     3.62392E-03
            2381     885.599E-06     4.91707E-03    -9.87629E+06    -85.5349E+06    -9.89480E+06    -1.15434E+06    -16.1813E-03     32.3730E-03    -16.1917E-03     1.96082E-03    -16.0923E-03     31.9740E-03    -16.1028E-03     1.94565E-03
            2382     16.6926E-03     4.17387E-03    -6.39532E+06     127.698E+06     79.1145E+06     7.24948E+06    -77.2919E-03     101.953E-03    -24.6607E-03     145.521E-03    -79.8940E-03     104.760E-03    -24.4410E-03     144.426E-03
            2383     15.8493E-03     4.07082E-03    -11.4978E+06     82.7856E+06     45.0467E+06     16.0395E+06    -56.1781E-03     78.5829E-03    -22.4049E-03     77.9122E-03    -57.0383E-03     79.5690E-03    -22.2830E-03     77.4068E-03
            2384     14.9894E-03     4.03529E-03    -17.4678E+06     51.0456E+06     19.2074E+06     19.5621E+06    -40.7052E-03     61.5632E-03    -20.8580E-03     40.8882E-03    -40.9958E-03     61.9188E-03    -20.8106E-03     40.9225E-03
            2385     14.1211E-03     4.01209E-03    -19.7275E+06     39.6686E+06     6.59285E+06     13.8980E+06    -32.4020E-03     52.2505E-03    -19.8485E-03     35.6600E-03    -32.6129E-03     52.5139E-03    -19.8445E-03     35.7321E-03
            2386     13.2467E-03     3.99716E-03    -19.1891E+06     17.0672E+06     2.48284E+06     4.19227E+06    -27.5272E-03     46.7183E-03    -19.1912E-03     31.7304E-03    -27.6768E-03     46.8536E-03    -19.1757E-03     31.7198E-03
            2387     12.3688E-03     3.98738E-03    -19.3545E+06    -14.8990E+06     5.69951E+06    -3.40241E+06    -24.0394E-03     42.8217E-03    -18.7823E-03     28.6419E-03    -24.1355E-03     42.7798E-03    -18.7041E-03     28.5612E-03
            2388     11.4883E-03     3.97994E-03    -19.1673E+06    -38.2975E+06     6.69013E+06    -8.33908E+06    -21.6706E-03     40.1708E-03    -18.5001E-03     26.9095E-03    -21.7278E-03     40.0045E-03    -18.3834E-03     26.7794E-03
            2389     10.6065E-03     3.97333E-03    -17.7320E+06    -56.9338E+06     5.94116E+06    -11.5115E+06    -20.2968E-03     38.6001E-03    -18.3033E-03     24.6038E-03    -20.3157E-03     38.3366E-03    -18.1653E-03     24.4405E-03
            2390     9.72367E-03     3.96814E-03    -15.6821E+06    -71.5331E+06     4.95740E+06    -13.4122E+06    -19.5460E-03     37.7032E-03    -18.1572E-03     22.2204E-03    -19.5305E-03     37.3635E-03    -18.0059E-03     22.0372E-03
            2391     8.84063E-03     3.96284E-03    -12.8882E+06    -78.4787E+06     3.49173E+06    -13.7082E+06    -19.1375E-03     37.1627E-03    -18.0252E-03     19.8248E-03    -19.0949E-03     36.7853E-03    -17.8752E-03     19.6408E-03
            2392     7.95737E-03     3.95822E-03    -10.0106E+06    -79.9070E+06     2.05510E+06    -12.6426E+06    -18.8160E-03     36.7155E-03    -17.8995E-03     17.3603E-03    -18.7542E-03     36.3284E-03    -17.7589E-03     17.1921E-03
            2393     7.07384E-03     3.95374E-03    -8.41825E+06    -80.9513E+06    -519.037E+03    -11.0399E+06    -18.5425E-03     36.3224E-03    -17.7799E-03     14.9724E-03    -18.4672E-03     35.9311E-03    -17.6529E-03     14.8263E-03
            2394     6.19020E-03     3.94986E-03    -8.11881E+06    -82.7817E+06    -3.54811E+06    -9.16164E+06    -18.2906E-03     35.9607E-03    -17.6701E-03     12.6903E-03    -18.2065E-03     35.5639E-03    -17.5560E-03     12.5695E-03
            2395     5.30630E-03     3.94635E-03    -8.07969E+06    -84.1418E+06    -5.51668E+06    -7.00347E+06    -18.0581E-03     35.6326E-03    -17.5745E-03     10.5227E-03    -17.9688E-03     35.2318E-03    -17.4684E-03     10.4305E-03
            2396     4.42226E-03     3.94341E-03    -8.33042E+06    -85.2601E+06    -7.25048E+06    -5.27765E+06    -17.8410E-03     35.3320E-03    -17.4910E-03     8.49830E-03    -17.7487E-03     34.9283E-03    -17.3915E-03     8.42879E-03
            2397     3.53802E-03     3.94095E-03    -9.01400E+06    -86.3951E+06    -8.94602E+06    -4.04029E+06    -17.6488E-03     35.0703E-03    -17.4215E-03     6.63630E-03    -17.5558E-03     34.6644E-03    -17.3279E-03     6.58316E-03
            2398     2.65363E-03     3.93905E-03    -9.75208E+06    -87.1716E+06    -9.97069E+06    -2.96164E+06    -17.4983E-03     34.8675E-03    -17.3693E-03     4.90601E-03    -17.4062E-03     34.4603E-03    -17.2786E-03     4.86711E-03
            2399     1.76918E-03     3.93768E-03    -10.2672E+06    -87.5981E+06    -10.4947E+06    -1.95984E+06    -17.3931E-03     34.7254E-03    -17.3322E-03     3.27537E-03    -17.3023E-03     34.3174E-03    -17.2428E-03     3.24965E-03
            2400     884.609E-06     3.93682E-03    -10.4621E+06    -87.6921E+06    -10.5753E+06    -1.06865E+06    -17.3302E-03     34.6360E-03    -17.3058E-03     1.77232E-03    -17.2400E-03     34.2281E-03    -17.2164E-03     1.75830E-03
            2401     16.6845E-03     3.12593E-03    -5.72690E+06     116.403E+06     71.8488E+06     10.5924E+06    -75.1653E-03     100.346E-03    -25.1805E-03     131.945E-03    -77.1865E-03     102.556E-03    -24.9818E-03     130.888E-03
            2402     15.8374E-03     3.04903E-03    -11.6348E+06     75.2368E+06     49.2701E+06     17.7389E+06    -51.4597E-03     74.6270E-03    -23.1673E-03     65.1888E-03    -52.0821E-03     75.3363E-03    -23.0132E-03     64.8808E-03
            2403     14.9751E-03     3.03052E-03    -10.7497E+06     57.3859E+06     38.6988E+06     17.4667E+06    -35.2997E-03     57.2825E-03    -21.9827E-03     42.2880E-03    -35.5601E-03     57.5976E-03    -21.8568E-03     42.3673E-03
            2404     14.1008E-03     3.01592E-03    -9.51574E+06     49.9374E+06     22.7655E+06     10.4563E+06    -29.8470E-03     51.0933E-03    -21.2463E-03     41.7630E-03    -30.0344E-03     51.3583E-03    -21.1911E-03     41.8200E-03
            2405     13.2248E-03     3.00286E-03    -9.73011E+06     25.9112E+06     8.87274E+06     2.99828E+06    -27.0793E-03     47.8037E-03    -20.7244E-03     35.0040E-03    -27.1958E-03     47.9519E-03    -20.7035E-03     34.9949E-03
            2406     12.3475E-03     2.99798E-03    -10.3409E+06    -8.32462E+06     3.79124E+06    -4.52708E+06    -24.7796E-03     45.1509E-03    -20.3713E-03     30.7632E-03    -24.8335E-03     45.1273E-03    -20.3253E-03     30.6763E-03
            2407     11.4683E-03     2.99151E-03    -10.2448E+06    -35.0548E+06    -333.842E+03    -10.6717E+06    -23.4697E-03     43.5631E-03    -20.0933E-03     27.7845E-03    -23.4748E-03     43.4079E-03    -20.0293E-03     27.6288E-03
            2408     10.5882E-03     2.98686E-03    -9.62608E+06    -55.7330E+06    -4.16914E+06    -14.1560E+06    -22.5718E-03     42.4256E-03    -19.8537E-03     24.3570E-03    -22.5361E-03     42.1695E-03    -19.7798E-03     24.1625E-03
            2409     9.70789E-03     2.98171E-03    -8.75139E+06    -71.8594E+06    -6.71601E+06    -16.2340E+06    -22.0365E-03     41.6736E-03    -19.6370E-03     21.2535E-03    -21.9682E-03     41.3382E-03    -19.5537E-03     21.0358E-03
            2410     8.82725E-03     2.97734E-03    -7.85075E+06    -80.7557E+06    -7.86398E+06    -16.8362E+06    -21.5572E-03     40.9830E-03    -19.4258E-03     18.2755E-03    -21.4690E-03     40.6028E-03    -19.3366E-03     18.0526E-03
            2411     7.94609E-03     2.97296E-03    -6.93862E+06    -84.3437E+06    -7.96620E+06    -15.1307E+06    -21.0434E-03     40.2649E-03    -19.2215E-03     15.5672E-03    -20.9450E-03     39.8653E-03    -19.1290E-03     15.3679E-03
            2412     7.06463E-03     2.96919E-03    -6.50034E+06    -85.4057E+06    -7.78356E+06    -11.7584E+06    -20.5312E-03     39.5605E-03    -19.0293E-03     13.0852E-03    -20.4291E-03     39.1545E-03    -18.9349E-03     12.9306E-03
            2413     6.18258E-03     2.96569E-03    -6.95686E+06    -86.7148E+06    -8.57801E+06    -8.82963E+06    -20.0470E-03     38.8972E-03    -18.8502E-03     10.8699E-03    -19.9440E-03     38.4863E-03    -18.7572E-03     10.7540E-03
            2414     5.30024E-03     2.96268E-03    -7.88122E+06    -87.7039E+06    -9.33799E+06    -6.63086E+06    -19.5985E-03     38.2885E-03    -18.6899E-03     8.87972E-03    -19.4974E-03     37.8750E-03    -18.5980E-03     8.79267E-03
            2415     4.41748E-03     2.96015E-03    -8.62280E+06    -88.1392E+06    -9.45429E+06    -4.63803E+06    -19.1927E-03     37.7459E-03    -18.5532E-03     7.09043E-03    -19.0944E-03     37.3314E-03    -18.4602E-03     7.02950E-03
            2416     3.53441E-03     2.95807E-03    -9.28930E+06    -88.6319E+06    -10.0603E+06    -3.08722E+06    -18.8481E-03     37.2863E-03    -18.4382E-03     5.48122E-03    -18.7515E-03     36.8712E-03    -18.3466E-03     5.44062E-03
            2417     2.65102E-03     2.95646E-03     -9.9963E+06    -89.0851E+06    -10.6383E+06    -2.09343E+06    -18.5784E-03     36.9277E-03    -18.3493E-03     4.01543E-03    -18.4838E-03     36.5121E-03    -18.2588E-03     3.98789E-03
            2418     1.76742E-03     2.95523E-03    -10.6094E+06    -89.3572E+06    -10.8805E+06    -1.44184E+06    -18.3901E-03     36.6769E-03    -18.2868E-03     2.65781E-03    -18.2978E-03     36.2612E-03    -18.1962E-03     2.63887E-03
            2419     883.750E-06     2.95455E-03    -10.9847E+06    -89.5966E+06    -11.1444E+06    -825.424E+03    -18.2759E-03     36.5234E-03    -18.2475E-03     1.43327E-03    -18.1847E-03     36.1076E-03    -18.1573E-03     1.42245E-03
            2420     16.6652E-03     2.07169E-03    -3.94095E+06     106.386E+06     71.1555E+06     12.5542E+06    -71.9790E-03     98.2354E-03    -26.2564E-03     107.770E-03    -73.3541E-03     99.7768E-03    -26.0492E-03     106.826E-03
            2421     15.8196E-03     2.03439E-03    -2.96531E+06     76.0023E+06     59.1230E+06     14.7399E+06    -43.1466E-03     67.7492E-03    -24.6026E-03     54.6744E-03    -43.5367E-03     68.2307E-03    -24.4129E-03     54.5546E-03
            2422     14.9442E-03     2.03450E-03    -2.37999E+06     64.7215E+06     47.8351E+06     10.1998E+06    -33.5862E-03     57.3358E-03    -23.7495E-03     46.7312E-03    -33.8014E-03     57.6330E-03    -23.6008E-03     46.7692E-03
            2423     14.0710E-03     2.01254E-03    -245.156E+03     55.7149E+06     27.1583E+06     5.78835E+06    -31.6635E-03     54.7497E-03    -23.0862E-03     42.4872E-03    -31.8054E-03     55.0092E-03    -23.0308E-03     42.5073E-03
            2424     13.1996E-03     2.00886E-03     1.50692E+06     32.1572E+06     4.27975E+06     1.81527E+06    -29.4740E-03     51.9706E-03    -22.4965E-03     32.2600E-03    -29.5284E-03     52.1316E-03    -22.5240E-03     32.2508E-03
            2425     12.3232E-03     2.00289E-03     2.27538E+06    -1.20882E+06    -7.53818E+06    -4.37377E+06    -27.8628E-03     49.9049E-03    -22.0422E-03     27.5124E-03    -27.8438E-03     49.9111E-03    -22.0814E-03     27.4352E-03
            2426     11.4480E-03     1.99930E-03     1.69168E+06    -31.6873E+06    -13.8402E+06    -9.94278E+06    -26.7949E-03     48.4481E-03    -21.6532E-03     23.4884E-03    -26.7232E-03     48.3097E-03    -21.6789E-03     23.3470E-03
            2427     10.5713E-03     1.99509E-03     599.918E+03    -54.8051E+06    -20.2456E+06    -13.2457E+06    -25.8654E-03     47.1403E-03    -21.2749E-03     20.0379E-03    -25.7552E-03     46.8960E-03    -21.2975E-03     19.8584E-03
            2428     9.69399E-03     1.99133E-03    -466.507E+03    -72.1270E+06    -23.7754E+06    -14.8957E+06    -24.9720E-03     45.8921E-03    -20.9201E-03     16.8657E-03    -24.8362E-03     45.5673E-03    -20.9338E-03     16.6676E-03
            2429     8.81572E-03     1.98759E-03    -1.99394E+06    -83.3199E+06    -23.0500E+06    -15.0237E+06    -24.0530E-03     44.6518E-03    -20.5988E-03     14.1451E-03    -23.9093E-03     44.2719E-03    -20.5904E-03     13.9472E-03
            2430     7.93685E-03     1.98445E-03    -3.96925E+06    -89.2797E+06    -20.8888E+06    -13.3414E+06    -23.1855E-03     43.4868E-03    -20.3013E-03     11.8209E-03    -23.0460E-03     43.0767E-03    -20.2705E-03     11.6459E-03
            2431     7.05700E-03     1.98143E-03    -5.49824E+06    -91.0141E+06    -16.9786E+06    -10.2675E+06    -22.3504E-03     42.3818E-03    -20.0315E-03     9.76592E-03    -22.2215E-03     41.9595E-03    -19.9764E-03     9.63147E-03
            2432     6.17664E-03     1.97888E-03    -6.55906E+06    -90.7241E+06    -13.3800E+06    -7.02108E+06    -21.5662E-03     41.3530E-03    -19.7868E-03     7.97583E-03    -21.4482E-03     40.9283E-03    -19.7126E-03     7.88383E-03
            2433     5.29545E-03     1.97661E-03    -7.78201E+06    -90.8575E+06    -12.4718E+06    -4.81199E+06    -20.8700E-03     40.4334E-03    -19.5634E-03     6.44366E-03    -20.7592E-03     40.0085E-03    -19.4827E-03     6.38057E-03
            2434     4.41377E-03     1.97475E-03    -9.03136E+06    -90.7608E+06    -11.5552E+06    -3.31161E+06    -20.2817E-03     39.6562E-03    -19.3746E-03     5.09756E-03    -20.1785E-03     39.2323E-03    -19.2876E-03     5.05411E-03
            2435     3.53157E-03     1.97323E-03    -9.85229E+06    -90.5410E+06    -10.9176E+06    -2.16721E+06    -19.8046E-03     39.0219E-03    -19.2173E-03     3.91718E-03    -19.7068E-03     38.5993E-03    -19.1263E-03     3.88871E-03
            2436     2.64906E-03     1.97202E-03    -10.3222E+06    -90.4530E+06    -10.8233E+06    -1.36404E+06    -19.4293E-03     38.5193E-03    -19.0899E-03     2.84999E-03    -19.3341E-03     38.0976E-03    -18.9979E-03     2.83204E-03
            2437     1.76623E-03     1.97117E-03    -10.7115E+06    -90.5378E+06    -10.9726E+06    -786.730E+03    -19.1483E-03     38.1448E-03    -18.9965E-03     1.87479E-03    -19.0547E-03     37.7236E-03    -18.9045E-03     1.86442E-03
            2438     883.162E-06     1.97058E-03    -11.1909E+06    -90.8557E+06    -11.3501E+06    -376.121E+03    -18.9788E-03     37.9178E-03    -18.9391E-03     1.00366E-03    -18.8864E-03     37.4963E-03    -18.8478E-03     998.683E-06
            2439     16.6551E-03     1.04105E-03     488.683E+03     100.256E+06     75.8013E+06     8.60072E+06    -71.1431E-03     99.6173E-03    -28.4741E-03     95.8682E-03    -71.8993E-03     100.520E-03    -28.2412E-03     95.1587E-03
            2440     15.7742E-03     1.03456E-03     3.91414E+06      80.204E+06     66.3864E+06     8.86878E+06    -46.9102E-03     73.6883E-03    -26.7781E-03     54.9481E-03    -47.1631E-03     74.0412E-03    -26.5682E-03     54.9482E-03
            2441     14.9103E-03     1.02067E-03     5.60572E+06     70.3167E+06     47.5790E+06     4.55071E+06    -41.2122E-03     66.8715E-03    -25.6594E-03     38.7306E-03    -41.3696E-03     67.1591E-03    -25.5316E-03     38.7465E-03
            2442     14.0472E-03     1.01045E-03     8.13627E+06     57.3363E+06     20.5970E+06     1.53149E+06    -36.5024E-03     61.2102E-03    -24.7078E-03     28.3208E-03    -36.5816E-03     61.4620E-03    -24.6998E-03     28.3100E-03
            2443     13.1748E-03     1.00572E-03     10.8884E+06     35.8176E+06    -5.53058E+06     272.728E+03    -33.0357E-03     56.9712E-03    -23.9355E-03     19.8340E-03    -33.0281E-03     57.1452E-03    -24.0308E-03     19.8209E-03
            2444     12.3060E-03     1.00378E-03     11.7090E+06     3.63677E+06    -20.5575E+06    -2.58283E+06    -31.4307E-03     54.7543E-03    -23.3236E-03     16.2725E-03    -31.3494E-03     54.7868E-03    -23.4487E-03     16.2281E-03
            2445     11.4327E-03     1.00128E-03     10.5643E+06    -28.8709E+06     -27.509E+06    -5.78157E+06    -29.9728E-03     52.7616E-03    -22.7889E-03     13.5930E-03    -29.8391E-03     52.6426E-03    -22.8999E-03     13.5114E-03
            2446     10.5592E-03     998.902E-06     8.33469E+06    -53.6734E+06    -34.8336E+06    -8.10933E+06    -28.6449E-03     50.9161E-03    -22.2712E-03     11.3442E-03    -28.4754E-03     50.6866E-03    -22.3796E-03     11.2349E-03
            2447     9.68432E-03     996.761E-06     5.25276E+06    -72.9535E+06    -37.4356E+06    -9.03815E+06    -27.2758E-03     49.0769E-03    -21.8011E-03     9.41767E-03    -27.0897E-03     48.7590E-03    -21.8902E-03     9.29792E-03
            2448     8.80812E-03     994.876E-06     1.71711E+06    -85.6103E+06    -34.1829E+06    -8.58396E+06    -25.9523E-03     47.3411E-03    -21.3888E-03     7.78813E-03    -25.7702E-03     46.9603E-03    -21.4380E-03     7.67529E-03
            2449     7.93053E-03     992.956E-06    -1.76544E+06    -92.6337E+06    -29.3128E+06    -7.63859E+06    -24.7263E-03     45.7426E-03    -21.0163E-03     6.38581E-03    -24.5584E-03     45.3246E-03    -21.0260E-03     6.28581E-03
            2450     7.05223E-03     991.377E-06    -4.68571E+06    -95.2980E+06    -23.9022E+06    -6.09270E+06    -23.6036E-03     44.2845E-03    -20.6809E-03     5.21696E-03    -23.4543E-03     43.8495E-03    -20.6554E-03     5.13733E-03
            2451     6.17269E-03     989.963E-06     -6.8444E+06    -94.2582E+06    -18.1531E+06    -4.08597E+06    -22.5905E-03     42.9750E-03    -20.3844E-03     4.23162E-03    -22.4618E-03     42.5399E-03    -20.3286E-03     4.17819E-03
            2452     5.29247E-03     988.809E-06    -8.20075E+06    -93.1306E+06    -14.6048E+06    -2.42563E+06    -21.7220E-03     41.8425E-03    -20.1205E-03     3.38710E-03    -21.6068E-03     41.4099E-03    -20.0466E-03     3.35531E-03
            2453     4.41143E-03     987.781E-06    -9.22894E+06    -92.2434E+06    -12.4969E+06    -1.58115E+06    -20.9969E-03     40.8902E-03    -19.8932E-03     2.65373E-03    -20.8912E-03     40.4604E-03    -19.8086E-03     2.63297E-03
            2454     3.52989E-03     986.979E-06    -10.0208E+06    -91.7127E+06    -11.4334E+06    -1.19633E+06    -20.4121E-03     40.1155E-03    -19.7034E-03     2.03054E-03    -20.3126E-03     39.6880E-03    -19.6130E-03     2.01484E-03
            2455     2.64782E-03     986.321E-06    -10.5233E+06    -91.4704E+06    -11.1356E+06    -775.824E+03    -19.9568E-03     39.5078E-03    -19.5509E-03     1.48225E-03    -19.8607E-03     39.0818E-03    -19.4587E-03     1.47206E-03
            2456     1.76541E-03     985.889E-06    -10.7969E+06    -91.3161E+06    -11.0710E+06    -284.132E+03    -19.6255E-03     39.0636E-03    -19.4381E-03     980.317E-06    -19.5310E-03     38.6387E-03    -19.3454E-03     976.545E-06
            2457     882.767E-06     985.611E-06    -11.0334E+06    -91.2436E+06    -11.0367E+06     9.26905E+03    -19.4292E-03     38.7844E-03    -19.3552E-03     532.301E-06    -19.3360E-03     38.3603E-03    -19.2621E-03     532.383E-06


