********************************************************************************
Field Output Report, written Tue May 28 21:32:05 2024

Source 1
---------

   ODB: G:/Abaqus_calc_2019/1740/Vel_10/odb/zeides_2a_24_red_2000_cal_100_vel_10_fric_0100.odb
   Step: Step-1
   Frame: Increment  16609255: Step Time =    1.614

Loc 1 : Nodal values from source 1

Output sorted by column "Nodal Label".

Field Output reported at nodes for region: DIE_2A_24_D0_36-1.Region_1
   Computation algorithm: EXTRAPOLATE_COMPUTE_AVERAGE
   Averaged at nodes
   Averaging regions: ODB_REGIONS

      Node Label     COORD.COOR1     COORD.COOR2
                          @Loc 1          @Loc 1
-------------------------------------------------
               1     17.3939E-03     173.950E-03


Field Output reported at nodes for region: DIE_2A_24_D0_36-1.Region_2
   Computation algorithm: EXTRAPOLATE_COMPUTE_AVERAGE
   Averaged at nodes
   Averaging regions: ODB_REGIONS

      Node Label     COORD.COOR1     COORD.COOR2
                          @Loc 1          @Loc 1
-------------------------------------------------
               1     17.3939E-03     173.950E-03


Field Output reported at nodes for part: WIRE-1
   Computation algorithm: EXTRAPOLATE_COMPUTE_AVERAGE
   Averaged at nodes
   Averaging regions: ODB_REGIONS

      Node Label     COORD.COOR1     COORD.COOR2           S.S11           S.S22           S.S33           S.S12         PE.PE11         PE.PE22         PE.PE33         PE.PE12         LE.LE11         LE.LE22         LE.LE33         LE.LE12
                          @Loc 1          @Loc 1          @Loc 1          @Loc 1          @Loc 1          @Loc 1          @Loc 1          @Loc 1          @Loc 1          @Loc 1          @Loc 1          @Loc 1          @Loc 1          @Loc 1
-------------------------------------------------------------------------------------------------------------------------------------------------------------------------------------------------------------------------------------------------
               1     272.189E-09     84.5720E-03    -140.959E+06    -259.917E+06    -141.258E+06     435.122E+03    -226.398E-03     452.402E-03    -226.004E-03     11.5676E-03    -226.537E-03     451.529E-03    -226.129E-03     10.2918E-03
               2     14.3603E-03     87.8369E-03    -2.25169E+06     62.3809E+06     85.2723E+06     133.038E+03    -226.771E-03     453.099E-03    -226.329E-03     103.200E-03    -228.483E-03     454.778E-03    -225.989E-03     90.4842E-03
               3     14.3978E-03     174.691E-03    -64.5837E+06     63.1311E+06     44.0679E+06    -32.9052E+06    -56.3373E-03     283.492E-03    -227.155E-03     27.4113E-03    -56.7947E-03     283.964E-03    -226.932E-03     26.2657E-03
               4    -7.20783E-06     169.595E-03     16.1377E+06    -26.1971E+06     1.76166E+06    -8.37672E+06    -248.153E-03     503.694E-03    -255.541E-03    -54.4998E-03    -248.534E-03     502.974E-03    -255.518E-03    -55.5830E-03
               5    -6.59443E-09     4.95437E-15    -67.5187E+06    -233.164E+06    -66.5318E+06     1.05367E+06    -197.103E-03     393.875E-03    -196.771E-03     936.066E-06    -197.004E-03     392.904E-03    -196.668E-03     849.290E-06
               6     14.1657E-03     4.95437E-15     316.846E+03     81.9067E+06     90.5481E+06     2.37230E+06    -502.699E-03     731.762E-03    -229.064E-03     226.579E-03    -507.405E-03     736.557E-03    -228.730E-03     190.533E-03
               7     717.905E-06     84.5873E-03    -139.720E+06    -253.384E+06    -136.867E+06     399.376E+03    -226.423E-03     452.551E-03    -226.128E-03     19.3738E-03    -226.611E-03     451.740E-03    -226.242E-03     17.2260E-03
               8     1.43535E-03     84.6242E-03    -136.133E+06    -239.806E+06    -125.374E+06     84.4966E+03    -226.552E-03     452.840E-03    -226.289E-03     35.5259E-03    -226.870E-03     452.188E-03    -226.370E-03     31.5921E-03
               9     2.15306E-03     84.6836E-03    -129.553E+06    -225.012E+06    -108.182E+06     2.81726E+03    -226.828E-03     453.194E-03    -226.365E-03     52.2058E-03    -227.346E-03     452.766E-03    -226.392E-03     46.4098E-03
              10     2.87061E-03     84.7662E-03    -121.453E+06    -202.125E+06    -87.9906E+06     359.490E+03    -227.160E-03     453.586E-03    -226.426E-03     68.6744E-03    -227.956E-03     453.489E-03    -226.397E-03     61.0112E-03
              11     3.58823E-03     84.8704E-03    -112.889E+06    -174.920E+06    -67.4207E+06     74.0960E+03    -227.493E-03     453.957E-03    -226.464E-03     84.8724E-03    -228.639E-03     454.277E-03    -226.384E-03     75.3592E-03
              12     4.30608E-03     84.9962E-03    -103.510E+06    -149.278E+06    -47.0101E+06     21.6895E+03    -227.845E-03     454.325E-03    -226.480E-03     100.420E-03    -229.392E-03     455.111E-03    -226.348E-03     89.1055E-03
              13     5.02410E-03     85.1424E-03    -94.0840E+06    -124.635E+06    -27.8769E+06     196.138E+03    -228.275E-03     454.751E-03    -226.476E-03     114.972E-03    -230.262E-03     456.042E-03    -226.298E-03     101.946E-03
              14     5.74215E-03     85.3076E-03    -84.7748E+06    -97.8939E+06    -10.2378E+06    -369.449E+03    -228.803E-03     455.263E-03    -226.460E-03     128.485E-03    -231.257E-03     457.099E-03    -226.246E-03     113.844E-03
              15     6.46030E-03     85.4899E-03    -75.8300E+06    -67.0931E+06     5.91995E+06    -1.01843E+06    -229.372E-03     455.810E-03    -226.438E-03     140.599E-03    -232.298E-03     458.211E-03    -226.201E-03     124.502E-03
              16     7.17837E-03     85.6884E-03    -66.4630E+06    -35.4498E+06     21.5458E+06    -1.33906E+06    -229.887E-03     456.304E-03    -226.417E-03     150.954E-03    -233.252E-03     459.245E-03    -226.162E-03     133.603E-03
              17     7.89656E-03     85.9000E-03    -57.1152E+06    -1.89852E+06     36.4355E+06    -1.57691E+06    -230.302E-03     456.696E-03    -226.394E-03     159.359E-03    -234.054E-03     460.133E-03    -226.127E-03     140.966E-03
              18     8.61460E-03     86.1212E-03    -49.4702E+06     18.1997E+06     45.7119E+06    -1.85651E+06    -230.754E-03     457.126E-03    -226.372E-03     165.850E-03    -234.804E-03     460.933E-03    -226.098E-03     146.617E-03
              19     9.33225E-03     86.3508E-03    -42.7366E+06     24.2441E+06     51.6865E+06    -1.66975E+06    -231.163E-03     457.529E-03    -226.366E-03     170.466E-03    -235.413E-03     461.564E-03    -226.081E-03     150.597E-03
              20     10.0508E-03     86.5841E-03    -35.3402E+06      29.088E+06     59.3442E+06    -1.45822E+06    -231.376E-03     457.754E-03    -226.379E-03     172.954E-03    -235.748E-03     461.933E-03    -226.073E-03     152.585E-03
              21     10.7685E-03     86.8200E-03    -28.1740E+06     35.9381E+06     69.4667E+06    -823.045E+03    -231.371E-03     457.779E-03    -226.408E-03     172.715E-03    -235.772E-03     462.005E-03    -226.072E-03     152.054E-03
              22     11.4862E-03     87.0527E-03    -22.0650E+06     46.4968E+06     78.2677E+06    -764.412E+03    -230.989E-03     457.417E-03    -226.427E-03     169.953E-03    -235.344E-03     461.631E-03    -226.072E-03     149.158E-03
              23     12.2050E-03     87.2813E-03    -15.0200E+06     59.1283E+06     83.3984E+06     48.9456E+03    -230.174E-03     456.591E-03    -226.417E-03     161.935E-03    -234.238E-03     460.570E-03    -226.064E-03     141.654E-03
              24     12.9198E-03     87.4889E-03    -9.12797E+06     69.9363E+06     86.7341E+06     450.482E+03    -229.485E-03     455.875E-03    -226.390E-03     156.971E-03    -233.384E-03     459.738E-03    -226.044E-03     136.965E-03
              25     13.6399E-03     87.7016E-03    -4.82085E+06     68.0314E+06     86.4374E+06    -220.644E+03    -228.033E-03     454.384E-03    -226.351E-03     130.675E-03    -230.886E-03     457.210E-03    -226.010E-03     114.154E-03
              26     14.3593E-03     89.3278E-03    -1.60518E+06     61.8641E+06     84.9698E+06     852.044E+03    -226.680E-03     452.989E-03    -226.309E-03     101.076E-03    -228.362E-03     454.638E-03    -225.971E-03     88.4275E-03
              27     14.3597E-03     90.8126E-03    -336.817E+03     62.3374E+06     84.6275E+06     277.053E+03    -226.679E-03     452.992E-03    -226.312E-03     100.143E-03    -228.386E-03     454.673E-03    -225.979E-03     87.2253E-03
              28     14.3593E-03     92.3048E-03    -4.11977E+06     61.8588E+06     82.4321E+06    -600.260E+03    -228.405E-03     454.714E-03    -226.310E-03     100.085E-03    -230.142E-03     456.418E-03    -225.981E-03     86.9675E-03
              29     14.3571E-03     93.7989E-03       -3.77E+06     64.9124E+06     81.9866E+06     1.32865E+06    -228.174E-03     454.494E-03    -226.319E-03     100.034E-03    -229.878E-03     456.177E-03    -225.998E-03     87.1743E-03
              30     14.3613E-03     95.2875E-03    -1.58902E+06     66.1634E+06     84.3571E+06    -774.537E+03    -226.550E-03     452.876E-03    -226.326E-03     100.392E-03    -228.258E-03     454.569E-03    -225.998E-03     87.5213E-03
              31     14.3574E-03     96.7756E-03    -2.16381E+06     64.4222E+06     86.4505E+06       48.11E+03    -227.372E-03     453.673E-03    -226.301E-03     101.214E-03    -229.082E-03     455.353E-03    -225.959E-03     88.3890E-03
              32     14.3621E-03     98.2721E-03    -2.58882E+06     64.1309E+06     86.0844E+06    -258.802E+03    -227.712E-03     453.981E-03    -226.269E-03     102.283E-03    -229.431E-03     455.668E-03    -225.928E-03     89.4477E-03
              33     14.3580E-03     99.7585E-03    -2.03578E+06     61.8156E+06     84.5309E+06    -669.447E+03    -227.551E-03     453.818E-03    -226.267E-03     101.376E-03    -229.268E-03     455.501E-03    -225.931E-03     88.4543E-03
              34     14.3615E-03     101.250E-03    -2.03298E+06     61.9577E+06     84.8745E+06     1.37505E+06    -227.685E-03     453.986E-03    -226.301E-03     100.099E-03    -229.397E-03     455.664E-03    -225.964E-03     87.1700E-03
              35     14.3564E-03     102.741E-03    -2.16440E+06     66.1854E+06     87.0459E+06     443.081E+03    -226.996E-03     453.328E-03    -226.332E-03     100.989E-03    -228.724E-03     455.030E-03    -225.989E-03     88.0843E-03
              36     14.3627E-03     104.230E-03    -1.47312E+06     66.8674E+06     86.2381E+06    -9.61313E+03    -226.723E-03     453.017E-03    -226.294E-03     102.042E-03    -228.440E-03     454.716E-03    -225.958E-03     89.2372E-03
              37     14.3575E-03     105.719E-03    -2.22570E+06     66.1793E+06     85.3433E+06    -740.934E+03    -227.178E-03     453.446E-03    -226.268E-03     100.968E-03    -228.885E-03     455.132E-03    -225.934E-03     88.1387E-03
              38     14.3622E-03     107.211E-03    -557.480E+03     69.0378E+06     87.1763E+06     1.04905E+06    -226.557E-03     452.832E-03    -226.275E-03     101.328E-03    -228.272E-03     454.537E-03    -225.938E-03     88.5294E-03
              39     14.3587E-03     108.696E-03    -4.10667E+06     68.7593E+06     86.2783E+06    -429.812E+03    -228.322E-03     454.599E-03    -226.277E-03     99.7870E-03    -230.041E-03     456.298E-03    -225.940E-03     86.8889E-03
              40     14.3583E-03     110.194E-03    -3.44093E+06     69.1724E+06     87.3478E+06     1.01584E+06    -228.506E-03     454.801E-03    -226.295E-03     100.945E-03    -230.211E-03     456.486E-03    -225.954E-03     88.2079E-03
              41     14.3617E-03     111.685E-03    -673.063E+03     70.2333E+06     88.7657E+06     95.4278E+03    -226.058E-03     452.385E-03    -226.327E-03     101.245E-03    -227.798E-03     454.114E-03    -225.984E-03     88.3160E-03
              42     14.3570E-03     113.167E-03    -1.93041E+06     70.7195E+06     87.7906E+06    -579.877E+03    -225.820E-03     452.150E-03    -226.329E-03     100.439E-03    -227.556E-03     453.875E-03    -225.990E-03     87.5259E-03
              43     14.3630E-03     114.658E-03    -2.14160E+06     70.7146E+06     86.7834E+06     227.488E+03    -227.145E-03     453.411E-03    -226.266E-03     101.499E-03    -228.862E-03     455.120E-03    -225.931E-03     88.7102E-03
              44     14.3573E-03     116.152E-03    -3.98727E+06     70.6080E+06     87.1275E+06     38.3684E+03    -228.176E-03     454.434E-03    -226.258E-03     100.467E-03    -229.890E-03     456.132E-03    -225.919E-03     87.6482E-03
              45     14.3617E-03     117.641E-03    -390.430E+03     71.5891E+06     88.1815E+06     730.947E+03    -227.022E-03     453.290E-03    -226.268E-03     101.399E-03    -228.743E-03     455.008E-03    -225.930E-03     88.5665E-03
              46     14.3596E-03     119.129E-03    -3.24026E+06     68.3286E+06     85.6523E+06    -1.68526E+06    -227.395E-03     453.657E-03    -226.261E-03     99.8786E-03    -229.127E-03     455.370E-03    -225.927E-03     86.8705E-03
              47     14.3589E-03     120.623E-03    -3.42223E+06     66.8112E+06     86.2196E+06     373.542E+03    -227.016E-03     453.300E-03    -226.284E-03     100.458E-03    -228.720E-03     454.979E-03    -225.945E-03     87.7127E-03
              48     14.3621E-03     122.108E-03     73.9406E+03     69.8271E+06     88.9298E+06     1.08529E+06    -226.060E-03     452.341E-03    -226.281E-03     99.7721E-03    -227.759E-03     454.030E-03    -225.938E-03     87.0015E-03
              49     14.3581E-03     123.597E-03    -2.71300E+06     72.3638E+06     88.9286E+06    -99.7628E+03    -227.416E-03     453.688E-03    -226.272E-03     98.7399E-03    -229.141E-03     455.402E-03    -225.928E-03     85.7846E-03
              50     14.3614E-03     125.091E-03    -2.92665E+06     74.2061E+06     88.9395E+06     938.785E+03    -227.754E-03     454.009E-03    -226.255E-03     101.186E-03    -229.476E-03     455.726E-03    -225.913E-03     88.4147E-03
              51     14.3594E-03     126.584E-03    -2.78579E+06     75.6211E+06     89.4587E+06     72.2103E+03    -226.739E-03     453.002E-03    -226.263E-03     101.666E-03    -228.468E-03     454.730E-03    -225.921E-03     88.9291E-03
              52     14.3612E-03     128.070E-03    -1.07180E+06     75.9939E+06     90.9432E+06     304.839E+03    -225.609E-03     451.895E-03    -226.286E-03     101.327E-03    -227.353E-03     453.642E-03    -225.940E-03     88.4970E-03
              53     14.3601E-03     129.555E-03    -3.16857E+06     76.3440E+06     90.5955E+06    -475.255E+03    -225.676E-03     451.960E-03    -226.285E-03     99.5965E-03    -227.425E-03     453.706E-03    -225.938E-03     86.6873E-03
              54     14.3603E-03     131.045E-03    -2.65416E+06     79.7280E+06     90.6922E+06     1.47978E+06    -225.377E-03     451.645E-03    -226.268E-03     100.677E-03    -227.129E-03     453.407E-03    -225.926E-03     87.8776E-03
              55     14.3622E-03     132.533E-03    -1.24865E+06     82.8718E+06     91.7836E+06     1.16157E+06    -225.006E-03     451.282E-03    -226.276E-03     99.7257E-03    -226.751E-03     453.051E-03    -225.935E-03     86.9079E-03
              56     14.3581E-03     134.016E-03    -1.96534E+06     85.9529E+06     94.0308E+06    -235.672E+03    -225.016E-03     451.317E-03    -226.301E-03     98.4304E-03    -226.751E-03     453.077E-03    -225.952E-03     85.6411E-03
              57     14.3632E-03     135.504E-03    -3.07979E+06     88.9529E+06     95.4485E+06     462.475E+03    -224.817E-03     451.069E-03    -226.252E-03     100.081E-03    -226.553E-03     452.833E-03    -225.899E-03     87.4829E-03
              58     14.3605E-03     136.995E-03    -2.96010E+06     87.3403E+06     95.9887E+06    -652.566E+03    -224.351E-03     450.592E-03    -226.241E-03     99.3086E-03    -226.074E-03     452.337E-03    -225.883E-03     86.7534E-03
              59     14.3623E-03     138.477E-03    -1.21093E+06     88.6710E+06     97.7289E+06     1.29677E+06    -222.213E-03     448.456E-03    -226.242E-03     100.293E-03    -223.964E-03     450.233E-03    -225.880E-03     87.7167E-03
              60     14.3647E-03     139.955E-03    -4.13133E+06     91.2596E+06     99.1758E+06     48.9566E+03    -221.468E-03     447.633E-03    -226.164E-03     99.8046E-03    -223.250E-03     449.436E-03    -225.795E-03     87.1620E-03
              61     14.3640E-03     141.443E-03    -1.30150E+06     93.9472E+06     102.964E+06     1.97438E+06    -219.796E-03     445.894E-03    -226.099E-03     101.580E-03    -221.580E-03     447.709E-03    -225.718E-03     89.1060E-03
              62     14.3700E-03     142.918E-03    -3.12494E+06     98.1163E+06     105.204E+06     645.846E+03    -216.941E-03     442.900E-03    -225.960E-03     105.385E-03    -218.794E-03     444.786E-03    -225.571E-03     92.9029E-03
              63     14.3713E-03     144.389E-03    -3.06484E+06     100.915E+06     106.595E+06     839.896E+03    -217.400E-03     443.066E-03    -225.666E-03     105.053E-03    -219.239E-03     444.943E-03    -225.275E-03     92.6495E-03
              64     14.3785E-03     145.867E-03    -3.69042E+06     100.818E+06     107.340E+06    -335.728E+03    -219.340E-03     444.669E-03    -225.329E-03     103.858E-03    -221.147E-03     446.509E-03    -224.933E-03     91.4683E-03
              65     14.3790E-03     147.345E-03    -1.58325E+06     101.839E+06     108.447E+06     892.569E+03    -221.309E-03     446.298E-03    -224.989E-03     106.069E-03    -223.124E-03     448.154E-03    -224.592E-03     93.6220E-03
              66     14.3874E-03     148.832E-03    -2.92435E+06     103.841E+06     108.281E+06     437.164E+03    -223.118E-03     447.694E-03    -224.576E-03     111.860E-03    -224.993E-03     449.614E-03    -224.181E-03     99.3123E-03
              67     14.3911E-03     150.314E-03    -2.34407E+06     106.219E+06     114.106E+06    -2.40447E+06    -227.053E-03     451.186E-03    -224.133E-03     113.990E-03    -228.951E-03     453.122E-03    -223.713E-03     101.248E-03
              68     14.3961E-03     151.808E-03    -2.37206E+06     112.761E+06     120.795E+06     6.65072E+06    -233.261E-03     456.968E-03    -223.707E-03     115.083E-03    -235.147E-03     458.896E-03    -223.264E-03     102.447E-03
              69     14.3990E-03     153.311E-03    -6.66837E+06     114.711E+06     120.981E+06    -1.08534E+06    -239.811E-03     463.091E-03    -223.280E-03     117.896E-03    -241.744E-03     465.057E-03    -222.832E-03     104.852E-03
              70     14.4034E-03     154.820E-03    -1.95420E+06     112.477E+06     120.859E+06    -3.28833E+06    -247.150E-03     470.053E-03    -222.902E-03     119.771E-03    -249.082E-03     472.027E-03    -222.458E-03     106.323E-03
              71     14.4025E-03     156.348E-03    -2.32831E+06     108.141E+06     119.627E+06     870.530E+03    -256.558E-03     479.160E-03    -222.602E-03     124.336E-03    -258.506E-03     481.138E-03    -222.158E-03     110.647E-03
              72     14.4043E-03     157.884E-03    -3.67378E+06     105.354E+06     117.290E+06    -1.31529E+06    -266.650E-03     488.988E-03    -222.338E-03     127.778E-03    -268.607E-03     490.968E-03    -221.899E-03     113.742E-03
              73     14.4027E-03     159.439E-03    -2.29331E+06     99.0998E+06     112.179E+06    -451.897E+03    -274.931E-03     497.053E-03    -222.122E-03     131.108E-03    -276.879E-03     499.021E-03    -221.702E-03     116.821E-03
              74     14.4044E-03     161.000E-03    -4.83514E+06     85.1957E+06     107.103E+06    -6.11582E+06    -281.868E-03     503.820E-03    -221.951E-03     135.262E-03    -283.863E-03     505.790E-03    -221.532E-03     120.410E-03
              75     14.4032E-03     162.569E-03     1.53736E+06     79.7472E+06     109.500E+06     3.42256E+06    -287.760E-03     509.562E-03    -221.802E-03     136.228E-03    -289.724E-03     511.498E-03    -221.373E-03     121.271E-03
              76     14.4051E-03     164.146E-03    -8.75152E+06     61.0327E+06     103.400E+06    -6.78305E+06    -293.030E-03     514.688E-03    -221.658E-03     136.885E-03    -294.976E-03     516.520E-03    -221.217E-03     121.828E-03
              77     14.4043E-03     165.728E-03     3.01436E+06     46.3740E+06     111.136E+06    -4.97356E+06    -295.568E-03     517.151E-03    -221.583E-03     133.722E-03    -297.385E-03     518.821E-03    -221.099E-03     118.803E-03
              78     14.4070E-03     167.310E-03    -6.50753E+06     24.7921E+06     115.034E+06    -4.08249E+06    -293.966E-03     515.575E-03    -221.609E-03     131.090E-03    -295.715E-03     517.054E-03    -221.060E-03     116.770E-03
              79     14.4066E-03     168.887E-03     4.33423E+06     18.6015E+06     132.714E+06     1.88093E+06    -287.191E-03     508.928E-03    -221.737E-03     125.310E-03    -288.798E-03     510.230E-03    -221.107E-03     111.808E-03
              80     14.4107E-03     170.438E-03    -7.91437E+06     26.8428E+06     145.112E+06     -182.22E+03    -271.973E-03     494.009E-03    -222.036E-03     117.543E-03    -273.417E-03     495.099E-03    -221.338E-03     106.157E-03
              81     14.4099E-03     171.981E-03     10.2367E+06     28.6262E+06     153.161E+06      368.96E+03    -239.326E-03     461.960E-03    -222.634E-03     111.644E-03    -240.449E-03     462.782E-03    -221.924E-03     103.017E-03
              82     14.4199E-03     173.430E-03     15.7502E+06     53.1801E+06     112.805E+06     455.928E+03    -136.493E-03     361.589E-03    -225.096E-03     67.3094E-03    -137.073E-03     362.164E-03    -224.631E-03     63.1253E-03
              83     13.4635E-03     174.494E-03    -51.6532E+06    -25.0115E+06     63.8411E+06    -15.4072E+06    -55.5345E-03     287.077E-03    -231.542E-03    -2.32709E-03    -55.7653E-03     287.079E-03    -231.112E-03    -3.65237E-03
              84     12.5798E-03     174.156E-03    -14.3004E+06    -25.8493E+06     127.779E+06    -6.98525E+06    -46.1338E-03     285.837E-03    -239.703E-03    -72.3294E-03    -46.1448E-03     285.570E-03    -239.006E-03    -74.0608E-03
              85     11.7588E-03     173.793E-03     7.24638E+06     10.8908E+06     152.113E+06    -6.49823E+06    -35.5234E-03     282.500E-03    -246.977E-03    -130.021E-03    -35.4010E-03     282.156E-03    -246.243E-03    -131.862E-03
              86     10.9561E-03     173.418E-03     5.14510E+06    -8.91221E+06     140.823E+06    -3.11211E+06    -35.6749E-03     289.346E-03    -253.671E-03    -168.623E-03    -35.4080E-03     288.791E-03    -252.962E-03    -170.479E-03
              87     10.1787E-03     173.036E-03     2.84268E+06     3.30314E+06     143.027E+06    -5.31410E+06    -42.6572E-03     302.141E-03    -259.484E-03    -211.892E-03    -42.2935E-03     301.493E-03    -258.778E-03    -213.937E-03
              88     9.42496E-03     172.654E-03     2.06633E+06    -2.42232E+06     138.847E+06    -7.34561E+06    -53.5191E-03     317.531E-03    -264.012E-03    -255.087E-03    -53.0015E-03     316.671E-03    -263.317E-03    -257.430E-03
              89     8.69791E-03     172.276E-03     3.17613E+06    -2.32802E+06     133.853E+06    -9.57858E+06    -66.7060E-03     333.865E-03    -267.159E-03    -293.896E-03    -66.0400E-03     332.806E-03    -266.491E-03    -296.594E-03
              90     7.98982E-03     171.913E-03     1.01398E+06    -7.11838E+06     124.235E+06    -7.65869E+06    -82.0974E-03     351.124E-03    -269.027E-03    -325.430E-03    -81.3098E-03     349.880E-03    -268.397E-03    -328.421E-03
              91     7.29819E-03     171.565E-03    -1.50072E+06    -2.89309E+06     115.959E+06    -9.64646E+06    -99.6188E-03     369.351E-03    -269.732E-03    -348.995E-03    -98.7667E-03     367.993E-03    -269.146E-03    -352.322E-03
              92     6.61933E-03     171.241E-03    -3.20433E+06    -4.32147E+06     106.541E+06    -12.6944E+06    -119.107E-03     388.495E-03    -269.389E-03    -363.870E-03    -118.217E-03     387.030E-03    -268.845E-03    -367.542E-03
              93     5.95054E-03     170.941E-03    -2.93341E+06    -6.41874E+06     97.3712E+06    -15.9541E+06    -139.434E-03     407.573E-03    -268.139E-03    -368.378E-03    -138.546E-03     406.048E-03    -267.638E-03    -372.357E-03
              94     5.28819E-03     170.666E-03    -1.76963E+06    -9.87878E+06     87.4764E+06    -17.4192E+06    -159.594E-03     425.781E-03    -266.187E-03    -362.098E-03    -158.763E-03     424.246E-03    -265.733E-03    -366.277E-03
              95     4.62964E-03     170.423E-03     643.648E+03    -10.2565E+06     78.0443E+06    -18.5391E+06    -179.209E-03     442.953E-03    -263.744E-03    -344.561E-03    -178.502E-03     441.491E-03    -263.340E-03    -348.783E-03
              96     3.97320E-03     170.208E-03     4.31339E+06    -11.9163E+06     66.9060E+06    -19.3370E+06    -196.846E-03     457.884E-03    -261.039E-03    -315.693E-03    -196.302E-03     456.553E-03    -260.693E-03    -319.779E-03
              97     3.31551E-03     170.024E-03     9.65773E+06    -12.3771E+06     55.8000E+06    -19.3949E+06    -211.926E-03     470.301E-03    -258.375E-03    -277.952E-03    -211.552E-03     469.129E-03    -258.092E-03    -281.789E-03
              98     2.65522E-03     169.872E-03     14.7904E+06    -12.5652E+06     46.4490E+06    -16.8147E+06    -224.793E-03     480.781E-03    -255.988E-03    -233.368E-03    -224.598E-03     479.779E-03    -255.759E-03    -236.775E-03
              99     1.99302E-03     169.753E-03     17.6995E+06    -11.2142E+06     36.8086E+06    -14.0195E+06    -234.916E-03     488.948E-03    -254.032E-03    -183.140E-03    -234.899E-03     488.121E-03    -253.858E-03    -185.988E-03
             100     1.32778E-03     169.665E-03     20.6792E+06    -9.02966E+06     27.9804E+06    -11.7735E+06    -241.822E-03     494.693E-03    -252.872E-03    -129.703E-03    -241.951E-03     494.022E-03    -252.749E-03    -131.841E-03
             101     659.112E-06     169.609E-03     19.3324E+06    -17.2414E+06     13.1331E+06    -9.42925E+06    -246.306E-03     500.357E-03    -254.051E-03    -78.5832E-03    -246.594E-03     499.695E-03    -253.988E-03    -79.9786E-03
             102     3.42706E-06     168.014E-03    -37.0806E+06    -34.3109E+06    -33.6578E+06    -5.34215E+06    -212.548E-03     427.077E-03    -214.529E-03    -28.5800E-03    -212.919E-03     426.691E-03    -214.594E-03    -29.2204E-03
             103    -437.516E-09     166.673E-03    -131.002E+06    -74.1452E+06    -128.559E+06    -9.15687E+06    -160.229E-03     318.214E-03    -157.984E-03     1.62269E-03    -160.637E-03     318.175E-03    -158.330E-03     1.30247E-03
             104     1.27383E-06     165.413E-03    -220.301E+06    -129.975E+06    -221.685E+06    -11.9147E+06    -137.869E-03     273.781E-03    -135.911E-03     10.7188E-03    -138.471E-03     273.765E-03    -136.512E-03     10.4289E-03
             105     984.530E-09     164.184E-03    -291.825E+06    -179.230E+06    -291.509E+06    -9.68095E+06    -133.261E-03     263.355E-03    -130.094E-03     17.0038E-03    -134.038E-03     263.306E-03    -130.869E-03     16.8363E-03
             106     1.61156E-06     162.949E-03    -281.276E+06    -216.668E+06    -283.667E+06    -4.98982E+06    -139.202E-03     274.844E-03    -135.641E-03     19.5194E-03    -139.888E-03     274.578E-03    -136.338E-03     19.4005E-03
             107     1.18916E-06     161.691E-03    -214.850E+06    -223.644E+06    -207.798E+06     2.10490E+06    -150.942E-03     298.747E-03    -147.804E-03     20.5262E-03    -151.401E-03     298.236E-03    -148.208E-03     20.4650E-03
             108     803.520E-09     160.395E-03    -162.365E+06    -216.404E+06    -160.511E+06     1.04092E+06    -165.596E-03     329.430E-03    -163.834E-03     20.4370E-03    -165.876E-03     328.810E-03    -164.087E-03     20.2681E-03
             109    -190.943E-09     159.058E-03    -140.964E+06    -213.937E+06    -143.027E+06     398.141E+03    -181.629E-03     362.490E-03    -180.861E-03     19.0536E-03    -181.832E-03     361.827E-03    -181.062E-03     18.7631E-03
             110     623.034E-09     157.673E-03    -129.963E+06    -213.224E+06    -137.452E+06    -487.185E+03    -197.529E-03     393.857E-03    -196.328E-03     17.3236E-03    -197.686E-03     393.177E-03    -196.518E-03     16.8816E-03
             111     566.581E-09     156.247E-03    -131.959E+06    -220.247E+06    -133.471E+06    -1.83188E+06    -211.038E-03     420.869E-03    -209.830E-03     16.2435E-03    -211.202E-03     420.157E-03    -209.987E-03     15.5611E-03
             112    -75.7221E-09     154.785E-03    -138.974E+06    -230.415E+06    -138.714E+06    -1.57981E+06    -221.057E-03     441.927E-03    -220.870E-03     14.2847E-03    -221.232E-03     441.187E-03    -221.028E-03     13.4098E-03
             113    -199.920E-09     153.299E-03    -138.662E+06    -234.036E+06    -140.006E+06     227.536E+03    -228.153E-03     456.463E-03    -228.310E-03     12.4587E-03    -228.318E-03     455.709E-03    -228.470E-03     11.4519E-03
             114     189.031E-09     151.792E-03    -140.475E+06    -236.246E+06    -139.969E+06    -613.619E+03    -232.674E-03     465.012E-03    -232.338E-03     11.8220E-03    -232.846E-03     464.253E-03    -232.492E-03     10.6440E-03
             115     260.386E-09     150.279E-03    -144.625E+06    -243.232E+06    -145.843E+06    -1.45498E+06    -234.640E-03     468.849E-03    -234.209E-03     11.8788E-03    -234.815E-03     468.071E-03    -234.376E-03     10.5725E-03
             116    -151.937E-09     148.762E-03    -149.235E+06    -248.553E+06    -148.852E+06    -302.344E+03    -234.816E-03     469.725E-03    -234.909E-03     11.6225E-03    -235.003E-03     468.932E-03    -235.077E-03     10.2508E-03
             117    -125.730E-09     147.248E-03    -151.973E+06    -255.490E+06    -152.152E+06    -1.87404E+06    -234.319E-03     468.920E-03    -234.600E-03     10.9704E-03    -234.505E-03     468.101E-03    -234.770E-03     9.55058E-03
             118    -29.2654E-09     145.735E-03    -152.748E+06    -264.842E+06    -152.719E+06    -1.78476E+06    -233.415E-03     467.121E-03    -233.706E-03     10.6470E-03    -233.590E-03     466.257E-03    -233.864E-03     9.23247E-03
             119    -257.203E-09     144.225E-03    -152.297E+06    -271.089E+06    -153.080E+06    -154.863E+03    -232.237E-03     464.811E-03    -232.574E-03     10.6612E-03    -232.400E-03     463.916E-03    -232.725E-03     9.27261E-03
             120     28.8086E-09     142.719E-03    -154.456E+06    -273.627E+06    -152.766E+06    -48.8896E+03    -231.185E-03     462.238E-03    -231.053E-03     10.7266E-03    -231.356E-03     461.333E-03    -231.196E-03     9.34176E-03
             121     376.956E-09     141.216E-03    -152.936E+06    -275.588E+06    -153.328E+06    -702.819E+03    -230.380E-03     459.867E-03    -229.488E-03     11.2190E-03    -230.540E-03     458.952E-03    -229.633E-03     9.84330E-03
             122     456.969E-09     139.717E-03    -151.394E+06    -277.270E+06    -151.829E+06     240.682E+03    -229.529E-03     458.258E-03    -228.728E-03     11.3552E-03    -229.681E-03     457.329E-03    -228.866E-03     10.0065E-03
             123    -183.949E-09     138.221E-03    -149.133E+06    -277.141E+06    -149.515E+06    -189.940E+03    -228.563E-03     457.131E-03    -228.568E-03     10.9004E-03    -228.706E-03     456.195E-03    -228.697E-03     9.58696E-03
             124    -131.304E-09     136.725E-03    -146.524E+06    -277.895E+06    -146.405E+06    -104.482E+03    -227.977E-03     456.055E-03    -228.078E-03     10.7607E-03    -228.110E-03     455.107E-03    -228.195E-03     9.51022E-03
             125     271.141E-09     135.231E-03    -144.681E+06    -279.253E+06    -144.420E+06    -368.733E+03    -227.856E-03     455.162E-03    -227.306E-03     11.0139E-03    -227.981E-03     454.202E-03    -227.413E-03     9.70268E-03
             126     347.358E-09     133.738E-03    -141.324E+06    -280.599E+06    -142.083E+06     33.6456E+03    -227.512E-03     454.554E-03    -227.042E-03     11.4055E-03    -227.623E-03     453.580E-03    -227.140E-03     10.0867E-03
             127    -334.798E-09     132.245E-03    -140.385E+06    -278.860E+06    -139.744E+06     639.396E+03    -227.139E-03     453.934E-03    -226.795E-03     11.4110E-03    -227.251E-03     452.964E-03    -226.886E-03     10.1209E-03
             128     784.549E-09     130.755E-03    -140.795E+06    -278.104E+06    -140.870E+06    -344.236E+03    -226.972E-03     453.379E-03    -226.407E-03     11.5930E-03    -227.086E-03     452.415E-03    -226.503E-03     10.2710E-03
             129    -461.398E-09     129.265E-03    -140.070E+06    -274.377E+06    -139.937E+06     1.04823E+06    -226.535E-03     453.160E-03    -226.626E-03     11.7726E-03    -226.652E-03     452.213E-03    -226.724E-03     10.4611E-03
             130    -31.2880E-09     127.774E-03    -139.769E+06    -268.379E+06    -139.874E+06     697.449E+03    -226.424E-03     453.167E-03    -226.744E-03     11.7216E-03    -226.548E-03     452.249E-03    -226.851E-03     10.4182E-03
             131     23.7403E-09     126.283E-03    -139.183E+06    -267.067E+06    -139.587E+06     2.89181E+03    -226.644E-03     452.970E-03    -226.326E-03     11.4226E-03    -226.766E-03     452.056E-03    -226.435E-03     10.1325E-03
             132     398.048E-09     124.794E-03    -139.956E+06    -266.793E+06    -139.350E+06     485.192E+03    -226.766E-03     452.791E-03    -226.025E-03     11.4277E-03    -226.894E-03     451.880E-03    -226.132E-03     10.1298E-03
             133     213.275E-09     123.303E-03    -140.311E+06    -266.333E+06    -140.310E+06    -20.7294E+03    -226.836E-03     452.885E-03    -226.049E-03     11.5198E-03    -226.965E-03     451.978E-03    -226.161E-03     10.2104E-03
             134     267.915E-09     121.814E-03    -139.262E+06    -264.369E+06    -139.526E+06     584.368E+03    -226.779E-03     452.782E-03    -226.003E-03     11.3792E-03    -226.907E-03     451.882E-03    -226.115E-03     10.0919E-03
             135     326.008E-09     120.324E-03    -139.035E+06    -261.499E+06    -139.259E+06     381.514E+03    -226.704E-03     452.607E-03    -225.904E-03     11.4304E-03    -226.834E-03     451.721E-03    -226.019E-03     10.1387E-03
             136     189.156E-09     118.835E-03    -139.950E+06    -262.016E+06    -139.810E+06    -150.883E+03    -226.381E-03     452.494E-03    -226.113E-03     11.3487E-03    -226.515E-03     451.607E-03    -226.229E-03     10.0610E-03
             137    -354.163E-09     117.345E-03    -140.160E+06    -263.369E+06    -140.011E+06    -508.915E+03    -226.110E-03     452.466E-03    -226.355E-03     11.1467E-03    -226.242E-03     451.572E-03    -226.470E-03     9.87434E-03
             138     133.865E-09     115.856E-03    -139.116E+06    -263.122E+06    -140.489E+06     290.069E+03    -226.200E-03     452.449E-03    -226.249E-03     11.1885E-03    -226.327E-03     451.556E-03    -226.368E-03     9.89066E-03
             139    -30.4116E-09     114.366E-03    -140.146E+06    -259.655E+06    -138.921E+06     494.058E+03    -226.376E-03     452.648E-03    -226.272E-03     11.7831E-03    -226.516E-03     451.773E-03    -226.387E-03     10.4876E-03
             140     46.9199E-09     112.876E-03    -141.014E+06    -259.786E+06    -140.957E+06    -799.107E+03    -226.388E-03     452.794E-03    -226.405E-03     11.7737E-03    -226.530E-03     451.922E-03    -226.529E-03     10.4655E-03
             141    -127.495E-09     111.385E-03    -141.498E+06    -260.532E+06    -142.072E+06     714.852E+03    -226.407E-03     452.604E-03    -226.197E-03     11.5369E-03    -226.548E-03     451.731E-03    -226.325E-03     10.2492E-03
             142     465.526E-09     109.897E-03    -140.853E+06    -259.088E+06    -140.360E+06     80.5544E+03    -226.651E-03     452.597E-03    -225.946E-03     11.2894E-03    -226.792E-03     451.727E-03    -226.068E-03     10.0022E-03
             143     176.077E-09     108.407E-03    -140.845E+06    -261.407E+06    -141.171E+06    -523.542E+03    -226.453E-03     452.584E-03    -226.131E-03     11.5121E-03    -226.591E-03     451.705E-03    -226.254E-03     10.1785E-03
             144    -395.812E-09     106.917E-03    -141.494E+06    -261.277E+06    -141.308E+06     199.423E+03    -226.189E-03     452.581E-03    -226.391E-03     11.6981E-03    -226.331E-03     451.703E-03    -226.514E-03     10.3812E-03
             145     288.489E-09     105.427E-03    -139.113E+06    -260.054E+06    -139.562E+06     367.854E+03    -226.523E-03     452.651E-03    -226.128E-03     11.4255E-03    -226.656E-03     451.772E-03    -226.247E-03     10.1505E-03
             146     345.047E-09     103.938E-03    -139.102E+06    -260.715E+06    -139.054E+06     -88.952E+03    -226.809E-03     452.694E-03    -225.885E-03     11.2546E-03    -226.941E-03     451.811E-03    -226.001E-03     9.96732E-03
             147     311.271E-09     102.448E-03    -138.343E+06    -260.581E+06    -138.094E+06    -338.121E+03    -226.733E-03     452.621E-03    -225.887E-03     11.2621E-03    -226.863E-03     451.736E-03    -225.999E-03     9.97289E-03
             148     213.343E-09     100.958E-03    -139.548E+06    -260.230E+06    -139.780E+06     123.081E+03    -226.250E-03     452.334E-03    -226.084E-03     11.7087E-03    -226.384E-03     451.455E-03    -226.203E-03     10.4384E-03
             149    -542.619E-09     99.4691E-03    -140.014E+06    -258.441E+06    -140.385E+06      485.29E+03    -226.087E-03     452.299E-03    -226.212E-03     11.2928E-03    -226.224E-03     451.430E-03    -226.336E-03     10.0261E-03
             150     651.132E-09     97.9806E-03    -140.752E+06    -257.953E+06    -140.237E+06    -395.987E+03    -226.610E-03     452.751E-03    -226.140E-03     11.1541E-03    -226.753E-03     451.886E-03    -226.263E-03     9.85189E-03
             151    -115.178E-09     96.4889E-03    -139.855E+06    -258.330E+06    -140.407E+06    -7.08069E+03    -226.742E-03     452.795E-03    -226.054E-03     11.1455E-03    -226.879E-03     451.928E-03    -226.178E-03     9.82927E-03
             152     527.882E-09     94.9999E-03    -138.262E+06    -255.831E+06    -137.938E+06     201.725E+03    -226.520E-03     452.349E-03    -225.829E-03     11.2625E-03    -226.656E-03     451.487E-03    -225.947E-03     9.98011E-03
             153     18.9313E-09     93.5105E-03    -139.448E+06    -257.754E+06    -139.623E+06    -713.224E+03    -226.290E-03     452.452E-03    -226.162E-03     11.8489E-03    -226.428E-03     451.586E-03    -226.284E-03     10.5374E-03
             154    -425.243E-09     92.0204E-03    -138.714E+06    -258.772E+06    -138.842E+06     796.196E+03    -226.100E-03     452.709E-03    -226.610E-03     11.5408E-03    -226.234E-03     451.836E-03    -226.727E-03     10.2509E-03
             155     60.2868E-09     90.5310E-03    -138.396E+06    -256.811E+06    -137.767E+06     93.4751E+03    -226.307E-03     452.604E-03    -226.297E-03     11.2533E-03    -226.443E-03     451.737E-03    -226.413E-03     9.96106E-03
             156     289.061E-09     89.0412E-03    -140.042E+06    -257.778E+06    -140.041E+06    -87.6326E+03    -226.630E-03     452.581E-03    -225.951E-03     11.3016E-03    -226.770E-03     451.716E-03    -226.075E-03     10.0177E-03
             157     299.927E-09     87.5519E-03    -140.450E+06    -257.824E+06    -140.151E+06    -55.9404E+03    -226.926E-03     452.772E-03    -225.846E-03     11.2996E-03    -227.067E-03     451.907E-03    -225.970E-03     10.0270E-03
             158     626.541E-09     86.0609E-03    -140.117E+06    -260.270E+06    -141.154E+06    -283.267E+03    -226.984E-03     452.665E-03    -225.680E-03     11.3728E-03    -227.119E-03     451.789E-03    -225.806E-03     10.0800E-03
             159    -647.263E-09     83.0831E-03    -139.950E+06    -258.666E+06    -139.875E+06    -411.370E+03    -225.983E-03     452.544E-03    -226.562E-03     11.3247E-03    -226.121E-03     451.674E-03    -226.683E-03     10.0382E-03
             160     155.139E-09     81.5923E-03    -141.712E+06    -259.634E+06    -142.038E+06    -503.089E+03    -226.004E-03     452.758E-03    -226.754E-03     11.4030E-03    -226.146E-03     451.889E-03    -226.882E-03     10.0986E-03
             161    -779.840E-09     80.1031E-03    -145.295E+06    -259.544E+06    -144.455E+06     649.530E+03    -226.317E-03     452.931E-03    -226.614E-03     11.2467E-03    -226.474E-03     452.071E-03    -226.749E-03     9.96104E-03
             162     950.203E-09     78.6119E-03    -142.387E+06    -257.548E+06    -141.512E+06     401.937E+03    -226.852E-03     452.910E-03    -226.057E-03     11.2016E-03    -227.002E-03     452.051E-03    -226.185E-03     9.93337E-03
             163    -7.64935E-09     77.1221E-03    -137.870E+06    -258.708E+06    -139.164E+06    -476.367E+03    -226.787E-03     452.822E-03    -226.035E-03     11.8022E-03    -226.917E-03     451.948E-03    -226.156E-03     10.5032E-03
             164     91.6926E-09     75.6321E-03    -140.202E+06    -261.615E+06    -140.065E+06    -177.256E+03    -226.458E-03     452.914E-03    -226.456E-03     11.5213E-03    -226.593E-03     452.030E-03    -226.574E-03     10.2090E-03
             165    -210.368E-09     74.1421E-03    -139.483E+06    -259.920E+06    -139.829E+06     271.082E+03    -226.646E-03     452.941E-03    -226.295E-03     11.1166E-03    -226.780E-03     452.064E-03    -226.415E-03     9.84332E-03
             166     794.109E-09     72.6521E-03    -139.536E+06    -258.646E+06    -139.689E+06    -55.1462E+03    -227.011E-03     453.004E-03    -225.993E-03     11.1587E-03    -227.147E-03     452.132E-03    -226.114E-03     9.90215E-03
             167     45.8474E-09     71.1614E-03    -139.394E+06    -258.947E+06    -139.511E+06    -167.828E+03    -226.791E-03     453.038E-03    -226.247E-03     11.5094E-03    -226.927E-03     452.165E-03    -226.367E-03     10.2015E-03
             168    -145.035E-09     69.6709E-03    -139.143E+06    -258.806E+06    -139.241E+06     209.072E+03    -226.380E-03     452.800E-03    -226.420E-03     11.2168E-03    -226.515E-03     451.927E-03    -226.539E-03     9.93800E-03
             169     150.058E-09     68.1817E-03    -140.719E+06    -257.007E+06    -140.105E+06     144.731E+03    -226.322E-03     452.581E-03    -226.260E-03     11.2483E-03    -226.466E-03     451.720E-03    -226.383E-03     9.97540E-03
             170    -96.3171E-09     66.6916E-03    -140.060E+06    -256.801E+06    -139.593E+06     195.246E+03    -226.494E-03     452.734E-03    -226.240E-03     11.3587E-03    -226.636E-03     451.873E-03    -226.362E-03     10.0882E-03
             171     375.476E-09     65.2016E-03    -140.248E+06    -258.210E+06    -140.563E+06    -7.16795E+03    -226.725E-03     452.863E-03    -226.138E-03     11.3337E-03    -226.864E-03     451.996E-03    -226.263E-03     10.0741E-03
             172     147.366E-09     63.7113E-03    -139.365E+06    -258.130E+06    -139.513E+06     115.644E+03    -226.609E-03     452.795E-03    -226.186E-03     11.7687E-03    -226.746E-03     451.927E-03    -226.307E-03     10.4775E-03
             173    -105.470E-09     62.2206E-03    -137.277E+06    -258.754E+06    -136.964E+06    -231.732E+03    -226.499E-03     452.712E-03    -226.213E-03     11.7586E-03    -226.629E-03     451.834E-03    -226.323E-03     10.4730E-03
             174     436.292E-09     60.7320E-03    -139.774E+06    -259.648E+06    -140.385E+06    -95.0746E+03    -226.737E-03     452.913E-03    -226.175E-03     11.6506E-03    -226.873E-03     452.038E-03    -226.298E-03     10.3568E-03
             175    -5.95606E-09     59.2413E-03    -138.565E+06    -257.506E+06    -138.353E+06     728.944E+03    -226.653E-03     452.968E-03    -226.315E-03     11.5231E-03    -226.789E-03     452.100E-03    -226.432E-03     10.2480E-03
             176     24.3549E-09     57.7501E-03    -138.388E+06    -257.669E+06    -138.003E+06    -776.167E+03    -225.970E-03     452.522E-03    -226.552E-03     11.9246E-03    -226.104E-03     451.652E-03    -226.668E-03     10.6426E-03
             177    -918.867E-09     56.2623E-03    -139.973E+06    -259.863E+06    -139.244E+06     79.0829E+03    -226.228E-03     452.619E-03    -226.392E-03     11.5392E-03    -226.366E-03     451.743E-03    -226.508E-03     10.2423E-03
             178     1.54648E-06     54.7715E-03    -138.282E+06    -258.244E+06    -139.303E+06     742.317E+03    -227.133E-03     452.940E-03    -225.807E-03     11.3234E-03    -227.264E-03     452.069E-03    -225.929E-03     10.0576E-03
             179    -317.857E-09     53.2816E-03    -138.330E+06    -256.855E+06    -138.635E+06    -167.500E+03    -226.716E-03     452.789E-03    -226.073E-03     11.7084E-03    -226.851E-03     451.924E-03    -226.193E-03     10.4255E-03
             180    -31.0972E-09     51.7918E-03    -140.446E+06    -257.830E+06    -138.797E+06    -163.247E+03    -226.180E-03     452.674E-03    -226.494E-03     11.3875E-03    -226.324E-03     451.807E-03    -226.611E-03     10.0724E-03
             181    -92.0637E-09     50.3021E-03    -142.122E+06    -258.286E+06    -141.934E+06    -206.690E+03    -226.653E-03     452.890E-03    -226.237E-03     11.2439E-03    -226.800E-03     452.028E-03    -226.366E-03     9.93837E-03
             182     779.055E-09     48.8118E-03    -137.367E+06    -256.993E+06    -137.642E+06    -164.059E+03    -227.060E-03     453.109E-03    -226.048E-03     11.2952E-03    -227.191E-03     452.240E-03    -226.165E-03     10.0135E-03
             183    -53.5047E-09     47.3206E-03    -136.610E+06    -257.090E+06    -138.245E+06    -62.1429E+03    -226.764E-03     453.150E-03    -226.386E-03     11.6278E-03    -226.891E-03     452.280E-03    -226.506E-03     10.3404E-03
             184    -183.522E-09     45.8310E-03    -141.341E+06    -258.128E+06    -140.032E+06     284.508E+03    -226.761E-03     453.210E-03    -226.450E-03     11.2108E-03    -226.907E-03     452.345E-03    -226.571E-03     9.90205E-03
             185     844.277E-09     44.3393E-03    -137.336E+06    -257.128E+06    -138.535E+06    -149.462E+03    -227.235E-03     453.086E-03    -225.851E-03     11.2375E-03    -227.365E-03     452.218E-03    -225.972E-03     9.94321E-03
             186     435.031E-09     42.8498E-03    -136.228E+06    -257.612E+06    -137.281E+06     11.0929E+03    -227.121E-03     453.206E-03    -226.085E-03     11.9168E-03    -227.246E-03     452.332E-03    -226.200E-03     10.6553E-03
             187    -281.091E-09     41.3581E-03    -140.494E+06    -257.532E+06    -140.163E+06     107.178E+03    -226.724E-03     453.420E-03    -226.697E-03     11.6405E-03    -226.866E-03     452.557E-03    -226.820E-03     10.3584E-03
             188     128.528E-09     39.8677E-03    -141.224E+06    -256.245E+06    -139.416E+06     85.5697E+03    -226.567E-03     453.142E-03    -226.574E-03     11.3016E-03    -226.717E-03     452.285E-03    -226.695E-03     9.97057E-03
             189    -3.90133E-09     38.3779E-03    -140.615E+06    -255.961E+06    -140.360E+06    -137.901E+03    -226.564E-03     452.874E-03    -226.310E-03     11.4103E-03    -226.708E-03     452.019E-03    -226.437E-03     10.1098E-03
             190     207.645E-09     36.8867E-03    -136.692E+06    -254.970E+06    -138.458E+06     365.634E+03    -226.579E-03     452.635E-03    -226.056E-03     11.3525E-03    -226.708E-03     451.776E-03    -226.181E-03     10.0945E-03
             191     284.434E-09     35.3985E-03    -137.530E+06    -255.139E+06    -136.189E+06     3.38262E+03    -226.023E-03     452.176E-03    -226.153E-03     11.5324E-03    -226.160E-03     451.314E-03    -226.264E-03     10.2539E-03
             192    -989.147E-09     33.9089E-03    -138.398E+06    -253.932E+06    -139.400E+06     712.761E+03    -225.538E-03     451.699E-03    -226.161E-03     11.3765E-03    -225.675E-03     450.850E-03    -226.289E-03     10.1195E-03
             193     752.265E-09     32.4206E-03    -137.975E+06    -252.216E+06    -137.802E+06    -262.931E+03    -225.725E-03     450.937E-03    -225.212E-03     11.2164E-03    -225.865E-03     450.093E-03    -225.336E-03     9.94792E-03
             194     186.233E-09     30.9350E-03    -136.424E+06    -254.767E+06    -136.375E+06    -957.899E+03    -225.268E-03     449.805E-03    -224.536E-03     11.2424E-03    -225.399E-03     448.943E-03    -224.651E-03     9.95988E-03
             195    -108.978E-09     29.4505E-03    -136.558E+06    -255.132E+06    -136.289E+06     428.177E+03    -224.314E-03     448.565E-03    -224.251E-03     10.7492E-03    -224.445E-03     447.701E-03    -224.364E-03     9.49613E-03
             196     93.9589E-09     27.9678E-03    -136.126E+06    -250.919E+06    -136.628E+06     168.172E+03    -223.451E-03     446.890E-03    -223.439E-03     10.4066E-03    -223.585E-03     446.047E-03    -223.561E-03     9.16439E-03
             197    -93.2173E-09     26.4881E-03    -134.826E+06    -248.465E+06    -134.640E+06     333.082E+03    -222.642E-03     444.648E-03    -222.006E-03     10.1227E-03    -222.774E-03     443.811E-03    -222.123E-03     8.93049E-03
             198     984.977E-09     25.0116E-03    -135.069E+06    -249.458E+06    -134.890E+06    -138.804E+03    -221.394E-03     441.937E-03    -220.543E-03     10.1374E-03    -221.525E-03     441.095E-03    -220.660E-03     8.98793E-03
             199    -676.045E-09     23.5409E-03    -132.734E+06    -251.341E+06    -133.102E+06    -551.582E+03    -218.869E-03     438.281E-03    -219.412E-03     9.41130E-03    -218.987E-03     437.423E-03    -219.521E-03     8.28519E-03
             200    -445.143E-09     22.0759E-03    -133.959E+06    -252.344E+06    -134.159E+06     303.030E+03    -216.232E-03     433.418E-03    -217.186E-03     8.18726E-03    -216.352E-03     432.557E-03    -217.297E-03     7.14550E-03
             201     170.898E-09     20.6184E-03    -133.569E+06    -249.576E+06    -134.019E+06     1.03752E+06    -213.588E-03     427.069E-03    -213.480E-03     7.52666E-03    -213.709E-03     426.218E-03    -213.595E-03     6.61785E-03
             202     249.651E-09     19.1713E-03    -131.397E+06    -247.540E+06    -130.456E+06     336.746E+03    -209.337E-03     418.501E-03    -209.164E-03     6.57487E-03    -209.453E-03     417.650E-03    -209.267E-03     5.73747E-03
             203    -412.583E-09     17.7408E-03    -130.042E+06    -247.895E+06    -130.286E+06    -313.534E+03    -204.000E-03     408.115E-03    -204.115E-03     5.03036E-03    -204.109E-03     407.259E-03    -204.218E-03     4.22938E-03
             204     414.014E-09     16.3237E-03    -129.184E+06    -248.247E+06    -129.388E+06    -729.349E+03    -198.328E-03     396.593E-03    -198.265E-03     4.10726E-03    -198.433E-03     395.731E-03    -198.364E-03     3.39358E-03
             205    -310.289E-09     14.9237E-03    -127.797E+06    -249.561E+06    -128.467E+06    -99.0753E+03    -191.732E-03     383.685E-03    -191.953E-03     3.50867E-03    -191.828E-03     382.812E-03    -192.048E-03     2.90000E-03
             206    -113.120E-09     13.5434E-03    -123.929E+06    -248.991E+06    -124.292E+06     547.741E+03    -184.736E-03     369.734E-03    -184.997E-03     2.37379E-03    -184.820E-03     368.850E-03    -185.078E-03     1.83116E-03
             207     165.272E-09     12.1833E-03    -125.017E+06    -245.416E+06    -124.123E+06     493.622E+03    -177.872E-03     355.499E-03    -177.626E-03     1.14281E-03    -177.966E-03     354.634E-03    -177.710E-03     647.738E-06
             208     184.407E-09     10.8421E-03    -127.057E+06    -240.782E+06    -127.615E+06     973.117E+03    -171.425E-03     342.361E-03    -170.936E-03     705.431E-06    -171.529E-03     341.528E-03    -171.041E-03     233.676E-06
             209     217.790E-09     9.51634E-03    -127.670E+06    -235.363E+06    -126.557E+06     1.54714E+06    -166.801E-03     333.357E-03    -166.557E-03     1.61479E-03    -166.917E-03     332.553E-03    -166.663E-03     1.14414E-03
             210    -230.057E-09     8.19918E-03    -130.064E+06    -232.412E+06    -128.737E+06     336.792E+03    -165.752E-03     332.070E-03    -166.318E-03     3.52842E-03    -165.882E-03     331.287E-03    -166.436E-03     3.04938E-03
             211    -602.957E-09     6.87666E-03    -132.585E+06    -237.183E+06    -132.350E+06    -1.81983E+06    -169.009E-03     339.306E-03    -170.298E-03     4.75877E-03    -169.141E-03     338.508E-03    -170.423E-03     4.27024E-03
             212    -511.627E-09     5.54011E-03    -121.036E+06    -246.571E+06    -121.891E+06    -1.60500E+06    -175.571E-03     352.527E-03    -176.956E-03     5.05813E-03    -175.648E-03     351.649E-03    -177.033E-03     4.59355E-03
             213    -458.622E-09     4.18221E-03    -103.894E+06    -249.512E+06    -104.580E+06     831.553E+03    -183.690E-03     368.300E-03    -184.610E-03     4.90346E-03    -183.701E-03     367.356E-03    -184.620E-03     4.50732E-03
             214     57.2407E-09     2.80099E-03    -88.4323E+06    -243.466E+06    -88.2924E+06     1.50303E+06    -191.115E-03     382.293E-03    -191.178E-03     3.76329E-03    -191.078E-03     381.333E-03    -191.138E-03     3.47490E-03
             215     255.291E-09     1.40455E-03    -72.6880E+06    -236.183E+06    -72.2099E+06     1.03104E+06    -195.711E-03     391.045E-03    -195.334E-03     2.00721E-03    -195.626E-03     390.075E-03    -195.247E-03     1.84935E-03
             216     738.767E-06     4.95437E-15    -67.5626E+06    -230.290E+06    -66.1024E+06     853.595E+03    -197.112E-03     393.998E-03    -196.886E-03     1.66768E-03    -197.019E-03     393.041E-03    -196.785E-03     1.52146E-03
             217     1.47711E-03     4.95437E-15    -67.2784E+06    -222.124E+06    -64.1589E+06     779.736E+03    -197.082E-03     394.103E-03    -197.022E-03     3.09864E-03    -197.004E-03     393.184E-03    -196.923E-03     2.81879E-03
             218     2.21552E-03     4.95437E-15    -66.4224E+06    -209.492E+06    -60.4079E+06     933.483E+03    -196.929E-03     393.961E-03    -197.032E-03     4.51458E-03    -196.872E-03     393.100E-03    -196.934E-03     4.10523E-03
             219     2.95443E-03     4.95437E-15    -64.8225E+06    -192.593E+06    -55.1251E+06     343.032E+03    -196.715E-03     393.711E-03    -196.996E-03     5.69440E-03    -196.684E-03     392.926E-03    -196.898E-03     5.14976E-03
             220     3.69340E-03     4.95437E-15    -62.2746E+06    -170.981E+06    -48.4391E+06    -136.409E+03    -196.630E-03     393.577E-03    -196.947E-03     7.24955E-03    -196.630E-03     392.889E-03    -196.851E-03     6.56868E-03
             221     4.43172E-03     4.95437E-15    -59.2681E+06    -145.446E+06    -41.1945E+06    -503.321E+03    -196.776E-03     393.695E-03    -196.920E-03     9.27086E-03    -196.812E-03     393.124E-03    -196.829E-03     8.46215E-03
             222     5.17032E-03     4.95437E-15    -55.3492E+06    -114.827E+06    -33.3957E+06    -953.858E+03    -197.148E-03     394.083E-03    -196.935E-03     10.9875E-03    -197.223E-03     393.651E-03    -196.856E-03     10.0572E-03
             223     5.90858E-03     4.95437E-15    -49.8573E+06    -78.3864E+06    -25.0069E+06    -3.21982E+06    -197.928E-03     394.941E-03    -197.013E-03     12.6226E-03    -198.045E-03     394.675E-03    -196.952E-03     11.5466E-03
             224     6.64595E-03     4.95437E-15    -41.8875E+06    -34.6885E+06    -15.7908E+06    -6.22879E+06    -199.320E-03     396.503E-03    -197.183E-03     14.5409E-03    -199.479E-03     396.436E-03    -197.151E-03     13.2928E-03
             225     7.38177E-03     4.95437E-15    -31.5380E+06    -282.262E+03    -2.98316E+06    -7.87834E+06    -201.398E-03     398.916E-03    -197.517E-03     16.4021E-03    -201.580E-03     398.993E-03    -197.486E-03     14.9779E-03
             226     8.11649E-03     4.95437E-15    -22.6812E+06     15.3243E+06     13.9140E+06    -2.94522E+06    -204.337E-03     402.405E-03    -198.068E-03     18.2089E-03    -204.528E-03     402.530E-03    -197.988E-03     16.6804E-03
             227     8.84781E-03     4.95437E-15    -19.7130E+06     22.3300E+06     27.7198E+06     4.33705E+06    -208.413E-03     407.244E-03    -198.831E-03     20.5939E-03    -208.629E-03     407.389E-03    -198.697E-03     18.9523E-03
             228     9.57610E-03     4.95437E-15    -20.8479E+06     24.1499E+06     36.8235E+06     4.85680E+06    -214.174E-03     414.025E-03    -199.851E-03     22.8902E-03    -214.426E-03     414.183E-03    -199.671E-03     20.9069E-03
             229     10.3006E-03     4.95437E-15    -20.3763E+06     27.3367E+06     50.8469E+06     3.09436E+06    -222.628E-03     423.879E-03    -201.250E-03     24.0706E-03    -222.919E-03     424.049E-03    -201.006E-03     21.6295E-03
             230     11.0182E-03     4.95437E-15    -17.5591E+06     34.1200E+06     66.9411E+06     962.433E+03    -235.811E-03     438.986E-03    -203.176E-03     24.9946E-03    -236.135E-03     439.179E-03    -202.865E-03     22.1059E-03
             231     11.7251E-03     4.95437E-15    -14.1658E+06     43.2997E+06     75.7940E+06     740.517E+03    -256.808E-03     462.661E-03    -205.853E-03     29.3369E-03    -257.170E-03     462.914E-03    -205.516E-03     25.7673E-03
             232     12.4099E-03     4.95437E-15    -13.1731E+06     50.3070E+06     76.7623E+06     655.536E+03    -290.662E-03     500.361E-03    -209.698E-03     44.7243E-03    -291.124E-03     500.748E-03    -209.368E-03     39.6452E-03
             233     13.0633E-03     4.95437E-15    -13.1588E+06     57.7467E+06     76.3930E+06    -379.841E+03    -349.187E-03     564.604E-03    -215.416E-03     82.3265E-03    -350.174E-03     565.572E-03    -215.099E-03     71.5175E-03
             234     13.6652E-03     4.95437E-15    -6.02161E+06     72.6307E+06     83.9882E+06     1.02879E+06    -444.714E-03     668.674E-03    -223.960E-03     167.396E-03    -447.786E-03     671.800E-03    -223.636E-03     141.629E-03
             235     14.3061E-03     2.13404E-03    -6.90408E+06     77.8953E+06     81.2061E+06    -5.55609E+06    -438.523E-03     665.937E-03    -227.415E-03     200.700E-03    -442.777E-03     670.228E-03    -227.112E-03     169.283E-03
             236     14.3319E-03     3.83085E-03    -4.52772E+06     77.0888E+06     79.0502E+06    -3.26038E+06    -345.025E-03     570.683E-03    -225.658E-03     171.307E-03    -348.531E-03     574.199E-03    -225.368E-03     147.310E-03
             237     14.3502E-03     5.41690E-03     4.27052E+06     78.7549E+06     87.7015E+06     1.81959E+06    -307.251E-03     532.629E-03    -225.378E-03     151.676E-03    -310.206E-03     535.615E-03    -225.060E-03     130.952E-03
             238     14.3510E-03     7.00717E-03    -675.287E+03     72.5267E+06     85.9376E+06    -2.19015E+06    -295.120E-03     520.279E-03    -225.158E-03     134.866E-03    -297.797E-03     522.960E-03    -224.833E-03     114.955E-03
             239     14.3576E-03     8.59345E-03    -2.30135E+06     68.6453E+06     84.1536E+06     703.024E+03    -285.447E-03     510.623E-03    -225.175E-03     130.085E-03    -287.943E-03     513.110E-03    -224.851E-03     111.454E-03
             240     14.3553E-03     10.1560E-03    -1.79807E+06     66.3241E+06     83.5531E+06    -2.42823E+06    -273.947E-03     499.313E-03    -225.366E-03     125.237E-03    -276.276E-03     501.628E-03    -225.042E-03     107.741E-03
             241     14.3579E-03     11.6970E-03    -3.49771E+06     65.0778E+06     84.1647E+06    -2.11804E+06    -263.184E-03     488.765E-03    -225.581E-03     122.756E-03    -265.434E-03     490.988E-03    -225.249E-03     106.163E-03
             242     14.3581E-03     13.2324E-03     1.18723E+06     66.3982E+06     86.6178E+06     3.25674E+06    -254.325E-03     480.096E-03    -225.771E-03     117.439E-03    -256.429E-03     482.189E-03    -225.436E-03     101.830E-03
             243     14.3565E-03     14.7445E-03    -2.72216E+06     60.9354E+06     81.6076E+06    -2.05290E+06    -249.166E-03     475.082E-03    -225.916E-03     113.558E-03    -251.206E-03     477.091E-03    -225.592E-03     98.2508E-03
             244     14.3575E-03     16.2640E-03    -4.60901E+06     61.9676E+06     82.5119E+06    -1.36001E+06    -245.044E-03     471.060E-03    -226.015E-03     111.649E-03    -246.991E-03     472.971E-03    -225.686E-03     97.1100E-03
             245     14.3576E-03     17.7806E-03    -182.726E+03     65.1492E+06     85.6410E+06     2.21140E+06    -239.612E-03     465.774E-03    -226.162E-03     109.952E-03    -241.486E-03     467.630E-03    -225.828E-03     96.0283E-03
             246     14.3561E-03     19.2727E-03    -2.57453E+06     62.6322E+06     82.6803E+06     604.309E+03    -235.142E-03     461.433E-03    -226.291E-03     108.875E-03    -237.035E-03     463.300E-03    -225.965E-03     94.9814E-03
             247     14.3575E-03     20.7774E-03    -2.13271E+06     64.0688E+06     82.5622E+06     1.30094E+06    -230.907E-03     457.269E-03    -226.362E-03     107.650E-03    -232.771E-03     459.113E-03    -226.039E-03     94.0968E-03
             248     14.3580E-03     22.2630E-03    -1.86171E+06     63.9766E+06     83.0981E+06    -794.443E+03    -228.530E-03     454.934E-03    -226.404E-03     106.396E-03    -230.371E-03     456.754E-03    -226.079E-03     92.9857E-03
             249     14.3566E-03     23.7540E-03    -2.41971E+06     61.9148E+06     82.0289E+06    -519.184E+03    -228.760E-03     455.167E-03    -226.408E-03     104.394E-03    -230.550E-03     456.931E-03    -226.084E-03     91.1527E-03
             250     14.3582E-03     25.2485E-03    -3.34641E+06     61.1671E+06     80.8868E+06     76.8249E+03    -228.016E-03     454.427E-03    -226.411E-03     103.039E-03    -229.776E-03     456.158E-03    -226.091E-03     89.9502E-03
             251     14.3571E-03     26.7331E-03    -2.66578E+06     61.9677E+06     83.1355E+06     702.515E+03    -227.244E-03     453.651E-03    -226.406E-03     101.570E-03    -228.973E-03     455.349E-03    -226.077E-03     88.6525E-03
             252     14.3595E-03     28.2252E-03     110.346E+03     63.4905E+06     84.8418E+06     636.092E+03    -226.889E-03     453.271E-03    -226.382E-03     99.5869E-03    -228.578E-03     454.940E-03    -226.050E-03     86.7338E-03
             253     14.3576E-03     29.7131E-03    -2.01043E+06     62.3466E+06     82.4620E+06    -2.01868E+06    -227.365E-03     453.738E-03    -226.373E-03     99.9949E-03    -229.081E-03     455.430E-03    -226.048E-03     86.9443E-03
             254     14.3584E-03     31.2077E-03    -4.44863E+06     60.6510E+06     81.1517E+06     701.585E+03    -227.233E-03     453.608E-03    -226.375E-03     102.457E-03    -228.953E-03     455.293E-03    -226.051E-03     89.6509E-03
             255     14.3591E-03     32.6999E-03    -594.817E+03     63.8326E+06     85.0501E+06     1.59490E+06    -226.232E-03     452.630E-03    -226.398E-03     103.006E-03    -227.942E-03     454.317E-03    -226.064E-03     90.3048E-03
             256     14.3577E-03     34.1810E-03    -279.969E+03     64.1885E+06     85.8944E+06    -1.13406E+06    -226.183E-03     452.589E-03    -226.407E-03     100.536E-03    -227.875E-03     454.260E-03    -226.070E-03     87.7352E-03
             257     14.3592E-03     35.6715E-03    -3.38013E+06     61.0120E+06     83.2858E+06    -292.714E+03    -226.767E-03     453.120E-03    -226.353E-03     99.0759E-03    -228.432E-03     454.749E-03    -226.021E-03     86.3957E-03
             258     14.3594E-03     37.1592E-03    -2.42264E+06     61.3211E+06     83.8749E+06     272.775E+03    -228.394E-03     454.700E-03    -226.306E-03     97.5609E-03    -230.047E-03     456.319E-03    -225.972E-03     84.7831E-03
             259     14.3578E-03     38.6568E-03    -2.46599E+06     60.6999E+06     83.8851E+06    -1.02979E+06    -228.735E-03     455.070E-03    -226.335E-03     98.9900E-03    -230.420E-03     456.719E-03    -226.000E-03     86.0577E-03
             260     14.3588E-03     40.1512E-03    -2.37076E+06     60.1360E+06     83.8694E+06     711.377E+03    -227.088E-03     453.445E-03    -226.356E-03     102.604E-03    -228.803E-03     455.121E-03    -226.021E-03     89.7996E-03
             261     14.3600E-03     41.6351E-03    -2.06351E+06     62.0350E+06     84.4117E+06     309.476E+03    -226.555E-03     452.893E-03    -226.338E-03     99.9620E-03    -228.262E-03     454.568E-03    -226.003E-03     87.0797E-03
             262     14.3581E-03     43.1240E-03    -2.62890E+06     62.2386E+06     83.8250E+06    -133.322E+03    -227.335E-03     453.652E-03    -226.317E-03     99.2344E-03    -229.040E-03     455.325E-03    -225.984E-03     86.2944E-03
             263     14.3605E-03     44.6189E-03    -1.79387E+06     62.8756E+06     85.0035E+06     746.284E+03    -227.906E-03     454.207E-03    -226.302E-03     101.132E-03    -229.628E-03     455.900E-03    -225.965E-03     88.1739E-03
             264     14.3580E-03     46.1109E-03    -2.22027E+06     63.3797E+06     84.7500E+06    -914.851E+03    -228.127E-03     454.454E-03    -226.327E-03     102.381E-03    -229.873E-03     456.171E-03    -225.992E-03     89.3135E-03
             265     14.3588E-03     47.6040E-03    -2.61257E+06     63.8906E+06     82.9248E+06     978.453E+03    -226.797E-03     453.133E-03    -226.335E-03     104.670E-03    -228.540E-03     454.852E-03    -226.009E-03     91.8512E-03
             266     14.3609E-03     49.0895E-03    -961.203E+03     65.6825E+06     84.2872E+06     688.491E+03    -226.165E-03     452.473E-03    -226.308E-03     102.681E-03    -227.896E-03     454.189E-03    -225.980E-03     89.8202E-03
             267     14.3583E-03     50.5744E-03    -2.55058E+06     63.6266E+06     84.4556E+06    -1.74329E+06    -227.769E-03     454.077E-03    -226.308E-03     99.0319E-03    -229.475E-03     455.755E-03    -225.975E-03     86.0402E-03
             268     14.3590E-03     52.0703E-03    -2.67988E+06     61.5195E+06     84.3036E+06     311.357E+03    -227.973E-03     454.271E-03    -226.298E-03     100.471E-03    -229.657E-03     455.920E-03    -225.962E-03     87.7165E-03
             269     14.3608E-03     53.5601E-03    -807.138E+03     62.2437E+06     85.0011E+06     605.186E+03    -227.263E-03     453.547E-03    -226.283E-03     100.693E-03    -228.955E-03     455.210E-03    -225.947E-03     87.8768E-03
             270     14.3584E-03     55.0511E-03    -3.03343E+06     62.7453E+06     83.9907E+06     -489.13E+03    -227.666E-03     453.982E-03    -226.316E-03     100.538E-03    -229.393E-03     455.678E-03    -225.983E-03     87.5315E-03
             271     14.3588E-03     56.5421E-03    -3.81531E+06     63.6795E+06     83.7196E+06     616.913E+03    -227.322E-03     453.644E-03    -226.323E-03     101.454E-03    -229.030E-03     455.322E-03    -225.991E-03     88.6909E-03
             272     14.3605E-03     58.0300E-03    -1.27116E+06     65.4982E+06     85.7774E+06     417.992E+03    -227.039E-03     453.337E-03    -226.298E-03     99.5386E-03    -228.715E-03     454.993E-03    -225.963E-03     86.8132E-03
             273     14.3585E-03     59.5191E-03    -1.17648E+06     65.5876E+06     85.9428E+06    -879.068E+03    -227.446E-03     453.743E-03    -226.297E-03     98.6723E-03    -229.137E-03     455.414E-03    -225.961E-03     85.7664E-03
             274     14.3603E-03     61.0131E-03    -2.15725E+06     64.4614E+06     84.6257E+06    -208.831E+03    -227.568E-03     453.861E-03    -226.293E-03     102.092E-03    -229.295E-03     455.563E-03    -225.960E-03     89.1899E-03
             275     14.3589E-03     62.5071E-03    -2.48275E+06     63.6000E+06     84.3058E+06     407.124E+03    -227.685E-03     453.993E-03    -226.308E-03     102.993E-03    -229.407E-03     455.688E-03    -225.975E-03     90.1821E-03
             276     14.3589E-03     63.9938E-03    -2.04757E+06     62.7837E+06     84.0569E+06    -242.617E+03    -226.799E-03     453.135E-03    -226.336E-03     101.531E-03    -228.511E-03     454.818E-03    -226.003E-03     88.7001E-03
             277     14.3599E-03     65.4794E-03    -3.09821E+06     60.1366E+06     82.7689E+06    -1.02528E+06    -227.157E-03     453.491E-03    -226.334E-03     99.3990E-03    -228.861E-03     455.158E-03    -226.003E-03     86.4642E-03
             278     14.3572E-03     66.9736E-03    -2.36160E+06     59.3478E+06     83.4623E+06     527.756E+03    -226.992E-03     453.329E-03    -226.337E-03     99.1338E-03    -228.676E-03     454.973E-03    -226.002E-03     86.3230E-03
             279     14.3618E-03     68.4602E-03     211.827E+03     63.3951E+06     86.7472E+06     1.14893E+06    -226.145E-03     452.462E-03    -226.317E-03     100.846E-03    -227.864E-03     454.156E-03    -225.976E-03     87.9233E-03
             280     14.3581E-03     69.9516E-03    -3.53985E+06     64.0540E+06     85.6415E+06    -670.905E+03    -227.802E-03     454.116E-03    -226.314E-03     99.7797E-03    -229.524E-03     455.805E-03    -225.974E-03     86.7924E-03
             281     14.3586E-03     71.4448E-03    -4.33705E+06     63.4306E+06     83.3024E+06     752.969E+03    -227.638E-03     453.956E-03    -226.318E-03     100.992E-03    -229.344E-03     455.630E-03    -225.987E-03     88.2121E-03
             282     14.3609E-03     72.9308E-03    -630.557E+03     64.2431E+06     85.3894E+06    -260.922E+03    -226.782E-03     453.079E-03    -226.297E-03     100.042E-03    -228.496E-03     454.770E-03    -225.962E-03     87.0776E-03
             283     14.3583E-03     74.4230E-03    -2.26021E+06     62.2477E+06     85.1933E+06    -640.573E+03    -227.990E-03     454.286E-03    -226.296E-03     101.062E-03    -229.736E-03     455.998E-03    -225.957E-03     87.9333E-03
             284     14.3598E-03     75.9195E-03    -1.71024E+06     62.9238E+06     85.1671E+06     644.042E+03    -227.521E-03     453.847E-03    -226.326E-03     102.526E-03    -229.263E-03     455.560E-03    -225.989E-03     89.5340E-03
             285     14.3584E-03     77.4040E-03    -955.604E+03     63.6133E+06     85.4625E+06    -373.582E+03    -226.905E-03     453.253E-03    -226.348E-03     102.404E-03    -228.634E-03     454.956E-03    -226.012E-03     89.4745E-03
             286     14.3593E-03     78.8953E-03    -3.87029E+06     62.3196E+06     84.4975E+06    -261.269E+03    -227.441E-03     453.766E-03    -226.325E-03     102.797E-03    -229.163E-03     455.451E-03    -225.988E-03     89.9940E-03
             287     14.3595E-03     80.3881E-03    -1.39740E+06     64.4665E+06     87.0662E+06     983.269E+03    -226.973E-03     453.278E-03    -226.304E-03     102.707E-03    -228.695E-03     454.971E-03    -225.961E-03     89.9157E-03
             288     14.3604E-03     81.8724E-03    -2.13252E+06     64.1335E+06     87.3286E+06    -914.766E+03    -226.978E-03     453.291E-03    -226.312E-03     100.228E-03    -228.704E-03     454.983E-03    -225.966E-03     87.2473E-03
             289     14.3579E-03     83.3637E-03    -3.84554E+06     61.6418E+06     85.3122E+06    -161.377E+03    -227.686E-03     453.999E-03    -226.313E-03     99.8421E-03    -229.396E-03     455.667E-03    -225.971E-03     86.9386E-03
             290     14.3608E-03     84.8559E-03    -1.78221E+06     62.6113E+06     85.1870E+06     705.435E+03    -227.928E-03     454.229E-03    -226.300E-03     101.075E-03    -229.638E-03     455.908E-03    -225.963E-03     88.1813E-03
             291     14.3578E-03     86.3489E-03    -937.152E+03     63.5169E+06     85.9305E+06    -1.35435E+06    -227.362E-03     453.690E-03    -226.328E-03     101.311E-03    -229.081E-03     455.381E-03    -225.989E-03     88.3470E-03
             292     717.518E-06     86.0770E-03    -138.851E+06    -253.955E+06    -137.114E+06    -51.6917E+03    -226.711E-03     452.715E-03    -226.005E-03     19.2038E-03    -226.892E-03     451.900E-03    -226.121E-03     17.0627E-03
             293     1.43538E-03     86.1139E-03    -135.048E+06    -239.742E+06    -124.823E+06     260.115E+03    -226.563E-03     452.919E-03    -226.356E-03     35.4277E-03    -226.876E-03     452.264E-03    -226.437E-03     31.5108E-03
             294     2.15282E-03     86.1739E-03    -129.393E+06    -225.321E+06    -107.190E+06     257.011E+03    -226.775E-03     453.182E-03    -226.407E-03     52.2308E-03    -227.293E-03     452.752E-03    -226.429E-03     46.4361E-03
             295     2.87054E-03     86.2561E-03    -121.582E+06    -202.770E+06    -87.5838E+06     82.8742E+03    -227.003E-03     453.433E-03    -226.430E-03     68.8593E-03    -227.800E-03     453.333E-03    -226.398E-03     61.1925E-03
             296     3.58851E-03     86.3603E-03    -112.584E+06    -174.641E+06    -66.8324E+06     140.794E+03    -227.379E-03     453.816E-03    -226.437E-03     85.0159E-03    -228.526E-03     454.137E-03    -226.354E-03     75.5053E-03
             297     4.30636E-03     86.4862E-03    -103.680E+06    -149.732E+06    -46.4699E+06     409.170E+03    -227.789E-03     454.232E-03    -226.444E-03     100.402E-03    -229.337E-03     455.016E-03    -226.309E-03     89.0898E-03
             298     5.02430E-03     86.6320E-03    -94.3965E+06    -123.761E+06    -27.5482E+06     316.824E+03    -228.238E-03     454.675E-03    -226.437E-03     114.973E-03    -230.230E-03     455.972E-03    -226.258E-03     101.945E-03
             299     5.74248E-03     86.7972E-03    -85.0068E+06    -96.7273E+06    -9.80701E+06    -116.476E+03    -228.875E-03     455.304E-03    -226.429E-03     128.424E-03    -231.333E-03     457.145E-03    -226.214E-03     113.777E-03
             300     6.46037E-03     86.9800E-03    -75.8978E+06    -66.0912E+06     6.94196E+06    -332.457E+03    -229.499E-03     455.925E-03    -226.425E-03     140.432E-03    -232.429E-03     458.330E-03    -226.185E-03     124.329E-03
             301     7.17820E-03     87.1785E-03    -67.5874E+06    -32.7147E+06     22.4273E+06    -1.54080E+06    -229.951E-03     456.368E-03    -226.417E-03     150.868E-03    -233.327E-03     459.323E-03    -226.159E-03     133.507E-03
             302     7.89627E-03     87.3895E-03    -59.4386E+06    -1.68530E+06     35.4607E+06    -2.52798E+06    -230.343E-03     456.740E-03    -226.396E-03     159.373E-03    -234.105E-03     460.181E-03    -226.130E-03     140.973E-03
             303     8.61442E-03     87.6118E-03    -50.7642E+06     17.3481E+06     44.5165E+06    -1.75364E+06    -230.733E-03     457.107E-03    -226.374E-03     165.916E-03    -234.784E-03     460.910E-03    -226.103E-03     146.705E-03
             304     9.33289E-03     87.8405E-03    -42.5179E+06     25.3594E+06     51.8350E+06    -1.72134E+06    -231.129E-03     457.495E-03    -226.366E-03     170.563E-03    -235.380E-03     461.535E-03    -226.082E-03     150.699E-03
             305     10.0504E-03     88.0752E-03    -35.4736E+06     29.6221E+06     60.0336E+06    -2.32155E+06    -231.489E-03     457.873E-03    -226.384E-03     173.127E-03    -235.867E-03     462.056E-03    -226.076E-03     152.740E-03
             306     10.7681E-03     88.3105E-03    -28.4965E+06     34.6263E+06     68.9798E+06    -1.64600E+06    -231.413E-03     457.826E-03    -226.413E-03     173.179E-03    -235.816E-03     462.051E-03    -226.077E-03     152.522E-03
             307     11.4858E-03     88.5443E-03    -21.1313E+06     44.7547E+06     77.0401E+06    -1.27927E+06    -230.879E-03     457.298E-03    -226.420E-03     171.093E-03    -235.236E-03     461.516E-03    -226.069E-03     150.321E-03
             308     12.2031E-03     88.7697E-03    -14.9813E+06     56.6774E+06     81.8347E+06    -856.538E+03    -230.054E-03     456.449E-03    -226.395E-03     163.353E-03    -234.130E-03     460.435E-03    -226.046E-03     143.087E-03
             309     12.9249E-03     88.9813E-03    -9.35551E+06     69.7328E+06     86.0732E+06     22.1855E+03    -229.514E-03     455.875E-03    -226.361E-03     157.591E-03    -233.427E-03     459.753E-03    -226.018E-03     137.550E-03
             310     13.6424E-03     89.1893E-03    -3.93484E+06     69.3605E+06     86.9467E+06     468.372E+03    -228.087E-03     454.415E-03    -226.328E-03     129.608E-03    -230.929E-03     457.238E-03    -225.988E-03     113.090E-03
             311     717.578E-06     87.5667E-03    -139.186E+06    -253.090E+06    -136.369E+06    -293.033E+03    -226.694E-03     452.805E-03    -226.112E-03     19.3939E-03    -226.880E-03     451.995E-03    -226.225E-03     17.2464E-03
             312     1.43497E-03     87.6040E-03    -134.834E+06    -240.621E+06    -124.469E+06    -246.403E+03    -226.510E-03     452.891E-03    -226.381E-03     35.8194E-03    -226.823E-03     452.232E-03    -226.459E-03     31.8726E-03
             313     2.15286E-03     87.6637E-03    -128.313E+06    -225.781E+06    -106.557E+06     247.679E+03    -226.664E-03     453.058E-03    -226.393E-03     52.4349E-03    -227.179E-03     452.624E-03    -226.413E-03     46.6296E-03
             314     2.87082E-03     87.7456E-03    -120.768E+06    -202.959E+06    -86.8150E+06     474.483E+03    -226.962E-03     453.360E-03    -226.399E-03     68.9187E-03    -227.757E-03     453.258E-03    -226.363E-03     61.2551E-03
             315     3.58858E-03     87.8502E-03    -111.978E+06    -175.119E+06    -66.1155E+06     606.915E+03    -227.343E-03     453.747E-03    -226.404E-03     84.9326E-03    -228.487E-03     454.064E-03    -226.319E-03     75.4252E-03
             316     4.30648E-03     87.9758E-03    -102.270E+06    -149.792E+06    -45.3170E+06     622.384E+03    -227.772E-03     454.186E-03    -226.414E-03     100.194E-03    -229.315E-03     454.966E-03    -226.275E-03     88.8776E-03
             317     5.02461E-03     88.1215E-03    -92.5665E+06    -123.373E+06    -26.1563E+06     618.592E+03    -228.357E-03     454.777E-03    -226.420E-03     114.763E-03    -230.341E-03     456.070E-03    -226.238E-03     101.725E-03
             318     5.74239E-03     88.2871E-03    -83.2393E+06    -96.2160E+06    -8.55663E+06     683.926E+03    -228.955E-03     455.382E-03    -226.427E-03     128.277E-03    -231.405E-03     457.220E-03    -226.210E-03     113.643E-03
             319     6.46022E-03     88.4702E-03    -74.1623E+06    -66.0001E+06     7.89507E+06     682.253E+03    -229.437E-03     455.861E-03    -226.424E-03     140.423E-03    -232.356E-03     458.260E-03    -226.182E-03     124.354E-03
             320     7.17844E-03     88.6682E-03    -65.4886E+06    -30.0181E+06     24.2803E+06     927.364E+03    -229.927E-03     456.337E-03    -226.410E-03     151.040E-03    -233.298E-03     459.299E-03    -226.150E-03     133.733E-03
             321     7.89642E-03     88.8801E-03    -57.7702E+06     1.71344E+06     37.6712E+06    -364.600E+03    -230.407E-03     456.797E-03    -226.390E-03     159.660E-03    -234.170E-03     460.252E-03    -226.121E-03     141.294E-03
             322     8.61447E-03     89.1012E-03    -50.2752E+06     17.8642E+06     45.4465E+06    -2.48158E+06    -230.818E-03     457.190E-03    -226.371E-03     166.181E-03    -234.874E-03     460.998E-03    -226.097E-03     146.948E-03
             323     9.33225E-03     89.3311E-03    -42.2532E+06     25.5902E+06     52.2961E+06    -2.57021E+06    -231.158E-03     457.523E-03    -226.365E-03     170.851E-03    -235.412E-03     461.566E-03    -226.079E-03     150.978E-03
             324     10.0506E-03     89.5653E-03    -34.6254E+06     30.1968E+06     60.0209E+06    -1.77424E+06    -231.211E-03     457.578E-03    -226.367E-03     173.654E-03    -235.581E-03     461.758E-03    -226.061E-03     153.346E-03
             325     10.7685E-03     89.8021E-03    -28.4171E+06     34.5117E+06     68.4066E+06    -2.46028E+06    -230.879E-03     457.242E-03    -226.363E-03     173.956E-03    -235.284E-03     461.471E-03    -226.030E-03     153.357E-03
             326     11.4875E-03     90.0329E-03    -22.3708E+06     43.3813E+06     76.2319E+06    -2.06079E+06    -230.671E-03     457.017E-03    -226.346E-03     171.877E-03    -235.032E-03     461.231E-03    -225.995E-03     151.170E-03
             327     12.2068E-03     90.2625E-03    -16.1416E+06     54.1843E+06     80.7629E+06    -1.19077E+06    -230.461E-03     456.789E-03    -226.328E-03     163.477E-03    -234.555E-03     460.784E-03    -225.979E-03     143.119E-03
             328     12.9216E-03     90.4683E-03    -10.7891E+06     68.2079E+06     84.0543E+06    -1.03559E+06    -230.140E-03     456.463E-03    -226.324E-03     156.995E-03    -234.064E-03     460.347E-03    -225.987E-03     136.826E-03
             329     13.6396E-03     90.6828E-03    -4.26621E+06     69.6636E+06     85.2798E+06    -56.4339E+03    -228.370E-03     454.688E-03    -226.318E-03     128.787E-03    -231.211E-03     457.514E-03    -225.986E-03     112.170E-03
             330     717.684E-06     89.0567E-03    -138.118E+06    -252.354E+06    -135.008E+06    -159.167E+03    -226.515E-03     452.640E-03    -226.125E-03     19.4170E-03    -226.699E-03     451.830E-03    -226.234E-03     17.2586E-03
             331     1.43555E-03     89.0938E-03    -133.934E+06    -240.678E+06    -123.236E+06    -284.526E+03    -226.470E-03     452.780E-03    -226.310E-03     35.7540E-03    -226.780E-03     452.118E-03    -226.383E-03     31.8054E-03
             332     2.15322E-03     89.1532E-03    -127.952E+06    -226.906E+06    -106.582E+06     38.0900E+03    -226.700E-03     453.042E-03    -226.342E-03     52.3019E-03    -227.211E-03     452.603E-03    -226.360E-03     46.4932E-03
             333     2.87079E-03     89.2355E-03    -119.818E+06    -203.242E+06    -86.1158E+06     456.125E+03    -227.006E-03     453.379E-03    -226.373E-03     68.8193E-03    -227.798E-03     453.273E-03    -226.335E-03     61.1470E-03
             334     3.58862E-03     89.3399E-03    -110.544E+06    -175.168E+06    -65.0156E+06     278.272E+03    -227.338E-03     453.729E-03    -226.390E-03     84.8250E-03    -228.476E-03     454.041E-03    -226.301E-03     75.3144E-03
             335     4.30663E-03     89.4653E-03    -101.052E+06    -150.443E+06    -44.6662E+06     285.003E+03    -227.845E-03     454.252E-03    -226.407E-03     100.169E-03    -229.382E-03     455.025E-03    -226.266E-03     88.8496E-03
             336     5.02429E-03     89.6115E-03    -91.2587E+06    -123.697E+06    -25.3387E+06     496.128E+03    -228.420E-03     454.844E-03    -226.423E-03     114.844E-03    -230.399E-03     456.133E-03    -226.238E-03     101.806E-03
             337     5.74216E-03     89.7772E-03    -81.3974E+06    -96.7261E+06    -7.59719E+06     686.973E+03    -228.876E-03     455.304E-03    -226.428E-03     128.429E-03    -231.317E-03     457.134E-03    -226.207E-03     113.809E-03
             338     6.46047E-03     89.9596E-03    -71.9482E+06    -66.3501E+06     8.99790E+06     950.746E+03    -229.372E-03     455.786E-03    -226.414E-03     140.615E-03    -232.282E-03     458.179E-03    -226.169E-03     124.562E-03
             339     7.17848E-03     90.1584E-03    -62.1376E+06    -30.6602E+06     25.8012E+06     1.08200E+06    -229.895E-03     456.289E-03    -226.394E-03     151.121E-03    -233.250E-03     459.240E-03    -226.130E-03     133.818E-03
             340     7.89674E-03     90.3698E-03    -52.2545E+06     3.73048E+06     40.9873E+06     1.95530E+06    -230.349E-03     456.720E-03    -226.372E-03     159.723E-03    -234.091E-03     460.172E-03    -226.096E-03     141.399E-03
             341     8.61474E-03     90.5921E-03    -44.7124E+06     22.5373E+06     50.1873E+06     1.75841E+06    -230.830E-03     457.182E-03    -226.352E-03     166.474E-03    -234.872E-03     461.000E-03    -226.069E-03     147.314E-03
             342     9.33288E-03     90.8210E-03    -39.4096E+06     28.0945E+06     55.6759E+06    -9.73661E+03    -231.065E-03     457.405E-03    -226.340E-03     171.304E-03    -235.315E-03     461.453E-03    -226.045E-03     151.496E-03
             343     10.0507E-03     91.0559E-03    -33.8857E+06     30.6258E+06     60.9009E+06    -1.52906E+06    -230.921E-03     457.243E-03    -226.322E-03     173.809E-03    -235.293E-03     461.426E-03    -226.013E-03     153.519E-03
             344     10.7702E-03     91.2900E-03    -26.7091E+06     36.8922E+06     70.2591E+06    -2.19208E+06    -230.772E-03     457.082E-03    -226.311E-03     173.343E-03    -235.172E-03     461.315E-03    -225.974E-03     152.731E-03
             345     11.4883E-03     91.5240E-03    -19.7945E+06     42.9864E+06     77.6032E+06    -2.15649E+06    -230.725E-03     457.027E-03    -226.301E-03     170.762E-03    -235.066E-03     461.225E-03    -225.947E-03     150.015E-03
             346     12.2051E-03     91.7513E-03    -13.6288E+06     50.7009E+06     80.6275E+06    -1.31790E+06    -230.419E-03     456.706E-03    -226.287E-03     163.329E-03    -234.485E-03     460.671E-03    -225.938E-03     142.998E-03
             347     12.9246E-03     91.9641E-03    -8.01809E+06     67.9129E+06     85.6301E+06     358.621E+03    -230.160E-03     456.444E-03    -226.284E-03     157.927E-03    -234.069E-03     460.317E-03    -225.943E-03     137.860E-03
             348     13.6425E-03     92.1701E-03    -5.00850E+06     69.4119E+06     85.1000E+06     273.446E+03    -229.296E-03     455.593E-03    -226.297E-03     129.254E-03    -232.152E-03     458.430E-03    -225.965E-03     112.573E-03
             349     717.687E-06     90.5462E-03    -137.262E+06    -252.584E+06    -134.334E+06     179.453E+03    -226.333E-03     452.625E-03    -226.292E-03     19.2110E-03    -226.513E-03     451.811E-03    -226.399E-03     17.0615E-03
             350     1.43526E-03     90.5834E-03    -133.437E+06    -240.842E+06    -122.835E+06     295.713E+03    -226.440E-03     452.739E-03    -226.299E-03     35.5033E-03    -226.747E-03     452.074E-03    -226.370E-03     31.5770E-03
             351     2.15297E-03     90.6430E-03    -127.063E+06    -226.540E+06    -105.052E+06    -167.694E+03    -226.679E-03     453.009E-03    -226.330E-03     52.2911E-03    -227.187E-03     452.567E-03    -226.343E-03     46.4868E-03
             352     2.87081E-03     90.7252E-03    -118.766E+06    -203.454E+06    -85.4191E+06    -452.380E+03    -227.004E-03     453.361E-03    -226.357E-03     68.8859E-03    -227.790E-03     453.252E-03    -226.317E-03     61.2084E-03
             353     3.58872E-03     90.8294E-03    -109.805E+06    -175.471E+06    -64.8223E+06    -55.3691E+03    -227.380E-03     453.759E-03    -226.379E-03     84.8162E-03    -228.513E-03     454.067E-03    -226.289E-03     75.3069E-03
             354     4.30648E-03     90.9551E-03    -100.493E+06    -150.573E+06    -44.1591E+06    -59.8481E+03    -227.846E-03     454.247E-03    -226.401E-03     100.336E-03    -229.380E-03     455.018E-03    -226.258E-03     89.0214E-03
             355     5.02447E-03     91.1016E-03    -90.8450E+06    -124.155E+06    -25.2087E+06    -172.207E+03    -228.332E-03     454.741E-03    -226.409E-03     115.023E-03    -230.309E-03     456.028E-03    -226.224E-03     101.986E-03
             356     5.74268E-03     91.2665E-03    -81.2743E+06    -97.1759E+06    -7.49848E+06    -206.535E+03    -228.838E-03     455.244E-03    -226.407E-03     128.459E-03    -231.279E-03     457.074E-03    -226.186E-03     113.821E-03
             357     6.46057E-03     91.4496E-03    -71.4419E+06    -66.7700E+06     9.41672E+06    -332.759E+03    -229.393E-03     455.788E-03    -226.395E-03     140.667E-03    -232.302E-03     458.180E-03    -226.148E-03     124.584E-03
             358     7.17868E-03     91.6481E-03    -62.3334E+06    -32.0641E+06     25.5049E+06     140.754E+03    -229.886E-03     456.263E-03    -226.377E-03     151.142E-03    -233.241E-03     459.209E-03    -226.112E-03     133.823E-03
             359     7.89671E-03     91.8597E-03    -54.1492E+06     1.65319E+06     39.6369E+06     666.649E+03    -230.278E-03     456.629E-03    -226.351E-03     159.700E-03    -234.024E-03     460.073E-03    -226.077E-03     141.365E-03
             360     8.61519E-03     92.0817E-03    -45.0829E+06     22.0282E+06     49.3879E+06     1.71516E+06    -230.599E-03     456.919E-03    -226.320E-03     166.342E-03    -234.635E-03     460.730E-03    -226.039E-03     147.214E-03
             361     9.33330E-03     92.3118E-03    -36.2446E+06     30.2458E+06     57.1869E+06     2.78944E+06    -230.828E-03     457.124E-03    -226.297E-03     170.878E-03    -235.065E-03     461.174E-03    -226.002E-03     151.107E-03
             362     10.0522E-03     92.5445E-03    -29.6029E+06     35.3633E+06     65.8876E+06     1.65449E+06    -231.097E-03     457.391E-03    -226.294E-03     173.201E-03    -235.460E-03     461.584E-03    -225.973E-03     152.917E-03
             363     10.7693E-03     92.7810E-03    -24.5349E+06     40.2869E+06     74.0891E+06    -828.024E+03    -231.260E-03     457.570E-03    -226.311E-03     172.871E-03    -235.656E-03     461.808E-03    -225.963E-03     152.234E-03
             364     11.4871E-03     93.0130E-03    -19.6806E+06     41.8863E+06     77.6164E+06    -1.40956E+06    -231.065E-03     457.387E-03    -226.322E-03     170.303E-03    -235.407E-03     461.583E-03    -225.966E-03     149.495E-03
             365     12.2066E-03     93.2425E-03    -15.1428E+06     49.8828E+06     80.4488E+06    -962.213E+03    -230.254E-03     456.573E-03    -226.319E-03     161.873E-03    -234.289E-03     460.498E-03    -225.967E-03     141.625E-03
             366     12.9244E-03     93.4513E-03    -10.2341E+06     65.6040E+06     85.3722E+06    -690.486E+03    -229.822E-03     456.136E-03    -226.314E-03     155.219E-03    -233.679E-03     459.941E-03    -225.967E-03     135.249E-03
             367     13.6418E-03     93.6646E-03    -5.49853E+06     68.2752E+06     84.6061E+06     581.092E+03    -229.103E-03     455.418E-03    -226.316E-03     127.705E-03    -231.921E-03     458.214E-03    -225.984E-03     111.137E-03
             368     717.557E-06     92.0363E-03    -137.430E+06    -253.401E+06    -134.558E+06     602.197E+03    -226.215E-03     452.678E-03    -226.463E-03     19.3018E-03    -226.395E-03     451.861E-03    -226.569E-03     17.1559E-03
             369     1.43535E-03     92.0729E-03    -133.177E+06    -240.585E+06    -122.323E+06     137.794E+03    -226.375E-03     452.682E-03    -226.308E-03     35.5671E-03    -226.682E-03     452.017E-03    -226.377E-03     31.6398E-03
             370     2.15325E-03     92.1326E-03    -126.469E+06    -225.733E+06    -104.563E+06    -185.965E+03    -226.615E-03     452.926E-03    -226.311E-03     52.4302E-03    -227.122E-03     452.486E-03    -226.323E-03     46.6360E-03
             371     2.87104E-03     92.2148E-03    -118.978E+06    -203.069E+06    -85.1778E+06    -378.645E+03    -227.007E-03     453.340E-03    -226.333E-03     68.9208E-03    -227.794E-03     453.232E-03    -226.292E-03     61.2574E-03
             372     3.58868E-03     92.3194E-03    -110.298E+06    -175.538E+06    -64.8599E+06    -533.798E+03    -227.392E-03     453.752E-03    -226.361E-03     84.8725E-03    -228.528E-03     454.062E-03    -226.271E-03     75.3510E-03
             373     4.30664E-03     92.4447E-03    -100.845E+06    -150.254E+06    -44.3211E+06    -483.830E+03    -227.811E-03     454.195E-03    -226.384E-03     100.360E-03    -229.348E-03     454.969E-03    -226.241E-03     89.0350E-03
             374     5.02471E-03     92.5912E-03    -91.6732E+06    -123.779E+06    -25.3846E+06    -666.309E+03    -228.300E-03     454.691E-03    -226.391E-03     114.892E-03    -230.281E-03     455.981E-03    -226.206E-03     101.843E-03
             375     5.74248E-03     92.7563E-03    -82.2526E+06    -96.7902E+06    -7.89291E+06    -964.382E+03    -228.843E-03     455.233E-03    -226.390E-03     128.330E-03    -231.290E-03     457.068E-03    -226.170E-03     113.669E-03
             376     6.46064E-03     92.9393E-03    -73.1488E+06    -66.8754E+06     8.34038E+06    -1.00029E+06    -229.380E-03     455.761E-03    -226.380E-03     140.622E-03    -232.296E-03     458.155E-03    -226.136E-03     124.530E-03
             377     7.17875E-03     93.1379E-03    -64.2643E+06    -33.8343E+06     23.7990E+06    -655.643E+03    -229.871E-03     456.233E-03    -226.362E-03     151.083E-03    -233.230E-03     459.175E-03    -226.101E-03     133.754E-03
             378     7.89701E-03     93.3495E-03    -55.1829E+06     309.156E+03     38.2063E+06     263.358E+03    -230.269E-03     456.606E-03    -226.337E-03     159.603E-03    -234.017E-03     460.049E-03    -226.067E-03     141.253E-03
             379     8.61489E-03     93.5715E-03    -47.4972E+06     20.7435E+06     47.5114E+06     113.670E+03    -230.574E-03     456.882E-03    -226.308E-03     166.076E-03    -234.620E-03     460.695E-03    -226.032E-03     146.900E-03
             380     9.33367E-03     93.8004E-03    -40.1404E+06     26.6117E+06     53.6347E+06     63.7975E+03    -230.961E-03     457.252E-03    -226.291E-03     170.340E-03    -235.205E-03     461.293E-03    -226.004E-03     150.500E-03
             381     10.0512E-03     94.0354E-03    -32.4958E+06     36.4246E+06     61.9873E+06     1.56243E+06    -231.313E-03     457.611E-03    -226.298E-03     172.536E-03    -235.682E-03     461.814E-03    -225.993E-03     152.206E-03
             382     10.7699E-03     94.2711E-03    -26.7493E+06     44.0734E+06     71.8971E+06     2.07390E+06    -231.402E-03     457.736E-03    -226.334E-03     172.361E-03    -235.810E-03     461.997E-03    -226.000E-03     151.718E-03
             383     11.4875E-03     94.5047E-03    -21.9627E+06     42.8113E+06     77.4707E+06     1.13369E+06    -231.287E-03     457.660E-03    -226.373E-03     169.904E-03    -235.638E-03     461.860E-03    -226.016E-03     149.105E-03
             384     12.2035E-03     94.7319E-03    -16.1644E+06     51.0364E+06     81.2834E+06     268.089E+03    -230.578E-03     456.966E-03    -226.387E-03     161.907E-03    -234.622E-03     460.898E-03    -226.031E-03     141.657E-03
             385     12.9209E-03     94.9426E-03    -9.96529E+06     64.8685E+06     85.6279E+06    -259.892E+03    -229.867E-03     456.249E-03    -226.382E-03     157.166E-03    -233.752E-03     460.080E-03    -226.033E-03     137.192E-03
             386     13.6389E-03     95.1538E-03    -4.33358E+06     67.3064E+06     85.4425E+06    -668.965E+03    -228.161E-03     454.511E-03    -226.350E-03     129.579E-03    -231.006E-03     457.331E-03    -226.014E-03     113.001E-03
             387     717.666E-06     93.5260E-03    -137.450E+06    -252.901E+06    -135.135E+06    -634.881E+03    -226.314E-03     452.511E-03    -226.196E-03     19.5030E-03    -226.494E-03     451.696E-03    -226.306E-03     17.3464E-03
             388     1.43539E-03     93.5622E-03    -133.006E+06    -240.458E+06    -123.055E+06    -312.235E+03    -226.456E-03     452.709E-03    -226.253E-03     35.5385E-03    -226.760E-03     452.044E-03    -226.327E-03     31.6114E-03
             389     2.15318E-03     93.6219E-03    -127.235E+06    -225.868E+06    -105.685E+06     60.0563E+03    -226.707E-03     453.012E-03    -226.305E-03     52.2652E-03    -227.216E-03     452.574E-03    -226.322E-03     46.4720E-03
             390     2.87090E-03     93.7046E-03    -119.454E+06    -202.545E+06    -85.3337E+06    -30.2142E+03    -226.940E-03     453.281E-03    -226.341E-03     68.7056E-03    -227.730E-03     453.175E-03    -226.300E-03     61.0417E-03
             391     3.58889E-03     93.8089E-03    -110.804E+06    -174.703E+06    -64.6551E+06    -410.409E+03    -227.298E-03     453.652E-03    -226.354E-03     84.7832E-03    -228.439E-03     453.967E-03    -226.263E-03     75.2610E-03
             392     4.30672E-03     93.9345E-03    -101.766E+06    -150.013E+06    -44.6718E+06    -660.250E+03    -227.820E-03     454.191E-03    -226.370E-03     100.305E-03    -229.362E-03     454.968E-03    -226.229E-03     88.9727E-03
             393     5.02447E-03     94.0808E-03    -92.0919E+06    -123.124E+06    -25.6625E+06    -705.716E+03    -228.304E-03     454.685E-03    -226.381E-03     114.904E-03    -230.289E-03     455.980E-03    -226.197E-03     101.852E-03
             394     5.74271E-03     94.2460E-03    -83.0455E+06    -96.4477E+06    -8.56871E+06    -558.635E+03    -228.840E-03     455.220E-03    -226.380E-03     128.435E-03    -231.292E-03     457.060E-03    -226.163E-03     113.780E-03
             395     6.46068E-03     94.4289E-03    -74.6432E+06    -67.0027E+06     7.25919E+06    -188.549E+03    -229.426E-03     455.799E-03    -226.373E-03     140.596E-03    -232.349E-03     458.198E-03    -226.131E-03     124.507E-03
             396     7.17876E-03     94.6276E-03    -66.4371E+06    -33.3813E+06     22.7445E+06    -495.080E+03    -229.921E-03     456.283E-03    -226.362E-03     150.978E-03    -233.291E-03     459.233E-03    -226.104E-03     133.637E-03
             397     7.89674E-03     94.8393E-03    -58.0868E+06    -632.074E+03     36.5387E+06    -1.36788E+06    -230.340E-03     456.686E-03    -226.346E-03     159.334E-03    -234.102E-03     460.133E-03    -226.078E-03     140.930E-03
             398     8.61536E-03     95.0611E-03    -48.9926E+06     19.5129E+06     46.1358E+06    -217.930E+03    -230.792E-03     457.123E-03    -226.332E-03     165.630E-03    -234.845E-03     460.938E-03    -226.058E-03     146.396E-03
             399     9.33266E-03     95.2909E-03    -41.9785E+06     26.1027E+06     52.4697E+06     813.160E+03    -231.221E-03     457.556E-03    -226.336E-03     170.148E-03    -235.470E-03     461.597E-03    -226.050E-03     150.294E-03
             400     10.0509E-03     95.5254E-03    -36.0417E+06     34.0939E+06     60.2261E+06    -286.111E+03    -231.426E-03     457.781E-03    -226.355E-03     172.703E-03    -235.809E-03     461.982E-03    -226.051E-03     152.339E-03
             401     10.7679E-03     95.7614E-03    -27.4037E+06     41.3468E+06     70.7074E+06     968.711E+03    -231.372E-03     457.760E-03    -226.388E-03     172.681E-03    -235.777E-03     462.010E-03    -226.055E-03     152.043E-03
             402     11.4857E-03     95.9952E-03    -19.2020E+06     44.8069E+06     78.2326E+06     2.64261E+06    -230.976E-03     457.382E-03    -226.406E-03     170.639E-03    -235.319E-03     461.590E-03    -226.052E-03     149.911E-03
             403     12.2050E-03     96.2239E-03    -13.4902E+06     55.0280E+06     82.7844E+06     1.08548E+06    -230.160E-03     456.551E-03    -226.391E-03     163.216E-03    -234.223E-03     460.521E-03    -226.038E-03     142.979E-03
             404     12.9240E-03     96.4322E-03    -8.82723E+06     65.9458E+06     86.4461E+06    -375.347E+03    -229.348E-03     455.705E-03    -226.357E-03     158.152E-03    -233.260E-03     459.569E-03    -226.007E-03     138.133E-03
             405     13.6431E-03     96.6452E-03    -4.39395E+06     66.6022E+06     86.9476E+06    -245.728E+03    -228.207E-03     454.525E-03    -226.318E-03     130.187E-03    -231.067E-03     457.353E-03    -225.973E-03     113.601E-03
             406     717.939E-06     95.0150E-03    -137.529E+06    -251.636E+06    -134.312E+06    -37.7262E+03    -226.465E-03     452.492E-03    -226.026E-03     19.1529E-03    -226.647E-03     451.682E-03    -226.134E-03     17.0095E-03
             407     1.43558E-03     95.0522E-03    -134.308E+06    -240.443E+06    -123.584E+06    -288.525E+03    -226.529E-03     452.792E-03    -226.263E-03     35.4434E-03    -226.840E-03     452.131E-03    -226.337E-03     31.5084E-03
             408     2.15294E-03     95.1118E-03    -127.853E+06    -225.847E+06    -106.237E+06    -299.299E+03    -226.702E-03     453.029E-03    -226.327E-03     52.3069E-03    -227.214E-03     452.594E-03    -226.346E-03     46.4994E-03
             409     2.87074E-03     95.1941E-03    -119.714E+06    -202.340E+06    -85.8516E+06    -193.120E+03    -226.888E-03     453.237E-03    -226.349E-03     68.8327E-03    -227.681E-03     453.135E-03    -226.311E-03     61.1579E-03
             410     3.58871E-03     95.2980E-03    -111.050E+06    -174.617E+06    -65.2030E+06    -201.282E+03    -227.278E-03     453.629E-03    -226.351E-03     84.9107E-03    -228.420E-03     453.946E-03    -226.263E-03     75.3962E-03
             411     4.30667E-03     95.4245E-03    -101.736E+06    -149.480E+06    -44.8290E+06    -272.683E+03    -227.770E-03     454.132E-03    -226.362E-03     100.354E-03    -229.312E-03     454.913E-03    -226.222E-03     89.0316E-03
             412     5.02481E-03     95.5702E-03    -92.4631E+06    -123.194E+06    -26.1703E+06    -107.411E+03    -228.314E-03     454.684E-03    -226.370E-03     114.881E-03    -230.300E-03     455.980E-03    -226.188E-03     101.831E-03
             413     5.74268E-03     95.7358E-03    -83.4146E+06    -96.7165E+06    -8.95489E+06     205.174E+03    -228.947E-03     455.326E-03    -226.379E-03     128.346E-03    -231.401E-03     457.166E-03    -226.162E-03     113.688E-03
             414     6.46067E-03     95.9188E-03    -74.3065E+06    -67.0335E+06     7.27778E+06     343.906E+03    -229.538E-03     455.925E-03    -226.387E-03     140.366E-03    -232.460E-03     458.324E-03    -226.145E-03     124.262E-03
             415     7.17859E-03     96.1175E-03    -65.1934E+06    -32.4435E+06     23.3163E+06     578.706E+03    -230.030E-03     456.418E-03    -226.388E-03     150.707E-03    -233.395E-03     459.369E-03    -226.130E-03     133.365E-03
             416     7.89670E-03     96.3292E-03    -57.0136E+06     636.801E+03     37.4238E+06     796.741E+03    -230.482E-03     456.865E-03    -226.383E-03     159.167E-03    -234.241E-03     460.315E-03    -226.114E-03     140.779E-03
             417     8.61395E-03     96.5513E-03    -50.8107E+06     17.8269E+06     44.5986E+06     131.542E+03    -230.927E-03     457.301E-03    -226.374E-03     165.817E-03    -234.985E-03     461.112E-03    -226.103E-03     146.589E-03
             418     9.33240E-03     96.7811E-03    -42.8567E+06     25.8476E+06     51.0009E+06    -106.679E+03    -231.226E-03     457.600E-03    -226.374E-03     170.589E-03    -235.481E-03     461.647E-03    -226.095E-03     150.726E-03
             419     10.0501E-03     97.0159E-03    -34.6673E+06     34.8265E+06     61.4257E+06     673.629E+03    -231.315E-03     457.706E-03    -226.391E-03     173.366E-03    -235.696E-03     461.909E-03    -226.084E-03     153.055E-03
             420     10.7686E-03     97.2524E-03    -29.7265E+06     39.9626E+06     70.6288E+06     125.933E+03    -231.099E-03     457.503E-03    -226.404E-03     173.596E-03    -235.518E-03     461.754E-03    -226.066E-03     153.013E-03
             421     11.4870E-03     97.4856E-03    -23.9995E+06     43.2802E+06     75.8427E+06    -1.04437E+06    -230.574E-03     456.963E-03    -226.389E-03     171.257E-03    -234.945E-03     461.182E-03    -226.037E-03     150.508E-03
             422     12.2050E-03     97.7123E-03    -15.8413E+06     56.3166E+06     81.4343E+06    -312.134E+03    -229.737E-03     456.084E-03    -226.347E-03     163.220E-03    -233.817E-03     460.072E-03    -225.999E-03     142.968E-03
             423     12.9225E-03     97.9232E-03    -9.63329E+06     67.1849E+06     86.2211E+06    -50.7154E+03    -229.237E-03     455.543E-03    -226.306E-03     157.522E-03    -233.148E-03     459.408E-03    -225.958E-03     137.507E-03
             424     13.6408E-03     98.1310E-03    -5.26158E+06     65.4111E+06     86.4142E+06    -490.948E+03    -228.494E-03     454.772E-03    -226.278E-03     130.228E-03    -231.347E-03     457.588E-03    -225.933E-03     113.640E-03
             425     717.434E-06     96.5048E-03    -138.170E+06    -252.344E+06    -135.580E+06     274.809E+03    -226.550E-03     452.754E-03    -226.205E-03     19.1376E-03    -226.733E-03     451.945E-03    -226.316E-03     16.9741E-03
             426     1.43507E-03     96.5419E-03    -134.231E+06    -239.538E+06    -123.055E+06     240.606E+03    -226.396E-03     452.741E-03    -226.345E-03     35.4859E-03    -226.709E-03     452.084E-03    -226.418E-03     31.5463E-03
             427     2.15316E-03     96.6015E-03    -128.309E+06    -225.390E+06    -106.072E+06    -178.793E+03    -226.560E-03     452.892E-03    -226.332E-03     52.2346E-03    -227.075E-03     452.459E-03    -226.350E-03     46.4302E-03
             428     2.87113E-03     96.6834E-03    -120.264E+06    -202.514E+06    -86.6509E+06    -323.006E+03    -226.901E-03     453.232E-03    -226.331E-03     68.8236E-03    -227.695E-03     453.131E-03    -226.296E-03     61.1480E-03
             429     3.58885E-03     96.7880E-03    -111.370E+06    -174.576E+06    -65.8691E+06    -137.582E+03    -227.330E-03     453.673E-03    -226.343E-03     84.9265E-03    -228.473E-03     453.992E-03    -226.257E-03     75.4054E-03
             430     4.30679E-03     96.9136E-03    -102.267E+06    -149.491E+06    -45.5012E+06     43.2616E+03    -227.817E-03     454.181E-03    -226.364E-03     100.253E-03    -229.362E-03     454.964E-03    -226.227E-03     88.9222E-03
             431     5.02466E-03     97.0601E-03    -92.8508E+06    -123.512E+06    -26.5597E+06     66.6653E+03    -228.437E-03     454.824E-03    -226.387E-03     114.694E-03    -230.425E-03     456.120E-03    -226.206E-03     101.627E-03
             432     5.74252E-03     97.2256E-03    -83.1989E+06    -97.0994E+06    -9.11035E+06     77.0767E+03    -229.053E-03     455.464E-03    -226.411E-03     128.138E-03    -231.504E-03     457.301E-03    -226.195E-03     113.465E-03
             433     6.46027E-03     97.4089E-03    -73.7687E+06    -67.2013E+06     7.18588E+06     111.537E+03    -229.592E-03     456.017E-03    -226.425E-03     140.277E-03    -232.510E-03     458.413E-03    -226.184E-03     124.168E-03
             434     7.17817E-03     97.6075E-03    -64.9188E+06    -33.6400E+06     22.8598E+06     496.071E+03    -230.055E-03     456.481E-03    -226.426E-03     150.771E-03    -233.416E-03     459.425E-03    -226.168E-03     133.432E-03
             435     7.89592E-03     97.8195E-03    -55.8767E+06    -1.49430E+06     36.8737E+06     1.78863E+06    -230.444E-03     456.858E-03    -226.414E-03     159.494E-03    -234.191E-03     460.295E-03    -226.146E-03     141.148E-03
             436     8.61465E-03     98.0417E-03    -46.4445E+06     19.9438E+06     47.5950E+06     2.69450E+06    -230.852E-03     457.251E-03    -226.399E-03     166.319E-03    -234.897E-03     461.064E-03    -226.122E-03     147.153E-03
             437     9.33215E-03     98.2716E-03    -40.1952E+06     27.6033E+06     53.9725E+06     1.52094E+06    -231.146E-03     457.535E-03    -226.389E-03     171.046E-03    -235.401E-03     461.589E-03    -226.101E-03     151.216E-03
             438     10.0505E-03     98.5059E-03    -35.0770E+06     33.5086E+06     60.9730E+06     1.39279E+06    -231.082E-03     457.464E-03    -226.382E-03     173.628E-03    -235.461E-03     461.661E-03    -226.075E-03     153.367E-03
             439     10.7685E-03     98.7423E-03    -27.0576E+06     43.0775E+06     72.0596E+06     1.02924E+06    -230.697E-03     457.069E-03    -226.372E-03     173.615E-03    -235.108E-03     461.328E-03    -226.035E-03     153.076E-03
             440     11.4871E-03     98.9747E-03    -19.5910E+06     44.6886E+06     78.8102E+06    -383.186E+03    -230.460E-03     456.808E-03    -226.348E-03     171.418E-03    -234.807E-03     461.016E-03    -225.990E-03     150.735E-03
             441     12.2054E-03     99.2032E-03    -14.6568E+06     53.6402E+06     82.4911E+06    -210.625E+03    -229.895E-03     456.204E-03    -226.309E-03     163.253E-03    -233.961E-03     460.169E-03    -225.953E-03     143.032E-03
             442     12.9255E-03     99.4110E-03    -9.26839E+06     68.5844E+06     87.1017E+06    -10.1275E+03    -229.698E-03     455.978E-03    -226.280E-03     157.485E-03    -233.600E-03     459.838E-03    -225.931E-03     137.479E-03
             443     13.6433E-03     99.6252E-03    -3.95148E+06     66.3830E+06     86.5819E+06    -375.103E+03    -228.811E-03     455.081E-03    -226.270E-03     129.903E-03    -231.648E-03     457.889E-03    -225.928E-03     113.312E-03
             444     717.518E-06     97.9946E-03    -138.996E+06    -252.780E+06    -136.228E+06    -343.976E+03    -226.470E-03     452.704E-03    -226.234E-03     19.2761E-03    -226.656E-03     451.894E-03    -226.347E-03     17.1125E-03
             445     1.43540E-03     98.0316E-03    -134.217E+06    -239.881E+06    -124.057E+06     34.9114E+03    -226.391E-03     452.710E-03    -226.319E-03     35.6385E-03    -226.703E-03     452.053E-03    -226.397E-03     31.6950E-03
             446     2.15306E-03     98.0906E-03    -127.908E+06    -224.813E+06    -106.016E+06     253.768E+03    -226.634E-03     452.960E-03    -226.326E-03     52.2130E-03    -227.148E-03     452.529E-03    -226.345E-03     46.4025E-03
             447     2.87078E-03     98.1731E-03    -120.763E+06    -202.186E+06    -86.6624E+06     36.9313E+03    -226.979E-03     453.327E-03    -226.348E-03     68.6599E-03    -227.776E-03     453.229E-03    -226.313E-03     60.9766E-03
             448     3.58878E-03     98.2774E-03    -111.897E+06    -174.698E+06    -66.3617E+06    -89.5101E+03    -227.373E-03     453.743E-03    -226.371E-03     84.6611E-03    -228.517E-03     454.063E-03    -226.287E-03     75.1311E-03
             449     4.30658E-03     98.4035E-03    -102.287E+06    -149.511E+06    -45.7197E+06    -73.5462E+03    -227.911E-03     454.312E-03    -226.401E-03     100.132E-03    -229.454E-03     455.093E-03    -226.264E-03     88.7989E-03
             450     5.02431E-03     98.5500E-03    -92.9166E+06    -123.694E+06    -26.9127E+06    -84.7986E+03    -228.496E-03     454.925E-03    -226.428E-03     114.794E-03    -230.482E-03     456.220E-03    -226.249E-03     101.736E-03
             451     5.74204E-03     98.7158E-03    -83.6815E+06    -97.2633E+06    -9.68613E+06    -98.5837E+03    -229.053E-03     455.501E-03    -226.448E-03     128.342E-03    -231.505E-03     457.340E-03    -226.235E-03     113.678E-03
             452     6.46006E-03     98.8988E-03    -74.8851E+06    -67.6476E+06     6.31878E+06     39.8913E+03    -229.558E-03     456.011E-03    -226.454E-03     140.538E-03    -232.479E-03     458.409E-03    -226.215E-03     124.444E-03
             453     7.17801E-03     99.0979E-03    -65.9692E+06    -34.8083E+06     22.0358E+06     318.351E+03    -229.983E-03     456.428E-03    -226.445E-03     151.027E-03    -233.348E-03     459.372E-03    -226.189E-03     133.695E-03
             454     7.89643E-03     99.3091E-03    -57.3546E+06    -3.03951E+06     36.1031E+06     43.7456E+03    -230.395E-03     456.821E-03    -226.426E-03     159.651E-03    -234.148E-03     460.255E-03    -226.158E-03     141.282E-03
             455     8.61401E-03     99.5318E-03    -49.0125E+06     17.6925E+06     45.5266E+06     94.5586E+03    -230.723E-03     457.122E-03    -226.399E-03     166.271E-03    -234.775E-03     460.930E-03    -226.126E-03     147.071E-03
             456     9.33272E-03     99.7617E-03    -39.9130E+06     26.1077E+06     52.8020E+06     2.75206E+06    -230.868E-03     457.241E-03    -226.373E-03     170.876E-03    -235.111E-03     461.282E-03    -226.089E-03     151.099E-03
             457     10.0506E-03     99.9962E-03    -31.2532E+06     36.5581E+06     63.6119E+06     2.51118E+06    -230.844E-03     457.201E-03    -226.356E-03     173.566E-03    -235.213E-03     461.404E-03    -226.046E-03     153.328E-03
             458     10.7694E-03     100.231E-03    -24.9036E+06     45.0921E+06     74.5207E+06    -117.626E+03    -230.727E-03     457.071E-03    -226.345E-03     173.458E-03    -235.134E-03     461.334E-03    -226.001E-03     152.888E-03
             459     11.4881E-03     100.465E-03    -19.4645E+06     44.1366E+06     79.3502E+06     998.698E+03    -230.543E-03     456.869E-03    -226.326E-03     170.689E-03    -234.878E-03     461.062E-03    -225.965E-03     150.027E-03
             460     12.2068E-03     100.693E-03    -14.0576E+06     54.6572E+06     83.7835E+06     1.06650E+06    -230.121E-03     456.425E-03    -226.304E-03     162.109E-03    -234.176E-03     460.382E-03    -225.944E-03     141.862E-03
             461     12.9228E-03     100.902E-03    -8.38891E+06     68.9603E+06     88.3928E+06    -184.893E+03    -230.045E-03     456.343E-03    -226.298E-03     156.919E-03    -233.941E-03     460.197E-03    -225.944E-03     136.868E-03
             462     13.6404E-03     101.115E-03    -3.59750E+06     66.5152E+06     87.1008E+06     607.087E+03    -228.979E-03     455.280E-03    -226.300E-03     129.294E-03    -231.816E-03     458.087E-03    -225.956E-03     112.691E-03
             463     717.915E-06     99.4846E-03    -138.963E+06    -252.778E+06    -136.094E+06     388.591E+03    -226.229E-03     452.431E-03    -226.203E-03     19.1866E-03    -226.414E-03     451.621E-03    -226.315E-03     17.0458E-03
             464     1.43540E-03     99.5209E-03    -135.178E+06    -240.039E+06    -124.295E+06     62.7494E+03    -226.491E-03     452.722E-03    -226.232E-03     35.5493E-03    -226.806E-03     452.066E-03    -226.309E-03     31.6079E-03
             465     2.15316E-03     99.5806E-03    -128.425E+06    -224.908E+06    -106.690E+06    -153.106E+03    -226.792E-03     453.103E-03    -226.312E-03     52.3551E-03    -227.308E-03     452.675E-03    -226.333E-03     46.5382E-03
             466     2.87081E-03     99.6628E-03    -120.522E+06    -201.668E+06    -86.9029E+06     33.2374E+03    -227.112E-03     453.485E-03    -226.374E-03     68.7827E-03    -227.908E-03     453.390E-03    -226.341E-03     61.0957E-03
             467     3.58839E-03     99.7672E-03    -112.130E+06    -174.505E+06    -66.6417E+06    -58.5609E+03    -227.470E-03     453.884E-03    -226.414E-03     84.8239E-03    -228.616E-03     454.206E-03    -226.331E-03     75.2947E-03
             468     4.30625E-03     99.8933E-03    -102.898E+06    -149.812E+06    -46.3458E+06    -130.784E+03    -227.927E-03     454.372E-03    -226.444E-03     100.323E-03    -229.472E-03     455.153E-03    -226.310E-03     88.9990E-03
             469     5.02419E-03     100.040E-03    -93.5800E+06    -123.785E+06    -27.4459E+06     156.074E+03    -228.420E-03     454.880E-03    -226.460E-03     114.945E-03    -230.407E-03     456.175E-03    -226.282E-03     101.905E-03
             470     5.74227E-03     100.206E-03    -84.6556E+06    -97.4524E+06    -10.1682E+06     331.145E+03    -228.969E-03     455.434E-03    -226.465E-03     128.525E-03    -231.425E-03     457.273E-03    -226.252E-03     113.881E-03
             471     6.46002E-03     100.389E-03    -75.7257E+06    -67.8768E+06     6.04118E+06     407.113E+03    -229.483E-03     455.942E-03    -226.459E-03     140.669E-03    -232.410E-03     458.341E-03    -226.220E-03     124.581E-03
             472     7.17818E-03     100.587E-03    -66.9974E+06    -35.1563E+06     21.6102E+06     301.040E+03    -229.965E-03     456.409E-03    -226.444E-03     151.164E-03    -233.339E-03     459.358E-03    -226.188E-03     133.820E-03
             473     7.89587E-03     100.800E-03    -58.8440E+06    -2.21991E+06     35.5783E+06     367.380E+03    -230.386E-03     456.808E-03    -226.421E-03     159.835E-03    -234.152E-03     460.254E-03    -226.155E-03     141.459E-03
             474     8.61435E-03     101.022E-03    -51.4063E+06     17.7647E+06     44.5702E+06    -6.93578E+03    -230.635E-03     457.025E-03    -226.390E-03     166.503E-03    -234.699E-03     460.840E-03    -226.118E-03     147.315E-03
             475     9.33215E-03     101.251E-03    -44.1983E+06     22.2985E+06     48.9715E+06    -1.78556E+06    -230.762E-03     457.114E-03    -226.352E-03     170.984E-03    -235.021E-03     461.153E-03    -226.075E-03     151.137E-03
             476     10.0514E-03     101.485E-03    -36.2258E+06     36.0580E+06     59.0351E+06    -1.31489E+06    -230.859E-03     457.187E-03    -226.328E-03     173.214E-03    -235.253E-03     461.409E-03    -226.033E-03     152.866E-03
             477     10.7695E-03     101.722E-03    -29.3222E+06     47.2567E+06     72.1259E+06     728.187E+03    -230.928E-03     457.265E-03    -226.337E-03     172.758E-03    -235.358E-03     461.550E-03    -226.003E-03     152.138E-03
             478     11.4869E-03     101.954E-03    -22.8739E+06     42.9270E+06     77.2955E+06    -277.721E+03    -230.831E-03     457.176E-03    -226.345E-03     170.224E-03    -235.189E-03     461.381E-03    -225.988E-03     149.455E-03
             479     12.2044E-03     102.182E-03    -15.4177E+06     54.4336E+06     82.1098E+06    -1.08832E+06    -230.415E-03     456.754E-03    -226.340E-03     162.418E-03    -234.499E-03     460.739E-03    -225.986E-03     142.020E-03
             480     12.9242E-03     102.393E-03    -9.51860E+06     67.4983E+06     86.9511E+06     892.126E+03    -230.084E-03     456.428E-03    -226.344E-03     156.905E-03    -233.998E-03     460.296E-03    -225.993E-03     136.791E-03
             481     13.6423E-03     102.606E-03    -4.75850E+06     66.0754E+06     87.1264E+06     1.39235E+06    -228.531E-03     454.872E-03    -226.340E-03     129.357E-03    -231.378E-03     457.683E-03    -225.994E-03     112.766E-03
             482     717.692E-06     100.974E-03    -138.111E+06    -253.308E+06    -135.872E+06     47.1602E+03    -226.310E-03     452.450E-03    -226.140E-03     19.3339E-03    -226.490E-03     451.635E-03    -226.252E-03     17.1979E-03
             483     1.43557E-03     101.011E-03    -134.327E+06    -239.463E+06    -124.265E+06     19.9273E+03    -226.521E-03     452.762E-03    -226.240E-03     35.4659E-03    -226.833E-03     452.107E-03    -226.319E-03     31.5313E-03
             484     2.15311E-03     101.070E-03    -128.733E+06    -225.309E+06    -107.191E+06     171.739E+03    -226.790E-03     453.113E-03    -226.323E-03     52.2730E-03    -227.305E-03     452.682E-03    -226.346E-03     46.4745E-03
             485     2.87074E-03     101.153E-03    -120.960E+06    -202.036E+06    -87.3262E+06     256.157E+03    -227.088E-03     453.468E-03    -226.379E-03     68.8322E-03    -227.885E-03     453.371E-03    -226.348E-03     61.1617E-03
             486     3.58857E-03     101.257E-03    -112.123E+06    -174.176E+06    -66.3410E+06     346.984E+03    -227.524E-03     453.945E-03    -226.421E-03     85.0607E-03    -228.672E-03     454.268E-03    -226.337E-03     75.5396E-03
             487     4.30624E-03     101.383E-03    -103.293E+06    -149.647E+06    -46.0822E+06     284.398E+03    -227.975E-03     454.433E-03    -226.458E-03     100.494E-03    -229.525E-03     455.218E-03    -226.321E-03     89.1678E-03
             488     5.02409E-03     101.530E-03    -94.1435E+06    -124.373E+06    -27.5486E+06     327.454E+03    -228.405E-03     454.879E-03    -226.473E-03     115.045E-03    -230.398E-03     456.175E-03    -226.294E-03     101.995E-03
             489     5.74192E-03     101.696E-03    -84.8647E+06    -98.2578E+06    -10.3044E+06     924.443E+03    -228.882E-03     455.352E-03    -226.470E-03     128.580E-03    -231.339E-03     457.189E-03    -226.256E-03     113.944E-03
             490     6.46019E-03     101.879E-03    -76.1332E+06    -68.0235E+06     6.01735E+06     1.31475E+06    -229.396E-03     455.849E-03    -226.453E-03     140.719E-03    -232.325E-03     458.249E-03    -226.214E-03     124.648E-03
             491     7.17810E-03     102.078E-03    -67.8495E+06    -34.5568E+06     21.5775E+06     1.16622E+06    -229.917E-03     456.347E-03    -226.430E-03     151.344E-03    -233.297E-03     459.301E-03    -226.174E-03     134.020E-03
             492     7.89650E-03     102.290E-03    -59.0746E+06    -1.53347E+06     35.7935E+06     527.792E+03    -230.282E-03     456.683E-03    -226.401E-03     159.985E-03    -234.053E-03     460.135E-03    -226.134E-03     141.615E-03
             493     8.61451E-03     102.512E-03    -49.7527E+06     19.1632E+06     45.6576E+06     1.19654E+03    -230.544E-03     456.908E-03    -226.363E-03     166.488E-03    -234.609E-03     460.731E-03    -226.091E-03     147.288E-03
             494     9.33333E-03     102.741E-03    -41.5143E+06     26.4706E+06     53.4581E+06    -581.624E+03    -230.952E-03     457.294E-03    -226.342E-03     171.035E-03    -235.218E-03     461.352E-03    -226.053E-03     151.162E-03
             495     10.0505E-03     102.975E-03    -35.6749E+06     34.0697E+06     62.3710E+06    -1.50151E+06    -231.306E-03     457.654E-03    -226.348E-03     173.381E-03    -235.705E-03     461.867E-03    -226.034E-03     152.995E-03
             496     10.7685E-03     103.211E-03    -27.6764E+06     43.6681E+06     72.9684E+06    -1.01738E+06    -231.230E-03     457.599E-03    -226.369E-03     173.006E-03    -235.657E-03     461.872E-03    -226.028E-03     152.330E-03
             497     11.4872E-03     103.445E-03    -19.2916E+06     44.9926E+06     78.7116E+06     116.625E+03    -230.947E-03     457.326E-03    -226.379E-03     170.505E-03    -235.309E-03     461.551E-03    -226.023E-03     149.670E-03
             498     12.2057E-03     103.673E-03    -15.6289E+06     53.5884E+06     81.3261E+06     1.03087E+06    -230.368E-03     456.737E-03    -226.369E-03     163.026E-03    -234.447E-03     460.715E-03    -226.018E-03     142.723E-03
             499     12.9212E-03     103.884E-03    -11.3700E+06     66.1753E+06     85.4313E+06     608.567E+03    -229.667E-03     456.019E-03    -226.352E-03     158.141E-03    -233.596E-03     459.895E-03    -226.005E-03     138.089E-03
             500     13.6389E-03     104.095E-03    -4.75549E+06     66.7544E+06     86.3887E+06    -234.992E+03    -228.077E-03     454.396E-03    -226.318E-03     130.622E-03    -230.944E-03     457.231E-03    -225.976E-03     114.021E-03
             501     717.707E-06     102.463E-03    -137.527E+06    -253.678E+06    -135.109E+06    -35.9245E+03    -226.562E-03     452.653E-03    -226.090E-03     19.2605E-03    -226.740E-03     451.834E-03    -226.199E-03     17.1199E-03
             502     1.43521E-03     102.500E-03    -134.080E+06    -240.106E+06    -124.233E+06     285.393E+03    -226.499E-03     452.813E-03    -226.314E-03     35.6186E-03    -226.808E-03     452.154E-03    -226.392E-03     31.6959E-03
             503     2.15291E-03     102.560E-03    -127.929E+06    -225.766E+06    -106.362E+06     538.558E+03    -226.727E-03     453.085E-03    -226.358E-03     52.3105E-03    -227.239E-03     452.649E-03    -226.377E-03     46.5229E-03
             504     2.87084E-03     102.642E-03    -120.163E+06    -202.254E+06    -86.0857E+06     701.063E+03    -227.055E-03     453.448E-03    -226.393E-03     68.8607E-03    -227.849E-03     453.347E-03    -226.356E-03     61.1964E-03
             505     3.58856E-03     102.747E-03    -111.462E+06    -174.685E+06    -65.4225E+06     780.707E+03    -227.484E-03     453.908E-03    -226.424E-03     85.0041E-03    -228.629E-03     454.227E-03    -226.336E-03     75.4853E-03
             506     4.30634E-03     102.873E-03    -101.992E+06    -149.231E+06    -44.9981E+06     692.643E+03    -227.914E-03     454.365E-03    -226.451E-03     100.468E-03    -229.460E-03     455.150E-03    -226.312E-03     89.1442E-03
             507     5.02413E-03     103.020E-03    -92.4297E+06    -125.771E+06     -26.339E+06     1.05243E+06    -228.380E-03     454.843E-03    -226.463E-03     115.207E-03    -230.366E-03     456.130E-03    -226.278E-03     102.164E-03
             508     5.74223E-03     103.185E-03    -83.4454E+06    -100.396E+06    -9.36704E+06     2.15192E+06    -228.882E-03     455.339E-03    -226.457E-03     128.801E-03    -231.334E-03     457.165E-03    -226.237E-03     114.176E-03
             509     6.46014E-03     103.369E-03    -74.4411E+06    -67.6084E+06     7.11326E+06     2.38757E+06    -229.391E-03     455.827E-03    -226.436E-03     140.916E-03    -232.317E-03     458.228E-03    -226.194E-03     124.856E-03
             510     7.17846E-03     103.567E-03    -65.1621E+06    -33.6637E+06     23.2765E+06     1.95912E+06    -229.866E-03     456.277E-03    -226.411E-03     151.383E-03    -233.237E-03     459.230E-03    -226.152E-03     134.070E-03
             511     7.89642E-03     103.779E-03    -56.2880E+06     405.202E+03     37.9201E+06     1.24516E+06    -230.245E-03     456.625E-03    -226.380E-03     159.829E-03    -234.009E-03     460.081E-03    -226.110E-03     141.464E-03
             512     8.61490E-03     104.001E-03    -48.6932E+06     21.0530E+06     47.4088E+06    -212.896E+03    -230.665E-03     457.015E-03    -226.351E-03     166.231E-03    -234.732E-03     460.847E-03    -226.074E-03     146.995E-03
             513     9.33265E-03     104.231E-03    -41.7548E+06     26.9572E+06     53.4843E+06    -407.921E+03    -231.097E-03     457.436E-03    -226.339E-03     170.790E-03    -235.361E-03     461.492E-03    -226.050E-03     150.913E-03
             514     10.0514E-03     104.466E-03    -34.3202E+06     35.4769E+06     62.0535E+06     307.761E+03    -231.325E-03     457.671E-03    -226.346E-03     173.370E-03    -235.713E-03     461.884E-03    -226.038E-03     153.034E-03
             515     10.7690E-03     104.702E-03    -28.8795E+06     44.3244E+06     72.3117E+06    -877.322E+03    -231.242E-03     457.611E-03    -226.369E-03     173.397E-03    -235.680E-03     461.895E-03    -226.030E-03     152.725E-03
             516     11.4862E-03     104.935E-03    -24.0032E+06     42.3492E+06     76.6755E+06    -2.28358E+06    -231.050E-03     457.432E-03    -226.382E-03     171.315E-03    -235.434E-03     461.659E-03    -226.025E-03     150.474E-03
             517     12.2036E-03     105.163E-03    -15.8042E+06     49.7430E+06     80.2953E+06    -527.160E+03    -230.261E-03     456.629E-03    -226.368E-03     163.303E-03    -234.324E-03     460.579E-03    -226.016E-03     143.052E-03
             518     12.9250E-03     105.374E-03    -8.13447E+06     67.1348E+06     86.3146E+06     1.64597E+06    -229.209E-03     455.543E-03    -226.333E-03     157.247E-03    -233.102E-03     459.394E-03    -225.987E-03     137.295E-03
             519     13.6449E-03     105.585E-03    -3.76140E+06     69.2417E+06     86.7781E+06     551.779E+03    -228.031E-03     454.321E-03    -226.289E-03     129.390E-03    -230.878E-03     457.148E-03    -225.950E-03     112.835E-03
             520     717.499E-06     103.953E-03    -137.601E+06    -254.435E+06    -134.931E+06     94.3760E+03    -226.621E-03     452.733E-03    -226.112E-03     19.3682E-03    -226.799E-03     451.912E-03    -226.219E-03     17.2191E-03
             521     1.43533E-03     103.990E-03    -133.820E+06    -241.015E+06    -123.250E+06      447.91E+03    -226.477E-03     452.822E-03    -226.345E-03     35.7301E-03    -226.786E-03     452.157E-03    -226.418E-03     31.8040E-03
             522     2.15313E-03     104.050E-03    -127.621E+06    -226.178E+06    -105.696E+06     493.753E+03    -226.702E-03     453.070E-03    -226.368E-03     52.4005E-03    -227.214E-03     452.632E-03    -226.384E-03     46.6060E-03
             523     2.87066E-03     104.133E-03    -119.309E+06    -203.054E+06    -85.5246E+06     609.521E+03    -227.074E-03     453.472E-03    -226.398E-03     69.0433E-03    -227.865E-03     453.367E-03    -226.358E-03     61.3728E-03
             524     3.58838E-03     104.237E-03    -110.128E+06    -175.262E+06    -64.6392E+06     807.654E+03    -227.413E-03     453.834E-03    -226.421E-03     85.1496E-03    -228.553E-03     454.149E-03    -226.331E-03     75.6326E-03
             525     4.30632E-03     104.363E-03    -100.898E+06    -149.237E+06    -44.1703E+06     944.009E+03    -227.795E-03     454.226E-03    -226.432E-03     100.582E-03    -229.338E-03     455.009E-03    -226.290E-03     89.2629E-03
             526     5.02450E-03     104.509E-03    -91.5438E+06    -127.882E+06    -25.5786E+06     1.43862E+06    -228.349E-03     454.786E-03    -226.437E-03     115.200E-03    -230.330E-03     456.061E-03    -226.246E-03     102.159E-03
             527     5.74240E-03     104.675E-03    -81.5017E+06    -102.147E+06    -8.26123E+06     1.74440E+06    -228.922E-03     455.356E-03    -226.435E-03     128.653E-03    -231.363E-03     457.170E-03    -226.210E-03     114.009E-03
             528     6.46058E-03     104.858E-03    -71.3248E+06    -67.8521E+06     8.37844E+06     1.89568E+06    -229.418E-03     455.836E-03    -226.418E-03     140.773E-03    -232.331E-03     458.230E-03    -226.174E-03     124.695E-03
             529     7.17843E-03     105.057E-03    -62.0701E+06    -34.4728E+06     24.4289E+06     2.40071E+06    -229.869E-03     456.267E-03    -226.398E-03     151.245E-03    -233.226E-03     459.210E-03    -226.135E-03     133.932E-03
             530     7.89681E-03     105.269E-03    -53.8805E+06     1.40775E+06     39.6378E+06     2.74722E+06    -230.307E-03     456.679E-03    -226.372E-03     159.739E-03    -234.061E-03     460.132E-03    -226.098E-03     141.392E-03
             531     8.61473E-03     105.491E-03    -46.3416E+06     23.6150E+06     49.7292E+06     2.80915E+06    -230.835E-03     457.188E-03    -226.353E-03     166.321E-03    -234.895E-03     461.023E-03    -226.071E-03     147.132E-03
             532     9.33279E-03     105.721E-03    -39.8657E+06     28.2126E+06     55.3413E+06     1.85394E+06    -231.198E-03     457.547E-03    -226.350E-03     170.958E-03    -235.458E-03     461.606E-03    -226.056E-03     151.116E-03
             533     10.0502E-03     105.955E-03    -33.6652E+06     35.6618E+06     62.9444E+06     566.663E+03    -231.127E-03     457.477E-03    -226.350E-03     173.537E-03    -235.514E-03     461.689E-03    -226.038E-03     153.224E-03
             534     10.7689E-03     106.192E-03    -25.5222E+06     47.3161E+06     74.7372E+06     180.471E+03    -230.965E-03     457.320E-03    -226.355E-03     173.657E-03    -235.392E-03     461.607E-03    -226.013E-03     153.039E-03
             535     11.4878E-03     106.425E-03    -17.9810E+06     44.7982E+06     80.2162E+06    -127.298E+03    -230.916E-03     457.269E-03    -226.354E-03     171.672E-03    -235.270E-03     461.486E-03    -225.991E-03     150.930E-03
             536     12.2063E-03     106.655E-03    -14.5976E+06     46.3570E+06     80.4990E+06    -574.955E+03    -230.339E-03     456.674E-03    -226.335E-03     163.624E-03    -234.409E-03     460.624E-03    -225.979E-03     143.313E-03
             537     12.9213E-03     106.862E-03    -11.5552E+06     64.0574E+06     83.9496E+06    -233.109E+03    -229.765E-03     456.079E-03    -226.314E-03     157.460E-03    -233.689E-03     459.946E-03    -225.970E-03     137.351E-03
             538     13.6383E-03     107.073E-03    -4.88619E+06     70.6825E+06     86.3742E+06     705.244E+03    -228.151E-03     454.439E-03    -226.288E-03     129.665E-03    -231.007E-03     457.278E-03    -225.952E-03     113.094E-03
             539     717.787E-06     105.443E-03    -138.096E+06    -254.742E+06    -135.414E+06     102.455E+03    -226.471E-03     452.697E-03    -226.226E-03     19.3307E-03    -226.650E-03     451.875E-03    -226.333E-03     17.1901E-03
             540     1.43524E-03     105.480E-03    -134.419E+06    -241.902E+06    -123.983E+06     123.418E+03    -226.480E-03     452.811E-03    -226.332E-03     35.6372E-03    -226.789E-03     452.144E-03    -226.406E-03     31.7067E-03
             541     2.15293E-03     105.540E-03    -127.909E+06    -226.465E+06    -106.392E+06     188.821E+03    -226.703E-03     453.062E-03    -226.359E-03     52.4806E-03    -227.215E-03     452.624E-03    -226.377E-03     46.6753E-03
             542     2.87087E-03     105.622E-03    -119.832E+06    -203.443E+06    -86.0561E+06     14.4056E+03    -226.986E-03     453.367E-03    -226.381E-03     69.0981E-03    -227.779E-03     453.262E-03    -226.343E-03     61.4165E-03
             543     3.58873E-03     105.727E-03    -111.080E+06    -175.986E+06    -65.5527E+06     308.579E+03    -227.311E-03     453.700E-03    -226.388E-03     85.1581E-03    -228.454E-03     454.014E-03    -226.300E-03     75.6341E-03
             544     4.30670E-03     105.853E-03    -101.453E+06    -150.072E+06    -44.7269E+06     649.177E+03    -227.828E-03     454.227E-03    -226.399E-03     100.601E-03    -229.372E-03     455.008E-03    -226.258E-03     89.2722E-03
             545     5.02447E-03     105.999E-03    -91.2073E+06    -128.433E+06    -25.8867E+06     334.517E+03    -228.437E-03     454.854E-03    -226.417E-03     115.136E-03    -230.416E-03     456.128E-03    -226.228E-03     102.066E-03
             546     5.74240E-03     106.165E-03    -81.2151E+06    -102.654E+06    -8.82805E+06    -73.7632E+03    -228.967E-03     455.392E-03    -226.426E-03     128.517E-03    -231.405E-03     457.204E-03    -226.203E-03     113.842E-03
             547     6.46023E-03     106.348E-03    -71.8824E+06    -69.4414E+06     7.52749E+06     210.467E+03    -229.418E-03     455.832E-03    -226.415E-03     140.626E-03    -232.327E-03     458.219E-03    -226.172E-03     124.528E-03
             548     7.17860E-03     106.547E-03    -62.4730E+06    -37.3289E+06     23.4876E+06     1.22671E+06    -229.872E-03     456.270E-03    -226.397E-03     151.096E-03    -233.222E-03     459.197E-03    -226.135E-03     133.775E-03
             549     7.89657E-03     106.759E-03    -53.1965E+06    -1.35609E+06     39.1011E+06     3.08607E+06    -230.333E-03     456.707E-03    -226.374E-03     159.715E-03    -234.077E-03     460.144E-03    -226.099E-03     141.384E-03
             550     8.61480E-03     106.981E-03    -45.0597E+06     23.4413E+06     49.4607E+06     4.16673E+06    -230.753E-03     457.100E-03    -226.347E-03     166.472E-03    -234.804E-03     460.931E-03    -226.068E-03     147.326E-03
             551     9.33282E-03     107.212E-03    -36.9713E+06     31.1303E+06     56.6575E+06     3.75252E+06    -231.014E-03     457.347E-03    -226.332E-03     171.208E-03    -235.269E-03     461.416E-03    -226.041E-03     151.410E-03
             552     10.0514E-03     107.446E-03    -29.2689E+06     38.9067E+06     67.0767E+06     2.15885E+06    -231.100E-03     457.435E-03    -226.335E-03     173.837E-03    -235.486E-03     461.660E-03    -226.014E-03     153.529E-03
             553     10.7695E-03     107.681E-03    -24.6116E+06     47.2384E+06     77.0919E+06     1.42935E+06    -230.986E-03     457.326E-03    -226.340E-03     173.782E-03    -235.414E-03     461.611E-03    -225.987E-03     153.179E-03
             554     11.4872E-03     107.916E-03    -21.9745E+06     44.3975E+06     79.0548E+06     2.52782E+06    -230.564E-03     456.885E-03    -226.321E-03     171.340E-03    -234.931E-03     461.103E-03    -225.959E-03     150.658E-03
             555     12.2052E-03     108.144E-03    -16.0346E+06     49.8166E+06     82.0794E+06     2.00094E+06    -229.871E-03     456.158E-03    -226.287E-03     163.768E-03    -233.952E-03     460.121E-03    -225.926E-03     143.551E-03
             556     12.9261E-03     108.355E-03    -9.39784E+06     65.5308E+06     88.2318E+06     80.3858E+03    -229.934E-03     456.200E-03    -226.266E-03     158.960E-03    -233.877E-03     460.086E-03    -225.906E-03     138.855E-03
             557     13.6444E-03     108.566E-03    -5.71468E+06     69.4688E+06     87.8626E+06    -570.968E+03    -229.361E-03     455.630E-03    -226.269E-03     129.960E-03    -232.239E-03     458.479E-03    -225.922E-03     113.283E-03
             558     717.477E-06     106.933E-03    -139.910E+06    -254.997E+06    -136.630E+06     222.210E+03    -226.275E-03     452.612E-03    -226.338E-03     19.4794E-03    -226.461E-03     451.793E-03    -226.448E-03     17.3291E-03
             559     1.43538E-03     106.970E-03    -135.317E+06    -241.195E+06    -124.335E+06    -328.186E+03    -226.483E-03     452.784E-03    -226.301E-03     35.7118E-03    -226.797E-03     452.123E-03    -226.377E-03     31.7784E-03
             560     2.15314E-03     107.029E-03    -128.756E+06    -226.591E+06    -107.500E+06    -622.477E+03    -226.705E-03     453.043E-03    -226.338E-03     52.5212E-03    -227.220E-03     452.608E-03    -226.360E-03     46.7057E-03
             561     2.87071E-03     107.112E-03    -120.965E+06    -203.589E+06    -87.6341E+06    -140.104E+03    -226.935E-03     453.294E-03    -226.359E-03     68.9989E-03    -227.731E-03     453.192E-03    -226.327E-03     61.3179E-03
             562     3.58874E-03     107.216E-03    -112.488E+06    -175.562E+06    -66.7624E+06    -159.558E+03    -227.345E-03     453.716E-03    -226.370E-03     84.9968E-03    -228.494E-03     454.035E-03    -226.287E-03     75.4593E-03
             563     4.30662E-03     107.343E-03    -103.126E+06    -150.750E+06    -46.7375E+06    -537.701E+03    -227.881E-03     454.272E-03    -226.391E-03     100.407E-03    -229.429E-03     455.054E-03    -226.257E-03     89.0612E-03
             564     5.02450E-03     107.489E-03    -93.5839E+06    -127.924E+06    -28.2351E+06    -766.186E+03    -228.398E-03     454.809E-03    -226.411E-03     115.049E-03    -230.382E-03     456.089E-03    -226.231E-03     101.981E-03
             565     5.74235E-03     107.655E-03    -84.7666E+06    -102.213E+06    -11.0753E+06    -1.03864E+06    -228.898E-03     455.314E-03    -226.416E-03     128.605E-03    -231.351E-03     457.135E-03    -226.200E-03     113.931E-03
             566     6.46049E-03     107.838E-03    -75.8452E+06    -70.7467E+06     5.39868E+06    -1.02771E+06    -229.410E-03     455.815E-03    -226.405E-03     140.829E-03    -232.336E-03     458.205E-03    -226.166E-03     124.719E-03
             567     7.17833E-03     108.037E-03    -67.2347E+06    -39.6695E+06     20.3083E+06    -718.019E+03    -229.934E-03     456.321E-03    -226.388E-03     151.379E-03    -233.303E-03     459.252E-03    -226.131E-03     134.027E-03
             568     7.89659E-03     108.249E-03    -58.3027E+06    -5.69914E+06     34.5315E+06    -252.905E+03    -230.354E-03     456.718E-03    -226.364E-03     159.981E-03    -234.114E-03     460.150E-03    -226.098E-03     141.600E-03
             569     8.61477E-03     108.471E-03    -48.6029E+06     19.4547E+06     45.8106E+06     1.58742E+06    -230.637E-03     456.972E-03    -226.335E-03     166.528E-03    -234.695E-03     460.794E-03    -226.064E-03     147.352E-03
             570     9.33321E-03     108.701E-03    -41.0299E+06     31.7014E+06     53.5793E+06     2.73294E+06    -230.822E-03     457.131E-03    -226.308E-03     170.919E-03    -235.092E-03     461.212E-03    -226.027E-03     151.102E-03
             571     10.0514E-03     108.935E-03    -36.1620E+06     41.0812E+06     61.5403E+06     2.62870E+06    -230.987E-03     457.282E-03    -226.295E-03     173.376E-03    -235.396E-03     461.530E-03    -225.995E-03     153.067E-03
             572     10.7694E-03     109.173E-03    -30.0160E+06     45.0944E+06     71.8114E+06     2.99972E+06    -230.891E-03     457.195E-03    -226.305E-03     173.486E-03    -235.334E-03     461.484E-03    -225.967E-03     152.894E-03
             573     11.4880E-03     109.405E-03    -21.3284E+06     44.7600E+06     79.9389E+06     2.64216E+06    -230.633E-03     456.940E-03    -226.308E-03     171.097E-03    -235.003E-03     461.162E-03    -225.942E-03     150.380E-03
             574     12.2074E-03     109.633E-03    -14.5728E+06     54.1391E+06     84.5698E+06     873.068E+03    -230.206E-03     456.499E-03    -226.293E-03     162.304E-03    -234.285E-03     460.473E-03    -225.927E-03     141.973E-03
             575     12.9241E-03     109.843E-03    -9.55817E+06     66.6308E+06      88.648E+06    -89.2145E+03    -229.748E-03     456.035E-03    -226.287E-03     155.685E-03    -233.646E-03     459.879E-03    -225.927E-03     135.578E-03
             576     13.6415E-03     110.058E-03    -5.02616E+06     69.0435E+06     88.7211E+06     614.943E+03    -229.077E-03     455.369E-03    -226.292E-03     128.543E-03    -231.905E-03     458.166E-03    -225.941E-03     112.025E-03
             577     717.895E-06     108.422E-03    -139.606E+06    -254.612E+06    -137.396E+06    -479.511E+03    -226.403E-03     452.605E-03    -226.202E-03     19.3712E-03    -226.587E-03     451.789E-03    -226.317E-03     17.2073E-03
             578     1.43543E-03     108.459E-03    -135.452E+06    -240.216E+06    -125.169E+06    -284.054E+03    -226.465E-03     452.756E-03    -226.291E-03     35.6508E-03    -226.780E-03     452.100E-03    -226.372E-03     31.7179E-03
             579     2.15296E-03     108.519E-03    -129.661E+06    -226.151E+06    -107.770E+06    -180.271E+03    -226.675E-03     453.003E-03    -226.328E-03     52.3678E-03    -227.194E-03     452.571E-03    -226.351E-03     46.5589E-03
             580     2.87102E-03     108.601E-03    -122.212E+06    -203.679E+06    -88.7475E+06    -397.867E+03    -226.986E-03     453.338E-03    -226.352E-03     68.9260E-03    -227.785E-03     453.237E-03    -226.323E-03     61.2507E-03
             581     3.58867E-03     108.706E-03    -112.836E+06    -175.369E+06    -67.9275E+06    -510.490E+03    -227.436E-03     453.812E-03    -226.376E-03     85.0892E-03    -228.585E-03     454.135E-03    -226.298E-03     75.5503E-03
             582     4.30633E-03     108.832E-03    -104.057E+06    -150.232E+06    -47.6336E+06    -341.845E+03    -227.857E-03     454.259E-03    -226.402E-03     100.501E-03    -229.409E-03     455.047E-03    -226.272E-03     89.1579E-03
             583     5.02434E-03     108.979E-03    -95.5727E+06    -127.264E+06    -29.2649E+06    -362.359E+03    -228.263E-03     454.673E-03    -226.410E-03     115.118E-03    -230.256E-03     455.959E-03    -226.233E-03     102.075E-03
             584     5.74253E-03     109.145E-03    -86.6338E+06    -101.478E+06    -12.1480E+06    -533.595E+03    -228.766E-03     455.163E-03    -226.397E-03     128.693E-03    -231.226E-03     456.991E-03    -226.185E-03     114.043E-03
             585     6.46056E-03     109.328E-03    -78.2114E+06    -70.7395E+06     3.55489E+06    -573.652E+03    -229.402E-03     455.779E-03    -226.377E-03     140.955E-03    -232.337E-03     458.175E-03    -226.144E-03     124.857E-03
             586     7.17885E-03     109.527E-03    -69.8119E+06    -39.4894E+06     18.5499E+06    -744.930E+03    -230.014E-03     456.380E-03    -226.366E-03     151.430E-03    -233.395E-03     459.319E-03    -226.115E-03     134.069E-03
             587     7.89673E-03     109.739E-03    -61.8402E+06    -6.04039E+06     32.4688E+06    -1.11610E+06    -230.405E-03     456.757E-03    -226.352E-03     159.903E-03    -234.181E-03     460.198E-03    -226.091E-03     141.493E-03
             588     8.61484E-03     109.961E-03    -54.6610E+06     15.0659E+06     41.2270E+06    -1.18436E+06    -230.648E-03     456.974E-03    -226.326E-03     166.375E-03    -234.726E-03     460.792E-03    -226.063E-03     147.142E-03
             589     9.33297E-03     110.191E-03    -46.2277E+06     27.5210E+06     49.0945E+06     516.094E+03    -230.892E-03     457.196E-03    -226.305E-03     170.883E-03    -235.178E-03     461.274E-03    -226.032E-03     151.012E-03
             590     10.0510E-03     110.426E-03    -36.5916E+06     40.2802E+06     61.2295E+06     2.33545E+06    -231.036E-03     457.342E-03    -226.306E-03     173.308E-03    -235.449E-03     461.590E-03    -226.005E-03     152.976E-03
             591     10.7697E-03     110.661E-03    -28.3722E+06     45.6375E+06     73.2315E+06     1.87135E+06    -231.019E-03     457.347E-03    -226.328E-03     172.697E-03    -235.454E-03     461.630E-03    -225.987E-03     152.048E-03
             592     11.4881E-03     110.895E-03    -22.1566E+06     46.3059E+06     79.5932E+06     1.21199E+06    -231.086E-03     457.434E-03    -226.349E-03     169.787E-03    -235.453E-03     461.656E-03    -225.986E-03     148.969E-03
             593     12.2041E-03     111.124E-03    -16.3900E+06     55.1536E+06     83.5832E+06     1.09373E+06    -230.693E-03     457.057E-03    -226.364E-03     161.874E-03    -234.766E-03     461.025E-03    -226.003E-03     141.540E-03
             594     12.9215E-03     111.335E-03    -10.2688E+06     66.6647E+06     87.4225E+06     592.083E+03    -230.090E-03     456.463E-03    -226.373E-03     156.697E-03    -233.974E-03     460.294E-03    -226.018E-03     136.708E-03
             595     13.6405E-03     111.545E-03    -3.88603E+06     69.5009E+06     88.5476E+06     180.030E+03    -228.015E-03     454.366E-03    -226.351E-03     129.487E-03    -230.853E-03     457.180E-03    -226.003E-03     112.938E-03
             596     717.367E-06     109.912E-03    -139.950E+06    -253.577E+06    -137.457E+06    -127.187E+03    -226.546E-03     452.671E-03    -226.125E-03     19.3176E-03    -226.733E-03     451.861E-03    -226.242E-03     17.1724E-03
             597     1.43521E-03     109.949E-03    -136.312E+06    -240.761E+06    -126.455E+06    -155.202E+03    -226.467E-03     452.783E-03    -226.316E-03     35.6400E-03    -226.784E-03     452.128E-03    -226.401E-03     31.7131E-03
             598     2.15319E-03     110.009E-03    -129.736E+06    -225.595E+06    -108.266E+06     29.1942E+03    -226.658E-03     453.001E-03    -226.342E-03     52.2703E-03    -227.176E-03     452.571E-03    -226.368E-03     46.4762E-03
             599     2.87069E-03     110.091E-03    -122.304E+06    -202.907E+06    -88.6935E+06    -172.739E+03    -227.009E-03     453.373E-03    -226.365E-03     68.9417E-03    -227.810E-03     453.277E-03    -226.336E-03     61.2678E-03
             600     3.58857E-03     110.196E-03    -114.215E+06    -175.763E+06    -68.6604E+06    -251.490E+03    -227.351E-03     453.732E-03    -226.381E-03     85.1498E-03    -228.505E-03     454.056E-03    -226.304E-03     75.6195E-03
             601     4.30663E-03     110.322E-03    -104.915E+06    -150.711E+06    -48.2271E+06     79.7183E+03    -227.737E-03     454.126E-03    -226.389E-03     100.609E-03    -229.293E-03     454.914E-03    -226.259E-03     89.2794E-03
             602     5.02454E-03     110.468E-03    -95.5752E+06    -127.041E+06    -29.4190E+06     483.261E+03    -228.223E-03     454.608E-03    -226.385E-03     115.228E-03    -230.218E-03     455.898E-03    -226.209E-03     102.190E-03
             603     5.74262E-03     110.634E-03    -86.7478E+06    -101.075E+06    -12.3817E+06     626.761E+03    -228.843E-03     455.220E-03    -226.376E-03     128.736E-03    -231.305E-03     457.050E-03    -226.166E-03     114.100E-03
             604     6.46085E-03     110.817E-03    -77.9414E+06    -70.4400E+06     3.67487E+06     629.781E+03    -229.525E-03     455.896E-03    -226.371E-03     140.794E-03    -232.459E-03     458.293E-03    -226.138E-03     124.699E-03
             605     7.17856E-03     111.017E-03    -69.4960E+06    -38.1793E+06     19.0665E+06     389.412E+03    -230.034E-03     456.405E-03    -226.371E-03     151.109E-03    -233.416E-03     459.349E-03    -226.120E-03     133.747E-03
             606     7.89662E-03     111.229E-03    -61.0477E+06    -5.36852E+06     33.1499E+06     239.029E+03    -230.352E-03     456.711E-03    -226.359E-03     159.627E-03    -234.125E-03     460.153E-03    -226.097E-03     141.226E-03
             607     8.61476E-03     111.451E-03    -52.3427E+06     16.5161E+06     42.8746E+06    -305.670E+03    -230.678E-03     457.013E-03    -226.335E-03     166.295E-03    -234.752E-03     460.835E-03    -226.069E-03     147.054E-03
             608     9.33292E-03     111.681E-03    -44.3243E+06     25.2925E+06     50.0043E+06    -1.75702E+06    -231.078E-03     457.401E-03    -226.323E-03     170.933E-03    -235.356E-03     461.467E-03    -226.045E-03     151.010E-03
             609     10.0513E-03     111.915E-03    -36.3043E+06     35.8684E+06     60.8004E+06    -1.14380E+06    -231.333E-03     457.673E-03    -226.340E-03     173.054E-03    -235.741E-03     461.903E-03    -226.036E-03     152.629E-03
             610     10.7687E-03     112.152E-03    -28.5681E+06     44.9265E+06     72.8840E+06     909.941E+03    -231.435E-03     457.816E-03    -226.380E-03     172.804E-03    -235.877E-03     462.104E-03    -226.040E-03     152.091E-03
             611     11.4853E-03     112.386E-03    -21.5653E+06     46.0303E+06      79.242E+06     1.37053E+06    -231.291E-03     457.703E-03    -226.412E-03     170.896E-03    -235.666E-03     461.934E-03    -226.051E-03     150.090E-03
             612     12.2044E-03     112.615E-03    -14.8575E+06     55.7437E+06     83.2314E+06     800.254E+03    -230.499E-03     456.913E-03    -226.413E-03     162.977E-03    -234.569E-03     460.887E-03    -226.057E-03     142.700E-03
             613     12.9238E-03     112.824E-03    -9.59314E+06     67.8838E+06     87.0265E+06     902.566E+03    -229.732E-03     456.132E-03    -226.400E-03     157.080E-03    -233.638E-03     459.993E-03    -226.049E-03     137.045E-03
             614     13.6402E-03     113.039E-03    -4.75764E+06     70.3018E+06     87.8264E+06     386.155E+03    -227.692E-03     454.053E-03    -226.360E-03     129.124E-03    -230.557E-03     456.895E-03    -226.016E-03     112.504E-03
             615     717.981E-06     111.402E-03    -140.139E+06    -253.624E+06    -137.386E+06     517.330E+03    -226.433E-03     452.693E-03    -226.260E-03     19.4005E-03    -226.622E-03     451.882E-03    -226.376E-03     17.2622E-03
             616     1.43532E-03     111.439E-03    -136.560E+06    -240.612E+06    -125.907E+06     214.904E+03    -226.485E-03     452.817E-03    -226.332E-03     35.5290E-03    -226.803E-03     452.161E-03    -226.415E-03     31.6172E-03
             617     2.15286E-03     111.498E-03      -130.4E+06    -226.380E+06    -108.933E+06     115.657E+03    -226.656E-03     453.009E-03    -226.353E-03     52.3683E-03    -227.176E-03     452.579E-03    -226.381E-03     46.5737E-03
             618     2.87086E-03     111.581E-03    -122.400E+06    -202.791E+06    -88.6494E+06     267.561E+03    -226.949E-03     453.315E-03    -226.366E-03     69.1058E-03    -227.753E-03     453.221E-03    -226.338E-03     61.4252E-03
             619     3.58865E-03     111.686E-03    -114.076E+06    -175.562E+06    -68.1971E+06     372.277E+03    -227.256E-03     453.624E-03    -226.368E-03     85.1581E-03    -228.410E-03     453.948E-03    -226.289E-03     75.6378E-03
             620     4.30660E-03     111.811E-03    -105.337E+06    -151.584E+06    -48.2119E+06     539.768E+03    -227.675E-03     454.040E-03    -226.365E-03     100.557E-03    -229.231E-03     454.824E-03    -226.234E-03     89.2395E-03
             621     5.02483E-03     111.958E-03    -96.0233E+06    -127.324E+06    -29.6923E+06     669.100E+03    -228.340E-03     454.707E-03    -226.367E-03     115.069E-03    -230.336E-03     455.996E-03    -226.192E-03     102.021E-03
             622     5.74280E-03     112.124E-03    -86.3013E+06    -101.216E+06    -12.1285E+06     773.907E+03    -229.070E-03     455.455E-03    -226.385E-03     128.499E-03    -231.530E-03     457.285E-03    -226.174E-03     113.834E-03
             623     6.46031E-03     112.308E-03    -76.6950E+06    -70.8105E+06     4.60345E+06     914.516E+03    -229.571E-03     455.971E-03    -226.400E-03     140.637E-03    -232.502E-03     458.365E-03    -226.163E-03     124.524E-03
             624     7.17837E-03     112.507E-03    -67.2184E+06    -38.1640E+06     20.4574E+06     1.14633E+06    -229.926E-03     456.320E-03    -226.394E-03     151.174E-03    -233.300E-03     459.261E-03    -226.139E-03     133.823E-03
             625     7.89650E-03     112.719E-03    -58.0705E+06    -4.03757E+06     35.4040E+06     618.480E+03    -230.339E-03     456.713E-03    -226.375E-03     159.769E-03    -234.105E-03     460.156E-03    -226.107E-03     141.372E-03
             626     8.61474E-03     112.941E-03    -49.2777E+06     19.5476E+06     46.3016E+06    -946.656E+03    -230.848E-03     457.206E-03    -226.358E-03     166.255E-03    -234.918E-03     461.036E-03    -226.083E-03     146.979E-03
             627     9.33285E-03     113.171E-03    -41.1581E+06     26.9075E+06     53.9787E+06    -1.04198E+06    -231.261E-03     457.625E-03    -226.364E-03     170.764E-03    -235.530E-03     461.687E-03    -226.073E-03     150.839E-03
             628     10.0501E-03     113.406E-03    -34.3727E+06     33.4427E+06     62.8768E+06    -1.04754E+06    -231.450E-03     457.836E-03    -226.386E-03     173.403E-03    -235.846E-03     462.047E-03    -226.070E-03     153.003E-03
             629     10.7682E-03     113.642E-03    -27.3117E+06     40.9568E+06     72.8453E+06    -1.13088E+06    -231.399E-03     457.813E-03    -226.413E-03     173.696E-03    -235.835E-03     462.086E-03    -226.069E-03     152.987E-03
             630     11.4873E-03     113.877E-03    -19.9419E+06     44.3240E+06     79.2663E+06     753.995E+03    -230.991E-03     457.415E-03    -226.424E-03     171.379E-03    -235.367E-03     461.648E-03    -226.063E-03     150.559E-03
             631     12.2045E-03     114.105E-03    -14.7940E+06     56.5808E+06     83.4667E+06     2.52880E+06    -230.125E-03     456.526E-03    -226.401E-03     163.703E-03    -234.217E-03     460.524E-03    -226.045E-03     143.445E-03
             632     12.9202E-03     114.316E-03    -9.87072E+06     69.8599E+06     87.3276E+06     1.43296E+06    -229.082E-03     455.436E-03    -226.354E-03     158.663E-03    -233.028E-03     459.341E-03    -226.005E-03     138.642E-03
             633     13.6412E-03     114.524E-03    -4.43109E+06     71.1924E+06     87.5992E+06     43.1001E+03    -227.871E-03     454.167E-03    -226.295E-03     130.518E-03    -230.748E-03     457.026E-03    -225.954E-03     113.941E-03
             634     717.266E-06     112.891E-03    -139.269E+06    -254.009E+06    -136.933E+06    -290.534E+03    -226.357E-03     452.728E-03    -226.371E-03     19.4428E-03    -226.541E-03     451.913E-03    -226.485E-03     17.2891E-03
             635     1.43523E-03     112.929E-03    -135.511E+06    -241.314E+06    -125.262E+06     549.204E+03    -226.408E-03     452.738E-03    -226.330E-03     35.5114E-03    -226.721E-03     452.077E-03    -226.410E-03     31.5877E-03
             636     2.15316E-03     112.988E-03    -129.912E+06    -226.631E+06    -107.837E+06     625.919E+03    -226.637E-03     452.973E-03    -226.335E-03     52.4763E-03    -227.158E-03     452.541E-03    -226.358E-03     46.6706E-03
             637     2.87081E-03     113.071E-03    -121.948E+06    -203.572E+06    -88.0191E+06     524.759E+03    -226.917E-03     453.262E-03    -226.345E-03     69.0984E-03    -227.718E-03     453.164E-03    -226.314E-03     61.4167E-03
             638     3.58881E-03     113.175E-03    -112.939E+06    -176.286E+06    -67.1513E+06     865.418E+03    -227.288E-03     453.640E-03    -226.352E-03     85.0233E-03    -228.437E-03     453.957E-03    -226.269E-03     75.5055E-03
             639     4.30686E-03     113.301E-03    -103.051E+06    -150.906E+06    -46.1848E+06     636.774E+03    -227.863E-03     454.235E-03    -226.373E-03     100.370E-03    -229.411E-03     455.016E-03    -226.235E-03     89.0350E-03
             640     5.02461E-03     113.447E-03    -92.8915E+06    -127.613E+06    -27.3220E+06     512.575E+03    -228.536E-03     454.940E-03    -226.404E-03     114.930E-03    -230.519E-03     456.220E-03    -226.221E-03     101.860E-03
             641     5.74210E-03     113.614E-03    -83.3936E+06    -102.407E+06    -10.3731E+06     1.04368E+06    -229.059E-03     455.488E-03    -226.429E-03     128.492E-03    -231.508E-03     457.307E-03    -226.211E-03     113.822E-03
             642     6.46023E-03     113.797E-03    -74.3715E+06    -70.4074E+06     6.00567E+06     1.04897E+06    -229.428E-03     455.855E-03    -226.426E-03     140.751E-03    -232.351E-03     458.246E-03    -226.186E-03     124.648E-03
             643     7.17844E-03     113.996E-03    -65.0828E+06    -38.0845E+06     22.1506E+06     233.314E+03    -229.902E-03     456.312E-03    -226.410E-03     151.268E-03    -233.268E-03     459.247E-03    -226.150E-03     133.914E-03
             644     7.89669E-03     114.208E-03    -55.4533E+06    -3.20924E+06     37.6644E+06    -66.1337E+03    -230.494E-03     456.889E-03    -226.395E-03     159.743E-03    -234.251E-03     460.328E-03    -226.122E-03     141.330E-03
             645     8.61447E-03     114.431E-03    -47.4212E+06     21.1667E+06     48.4869E+06     445.833E+03    -231.002E-03     457.390E-03    -226.389E-03     166.286E-03    -235.065E-03     461.220E-03    -226.108E-03     147.039E-03
             646     9.33188E-03     114.661E-03    -41.0965E+06     27.4778E+06     54.4316E+06    -273.311E+03    -231.256E-03     457.648E-03    -226.392E-03     170.982E-03    -235.527E-03     461.713E-03    -226.100E-03     151.077E-03
             647     10.0508E-03     114.896E-03    -34.5645E+06     33.6425E+06     61.8262E+06    -200.708E+03    -231.252E-03     457.649E-03    -226.397E-03     173.655E-03    -235.650E-03     461.865E-03    -226.086E-03     153.277E-03
             648     10.7687E-03     115.133E-03    -29.1334E+06     41.0301E+06     71.5521E+06     384.070E+03    -231.053E-03     457.458E-03    -226.405E-03     173.880E-03    -235.491E-03     461.730E-03    -226.064E-03     153.248E-03
             649     11.4855E-03     115.367E-03    -24.5238E+06     41.5075E+06     76.9337E+06    -471.080E+03    -230.604E-03     456.998E-03    -226.393E-03     171.847E-03    -234.995E-03     461.225E-03    -226.033E-03     151.077E-03
             650     12.2047E-03     115.595E-03    -16.6567E+06     54.2141E+06     82.3311E+06    -67.1569E+03    -229.523E-03     455.866E-03    -226.343E-03     164.053E-03    -233.620E-03     459.857E-03    -225.986E-03     143.828E-03
             651     12.9270E-03     115.805E-03    -8.84379E+06     71.7032E+06     88.6150E+06     927.617E+03    -229.052E-03     455.336E-03    -226.284E-03     157.477E-03    -232.961E-03     459.211E-03    -225.932E-03     137.524E-03
             652     13.6446E-03     116.014E-03    -5.11740E+06     72.5806E+06     88.5172E+06     569.200E+03    -228.768E-03     455.026E-03    -226.259E-03     128.844E-03    -231.612E-03     457.854E-03    -225.914E-03     112.291E-03
             653     717.818E-06     114.382E-03    -138.799E+06    -254.535E+06    -135.106E+06     272.392E+03    -226.323E-03     452.597E-03    -226.274E-03     19.4451E-03    -226.507E-03     451.777E-03    -226.379E-03     17.2917E-03
             654     1.43543E-03     114.418E-03    -134.626E+06    -242.305E+06    -124.092E+06     107.091E+03    -226.405E-03     452.684E-03    -226.278E-03     35.6211E-03    -226.716E-03     452.016E-03    -226.352E-03     31.6754E-03
             655     2.15309E-03     114.478E-03    -128.382E+06    -226.927E+06    -107.143E+06     622.216E+03    -226.680E-03     452.983E-03    -226.303E-03     52.4325E-03    -227.193E-03     452.545E-03    -226.324E-03     46.6286E-03
             656     2.87099E-03     114.560E-03    -120.853E+06    -203.872E+06    -86.8418E+06     876.837E+03    -226.977E-03     453.315E-03    -226.338E-03     68.9152E-03    -227.773E-03     453.210E-03    -226.301E-03     61.2463E-03
             657     3.58880E-03     114.665E-03    -111.293E+06    -176.285E+06    -65.4386E+06     275.096E+03    -227.444E-03     453.814E-03    -226.370E-03     84.9444E-03    -228.587E-03     454.126E-03    -226.280E-03     75.4100E-03
             658     4.30643E-03     114.791E-03    -101.277E+06    -150.544E+06    -44.9253E+06    -14.7122E+03    -228.049E-03     454.462E-03    -226.413E-03     100.412E-03    -229.591E-03     455.241E-03    -226.273E-03     89.0596E-03
             659     5.02404E-03     114.938E-03    -92.1749E+06    -129.372E+06    -26.7140E+06     521.096E+03    -228.510E-03     454.961E-03    -226.452E-03     115.085E-03    -230.490E-03     456.232E-03    -226.264E-03     102.017E-03
             660     5.74227E-03     115.104E-03    -82.8659E+06    -103.394E+06    -9.42658E+06     956.373E+03    -228.887E-03     455.345E-03    -226.458E-03     128.650E-03    -231.333E-03     457.157E-03    -226.235E-03     113.996E-03
             661     6.46034E-03     115.287E-03    -73.4454E+06    -69.9029E+06     7.27720E+06     833.742E+03    -229.433E-03     455.873E-03    -226.440E-03     140.751E-03    -232.352E-03     458.262E-03    -226.196E-03     124.654E-03
             662     7.17837E-03     115.486E-03    -64.9678E+06    -36.2359E+06     23.2595E+06     472.069E+03    -230.084E-03     456.515E-03    -226.431E-03     151.185E-03    -233.452E-03     459.456E-03    -226.168E-03     133.827E-03
             663     7.89607E-03     115.699E-03    -57.6262E+06    -2.71516E+06     37.3848E+06    -252.975E+03    -230.565E-03     456.990E-03    -226.425E-03     159.778E-03    -234.331E-03     460.433E-03    -226.150E-03     141.367E-03
             664     8.61405E-03     115.921E-03    -49.4975E+06     19.0527E+06     46.5762E+06    -78.7211E+03    -230.845E-03     457.253E-03    -226.408E-03     166.433E-03    -234.911E-03     461.075E-03    -226.131E-03     147.203E-03
             665     9.33274E-03     116.152E-03    -41.3470E+06     27.6038E+06     53.7162E+06     1.41416E+06    -231.085E-03     457.480E-03    -226.395E-03     171.179E-03    -235.355E-03     461.546E-03    -226.107E-03     151.321E-03
             666     10.0498E-03     116.386E-03    -35.4550E+06     34.3227E+06     62.0434E+06     1.20220E+06    -231.118E-03     457.509E-03    -226.392E-03     173.854E-03    -235.526E-03     461.734E-03    -226.080E-03     153.500E-03
             667     10.7683E-03     116.623E-03    -28.2899E+06     41.2313E+06     72.1571E+06     735.446E+03    -230.773E-03     457.158E-03    -226.385E-03     173.946E-03    -235.204E-03     461.426E-03    -226.043E-03     153.355E-03
             668     11.4885E-03     116.857E-03    -19.6899E+06     43.4532E+06     79.4522E+06     1.35614E+06    -230.312E-03     456.671E-03    -226.359E-03     171.254E-03    -234.664E-03     460.877E-03    -225.996E-03     150.588E-03
             669     12.2069E-03     117.084E-03    -15.3893E+06     54.3001E+06     82.9715E+06     432.252E+03    -229.768E-03     456.081E-03    -226.313E-03     162.417E-03    -233.843E-03     460.054E-03    -225.955E-03     142.153E-03
             670     12.9220E-03     117.293E-03    -12.0391E+06     69.9582E+06     86.5395E+06    -812.522E+03    -229.765E-03     456.051E-03    -226.285E-03     156.697E-03    -233.681E-03     459.921E-03    -225.937E-03     136.630E-03
             671     13.6391E-03     117.507E-03    -4.79315E+06     73.0053E+06       88.11E+06    -176.171E+03    -228.561E-03     454.836E-03    -226.274E-03     129.634E-03    -231.413E-03     457.675E-03    -225.933E-03     113.055E-03
             672     717.653E-06     115.871E-03    -137.803E+06    -256.253E+06    -135.534E+06     752.023E+03    -226.250E-03     452.485E-03    -226.235E-03     19.0267E-03    -226.425E-03     451.655E-03    -226.341E-03     16.8859E-03
             673     1.43551E-03     115.907E-03    -134.338E+06    -242.478E+06    -123.240E+06     915.304E+03    -226.444E-03     452.689E-03    -226.244E-03     35.5214E-03    -226.754E-03     452.018E-03    -226.314E-03     31.5949E-03
             674     2.15319E-03     115.967E-03    -128.279E+06    -227.280E+06    -106.257E+06     359.206E+03    -226.747E-03     453.049E-03    -226.302E-03     52.3971E-03    -227.260E-03     452.607E-03    -226.318E-03     46.5893E-03
             675     2.87083E-03     116.050E-03    -119.698E+06    -203.576E+06    -86.0751E+06    -29.6894E+03    -227.099E-03     453.457E-03    -226.358E-03     68.8440E-03    -227.889E-03     453.350E-03    -226.320E-03     61.1681E-03
             676     3.58858E-03     116.154E-03    -110.980E+06    -176.286E+06    -65.3746E+06     125.038E+03    -227.550E-03     453.957E-03    -226.407E-03     85.0551E-03    -228.691E-03     454.267E-03    -226.317E-03     75.5275E-03
             677     4.30630E-03     116.281E-03    -102.482E+06    -151.311E+06    -45.2075E+06     574.173E+03    -227.992E-03     454.441E-03    -226.449E-03     100.584E-03    -229.539E-03     455.218E-03    -226.307E-03     89.2482E-03
             678     5.02430E-03     116.428E-03    -93.0709E+06    -129.848E+06    -26.4998E+06     460.610E+03    -228.394E-03     454.866E-03    -226.472E-03     115.091E-03    -230.379E-03     456.137E-03    -226.281E-03     102.025E-03
             679     5.74214E-03     116.593E-03    -83.4382E+06    -103.821E+06    -9.32056E+06     245.854E+03    -228.929E-03     455.400E-03    -226.470E-03     128.574E-03    -231.377E-03     457.209E-03    -226.246E-03     113.906E-03
             680     6.46020E-03     116.777E-03    -74.2688E+06    -69.9199E+06     7.17600E+06     312.099E+03    -229.570E-03     456.031E-03    -226.461E-03     140.719E-03    -232.492E-03     458.420E-03    -226.216E-03     124.614E-03
             681     7.17795E-03     116.976E-03    -65.2751E+06    -37.2030E+06     22.8521E+06     1.22247E+06    -230.107E-03     456.564E-03    -226.456E-03     151.309E-03    -233.474E-03     459.500E-03    -226.194E-03     133.970E-03
             682     7.89601E-03     117.189E-03    -56.8488E+06    -1.60992E+06     37.7699E+06     2.34667E+06    -230.438E-03     456.878E-03    -226.440E-03     160.052E-03    -234.203E-03     460.326E-03    -226.167E-03     141.695E-03
             683     8.61424E-03     117.411E-03    -50.1986E+06     20.4523E+06     46.8782E+06     1.34733E+06    -230.722E-03     457.132E-03    -226.411E-03     166.689E-03    -234.798E-03     460.967E-03    -226.133E-03     147.480E-03
             684     9.33188E-03     117.642E-03    -43.7190E+06     25.1713E+06     51.7170E+06     566.851E+03    -230.913E-03     457.295E-03    -226.382E-03     171.353E-03    -235.193E-03     461.359E-03    -226.096E-03     151.487E-03
             685     10.0512E-03     117.877E-03    -35.2697E+06     35.5611E+06     61.7705E+06     1.03636E+06    -230.955E-03     457.322E-03    -226.366E-03     173.869E-03    -235.363E-03     461.551E-03    -226.058E-03     153.532E-03
             686     10.7694E-03     118.113E-03    -28.1488E+06     43.1851E+06     72.8470E+06     268.954E+03    -230.822E-03     457.185E-03    -226.363E-03     173.551E-03    -235.257E-03     461.462E-03    -226.020E-03     152.931E-03
             687     11.4863E-03     118.345E-03    -23.4741E+06     40.7445E+06     77.0220E+06     210.891E+03    -230.540E-03     456.887E-03    -226.347E-03     170.852E-03    -234.907E-03     461.092E-03    -225.987E-03     150.115E-03
             688     12.2045E-03     118.574E-03    -15.8707E+06     54.7314E+06     82.9125E+06     1.33052E+06    -230.056E-03     456.376E-03    -226.320E-03     163.014E-03    -234.143E-03     460.360E-03    -225.962E-03     142.735E-03
             689     12.9248E-03     118.785E-03    -8.51369E+06     73.5485E+06     89.3186E+06     731.221E+03    -229.692E-03     455.988E-03    -226.296E-03     158.254E-03    -233.619E-03     459.887E-03    -225.943E-03     138.236E-03
             690     13.6443E-03     118.997E-03    -4.87512E+06     72.6292E+06     87.8230E+06    -965.654E+03    -228.538E-03     454.810E-03    -226.272E-03     129.770E-03    -231.404E-03     457.662E-03    -225.931E-03     113.140E-03
             691     717.722E-06     117.360E-03    -138.931E+06    -257.509E+06    -136.652E+06    -294.803E+03    -226.247E-03     452.547E-03    -226.300E-03     19.1090E-03    -226.425E-03     451.714E-03    -226.408E-03     16.9631E-03
             692     1.43536E-03     117.397E-03    -134.411E+06    -243.270E+06    -124.509E+06     185.854E+03    -226.490E-03     452.764E-03    -226.274E-03     35.5646E-03    -226.797E-03     452.091E-03    -226.349E-03     31.6247E-03
             693     2.15312E-03     117.457E-03    -127.642E+06    -226.988E+06    -105.912E+06     429.734E+03    -226.786E-03     453.124E-03    -226.339E-03     52.3723E-03    -227.296E-03     452.683E-03    -226.354E-03     46.5656E-03
             694     2.87078E-03     117.540E-03    -120.330E+06    -204.178E+06    -86.1632E+06     608.149E+03    -227.153E-03     453.551E-03    -226.398E-03     68.8778E-03    -227.945E-03     453.442E-03    -226.359E-03     61.2070E-03
             695     3.58842E-03     117.644E-03    -112.150E+06    -176.986E+06    -65.4879E+06     880.863E+03    -227.496E-03     453.937E-03    -226.441E-03     85.1373E-03    -228.641E-03     454.246E-03    -226.349E-03     75.6289E-03
             696     4.30625E-03     117.771E-03    -102.580E+06    -150.844E+06    -44.5668E+06     591.699E+03    -227.879E-03     454.343E-03    -226.464E-03     100.624E-03    -229.427E-03     455.121E-03    -226.320E-03     89.3006E-03
             697     5.02410E-03     117.917E-03    -93.0472E+06    -129.866E+06    -26.3283E+06     399.134E+03    -228.443E-03     454.921E-03    -226.478E-03     115.087E-03    -230.428E-03     456.190E-03    -226.286E-03     102.019E-03
             698     5.74212E-03     118.083E-03    -84.2948E+06    -104.241E+06    -9.72962E+06     741.944E+03    -229.084E-03     455.571E-03    -226.487E-03     128.615E-03    -231.535E-03     457.381E-03    -226.262E-03     113.948E-03
             699     6.45983E-03     118.267E-03    -75.6492E+06    -70.0560E+06     6.55719E+06     1.00520E+06    -229.572E-03     456.056E-03    -226.483E-03     140.859E-03    -232.501E-03     458.448E-03    -226.239E-03     124.764E-03
             700     7.17793E-03     118.466E-03    -67.3042E+06    -38.7643E+06     21.4128E+06     808.526E+03    -229.958E-03     456.425E-03    -226.468E-03     151.463E-03    -233.333E-03     459.362E-03    -226.207E-03     134.122E-03
             701     7.89618E-03     118.679E-03    -58.0271E+06    -4.10758E+06     36.1374E+06     1.08909E+06    -230.295E-03     456.731E-03    -226.436E-03     160.080E-03    -234.063E-03     460.173E-03    -226.165E-03     141.705E-03
             702     8.61431E-03     118.902E-03    -47.8536E+06     20.7585E+06     47.7641E+06     2.85703E+06    -230.593E-03     456.991E-03    -226.398E-03     166.677E-03    -234.661E-03     460.824E-03    -226.120E-03     147.496E-03
             703     9.33301E-03     119.132E-03     -39.629E+06     28.1908E+06     55.3111E+06     2.39332E+06    -230.874E-03     457.245E-03    -226.370E-03     171.302E-03    -235.146E-03     461.315E-03    -226.077E-03     151.455E-03
             704     10.0504E-03     119.366E-03    -33.8127E+06     36.2930E+06     63.2860E+06     953.930E+03    -230.944E-03     457.296E-03    -226.352E-03     173.707E-03    -235.346E-03     461.523E-03    -226.039E-03     153.372E-03
             705     10.7688E-03     119.603E-03    -27.1085E+06     42.7775E+06     72.8731E+06     1.49993E+06    -230.857E-03     457.202E-03    -226.345E-03     173.583E-03    -235.285E-03     461.474E-03    -226.003E-03     152.990E-03
             706     11.4882E-03     119.836E-03    -19.1334E+06     41.5116E+06     79.0436E+06     719.192E+03    -230.872E-03     457.214E-03    -226.343E-03     171.335E-03    -235.234E-03     461.427E-03    -225.980E-03     150.557E-03
             707     12.2065E-03     120.064E-03    -14.2499E+06     53.7168E+06     82.9690E+06    -353.926E+03    -230.323E-03     456.653E-03    -226.329E-03     162.723E-03    -234.404E-03     460.633E-03    -225.971E-03     142.361E-03
             708     12.9234E-03     120.274E-03    -9.54860E+06     74.5140E+06     88.8636E+06     389.975E+03    -229.652E-03     455.968E-03    -226.316E-03     156.365E-03    -233.569E-03     459.858E-03    -225.966E-03     136.283E-03
             709     13.6403E-03     120.487E-03    -4.62459E+06     74.3276E+06     89.0376E+06     740.083E+03    -228.295E-03     454.592E-03    -226.298E-03     128.778E-03    -231.141E-03     457.428E-03    -225.953E-03     112.252E-03
             710     717.723E-06     118.850E-03    -138.623E+06    -256.618E+06    -135.836E+06    -300.269E+03    -226.427E-03     452.628E-03    -226.201E-03     19.2719E-03    -226.606E-03     451.798E-03    -226.307E-03     17.1178E-03
             711     1.43532E-03     118.887E-03    -134.506E+06    -243.678E+06    -124.355E+06    -364.374E+03    -226.562E-03     452.882E-03    -226.320E-03     35.6498E-03    -226.868E-03     452.207E-03    -226.394E-03     31.7079E-03
             712     2.15289E-03     118.947E-03    -128.213E+06    -228.388E+06    -106.611E+06     211.101E+03    -226.802E-03     453.185E-03    -226.383E-03     52.5421E-03    -227.313E-03     452.739E-03    -226.399E-03     46.7351E-03
             713     2.87059E-03     119.030E-03    -120.556E+06    -205.179E+06    -86.1151E+06     958.836E+03    -227.125E-03     453.557E-03    -226.431E-03     69.0380E-03    -227.919E-03     453.444E-03    -226.390E-03     61.3618E-03
             714     3.58838E-03     119.134E-03    -111.530E+06    -177.061E+06    -65.0644E+06     988.693E+03    -227.452E-03     453.911E-03    -226.459E-03     85.0827E-03    -228.595E-03     454.218E-03    -226.366E-03     75.5689E-03
             715     4.30634E-03     119.261E-03    -102.173E+06    -151.124E+06    -44.5740E+06     1.08215E+06    -227.863E-03     454.336E-03    -226.473E-03     100.553E-03    -229.407E-03     455.110E-03    -226.329E-03     89.2424E-03
             716     5.02431E-03     119.407E-03    -93.1880E+06    -130.608E+06    -26.4078E+06     1.57861E+06    -228.496E-03     454.984E-03    -226.488E-03     115.160E-03    -230.479E-03     456.250E-03    -226.296E-03     102.113E-03
             717     5.74187E-03     119.574E-03    -84.3197E+06    -104.772E+06    -9.60704E+06     1.86314E+06    -229.084E-03     455.582E-03    -226.499E-03     128.731E-03    -231.536E-03     457.391E-03    -226.273E-03     114.074E-03
             718     6.45990E-03     119.757E-03    -75.4185E+06    -70.5026E+06     6.53040E+06     2.02397E+06    -229.522E-03     456.011E-03    -226.489E-03     140.947E-03    -232.452E-03     458.405E-03    -226.245E-03     124.853E-03
             719     7.17801E-03     119.956E-03    -66.6598E+06    -37.6453E+06     22.1530E+06     1.88418E+06    -229.942E-03     456.413E-03    -226.470E-03     151.441E-03    -233.320E-03     459.356E-03    -226.208E-03     134.095E-03
             720     7.89600E-03     120.169E-03    -58.6974E+06    -3.37379E+06     36.4236E+06     624.595E+03    -230.247E-03     456.684E-03    -226.437E-03     159.962E-03    -234.021E-03     460.132E-03    -226.165E-03     141.571E-03
             721     8.61441E-03     120.391E-03    -50.8898E+06     17.9893E+06     45.5378E+06    -908.202E+03    -230.531E-03     456.925E-03    -226.393E-03     166.474E-03    -234.605E-03     460.750E-03    -226.118E-03     147.240E-03
             722     9.33249E-03     120.621E-03    -41.6632E+06     26.3206E+06     52.8797E+06     281.353E+03    -230.818E-03     457.179E-03    -226.360E-03     170.977E-03    -235.085E-03     461.237E-03    -226.074E-03     151.123E-03
             723     10.0513E-03     120.857E-03    -33.0063E+06     35.8673E+06     63.7903E+06     1.99124E+06    -230.955E-03     457.306E-03    -226.351E-03     173.379E-03    -235.347E-03     461.523E-03    -226.036E-03     153.060E-03
             724     10.7697E-03     121.092E-03    -27.0364E+06     43.1075E+06     74.3360E+06     1.75914E+06    -230.974E-03     457.330E-03    -226.357E-03     173.099E-03    -235.402E-03     461.600E-03    -226.008E-03     152.473E-03
             725     11.4871E-03     121.326E-03    -22.8076E+06     43.1408E+06     78.3947E+06     1.10953E+06    -230.859E-03     457.214E-03    -226.355E-03     170.670E-03    -235.233E-03     461.433E-03    -225.993E-03     149.884E-03
             726     12.2042E-03     121.555E-03    -17.2851E+06     55.2466E+06     82.8453E+06     459.513E+03    -230.322E-03     456.666E-03    -226.345E-03     163.014E-03    -234.415E-03     460.654E-03    -225.985E-03     142.705E-03
             727     12.9222E-03     121.765E-03    -10.1817E+06     73.5946E+06     89.0809E+06    -80.5694E+03    -229.910E-03     456.243E-03    -226.333E-03     158.326E-03    -233.850E-03     460.150E-03    -225.980E-03     138.270E-03
             728     13.6415E-03     121.977E-03    -3.38315E+06     73.9750E+06     89.7701E+06     376.423E+03    -227.992E-03     454.296E-03    -226.304E-03     129.766E-03    -230.854E-03     457.149E-03    -225.957E-03     113.207E-03
             729     717.609E-06     120.340E-03    -137.713E+06    -256.436E+06    -134.851E+06     409.864E+03    -226.595E-03     452.714E-03    -226.119E-03     19.3990E-03    -226.771E-03     451.882E-03    -226.222E-03     17.2488E-03
             730     1.43526E-03     120.377E-03    -134.290E+06    -244.063E+06    -123.332E+06     506.586E+03    -226.586E-03     452.947E-03    -226.361E-03     35.7175E-03    -226.893E-03     452.269E-03    -226.429E-03     31.7785E-03
             731     2.15299E-03     120.437E-03    -128.287E+06    -229.369E+06    -105.876E+06     464.993E+03    -226.797E-03     453.213E-03    -226.416E-03     52.5447E-03    -227.308E-03     452.762E-03    -226.427E-03     46.7377E-03
             732     2.87068E-03     120.520E-03    -119.854E+06    -206.171E+06    -85.6814E+06     549.111E+03    -227.086E-03     453.534E-03    -226.448E-03     69.1134E-03    -227.875E-03     453.415E-03    -226.404E-03     61.4377E-03
             733     3.58836E-03     120.624E-03    -111.072E+06    -178.093E+06    -65.4565E+06     1.14926E+06    -227.488E-03     453.955E-03    -226.467E-03     85.0656E-03    -228.627E-03     454.258E-03    -226.375E-03     75.5469E-03
             734     4.30611E-03     120.750E-03    -102.159E+06    -152.583E+06    -45.1155E+06     1.80254E+06    -227.938E-03     454.427E-03    -226.489E-03     100.514E-03    -229.482E-03     455.197E-03    -226.345E-03     89.1937E-03
             735     5.02393E-03     120.898E-03    -92.6279E+06    -131.525E+06    -26.4130E+06     2.16557E+06    -228.442E-03     454.947E-03    -226.505E-03     115.232E-03    -230.423E-03     456.208E-03    -226.312E-03     102.190E-03
             736     5.74205E-03     121.064E-03    -83.0194E+06    -105.534E+06    -9.06682E+06     2.37562E+06    -228.999E-03     455.504E-03    -226.505E-03     128.733E-03    -231.445E-03     457.307E-03    -226.277E-03     114.084E-03
             737     6.46003E-03     121.247E-03    -73.8607E+06    -71.0317E+06     7.51096E+06     2.53402E+06    -229.558E-03     456.052E-03    -226.493E-03     140.856E-03    -232.484E-03     458.441E-03    -226.246E-03     124.754E-03
             738     7.17785E-03     121.447E-03    -64.6600E+06    -37.5047E+06     23.4879E+06     2.51236E+06    -229.974E-03     456.453E-03    -226.479E-03     151.256E-03    -233.345E-03     459.393E-03    -226.213E-03     133.907E-03
             739     7.89614E-03     121.658E-03    -55.6971E+06    -1.27821E+06     38.6222E+06     2.69031E+06    -230.266E-03     456.715E-03    -226.449E-03     159.739E-03    -234.029E-03     460.164E-03    -226.173E-03     141.372E-03
             740     8.61426E-03     121.881E-03    -48.5087E+06     21.5497E+06     48.7579E+06     2.14385E+06    -230.610E-03     457.023E-03    -226.413E-03     166.348E-03    -234.679E-03     460.855E-03    -226.130E-03     147.157E-03
             741     9.33248E-03     122.111E-03    -43.5393E+06     25.6560E+06     53.2090E+06    -298.567E+03    -230.872E-03     457.255E-03    -226.383E-03     170.818E-03    -235.144E-03     461.310E-03    -226.091E-03     150.959E-03
             742     10.0505E-03     122.345E-03    -37.6805E+06     30.9004E+06     59.8849E+06    -85.0401E+03    -231.019E-03     457.387E-03    -226.368E-03     173.137E-03    -235.416E-03     461.587E-03    -226.059E-03     152.796E-03
             743     10.7683E-03     122.582E-03    -29.9223E+06     42.6039E+06     71.4897E+06     1.98550E+06    -230.961E-03     457.332E-03    -226.371E-03     173.322E-03    -235.403E-03     461.612E-03    -226.032E-03     152.694E-03
             744     11.4865E-03     122.816E-03    -21.5179E+06     46.0955E+06     79.7309E+06     1.40474E+06    -230.598E-03     456.964E-03    -226.366E-03     171.609E-03    -234.973E-03     461.195E-03    -226.002E-03     150.902E-03
             745     12.2061E-03     123.045E-03    -13.9051E+06     57.1385E+06     85.3136E+06    -63.2163E+03    -229.946E-03     456.279E-03    -226.333E-03     163.893E-03    -234.035E-03     460.274E-03    -225.969E-03     143.638E-03
             746     12.9253E-03     123.255E-03    -9.42073E+06     72.7831E+06     89.0944E+06     352.850E+03    -229.564E-03     455.859E-03    -226.296E-03     158.062E-03    -233.508E-03     459.771E-03    -225.942E-03     137.976E-03
             747     13.6422E-03     123.468E-03    -5.35953E+06     73.2419E+06     89.0466E+06     665.749E+03    -228.507E-03     454.784E-03    -226.277E-03     128.707E-03    -231.380E-03     457.639E-03    -225.930E-03     112.053E-03
             748     717.679E-06     121.829E-03    -138.116E+06    -258.392E+06    -135.432E+06     740.186E+03    -226.642E-03     452.841E-03    -226.199E-03     19.3776E-03    -226.817E-03     452.001E-03    -226.301E-03     17.2260E-03
             749     1.43525E-03     121.867E-03    -134.398E+06    -245.148E+06    -123.535E+06     924.971E+03    -226.596E-03     453.011E-03    -226.414E-03     35.6923E-03    -226.902E-03     452.328E-03    -226.482E-03     31.7532E-03
             750     2.15274E-03     121.926E-03    -128.017E+06    -230.122E+06    -105.777E+06     993.168E+03    -226.776E-03     453.226E-03    -226.450E-03     52.4267E-03    -227.284E-03     452.770E-03    -226.460E-03     46.6292E-03
             751     2.87054E-03     122.009E-03    -120.039E+06    -207.126E+06    -85.7615E+06     1.11141E+06    -227.044E-03     453.510E-03    -226.467E-03     69.0875E-03    -227.833E-03     453.387E-03    -226.421E-03     61.4176E-03
             752     3.58842E-03     122.114E-03    -111.130E+06    -179.316E+06    -65.2252E+06     1.30757E+06    -227.488E-03     453.966E-03    -226.479E-03     85.1414E-03    -228.627E-03     454.264E-03    -226.384E-03     75.6153E-03
             753     4.30613E-03     122.241E-03    -101.629E+06    -153.674E+06    -44.9958E+06     1.50322E+06    -227.991E-03     454.491E-03    -226.501E-03     100.599E-03    -229.533E-03     455.258E-03    -226.356E-03     89.2607E-03
             754     5.02402E-03     122.387E-03    -92.1106E+06    -132.811E+06    -26.5370E+06     1.81232E+06    -228.490E-03     455.011E-03    -226.520E-03     115.233E-03    -230.468E-03     456.267E-03    -226.327E-03     102.172E-03
             755     5.74196E-03     122.553E-03    -82.6384E+06    -106.629E+06    -9.06392E+06     2.07925E+06    -229.027E-03     455.551E-03    -226.525E-03     128.608E-03    -231.469E-03     457.348E-03    -226.296E-03     113.948E-03
             756     6.45976E-03     122.737E-03    -73.1146E+06    -72.1824E+06     7.92730E+06     2.26392E+06    -229.528E-03     456.042E-03    -226.514E-03     140.699E-03    -232.447E-03     458.422E-03    -226.263E-03     124.597E-03
             757     7.17787E-03     122.936E-03    -64.2703E+06    -38.6687E+06     23.8975E+06     2.82381E+06    -229.957E-03     456.454E-03    -226.497E-03     151.102E-03    -233.322E-03     459.384E-03    -226.228E-03     133.762E-03
             758     7.89583E-03     123.148E-03    -56.1533E+06    -1.71714E+06     39.0727E+06     3.03801E+06    -230.347E-03     456.816E-03    -226.469E-03     159.633E-03    -234.112E-03     460.262E-03    -226.190E-03     141.261E-03
             759     8.61405E-03     123.371E-03    -47.3459E+06     21.8864E+06     49.4853E+06     3.45298E+06    -230.647E-03     457.083E-03    -226.436E-03     166.127E-03    -234.710E-03     460.912E-03    -226.152E-03     146.944E-03
             760     9.33235E-03     123.601E-03    -38.7794E+06     29.0381E+06     57.0243E+06     4.74584E+06    -230.906E-03     457.319E-03    -226.414E-03     170.694E-03    -235.162E-03     461.376E-03    -226.114E-03     150.905E-03
             761     10.0503E-03     123.836E-03    -32.4045E+06     32.5559E+06     65.4169E+06     2.94229E+06    -231.067E-03     457.475E-03    -226.408E-03     173.476E-03    -235.450E-03     461.668E-03    -226.081E-03     153.190E-03
             762     10.7690E-03     124.072E-03    -26.0939E+06     41.3321E+06     75.2143E+06     676.772E+03    -230.923E-03     457.327E-03    -226.404E-03     173.321E-03    -235.347E-03     461.587E-03    -226.050E-03     152.693E-03
             763     11.4881E-03     124.305E-03    -19.5298E+06     49.0235E+06     81.9261E+06     895.896E+03    -230.618E-03     457.008E-03    -226.390E-03     170.193E-03    -234.980E-03     461.237E-03    -226.023E-03     149.431E-03
             764     12.2055E-03     124.534E-03    -15.5798E+06     57.9267E+06     84.9573E+06     914.914E+03    -229.833E-03     456.194E-03    -226.361E-03     161.864E-03    -233.911E-03     460.176E-03    -225.998E-03     141.586E-03
             765     12.9224E-03     124.745E-03    -10.9350E+06     70.7192E+06     88.5818E+06     772.055E+03    -228.943E-03     455.259E-03    -226.316E-03     156.692E-03    -232.863E-03     459.135E-03    -225.960E-03     136.681E-03
             766     13.6422E-03     124.956E-03    -5.18877E+06     74.1029E+06     89.4329E+06     774.754E+03    -228.223E-03     454.494E-03    -226.272E-03     129.470E-03    -231.078E-03     457.335E-03    -225.924E-03     112.958E-03
             767     717.411E-06     123.319E-03    -138.757E+06    -260.521E+06    -136.301E+06     301.642E+03    -226.659E-03     452.892E-03    -226.233E-03     19.5347E-03    -226.832E-03     452.044E-03    -226.336E-03     17.3770E-03
             768     1.43503E-03     123.357E-03    -134.359E+06    -246.423E+06    -124.034E+06     751.658E+03    -226.584E-03     453.013E-03    -226.429E-03     35.9136E-03    -226.887E-03     452.324E-03    -226.497E-03     31.9804E-03
             769     2.15284E-03     123.417E-03    -128.033E+06    -230.935E+06    -106.046E+06     969.845E+03    -226.830E-03     453.292E-03    -226.462E-03     52.5169E-03    -227.337E-03     452.833E-03    -226.472E-03     46.7121E-03
             770     2.87054E-03     123.499E-03    -120.053E+06    -208.070E+06    -86.1406E+06     1.03034E+06    -227.107E-03     453.597E-03    -226.490E-03     69.0388E-03    -227.895E-03     453.470E-03    -226.445E-03     61.3604E-03
             771     3.58827E-03     123.604E-03    -111.190E+06    -180.259E+06    -65.5133E+06     1.24670E+06    -227.464E-03     453.967E-03    -226.503E-03     85.0982E-03    -228.602E-03     454.260E-03    -226.408E-03     75.5693E-03
             772     4.30616E-03     123.730E-03    -102.140E+06    -154.766E+06    -44.9984E+06     1.60338E+06    -228.002E-03     454.525E-03    -226.523E-03     100.467E-03    -229.544E-03     455.285E-03    -226.375E-03     89.1291E-03
             773     5.02390E-03     123.878E-03    -92.4712E+06    -133.481E+06    -26.1981E+06     1.53250E+06    -228.591E-03     455.141E-03    -226.550E-03     115.047E-03    -230.570E-03     456.393E-03    -226.353E-03     101.972E-03
             774     5.74152E-03     124.044E-03    -82.8570E+06    -107.508E+06    -8.99314E+06     1.45135E+06    -229.050E-03     455.609E-03    -226.559E-03     128.574E-03    -231.494E-03     457.403E-03    -226.328E-03     113.892E-03
             775     6.45964E-03     124.227E-03    -73.8030E+06    -73.3981E+06     7.41240E+06     1.66769E+06    -229.476E-03     456.018E-03    -226.542E-03     140.700E-03    -232.395E-03     458.393E-03    -226.292E-03     124.594E-03
             776     7.17767E-03     124.426E-03    -64.6384E+06    -41.4449E+06     23.0074E+06     2.35319E+06    -229.988E-03     456.509E-03    -226.521E-03     151.038E-03    -233.347E-03     459.424E-03    -226.252E-03     133.695E-03
             777     7.89582E-03     124.638E-03    -55.3150E+06    -3.26829E+06     38.9322E+06     3.66652E+06    -230.425E-03     456.922E-03    -226.497E-03     159.523E-03    -234.182E-03     460.358E-03    -226.217E-03     141.154E-03
             778     8.61376E-03     124.861E-03    -47.7581E+06     21.1738E+06     49.2070E+06     3.83957E+06    -230.745E-03     457.215E-03    -226.470E-03     165.935E-03    -234.808E-03     461.041E-03    -226.185E-03     146.739E-03
             779     9.33180E-03     125.090E-03    -40.9017E+06     26.5588E+06     54.5559E+06     3.24220E+06    -230.985E-03     457.433E-03    -226.448E-03     170.350E-03    -235.245E-03     461.485E-03    -226.155E-03     150.503E-03
             780     10.0505E-03     125.325E-03    -33.1406E+06     36.2872E+06     63.5888E+06     4.13346E+06    -231.109E-03     457.552E-03    -226.443E-03     172.507E-03    -235.496E-03     461.765E-03    -226.129E-03     152.175E-03
             781     10.7684E-03     125.562E-03    -28.1488E+06     45.4863E+06     74.1389E+06     3.85972E+06    -231.061E-03     457.517E-03    -226.456E-03     172.124E-03    -235.489E-03     461.792E-03    -226.111E-03     151.493E-03
             782     11.4849E-03     125.796E-03    -24.7505E+06     47.8628E+06     79.8857E+06     1.33965E+06    -230.694E-03     457.153E-03    -226.459E-03     170.036E-03    -235.079E-03     461.389E-03    -226.093E-03     149.255E-03
             783     12.2031E-03     126.024E-03    -16.9332E+06     58.4548E+06     85.5162E+06     834.038E+03    -229.604E-03     456.030E-03    -226.426E-03     162.416E-03    -233.685E-03     460.011E-03    -226.059E-03     142.209E-03
             784     12.9237E-03     126.233E-03    -9.49096E+06     71.5298E+06     90.4586E+06     915.452E+03    -228.757E-03     455.122E-03    -226.365E-03     156.812E-03    -232.655E-03     458.978E-03    -226.003E-03     136.908E-03
             785     13.6425E-03     126.444E-03    -5.18385E+06     74.6494E+06     90.0584E+06     122.920E+03    -227.729E-03     454.025E-03    -226.295E-03     129.604E-03    -230.585E-03     456.866E-03    -225.946E-03     113.119E-03
             786     717.730E-06     124.809E-03    -138.434E+06    -261.090E+06    -135.498E+06     176.957E+03    -226.644E-03     452.857E-03    -226.213E-03     19.4442E-03    -226.816E-03     452.004E-03    -226.311E-03     17.2858E-03
             787     1.43541E-03     124.847E-03    -134.351E+06    -247.840E+06    -124.429E+06     251.983E+03    -226.632E-03     453.054E-03    -226.422E-03     35.8077E-03    -226.932E-03     452.359E-03    -226.490E-03     31.8709E-03
             788     2.15286E-03     124.907E-03    -127.707E+06    -232.036E+06    -106.350E+06     889.619E+03    -226.894E-03     453.371E-03    -226.477E-03     52.4088E-03    -227.397E-03     452.905E-03    -226.487E-03     46.6044E-03
             789     2.87032E-03     124.989E-03    -120.196E+06    -209.108E+06    -86.1892E+06     1.30328E+06    -227.169E-03     453.688E-03    -226.519E-03     68.9447E-03    -227.956E-03     453.556E-03    -226.473E-03     61.2674E-03
             790     3.58812E-03     125.094E-03    -112.174E+06    -181.653E+06    -65.8957E+06     1.61106E+06    -227.535E-03     454.075E-03    -226.541E-03     85.1300E-03    -228.676E-03     454.364E-03    -226.444E-03     75.6032E-03
             791     4.30587E-03     125.221E-03    -102.685E+06    -155.300E+06    -44.8575E+06     1.60411E+06    -228.039E-03     454.604E-03    -226.564E-03     100.561E-03    -229.584E-03     455.363E-03    -226.414E-03     89.2171E-03
             792     5.02353E-03     125.368E-03    -93.2920E+06    -133.980E+06    -26.4434E+06     1.60130E+06    -228.557E-03     455.141E-03    -226.584E-03     115.121E-03    -230.539E-03     456.394E-03    -226.387E-03     102.046E-03
             793     5.74159E-03     125.534E-03    -84.5057E+06    -108.101E+06    -9.72243E+06     1.80539E+06    -229.081E-03     455.669E-03    -226.588E-03     128.566E-03    -231.531E-03     457.463E-03    -226.358E-03     113.886E-03
             794     6.45946E-03     125.717E-03    -76.0143E+06    -74.1112E+06     6.30817E+06     1.91004E+06    -229.601E-03     456.178E-03    -226.577E-03     140.526E-03    -232.528E-03     458.554E-03    -226.328E-03     124.404E-03
             795     7.17744E-03     125.916E-03    -67.5981E+06    -42.0996E+06     21.4983E+06     1.37281E+06    -230.098E-03     456.665E-03    -226.566E-03     150.780E-03    -233.468E-03     459.583E-03    -226.300E-03     133.403E-03
             796     7.89528E-03     126.129E-03    -58.8983E+06    -7.30779E+06     36.0338E+06     1.43796E+06    -230.494E-03     457.044E-03    -226.549E-03     159.107E-03    -234.256E-03     460.466E-03    -226.273E-03     140.688E-03
             797     8.61348E-03     126.351E-03    -49.3454E+06     18.7683E+06     47.3648E+06     3.44172E+06    -230.829E-03     457.359E-03    -226.529E-03     165.399E-03    -234.891E-03     461.175E-03    -226.248E-03     146.168E-03
             798     9.33146E-03     126.581E-03    -41.2492E+06     27.9071E+06     55.1957E+06     4.18882E+06    -231.191E-03     457.716E-03    -226.524E-03     169.912E-03    -235.455E-03     461.772E-03    -226.229E-03     150.046E-03
             799     10.0485E-03     126.815E-03    -35.1392E+06     34.1811E+06     63.1303E+06     3.62374E+06    -231.273E-03     457.803E-03    -226.530E-03     172.552E-03    -235.664E-03     462.008E-03    -226.213E-03     152.215E-03
             800     10.7663E-03     127.052E-03    -26.6200E+06     43.7286E+06     73.9926E+06     4.34424E+06    -230.813E-03     457.342E-03    -226.529E-03     172.782E-03    -235.233E-03     461.607E-03    -226.184E-03     152.204E-03
             801     11.4862E-03     127.285E-03    -17.6894E+06     52.4690E+06     84.1390E+06     5.33453E+06    -230.151E-03     456.651E-03    -226.500E-03     170.792E-03    -234.511E-03     460.891E-03    -226.130E-03     150.166E-03
             802     12.2053E-03     127.514E-03    -13.8042E+06     62.4867E+06     88.5742E+06     3.22525E+06    -229.466E-03     455.907E-03    -226.441E-03     162.691E-03    -233.553E-03     459.910E-03    -226.068E-03     142.505E-03
             803     12.9222E-03     127.722E-03    -10.7875E+06     72.2278E+06     90.0931E+06     476.384E+03    -229.267E-03     455.648E-03    -226.382E-03     157.197E-03    -233.198E-03     459.537E-03    -226.020E-03     137.163E-03
             804     13.6400E-03     127.935E-03    -4.61936E+06     75.8544E+06     90.9067E+06     223.709E+03    -227.530E-03     453.852E-03    -226.322E-03     129.855E-03    -230.407E-03     456.718E-03    -225.971E-03     113.284E-03
             805     717.503E-06     126.299E-03    -137.996E+06    -261.749E+06    -135.462E+06     378.755E+03    -226.630E-03     453.041E-03    -226.411E-03     19.2989E-03    -226.798E-03     452.184E-03    -226.509E-03     17.1531E-03
             806     1.43489E-03     126.337E-03    -134.568E+06    -248.976E+06    -123.900E+06     706.913E+03    -226.635E-03     453.137E-03    -226.501E-03     35.6474E-03    -226.935E-03     452.434E-03    -226.565E-03     31.7212E-03
             807     2.15258E-03     126.397E-03    -128.785E+06    -233.990E+06    -107.100E+06     1.01148E+06    -226.809E-03     453.323E-03    -226.514E-03     52.5070E-03    -227.313E-03     452.851E-03    -226.524E-03     46.7115E-03
             808     2.87042E-03     126.479E-03    -121.244E+06    -210.858E+06    -86.9758E+06     1.74484E+06    -227.210E-03     453.747E-03    -226.537E-03     69.0725E-03    -227.999E-03     453.610E-03    -226.491E-03     61.3988E-03
             809     3.58806E-03     126.584E-03    -112.300E+06    -182.457E+06    -65.5210E+06     1.98291E+06    -227.667E-03     454.241E-03    -226.574E-03     85.1769E-03    -228.808E-03     454.526E-03    -226.474E-03     75.6491E-03
             810     4.30568E-03     126.711E-03    -102.978E+06    -156.262E+06    -45.1838E+06     2.19927E+06    -228.072E-03     454.676E-03    -226.604E-03     100.544E-03    -229.617E-03     455.432E-03    -226.454E-03     89.2040E-03
             811     5.02369E-03     126.858E-03    -94.0976E+06    -135.138E+06    -27.0231E+06     2.75492E+06    -228.601E-03     455.225E-03    -226.625E-03     114.953E-03    -230.584E-03     456.473E-03    -226.427E-03     101.884E-03
             812     5.74135E-03     127.024E-03    -85.3613E+06    -108.939E+06    -10.1086E+06     3.13308E+06    -229.223E-03     455.861E-03    -226.638E-03     128.247E-03    -231.673E-03     457.651E-03    -226.407E-03     113.570E-03
             813     6.45903E-03     127.208E-03    -76.8794E+06    -74.3309E+06     6.17842E+06     3.29696E+06    -229.786E-03     456.429E-03    -226.643E-03     140.203E-03    -232.716E-03     458.805E-03    -226.393E-03     124.071E-03
             814     7.17669E-03     127.407E-03    -68.9297E+06    -40.9071E+06     21.6349E+06     3.39717E+06    -230.275E-03     456.923E-03    -226.648E-03     150.501E-03    -233.653E-03     459.849E-03    -226.381E-03     133.120E-03
             815     7.89457E-03     127.619E-03    -61.9188E+06    -6.27552E+06     35.5643E+06     2.30567E+06    -230.637E-03     457.279E-03    -226.642E-03     158.810E-03    -234.413E-03     460.710E-03    -226.365E-03     140.378E-03
             816     8.61220E-03     127.841E-03    -54.9892E+06     15.6867E+06     43.9473E+06     590.652E+03    -230.910E-03     457.532E-03    -226.623E-03     165.207E-03    -234.987E-03     461.343E-03    -226.346E-03     145.929E-03
             817     9.33004E-03     128.071E-03    -46.2934E+06     25.4296E+06     50.8188E+06     1.29877E+06    -231.022E-03     457.624E-03    -226.602E-03     169.975E-03    -235.293E-03     461.673E-03    -226.318E-03     150.114E-03
             818     10.0487E-03     128.307E-03    -36.6267E+06     34.1388E+06     61.5696E+06     1.36424E+06    -230.879E-03     457.465E-03    -226.586E-03     172.848E-03    -235.270E-03     461.669E-03    -226.275E-03     152.536E-03
             819     10.7675E-03     128.542E-03    -29.4208E+06     39.9204E+06     72.6297E+06     1.28279E+06    -230.539E-03     457.104E-03    -226.566E-03     172.684E-03    -234.961E-03     461.353E-03    -226.218E-03     152.095E-03
             820     11.4851E-03     128.774E-03    -23.5002E+06     50.6713E+06     81.6764E+06     3.26646E+06    -230.088E-03     456.613E-03    -226.525E-03     169.888E-03    -234.461E-03     460.846E-03    -226.156E-03     149.225E-03
             821     12.2036E-03     129.002E-03    -15.5310E+06     65.7282E+06     88.1853E+06     3.82671E+06    -229.419E-03     455.884E-03    -226.465E-03     161.783E-03    -233.513E-03     459.900E-03    -226.097E-03     141.562E-03
             822     12.9232E-03     129.213E-03    -8.78812E+06     75.5662E+06     91.8576E+06     2.77992E+06    -228.909E-03     455.311E-03    -226.402E-03     156.845E-03    -232.822E-03     459.195E-03    -226.040E-03     136.913E-03
             823     13.6421E-03     129.424E-03    -4.93916E+06     77.6210E+06     91.7507E+06     807.394E+03    -227.251E-03     453.578E-03    -226.328E-03     128.918E-03    -230.115E-03     456.435E-03    -225.974E-03     112.409E-03
             824     717.386E-06     127.790E-03    -138.609E+06    -263.707E+06    -135.455E+06     751.704E+03    -226.508E-03     453.160E-03    -226.651E-03     19.5404E-03    -226.678E-03     452.294E-03    -226.745E-03     17.3860E-03
             825     1.43502E-03     127.827E-03    -134.669E+06    -250.737E+06    -123.636E+06     1.21254E+06    -226.641E-03     453.192E-03    -226.551E-03     35.7135E-03    -226.939E-03     452.481E-03    -226.610E-03     31.7888E-03
             826     2.15283E-03     127.887E-03    -128.996E+06    -235.631E+06    -106.912E+06     1.64977E+06    -226.873E-03     453.430E-03    -226.557E-03     52.4160E-03    -227.376E-03     452.949E-03    -226.563E-03     46.6222E-03
             827     2.87042E-03     127.970E-03    -121.054E+06    -212.686E+06    -86.8885E+06     1.87001E+06    -227.296E-03     453.885E-03    -226.589E-03     68.9329E-03    -228.081E-03     453.737E-03    -226.540E-03     61.2588E-03
             828     3.58782E-03     128.075E-03    -111.879E+06    -184.084E+06    -65.7630E+06     2.52098E+06    -227.735E-03     454.366E-03    -226.631E-03     84.9254E-03    -228.870E-03     454.640E-03    -226.530E-03     75.4010E-03
             829     4.30557E-03     128.201E-03    -103.049E+06    -158.216E+06    -45.3523E+06     3.21094E+06    -228.217E-03     454.889E-03    -226.672E-03     100.237E-03    -229.758E-03     455.634E-03    -226.520E-03     88.8952E-03
             830     5.02305E-03     128.348E-03    -93.8268E+06    -136.970E+06    -26.8771E+06     3.78967E+06    -228.818E-03     455.531E-03    -226.713E-03     114.630E-03    -230.796E-03     456.767E-03    -226.513E-03     101.555E-03
             831     5.74066E-03     128.515E-03    -84.4735E+06    -110.451E+06    -9.58662E+06     4.30132E+06    -229.361E-03     456.103E-03    -226.742E-03     127.896E-03    -231.804E-03     457.881E-03    -226.507E-03     113.213E-03
             832     6.45839E-03     128.698E-03    -75.2985E+06    -75.7129E+06     7.11020E+06     4.93036E+06    -229.871E-03     456.622E-03    -226.751E-03     139.957E-03    -232.790E-03     458.984E-03    -226.497E-03     123.839E-03
             833     7.17606E-03     128.898E-03    -66.4366E+06    -42.0219E+06     22.7888E+06     5.55659E+06    -230.352E-03     457.105E-03    -226.753E-03     150.354E-03    -233.715E-03     460.018E-03    -226.482E-03     133.000E-03
             834     7.89362E-03     129.110E-03    -57.3690E+06    -4.06277E+06     38.2484E+06     5.95486E+06    -230.643E-03     457.384E-03    -226.740E-03     158.871E-03    -234.401E-03     460.812E-03    -226.460E-03     140.503E-03
             835     8.61158E-03     129.332E-03    -49.4848E+06     20.4208E+06     49.0968E+06     4.86660E+06    -230.853E-03     457.566E-03    -226.714E-03     165.576E-03    -234.915E-03     461.383E-03    -226.426E-03     146.392E-03
             836     9.32960E-03     129.562E-03    -43.5189E+06     27.3004E+06     54.8906E+06     1.37017E+06    -230.925E-03     457.605E-03    -226.680E-03     170.178E-03    -235.194E-03     461.657E-03    -226.382E-03     150.315E-03
             837     10.0478E-03     129.795E-03    -38.3080E+06     33.2315E+06     61.4993E+06     532.300E+03    -230.764E-03     457.407E-03    -226.643E-03     172.339E-03    -235.158E-03     461.605E-03    -226.328E-03     152.010E-03
             838     10.7661E-03     130.032E-03    -31.3657E+06     40.5362E+06     71.4335E+06     1.14568E+06    -230.540E-03     457.153E-03    -226.613E-03     171.934E-03    -234.962E-03     461.400E-03    -226.269E-03     151.342E-03
             839     11.4850E-03     130.264E-03    -22.3158E+06     46.9028E+06     80.2752E+06     71.8463E+03    -230.294E-03     456.874E-03    -226.580E-03     169.661E-03    -234.662E-03     461.097E-03    -226.215E-03     148.888E-03
             840     12.2033E-03     130.492E-03    -15.3071E+06     61.5483E+06     86.1148E+06     1.56932E+06    -229.452E-03     455.977E-03    -226.524E-03     161.690E-03    -233.547E-03     459.986E-03    -226.161E-03     141.380E-03
             841     12.9212E-03     130.700E-03    -9.60700E+06     77.9302E+06     91.0649E+06     3.07676E+06    -228.170E-03     454.611E-03    -226.441E-03     155.814E-03    -232.079E-03     458.499E-03    -226.085E-03     135.919E-03
             842     13.6408E-03     130.912E-03    -4.43948E+06     80.8316E+06     91.8796E+06     2.10499E+06    -226.481E-03     452.812E-03    -226.331E-03     128.579E-03    -229.336E-03     455.671E-03    -225.982E-03     112.170E-03
             843     717.567E-06     129.280E-03    -138.657E+06    -267.380E+06    -135.725E+06     1.30265E+06    -226.593E-03     453.190E-03    -226.597E-03     19.4592E-03    -226.757E-03     452.307E-03    -226.687E-03     17.3085E-03
             844     1.43508E-03     129.317E-03    -134.779E+06    -252.971E+06    -124.049E+06     1.64928E+06    -226.795E-03     453.388E-03    -226.593E-03     35.4794E-03    -227.090E-03     452.666E-03    -226.651E-03     31.5601E-03
             845     2.15232E-03     129.377E-03    -128.386E+06    -237.527E+06    -106.417E+06     1.81687E+06    -227.115E-03     453.771E-03    -226.656E-03     52.2762E-03    -227.614E-03     453.279E-03    -226.657E-03     46.4746E-03
             846     2.86974E-03     129.460E-03    -120.437E+06    -214.420E+06    -86.2859E+06     2.24314E+06    -227.448E-03     454.164E-03    -226.717E-03     68.7928E-03    -228.227E-03     454.005E-03    -226.662E-03     61.1119E-03
             847     3.58756E-03     129.565E-03    -111.811E+06    -186.770E+06    -65.7859E+06     2.93992E+06    -227.852E-03     454.613E-03    -226.762E-03     84.5884E-03    -228.981E-03     454.874E-03    -226.658E-03     75.0514E-03
             848     4.30494E-03     129.692E-03    -102.405E+06    -160.513E+06    -45.1304E+06     3.61052E+06    -228.386E-03     455.195E-03    -226.808E-03     99.8998E-03    -229.919E-03     455.925E-03    -226.653E-03     88.5477E-03
             849     5.02245E-03     129.839E-03    -92.7410E+06    -138.982E+06    -26.4045E+06     4.11324E+06    -228.937E-03     455.790E-03    -226.853E-03     114.425E-03    -230.905E-03     457.012E-03    -226.649E-03     101.342E-03
             850     5.73989E-03     130.006E-03    -83.3733E+06    -112.857E+06    -9.28819E+06     4.65175E+06    -229.448E-03     456.325E-03    -226.878E-03     127.774E-03    -231.881E-03     458.089E-03    -226.639E-03     113.085E-03
             851     6.45742E-03     130.189E-03    -73.9909E+06    -78.1866E+06     7.46274E+06     5.12341E+06    -229.912E-03     456.792E-03    -226.880E-03     139.877E-03    -232.819E-03     459.137E-03    -226.622E-03     123.759E-03
             852     7.17513E-03     130.389E-03    -64.5199E+06    -44.3649E+06     23.8179E+06     5.68954E+06    -230.282E-03     457.152E-03    -226.870E-03     150.241E-03    -233.629E-03     460.043E-03    -226.593E-03     132.901E-03
             853     7.89315E-03     130.601E-03    -55.7782E+06    -5.94085E+06     39.6330E+06     6.19160E+06    -230.526E-03     457.367E-03    -226.840E-03     158.596E-03    -234.269E-03     460.776E-03    -226.553E-03     140.239E-03
             854     8.61131E-03     130.823E-03    -46.9977E+06     22.6810E+06     51.7609E+06     6.23320E+06    -230.708E-03     457.506E-03    -226.798E-03     164.957E-03    -234.758E-03     461.319E-03    -226.504E-03     145.785E-03
             855     9.32955E-03     131.052E-03    -38.9419E+06     32.6063E+06     60.1358E+06     6.36231E+06    -230.870E-03     457.631E-03    -226.761E-03     169.358E-03    -235.121E-03     461.685E-03    -226.451E-03     149.560E-03
             856     10.0473E-03     131.286E-03    -32.1524E+06     35.2768E+06     68.5800E+06     5.26782E+06    -230.873E-03     457.609E-03    -226.736E-03     171.846E-03    -235.241E-03     461.789E-03    -226.398E-03     151.591E-03
             857     10.7656E-03     131.521E-03    -26.3388E+06     44.4131E+06     78.0144E+06     2.25732E+06    -230.545E-03     457.247E-03    -226.702E-03     171.958E-03    -234.959E-03     461.499E-03    -226.339E-03     151.374E-03
             858     11.4837E-03     131.754E-03    -22.4323E+06     46.1905E+06     81.2687E+06     1.25289E+06    -230.054E-03     456.698E-03    -226.643E-03     169.865E-03    -234.430E-03     460.922E-03    -226.272E-03     149.112E-03
             859     12.2021E-03     131.981E-03    -17.7914E+06     57.2571E+06     84.8742E+06     2.39273E+06    -229.018E-03     455.577E-03    -226.560E-03     162.232E-03    -233.123E-03     459.576E-03    -226.192E-03     141.995E-03
             860     12.9213E-03     132.190E-03    -10.7747E+06     79.4932E+06     91.4982E+06     1.96941E+06    -228.095E-03     454.550E-03    -226.455E-03     156.619E-03    -232.032E-03     458.465E-03    -226.097E-03     136.690E-03
             861     13.6414E-03     132.396E-03    -4.09437E+06     83.2731E+06     92.3071E+06     1.17240E+06    -226.490E-03     452.827E-03    -226.337E-03     128.453E-03    -229.358E-03     455.709E-03    -225.991E-03     111.964E-03
             862     717.355E-06     130.771E-03    -139.252E+06    -270.761E+06    -137.243E+06     257.330E+03    -226.930E-03     453.490E-03    -226.560E-03     19.3214E-03    -227.090E-03     452.592E-03    -226.652E-03     17.1599E-03
             863     1.43470E-03     130.808E-03    -134.617E+06    -255.315E+06    -124.689E+06     1.10049E+06    -227.001E-03     453.754E-03    -226.753E-03     35.4211E-03    -227.291E-03     453.022E-03    -226.811E-03     31.4758E-03
             864     2.15223E-03     130.868E-03    -128.204E+06    -239.561E+06    -106.495E+06     1.78836E+06    -227.299E-03     454.130E-03    -226.831E-03     52.1879E-03    -227.793E-03     453.627E-03    -226.830E-03     46.3720E-03
             865     2.86958E-03     130.951E-03    -120.566E+06    -217.016E+06    -86.7586E+06     2.44495E+06    -227.658E-03     454.556E-03    -226.897E-03     68.6162E-03    -228.433E-03     454.383E-03    -226.841E-03     60.9322E-03
             866     3.58658E-03     131.057E-03    -111.614E+06    -189.186E+06    -65.7167E+06     2.92213E+06    -228.048E-03     454.998E-03    -226.950E-03     84.4989E-03    -229.173E-03     455.246E-03    -226.842E-03     74.9461E-03
             867     4.30403E-03     131.183E-03    -102.140E+06    -162.901E+06    -45.3095E+06     3.44528E+06    -228.486E-03     455.476E-03    -226.990E-03     99.8484E-03    -230.014E-03     456.194E-03    -226.832E-03     88.4831E-03
             868     5.02148E-03     131.331E-03    -92.5357E+06    -141.447E+06    -26.6317E+06     4.01043E+06    -228.962E-03     455.980E-03    -227.018E-03     114.305E-03    -230.925E-03     457.189E-03    -226.812E-03     101.212E-03
             869     5.73911E-03     131.497E-03    -83.0790E+06    -115.001E+06    -9.10491E+06     4.41301E+06    -229.489E-03     456.518E-03    -227.028E-03     127.683E-03    -231.917E-03     458.269E-03    -226.787E-03     112.980E-03
             870     6.45668E-03     131.681E-03    -73.9344E+06    -80.2956E+06     7.73834E+06     4.84287E+06    -229.974E-03     456.995E-03    -227.022E-03     139.666E-03    -232.877E-03     459.329E-03    -226.759E-03     123.524E-03
             871     7.17440E-03     131.879E-03    -65.3193E+06    -47.3355E+06     23.5039E+06     5.61430E+06    -230.339E-03     457.346E-03    -227.007E-03     149.766E-03    -233.682E-03     460.221E-03    -226.726E-03     132.401E-03
             872     7.89216E-03     132.091E-03    -56.8926E+06    -8.16515E+06     39.2957E+06     6.43009E+06    -230.598E-03     457.575E-03    -226.976E-03     157.844E-03    -234.335E-03     460.967E-03    -226.686E-03     139.469E-03
             873     8.60981E-03     132.313E-03    -49.4806E+06     21.9014E+06     50.9584E+06     6.69884E+06    -230.728E-03     457.660E-03    -226.932E-03     164.026E-03    -234.777E-03     461.464E-03    -226.637E-03     144.842E-03
             874     9.32767E-03     132.542E-03    -42.7093E+06     31.5089E+06     57.3713E+06     6.43570E+06    -230.687E-03     457.567E-03    -226.881E-03     168.397E-03    -234.933E-03     461.607E-03    -226.577E-03     148.624E-03
             875     10.0464E-03     132.776E-03    -35.8117E+06     37.9687E+06     63.7627E+06     5.46028E+06    -230.504E-03     457.324E-03    -226.820E-03     170.907E-03    -234.873E-03     461.515E-03    -226.504E-03     150.667E-03
             876     10.7648E-03     133.011E-03    -29.4606E+06     48.3789E+06     75.0929E+06     4.32860E+06    -230.133E-03     456.900E-03    -226.767E-03     171.237E-03    -234.553E-03     461.169E-03    -226.419E-03     150.697E-03
             877     11.4836E-03     133.243E-03    -22.3790E+06     47.2481E+06       82.92E+06     3.65438E+06    -229.519E-03     456.219E-03    -226.700E-03     169.398E-03    -233.877E-03     460.425E-03    -226.321E-03     148.783E-03
             878     12.2030E-03     133.470E-03    -15.5498E+06     58.0289E+06     87.8472E+06     2.14836E+06    -228.453E-03     455.041E-03    -226.588E-03     161.255E-03    -232.526E-03     459.010E-03    -226.210E-03     141.106E-03
             879     12.9233E-03     133.677E-03    -10.1499E+06     80.1979E+06     93.5649E+06     2.09154E+06    -228.006E-03     454.474E-03    -226.467E-03     155.529E-03    -231.940E-03     458.384E-03    -226.101E-03     135.561E-03
             880     13.6405E-03     133.888E-03    -4.76985E+06     85.1721E+06     94.1693E+06     1.46924E+06    -226.642E-03     452.998E-03    -226.356E-03     127.493E-03    -229.518E-03     455.886E-03    -226.001E-03     110.971E-03
             881     717.289E-06     132.262E-03    -139.184E+06    -271.789E+06    -136.352E+06     323.752E+03    -227.110E-03     453.990E-03    -226.880E-03     19.2672E-03    -227.269E-03     453.086E-03    -226.966E-03     17.1060E-03
             882     1.43443E-03     132.299E-03    -135.487E+06    -257.412E+06    -125.479E+06     441.216E+03    -227.219E-03     454.213E-03    -226.994E-03     35.4471E-03    -227.509E-03     453.472E-03    -227.052E-03     31.4852E-03
             883     2.15145E-03     132.359E-03    -129.222E+06    -242.312E+06    -107.900E+06     1.35258E+06    -227.501E-03     454.561E-03    -227.060E-03     52.1374E-03    -227.994E-03     454.048E-03    -227.061E-03     46.3055E-03
             884     2.86855E-03     132.443E-03    -121.166E+06    -219.442E+06    -87.6456E+06     2.02290E+06    -227.804E-03     454.918E-03    -227.114E-03     68.5734E-03    -228.577E-03     454.736E-03    -227.059E-03     60.8660E-03
             885     3.58609E-03     132.548E-03    -112.192E+06    -191.646E+06    -66.7574E+06     2.51816E+06    -228.182E-03     455.333E-03    -227.151E-03     84.5082E-03    -229.306E-03     455.572E-03    -227.044E-03     74.9335E-03
             886     4.30333E-03     132.675E-03    -102.920E+06    -165.197E+06    -45.9135E+06     3.12151E+06    -228.625E-03     455.806E-03    -227.182E-03     99.7636E-03    -230.152E-03     456.515E-03    -227.023E-03     88.3698E-03
             887     5.02073E-03     132.822E-03    -93.3786E+06    -143.715E+06    -27.1110E+06     3.54818E+06    -229.104E-03     456.310E-03    -227.206E-03     114.056E-03    -231.067E-03     457.510E-03    -226.997E-03     100.926E-03
             888     5.73811E-03     132.988E-03    -83.8957E+06    -117.359E+06    -9.74943E+06     4.19362E+06    -229.630E-03     456.844E-03    -227.214E-03     127.288E-03    -232.056E-03     458.584E-03    -226.971E-03     112.550E-03
             889     6.45560E-03     133.172E-03    -75.0893E+06    -83.0257E+06     6.78121E+06     5.17505E+06    -230.130E-03     457.338E-03    -227.208E-03     138.972E-03    -233.027E-03     459.654E-03    -226.945E-03     122.806E-03
             890     7.17299E-03     133.371E-03    -66.5839E+06    -50.1909E+06     22.3651E+06     6.07942E+06    -230.520E-03     457.719E-03    -227.199E-03     148.929E-03    -233.857E-03     460.576E-03    -226.918E-03     131.535E-03
             891     7.89046E-03     133.583E-03    -58.1184E+06    -11.3378E+06     37.9365E+06     6.98405E+06    -230.707E-03     457.879E-03    -227.171E-03     157.071E-03    -234.435E-03     461.249E-03    -226.881E-03     138.684E-03
             892     8.60839E-03     133.804E-03    -49.5450E+06     19.8853E+06     49.9937E+06     8.20301E+06    -230.707E-03     457.826E-03    -227.120E-03     163.204E-03    -234.737E-03     461.607E-03    -226.827E-03     144.051E-03
             893     9.32656E-03     134.033E-03    -41.8845E+06     32.2418E+06     58.1767E+06     8.55525E+06    -230.589E-03     457.647E-03    -227.059E-03     167.537E-03    -234.820E-03     461.676E-03    -226.754E-03     147.798E-03
             894     10.0444E-03     134.265E-03    -35.7333E+06     40.5295E+06     66.0474E+06     6.76045E+06    -230.303E-03     457.290E-03    -226.987E-03     169.962E-03    -234.663E-03     461.475E-03    -226.664E-03     149.754E-03
             895     10.7634E-03     134.500E-03    -28.7925E+06     51.0766E+06     76.6380E+06     4.89001E+06    -229.730E-03     456.638E-03    -226.908E-03     169.748E-03    -234.124E-03     460.889E-03    -226.557E-03     149.267E-03
             896     11.4826E-03     134.731E-03    -21.8663E+06      49.688E+06     83.3325E+06     3.50202E+06    -228.893E-03     455.700E-03    -226.808E-03     167.266E-03    -233.219E-03     459.884E-03    -226.431E-03     146.683E-03
             897     12.2018E-03     134.957E-03    -16.4118E+06     59.3648E+06     88.4231E+06     2.96824E+06    -227.894E-03     454.564E-03    -226.670E-03     159.718E-03    -231.943E-03     458.510E-03    -226.290E-03     139.642E-03
             898     12.9196E-03     135.165E-03    -11.8862E+06     80.3783E+06     94.2594E+06     2.20768E+06    -226.933E-03     453.440E-03    -226.508E-03     155.712E-03    -230.867E-03     457.345E-03    -226.136E-03     135.867E-03
             899     13.6408E-03     135.375E-03    -6.54124E+06     87.0688E+06     95.2278E+06     767.499E+03    -225.664E-03     452.000E-03    -226.336E-03     128.875E-03    -228.554E-03     454.900E-03    -225.977E-03     112.495E-03
             900     716.846E-06     133.754E-03    -140.000E+06    -273.450E+06    -137.688E+06     579.676E+03    -227.418E-03     454.567E-03    -227.149E-03     19.3030E-03    -227.576E-03     453.658E-03    -227.238E-03     17.1364E-03
             901     1.43402E-03     133.791E-03    -136.765E+06    -259.028E+06    -126.219E+06     1.15467E+06    -227.436E-03     454.707E-03    -227.270E-03     35.4766E-03    -227.729E-03     453.960E-03    -227.327E-03     31.5296E-03
             902     2.15106E-03     133.852E-03    -130.890E+06    -244.299E+06    -108.965E+06     1.04242E+06    -227.702E-03     455.016E-03    -227.313E-03     52.1466E-03    -228.199E-03     454.497E-03    -227.314E-03     46.3040E-03
             903     2.86826E-03     133.935E-03    -122.617E+06    -221.420E+06    -88.8952E+06     1.24888E+06    -228.008E-03     455.363E-03    -227.355E-03     68.4698E-03    -228.785E-03     455.176E-03    -227.300E-03     60.7245E-03
             904     3.58517E-03     134.040E-03    -113.799E+06    -193.908E+06    -68.2298E+06     1.97352E+06    -228.373E-03     455.758E-03    -227.385E-03     84.2096E-03    -229.499E-03     455.989E-03    -227.280E-03     74.5978E-03
             905     4.30237E-03     134.167E-03    -104.235E+06    -167.475E+06    -47.2724E+06     2.60392E+06    -228.834E-03     456.249E-03    -227.415E-03     99.3406E-03    -230.361E-03     456.949E-03    -227.257E-03     87.9075E-03
             906     5.01948E-03     134.314E-03    -94.7503E+06    -145.885E+06    -28.6660E+06     3.24693E+06    -229.398E-03     456.843E-03    -227.445E-03     113.535E-03    -231.362E-03     458.036E-03    -227.240E-03     100.353E-03
             907     5.73667E-03     134.480E-03    -85.6808E+06    -120.511E+06    -11.5829E+06     4.09141E+06    -229.952E-03     457.421E-03    -227.469E-03     126.621E-03    -232.376E-03     459.147E-03    -227.228E-03     111.833E-03
             908     6.45376E-03     134.664E-03    -76.3851E+06    -86.3314E+06     5.11034E+06     5.03209E+06    -230.380E-03     457.855E-03    -227.475E-03     138.192E-03    -233.271E-03     460.153E-03    -227.213E-03     121.983E-03
             909     7.17104E-03     134.863E-03    -67.2543E+06    -53.6961E+06     20.8217E+06     6.16805E+06    -230.682E-03     458.150E-03    -227.468E-03     148.035E-03    -234.007E-03     460.985E-03    -227.188E-03     130.605E-03
             910     7.88858E-03     135.074E-03    -58.9355E+06    -15.8225E+06     36.1085E+06     8.01031E+06    -230.758E-03     458.193E-03    -227.434E-03     155.950E-03    -234.466E-03     461.531E-03    -227.146E-03     137.558E-03
             911     8.60615E-03     135.295E-03    -51.8888E+06     17.4292E+06     47.9082E+06     8.86365E+06    -230.635E-03     458.003E-03    -227.369E-03     161.899E-03    -234.653E-03     461.760E-03    -227.079E-03     142.743E-03
             912     9.32407E-03     135.523E-03    -44.7801E+06     31.9461E+06     55.8761E+06     8.37837E+06    -230.422E-03     457.710E-03    -227.288E-03     166.128E-03    -234.647E-03     461.727E-03    -226.990E-03     146.367E-03
             913     10.0428E-03     135.755E-03    -37.1067E+06     43.0132E+06     66.8677E+06     8.37827E+06    -230.048E-03     457.254E-03    -227.206E-03     168.617E-03    -234.393E-03     461.425E-03    -226.880E-03     148.470E-03
             914     10.7609E-03     135.989E-03    -31.2715E+06     56.3458E+06     79.5257E+06     6.48409E+06    -229.280E-03     456.385E-03    -227.105E-03     168.802E-03    -233.672E-03     460.635E-03    -226.744E-03     148.423E-03
             915     11.4797E-03     136.219E-03    -26.3313E+06     51.4961E+06     83.8135E+06     3.60622E+06    -228.270E-03     455.230E-03    -226.960E-03     167.122E-03    -232.611E-03     459.418E-03    -226.577E-03     146.619E-03
             916     12.1995E-03     136.444E-03    -19.0925E+06     58.9820E+06     88.1051E+06     3.04187E+06    -226.962E-03     453.726E-03    -226.764E-03     160.285E-03    -231.014E-03     457.663E-03    -226.381E-03     140.358E-03
             917     12.9222E-03     136.652E-03    -11.2724E+06     84.0362E+06     96.2278E+06     1.63403E+06    -225.980E-03     452.524E-03    -226.544E-03     155.005E-03    -229.897E-03     456.421E-03    -226.168E-03     135.266E-03
             918     13.6436E-03     136.857E-03    -5.38890E+06     89.6369E+06     97.4456E+06    -349.624E+03    -225.085E-03     451.422E-03    -226.337E-03     127.389E-03    -227.956E-03     454.309E-03    -225.972E-03     111.037E-03
             919     716.899E-06     135.246E-03    -143.319E+06    -274.495E+06    -140.490E+06    -181.508E+03    -227.758E-03     455.199E-03    -227.441E-03     19.0635E-03    -227.927E-03     454.293E-03    -227.538E-03     16.8950E-03
             920     1.43352E-03     135.284E-03    -138.715E+06    -261.089E+06    -128.618E+06     389.773E+03    -227.744E-03     455.332E-03    -227.588E-03     35.3345E-03    -228.040E-03     454.582E-03    -227.652E-03     31.3600E-03
             921     2.15045E-03     135.344E-03    -132.220E+06    -244.984E+06    -110.811E+06     989.166E+03    -227.994E-03     455.621E-03    -227.627E-03     51.8147E-03    -228.493E-03     455.103E-03    -227.634E-03     45.9438E-03
             922     2.86710E-03     135.428E-03    -124.709E+06    -222.596E+06    -90.5883E+06     1.06642E+06    -228.317E-03     455.988E-03    -227.672E-03     68.0011E-03    -229.099E-03     455.801E-03    -227.621E-03     60.2187E-03
             923     3.58411E-03     135.533E-03    -115.775E+06    -195.744E+06    -69.8636E+06     1.09054E+06    -228.684E-03     456.392E-03    -227.708E-03     83.7017E-03    -229.815E-03     456.619E-03    -227.605E-03     74.0302E-03
             924     4.30099E-03     135.660E-03    -106.239E+06    -170.159E+06    -49.6865E+06     1.83853E+06    -229.170E-03     456.911E-03    -227.742E-03     98.7501E-03    -230.698E-03     457.602E-03    -227.589E-03     87.2610E-03
             925     5.01796E-03     135.807E-03    -96.4573E+06    -148.475E+06    -30.9093E+06     2.76691E+06    -229.772E-03     457.555E-03    -227.783E-03     112.846E-03    -231.733E-03     458.736E-03    -227.582E-03     99.6112E-03
             926     5.73460E-03     135.974E-03    -86.6732E+06    -122.804E+06    -13.3113E+06     3.23759E+06    -230.291E-03     458.108E-03    -227.818E-03     125.807E-03    -232.709E-03     459.822E-03    -227.580E-03     110.957E-03
             927     6.45153E-03     136.157E-03    -77.1208E+06    -90.3953E+06     2.99506E+06     4.15167E+06    -230.654E-03     458.481E-03    -227.827E-03     137.329E-03    -233.533E-03     460.757E-03    -227.569E-03     121.057E-03
             928     7.16854E-03     136.356E-03    -68.2332E+06    -59.1569E+06     18.1273E+06     6.16252E+06    -230.876E-03     458.693E-03    -227.817E-03     147.001E-03    -234.183E-03     461.495E-03    -227.541E-03     129.532E-03
             929     7.88561E-03     136.566E-03    -60.1046E+06    -22.6275E+06     33.0772E+06     8.86334E+06    -230.835E-03     458.609E-03    -227.774E-03     154.721E-03    -234.521E-03     461.906E-03    -227.489E-03     136.312E-03
             930     8.60332E-03     136.787E-03    -51.7900E+06     15.3345E+06     47.3307E+06     10.9306E+06    -230.575E-03     458.269E-03    -227.694E-03     160.685E-03    -234.573E-03     462.001E-03    -227.405E-03     141.541E-03
             931     9.32131E-03     137.014E-03    -44.6155E+06     34.0432E+06     57.1112E+06     10.5559E+06    -230.194E-03     457.784E-03    -227.590E-03     164.988E-03    -234.402E-03     461.788E-03    -227.289E-03     145.282E-03
             932     10.0393E-03     137.245E-03    -38.5362E+06     43.1122E+06     65.6151E+06     9.18349E+06    -229.461E-03     456.919E-03    -227.458E-03     167.611E-03    -233.784E-03     461.068E-03    -227.136E-03     147.555E-03
             933     10.7590E-03     137.477E-03    -30.6995E+06     61.0818E+06     80.0642E+06     7.71133E+06    -228.343E-03     455.638E-03    -227.295E-03     167.967E-03    -232.712E-03     459.883E-03    -226.939E-03     147.722E-03
             934     11.4797E-03     137.706E-03    -22.2760E+06     56.0877E+06     87.7689E+06     5.64163E+06    -227.414E-03     454.511E-03    -227.098E-03     166.226E-03    -231.720E-03     458.683E-03    -226.708E-03     145.872E-03
             935     12.2005E-03     137.930E-03    -16.3672E+06     61.7219E+06     91.3004E+06     2.51721E+06    -226.296E-03     453.152E-03    -226.856E-03     158.803E-03    -230.332E-03     457.085E-03    -226.465E-03     138.861E-03
             936     12.9196E-03     138.135E-03    -10.3709E+06     86.6116E+06     98.1795E+06     161.871E+03    -225.733E-03     452.342E-03    -226.609E-03     154.324E-03    -229.650E-03     456.246E-03    -226.229E-03     134.544E-03
             937     13.6380E-03     138.345E-03    -3.80995E+06     89.9233E+06     98.9972E+06     611.861E+03    -224.084E-03     450.452E-03    -226.368E-03     128.161E-03    -226.962E-03     453.348E-03    -225.998E-03     111.836E-03
             938     716.327E-06     136.741E-03    -145.031E+06    -274.288E+06    -142.032E+06    -84.2800E+03    -228.008E-03     456.052E-03    -228.044E-03     18.7774E-03    -228.184E-03     455.151E-03    -228.146E-03     16.6266E-03
             939     1.43303E-03     136.778E-03    -141.299E+06    -261.981E+06    -130.969E+06    -123.801E+03    -228.161E-03     456.177E-03    -228.015E-03     35.1139E-03    -228.466E-03     455.430E-03    -228.085E-03     31.1060E-03
             940     2.14934E-03     136.839E-03    -135.191E+06    -245.807E+06    -114.166E+06    -189.465E+03    -228.406E-03     456.455E-03    -228.049E-03     51.5813E-03    -228.915E-03     455.943E-03    -228.067E-03     45.6596E-03
             941     2.86604E-03     136.922E-03    -127.122E+06    -223.541E+06    -93.6208E+06     190.058E+03    -228.711E-03     456.804E-03    -228.093E-03     67.6739E-03    -229.499E-03     456.618E-03    -228.052E-03     59.8449E-03
             942     3.58248E-03     137.027E-03    -118.380E+06    -196.639E+06    -72.4854E+06     606.559E+03    -229.161E-03     457.299E-03    -228.137E-03     83.2072E-03    -230.299E-03     457.528E-03    -228.043E-03     73.4833E-03
             943     4.29903E-03     137.154E-03    -108.979E+06    -172.363E+06    -52.1222E+06     784.545E+03    -229.679E-03     457.871E-03    -228.192E-03     98.0636E-03    -231.213E-03     458.557E-03    -228.044E-03     86.4960E-03
             944     5.01540E-03     137.302E-03    -98.7650E+06    -150.065E+06    -33.6275E+06     869.123E+03    -230.171E-03     458.411E-03    -228.240E-03     112.072E-03    -232.133E-03     459.587E-03    -228.047E-03     98.7552E-03
             945     5.73203E-03     137.468E-03    -88.5384E+06    -125.218E+06    -16.4811E+06     1.35154E+06    -230.632E-03     458.903E-03    -228.271E-03     124.855E-03    -233.044E-03     460.604E-03    -228.043E-03     109.924E-03
             946     6.44861E-03     137.651E-03    -79.2715E+06    -95.4583E+06    -404.580E+03     2.99738E+06    -230.929E-03     459.207E-03    -228.278E-03     136.152E-03    -233.796E-03     461.455E-03    -228.027E-03     119.815E-03
             947     7.16531E-03     137.849E-03    -70.2634E+06    -65.7366E+06     14.8882E+06     5.24534E+06    -230.981E-03     459.236E-03    -228.255E-03     145.754E-03    -234.269E-03     461.998E-03    -227.983E-03     128.247E-03
             948     7.88252E-03     138.059E-03    -61.0871E+06    -31.5319E+06     30.2074E+06     8.27352E+06    -230.793E-03     458.982E-03    -228.190E-03     153.485E-03    -234.450E-03     462.224E-03    -227.904E-03     135.052E-03
             949     8.59992E-03     138.279E-03    -52.6978E+06     9.83631E+06     45.1005E+06     10.9571E+06    -230.368E-03     458.441E-03    -228.073E-03     159.494E-03    -234.336E-03     462.126E-03    -227.785E-03     140.375E-03
             950     9.31805E-03     138.505E-03    -44.2657E+06     34.9330E+06     56.6106E+06     11.8429E+06    -229.760E-03     457.680E-03    -227.920E-03     163.767E-03    -233.934E-03     461.657E-03    -227.624E-03     144.155E-03
             951     10.0373E-03     138.734E-03    -35.8137E+06     46.7529E+06     67.8011E+06     9.96251E+06    -228.871E-03     456.615E-03    -227.743E-03     166.016E-03    -233.162E-03     460.748E-03    -227.420E-03     146.014E-03
             952     10.7568E-03     138.964E-03    -28.6949E+06     63.9558E+06     81.5984E+06     7.49638E+06    -227.706E-03     455.239E-03    -227.533E-03     165.780E-03    -232.041E-03     459.463E-03    -227.176E-03     145.561E-03
             953     11.4768E-03     139.192E-03    -22.3411E+06     59.5765E+06     88.0357E+06     5.54777E+06    -226.630E-03     453.917E-03    -227.287E-03     163.866E-03    -230.900E-03     458.064E-03    -226.901E-03     143.583E-03
             954     12.1969E-03     139.415E-03    -15.8863E+06     66.8639E+06     93.8858E+06     3.37933E+06    -225.264E-03     452.265E-03    -227.001E-03     157.224E-03    -229.275E-03     456.185E-03    -226.606E-03     137.396E-03
             955     12.9193E-03     139.620E-03    -10.6697E+06     88.6231E+06     101.148E+06     2.49679E+06    -223.922E-03     450.600E-03    -226.678E-03     154.757E-03    -227.820E-03     454.482E-03    -226.285E-03     135.282E-03
             956     13.6434E-03     139.830E-03    -6.48057E+06     90.6667E+06     100.580E+06     1.19265E+06    -222.479E-03     448.815E-03    -226.337E-03     128.831E-03    -225.362E-03     451.706E-03    -225.956E-03     112.704E-03
             957     716.112E-06     138.235E-03    -147.840E+06    -274.217E+06    -145.077E+06    -102.733E+03    -228.602E-03     457.171E-03    -228.569E-03     18.7264E-03    -228.787E-03     456.279E-03    -228.683E-03     16.5311E-03
             958     1.43207E-03     138.273E-03    -143.706E+06    -261.602E+06    -133.278E+06    -111.938E+03    -228.687E-03     457.259E-03    -228.572E-03     34.8253E-03    -229.000E-03     456.520E-03    -228.651E-03     30.7991E-03
             959     2.14840E-03     138.334E-03    -137.639E+06    -244.935E+06    -116.168E+06    -512.583E+03    -228.880E-03     457.472E-03    -228.592E-03     51.1537E-03    -229.398E-03     456.969E-03    -228.619E-03     45.2077E-03
             960     2.86440E-03     138.417E-03    -129.801E+06    -223.634E+06    -96.2175E+06    -901.997E+03    -229.246E-03     457.875E-03    -228.629E-03     67.2082E-03    -230.042E-03     457.696E-03    -228.598E-03     59.3293E-03
             961     3.58063E-03     138.523E-03    -120.238E+06    -197.298E+06    -75.1875E+06    -897.420E+03    -229.756E-03     458.439E-03    -228.683E-03     82.7832E-03    -230.897E-03     458.670E-03    -228.598E-03     72.9888E-03
             962     4.29645E-03     138.650E-03    -110.182E+06    -172.921E+06    -54.4720E+06    -1.02423E+06    -230.285E-03     459.037E-03    -228.752E-03     97.5234E-03    -231.820E-03     459.724E-03    -228.613E-03     85.8620E-03
             963     5.01261E-03     138.797E-03    -100.449E+06    -151.147E+06    -36.1827E+06    -855.804E+03    -230.736E-03     459.547E-03    -228.811E-03     111.288E-03    -232.698E-03     460.721E-03    -228.627E-03     97.8721E-03
             964     5.72868E-03     138.963E-03    -91.1490E+06    -127.979E+06    -19.5259E+06     36.3470E+03    -231.062E-03     459.906E-03    -228.844E-03     123.799E-03    -233.471E-03     461.594E-03    -228.624E-03     108.789E-03
             965     6.44479E-03     139.146E-03    -81.5681E+06    -100.058E+06    -3.41400E+06     1.13293E+06    -231.140E-03     459.978E-03    -228.837E-03     134.877E-03    -233.995E-03     462.197E-03    -228.591E-03     118.469E-03
             966     7.16148E-03     139.343E-03    -71.8542E+06    -72.0780E+06     11.8346E+06     2.86206E+06    -230.972E-03     459.754E-03    -228.782E-03     144.397E-03    -234.235E-03     462.472E-03    -228.514E-03     126.839E-03
             967     7.87849E-03     139.553E-03    -62.4508E+06    -41.2434E+06     26.2076E+06     5.62471E+06    -230.627E-03     459.300E-03    -228.672E-03     152.061E-03    -234.246E-03     462.474E-03    -228.391E-03     133.606E-03
             968     8.59634E-03     139.771E-03    -52.9957E+06     1.38925E+06     41.7497E+06     9.42694E+06    -230.086E-03     458.593E-03    -228.507E-03     157.883E-03    -234.007E-03     462.209E-03    -228.223E-03     138.786E-03
             969     9.31472E-03     139.995E-03    -44.5459E+06     33.7850E+06     54.2388E+06     10.6077E+06    -229.275E-03     457.574E-03    -228.299E-03     161.819E-03    -233.411E-03     461.514E-03    -228.012E-03     142.236E-03
             970     10.0335E-03     140.223E-03    -37.1634E+06     49.6170E+06     65.4709E+06     9.52185E+06    -228.212E-03     456.275E-03    -228.063E-03     164.057E-03    -232.471E-03     460.388E-03    -227.754E-03     144.130E-03
             971     10.7529E-03     140.452E-03    -29.9608E+06     64.6131E+06     79.7569E+06     8.59029E+06    -227.000E-03     454.800E-03    -227.801E-03     164.733E-03    -231.312E-03     459.005E-03    -227.452E-03     144.620E-03
             972     11.4736E-03     140.677E-03    -23.7519E+06     65.1208E+06     89.8299E+06     6.87014E+06    -225.723E-03     453.225E-03    -227.502E-03     163.869E-03    -230.002E-03     457.391E-03    -227.113E-03     143.695E-03
             973     12.1959E-03     140.898E-03    -18.4046E+06     71.9444E+06     96.4480E+06     4.28608E+06    -224.044E-03     451.191E-03    -227.147E-03     157.089E-03    -228.063E-03     455.121E-03    -226.743E-03     137.415E-03
             974     12.9185E-03     141.100E-03    -11.6537E+06     89.0497E+06     102.680E+06     2.26707E+06    -222.235E-03     448.976E-03    -226.741E-03     152.473E-03    -226.104E-03     452.822E-03    -226.340E-03     133.122E-03
             975     13.6420E-03     141.307E-03    -4.37657E+06     93.9220E+06     104.174E+06     1.96531E+06    -220.627E-03     446.942E-03    -226.315E-03     127.744E-03    -223.487E-03     449.818E-03    -225.924E-03     111.753E-03
             976     715.541E-06     139.733E-03    -150.151E+06    -273.111E+06    -147.521E+06    -246.711E+03    -229.451E-03     458.409E-03    -228.958E-03     18.8634E-03    -229.647E-03     457.530E-03    -229.082E-03     16.6397E-03
             977     1.43113E-03     139.770E-03    -146.233E+06    -260.307E+06    -135.762E+06    -993.283E+03    -229.401E-03     458.613E-03    -229.211E-03     34.6025E-03    -229.725E-03     457.887E-03    -229.301E-03     30.5367E-03
             978     2.14672E-03     139.831E-03    -139.558E+06    -243.258E+06    -118.373E+06    -1.27638E+06    -229.593E-03     458.854E-03    -229.262E-03     50.8013E-03    -230.119E-03     458.365E-03    -229.298E-03     44.8004E-03
             979     2.86254E-03     139.914E-03    -131.311E+06    -221.704E+06    -98.2025E+06    -2.02541E+06    -229.987E-03     459.305E-03    -229.318E-03     66.6590E-03    -230.789E-03     459.139E-03    -229.297E-03     58.7088E-03
             980     3.57803E-03     140.020E-03    -121.905E+06    -197.110E+06    -77.4076E+06    -2.78030E+06    -230.435E-03     459.820E-03    -229.385E-03     81.9846E-03    -231.576E-03     460.053E-03    -229.309E-03     72.1089E-03
             981     4.29379E-03     140.147E-03    -111.992E+06    -172.862E+06    -56.8299E+06    -2.53697E+06    -230.897E-03     460.351E-03    -229.454E-03     96.4893E-03    -232.430E-03     461.037E-03    -229.325E-03     84.7558E-03
             982     5.00909E-03     140.294E-03    -102.542E+06    -152.005E+06    -38.1888E+06    -2.10201E+06    -231.307E-03     460.819E-03    -229.512E-03     110.142E-03    -233.267E-03     461.986E-03    -229.334E-03     96.6440E-03
             983     5.72453E-03     140.460E-03    -92.9113E+06    -129.810E+06    -21.5579E+06    -1.82074E+06    -231.411E-03     460.939E-03    -229.529E-03     122.600E-03    -233.813E-03     462.614E-03    -229.313E-03     107.501E-03
             984     6.44066E-03     140.642E-03    -83.2327E+06    -102.791E+06    -6.18967E+06    -1.31206E+06    -231.266E-03     460.748E-03    -229.482E-03     133.641E-03    -234.107E-03     462.946E-03    -229.243E-03     117.160E-03
             985     7.15704E-03     140.839E-03    -73.9498E+06    -77.6563E+06     8.02601E+06     19.3446E+03    -231.007E-03     460.389E-03    -229.381E-03     142.962E-03    -234.246E-03     463.066E-03    -229.121E-03     125.347E-03
             986     7.87428E-03     141.046E-03    -64.5277E+06    -48.6312E+06     21.9681E+06     1.87509E+06    -230.528E-03     459.755E-03    -229.227E-03     150.367E-03    -234.109E-03     462.870E-03    -228.953E-03     131.880E-03
             987     8.59179E-03     141.263E-03    -54.9222E+06    -10.2193E+06     36.5897E+06      5.0471E+06    -229.695E-03     458.704E-03    -229.009E-03     156.031E-03    -233.561E-03     462.232E-03    -228.732E-03     136.939E-03
             988     9.31008E-03     141.486E-03    -46.1348E+06     27.7237E+06     50.6749E+06     9.91797E+06    -228.487E-03     457.214E-03    -228.727E-03     160.233E-03    -232.571E-03     461.086E-03    -228.447E-03     140.776E-03
             989     10.0296E-03     141.712E-03    -39.4455E+06     52.3243E+06     62.9728E+06     11.2128E+06    -227.060E-03     455.452E-03    -228.392E-03     163.127E-03    -231.286E-03     459.541E-03    -228.096E-03     143.418E-03
             990     10.7510E-03     141.938E-03    -33.6919E+06     67.2236E+06     76.9256E+06     8.58851E+06    -225.604E-03     453.628E-03    -228.024E-03     164.362E-03    -229.896E-03     457.816E-03    -227.688E-03     144.472E-03
             991     11.4730E-03     142.162E-03    -25.8636E+06     68.9737E+06     89.5983E+06     6.00600E+06    -224.263E-03     451.893E-03    -227.630E-03     163.836E-03    -228.539E-03     456.062E-03    -227.244E-03     143.826E-03
             992     12.1947E-03     142.380E-03    -16.6185E+06     74.7318E+06     99.1489E+06     4.57545E+06    -222.807E-03     450.003E-03    -227.196E-03     157.888E-03    -226.830E-03     453.945E-03    -226.784E-03     138.341E-03
             993     12.9174E-03     142.582E-03    -10.6380E+06     90.6538E+06     106.177E+06     4.11425E+06    -221.437E-03     448.166E-03    -226.730E-03     154.184E-03    -225.320E-03     452.026E-03    -226.315E-03     134.974E-03
             994     13.6411E-03     142.783E-03    -6.16452E+06     97.0442E+06     106.661E+06     2.22681E+06    -218.915E-03     445.141E-03    -226.226E-03     130.579E-03    -221.825E-03     448.065E-03    -225.825E-03     114.641E-03
             995     715.266E-06     141.232E-03    -151.729E+06    -270.889E+06    -149.514E+06    -803.332E+03    -230.277E-03     460.015E-03    -229.738E-03     18.6133E-03    -230.481E-03     459.152E-03    -229.872E-03     16.3645E-03
             996     1.43019E-03     141.270E-03    -147.913E+06    -257.505E+06    -137.816E+06    -1.39279E+06    -230.280E-03     460.312E-03    -230.032E-03     34.0145E-03    -230.612E-03     459.604E-03    -230.133E-03     29.9150E-03
             997     2.14520E-03     141.330E-03    -141.527E+06    -240.298E+06    -120.459E+06    -2.74150E+06    -230.533E-03     460.651E-03    -230.118E-03     50.1118E-03    -231.069E-03     460.181E-03    -230.167E-03     44.0357E-03
             998     2.85992E-03     141.414E-03    -133.306E+06    -219.455E+06    -100.685E+06    -3.60364E+06    -230.886E-03     461.084E-03    -230.198E-03     65.9391E-03    -231.695E-03     460.933E-03    -230.190E-03     57.9041E-03
             999     3.57480E-03     141.520E-03    -124.295E+06    -195.678E+06    -79.4736E+06    -3.72387E+06    -231.237E-03     461.510E-03    -230.273E-03     81.0587E-03    -232.385E-03     461.752E-03    -230.206E-03     71.1050E-03
            1000     4.28951E-03     141.647E-03    -115.059E+06    -172.507E+06    -59.2150E+06    -3.66956E+06    -231.511E-03     461.835E-03    -230.324E-03     95.5348E-03    -233.050E-03     462.525E-03    -230.203E-03     83.7177E-03
            1001     5.00470E-03     141.794E-03    -105.374E+06    -151.439E+06    -41.0121E+06    -3.85297E+06    -231.661E-03     461.997E-03    -230.336E-03     109.085E-03    -233.621E-03     463.164E-03    -230.168E-03     95.5194E-03
            1002     5.72017E-03     141.959E-03    -95.6744E+06    -130.005E+06    -24.4634E+06    -4.27186E+06    -231.615E-03     461.911E-03    -230.296E-03     121.357E-03    -234.010E-03     463.576E-03    -230.091E-03     106.197E-03
            1003     6.43590E-03     142.140E-03    -86.5302E+06    -105.124E+06    -9.51864E+06    -3.71612E+06    -231.408E-03     461.604E-03    -230.197E-03     132.234E-03    -234.233E-03     463.777E-03    -229.966E-03     115.712E-03
            1004     7.15237E-03     142.335E-03    -77.5059E+06    -80.8850E+06     4.45028E+06    -2.74601E+06    -231.015E-03     461.059E-03    -230.045E-03     141.415E-03    -234.230E-03     463.699E-03    -229.793E-03     123.790E-03
            1005     7.86893E-03     142.541E-03    -68.8537E+06    -54.0979E+06     17.6636E+06    -1.17706E+06    -230.234E-03     460.063E-03    -229.829E-03     148.890E-03    -233.784E-03     463.125E-03    -229.563E-03     130.444E-03
            1006     8.58676E-03     142.756E-03    -61.3623E+06    -20.5918E+06     30.5242E+06     1.88193E+06    -228.893E-03     458.419E-03    -229.526E-03     154.812E-03    -232.722E-03     461.869E-03    -229.255E-03     135.835E-03
            1007     9.30618E-03     142.975E-03    -53.2952E+06     17.3307E+06     43.6250E+06     5.04284E+06    -227.214E-03     456.340E-03    -229.126E-03     159.287E-03    -231.256E-03     460.128E-03    -228.856E-03     139.998E-03
            1008     10.0272E-03     143.199E-03    -43.1233E+06     48.6386E+06     56.7855E+06     8.13430E+06    -225.565E-03     454.221E-03    -228.655E-03     162.299E-03    -229.740E-03     458.250E-03    -228.379E-03     142.817E-03
            1009     10.7486E-03     143.422E-03    -33.6964E+06     71.3292E+06     73.9349E+06     9.07980E+06    -223.872E-03     452.032E-03    -228.160E-03     163.798E-03    -228.103E-03     456.183E-03    -227.845E-03     144.255E-03
            1010     11.4715E-03     143.643E-03    -27.4656E+06     74.4964E+06     89.0978E+06     5.81176E+06    -222.142E-03     449.786E-03    -227.643E-03     164.235E-03    -226.366E-03     453.918E-03    -227.266E-03     144.679E-03
            1011     12.1964E-03     143.861E-03    -22.3884E+06     75.1978E+06     98.0498E+06     3.08205E+06    -220.587E-03     447.665E-03    -227.079E-03     159.772E-03    -224.592E-03     451.574E-03    -226.665E-03     140.662E-03
            1012     12.9221E-03     144.060E-03    -14.0555E+06     91.6973E+06     107.170E+06     2.62906E+06    -219.732E-03     446.233E-03    -226.501E-03     156.699E-03    -223.637E-03     450.103E-03    -226.078E-03     137.730E-03
            1013     13.6482E-03     144.261E-03     -5.7758E+06     100.214E+06     109.186E+06     1.65188E+06    -218.507E-03     444.450E-03    -225.943E-03     131.590E-03    -221.427E-03     447.388E-03    -225.534E-03     115.736E-03
            1014     714.059E-06     142.734E-03    -152.635E+06    -267.824E+06    -149.543E+06    -779.650E+03    -231.181E-03     462.263E-03    -231.082E-03     18.3110E-03    -231.394E-03     461.417E-03    -231.220E-03     16.0308E-03
            1015     1.42835E-03     142.772E-03    -148.346E+06    -253.335E+06    -139.047E+06    -2.10753E+06    -231.292E-03     462.424E-03    -231.132E-03     33.6666E-03    -231.630E-03     461.739E-03    -231.245E-03     29.5173E-03
            1016     2.14242E-03     142.832E-03    -142.190E+06    -235.702E+06    -121.648E+06    -3.31210E+06    -231.554E-03     462.745E-03    -231.191E-03     49.6136E-03    -232.097E-03     462.299E-03    -231.252E-03     43.4838E-03
            1017     2.85677E-03     142.916E-03    -134.634E+06    -215.835E+06    -101.611E+06    -4.29721E+06    -231.797E-03     463.051E-03    -231.254E-03     65.3907E-03    -232.614E-03     462.919E-03    -231.254E-03     57.2869E-03
            1018     3.57095E-03     143.022E-03    -125.978E+06    -193.609E+06    -81.3574E+06    -4.85195E+06    -231.982E-03     463.270E-03    -231.288E-03     80.4415E-03    -233.134E-03     463.524E-03    -231.232E-03     70.4187E-03
            1019     4.28550E-03     143.149E-03    -116.454E+06    -171.288E+06    -61.4053E+06    -5.09967E+06    -232.075E-03     463.360E-03    -231.285E-03     94.8586E-03    -233.613E-03     464.054E-03    -231.175E-03     82.9740E-03
            1020     5.00013E-03     143.295E-03    -106.754E+06    -150.056E+06    -42.9454E+06    -5.36095E+06    -231.991E-03     463.223E-03    -231.231E-03     108.143E-03    -233.943E-03     464.388E-03    -231.074E-03     94.5347E-03
            1021     5.71527E-03     143.459E-03    -97.4156E+06    -129.409E+06    -26.3877E+06    -5.40252E+06    -231.816E-03     462.938E-03    -231.123E-03     120.213E-03    -234.193E-03     464.587E-03    -230.926E-03     105.061E-03
            1022     6.43089E-03     143.639E-03    -88.1694E+06    -106.176E+06    -11.3036E+06    -5.11139E+06    -231.469E-03     462.425E-03    -230.957E-03     131.000E-03    -234.265E-03     464.564E-03    -230.731E-03     114.523E-03
            1023     7.14686E-03     143.832E-03    -79.2550E+06    -83.2473E+06     2.39222E+06    -4.07178E+06    -230.667E-03     461.390E-03    -230.723E-03     140.298E-03    -233.842E-03     463.980E-03    -230.475E-03     122.788E-03
            1024     7.86435E-03     144.036E-03    -71.3248E+06    -58.8911E+06     14.8727E+06    -2.19460E+06    -229.317E-03     459.709E-03    -230.393E-03     148.026E-03    -232.816E-03     462.703E-03    -230.129E-03     129.786E-03
            1025     8.58303E-03     144.248E-03    -62.6112E+06    -28.4407E+06     27.7910E+06     341.353E+03    -227.596E-03     457.549E-03    -229.952E-03     154.230E-03    -231.356E-03     460.905E-03    -229.681E-03     135.532E-03
            1026     9.30320E-03     144.464E-03    -53.5087E+06     12.5318E+06     42.6250E+06     2.20665E+06    -225.733E-03     455.144E-03    -229.410E-03     159.173E-03    -229.703E-03     458.845E-03    -229.138E-03     140.203E-03
            1027     10.0246E-03     144.684E-03    -45.5249E+06     41.4874E+06     54.1856E+06     2.64401E+06    -223.785E-03     452.577E-03    -228.792E-03     162.905E-03    -227.886E-03     456.507E-03    -228.515E-03     143.801E-03
            1028     10.7483E-03     144.904E-03    -36.9558E+06     66.1461E+06     67.6636E+06     5.32661E+06    -221.709E-03     449.830E-03    -228.121E-03     165.143E-03    -225.868E-03     453.896E-03    -227.825E-03     146.074E-03
            1029     11.4738E-03     145.122E-03    -27.7376E+06     81.2204E+06     86.5956E+06     6.82604E+06    -219.931E-03     447.378E-03    -227.447E-03     165.917E-03    -224.092E-03     451.478E-03    -227.092E-03     146.911E-03
            1030     12.2003E-03     145.336E-03    -19.0523E+06     79.3097E+06     99.8674E+06     4.14289E+06    -218.642E-03     445.415E-03    -226.773E-03     161.206E-03    -222.569E-03     449.266E-03    -226.361E-03     142.633E-03
            1031     12.9268E-03     145.535E-03    -11.7600E+06     93.4249E+06     108.662E+06     1.78944E+06    -218.763E-03     444.883E-03    -226.119E-03     158.169E-03    -222.632E-03     448.727E-03    -225.695E-03     139.470E-03
            1032     13.6523E-03     145.736E-03    -6.24291E+06     102.442E+06     110.230E+06     364.309E+03    -219.407E-03     444.979E-03    -225.572E-03     131.883E-03    -222.322E-03     447.915E-03    -225.160E-03     116.061E-03
            1033     713.341E-06     144.240E-03    -151.443E+06    -263.388E+06    -149.663E+06    -1.07647E+06    -232.278E-03     464.737E-03    -232.459E-03     18.2528E-03    -232.491E-03     463.912E-03    -232.606E-03     15.9405E-03
            1034     1.42668E-03     144.278E-03    -148.183E+06    -248.197E+06    -138.959E+06    -2.55753E+06    -232.412E-03     464.756E-03    -232.344E-03     33.6668E-03    -232.758E-03     464.098E-03    -232.464E-03     29.4494E-03
            1035     2.14021E-03     144.338E-03    -142.456E+06    -231.527E+06    -122.138E+06    -3.65563E+06    -232.590E-03     464.948E-03    -232.358E-03     49.4467E-03    -233.138E-03     464.523E-03    -232.427E-03     43.2772E-03
            1036     2.85340E-03     144.422E-03    -134.561E+06    -211.427E+06    -101.938E+06    -4.65028E+06    -232.666E-03     465.036E-03    -232.370E-03     64.9942E-03    -233.484E-03     464.922E-03    -232.378E-03     56.8636E-03
            1037     3.56717E-03     144.527E-03    -125.754E+06    -190.151E+06    -81.4891E+06    -5.52792E+06    -232.656E-03     464.997E-03    -232.341E-03     79.9567E-03    -233.804E-03     465.260E-03    -232.290E-03     69.9036E-03
            1038     4.28101E-03     144.653E-03    -116.276E+06    -168.900E+06    -61.6266E+06    -6.27923E+06    -232.558E-03     464.822E-03    -232.264E-03     94.1620E-03    -234.083E-03     465.513E-03    -232.158E-03     82.2753E-03
            1039     4.99545E-03     144.798E-03    -106.565E+06    -148.374E+06    -43.0926E+06    -6.53889E+06    -232.299E-03     464.431E-03    -232.132E-03     107.349E-03    -234.231E-03     465.583E-03    -231.978E-03     93.7666E-03
            1040     5.71035E-03     144.961E-03    -96.7903E+06    -128.233E+06    -26.6150E+06    -6.58890E+06    -231.841E-03     463.775E-03    -231.934E-03     119.556E-03    -234.186E-03     465.399E-03    -231.741E-03     104.489E-03
            1041     6.42585E-03     145.139E-03    -87.0370E+06    -106.388E+06    -11.6067E+06    -6.30316E+06    -231.013E-03     462.667E-03    -231.654E-03     130.589E-03    -233.761E-03     464.762E-03    -231.432E-03     114.283E-03
            1042     7.14266E-03     145.330E-03    -77.9182E+06    -86.0233E+06     1.86697E+06    -5.17687E+06    -229.653E-03     460.926E-03    -231.273E-03     140.161E-03    -232.763E-03     463.449E-03    -231.026E-03     122.919E-03
            1043     7.86069E-03     145.530E-03    -68.1242E+06    -62.6434E+06     15.2533E+06    -3.77405E+06    -227.821E-03     458.593E-03    -230.772E-03     148.237E-03    -231.234E-03     461.498E-03    -230.506E-03     130.363E-03
            1044     8.58078E-03     145.738E-03    -58.6190E+06    -34.0291E+06     28.4571E+06    -2.23823E+06    -225.821E-03     455.971E-03    -230.151E-03     155.017E-03    -229.476E-03     459.216E-03    -229.874E-03     136.771E-03
            1045     9.30252E-03     145.951E-03    -50.2033E+06     4.92534E+06     42.9597E+06     1.29159E+06    -223.699E-03     453.126E-03    -229.427E-03     160.674E-03    -227.556E-03     456.697E-03    -229.147E-03     142.275E-03
            1046     10.0266E-03     146.167E-03    -43.0258E+06     41.6366E+06     56.6712E+06     4.11559E+06    -221.524E-03     450.152E-03    -228.628E-03     164.996E-03    -225.528E-03     453.987E-03    -228.343E-03     146.551E-03
            1047     10.7519E-03     146.382E-03    -36.0107E+06     63.7114E+06     69.3729E+06     2.47008E+06    -219.727E-03     447.529E-03    -227.802E-03     167.459E-03    -223.801E-03     451.500E-03    -227.495E-03     148.948E-03
            1048     11.4789E-03     146.598E-03    -26.9199E+06     79.3330E+06     84.9413E+06     1.84556E+06    -218.692E-03     445.699E-03    -227.006E-03     168.101E-03    -222.784E-03     449.730E-03    -226.658E-03     149.491E-03
            1049     12.2060E-03     146.810E-03    -18.2522E+06     82.4134E+06     98.1318E+06     2.50772E+06    -218.443E-03     444.733E-03    -226.289E-03     162.796E-03    -222.330E-03     448.562E-03    -225.892E-03     144.457E-03
            1050     12.9338E-03     147.008E-03    -11.4565E+06     94.4135E+06     109.243E+06     2.37373E+06    -219.332E-03     445.007E-03    -225.676E-03     159.655E-03    -223.186E-03     448.839E-03    -225.250E-03     141.063E-03
            1051     13.6591E-03     147.216E-03    -4.84504E+06     105.371E+06     111.995E+06     1.81943E+06    -220.746E-03     445.939E-03    -225.193E-03     133.915E-03    -223.666E-03     448.891E-03    -224.779E-03     118.105E-03
            1052     712.310E-06     145.750E-03    -151.416E+06    -257.615E+06    -149.079E+06    -1.96591E+06    -233.481E-03     467.098E-03    -233.617E-03     18.1248E-03    -233.702E-03     466.300E-03    -233.769E-03     15.7964E-03
            1053     1.42490E-03     145.787E-03    -147.625E+06    -243.430E+06    -137.630E+06    -2.57070E+06    -233.552E-03     467.074E-03    -233.523E-03     33.5512E-03    -233.903E-03     466.436E-03    -233.644E-03     29.3208E-03
            1054     2.13729E-03     145.848E-03    -141.624E+06    -226.699E+06    -121.026E+06    -3.77328E+06    -233.493E-03     466.983E-03    -233.489E-03     49.2965E-03    -234.042E-03     466.575E-03    -233.560E-03     43.1221E-03
            1055     2.85034E-03     145.930E-03    -133.976E+06    -206.573E+06    -101.500E+06    -5.11162E+06    -233.377E-03     466.795E-03    -233.418E-03     64.8403E-03    -234.192E-03     466.695E-03    -233.431E-03     56.7369E-03
            1056     3.56340E-03     146.035E-03    -124.882E+06    -186.163E+06    -80.1869E+06    -6.22052E+06    -233.204E-03     466.511E-03    -233.307E-03     79.8927E-03    -234.345E-03     466.780E-03    -233.257E-03     69.8776E-03
            1057     4.27708E-03     146.160E-03    -115.116E+06    -165.654E+06    -60.2449E+06    -7.16515E+06    -232.838E-03     465.973E-03    -233.136E-03     94.1167E-03    -234.345E-03     466.658E-03    -233.030E-03     82.3107E-03
            1058     4.99125E-03     146.303E-03    -105.078E+06    -145.584E+06    -42.1827E+06    -7.89621E+06    -232.227E-03     465.112E-03    -232.886E-03     107.546E-03    -234.127E-03     466.245E-03    -232.733E-03     94.1146E-03
            1059     5.70621E-03     146.464E-03    -95.1515E+06    -126.176E+06    -25.9091E+06    -8.33886E+06    -231.256E-03     463.797E-03    -232.541E-03     120.125E-03    -233.558E-03     465.389E-03    -232.349E-03     105.288E-03
            1060     6.42260E-03     146.639E-03    -85.6494E+06    -106.233E+06    -11.2093E+06    -8.39425E+06    -229.799E-03     461.877E-03    -232.078E-03     131.560E-03    -232.488E-03     463.918E-03    -231.856E-03     115.596E-03
            1061     7.14048E-03     146.827E-03    -75.7856E+06    -87.5157E+06     2.48182E+06    -8.20924E+06    -227.900E-03     459.387E-03    -231.487E-03     141.480E-03    -230.931E-03     461.832E-03    -231.238E-03     124.680E-03
            1062     7.86053E-03     147.023E-03    -65.9913E+06    -64.6952E+06     15.8017E+06    -7.73648E+06    -225.778E-03     456.544E-03    -230.767E-03     150.081E-03    -229.095E-03     459.352E-03    -230.498E-03     132.748E-03
            1063     8.58234E-03     147.226E-03    -56.3715E+06    -38.8493E+06     29.0759E+06    -5.96398E+06    -223.592E-03     453.532E-03    -229.940E-03     157.365E-03    -227.137E-03     456.654E-03    -229.656E-03     139.744E-03
            1064     9.30634E-03     147.435E-03    -46.6472E+06    -5.82112E+06     42.9738E+06    -1.82064E+06    -221.362E-03     450.388E-03    -229.026E-03     163.084E-03    -225.082E-03     453.797E-03    -228.735E-03     145.364E-03
            1065     10.0322E-03     147.645E-03    -36.4975E+06     35.5111E+06     58.1577E+06     3.71237E+06    -219.490E-03     447.553E-03    -228.063E-03     167.355E-03    -223.349E-03     451.240E-03    -227.771E-03     149.606E-03
            1066     10.7597E-03     147.859E-03    -28.7641E+06     69.3809E+06     73.5382E+06     5.77447E+06    -218.510E-03     445.640E-03    -227.131E-03     169.973E-03    -222.466E-03     449.528E-03    -226.822E-03     152.119E-03
            1067     11.4870E-03     148.071E-03    -25.1683E+06     79.7181E+06     87.5127E+06     3.84885E+06    -218.567E-03     444.882E-03    -226.315E-03     170.962E-03    -222.593E-03     448.847E-03    -225.956E-03     152.792E-03
            1068     12.2145E-03     148.284E-03    -21.4870E+06     82.1486E+06     100.028E+06     3.03449E+06    -219.464E-03     445.109E-03    -225.644E-03     166.460E-03    -223.355E-03     448.924E-03    -225.232E-03     148.323E-03
            1069     12.9382E-03     148.485E-03    -15.3531E+06     97.1803E+06     110.682E+06     1.39327E+06    -221.133E-03     446.249E-03    -225.116E-03     163.920E-03    -225.029E-03     450.114E-03    -224.681E-03     145.348E-03
            1070     13.6631E-03     148.690E-03    -7.34113E+06     104.992E+06     111.749E+06    -80.5354E+03    -222.654E-03     447.387E-03    -224.733E-03     138.949E-03    -225.627E-03     450.382E-03    -224.316E-03     123.035E-03
            1071     711.769E-06     147.263E-03    -150.402E+06    -251.245E+06    -147.362E+06    -2.19946E+06    -234.417E-03     468.949E-03    -234.531E-03     18.4392E-03    -234.645E-03     468.178E-03    -234.686E-03     16.1239E-03
            1072     1.42328E-03     147.300E-03     -145.95E+06    -238.921E+06    -135.597E+06    -2.96308E+06    -234.396E-03     468.827E-03    -234.431E-03     33.9687E-03    -234.746E-03     468.204E-03    -234.551E-03     29.7855E-03
            1073     2.13548E-03     147.360E-03    -139.640E+06    -220.686E+06    -119.523E+06    -4.07201E+06    -234.134E-03     468.467E-03    -234.333E-03     49.8231E-03    -234.679E-03     468.080E-03    -234.408E-03     43.7156E-03
            1074     2.84780E-03     147.441E-03    -131.962E+06    -200.952E+06    -99.4460E+06    -5.63738E+06    -233.809E-03     467.986E-03    -234.177E-03     65.4728E-03    -234.616E-03     467.900E-03    -234.192E-03     57.4674E-03
            1075     3.56082E-03     147.545E-03    -123.342E+06    -181.566E+06    -78.1748E+06    -6.81101E+06    -233.314E-03     467.273E-03    -233.959E-03     80.6816E-03    -234.439E-03     467.542E-03    -233.908E-03     70.8277E-03
            1076     4.27434E-03     147.668E-03    -113.826E+06    -161.042E+06    -58.4910E+06    -7.93730E+06    -232.513E-03     466.158E-03    -233.645E-03     95.2136E-03    -233.996E-03     466.835E-03    -233.538E-03     83.6458E-03
            1077     4.98900E-03     147.809E-03    -103.863E+06    -141.495E+06    -40.7339E+06    -9.28217E+06    -231.366E-03     464.580E-03    -233.215E-03     109.189E-03    -233.231E-03     465.693E-03    -233.063E-03     96.0880E-03
            1078     5.70515E-03     147.967E-03    -94.2105E+06    -122.936E+06    -24.6732E+06    -10.1704E+06    -229.793E-03     462.448E-03    -232.655E-03     122.186E-03    -232.046E-03     464.002E-03    -232.464E-03     107.790E-03
            1079     6.42287E-03     148.138E-03    -84.7174E+06    -104.151E+06    -9.99806E+06    -10.8059E+06    -227.764E-03     459.717E-03    -231.953E-03     134.073E-03    -230.387E-03     461.699E-03    -231.729E-03     118.662E-03
            1080     7.14280E-03     148.321E-03    -75.4820E+06    -86.2588E+06     3.37707E+06    -11.3336E+06    -225.538E-03     456.654E-03    -231.116E-03     144.534E-03    -228.488E-03     459.020E-03    -230.865E-03     128.388E-03
            1081     7.86474E-03     148.512E-03    -66.6544E+06    -64.8563E+06     15.9733E+06    -11.1492E+06    -223.341E-03     453.509E-03    -230.168E-03     153.499E-03    -226.563E-03     456.218E-03    -229.898E-03     136.897E-03
            1082     8.58889E-03     148.711E-03    -58.4796E+06    -43.3097E+06     27.8315E+06    -9.63603E+06    -221.233E-03     450.382E-03    -229.149E-03     160.960E-03    -224.668E-03     453.375E-03    -228.862E-03     144.110E-03
            1083     9.31481E-03     148.914E-03    -50.4222E+06    -14.5890E+06     40.0766E+06    -7.04102E+06    -219.447E-03     447.537E-03    -228.090E-03     166.776E-03    -223.051E-03     450.794E-03    -227.795E-03     149.795E-03
            1084     10.0424E-03     149.122E-03    -42.5962E+06     22.4952E+06     52.8860E+06    -2.12584E+06    -218.387E-03     445.430E-03    -227.043E-03     171.246E-03    -222.140E-03     448.958E-03    -226.749E-03     154.144E-03
            1085     10.7703E-03     149.332E-03    -34.8935E+06     63.9820E+06     65.8246E+06     4.26596E+06    -218.188E-03     444.257E-03    -226.069E-03     173.986E-03    -222.061E-03     448.042E-03    -225.782E-03     156.723E-03
            1086     11.4987E-03     149.545E-03    -26.3195E+06     82.5891E+06     79.4073E+06     6.42350E+06    -219.170E-03     444.437E-03    -225.267E-03     175.653E-03    -223.126E-03     448.363E-03    -224.952E-03     157.994E-03
            1087     12.2247E-03     149.759E-03    -17.9600E+06     84.6341E+06     96.7598E+06     4.32868E+06    -221.129E-03     445.830E-03    -224.701E-03     172.002E-03    -224.985E-03     449.642E-03    -224.314E-03     154.128E-03
            1088     12.9519E-03     149.963E-03    -10.8819E+06     100.278E+06     113.443E+06     3.87055E+06    -224.128E-03     448.473E-03    -224.345E-03     169.091E-03    -228.033E-03     452.367E-03    -223.908E-03     150.518E-03
            1089     13.6733E-03     150.174E-03    -4.96962E+06     107.279E+06     116.872E+06     1.11726E+06    -226.554E-03     450.729E-03    -224.175E-03     142.335E-03    -229.547E-03     453.747E-03    -223.739E-03     126.282E-03
            1090     711.292E-06     148.779E-03    -147.828E+06    -244.542E+06    -144.465E+06    -1.33139E+06    -234.790E-03     469.648E-03    -234.858E-03     18.9908E-03    -235.017E-03     468.902E-03    -235.012E-03     16.7409E-03
            1091     1.42296E-03     148.815E-03    -143.903E+06    -232.663E+06    -133.876E+06    -3.31761E+06    -234.622E-03     469.366E-03    -234.744E-03     34.5592E-03    -234.968E-03     468.764E-03    -234.867E-03     30.4791E-03
            1092     2.13471E-03     148.874E-03    -137.783E+06    -215.150E+06    -117.687E+06    -4.45070E+06    -234.225E-03     468.809E-03    -234.584E-03     50.7448E-03    -234.764E-03     468.436E-03    -234.661E-03     44.7867E-03
            1093     2.84712E-03     148.954E-03    -129.861E+06    -195.937E+06    -96.4096E+06    -5.34931E+06    -233.527E-03     467.861E-03    -234.334E-03     66.8238E-03    -234.321E-03     467.778E-03    -234.344E-03     59.0432E-03
            1094     3.56026E-03     149.055E-03    -120.672E+06    -175.716E+06    -75.0956E+06    -7.05078E+06    -232.509E-03     466.461E-03    -233.952E-03     82.7018E-03    -233.610E-03     466.728E-03    -233.898E-03     73.1758E-03
            1095     4.27477E-03     149.176E-03    -111.256E+06    -155.326E+06    -55.9589E+06    -8.53069E+06    -231.182E-03     464.607E-03    -233.426E-03     97.8926E-03    -232.629E-03     465.270E-03    -233.319E-03     86.7644E-03
            1096     4.99079E-03     149.313E-03    -102.179E+06    -136.739E+06    -38.3900E+06    -9.40089E+06    -229.457E-03     462.214E-03    -232.757E-03     112.483E-03    -231.275E-03     463.295E-03    -232.602E-03     99.9553E-03
            1097     5.70848E-03     149.467E-03    -93.5311E+06    -117.906E+06    -22.4383E+06    -10.3944E+06    -227.360E-03     459.297E-03    -231.937E-03     126.131E-03    -229.555E-03     460.806E-03    -231.742E-03     112.436E-03
            1098     6.42858E-03     149.633E-03    -85.2620E+06    -100.041E+06    -8.28398E+06    -11.6361E+06    -225.066E-03     456.044E-03    -230.978E-03     138.489E-03    -227.617E-03     457.961E-03    -230.751E-03     123.877E-03
            1099     7.15104E-03     149.810E-03    -77.3530E+06    -82.9174E+06     4.33415E+06    -12.2914E+06    -222.846E-03     452.758E-03    -229.912E-03     149.420E-03    -225.709E-03     455.040E-03    -229.658E-03     134.158E-03
            1100     7.87546E-03     149.997E-03    -70.2003E+06    -63.9128E+06     15.8430E+06    -11.9542E+06    -220.883E-03     449.666E-03    -228.784E-03     158.650E-03    -224.006E-03     452.267E-03    -228.510E-03     142.975E-03
            1101     8.60174E-03     150.190E-03    -63.3012E+06    -44.6691E+06     26.6164E+06    -11.1050E+06    -219.295E-03     446.936E-03    -227.641E-03     166.120E-03    -222.623E-03     449.803E-03    -227.351E-03     150.176E-03
            1102     9.32966E-03     150.391E-03    -56.2712E+06    -18.9669E+06     37.3980E+06    -9.13426E+06    -218.342E-03     444.869E-03    -226.527E-03     171.921E-03    -221.835E-03     447.987E-03    -226.231E-03     155.777E-03
            1103     10.0580E-03     150.595E-03    -48.6886E+06     11.7050E+06     48.2930E+06    -5.83750E+06    -218.251E-03     443.748E-03    -225.497E-03     176.582E-03    -221.892E-03     447.118E-03    -225.202E-03     160.188E-03
            1104     10.7866E-03     150.806E-03    -39.4539E+06     52.0789E+06     61.1968E+06    -2.40462E+06    -219.104E-03     443.706E-03    -224.603E-03     179.616E-03    -222.884E-03     447.354E-03    -224.315E-03     162.850E-03
            1105     11.5140E-03     151.017E-03    -29.6996E+06     81.7783E+06     69.4769E+06     117.837E+03    -221.102E-03     444.993E-03    -223.891E-03     181.060E-03    -224.995E-03     448.870E-03    -223.619E-03     163.716E-03
            1106     12.2413E-03     151.236E-03    -21.2101E+06     87.4788E+06     84.9343E+06     551.155E+03    -224.251E-03     447.748E-03    -223.497E-03     176.872E-03    -228.086E-03     451.572E-03    -223.169E-03     159.070E-03
            1107     12.9613E-03     151.444E-03    -12.6555E+06     96.9011E+06     108.899E+06    -957.054E+03    -228.672E-03     452.101E-03    -223.429E-03     173.527E-03    -232.619E-03     456.031E-03    -223.006E-03     154.608E-03
            1108     13.6805E-03     151.662E-03    -5.19272E+06     108.579E+06     119.458E+06     2.32074E+06    -232.268E-03     455.848E-03    -223.580E-03     145.001E-03    -235.292E-03     458.892E-03    -223.132E-03     128.710E-03
            1109     711.652E-06     150.294E-03    -143.367E+06    -238.400E+06    -141.906E+06    -1.75803E+06    -234.351E-03     468.586E-03    -234.235E-03     19.5230E-03    -234.567E-03     467.858E-03    -234.391E-03     17.3776E-03
            1110     1.42341E-03     150.330E-03    -139.857E+06    -226.125E+06    -130.153E+06    -2.64532E+06    -233.824E-03     467.970E-03    -234.146E-03     35.7990E-03    -234.160E-03     467.383E-03    -234.266E-03     31.9165E-03
            1111     2.13577E-03     150.387E-03    -134.098E+06    -209.654E+06    -112.265E+06    -4.06189E+06    -233.156E-03     467.019E-03    -233.864E-03     52.8198E-03    -233.681E-03     466.650E-03    -233.927E-03     47.1475E-03
            1112     2.84897E-03     150.465E-03    -126.347E+06    -190.509E+06    -92.2837E+06    -5.39069E+06    -232.021E-03     465.461E-03    -233.440E-03     69.5405E-03    -232.792E-03     465.374E-03    -233.442E-03     62.1538E-03
            1113     3.56380E-03     150.563E-03    -117.315E+06    -169.894E+06    -72.1973E+06    -6.57384E+06    -230.436E-03     463.272E-03    -232.836E-03     86.1386E-03    -231.500E-03     463.525E-03    -232.780E-03     77.1631E-03
            1114     4.28014E-03     150.680E-03    -108.376E+06    -150.359E+06    -52.6861E+06    -7.47764E+06    -228.541E-03     460.600E-03    -232.058E-03     102.186E-03    -229.938E-03     461.230E-03    -231.946E-03     91.7564E-03
            1115     4.99832E-03     150.813E-03    -99.9854E+06    -132.165E+06    -34.8934E+06    -7.98466E+06    -226.354E-03     457.475E-03    -231.121E-03     117.536E-03    -228.106E-03     458.503E-03    -230.959E-03     105.851E-03
            1116     5.71918E-03     150.961E-03    -91.6491E+06    -113.017E+06    -18.8599E+06    -8.49853E+06    -224.078E-03     454.120E-03    -230.043E-03     131.947E-03    -226.187E-03     455.558E-03    -229.840E-03     119.228E-03
            1117     6.44211E-03     151.122E-03    -83.9336E+06    -94.9635E+06    -4.51015E+06    -8.98194E+06    -222.003E-03     450.877E-03    -228.875E-03     144.789E-03    -224.452E-03     452.704E-03    -228.638E-03     131.243E-03
            1118     7.16691E-03     151.294E-03    -77.1615E+06    -78.2555E+06     7.76878E+06    -9.65375E+06    -220.203E-03     447.868E-03    -227.666E-03     156.026E-03    -222.952E-03     450.043E-03    -227.401E-03     141.862E-03
            1119     7.89386E-03     151.476E-03    -70.4091E+06    -60.9825E+06     18.5106E+06    -10.2073E+06    -218.857E-03     445.317E-03    -226.460E-03     165.363E-03    -221.854E-03     447.793E-03    -226.177E-03     150.758E-03
            1120     8.62199E-03     151.666E-03    -62.9566E+06    -43.4567E+06     28.4666E+06    -10.1640E+06    -218.168E-03     443.479E-03    -225.311E-03     172.796E-03    -221.358E-03     446.209E-03    -225.015E-03     157.847E-03
            1121     9.35054E-03     151.863E-03    -55.1135E+06    -20.2361E+06     38.5042E+06    -9.59709E+06    -218.292E-03     442.558E-03    -224.266E-03     178.817E-03    -221.647E-03     445.533E-03    -223.964E-03     163.541E-03
            1122     10.0794E-03     152.067E-03    -46.5870E+06     6.59829E+06     49.4398E+06    -8.71672E+06    -219.420E-03     442.799E-03    -223.378E-03     183.457E-03    -222.927E-03     446.020E-03    -223.073E-03     167.756E-03
            1123     10.8074E-03     152.277E-03    -37.9199E+06     48.1817E+06     64.2320E+06    -6.80292E+06    -221.645E-03     444.343E-03    -222.698E-03     186.302E-03    -225.324E-03     447.872E-03    -222.391E-03     170.012E-03
            1124     11.5336E-03     152.494E-03    -29.6340E+06     77.8017E+06     73.6853E+06    -4.51711E+06    -225.228E-03     447.496E-03    -222.267E-03     187.508E-03    -229.077E-03     451.303E-03    -221.969E-03     170.330E-03
            1125     12.2549E-03     152.715E-03    -20.6837E+06     84.3917E+06     86.2754E+06    -2.65485E+06    -229.671E-03     451.856E-03    -222.185E-03     183.091E-03    -233.505E-03     455.667E-03    -221.846E-03     165.182E-03
            1126     12.9764E-03     152.933E-03    -15.6981E+06     95.1028E+06     106.219E+06     145.579E+03    -234.998E-03     457.453E-03    -222.454E-03     179.236E-03    -238.968E-03     461.397E-03    -222.038E-03     160.158E-03
            1127     13.6898E-03     153.158E-03    -11.0877E+06     107.242E+06     117.415E+06     434.192E+03    -238.942E-03     461.912E-03    -222.970E-03     149.004E-03    -242.005E-03     464.976E-03    -222.523E-03     132.446E-03
            1128     712.678E-06     151.807E-03    -139.757E+06    -232.801E+06    -137.438E+06    -1.45024E+06    -232.288E-03     464.581E-03    -232.293E-03     20.3414E-03    -232.498E-03     463.867E-03    -232.440E-03     18.3711E-03
            1129     1.42619E-03     151.841E-03    -136.192E+06    -221.412E+06    -126.362E+06    -2.59487E+06    -231.441E-03     463.490E-03    -232.049E-03     37.9019E-03    -231.763E-03     462.908E-03    -232.163E-03     34.3226E-03
            1130     2.14051E-03     151.897E-03    -129.559E+06    -203.968E+06    -107.959E+06    -3.58625E+06    -230.303E-03     461.869E-03    -231.567E-03     55.9735E-03    -230.803E-03     461.498E-03    -231.623E-03     50.7717E-03
            1131     2.85595E-03     151.971E-03    -121.660E+06    -184.982E+06    -88.3226E+06    -4.63845E+06    -228.815E-03     459.729E-03    -230.915E-03     73.8825E-03    -229.547E-03     459.628E-03    -230.912E-03     67.1240E-03
            1132     3.57287E-03     152.065E-03    -113.763E+06    -165.663E+06    -68.3896E+06    -5.05893E+06    -226.894E-03     456.984E-03    -230.090E-03     91.4599E-03    -227.907E-03     457.202E-03    -230.026E-03     83.2739E-03
            1133     4.29222E-03     152.177E-03    -105.332E+06    -146.542E+06    -48.3723E+06    -5.40038E+06    -224.580E-03     453.668E-03    -229.087E-03     108.435E-03    -225.908E-03     454.240E-03    -228.964E-03     98.9651E-03
            1134     5.01416E-03     152.305E-03    -96.2509E+06    -128.030E+06    -30.0049E+06    -5.91786E+06    -222.338E-03     450.274E-03    -227.936E-03     124.509E-03    -223.996E-03     451.221E-03    -227.761E-03     113.914E-03
            1135     5.73807E-03     152.447E-03    -87.3059E+06    -109.232E+06    -13.7486E+06    -6.23765E+06    -220.382E-03     447.082E-03    -226.700E-03     139.425E-03    -222.371E-03     448.411E-03    -226.483E-03     127.885E-03
            1136     6.46412E-03     152.603E-03    -78.5113E+06    -92.0569E+06     723.598E+03    -6.00421E+06    -218.826E-03     444.269E-03    -225.442E-03     152.747E-03    -221.128E-03     445.961E-03    -225.191E-03     140.437E-03
            1137     7.19194E-03     152.771E-03    -69.9102E+06    -73.5769E+06     14.0891E+06    -5.88834E+06    -217.889E-03     442.110E-03    -224.220E-03     164.323E-03    -220.474E-03     444.143E-03    -223.942E-03     151.387E-03
            1138     7.92054E-03     152.950E-03    -62.0720E+06    -56.5862E+06     25.5026E+06    -6.50563E+06    -217.580E-03     440.665E-03    -223.085E-03     173.931E-03    -220.406E-03     442.995E-03    -222.786E-03     160.472E-03
            1139     8.64985E-03     153.137E-03    -54.9557E+06    -39.8041E+06     35.6076E+06    -7.47335E+06    -218.103E-03     440.186E-03    -222.083E-03     181.569E-03    -221.127E-03     442.771E-03    -221.768E-03     167.650E-03
            1140     9.37937E-03     153.334E-03    -47.9742E+06    -18.1413E+06     45.8564E+06    -8.42428E+06    -219.727E-03     440.991E-03    -221.264E-03     187.409E-03    -222.928E-03     443.825E-03    -220.939E-03     172.990E-03
            1141     10.1076E-03     153.538E-03    -41.5815E+06      7.8189E+06     56.9359E+06    -8.14891E+06    -222.418E-03     443.098E-03    -220.680E-03     191.502E-03    -225.795E-03     446.191E-03    -220.346E-03     176.474E-03
            1142     10.8334E-03     153.752E-03    -35.2309E+06     47.1267E+06     71.6984E+06    -6.81158E+06    -226.181E-03     446.547E-03    -220.366E-03     194.035E-03    -229.764E-03     449.966E-03    -220.025E-03     178.204E-03
            1143     11.5563E-03     153.973E-03    -28.7114E+06     75.0640E+06     82.1793E+06    -5.59409E+06    -231.358E-03     451.716E-03    -220.358E-03     195.188E-03    -235.164E-03     455.449E-03    -220.014E-03     178.179E-03
            1144     12.2763E-03     154.205E-03    -24.1358E+06     77.7477E+06     87.7253E+06    -3.70501E+06    -237.567E-03     458.282E-03    -220.715E-03     189.815E-03    -241.406E-03     462.058E-03    -220.354E-03     171.755E-03
            1145     12.9875E-03     154.427E-03    -15.3824E+06     90.7859E+06     100.840E+06    -919.167E+03    -243.272E-03     464.695E-03    -221.423E-03     183.656E-03    -247.239E-03     468.638E-03    -221.028E-03     164.189E-03
            1146     13.6974E-03     154.666E-03    -4.99128E+06     108.609E+06     115.577E+06    -1.38219E+06    -246.467E-03     468.844E-03    -222.377E-03     151.457E-03    -249.517E-03     471.927E-03    -221.949E-03     134.471E-03
            1147     715.758E-06     153.310E-03    -137.148E+06    -228.703E+06    -134.635E+06    -611.618E+03    -227.868E-03     456.002E-03    -228.134E-03     21.9465E-03    -228.072E-03     455.295E-03    -228.277E-03     20.2249E-03
            1148     1.43195E-03     153.343E-03    -132.982E+06    -215.958E+06    -121.966E+06    -2.56099E+06    -226.923E-03     454.621E-03    -227.698E-03     40.9898E-03    -227.233E-03     454.043E-03    -227.802E-03     37.8290E-03
            1149     2.14944E-03     153.395E-03    -126.104E+06    -199.803E+06    -105.190E+06    -3.61021E+06    -225.403E-03     452.466E-03    -227.063E-03     60.3599E-03    -225.873E-03     452.082E-03    -227.116E-03     55.7731E-03
            1150     2.86898E-03     153.466E-03    -118.089E+06    -181.718E+06    -85.0271E+06    -3.55905E+06    -223.607E-03     449.836E-03    -226.229E-03     79.6452E-03    -224.290E-03     449.699E-03    -226.220E-03     73.7196E-03
            1151     3.59030E-03     153.556E-03    -109.728E+06    -161.965E+06    -63.6356E+06    -3.90335E+06    -221.593E-03     446.829E-03    -225.236E-03     98.3327E-03    -222.536E-03     446.989E-03    -225.160E-03     91.1593E-03
            1152     4.31368E-03     153.662E-03    -100.234E+06    -143.032E+06    -43.2774E+06    -4.42873E+06    -219.531E-03     443.641E-03    -224.111E-03     116.401E-03    -220.759E-03     444.129E-03    -223.975E-03     108.084E-03
            1153     5.03930E-03     153.784E-03    -90.4068E+06    -124.525E+06    -24.8870E+06    -4.73312E+06    -217.792E-03     440.697E-03    -222.905E-03     133.461E-03    -219.322E-03     441.533E-03    -222.718E-03     124.128E-03
            1154     5.76685E-03     153.922E-03    -80.8956E+06    -106.616E+06    -8.51596E+06    -4.75243E+06    -216.533E-03     438.220E-03    -221.687E-03     149.080E-03    -218.372E-03     439.415E-03    -221.458E-03     138.845E-03
            1155     6.49604E-03     154.074E-03    -71.7044E+06    -89.8661E+06     6.00353E+06    -4.89343E+06    -215.932E-03     436.453E-03    -220.520E-03     163.048E-03    -218.067E-03     437.994E-03    -220.256E-03     152.030E-03
            1156     7.22610E-03     154.240E-03    -62.8167E+06    -71.4301E+06     19.4471E+06    -4.78231E+06    -216.163E-03     435.626E-03    -219.463E-03     175.000E-03    -218.570E-03     437.499E-03    -219.171E-03     163.307E-03
            1157     7.95669E-03     154.417E-03    -54.2619E+06    -54.4074E+06     32.2162E+06    -4.07548E+06    -217.366E-03     435.946E-03    -218.580E-03     184.599E-03    -220.015E-03     438.116E-03    -218.261E-03     172.287E-03
            1158     8.68692E-03     154.604E-03    -46.9474E+06    -34.9811E+06     44.4920E+06    -3.82494E+06    -219.694E-03     437.615E-03    -217.921E-03     191.882E-03    -222.556E-03     440.057E-03    -217.580E-03     178.964E-03
            1159     9.41514E-03     154.803E-03    -41.1626E+06    -13.7823E+06     55.1239E+06    -3.84757E+06    -223.145E-03     440.671E-03    -217.526E-03     197.055E-03    -226.197E-03     443.369E-03    -217.170E-03     183.485E-03
            1160     10.1408E-03     155.012E-03    -36.1714E+06     10.1111E+06     65.0958E+06    -3.33756E+06    -227.608E-03     445.035E-03    -217.427E-03     200.348E-03    -230.860E-03     448.006E-03    -217.063E-03     185.951E-03
            1161     10.8638E-03     155.230E-03    -30.8459E+06     50.1149E+06     79.7134E+06    -3.21422E+06    -233.151E-03     450.802E-03    -217.651E-03     201.937E-03    -236.642E-03     454.133E-03    -217.281E-03     186.459E-03
            1162     11.5825E-03     155.461E-03    -25.2265E+06     74.7435E+06     86.6746E+06    -3.64726E+06    -239.904E-03     458.112E-03    -218.208E-03     201.913E-03    -243.646E-03     461.781E-03    -217.846E-03     184.942E-03
            1163     12.2943E-03     155.701E-03    -17.4702E+06     72.8455E+06     88.4556E+06    -3.07761E+06    -246.924E-03     466.053E-03    -219.129E-03     196.026E-03    -250.693E-03     469.764E-03    -218.767E-03     177.840E-03
            1164     13.0017E-03     155.941E-03    -9.98957E+06     89.4948E+06     100.013E+06    -3.26457E+06    -252.627E-03     472.999E-03    -220.372E-03     189.004E-03    -256.603E-03     476.968E-03    -219.987E-03     169.022E-03
            1165     13.7040E-03     156.176E-03    -5.01608E+06     107.758E+06     113.582E+06    -1.64220E+06    -255.771E-03     477.599E-03    -221.827E-03     155.895E-03    -258.882E-03     480.746E-03    -221.408E-03     138.328E-03
            1166     720.805E-06     154.798E-03    -134.914E+06    -224.035E+06    -132.121E+06    -1.84950E+06    -220.691E-03     441.467E-03    -220.776E-03     24.3914E-03    -220.891E-03     440.769E-03    -220.916E-03     22.9453E-03
            1167     1.44237E-03     154.828E-03    -127.990E+06    -210.264E+06    -118.150E+06    -2.47086E+06    -219.701E-03     440.118E-03    -220.417E-03     44.9745E-03    -219.986E-03     439.538E-03    -220.517E-03     42.3644E-03
            1168     2.16534E-03     154.876E-03    -122.429E+06    -196.188E+06    -101.372E+06    -3.18024E+06    -218.301E-03     438.089E-03    -219.788E-03     66.0760E-03    -218.733E-03     437.678E-03    -219.833E-03     62.2719E-03
            1169     2.88961E-03     154.943E-03    -115.335E+06    -178.799E+06    -81.6936E+06    -3.91038E+06    -216.532E-03     435.487E-03    -218.955E-03     86.7683E-03    -217.157E-03     435.299E-03    -218.937E-03     81.8238E-03
            1170     3.61625E-03     155.028E-03    -105.978E+06    -158.515E+06    -60.7219E+06    -4.25599E+06    -214.747E-03     432.708E-03    -217.961E-03     106.729E-03    -215.600E-03     432.793E-03    -217.881E-03     100.718E-03
            1171     4.34493E-03     155.130E-03    -96.3211E+06    -139.863E+06    -40.3663E+06    -4.36143E+06    -213.489E-03     430.387E-03    -216.898E-03     126.142E-03    -214.601E-03     430.773E-03    -216.758E-03     119.114E-03
            1172     5.07501E-03     155.249E-03    -86.9077E+06    -121.555E+06    -22.0889E+06    -4.68322E+06    -212.763E-03     428.608E-03    -215.845E-03     144.348E-03    -214.158E-03     429.323E-03    -215.653E-03     136.361E-03
            1173     5.80662E-03     155.383E-03    -77.5195E+06    -105.027E+06    -5.63759E+06    -4.63665E+06    -212.729E-03     427.592E-03    -214.863E-03     160.853E-03    -214.415E-03     428.643E-03    -214.626E-03     151.966E-03
            1174     6.53880E-03     155.534E-03    -68.8893E+06    -87.6407E+06     9.35345E+06    -4.01634E+06    -213.655E-03     427.668E-03    -214.013E-03     175.360E-03    -215.634E-03     429.062E-03    -213.739E-03     165.645E-03
            1175     7.27111E-03     155.699E-03    -61.4771E+06    -70.0158E+06     22.7454E+06    -3.54139E+06    -215.632E-03     428.991E-03    -213.359E-03     187.349E-03    -217.888E-03     430.714E-03    -213.054E-03     176.860E-03
            1176     8.00247E-03     155.877E-03    -54.9564E+06    -54.4756E+06     34.4794E+06    -2.80870E+06    -218.873E-03     431.834E-03    -212.961E-03     196.626E-03    -221.376E-03     433.850E-03    -212.630E-03     185.388E-03
            1177     8.73123E-03     156.069E-03    -48.6389E+06    -33.1504E+06     46.3159E+06    -1.63499E+06    -223.342E-03     436.208E-03    -212.867E-03     203.347E-03    -226.071E-03     438.515E-03    -212.516E-03     191.354E-03
            1178     9.45742E-03     156.273E-03    -42.4157E+06    -10.8639E+06     57.2703E+06    -1.02242E+06    -228.857E-03     441.962E-03    -213.106E-03     207.663E-03    -231.793E-03     444.546E-03    -212.742E-03     194.819E-03
            1179     10.1801E-03     156.489E-03    -34.8583E+06     13.6951E+06     68.3198E+06    -2.00037E+06    -235.432E-03     449.128E-03    -213.696E-03     209.755E-03    -238.579E-03     452.005E-03    -213.324E-03     195.813E-03
            1180     10.8970E-03     156.717E-03    -26.1367E+06     51.3425E+06     81.9673E+06    -1.75482E+06    -242.853E-03     457.495E-03    -214.642E-03     210.053E-03    -246.245E-03     460.742E-03    -214.269E-03     194.752E-03
            1181     11.6083E-03     156.958E-03    -18.8679E+06     73.7796E+06     87.6928E+06     -12.824E+03    -250.555E-03     466.473E-03    -215.918E-03     209.202E-03    -254.209E-03     470.071E-03    -215.559E-03     192.229E-03
            1182     12.3146E-03     157.212E-03    -15.1078E+06     75.0939E+06     90.7067E+06    -1.42325E+06    -257.182E-03     474.691E-03    -217.509E-03     202.073E-03    -260.908E-03     478.370E-03    -217.143E-03     183.751E-03
            1183     13.0161E-03     157.458E-03    -11.6208E+06     90.7056E+06     102.159E+06    -1.00833E+06    -262.418E-03     481.758E-03    -219.340E-03     192.867E-03    -266.400E-03     485.726E-03    -218.943E-03     172.512E-03
            1184     13.7126E-03     157.710E-03    -6.21909E+06     105.367E+06     113.200E+06    -30.3035E+03    -265.762E-03     487.078E-03    -221.316E-03     158.970E-03    -268.888E-03     490.229E-03    -220.894E-03     140.960E-03
            1185     728.547E-06     156.259E-03    -131.174E+06    -216.456E+06    -129.562E+06    -2.26282E+06    -210.519E-03     420.531E-03    -210.013E-03     26.9537E-03    -210.710E-03     419.853E-03    -210.157E-03     25.8574E-03
            1186     1.45773E-03     156.287E-03    -128.293E+06    -206.616E+06    -118.886E+06    -2.72299E+06    -209.594E-03     419.588E-03    -209.994E-03     49.2723E-03    -209.865E-03     419.004E-03    -210.103E-03     47.2928E-03
            1187     2.18761E-03     156.333E-03    -122.561E+06    -192.227E+06    -101.778E+06    -3.08901E+06    -208.627E-03     418.134E-03    -209.507E-03     72.4320E-03    -209.024E-03     417.698E-03    -209.560E-03     69.5129E-03
            1188     2.91917E-03     156.397E-03    -114.828E+06    -173.577E+06    -81.2780E+06    -4.12294E+06    -207.556E-03     416.421E-03    -208.864E-03     95.0189E-03    -208.122E-03     416.188E-03    -208.853E-03     91.1550E-03
            1189     3.65227E-03     156.477E-03    -106.313E+06    -155.037E+06    -60.9532E+06    -4.80242E+06    -206.849E-03     414.984E-03    -208.135E-03     116.759E-03    -207.617E-03     414.993E-03    -208.061E-03     111.960E-03
            1190     4.38665E-03     156.577E-03    -97.2423E+06    -137.162E+06    -41.0592E+06    -4.63973E+06    -206.800E-03     414.211E-03    -207.412E-03     137.445E-03    -207.803E-03     414.495E-03    -207.277E-03     131.731E-03
            1191     5.12197E-03     156.694E-03    -88.4581E+06    -119.433E+06    -22.5160E+06    -3.94500E+06    -207.592E-03     414.364E-03    -206.772E-03     156.508E-03    -208.859E-03     414.953E-03    -206.583E-03     149.886E-03
            1192     5.85729E-03     156.829E-03    -81.0145E+06    -103.948E+06    -6.52576E+06    -3.30738E+06    -209.410E-03     415.695E-03    -206.285E-03     173.734E-03    -210.963E-03     416.607E-03    -206.050E-03     166.192E-03
            1193     6.59217E-03     156.981E-03    -74.1386E+06    -86.5966E+06     7.67161E+06    -2.44755E+06    -212.406E-03     418.418E-03    -206.011E-03     188.630E-03    -214.253E-03     419.670E-03    -205.740E-03     180.184E-03
            1194     7.32535E-03     157.149E-03    -67.5474E+06    -69.8993E+06     20.5613E+06    -887.759E+03    -216.780E-03     422.799E-03    -206.019E-03     200.712E-03    -218.908E-03     424.380E-03    -205.717E-03     191.380E-03
            1195     8.05569E-03     157.333E-03    -62.0832E+06    -53.5442E+06     31.6692E+06     155.706E+03    -222.470E-03     428.830E-03    -206.360E-03     209.765E-03    -224.860E-03     430.719E-03    -206.034E-03     199.526E-03
            1196     8.78301E-03     157.532E-03    -56.6467E+06    -30.7072E+06     42.4197E+06    -237.193E+03    -229.328E-03     436.391E-03    -207.063E-03     215.684E-03    -231.961E-03     438.595E-03    -206.724E-03     204.478E-03
            1197     9.50522E-03     157.746E-03    -49.7575E+06    -7.42364E+06     52.8934E+06    -1.71937E+06    -237.222E-03     445.373E-03    -208.152E-03     218.632E-03    -240.076E-03     447.876E-03    -207.804E-03     206.315E-03
            1198     10.2214E-03     157.973E-03    -43.2144E+06     19.8721E+06     63.8176E+06    -4.44645E+06    -245.835E-03     455.460E-03    -209.624E-03     219.426E-03    -248.926E-03     458.287E-03    -209.271E-03     205.756E-03
            1199     10.9319E-03     158.214E-03    -37.9537E+06     47.8802E+06     72.1813E+06    -5.80433E+06    -254.589E-03     466.031E-03    -211.442E-03     218.361E-03    -257.940E-03     469.213E-03    -211.096E-03     203.082E-03
            1200     11.6364E-03     158.468E-03    -32.2894E+06     66.4676E+06     76.3149E+06    -3.85069E+06    -262.658E-03     476.208E-03    -213.550E-03     215.381E-03    -266.282E-03     479.737E-03    -213.218E-03     198.243E-03
            1201     12.3351E-03     158.733E-03    -25.3387E+06     82.2073E+06     87.6302E+06    -2.19598E+06    -268.851E-03     484.759E-03    -215.909E-03     205.577E-03    -272.580E-03     488.440E-03    -215.553E-03     186.933E-03
            1202     13.0274E-03     158.992E-03    -17.7278E+06     92.9006E+06     99.7504E+06    -5.71123E+06    -272.963E-03     491.352E-03    -218.389E-03     195.016E-03    -276.942E-03     495.312E-03    -218.000E-03     174.142E-03
            1203     13.7169E-03     159.251E-03    -8.15152E+06     97.3871E+06     107.232E+06    -4.95748E+06    -274.785E-03     495.661E-03    -220.876E-03     161.747E-03    -277.893E-03     498.776E-03    -220.470E-03     143.307E-03
            1204     738.620E-06     157.684E-03    -132.577E+06    -210.529E+06    -133.260E+06    -1.19888E+06    -197.190E-03     393.753E-03    -196.563E-03     29.2838E-03    -197.387E-03     393.100E-03    -196.731E-03     28.5460E-03
            1205     1.47727E-03     157.712E-03    -132.420E+06    -202.317E+06    -121.543E+06    -2.50650E+06    -196.763E-03     393.465E-03    -196.701E-03     53.9743E-03    -197.039E-03     392.887E-03    -196.823E-03     52.5866E-03
            1206     2.21688E-03     157.757E-03    -126.077E+06    -187.470E+06    -105.213E+06    -3.44069E+06    -196.686E-03     393.155E-03    -196.469E-03     79.1449E-03    -197.060E-03     392.706E-03    -196.540E-03     77.0493E-03
            1207     2.95721E-03     157.819E-03    -118.795E+06    -169.306E+06      -85.71E+06    -3.64940E+06    -197.051E-03     393.265E-03    -196.214E-03     103.495E-03    -197.565E-03     392.992E-03    -196.225E-03     100.667E-03
            1208     3.69774E-03     157.900E-03    -111.560E+06    -152.096E+06    -64.9350E+06    -3.48859E+06    -198.107E-03     394.123E-03    -196.017E-03     126.871E-03    -198.802E-03     394.060E-03    -195.959E-03     123.252E-03
            1209     4.43820E-03     157.999E-03    -104.611E+06    -135.054E+06    -45.6035E+06    -2.82669E+06    -199.935E-03     395.854E-03    -195.919E-03     148.902E-03    -200.849E-03     396.041E-03    -195.799E-03     144.452E-03
            1210     5.17832E-03     158.118E-03    -97.8414E+06    -119.260E+06    -28.0103E+06    -1.35600E+06    -202.798E-03     398.773E-03    -195.974E-03     169.023E-03    -203.960E-03     399.240E-03    -195.800E-03     163.708E-03
            1211     5.91725E-03     158.257E-03    -91.1254E+06    -103.298E+06    -12.2712E+06     23.4084E+03    -206.980E-03     403.229E-03    -196.249E-03     186.965E-03    -208.416E-03     404.008E-03    -196.029E-03     180.726E-03
            1212     6.65392E-03     158.414E-03    -85.0360E+06    -85.7151E+06     1.24963E+06     773.767E+03    -212.635E-03     409.445E-03    -196.810E-03     202.305E-03    -214.365E-03     410.565E-03    -196.556E-03     195.071E-03
            1213     7.38735E-03     158.591E-03    -78.8651E+06    -70.0814E+06     12.7691E+06     1.15589E+06    -219.760E-03     417.483E-03    -197.722E-03     214.406E-03    -221.776E-03     418.935E-03    -197.442E-03     206.137E-03
            1214     8.11641E-03     158.785E-03    -70.9193E+06    -51.6135E+06     24.4471E+06     836.027E+03    -228.261E-03     427.290E-03    -199.029E-03     222.994E-03    -230.544E-03     429.072E-03    -198.729E-03     213.612E-03
            1215     8.83916E-03     158.997E-03    -62.3545E+06    -25.3241E+06     36.8271E+06    -156.296E+03    -237.866E-03     438.617E-03    -200.751E-03     227.974E-03    -240.406E-03     440.745E-03    -200.440E-03     217.384E-03
            1216     9.55567E-03     159.224E-03    -55.0832E+06    -1.14372E+06     47.2707E+06    -2.52758E+06    -248.142E-03     451.029E-03    -202.887E-03     229.592E-03    -250.921E-03     453.479E-03    -202.569E-03     217.637E-03
            1217     10.2654E-03     159.467E-03    -48.3174E+06     26.0653E+06     57.9830E+06    -4.28868E+06    -258.449E-03     463.851E-03    -205.401E-03     228.605E-03    -261.481E-03     466.643E-03    -205.079E-03     215.071E-03
            1218     10.9676E-03     159.724E-03    -41.1818E+06     50.5678E+06     65.9991E+06    -5.26088E+06    -268.053E-03     476.270E-03    -208.218E-03     225.210E-03    -271.335E-03     479.401E-03    -207.901E-03     209.888E-03
            1219     11.6628E-03     159.993E-03    -32.2016E+06     68.0055E+06     73.0544E+06    -7.99913E+06    -276.003E-03     487.252E-03    -211.249E-03     219.991E-03    -279.539E-03     490.709E-03    -210.935E-03     202.637E-03
            1220     12.3516E-03     160.272E-03    -20.5003E+06     80.7482E+06     85.9210E+06    -10.4073E+06    -281.026E-03     495.425E-03    -214.399E-03     209.153E-03    -284.665E-03     499.033E-03    -214.057E-03     190.123E-03
            1221     13.0381E-03     160.539E-03    -10.0466E+06     91.0752E+06     97.9187E+06    -6.52974E+06    -283.471E-03     500.984E-03    -217.513E-03     197.919E-03    -287.362E-03     504.881E-03    -217.141E-03     176.706E-03
            1222     13.7217E-03     160.806E-03    -5.36022E+06     92.2621E+06     104.781E+06    -4.00852E+06    -283.081E-03     503.575E-03    -220.494E-03     164.948E-03    -286.168E-03     506.668E-03    -220.096E-03     146.126E-03
            1223     750.378E-06     159.069E-03    -141.099E+06    -208.221E+06    -139.519E+06     106.542E+03    -181.645E-03     362.704E-03    -181.059E-03     31.7095E-03    -181.875E-03     362.077E-03    -181.250E-03     31.2330E-03
            1224     1.50115E-03     159.097E-03    -139.501E+06    -197.455E+06    -128.931E+06    -795.061E+03    -182.130E-03     363.454E-03    -181.324E-03     57.9170E-03    -182.418E-03     362.900E-03    -181.480E-03     57.0193E-03
            1225     2.25145E-03     159.142E-03    -135.667E+06    -183.653E+06    -113.333E+06    -1.53799E+06    -183.466E-03     364.982E-03    -181.516E-03     84.7776E-03    -183.841E-03     364.534E-03    -181.619E-03     83.3863E-03
            1226     3.00096E-03     159.207E-03    -130.888E+06    -167.500E+06    -94.8860E+06    -1.04331E+06    -185.657E-03     367.504E-03    -181.847E-03     110.982E-03    -186.153E-03     367.201E-03    -181.889E-03     109.051E-03
            1227     3.74962E-03     159.290E-03    -124.983E+06    -151.311E+06    -74.5690E+06     186.937E+03    -188.831E-03     371.189E-03    -182.358E-03     136.025E-03    -189.481E-03     371.063E-03    -182.330E-03     133.479E-03
            1228     4.49692E-03     159.395E-03    -118.596E+06    -134.801E+06    -54.8997E+06     1.41384E+06    -193.124E-03     376.198E-03    -183.074E-03     159.428E-03    -193.967E-03     376.293E-03    -182.981E-03     156.154E-03
            1229     5.24183E-03     159.520E-03    -111.734E+06    -119.360E+06    -37.5755E+06     2.19230E+06    -198.715E-03     382.750E-03    -184.035E-03     180.696E-03    -199.784E-03     383.103E-03    -183.887E-03     176.578E-03
            1230     5.98386E-03     159.667E-03    -104.104E+06    -102.426E+06    -22.2109E+06     2.46377E+06    -205.852E-03     391.146E-03    -185.294E-03     199.319E-03    -207.176E-03     391.801E-03    -185.105E-03     194.250E-03
            1231     6.72162E-03     159.835E-03    -95.3567E+06    -83.5853E+06    -7.97490E+06     1.78248E+06    -214.597E-03     401.512E-03    -186.915E-03     214.816E-03    -216.201E-03     402.507E-03    -186.695E-03     208.653E-03
            1232     7.45379E-03     160.025E-03    -85.2758E+06    -65.6162E+06     4.96794E+06    -319.055E+03    -224.792E-03     413.738E-03    -188.946E-03     226.590E-03    -226.678E-03     415.080E-03    -188.702E-03     219.194E-03
            1233     8.17927E-03     160.235E-03    -74.7181E+06    -47.0133E+06     16.8498E+06    -3.11981E+06    -236.200E-03     427.611E-03    -191.411E-03     234.510E-03    -238.358E-03     429.296E-03    -191.150E-03     225.780E-03
            1234     8.89763E-03     160.465E-03    -63.8444E+06    -22.1361E+06     29.5135E+06    -4.85058E+06    -248.381E-03     442.689E-03    -194.309E-03     238.498E-03    -250.800E-03     444.727E-03    -194.036E-03     228.336E-03
            1235     9.60732E-03     160.711E-03    -52.4772E+06     2.27676E+06     42.4053E+06    -5.47156E+06    -260.803E-03     458.420E-03    -197.617E-03     238.886E-03    -263.471E-03     460.796E-03    -197.332E-03     227.136E-03
            1236     10.3081E-03     160.974E-03    -41.4336E+06     29.5440E+06     55.7460E+06    -6.28758E+06    -272.545E-03     473.812E-03    -201.267E-03     236.093E-03    -275.458E-03     476.531E-03    -200.971E-03     222.578E-03
            1237     11.0010E-03     161.249E-03    -30.4482E+06     57.3290E+06     67.6347E+06    -7.81412E+06    -282.366E-03     487.506E-03    -205.140E-03     230.825E-03    -285.516E-03     490.563E-03    -204.841E-03     215.409E-03
            1238     11.6873E-03     161.535E-03    -21.1657E+06     77.6866E+06     77.2430E+06    -10.2150E+06    -289.170E-03     498.261E-03    -209.092E-03     223.781E-03    -292.578E-03     501.652E-03    -208.787E-03     206.264E-03
            1239     12.3703E-03     161.823E-03    -16.6524E+06     81.6346E+06     86.5461E+06    -12.3558E+06    -292.654E-03     505.656E-03    -213.002E-03     211.205E-03    -296.183E-03     509.168E-03    -212.664E-03     191.991E-03
            1240     13.0488E-03     162.100E-03    -12.0759E+06     77.9967E+06     93.3158E+06    -13.1000E+06    -293.190E-03     509.913E-03    -216.723E-03     198.253E-03    -296.972E-03     513.661E-03    -216.352E-03     176.762E-03
            1241     13.7262E-03     162.372E-03    -3.46303E+06     80.1028E+06     102.630E+06    -4.79169E+06    -290.257E-03     510.413E-03    -220.156E-03     165.051E-03    -293.270E-03     513.401E-03    -219.754E-03     145.979E-03
            1242     763.464E-06     160.409E-03    -161.290E+06    -210.106E+06    -157.740E+06     1.88373E+06    -165.770E-03     330.171E-03    -164.402E-03     33.4053E-03    -166.065E-03     329.584E-03    -164.652E-03     33.1475E-03
            1243     1.52585E-03     160.438E-03    -159.301E+06    -197.765E+06    -147.537E+06     3.33135E+06    -167.077E-03     332.339E-03    -165.262E-03     60.7737E-03    -167.419E-03     331.821E-03    -165.481E-03     60.2904E-03
            1244     2.28728E-03     160.488E-03    -156.445E+06    -183.107E+06    -129.906E+06     4.15602E+06    -169.983E-03     335.966E-03    -165.984E-03     89.1779E-03    -170.401E-03     335.539E-03    -166.141E-03     88.3857E-03
            1245     3.04715E-03     160.557E-03    -151.688E+06    -166.642E+06    -109.078E+06     4.12871E+06    -174.188E-03     341.179E-03    -166.991E-03     116.703E-03    -174.706E-03     340.870E-03    -167.075E-03     115.514E-03
            1246     3.80446E-03     160.649E-03    -144.699E+06    -150.543E+06    -88.0957E+06     3.53309E+06    -179.773E-03     348.068E-03    -168.295E-03     142.886E-03    -180.410E-03     347.903E-03    -168.307E-03     141.198E-03
            1247     4.55818E-03     160.762E-03    -135.059E+06    -134.125E+06    -67.9654E+06     2.61039E+06    -186.900E-03     356.820E-03    -169.920E-03     167.216E-03    -187.683E-03     356.839E-03    -169.870E-03     164.891E-03
            1248     5.30794E-03     160.899E-03    -123.789E+06    -117.401E+06    -49.8917E+06     1.15236E+06    -195.730E-03     367.637E-03    -171.907E-03     189.130E-03    -196.695E-03     367.890E-03    -171.806E-03     185.985E-03
            1249     6.05197E-03     161.060E-03    -111.115E+06    -98.6991E+06    -33.1050E+06    -861.533E+03    -206.228E-03     380.526E-03    -174.298E-03     208.067E-03    -207.412E-03     381.065E-03    -174.159E-03     203.928E-03
            1250     6.78952E-03     161.245E-03    -97.5593E+06    -78.5587E+06    -17.0496E+06    -3.54692E+06    -218.186E-03     395.309E-03    -177.122E-03     223.502E-03    -219.624E-03     396.177E-03    -176.952E-03     218.182E-03
            1251     7.51951E-03     161.454E-03    -84.8160E+06    -59.5208E+06    -2.84780E+06    -6.60035E+06    -231.435E-03     411.829E-03    -180.394E-03     235.061E-03    -233.152E-03     413.051E-03    -180.199E-03     228.363E-03
            1252     8.24084E-03     161.685E-03    -73.1334E+06    -40.0359E+06     10.6844E+06    -9.72888E+06    -245.617E-03     429.734E-03    -184.116E-03     242.433E-03    -247.617E-03     431.312E-03    -183.899E-03     234.226E-03
            1253     8.95246E-03     161.937E-03    -61.6804E+06    -17.9135E+06     24.2210E+06    -12.8851E+06    -260.045E-03     448.306E-03    -188.260E-03     245.401E-03    -262.323E-03     450.243E-03    -188.024E-03     235.527E-03
            1254     9.65477E-03     162.208E-03    -50.2170E+06     1.81316E+06     36.7282E+06    -14.6547E+06    -273.956E-03     466.720E-03    -192.764E-03     244.538E-03    -276.485E-03     468.982E-03    -192.510E-03     232.896E-03
            1255     10.3478E-03     162.494E-03    -39.6029E+06     31.0024E+06     51.7969E+06    -14.5916E+06    -286.231E-03     483.756E-03    -197.524E-03     240.413E-03    -289.004E-03     486.358E-03    -197.253E-03     226.954E-03
            1256     11.0320E-03     162.790E-03    -31.8107E+06     60.6754E+06     65.2002E+06    -14.8114E+06    -295.584E-03     497.974E-03    -202.389E-03     233.443E-03    -298.614E-03     500.925E-03    -202.105E-03     218.006E-03
            1257     11.7107E-03     163.090E-03    -25.8649E+06     79.1582E+06     73.7573E+06    -14.7176E+06    -301.346E-03     508.535E-03    -207.189E-03     224.094E-03    -304.634E-03     511.805E-03    -206.898E-03     206.517E-03
            1258     12.3840E-03     163.390E-03    -17.7373E+06     80.9369E+06     85.0415E+06    -12.7249E+06    -302.997E-03     514.801E-03    -211.804E-03     209.978E-03    -306.375E-03     518.159E-03    -211.470E-03     190.819E-03
            1259     13.0561E-03     163.675E-03    -11.7024E+06     73.0117E+06     95.8480E+06    -10.0357E+06    -301.012E-03     517.083E-03    -216.071E-03     196.934E-03    -304.641E-03     520.653E-03    -215.681E-03     175.616E-03
            1260     13.7290E-03     163.946E-03    -9.70777E+06     67.1472E+06     101.563E+06    -7.75094E+06    -296.178E-03     516.051E-03    -219.873E-03     164.831E-03    -299.115E-03     518.898E-03    -219.448E-03     145.803E-03
            1261     775.407E-06     161.705E-03    -209.374E+06    -215.143E+06    -202.132E+06     2.02612E+06    -151.089E-03     299.906E-03    -148.817E-03     33.7256E-03    -151.545E-03     299.426E-03    -149.212E-03     33.6050E-03
            1262     1.55001E-03     161.739E-03    -198.983E+06    -201.146E+06    -184.613E+06     2.33325E+06    -152.989E-03     303.309E-03    -150.319E-03     61.6833E-03    -153.454E-03     302.873E-03    -150.662E-03     61.4248E-03
            1263     2.32233E-03     161.794E-03    -187.632E+06    -184.906E+06    -158.977E+06     2.93617E+06    -157.466E-03     308.987E-03    -151.521E-03     90.8925E-03    -157.962E-03     308.609E-03    -151.775E-03     90.4505E-03
            1264     3.09115E-03     161.873E-03    -173.577E+06    -165.306E+06    -131.133E+06     2.13807E+06    -163.813E-03     316.990E-03    -153.177E-03     119.096E-03    -164.354E-03     316.700E-03    -153.342E-03     118.373E-03
            1265     3.85580E-03     161.976E-03    -158.212E+06    -147.448E+06    -104.879E+06    -122.013E+03    -172.021E-03     327.312E-03    -155.292E-03     145.747E-03    -172.626E-03     327.132E-03    -155.373E-03     144.608E-03
            1266     4.61564E-03     162.103E-03    -143.047E+06    -129.659E+06    -82.4510E+06    -2.99899E+06    -182.186E-03     340.052E-03    -157.867E-03     170.230E-03    -182.886E-03     340.023E-03    -157.884E-03     168.525E-03
            1267     5.36849E-03     162.257E-03    -128.149E+06    -111.613E+06    -63.0336E+06    -6.70106E+06    -194.237E-03     355.165E-03    -160.928E-03     191.991E-03    -195.076E-03     355.339E-03    -160.896E-03     189.515E-03
            1268     6.11384E-03     162.437E-03    -113.659E+06    -91.5960E+06    -44.9268E+06    -10.8938E+06    -207.869E-03     372.354E-03    -164.485E-03     210.547E-03    -208.901E-03     372.794E-03    -164.412E-03     207.073E-03
            1269     6.85034E-03     162.644E-03    -99.8126E+06    -72.0166E+06    -27.9662E+06    -15.0207E+06    -222.766E-03     391.293E-03    -168.527E-03     225.401E-03    -224.031E-03     392.039E-03    -168.418E-03     220.713E-03
            1270     7.57723E-03     162.877E-03    -85.6173E+06    -53.2236E+06    -11.6466E+06    -19.0241E+06    -238.683E-03     411.719E-03    -173.035E-03     236.302E-03    -240.211E-03     412.799E-03    -172.892E-03     230.176E-03
            1271     8.29370E-03     163.135E-03    -70.6478E+06    -34.5996E+06     4.71064E+06    -21.8324E+06    -255.028E-03     433.008E-03    -177.980E-03     242.808E-03    -256.826E-03     434.432E-03    -177.804E-03     235.059E-03
            1272     8.99937E-03     163.415E-03    -57.0267E+06    -14.7440E+06     20.4587E+06    -22.8450E+06    -270.959E-03     454.255E-03    -183.296E-03     245.217E-03    -273.030E-03     456.025E-03    -183.090E-03     235.703E-03
            1273     9.69387E-03     163.713E-03    -46.4845E+06     2.60578E+06     34.1437E+06    -22.4277E+06    -285.536E-03     474.418E-03    -188.882E-03     243.924E-03    -287.856E-03     476.495E-03    -188.648E-03     232.616E-03
            1274     10.3787E-03     164.023E-03    -37.8432E+06     29.4346E+06     48.9085E+06    -20.1617E+06    -297.557E-03     492.153E-03    -194.596E-03     239.115E-03    -300.125E-03     494.560E-03    -194.339E-03     225.969E-03
            1275     11.0562E-03     164.341E-03    -30.2037E+06     56.5204E+06     62.8466E+06    -16.1276E+06    -306.239E-03     506.521E-03    -200.282E-03     231.107E-03    -309.052E-03     509.254E-03    -200.006E-03     216.018E-03
            1276     11.7268E-03     164.658E-03    -24.2996E+06     77.3375E+06     75.4897E+06    -13.2918E+06    -310.890E-03     516.672E-03    -205.782E-03     221.026E-03    -313.940E-03     519.697E-03    -205.482E-03     203.961E-03
            1277     12.3950E-03     164.970E-03    -20.3097E+06     82.8951E+06     89.0856E+06    -15.0612E+06    -310.578E-03     521.525E-03    -210.947E-03     206.396E-03    -313.750E-03     524.663E-03    -210.592E-03     187.721E-03
            1278     13.0639E-03     165.255E-03    -12.5579E+06     65.8689E+06     96.4126E+06    -13.4014E+06    -306.632E-03     522.233E-03    -215.601E-03     192.358E-03    -310.027E-03     525.539E-03    -215.197E-03     171.497E-03
            1279     13.7346E-03     165.531E-03    -1.70524E+06     52.0373E+06     104.369E+06    -7.24946E+06    -299.874E-03     519.552E-03    -219.678E-03     160.708E-03    -302.597E-03     522.151E-03    -219.229E-03     142.029E-03
            1280     785.117E-06     162.966E-03    -277.510E+06    -207.802E+06    -274.760E+06    -7.20196E+06    -139.455E-03     276.279E-03    -136.824E-03     32.3468E-03    -140.151E-03     276.042E-03    -137.494E-03     32.1626E-03
            1281     1.56860E-03     163.004E-03    -264.886E+06    -193.494E+06    -249.893E+06    -12.4138E+06    -142.012E-03     280.674E-03    -138.662E-03     59.3952E-03    -142.710E-03     280.463E-03    -139.247E-03     59.0635E-03
            1282     2.34955E-03     163.068E-03    -243.583E+06    -178.032E+06    -215.359E+06    -18.1479E+06    -147.690E-03     287.955E-03    -140.265E-03     87.5403E-03    -148.371E-03     287.759E-03    -140.731E-03     87.0140E-03
            1283     3.12644E-03     163.159E-03    -216.743E+06    -159.357E+06    -178.297E+06    -22.2353E+06    -155.737E-03     298.201E-03    -142.464E-03     114.911E-03    -156.397E-03     298.040E-03    -142.810E-03     114.146E-03
            1284     3.89752E-03     163.276E-03    -188.631E+06    -141.793E+06    -143.352E+06    -25.0808E+06    -166.352E-03     311.635E-03    -145.284E-03     140.861E-03    -167.002E-03     311.529E-03    -145.521E-03     139.769E-03
            1285     4.66056E-03     163.422E-03    -161.496E+06    -124.038E+06    -112.493E+06    -27.8060E+06    -179.229E-03     327.963E-03    -148.734E-03     164.498E-03    -179.901E-03     327.951E-03    -148.882E-03     162.931E-03
            1286     5.41535E-03     163.597E-03    -135.992E+06    -107.689E+06    -85.1396E+06    -29.0815E+06    -193.962E-03     346.754E-03    -152.792E-03     185.236E-03    -194.694E-03     346.875E-03    -152.864E-03     183.041E-03
            1287     6.16012E-03     163.802E-03    -113.623E+06    -87.3419E+06    -59.8356E+06    -29.3877E+06    -210.126E-03     367.540E-03    -157.414E-03     202.488E-03    -210.985E-03     367.869E-03    -157.422E-03     199.430E-03
            1288     6.89441E-03     164.035E-03    -94.1380E+06    -65.5042E+06    -36.2715E+06    -30.5425E+06    -227.384E-03     389.942E-03    -162.558E-03     215.926E-03    -228.427E-03     390.535E-03    -162.508E-03     211.745E-03
            1289     7.61729E-03     164.297E-03    -77.5929E+06    -46.7566E+06    -15.3490E+06    -32.1147E+06    -245.094E-03     413.262E-03    -168.168E-03     225.399E-03    -246.356E-03     414.140E-03    -168.065E-03     219.861E-03
            1290     8.32822E-03     164.585E-03    -65.2890E+06    -31.2623E+06     1.93580E+06    -33.0268E+06    -262.300E-03     436.451E-03    -174.151E-03     230.926E-03    -263.814E-03     437.630E-03    -174.001E-03     223.808E-03
            1291     9.02772E-03     164.894E-03    -56.2418E+06    -16.6344E+06     17.2348E+06    -31.6940E+06    -278.374E-03     458.769E-03    -180.395E-03     233.054E-03    -280.143E-03     460.242E-03    -180.203E-03     224.271E-03
            1292     9.71707E-03     165.222E-03    -48.2128E+06    -96.4095E+03     32.7337E+06    -28.8403E+06    -292.463E-03     479.238E-03    -186.775E-03     231.926E-03    -294.475E-03     480.995E-03    -186.541E-03     221.441E-03
            1293     10.3969E-03     165.559E-03    -40.4053E+06     24.5207E+06     48.6204E+06    -27.1857E+06    -303.628E-03     496.762E-03    -193.134E-03     227.977E-03    -305.890E-03     498.836E-03    -192.868E-03     215.650E-03
            1294     11.0687E-03     165.900E-03    -31.0285E+06     42.2488E+06     62.4641E+06    -23.7013E+06    -311.366E-03     510.694E-03    -199.327E-03     221.422E-03    -313.845E-03     513.038E-03    -199.031E-03     207.223E-03
            1295     11.7361E-03     166.234E-03    -20.0623E+06     66.6051E+06     79.9643E+06    -15.9553E+06    -314.826E-03     520.035E-03    -205.209E-03     211.841E-03    -317.513E-03     522.660E-03    -204.876E-03     195.834E-03
            1296     12.4013E-03     166.553E-03    -10.1357E+06     88.5376E+06     101.335E+06    -10.1110E+06    -313.895E-03     524.551E-03    -210.657E-03     197.083E-03    -316.707E-03     527.351E-03    -210.264E-03     179.588E-03
            1297     13.0650E-03     166.844E-03    -6.83140E+06     66.9564E+06     106.894E+06    -10.9426E+06    -308.754E-03     524.271E-03    -215.517E-03     183.345E-03    -311.816E-03     527.237E-03    -215.070E-03     163.518E-03
            1298     13.7309E-03     167.115E-03    -7.25224E+06     35.9152E+06     108.943E+06    -8.53702E+06    -299.496E-03     519.185E-03    -219.689E-03     154.946E-03    -302.027E-03     521.501E-03    -219.186E-03     136.999E-03
            1299     790.169E-06     164.202E-03    -288.751E+06    -175.022E+06    -284.982E+06    -16.1594E+06    -133.978E-03     265.295E-03    -131.317E-03     28.1219E-03    -134.759E-03     265.255E-03    -132.070E-03     27.8303E-03
            1300     1.57884E-03     164.247E-03    -277.407E+06    -163.186E+06    -263.661E+06    -29.2509E+06    -137.195E-03     270.552E-03    -133.357E-03     51.2797E-03    -137.975E-03     270.531E-03    -134.036E-03     50.7310E-03
            1301     2.36358E-03     164.320E-03    -259.052E+06    -150.319E+06    -232.626E+06    -41.5843E+06    -143.461E-03     278.774E-03    -135.312E-03     75.2012E-03    -144.229E-03     278.763E-03    -135.882E-03     74.3672E-03
            1302     3.14356E-03     164.422E-03    -237.557E+06    -138.502E+06    -201.185E+06    -51.8201E+06    -152.388E-03     290.326E-03    -137.938E-03     98.5340E-03    -153.138E-03     290.325E-03    -138.398E-03     97.3860E-03
            1303     3.91652E-03     164.558E-03    -213.248E+06    -125.807E+06    -171.316E+06    -59.6046E+06    -163.914E-03     305.186E-03    -141.272E-03     120.635E-03    -164.645E-03     305.213E-03    -141.637E-03     119.141E-03
            1304     4.68115E-03     164.725E-03    -187.749E+06    -113.450E+06    -143.091E+06    -64.8946E+06    -177.806E-03     323.123E-03    -145.316E-03     140.996E-03    -178.530E-03     323.197E-03    -145.595E-03     139.084E-03
            1305     5.43511E-03     164.924E-03    -162.980E+06    -104.822E+06    -118.235E+06    -67.4249E+06    -193.632E-03     343.667E-03    -150.035E-03     158.908E-03    -194.367E-03     343.801E-03    -150.238E-03     156.474E-03
            1306     6.17799E-03     165.156E-03    -138.864E+06    -88.9404E+06    -92.7997E+06    -67.6658E+06    -210.888E-03     366.258E-03    -155.371E-03     173.828E-03    -211.676E-03     366.516E-03    -155.504E-03     170.733E-03
            1307     6.90855E-03     165.418E-03    -116.243E+06    -69.3794E+06    -64.8236E+06    -65.8735E+06    -229.016E-03     390.281E-03    -161.265E-03     185.519E-03    -229.904E-03     390.709E-03    -161.320E-03     181.580E-03
            1308     7.62621E-03     165.711E-03    -96.5138E+06    -54.1614E+06    -36.5122E+06    -61.8800E+06    -246.877E-03     414.487E-03    -167.610E-03     193.735E-03    -247.901E-03     415.093E-03    -167.574E-03     188.750E-03
            1309     8.33228E-03     166.029E-03    -78.6721E+06    -41.5007E+06    -9.98377E+06    -55.8290E+06    -263.638E-03     437.882E-03    -174.243E-03     198.834E-03    -264.822E-03     438.679E-03    -174.119E-03     192.615E-03
            1310     9.02742E-03     166.369E-03    -61.7242E+06    -30.2612E+06     13.6163E+06    -47.8877E+06    -278.600E-03     459.601E-03    -181.000E-03     201.266E-03    -279.948E-03     460.593E-03    -180.799E-03     193.689E-03
            1311     9.71229E-03     166.725E-03    -45.7940E+06    -12.2107E+06     36.2208E+06    -39.8769E+06    -290.838E-03     478.550E-03    -187.712E-03     201.555E-03    -292.367E-03     479.778E-03    -187.447E-03     192.499E-03
            1312     10.3895E-03     167.089E-03    -31.6571E+06     14.4236E+06     57.1836E+06    -31.8661E+06    -300.148E-03     494.359E-03    -194.212E-03     200.502E-03    -301.889E-03     495.882E-03    -193.901E-03     189.828E-03
            1313     11.0615E-03     167.452E-03    -20.9575E+06     33.6569E+06     71.8183E+06    -26.1868E+06    -306.391E-03     506.762E-03    -200.370E-03     197.791E-03    -308.341E-03     508.556E-03    -200.030E-03     185.421E-03
            1314     11.7287E-03     167.805E-03    -12.7250E+06     49.2390E+06     87.6195E+06    -21.0432E+06    -309.419E-03     515.537E-03    -206.119E-03     192.430E-03    -311.577E-03     517.577E-03    -205.733E-03     178.353E-03
            1315     12.3939E-03     168.135E-03    -7.02112E+06     71.2465E+06     107.647E+06    -10.5574E+06    -308.594E-03     519.964E-03    -211.370E-03     182.664E-03    -310.937E-03     522.226E-03    -210.925E-03     167.145E-03
            1316     13.0598E-03     168.434E-03    -2.24503E+06     66.0048E+06     119.329E+06     562.833E+03    -303.417E-03     519.426E-03    -216.009E-03     171.856E-03    -306.039E-03     521.928E-03    -215.505E-03     154.231E-03
            1317     13.7329E-03     168.693E-03     2.53219E+06     35.0100E+06     127.381E+06     3.45098E+06    -293.500E-03     513.450E-03    -219.950E-03     146.354E-03    -295.719E-03     515.431E-03    -219.367E-03     130.035E-03
            1318     788.090E-06     165.435E-03    -216.788E+06    -125.525E+06    -213.460E+06    -19.2671E+06    -138.796E-03     275.700E-03    -136.905E-03     17.6054E-03    -139.400E-03     275.693E-03    -137.476E-03     17.1564E-03
            1319     1.57264E-03     165.486E-03    -209.269E+06    -116.271E+06    -195.975E+06    -33.6344E+06    -142.222E-03     281.035E-03    -138.813E-03     31.8645E-03    -142.837E-03     281.046E-03    -139.320E-03     31.0741E-03
            1320     2.35437E-03     165.567E-03    -199.458E+06    -108.324E+06    -175.347E+06    -46.9367E+06    -148.445E-03     289.490E-03    -141.045E-03     46.3416E-03    -149.069E-03     289.513E-03    -141.476E-03     45.1581E-03
            1321     3.12984E-03     165.684E-03    -187.589E+06    -100.921E+06    -154.042E+06    -58.8379E+06    -156.780E-03     300.827E-03    -144.047E-03     60.0487E-03    -157.412E-03     300.865E-03    -144.399E-03     58.4201E-03
            1322     3.89789E-03     165.834E-03    -175.549E+06    -92.8244E+06    -135.487E+06    -69.5328E+06    -166.872E-03     314.619E-03    -147.747E-03     72.7669E-03    -167.516E-03     314.688E-03    -148.035E-03     70.6619E-03
            1323     4.65709E-03     166.021E-03    -162.954E+06    -87.4945E+06    -118.579E+06    -78.1132E+06    -178.638E-03     330.735E-03    -152.097E-03     84.5499E-03    -179.292E-03     330.831E-03    -152.327E-03     81.9495E-03
            1324     5.40626E-03     166.243E-03    -149.622E+06    -85.1460E+06    -102.759E+06    -84.6930E+06    -191.986E-03     349.046E-03    -157.061E-03     95.1192E-03    -192.648E-03     349.164E-03    -157.234E-03     91.9921E-03
            1325     6.14390E-03     166.500E-03    -136.021E+06    -77.3801E+06    -85.7709E+06    -88.9687E+06    -206.554E-03     369.136E-03    -162.582E-03     104.450E-03    -207.234E-03     369.303E-03    -162.701E-03     100.816E-03
            1326     6.86921E-03     166.792E-03    -121.896E+06    -67.4364E+06    -66.0838E+06    -89.7710E+06    -221.516E-03     390.084E-03    -168.569E-03     112.622E-03    -222.227E-03     390.315E-03    -168.624E-03     108.480E-03
            1327     7.58293E-03     167.113E-03    -106.286E+06    -60.3092E+06    -43.1431E+06    -87.4709E+06    -236.165E-03     411.043E-03    -174.878E-03     119.563E-03    -236.914E-03     411.331E-03    -174.852E-03     114.837E-03
            1328     8.28512E-03     167.461E-03    -89.9831E+06    -56.1029E+06    -20.2241E+06    -82.0307E+06    -249.898E-03     431.224E-03    -181.327E-03     125.860E-03    -250.689E-03     431.566E-03    -181.216E-03     120.498E-03
            1329     8.97692E-03     167.829E-03    -74.9577E+06    -52.5704E+06     631.360E+03    -74.3991E+06    -261.809E-03     449.525E-03    -187.715E-03     132.270E-03    -262.662E-03     449.938E-03    -187.527E-03     126.175E-03
            1330     9.66173E-03     168.211E-03    -61.5747E+06    -36.6571E+06     23.5490E+06    -66.5062E+06    -271.494E-03     465.354E-03    -193.860E-03     139.070E-03    -272.462E-03     465.921E-03    -193.600E-03     132.068E-03
            1331     10.3417E-03     168.597E-03    -49.2024E+06    -19.0390E+06     47.5449E+06    -55.7027E+06    -279.060E-03     478.692E-03    -199.633E-03     145.910E-03    -280.179E-03     479.448E-03    -199.296E-03     137.866E-03
            1332     11.0178E-03     168.982E-03    -38.5826E+06     10.6704E+06     71.1971E+06    -42.9208E+06    -284.416E-03     489.347E-03    -204.930E-03     151.544E-03    -285.743E-03     490.383E-03    -204.534E-03     142.247E-03
            1333     11.6937E-03     169.351E-03    -30.9179E+06     25.3182E+06     94.9475E+06    -31.4903E+06    -287.317E-03     497.063E-03    -209.746E-03     155.216E-03    -288.886E-03     498.350E-03    -209.263E-03     144.332E-03
            1334     12.3687E-03     169.700E-03    -24.2556E+06     33.5329E+06     112.645E+06    -15.6038E+06    -287.048E-03     501.043E-03    -213.995E-03     154.388E-03    -288.874E-03     502.585E-03    -213.445E-03     141.725E-03
            1335     13.0465E-03     170.000E-03    -19.1694E+06     47.2495E+06     123.688E+06    -2.59864E+06    -283.379E-03     500.994E-03    -217.615E-03     151.363E-03    -285.535E-03     502.897E-03    -217.038E-03     136.642E-03
            1336     13.7214E-03     170.267E-03    -12.7653E+06     34.8298E+06     136.985E+06    -2.22131E+03    -276.376E-03     497.038E-03    -220.662E-03     134.046E-03    -278.268E-03     498.613E-03    -220.009E-03     120.418E-03
            1337     771.248E-06     166.698E-03    -131.117E+06    -73.4277E+06    -125.652E+06    -15.6607E+06    -161.064E-03     320.361E-03    -159.297E-03    -1.09671E-03    -161.482E-03     320.314E-03    -159.629E-03    -1.67241E-03
            1338     1.54218E-03     166.753E-03    -127.857E+06    -68.4971E+06    -114.770E+06    -28.7608E+06    -163.666E-03     325.421E-03    -161.755E-03    -6.38389E-03    -164.090E-03     325.366E-03    -162.044E-03    -7.53922E-03
            1339     2.30695E-03     166.844E-03    -119.450E+06    -63.6356E+06    -97.4827E+06    -40.9419E+06    -167.562E-03     331.935E-03    -164.372E-03    -11.2449E-03    -167.963E-03     331.857E-03    -164.594E-03    -13.0639E-03
            1340     3.06556E-03     166.970E-03    -109.547E+06    -61.2676E+06    -79.9572E+06    -50.2033E+06    -172.175E-03     339.788E-03    -167.614E-03    -15.7138E-03    -172.538E-03     339.671E-03    -167.766E-03    -18.1905E-03
            1341     3.81683E-03     167.133E-03     -99.796E+06    -55.1171E+06    -64.1259E+06    -57.5332E+06    -177.372E-03     348.799E-03    -171.427E-03    -19.7954E-03    -177.699E-03     348.662E-03    -171.523E-03    -22.9132E-03
            1342     4.55950E-03     167.332E-03    -90.7590E+06    -52.1719E+06    -49.5026E+06    -64.0475E+06    -182.853E-03     358.615E-03    -175.762E-03    -23.3209E-03    -183.141E-03     358.446E-03    -175.802E-03    -27.0510E-03
            1343     5.29340E-03     167.569E-03    -82.9297E+06    -52.8073E+06    -34.6774E+06    -68.6437E+06    -188.604E-03     369.153E-03    -180.549E-03    -25.8794E-03    -188.855E-03     368.940E-03    -180.525E-03    -30.1272E-03
            1344     6.01745E-03     167.844E-03    -76.4231E+06    -49.4194E+06    -19.9862E+06    -71.5526E+06    -194.323E-03     379.997E-03    -185.674E-03    -27.1526E-03    -194.550E-03     379.767E-03    -185.591E-03    -31.8217E-03
            1345     6.73257E-03     168.152E-03    -71.5551E+06    -44.7434E+06    -7.57235E+06    -72.9720E+06    -199.571E-03     390.541E-03    -190.970E-03    -26.3920E-03    -199.785E-03     390.314E-03    -190.839E-03    -31.3782E-03
            1346     7.43920E-03     168.493E-03    -68.7957E+06    -42.2842E+06     2.66985E+06    -73.5205E+06    -204.442E-03     400.701E-03    -196.259E-03    -22.7086E-03    -204.663E-03     400.490E-03    -196.085E-03    -27.9166E-03
            1347     8.13883E-03     168.860E-03    -68.7843E+06    -45.3653E+06     10.4565E+06    -72.5487E+06    -208.741E-03     410.092E-03    -201.351E-03    -15.5587E-03    -208.986E-03     409.894E-03    -201.133E-03    -20.9040E-03
            1348     8.83452E-03     169.248E-03    -69.9935E+06    -47.9295E+06     18.8576E+06    -70.8859E+06    -212.384E-03     418.433E-03    -206.049E-03    -4.34595E-03    -212.683E-03     418.272E-03    -205.784E-03    -9.79569E-03
            1349     9.52782E-03     169.647E-03    -69.1665E+06    -41.2008E+06     31.7332E+06    -68.6207E+06    -216.004E-03     426.209E-03    -210.205E-03     11.0284E-03    -216.394E-03     426.149E-03    -209.886E-03     5.42467E-03
            1350     10.2196E-03     170.054E-03    -66.1947E+06    -34.0525E+06     49.2719E+06    -65.6160E+06    -219.901E-03     433.648E-03    -213.747E-03     30.1684E-03    -220.407E-03     433.705E-03    -213.355E-03     24.3380E-03
            1351     10.9125E-03     170.456E-03    -60.1583E+06    -20.6676E+06     68.3664E+06    -57.5059E+06    -223.912E-03     440.505E-03    -216.593E-03     53.3705E-03    -224.572E-03     440.742E-03    -216.134E-03     47.1973E-03
            1352     11.6048E-03     170.847E-03    -50.4970E+06    -6.08580E+06     91.6754E+06    -42.1246E+06    -227.871E-03     446.606E-03    -218.735E-03     80.0905E-03    -228.729E-03     447.061E-03    -218.195E-03     73.3715E-03
            1353     12.3014E-03     171.205E-03    -36.6758E+06    -1.57591E+06     108.888E+06    -29.3287E+06    -232.274E-03     452.486E-03    -220.212E-03     107.094E-03    -233.340E-03     453.151E-03    -219.612E-03     99.3301E-03
            1354     12.9988E-03     171.527E-03    -14.4084E+06     14.2434E+06     130.425E+06    -13.5833E+06    -238.451E-03     459.745E-03    -221.294E-03     128.359E-03    -239.840E-03     460.781E-03    -220.642E-03     118.673E-03
            1355     13.7094E-03     171.787E-03     4.77481E+06     28.3167E+06     151.051E+06    -932.971E+03    -240.741E-03     462.962E-03    -222.222E-03     124.100E-03    -242.107E-03     464.016E-03    -221.515E-03     114.335E-03
            1356     738.796E-06     168.047E-03    -36.3429E+06    -32.6038E+06    -31.9986E+06    -9.75601E+06    -212.057E-03     426.785E-03    -214.728E-03    -45.4283E-03    -212.381E-03     426.410E-03    -214.788E-03    -46.4113E-03
            1357     1.46951E-03     168.108E-03    -33.0550E+06    -27.5998E+06    -23.2053E+06    -18.3656E+06    -210.734E-03     426.496E-03    -215.762E-03    -80.6097E-03    -210.964E-03     426.098E-03    -215.790E-03    -82.3734E-03
            1358     2.19763E-03     168.202E-03    -29.5628E+06    -26.2701E+06    -9.88034E+06    -25.3945E+06    -208.158E-03     425.944E-03    -217.785E-03    -116.234E-03    -208.285E-03     425.443E-03    -217.754E-03    -118.783E-03
            1359     2.92123E-03     168.332E-03    -27.3798E+06    -27.8884E+06     1.85835E+06    -30.7954E+06    -203.953E-03     424.361E-03    -220.408E-03    -149.233E-03    -203.953E-03     423.729E-03    -220.319E-03    -152.460E-03
            1360     3.63858E-03     168.498E-03    -24.8088E+06    -25.0985E+06     14.0057E+06    -34.6421E+06    -198.335E-03     421.818E-03    -223.483E-03    -178.735E-03    -198.200E-03     421.068E-03    -223.341E-03    -182.545E-03
            1361     4.34958E-03     168.700E-03    -23.4890E+06    -23.2164E+06     27.0254E+06    -36.4531E+06    -191.379E-03     418.301E-03    -226.922E-03    -204.041E-03    -191.118E-03     417.434E-03    -226.719E-03    -208.300E-03
            1362     5.05334E-03     168.937E-03    -23.5337E+06    -23.6625E+06     39.4713E+06    -37.4842E+06    -182.841E-03     413.401E-03    -230.560E-03    -223.706E-03    -182.464E-03     412.423E-03    -230.294E-03    -228.284E-03
            1363     5.75096E-03     169.211E-03    -24.1918E+06    -22.3105E+06     50.8297E+06    -37.9561E+06    -172.806E-03     406.971E-03    -234.164E-03    -236.355E-03    -172.345E-03     405.933E-03    -233.843E-03    -241.115E-03
            1364     6.44388E-03     169.516E-03    -25.2453E+06    -18.8437E+06     61.2048E+06    -37.7081E+06    -162.000E-03     399.519E-03    -237.519E-03    -241.496E-03    -161.501E-03     398.479E-03    -237.149E-03    -246.298E-03
            1365     7.13442E-03     169.852E-03    -26.8203E+06    -16.1554E+06     69.9399E+06    -35.8141E+06    -150.787E-03     391.202E-03    -240.415E-03    -238.553E-03    -150.293E-03     390.203E-03    -240.003E-03    -243.254E-03
            1366     7.82564E-03     170.215E-03    -27.7364E+06    -17.3540E+06     77.5712E+06    -33.3526E+06    -139.743E-03     382.388E-03    -242.646E-03    -227.762E-03    -139.283E-03     381.453E-03    -242.192E-03    -232.280E-03
            1367     8.52035E-03     170.596E-03    -27.1060E+06    -20.0271E+06     85.8238E+06    -30.6230E+06    -129.768E-03     373.813E-03    -244.045E-03    -209.844E-03    -129.367E-03     372.963E-03    -243.547E-03    -214.127E-03
            1368     9.22155E-03     170.995E-03    -25.1920E+06    -16.4017E+06     95.5509E+06    -30.2258E+06    -121.530E-03     366.022E-03    -244.492E-03    -184.606E-03    -121.228E-03     365.314E-03    -243.954E-03    -188.640E-03
            1369     9.93294E-03     171.402E-03    -23.4289E+06    -12.6161E+06     104.378E+06    -28.4063E+06    -115.358E-03     359.254E-03    -243.896E-03    -152.293E-03    -115.179E-03     358.713E-03    -243.322E-03    -156.047E-03
            1370     10.6561E-03     171.813E-03    -22.3723E+06    -11.7821E+06     109.917E+06    -27.4890E+06    -111.236E-03     353.405E-03    -242.168E-03    -113.259E-03    -111.190E-03     353.023E-03    -241.569E-03    -116.720E-03
            1371     11.3994E-03     172.213E-03    -22.2113E+06    -15.8647E+06     113.040E+06    -23.1325E+06    -110.271E-03     349.621E-03    -239.350E-03    -69.3440E-03    -110.355E-03     349.363E-03    -238.729E-03    -72.4892E-03
            1372     12.1574E-03     172.598E-03    -19.2431E+06    -1.44655E+06     125.143E+06    -24.4787E+06    -114.409E-03     350.135E-03    -235.726E-03    -24.9357E-03    -114.666E-03     350.076E-03    -235.070E-03    -28.1405E-03
            1373     12.9269E-03     172.946E-03    -8.93907E+06    -18.8204E+06     128.856E+06    -17.4239E+06    -127.293E-03     359.028E-03    -231.735E-03     23.2366E-03    -127.730E-03     359.132E-03    -231.050E-03     19.2089E-03
            1374     13.6665E-03     173.265E-03     6.75093E+06    -1.60127E+06     117.133E+06    -882.005E+03    -136.561E-03     363.963E-03    -227.401E-03     58.4897E-03    -137.104E-03     364.304E-03    -226.823E-03     54.0973E-03
            1375     13.6409E-03     86.2106E-03    -4.74493E+06     68.1678E+06     86.3750E+06    -492.442E+03    -228.429E-03     454.764E-03    -226.335E-03     128.868E-03    -231.257E-03     457.566E-03    -225.995E-03     112.311E-03
            1376     12.9251E-03     86.0005E-03    -11.0023E+06     69.0561E+06     86.1846E+06     381.530E+03    -229.509E-03     455.866E-03    -226.357E-03     155.839E-03    -233.374E-03     459.688E-03    -226.011E-03     135.952E-03
            1377     12.2040E-03     85.7895E-03    -15.3491E+06     59.7046E+06     84.8106E+06     778.293E+03    -230.129E-03     456.516E-03    -226.387E-03     161.919E-03    -234.181E-03     460.480E-03    -226.028E-03     141.732E-03
            1378     11.4870E-03     85.5631E-03    -20.6155E+06     47.6844E+06     79.9535E+06     142.263E+03    -230.938E-03     457.337E-03    -226.399E-03     170.268E-03    -235.287E-03     461.550E-03    -226.038E-03     149.518E-03
            1379     10.7687E-03     85.3293E-03    -27.5976E+06     35.8824E+06     70.0906E+06    -640.346E+03    -231.198E-03     457.581E-03    -226.383E-03     172.572E-03    -235.589E-03     461.798E-03    -226.045E-03     151.950E-03
            1380     10.0502E-03     85.0943E-03    -34.1784E+06     29.8529E+06     60.8807E+06    -436.199E+03    -231.209E-03     457.574E-03    -226.365E-03     172.478E-03    -235.568E-03     461.741E-03    -226.054E-03     152.155E-03
            1381     9.33285E-03     84.8599E-03    -41.0715E+06     26.0241E+06     53.2066E+06    -1.10640E+06    -230.974E-03     457.334E-03    -226.359E-03     170.125E-03    -235.220E-03     461.372E-03    -226.071E-03     150.256E-03
            1382     8.61456E-03     84.6315E-03    -49.7071E+06     18.2440E+06     45.5895E+06    -1.88506E+06    -230.588E-03     456.963E-03    -226.375E-03     165.896E-03    -234.639E-03     460.770E-03    -226.101E-03     146.675E-03
            1383     7.89626E-03     84.4099E-03    -58.8204E+06    -3.40028E+06     35.1781E+06    -1.71680E+06    -230.244E-03     456.652E-03    -226.408E-03     159.693E-03    -234.002E-03     460.087E-03    -226.142E-03     141.313E-03
            1384     7.17825E-03     84.1986E-03    -67.0830E+06    -36.2969E+06     20.5335E+06    -1.21213E+06    -229.841E-03     456.280E-03    -226.440E-03     151.250E-03    -233.207E-03     459.220E-03    -226.187E-03     133.915E-03
            1385     6.45994E-03     84.0005E-03    -75.6598E+06    -68.3073E+06     4.74532E+06    -771.701E+03    -229.349E-03     455.817E-03    -226.468E-03     140.673E-03    -232.269E-03     458.212E-03    -226.235E-03     124.594E-03
            1386     5.74185E-03     83.8175E-03    -85.0736E+06    -99.3674E+06    -11.7331E+06    -285.066E+03    -228.878E-03     455.369E-03    -226.491E-03     128.375E-03    -231.328E-03     457.199E-03    -226.282E-03     113.735E-03
            1387     5.02398E-03     83.6526E-03    -94.4178E+06    -124.894E+06    -28.8287E+06    -54.3989E+03    -228.399E-03     454.896E-03    -226.497E-03     114.838E-03    -230.386E-03     456.188E-03    -226.323E-03     101.796E-03
            1388     4.30607E-03     83.5063E-03    -103.995E+06    -149.262E+06    -47.7616E+06     246.413E+03    -227.934E-03     454.421E-03    -226.486E-03     100.259E-03    -229.482E-03     455.207E-03    -226.358E-03     88.9439E-03
            1389     3.58835E-03     83.3803E-03    -113.434E+06    -174.932E+06    -68.4933E+06     401.074E+03    -227.517E-03     453.975E-03    -226.458E-03     84.7791E-03    -228.664E-03     454.297E-03    -226.382E-03     75.2676E-03
            1390     2.87076E-03     83.2758E-03    -122.046E+06    -201.974E+06    -88.6068E+06     195.714E+03    -227.148E-03     453.569E-03    -226.421E-03     68.7607E-03    -227.946E-03     453.474E-03    -226.394E-03     61.0955E-03
            1391     2.15304E-03     83.1940E-03    -129.851E+06    -224.829E+06    -108.312E+06     367.893E+03    -226.807E-03     453.174E-03    -226.367E-03     52.3129E-03    -227.327E-03     452.750E-03    -226.395E-03     46.5120E-03
            1392     1.43532E-03     83.1343E-03    -136.188E+06    -239.793E+06    -126.540E+06     293.172E+03    -226.522E-03     452.824E-03    -226.302E-03     35.5416E-03    -226.840E-03     452.174E-03    -226.389E-03     31.5970E-03
            1393     717.563E-06     83.0977E-03    -139.388E+06    -252.847E+06    -137.244E+06    -207.396E+03    -226.193E-03     452.610E-03    -226.417E-03     19.2027E-03    -226.378E-03     451.802E-03    -226.535E-03     17.0480E-03
            1394     13.6425E-03     84.7216E-03    -3.42578E+06     68.5796E+06     87.7501E+06     458.427E+03    -228.637E-03     454.945E-03    -226.309E-03     129.599E-03    -231.483E-03     457.768E-03    -225.964E-03     113.011E-03
            1395     12.9217E-03     84.5094E-03    -8.83553E+06     69.3392E+06     87.3080E+06     118.346E+03    -229.469E-03     455.798E-03    -226.328E-03     157.221E-03    -233.358E-03     459.648E-03    -225.979E-03     137.276E-03
            1396     12.2058E-03     84.3012E-03    -15.5958E+06     58.2713E+06     83.2626E+06    -49.6077E+03    -230.196E-03     456.550E-03    -226.354E-03     162.608E-03    -234.255E-03     460.519E-03    -225.999E-03     142.396E-03
            1397     11.4866E-03     84.0714E-03    -22.0775E+06     48.2140E+06     79.5175E+06    -345.049E+03    -230.952E-03     457.319E-03    -226.366E-03     170.107E-03    -235.310E-03     461.539E-03    -226.007E-03     149.333E-03
            1398     10.7691E-03     83.8398E-03    -28.0921E+06     37.4102E+06     72.0457E+06    -741.449E+03    -231.099E-03     457.457E-03    -226.358E-03     172.267E-03    -235.494E-03     461.677E-03    -226.012E-03     151.646E-03
            1399     10.0516E-03     83.6037E-03    -34.3490E+06     30.1724E+06     62.6509E+06    -1.22371E+06    -230.930E-03     457.281E-03    -226.351E-03     172.695E-03    -235.293E-03     461.448E-03    -226.032E-03     152.390E-03
            1400     9.33274E-03     83.3708E-03    -41.9119E+06     26.3709E+06     53.3430E+06    -846.989E+03    -230.666E-03     457.028E-03    -226.362E-03     170.558E-03    -234.912E-03     461.064E-03    -226.073E-03     150.757E-03
            1401     8.61430E-03     83.1416E-03    -49.6152E+06     19.0201E+06     45.3594E+06    -352.121E+03    -230.478E-03     456.873E-03    -226.396E-03     166.218E-03    -234.523E-03     460.679E-03    -226.125E-03     147.066E-03
            1402     7.89604E-03     82.9202E-03    -58.0258E+06    -3.32658E+06     34.5403E+06    -865.440E+03    -230.248E-03     456.685E-03    -226.437E-03     159.708E-03    -233.997E-03     460.115E-03    -226.175E-03     141.359E-03
            1403     7.17763E-03     82.7086E-03    -67.3690E+06    -37.3572E+06     19.2008E+06    -973.258E+03    -229.885E-03     456.353E-03    -226.469E-03     151.039E-03    -233.246E-03     459.287E-03    -226.221E-03     133.709E-03
            1404     6.45976E-03     82.5104E-03    -76.9509E+06    -69.7677E+06     3.17814E+06    -221.518E+03    -229.434E-03     455.926E-03    -226.492E-03     140.493E-03    -232.356E-03     458.318E-03    -226.264E-03     124.409E-03
            1405     5.74187E-03     82.3276E-03    -86.5681E+06    -99.3336E+06    -13.4194E+06     93.9895E+03    -228.962E-03     455.466E-03    -226.504E-03     128.307E-03    -231.418E-03     457.301E-03    -226.302E-03     113.658E-03
            1406     5.02390E-03     82.1625E-03    -96.2060E+06    -124.972E+06    -30.6337E+06    -98.2164E+03    -228.493E-03     454.992E-03    -226.499E-03     114.809E-03    -230.487E-03     456.290E-03    -226.331E-03     101.754E-03
            1407     4.30625E-03     82.0161E-03    -105.438E+06    -150.059E+06    -48.9465E+06     20.4757E+03    -227.983E-03     454.462E-03    -226.479E-03     100.299E-03    -229.536E-03     455.250E-03    -226.354E-03     88.9705E-03
            1408     3.58845E-03     81.8904E-03    -114.487E+06    -174.474E+06    -68.8853E+06     129.277E+03    -227.449E-03     453.904E-03    -226.455E-03     84.8748E-03    -228.602E-03     454.231E-03    -226.380E-03     75.3589E-03
            1409     2.87044E-03     81.7859E-03    -123.233E+06    -202.084E+06    -89.3389E+06     179.134E+03    -227.057E-03     453.493E-03    -226.436E-03     68.7611E-03    -227.861E-03     453.401E-03    -226.411E-03     61.0993E-03
            1410     2.15282E-03     81.7039E-03    -130.429E+06    -224.892E+06    -108.988E+06     53.0528E+03    -226.780E-03     453.185E-03    -226.405E-03     52.2704E-03    -227.302E-03     452.762E-03    -226.435E-03     46.4590E-03
            1411     1.43535E-03     81.6444E-03    -136.407E+06    -239.176E+06    -126.916E+06    -12.0163E+03    -226.529E-03     452.894E-03    -226.365E-03     35.5390E-03    -226.849E-03     452.248E-03    -226.455E-03     31.5841E-03
            1412     717.659E-06     81.6083E-03    -140.515E+06    -252.975E+06    -138.623E+06    -210.568E+03    -226.209E-03     452.760E-03    -226.551E-03     19.2385E-03    -226.398E-03     451.955E-03    -226.674E-03     17.0755E-03
            1413     13.6406E-03     83.2311E-03    -4.93460E+06     67.7049E+06     87.6707E+06     279.574E+03    -228.743E-03     455.058E-03    -226.315E-03     128.773E-03    -231.587E-03     457.870E-03    -225.968E-03     112.171E-03
            1414     12.9246E-03     83.0209E-03    -9.38230E+06     68.9620E+06     87.3494E+06     953.953E+03    -229.879E-03     456.194E-03    -226.315E-03     156.628E-03    -233.779E-03     460.052E-03    -225.964E-03     136.578E-03
            1415     12.2044E-03     82.8092E-03    -16.5664E+06     59.6056E+06     83.2670E+06     776.864E+03    -230.303E-03     456.621E-03    -226.317E-03     162.023E-03    -234.373E-03     460.602E-03    -225.964E-03     141.753E-03
            1416     11.4881E-03     82.5819E-03    -23.3588E+06     50.0358E+06     79.4868E+06     6.12147E+03    -230.604E-03     456.937E-03    -226.333E-03     170.096E-03    -234.961E-03     461.158E-03    -225.974E-03     149.398E-03
            1417     10.7696E-03     82.3490E-03    -30.8595E+06     39.6388E+06     70.2410E+06    -1.11582E+06    -230.598E-03     456.945E-03    -226.347E-03     172.991E-03    -235.010E-03     461.184E-03    -226.008E-03     152.429E-03
            1418     10.0505E-03     82.1149E-03    -38.7669E+06     30.7769E+06     58.5342E+06    -2.37060E+06    -230.696E-03     457.060E-03    -226.365E-03     173.634E-03    -235.078E-03     461.245E-03    -226.061E-03     153.371E-03
            1419     9.33221E-03     81.8810E-03    -45.1153E+06     23.9623E+06     49.9786E+06    -2.77740E+06    -230.788E-03     457.183E-03    -226.394E-03     171.079E-03    -235.042E-03     461.216E-03    -226.114E-03     151.273E-03
            1420     8.61388E-03     81.6520E-03    -51.8737E+06     16.6829E+06     42.8667E+06    -1.74762E+06    -230.693E-03     457.115E-03    -226.422E-03     166.219E-03    -234.744E-03     460.916E-03    -226.157E-03     147.032E-03
            1421     7.89570E-03     81.4300E-03    -60.0004E+06    -3.71219E+06     32.7158E+06    -194.676E+03    -230.373E-03     456.821E-03    -226.448E-03     159.379E-03    -234.126E-03     460.253E-03    -226.192E-03     141.025E-03
            1422     7.17794E-03     81.2188E-03    -69.1808E+06    -37.4615E+06     17.8503E+06     369.909E+03    -229.927E-03     456.399E-03    -226.472E-03     150.690E-03    -233.291E-03     459.333E-03    -226.228E-03     133.373E-03
            1423     6.45975E-03     81.0204E-03    -78.5940E+06    -70.5011E+06     2.05592E+06     173.453E+03    -229.423E-03     455.915E-03    -226.492E-03     140.279E-03    -232.348E-03     458.305E-03    -226.266E-03     124.197E-03
            1424     5.74169E-03     80.8376E-03    -87.7229E+06    -98.7785E+06    -13.6677E+06     25.7817E+03    -228.951E-03     455.457E-03    -226.505E-03     128.262E-03    -231.413E-03     457.296E-03    -226.303E-03     113.610E-03
            1425     5.02399E-03     80.6722E-03    -96.8716E+06    -124.646E+06    -30.7215E+06    -231.528E+03    -228.470E-03     454.972E-03    -226.502E-03     114.833E-03    -230.468E-03     456.273E-03    -226.335E-03     101.774E-03
            1426     4.30606E-03     80.5261E-03    -106.002E+06    -150.277E+06    -49.2612E+06    -512.918E+03    -227.928E-03     454.418E-03    -226.490E-03     100.311E-03    -229.485E-03     455.208E-03    -226.364E-03     88.9664E-03
            1427     3.58825E-03     80.4004E-03    -114.821E+06     -174.54E+06    -69.0253E+06    -563.896E+03    -227.427E-03     453.901E-03    -226.474E-03     84.9311E-03    -228.582E-03     454.230E-03    -226.400E-03     75.4007E-03
            1428     2.87071E-03     80.2962E-03    -123.235E+06    -202.260E+06    -89.1219E+06    -640.907E+03    -227.044E-03     453.512E-03    -226.468E-03     68.8974E-03    -227.849E-03     453.419E-03    -226.441E-03     61.2177E-03
            1429     2.15290E-03     80.2139E-03    -131.575E+06    -225.502E+06    -109.154E+06    -486.184E+03    -226.741E-03     453.199E-03    -226.458E-03     52.3285E-03    -227.268E-03     452.775E-03    -226.486E-03     46.5113E-03
            1430     1.43497E-03     80.1547E-03    -138.130E+06    -239.458E+06    -126.530E+06    -11.4200E+03    -226.545E-03     452.993E-03    -226.448E-03     35.5301E-03    -226.873E-03     452.347E-03    -226.533E-03     31.5838E-03
            1431     717.487E-06     80.1178E-03    -142.885E+06    -252.740E+06    -139.093E+06     455.988E+03    -226.402E-03     452.934E-03    -226.532E-03     19.1974E-03    -226.603E-03     452.134E-03    -226.653E-03     17.0459E-03
            1432     13.6422E-03     81.7413E-03    -5.49609E+06     66.3204E+06     87.3541E+06    -553.059E+03    -228.719E-03     455.031E-03    -226.312E-03     129.025E-03    -231.568E-03     457.843E-03    -225.964E-03     112.376E-03
            1433     12.9229E-03     81.5282E-03    -10.8576E+06     65.5410E+06     86.7409E+06     364.175E+03    -230.157E-03     456.467E-03    -226.309E-03     157.161E-03    -234.063E-03     460.315E-03    -225.955E-03     137.106E-03
            1434     12.2076E-03     81.3206E-03    -14.4673E+06     60.2543E+06     86.4175E+06     2.64239E+06    -230.020E-03     456.346E-03    -226.326E-03     163.138E-03    -234.093E-03     460.331E-03    -225.960E-03     142.960E-03
            1435     11.4874E-03     81.0918E-03    -20.8527E+06     51.6207E+06     81.6478E+06     3.81898E+06    -230.264E-03     456.627E-03    -226.363E-03     171.310E-03    -234.618E-03     460.853E-03    -225.999E-03     150.745E-03
            1436     10.7683E-03     80.8610E-03    -29.3981E+06     43.9483E+06     70.7584E+06     2.17637E+06    -230.568E-03     456.955E-03    -226.387E-03     173.425E-03    -234.982E-03     461.215E-03    -226.054E-03     152.922E-03
            1437     10.0499E-03     80.6249E-03    -37.2185E+06     36.2445E+06     58.5962E+06    -462.773E+03    -230.912E-03     457.310E-03    -226.398E-03     173.170E-03    -235.292E-03     461.516E-03    -226.103E-03     152.898E-03
            1438     9.33161E-03     80.3910E-03    -45.9729E+06     23.9713E+06     47.5142E+06    -2.30753E+06    -231.021E-03     457.428E-03    -226.407E-03     170.469E-03    -235.274E-03     461.465E-03    -226.137E-03     150.622E-03
            1439     8.61390E-03     80.1614E-03    -55.0160E+06     13.2826E+06     39.7259E+06    -2.15051E+06    -230.817E-03     457.238E-03    -226.421E-03     165.780E-03    -234.873E-03     461.031E-03    -226.162E-03     146.554E-03
            1440     7.89609E-03     79.9400E-03    -63.5214E+06    -6.22804E+06     30.6568E+06    -1.23113E+06    -230.382E-03     456.824E-03    -226.442E-03     159.206E-03    -234.147E-03     460.253E-03    -226.188E-03     140.821E-03
            1441     7.17781E-03     79.7286E-03    -71.6120E+06    -37.8715E+06     17.4265E+06    -724.290E+03    -229.916E-03     456.382E-03    -226.466E-03     150.709E-03    -233.294E-03     459.320E-03    -226.220E-03     133.370E-03
            1442     6.45992E-03     79.5307E-03    -79.5331E+06    -70.3140E+06     2.60041E+06    -795.580E+03    -229.440E-03     455.926E-03    -226.486E-03     140.314E-03    -232.371E-03     458.318E-03    -226.256E-03     124.216E-03
            1443     5.74198E-03     79.3476E-03    -87.7339E+06    -98.7714E+06    -13.0586E+06    -1.14160E+06    -228.898E-03     455.398E-03    -226.500E-03     128.280E-03    -231.360E-03     457.235E-03    -226.295E-03     113.620E-03
            1444     5.02385E-03     79.1821E-03    -96.2001E+06    -124.696E+06    -29.9310E+06    -1.38280E+06    -228.345E-03     454.854E-03    -226.509E-03     114.857E-03    -230.340E-03     456.152E-03    -226.338E-03     101.791E-03
            1445     4.30609E-03     79.0361E-03    -105.111E+06    -150.548E+06    -48.3197E+06    -1.11418E+06    -227.848E-03     454.363E-03    -226.515E-03     100.334E-03    -229.401E-03     455.149E-03    -226.386E-03     88.9890E-03
            1446     3.58823E-03     78.9105E-03    -114.326E+06    -175.120E+06    -68.3902E+06    -982.161E+03    -227.404E-03     453.920E-03    -226.515E-03     85.0036E-03    -228.558E-03     454.244E-03    -226.437E-03     75.4682E-03
            1447     2.87019E-03     78.8060E-03    -123.645E+06    -203.467E+06    -89.1837E+06    -862.139E+03    -227.079E-03     453.594E-03    -226.515E-03     68.9683E-03    -227.885E-03     453.498E-03    -226.487E-03     61.2744E-03
            1448     2.15253E-03     78.7240E-03    -131.618E+06    -226.372E+06    -108.778E+06    -412.318E+03    -226.848E-03     453.344E-03    -226.496E-03     52.2488E-03    -227.374E-03     452.914E-03    -226.521E-03     46.4326E-03
            1449     1.43519E-03     78.6644E-03    -137.367E+06    -240.304E+06    -126.037E+06    -383.337E+03    -226.616E-03     453.074E-03    -226.458E-03     35.3143E-03    -226.938E-03     452.421E-03    -226.540E-03     31.3805E-03
            1450     717.454E-06     78.6278E-03    -141.140E+06    -252.744E+06    -137.756E+06    -66.2706E+03    -226.676E-03     452.925E-03    -226.249E-03     19.0559E-03    -226.869E-03     452.120E-03    -226.367E-03     16.9200E-03
            1451     13.6402E-03     80.2472E-03    -3.82670E+06     66.5118E+06     88.5161E+06     199.995E+03    -228.292E-03     454.617E-03    -226.324E-03     130.221E-03    -231.137E-03     457.427E-03    -225.973E-03     113.675E-03
            1452     12.9245E-03     80.0392E-03    -9.16808E+06     64.7921E+06     88.3938E+06    -449.282E+03    -229.557E-03     455.916E-03    -226.358E-03     157.529E-03    -233.448E-03     459.747E-03    -225.997E-03     137.565E-03
            1453     12.2032E-03     79.8291E-03    -15.5409E+06     54.2236E+06     83.9572E+06     750.825E+03    -229.973E-03     456.362E-03    -226.389E-03     163.415E-03    -234.043E-03     460.326E-03    -226.026E-03     143.218E-03
            1454     11.4859E-03     79.6036E-03    -20.5625E+06     48.4128E+06     81.0716E+06     3.37512E+06    -230.661E-03     457.082E-03    -226.421E-03     170.714E-03    -235.016E-03     461.301E-03    -226.056E-03     150.039E-03
            1455     10.7681E-03     79.3697E-03    -25.1057E+06     49.7170E+06     76.2157E+06     4.45086E+06    -231.042E-03     457.467E-03    -226.425E-03     172.523E-03    -235.449E-03     461.741E-03    -226.080E-03     151.972E-03
            1456     10.0503E-03     79.1353E-03    -32.5061E+06     41.2436E+06     63.2404E+06     3.97743E+06    -231.209E-03     457.609E-03    -226.400E-03     172.512E-03    -235.582E-03     461.829E-03    -226.096E-03     152.232E-03
            1457     9.33250E-03     78.9006E-03    -41.6513E+06     27.1653E+06     50.6956E+06     3.57292E+06    -231.042E-03     457.431E-03    -226.389E-03     170.127E-03    -235.279E-03     461.469E-03    -226.115E-03     150.354E-03
            1458     8.61421E-03     78.6714E-03    -51.1150E+06     16.6383E+06     43.1674E+06     1.63890E+06    -230.657E-03     457.066E-03    -226.408E-03     165.646E-03    -234.702E-03     460.863E-03    -226.143E-03     146.485E-03
            1459     7.89588E-03     78.4498E-03    -60.0297E+06    -5.49476E+06     33.6284E+06    -832.697E+03    -230.258E-03     456.702E-03    -226.443E-03     159.232E-03    -234.011E-03     460.125E-03    -226.180E-03     140.861E-03
            1460     7.17795E-03     78.2389E-03    -68.1749E+06    -38.5004E+06     20.0547E+06    -1.72571E+06    -229.886E-03     456.363E-03    -226.477E-03     150.870E-03    -233.251E-03     459.291E-03    -226.222E-03     133.515E-03
            1461     6.45984E-03     78.0404E-03    -76.2766E+06    -70.1504E+06     5.22352E+06    -1.84780E+06    -229.467E-03     455.967E-03    -226.500E-03     140.542E-03    -232.389E-03     458.354E-03    -226.261E-03     124.426E-03
            1462     5.74189E-03     77.8578E-03    -84.7992E+06    -99.2318E+06    -10.8807E+06    -1.90662E+06    -228.908E-03     455.422E-03    -226.514E-03     128.453E-03    -231.360E-03     457.252E-03    -226.302E-03     113.782E-03
            1463     5.02399E-03     77.6924E-03    -93.9834E+06    -125.819E+06    -28.2607E+06    -1.54255E+06    -228.311E-03     454.840E-03    -226.529E-03     115.007E-03    -230.296E-03     456.127E-03    -226.352E-03     101.947E-03
            1464     4.30579E-03     77.5462E-03    -103.653E+06    -151.579E+06    -46.8815E+06    -1.12625E+06    -227.850E-03     454.393E-03    -226.543E-03     100.355E-03    -229.395E-03     455.168E-03    -226.407E-03     89.0148E-03
            1465     3.58792E-03     77.4204E-03    -113.209E+06    -176.414E+06    -67.2998E+06    -721.336E+03    -227.488E-03     454.025E-03    -226.537E-03     84.7956E-03    -228.634E-03     454.338E-03    -226.453E-03     75.2636E-03
            1466     2.87036E-03     77.3161E-03    -121.469E+06    -203.866E+06    -88.2075E+06    -452.499E+03    -227.172E-03     453.686E-03    -226.514E-03     68.6530E-03    -227.966E-03     453.581E-03    -226.483E-03     60.9697E-03
            1467     2.15284E-03     77.2334E-03    -128.616E+06    -226.250E+06    -108.047E+06    -723.974E+03    -226.863E-03     453.337E-03    -226.474E-03     52.0307E-03    -227.374E-03     452.902E-03    -226.500E-03     46.2187E-03
            1468     1.43515E-03     77.1744E-03    -134.809E+06    -241.570E+06    -125.225E+06    -942.808E+03    -226.615E-03     453.045E-03    -226.430E-03     35.3368E-03    -226.924E-03     452.380E-03    -226.510E-03     31.3987E-03
            1469     717.745E-06     77.1378E-03    -137.651E+06    -254.272E+06    -135.944E+06    -664.522E+03    -226.660E-03     452.883E-03    -226.224E-03     19.4302E-03    -226.837E-03     452.064E-03    -226.335E-03     17.2748E-03
            1470     13.6426E-03     78.7598E-03    -5.15181E+06     67.5022E+06     87.1238E+06    -226.186E+03    -228.193E-03     454.541E-03    -226.348E-03     130.416E-03    -231.056E-03     457.373E-03    -226.003E-03     113.844E-03
            1471     12.9207E-03     78.5485E-03    -9.38473E+06     65.5845E+06     87.6387E+06     2.87500E+03    -229.348E-03     455.740E-03    -226.393E-03     156.972E-03    -233.236E-03     459.574E-03    -226.036E-03     137.011E-03
            1472     12.2050E-03     78.3400E-03    -14.7443E+06     49.6375E+06     82.3647E+06    -251.334E+03    -230.324E-03     456.742E-03    -226.418E-03     161.968E-03    -234.358E-03     460.660E-03    -226.056E-03     141.739E-03
            1473     11.4867E-03     78.1119E-03    -19.7058E+06     46.0213E+06     80.7236E+06    -44.3967E+03    -230.981E-03     457.406E-03    -226.425E-03     169.777E-03    -235.326E-03     461.611E-03    -226.060E-03     148.982E-03
            1474     10.7688E-03     77.8802E-03    -25.1965E+06     47.1802E+06     75.9087E+06     2.36605E+06    -231.144E-03     457.558E-03    -226.414E-03     172.495E-03    -235.545E-03     461.817E-03    -226.066E-03     151.920E-03
            1475     10.0505E-03     77.6442E-03    -30.9361E+06     38.4031E+06     65.0263E+06     5.64809E+06    -231.240E-03     457.633E-03    -226.394E-03     172.806E-03    -235.602E-03     461.833E-03    -226.079E-03     152.575E-03
            1476     9.33241E-03     77.4108E-03    -37.0080E+06     30.9136E+06     56.9862E+06     6.77802E+06    -231.027E-03     457.420E-03    -226.393E-03     170.341E-03    -235.261E-03     461.467E-03    -226.099E-03     150.607E-03
            1477     8.61427E-03     77.1816E-03    -43.8970E+06     24.3083E+06     50.8219E+06     4.91033E+06    -230.559E-03     456.975E-03    -226.416E-03     165.801E-03    -234.589E-03     460.788E-03    -226.134E-03     146.706E-03
            1478     7.89608E-03     76.9602E-03    -51.9948E+06    -192.169E+03     40.1470E+06     2.12910E+06    -230.188E-03     456.647E-03    -226.459E-03     159.334E-03    -233.916E-03     460.073E-03    -226.182E-03     141.021E-03
            1479     7.17771E-03     76.7488E-03    -61.1140E+06    -37.0691E+06     24.3763E+06     380.756E+03    -229.867E-03     456.364E-03    -226.497E-03     150.930E-03    -233.204E-03     459.281E-03    -226.232E-03     133.614E-03
            1480     6.45966E-03     76.5505E-03    -70.7396E+06    -69.0051E+06     8.51524E+06    -321.678E+03    -229.409E-03     455.935E-03    -226.526E-03     140.561E-03    -232.308E-03     458.313E-03    -226.281E-03     124.479E-03
            1481     5.74167E-03     76.3676E-03    -80.7962E+06    -100.101E+06    -8.03674E+06    -309.918E+03    -228.923E-03     455.475E-03    -226.552E-03     128.466E-03    -231.358E-03     457.291E-03    -226.330E-03     113.810E-03
            1482     5.02360E-03     76.2027E-03    -90.9798E+06    -126.583E+06    -25.6288E+06     214.768E+03    -228.473E-03     455.032E-03    -226.559E-03     114.961E-03    -230.447E-03     456.308E-03    -226.372E-03     101.910E-03
            1483     4.30592E-03     76.0560E-03    -100.946E+06    -151.387E+06    -44.9541E+06     207.006E+03    -228.021E-03     454.566E-03    -226.545E-03     100.206E-03    -229.554E-03     455.334E-03    -226.404E-03     88.8787E-03
            1484     3.58826E-03     75.9303E-03    -110.256E+06    -176.816E+06    -65.7670E+06    -118.167E+03    -227.612E-03     454.121E-03    -226.508E-03     84.6420E-03    -228.744E-03     454.424E-03    -226.421E-03     75.1135E-03
            1485     2.87061E-03     75.8256E-03    -119.092E+06    -203.746E+06    -86.4130E+06    -273.201E+03    -227.170E-03     453.636E-03    -226.466E-03     68.5476E-03    -227.953E-03     453.524E-03    -226.430E-03     60.8706E-03
            1486     2.15285E-03     75.7437E-03    -127.160E+06    -226.379E+06    -106.663E+06    -194.034E+03    -226.731E-03     453.167E-03    -226.435E-03     52.0308E-03    -227.237E-03     452.726E-03    -226.456E-03     46.2341E-03
            1487     1.43513E-03     75.6843E-03    -133.401E+06    -241.941E+06    -123.774E+06    -43.2837E+03    -226.523E-03     452.955E-03    -226.431E-03     35.4121E-03    -226.827E-03     452.284E-03    -226.506E-03     31.4809E-03
            1488     717.367E-06     75.6476E-03    -138.079E+06    -255.832E+06    -135.362E+06    -117.535E+03    -226.479E-03     452.927E-03    -226.448E-03     19.3267E-03    -226.657E-03     452.100E-03    -226.554E-03     17.1629E-03
            1489     13.6389E-03     77.2698E-03    -5.19799E+06     67.8302E+06     85.2679E+06    -683.977E+03    -228.393E-03     454.749E-03    -226.355E-03     129.856E-03    -231.270E-03     457.600E-03    -226.020E-03     113.130E-03
            1490     12.9240E-03     77.0590E-03    -10.9827E+06     64.8904E+06     84.4176E+06    -776.990E+03    -229.833E-03     456.208E-03    -226.374E-03     156.504E-03    -233.727E-03     460.048E-03    -226.031E-03     136.459E-03
            1491     12.2041E-03     76.8481E-03    -15.3070E+06     50.2453E+06     81.6217E+06    -594.010E+03    -230.231E-03     456.628E-03    -226.397E-03     162.172E-03    -234.256E-03     460.540E-03    -226.039E-03     142.014E-03
            1492     11.4867E-03     76.6219E-03    -21.4311E+06     45.4627E+06     78.7219E+06    -1.26189E+06    -230.846E-03     457.257E-03    -226.411E-03     170.308E-03    -235.192E-03     461.460E-03    -226.052E-03     149.559E-03
            1493     10.7683E-03     76.3896E-03    -27.6426E+06     39.8156E+06     71.9306E+06    -246.924E+03    -231.163E-03     457.571E-03    -226.407E-03     172.795E-03    -235.561E-03     461.803E-03    -226.065E-03     152.202E-03
            1494     10.0504E-03     76.1543E-03    -32.8642E+06     32.2097E+06     63.5936E+06     1.83823E+06    -231.155E-03     457.557E-03    -226.402E-03     172.887E-03    -235.513E-03     461.728E-03    -226.083E-03     152.631E-03
            1495     9.33237E-03     75.9202E-03    -37.2110E+06     31.3865E+06     58.6465E+06     2.47651E+06    -230.874E-03     457.288E-03    -226.414E-03     170.500E-03    -235.114E-03     461.337E-03    -226.113E-03     150.717E-03
            1496     8.61418E-03     75.6919E-03    -42.5659E+06     26.4371E+06     53.2541E+06     3.27787E+06    -230.590E-03     457.034E-03    -226.444E-03     166.105E-03    -234.623E-03     460.856E-03    -226.155E-03     146.988E-03
            1497     7.89576E-03     75.4702E-03    -50.3930E+06     3.51722E+06     42.5983E+06     3.92484E+06    -230.281E-03     456.764E-03    -226.483E-03     159.572E-03    -234.012E-03     460.205E-03    -226.202E-03     141.281E-03
            1498     7.17775E-03     75.2589E-03    -60.0730E+06    -33.3022E+06     26.1140E+06     3.25086E+06    -229.908E-03     456.423E-03    -226.515E-03     150.966E-03    -233.247E-03     459.355E-03    -226.249E-03     133.692E-03
            1499     6.45963E-03     75.0604E-03    -70.3077E+06    -67.3718E+06     9.25576E+06     2.31373E+06    -229.434E-03     455.976E-03    -226.542E-03     140.410E-03    -232.332E-03     458.358E-03    -226.296E-03     124.366E-03
            1500     5.74140E-03     74.8779E-03    -80.4327E+06    -99.5999E+06    -7.58921E+06     1.95515E+06    -229.010E-03     455.571E-03    -226.560E-03     128.219E-03    -231.442E-03     457.385E-03    -226.337E-03     113.593E-03
            1501     5.02374E-03     74.7119E-03    -90.4808E+06    -125.758E+06    -25.2174E+06     1.56844E+06    -228.580E-03     455.131E-03    -226.552E-03     114.644E-03    -230.550E-03     456.407E-03    -226.364E-03     101.606E-03
            1502     4.30604E-03     74.5660E-03    -100.345E+06    -150.351E+06    -44.4341E+06     1.24167E+06    -228.067E-03     454.588E-03    -226.521E-03     100.122E-03    -229.598E-03     455.359E-03    -226.380E-03     88.8108E-03
            1503     3.58836E-03     74.4398E-03    -109.845E+06    -175.768E+06    -64.9591E+06     889.833E+03    -227.539E-03     454.025E-03    -226.486E-03     84.8138E-03    -228.672E-03     454.333E-03    -226.397E-03     75.3007E-03
            1504     2.87070E-03     74.3358E-03    -119.467E+06    -203.289E+06    -86.0029E+06     817.053E+03    -227.036E-03     453.503E-03    -226.467E-03     68.7363E-03    -227.825E-03     453.396E-03    -226.429E-03     61.0747E-03
            1505     2.15294E-03     74.2539E-03    -127.864E+06    -226.605E+06    -106.094E+06     768.874E+03    -226.696E-03     453.163E-03    -226.467E-03     52.3554E-03    -227.207E-03     452.724E-03    -226.483E-03     46.5655E-03
            1506     1.43518E-03     74.1945E-03    -134.105E+06    -241.834E+06    -123.359E+06     640.460E+03    -226.576E-03     453.045E-03    -226.469E-03     35.7396E-03    -226.885E-03     452.377E-03    -226.541E-03     31.8068E-03
            1507     717.692E-06     74.1573E-03    -138.238E+06    -254.822E+06    -135.518E+06     513.854E+03    -226.605E-03     452.988E-03    -226.383E-03     19.2286E-03    -226.784E-03     452.166E-03    -226.491E-03     17.0905E-03
            1508     13.6418E-03     75.7770E-03    -4.36525E+06     68.7501E+06     86.5620E+06     711.498E+03    -228.598E-03     454.928E-03    -226.330E-03     129.272E-03    -231.448E-03     457.756E-03    -225.991E-03     112.617E-03
            1509     12.9221E-03     75.5682E-03    -10.0735E+06     66.2390E+06     84.6249E+06    -30.0316E+03    -229.601E-03     455.941E-03    -226.340E-03     155.889E-03    -233.475E-03     459.769E-03    -225.999E-03     135.894E-03
            1510     12.2052E-03     75.3593E-03    -16.3979E+06     51.4307E+06     79.3599E+06    -1.20921E+06    -229.922E-03     456.287E-03    -226.365E-03     162.054E-03    -233.957E-03     460.216E-03    -226.019E-03     141.867E-03
            1511     11.4861E-03     75.1312E-03    -22.4051E+06     45.5636E+06     77.1020E+06    -1.34312E+06    -230.572E-03     456.971E-03    -226.399E-03     169.971E-03    -234.906E-03     461.164E-03    -226.047E-03     149.282E-03
            1512     10.7685E-03     74.8992E-03    -28.4342E+06     37.5453E+06     70.6734E+06    -1.91457E+06    -230.957E-03     457.372E-03    -226.415E-03     172.717E-03    -235.350E-03     461.592E-03    -226.075E-03     152.127E-03
            1513     10.0506E-03     74.6639E-03    -34.5558E+06     29.7840E+06     62.0472E+06    -2.86529E+06    -231.032E-03     457.455E-03    -226.422E-03     173.210E-03    -235.397E-03     461.622E-03    -226.105E-03     152.898E-03
            1514     9.33194E-03     74.4311E-03    -40.7323E+06     27.7878E+06     55.4183E+06    -2.31971E+06    -230.874E-03     457.313E-03    -226.439E-03     170.722E-03    -235.121E-03     461.353E-03    -226.143E-03     150.887E-03
            1515     8.61348E-03     74.2014E-03    -47.9974E+06     21.0242E+06     48.2990E+06     87.6260E+03    -230.622E-03     457.088E-03    -226.466E-03     166.067E-03    -234.668E-03     460.899E-03    -226.186E-03     146.893E-03
            1516     7.89559E-03     73.9802E-03    -56.3170E+06     2.16010E+06     38.8106E+06     2.65377E+06    -230.347E-03     456.848E-03    -226.501E-03     159.547E-03    -234.103E-03     460.299E-03    -226.229E-03     141.222E-03
            1517     7.17745E-03     73.7685E-03    -64.9968E+06    -30.7384E+06     24.2178E+06     3.27014E+06    -230.026E-03     456.552E-03    -226.526E-03     150.897E-03    -233.391E-03     459.507E-03    -226.266E-03     133.607E-03
            1518     6.45946E-03     73.5706E-03    -74.0082E+06    -66.2912E+06     7.61156E+06     3.06405E+06    -229.611E-03     456.147E-03    -226.536E-03     140.239E-03    -232.525E-03     458.541E-03    -226.295E-03     124.192E-03
            1519     5.74190E-03     73.3873E-03    -83.4306E+06    -97.4954E+06    -9.40435E+06     2.58047E+06    -229.105E-03     455.636E-03    -226.531E-03     128.143E-03    -231.550E-03     457.466E-03    -226.316E-03     113.531E-03
            1520     5.02403E-03     73.2219E-03    -92.8962E+06    -123.989E+06    -27.1299E+06     1.75335E+06    -228.510E-03     455.025E-03    -226.516E-03     114.676E-03    -230.492E-03     456.316E-03    -226.337E-03     101.651E-03
            1521     4.30616E-03     73.0757E-03    -102.400E+06    -149.871E+06    -46.1403E+06     1.28983E+06    -227.909E-03     454.411E-03    -226.502E-03     100.182E-03    -229.450E-03     455.190E-03    -226.367E-03     88.8767E-03
            1522     3.58829E-03     72.9500E-03    -111.790E+06    -174.837E+06    -66.2638E+06     1.24589E+06    -227.341E-03     453.842E-03    -226.500E-03     84.8694E-03    -228.485E-03     454.160E-03    -226.416E-03     75.3654E-03
            1523     2.87027E-03     72.8459E-03    -120.321E+06    -202.371E+06    -86.3502E+06     1.28412E+06    -226.971E-03     453.490E-03    -226.520E-03     68.8017E-03    -227.765E-03     453.390E-03    -226.484E-03     61.1439E-03
            1524     2.15242E-03     72.7641E-03    -128.214E+06    -225.539E+06    -106.271E+06     1.19908E+06    -226.808E-03     453.334E-03    -226.526E-03     52.3407E-03    -227.322E-03     452.900E-03    -226.544E-03     46.5548E-03
            1525     1.43487E-03     72.7040E-03    -134.758E+06    -240.518E+06    -124.156E+06     692.993E+03    -226.659E-03     453.163E-03    -226.504E-03     35.6763E-03    -226.972E-03     452.503E-03    -226.581E-03     31.7409E-03
            1526     717.375E-06     72.6670E-03    -138.406E+06    -253.263E+06    -135.792E+06     77.0478E+03    -226.793E-03     453.036E-03    -226.242E-03     19.2422E-03    -226.976E-03     452.222E-03    -226.353E-03     17.1025E-03
            1527     13.6418E-03     74.2893E-03    -3.99519E+06     67.9329E+06     86.6887E+06     152.373E+03    -228.493E-03     454.796E-03    -226.303E-03     129.485E-03    -231.349E-03     457.627E-03    -225.962E-03     112.827E-03
            1528     12.9242E-03     74.0782E-03    -8.20227E+06     67.3026E+06     85.7080E+06     825.242E+03    -229.269E-03     455.597E-03    -226.328E-03     156.894E-03    -233.152E-03     459.441E-03    -225.985E-03     136.937E-03
            1529     12.2049E-03     73.8695E-03    -13.0656E+06     53.1525E+06     81.7080E+06     896.186E+03    -229.985E-03     456.353E-03    -226.368E-03     162.630E-03    -234.021E-03     460.294E-03    -226.017E-03     142.451E-03
            1530     11.4873E-03     73.6419E-03    -19.8380E+06     46.3440E+06     79.4199E+06     1.23859E+06    -230.552E-03     456.961E-03    -226.408E-03     170.759E-03    -234.882E-03     461.155E-03    -226.050E-03     150.141E-03
            1531     10.7683E-03     73.4093E-03    -28.4652E+06     42.2908E+06     72.1566E+06    -540.877E+03    -230.789E-03     457.217E-03    -226.429E-03     172.892E-03    -235.190E-03     461.458E-03    -226.088E-03     152.340E-03
            1532     10.0493E-03     73.1742E-03    -37.0593E+06     31.8090E+06     59.4041E+06    -3.33627E+06    -230.955E-03     457.387E-03    -226.431E-03     172.901E-03    -235.327E-03     461.568E-03    -226.127E-03     152.579E-03
            1533     9.33163E-03     72.9401E-03    -45.4660E+06     23.1235E+06     49.4573E+06    -3.36754E+06    -230.938E-03     457.380E-03    -226.442E-03     170.339E-03    -235.191E-03     461.410E-03    -226.162E-03     150.467E-03
            1534     8.61387E-03     72.7120E-03    -53.5786E+06     15.2478E+06     42.6270E+06    -1.83991E+06    -230.706E-03     457.170E-03    -226.465E-03     165.790E-03    -234.762E-03     460.967E-03    -226.196E-03     146.575E-03
            1535     7.89537E-03     72.4897E-03    -61.2208E+06    -1.78256E+06     34.3252E+06    -404.222E+03    -230.401E-03     456.894E-03    -226.493E-03     159.257E-03    -234.163E-03     460.333E-03    -226.230E-03     140.893E-03
            1536     7.17746E-03     72.2784E-03    -68.8938E+06    -31.9315E+06     21.2095E+06     911.991E+03    -230.076E-03     456.585E-03    -226.510E-03     150.573E-03    -233.449E-03     459.539E-03    -226.257E-03     133.251E-03
            1537     6.45982E-03     72.0798E-03    -77.2491E+06    -66.2358E+06     5.20177E+06     1.64682E+06    -229.618E-03     456.129E-03    -226.512E-03     140.109E-03    -232.543E-03     458.531E-03    -226.278E-03     124.041E-03
            1538     5.74182E-03     71.8973E-03    -85.6780E+06    -95.8566E+06    -11.1489E+06     1.68320E+06    -229.021E-03     455.528E-03    -226.507E-03     128.221E-03    -231.478E-03     457.373E-03    -226.300E-03     113.600E-03
            1539     5.02395E-03     71.7317E-03    -94.4876E+06    -122.632E+06    -28.5486E+06     1.24248E+06    -228.394E-03     454.898E-03    -226.505E-03     114.836E-03    -230.384E-03     456.201E-03    -226.333E-03     101.811E-03
            1540     4.30610E-03     71.5859E-03    -103.680E+06    -149.315E+06    -47.2582E+06     793.318E+03    -227.817E-03     454.327E-03    -226.510E-03     100.277E-03    -229.365E-03     455.114E-03    -226.379E-03     88.9601E-03
            1541     3.58809E-03     71.4602E-03    -112.774E+06    -174.214E+06    -67.3488E+06      809.46E+03    -227.339E-03     453.857E-03    -226.518E-03     84.7816E-03    -228.487E-03     454.182E-03    -226.439E-03     75.2660E-03
            1542     2.87024E-03     71.3562E-03    -121.438E+06    -202.191E+06    -87.6425E+06     730.075E+03    -227.061E-03     453.590E-03    -226.528E-03     68.6606E-03    -227.858E-03     453.492E-03    -226.497E-03     60.9976E-03
            1543     2.15278E-03     71.2734E-03    -128.318E+06    -224.358E+06    -106.810E+06     570.079E+03    -226.867E-03     453.379E-03    -226.512E-03     52.1634E-03    -227.381E-03     452.951E-03    -226.535E-03     46.3750E-03
            1544     1.43529E-03     71.2140E-03    -133.931E+06    -238.522E+06    -124.027E+06     471.266E+03    -226.623E-03     453.106E-03    -226.482E-03     35.5838E-03    -226.935E-03     452.455E-03    -226.563E-03     31.6436E-03
            1545     717.591E-06     71.1767E-03    -138.085E+06    -252.740E+06    -135.697E+06     68.5513E+03    -226.647E-03     453.008E-03    -226.361E-03     19.4532E-03    -226.829E-03     452.197E-03    -226.473E-03     17.2801E-03
            1546     13.6416E-03     72.8007E-03    -4.15466E+06     66.9515E+06     85.6876E+06    -507.152E+03    -228.127E-03     454.442E-03    -226.315E-03     129.549E-03    -230.982E-03     457.271E-03    -225.977E-03     112.916E-03
            1547     12.9219E-03     72.5876E-03    -10.3518E+06     65.7089E+06     85.3686E+06    -279.792E+03    -229.498E-03     455.851E-03    -226.354E-03     157.442E-03    -233.389E-03     459.691E-03    -226.007E-03     137.495E-03
            1548     12.2045E-03     72.3797E-03    -16.0439E+06     51.6882E+06     81.6645E+06     914.434E+03    -230.037E-03     456.427E-03    -226.390E-03     162.331E-03    -234.075E-03     460.354E-03    -226.033E-03     142.182E-03
            1549     11.4855E-03     72.1514E-03    -22.1698E+06     45.3022E+06     78.4115E+06     1.72102E+06    -230.625E-03     457.043E-03    -226.418E-03     170.243E-03    -234.967E-03     461.239E-03    -226.059E-03     149.569E-03
            1550     10.7679E-03     71.9194E-03    -28.8444E+06     47.2845E+06     72.7209E+06     1.74048E+06    -230.850E-03     457.276E-03    -226.425E-03     172.409E-03    -235.260E-03     461.540E-03    -226.088E-03     151.854E-03
            1551     10.0507E-03     71.6842E-03    -36.7141E+06     37.2344E+06     59.7569E+06     752.480E+03    -230.978E-03     457.396E-03    -226.418E-03     172.573E-03    -235.356E-03     461.603E-03    -226.120E-03     152.286E-03
            1552     9.33190E-03     71.4507E-03    -45.4922E+06     23.6799E+06     48.2907E+06    -1.02954E+06    -230.920E-03     457.347E-03    -226.426E-03     170.202E-03    -235.169E-03     461.378E-03    -226.153E-03     150.367E-03
            1553     8.61347E-03     71.2211E-03    -53.8856E+06     14.1676E+06     41.2135E+06    -2.24369E+06    -230.818E-03     457.264E-03    -226.445E-03     165.643E-03    -234.867E-03     461.052E-03    -226.182E-03     146.427E-03
            1554     7.89597E-03     70.9999E-03    -62.0293E+06    -4.82232E+06     32.1670E+06    -2.31043E+06    -230.511E-03     456.971E-03    -226.460E-03     159.105E-03    -234.267E-03     460.397E-03    -226.203E-03     140.713E-03
            1555     7.17799E-03     70.7878E-03    -70.2602E+06    -35.4618E+06     18.6163E+06    -1.32867E+06    -229.986E-03     456.459E-03    -226.473E-03     150.589E-03    -233.356E-03     459.400E-03    -226.226E-03     133.254E-03
            1556     6.45981E-03     70.5899E-03    -78.1459E+06    -67.2843E+06     3.57577E+06    -447.937E+03    -229.453E-03     455.940E-03    -226.487E-03     140.195E-03    -232.379E-03     458.340E-03    -226.258E-03     124.110E-03
            1557     5.74192E-03     70.4070E-03    -86.4324E+06    -96.0282E+06    -11.9027E+06    -112.195E+03    -228.889E-03     455.390E-03    -226.501E-03     128.188E-03    -231.350E-03     457.237E-03    -226.296E-03     113.540E-03
            1558     5.02391E-03     70.2420E-03    -95.0946E+06    -122.231E+06    -28.7285E+06     83.7873E+03    -228.312E-03     454.826E-03    -226.513E-03     114.783E-03    -230.307E-03     456.132E-03    -226.342E-03     101.740E-03
            1559     4.30585E-03     70.0959E-03    -103.874E+06    -148.994E+06    -47.1583E+06     89.9916E+03    -227.862E-03     454.384E-03    -226.522E-03     100.162E-03    -229.411E-03     455.172E-03    -226.391E-03     88.8311E-03
            1560     3.58812E-03     69.9703E-03    -112.739E+06    -174.168E+06    -67.2963E+06     121.703E+03    -227.470E-03     453.982E-03    -226.512E-03     84.6350E-03    -228.617E-03     454.305E-03    -226.432E-03     75.1066E-03
            1561     2.87053E-03     69.8659E-03    -120.868E+06    -201.414E+06    -87.7072E+06    -121.592E+03    -227.093E-03     453.591E-03    -226.497E-03     68.7425E-03    -227.889E-03     453.496E-03    -226.469E-03     61.0675E-03
            1562     2.15274E-03     69.7834E-03    -128.620E+06    -224.568E+06    -107.326E+06    -442.212E+03    -226.805E-03     453.286E-03    -226.481E-03     52.3693E-03    -227.321E-03     452.859E-03    -226.505E-03     46.5559E-03
            1563     1.43492E-03     69.7239E-03    -134.514E+06    -238.593E+06    -124.184E+06     28.9366E+03    -226.639E-03     453.085E-03    -226.446E-03     35.6258E-03    -226.954E-03     452.435E-03    -226.526E-03     31.6749E-03
            1564     717.432E-06     69.6865E-03    -137.793E+06    -251.890E+06    -135.266E+06     357.421E+03    -226.483E-03     452.906E-03    -226.423E-03     19.2603E-03    -226.666E-03     452.098E-03    -226.534E-03     17.1084E-03
            1565     13.6402E-03     71.3088E-03    -5.12809E+06     66.8389E+06     86.8724E+06     659.299E+03    -228.745E-03     455.073E-03    -226.329E-03     128.500E-03    -231.582E-03     457.878E-03    -225.984E-03     111.910E-03
            1566     12.9236E-03     71.0988E-03    -9.28248E+06     65.8330E+06     88.2205E+06     480.292E+03    -229.497E-03     455.844E-03    -226.347E-03     155.469E-03    -233.368E-03     459.660E-03    -225.988E-03     135.485E-03
            1567     12.2047E-03     70.8887E-03    -15.9311E+06     50.3053E+06     81.9945E+06     235.564E+03    -229.786E-03     456.158E-03    -226.372E-03     161.658E-03    -233.813E-03     460.069E-03    -226.012E-03     141.511E-03
            1568     11.4876E-03     70.6625E-03    -22.0754E+06     43.3412E+06     78.2098E+06     665.860E+03    -230.586E-03     456.989E-03    -226.403E-03     170.029E-03    -234.921E-03     461.173E-03    -226.043E-03     149.343E-03
            1569     10.7688E-03     70.4292E-03    -27.9253E+06     47.2517E+06     73.0248E+06     2.18937E+06    -230.833E-03     457.243E-03    -226.410E-03     172.512E-03    -235.237E-03     461.504E-03    -226.073E-03     151.977E-03
            1570     10.0496E-03     70.1942E-03    -34.2299E+06     39.7041E+06     61.6543E+06     2.97399E+06    -231.004E-03     457.409E-03    -226.405E-03     172.641E-03    -235.373E-03     461.619E-03    -226.105E-03     152.396E-03
            1571     9.33196E-03     69.9605E-03    -41.2640E+06     28.0292E+06     51.9608E+06     2.53340E+06    -231.041E-03     457.453E-03    -226.412E-03     170.159E-03    -235.276E-03     461.490E-03    -226.133E-03     150.380E-03
            1572     8.61423E-03     69.7312E-03    -49.8117E+06     18.6521E+06     44.2226E+06     808.044E+03    -230.839E-03     457.260E-03    -226.421E-03     165.644E-03    -234.876E-03     461.058E-03    -226.155E-03     146.480E-03
            1573     7.89599E-03     69.5090E-03    -59.1240E+06    -4.35262E+06     33.1850E+06    -1.15908E+06    -230.451E-03     456.886E-03    -226.435E-03     159.138E-03    -234.196E-03     460.310E-03    -226.177E-03     140.760E-03
            1574     7.17798E-03     69.2984E-03    -67.7678E+06    -37.5545E+06     19.1743E+06    -1.59336E+06    -229.921E-03     456.376E-03    -226.455E-03     150.667E-03    -233.278E-03     459.304E-03    -226.206E-03     133.327E-03
            1575     6.45994E-03     69.0997E-03    -76.3947E+06    -68.3808E+06     4.56435E+06    -1.36181E+06    -229.366E-03     455.845E-03    -226.479E-03     140.296E-03    -232.285E-03     458.237E-03    -226.246E-03     124.202E-03
            1576     5.74188E-03     68.9173E-03    -85.3008E+06    -96.9082E+06    -11.1357E+06    -1.11465E+06    -228.852E-03     455.352E-03    -226.500E-03     128.157E-03    -231.307E-03     457.192E-03    -226.291E-03     113.495E-03
            1577     5.02384E-03     68.7522E-03    -94.2541E+06    -122.902E+06    -28.1084E+06    -864.922E+03    -228.349E-03     454.860E-03    -226.511E-03     114.689E-03    -230.339E-03     456.160E-03    -226.336E-03     101.630E-03
            1578     4.30608E-03     68.6058E-03    -103.305E+06    -149.326E+06    -46.8081E+06    -516.042E+03    -227.875E-03     454.388E-03    -226.512E-03     100.149E-03    -229.421E-03     455.172E-03    -226.380E-03     88.8146E-03
            1579     3.58834E-03     68.4801E-03    -112.208E+06    -174.336E+06    -66.9027E+06    -618.163E+03    -227.457E-03     453.959E-03    -226.502E-03     84.7837E-03    -228.602E-03     454.280E-03    -226.421E-03     75.2518E-03
            1580     2.87046E-03     68.3760E-03    -120.946E+06    -201.675E+06    -87.1934E+06    -614.566E+03    -227.109E-03     453.596E-03    -226.487E-03     68.8280E-03    -227.906E-03     453.501E-03    -226.455E-03     61.1440E-03
            1581     2.15270E-03     68.2935E-03    -128.988E+06    -225.062E+06    -107.268E+06    -227.290E+03    -226.845E-03     453.299E-03    -226.453E-03     52.3310E-03    -227.363E-03     452.870E-03    -226.476E-03     46.5175E-03
            1582     1.43533E-03     68.2334E-03    -135.218E+06    -239.386E+06    -124.894E+06    -233.655E+03    -226.649E-03     453.034E-03    -226.386E-03     35.4816E-03    -226.964E-03     452.382E-03    -226.467E-03     31.5426E-03
            1583     717.876E-06     68.1966E-03    -139.248E+06    -251.499E+06    -136.274E+06    -81.5967E+03    -226.438E-03     452.741E-03    -226.303E-03     19.1195E-03    -226.626E-03     451.938E-03    -226.418E-03     16.9813E-03
            1584     13.6429E-03     69.8165E-03    -5.72308E+06     65.5832E+06     86.5886E+06    -311.316E+03    -228.571E-03     454.892E-03    -226.321E-03     128.585E-03    -231.427E-03     457.709E-03    -225.975E-03     111.914E-03
            1585     12.9243E-03     69.6096E-03    -9.90971E+06     64.3809E+06     86.7441E+06     956.059E+03    -229.469E-03     455.812E-03    -226.344E-03     157.340E-03    -233.372E-03     459.658E-03    -225.989E-03     137.341E-03
            1586     12.2057E-03     69.4007E-03    -14.7188E+06     51.3352E+06     82.3677E+06     1.61134E+06    -230.044E-03     456.420E-03    -226.376E-03     163.407E-03    -234.095E-03     460.361E-03    -226.017E-03     143.256E-03
            1587     11.4859E-03     69.1712E-03    -20.5042E+06     44.0299E+06     79.4506E+06     948.127E+03    -230.680E-03     457.089E-03    -226.409E-03     170.837E-03    -235.014E-03     461.276E-03    -226.046E-03     150.187E-03
            1588     10.7682E-03     68.9399E-03    -26.1910E+06     43.9564E+06     74.8004E+06     710.551E+03    -231.044E-03     457.463E-03    -226.419E-03     172.797E-03    -235.438E-03     461.703E-03    -226.071E-03     152.245E-03
            1589     10.0508E-03     68.7042E-03    -32.0389E+06     37.1013E+06     64.3021E+06     2.43384E+06    -231.219E-03     457.623E-03    -226.404E-03     172.585E-03    -235.571E-03     461.806E-03    -226.090E-03     152.346E-03
            1590     9.33236E-03     68.4703E-03    -38.7846E+06     30.1618E+06     54.8682E+06     3.71603E+06    -231.097E-03     457.491E-03    -226.393E-03     170.056E-03    -235.324E-03     461.528E-03    -226.107E-03     150.302E-03
            1591     8.61414E-03     68.2407E-03    -45.8447E+06     22.8000E+06     48.0467E+06     3.27298E+06    -230.746E-03     457.148E-03    -226.403E-03     165.648E-03    -234.776E-03     460.957E-03    -226.129E-03     146.520E-03
            1592     7.89615E-03     68.0193E-03    -54.0382E+06    -236.133E+03     37.9444E+06     2.21946E+06    -230.303E-03     456.732E-03    -226.429E-03     159.058E-03    -234.035E-03     460.161E-03    -226.161E-03     140.736E-03
            1593     7.17807E-03     67.8080E-03    -63.8508E+06    -35.4380E+06     22.5562E+06     637.692E+03    -229.867E-03     456.323E-03    -226.456E-03     150.588E-03    -233.213E-03     459.251E-03    -226.199E-03     133.276E-03
            1594     6.46000E-03     67.6103E-03    -73.7053E+06    -68.1684E+06     6.62189E+06    -315.788E+03    -229.400E-03     455.878E-03    -226.479E-03     140.307E-03    -232.307E-03     458.263E-03    -226.240E-03     124.232E-03
            1595     5.74187E-03     67.4272E-03    -83.1122E+06    -97.1958E+06    -9.63720E+06    -659.923E+03    -228.898E-03     455.392E-03    -226.494E-03     128.116E-03    -231.342E-03     457.223E-03    -226.281E-03     113.468E-03
            1596     5.02411E-03     67.2622E-03    -92.5964E+06    -123.458E+06    -26.9029E+06    -685.953E+03    -228.355E-03     454.855E-03    -226.500E-03     114.673E-03    -230.336E-03     456.147E-03    -226.322E-03     101.623E-03
            1597     4.30612E-03     67.1159E-03    -102.259E+06    -149.688E+06    -45.7106E+06    -497.622E+03    -227.809E-03     454.316E-03    -226.507E-03     100.250E-03    -229.350E-03     455.095E-03    -226.370E-03     88.9243E-03
            1598     3.58803E-03     66.9903E-03    -111.833E+06    -174.500E+06    -66.1859E+06    -380.697E+03    -227.431E-03     453.935E-03    -226.504E-03     84.8759E-03    -228.574E-03     454.254E-03    -226.420E-03     75.3559E-03
            1599     2.87042E-03     66.8856E-03    -120.884E+06    -202.621E+06    -87.1396E+06    -476.683E+03    -227.204E-03     453.682E-03    -226.478E-03     68.7738E-03    -227.999E-03     453.581E-03    -226.445E-03     61.0929E-03
            1600     2.15303E-03     66.8034E-03    -128.478E+06    -225.474E+06    -106.767E+06    -454.750E+03    -226.888E-03     453.307E-03    -226.419E-03     52.3292E-03    -227.403E-03     452.875E-03    -226.440E-03     46.5102E-03
            1601     1.43525E-03     66.7433E-03    -134.551E+06    -239.719E+06    -124.114E+06    -232.949E+03    -226.538E-03     452.899E-03    -226.362E-03     35.5717E-03    -226.850E-03     452.243E-03    -226.439E-03     31.6343E-03
            1602     717.442E-06     66.7071E-03    -138.685E+06    -251.923E+06    -135.812E+06     34.8182E+03    -226.444E-03     452.736E-03    -226.292E-03     19.1898E-03    -226.630E-03     451.929E-03    -226.404E-03     17.0549E-03
            1603     13.6400E-03     68.3293E-03    -3.77227E+06     65.6724E+06     86.1167E+06     1.03060E+06    -227.627E-03     453.973E-03    -226.346E-03     129.500E-03    -230.468E-03     456.783E-03    -226.005E-03     112.947E-03
            1604     12.9205E-03     68.1180E-03    -10.5121E+06     64.0027E+06     84.1934E+06     -25.317E+03    -229.611E-03     456.000E-03    -226.389E-03     157.285E-03    -233.501E-03     459.836E-03    -226.045E-03     137.305E-03
            1605     12.2035E-03     67.9088E-03    -15.0480E+06     50.3451E+06     80.3803E+06    -582.376E+03    -230.551E-03     456.956E-03    -226.405E-03     162.616E-03    -234.602E-03     460.900E-03    -226.055E-03     142.323E-03
            1606     11.4870E-03     67.6825E-03    -19.4700E+06     43.8616E+06     78.0559E+06    -51.4833E+03    -230.999E-03     457.409E-03    -226.410E-03     170.188E-03    -235.330E-03     461.600E-03    -226.055E-03     149.435E-03
            1607     10.7684E-03     67.4485E-03    -26.0497E+06     42.3054E+06     72.4927E+06     493.258E+03    -231.155E-03     457.556E-03    -226.401E-03     172.378E-03    -235.541E-03     461.789E-03    -226.062E-03     151.797E-03
            1608     10.0502E-03     67.2137E-03    -33.2603E+06     34.7712E+06     62.7964E+06     1.13452E+06    -231.278E-03     457.662E-03    -226.384E-03     172.579E-03    -235.633E-03     461.840E-03    -226.072E-03     152.312E-03
            1609     9.33259E-03     66.9799E-03    -39.0064E+06     29.2361E+06     55.6063E+06     1.69221E+06    -231.079E-03     457.457E-03    -226.378E-03     170.173E-03    -235.309E-03     461.491E-03    -226.086E-03     150.392E-03
            1610     8.61457E-03     66.7511E-03    -45.7486E+06     22.1945E+06     49.0298E+06     2.61459E+06    -230.632E-03     457.023E-03    -226.392E-03     165.669E-03    -234.660E-03     460.826E-03    -226.112E-03     146.546E-03
            1611     7.89629E-03     66.5292E-03    -54.1221E+06     2.35983E+06     39.4763E+06     3.23993E+06    -230.181E-03     456.607E-03    -226.427E-03     159.214E-03    -233.918E-03     460.046E-03    -226.154E-03     140.924E-03
            1612     7.17802E-03     66.3186E-03    -62.7795E+06    -31.4257E+06     24.9471E+06     2.46023E+06    -229.864E-03     456.325E-03    -226.461E-03     150.721E-03    -233.213E-03     459.267E-03    -226.200E-03     133.447E-03
            1613     6.45990E-03     66.1200E-03    -72.0134E+06    -66.2662E+06     8.58796E+06     1.20536E+06    -229.461E-03     455.943E-03    -226.482E-03     140.297E-03    -232.366E-03     458.332E-03    -226.238E-03     124.244E-03
            1614     5.74216E-03     65.9374E-03    -81.5669E+06    -96.3929E+06    -7.93951E+06     567.330E+03    -228.887E-03     455.383E-03    -226.496E-03     128.243E-03    -231.327E-03     457.214E-03    -226.277E-03     113.614E-03
            1615     5.02400E-03     65.7722E-03    -91.3713E+06    -123.259E+06    -25.5903E+06     316.793E+03    -228.346E-03     454.851E-03    -226.505E-03     114.827E-03    -230.325E-03     456.142E-03    -226.322E-03     101.789E-03
            1616     4.30603E-03     65.6263E-03    -101.169E+06    -149.698E+06    -44.6929E+06     223.940E+03    -227.914E-03     454.417E-03    -226.503E-03     100.217E-03    -229.452E-03     455.194E-03    -226.363E-03     88.8961E-03
            1617     3.58835E-03     65.5002E-03    -110.620E+06    -174.473E+06    -65.1388E+06     234.560E+03    -227.518E-03     453.997E-03    -226.479E-03     84.7419E-03    -228.655E-03     454.311E-03    -226.392E-03     75.2348E-03
            1618     2.87059E-03     65.3954E-03    -119.524E+06    -202.223E+06    -85.8765E+06     70.3774E+03    -227.140E-03     453.586E-03    -226.446E-03     68.6440E-03    -227.929E-03     453.481E-03    -226.408E-03     60.9821E-03
            1619     2.15286E-03     65.3132E-03    -127.883E+06    -225.814E+06    -106.131E+06    -166.215E+03    -226.770E-03     453.176E-03    -226.406E-03     52.2013E-03    -227.283E-03     452.740E-03    -226.424E-03     46.3852E-03
            1620     1.43527E-03     65.2539E-03    -134.492E+06    -240.032E+06    -123.647E+06    -198.059E+03    -226.480E-03     452.863E-03    -226.383E-03     35.5527E-03    -226.793E-03     452.206E-03    -226.459E-03     31.6010E-03
            1621     717.653E-06     65.2169E-03    -138.655E+06    -252.456E+06    -135.842E+06    -97.1075E+03    -226.552E-03     452.814E-03    -226.262E-03     19.2389E-03    -226.737E-03     452.004E-03    -226.374E-03     17.1009E-03
            1622     13.6405E-03     66.8395E-03    -3.40655E+06     65.4249E+06     86.2612E+06     1.01283E+06    -228.223E-03     454.578E-03    -226.355E-03     127.955E-03    -231.028E-03     457.353E-03    -226.013E-03     111.473E-03
            1623     12.9237E-03     66.6281E-03    -7.15130E+06     67.2436E+06     87.1053E+06     981.972E+03    -229.627E-03     456.008E-03    -226.381E-03     156.091E-03    -233.478E-03     459.820E-03    -226.033E-03     136.178E-03
            1624     12.2050E-03     66.4183E-03    -13.9480E+06     51.6350E+06     80.9069E+06    -658.475E+03    -230.408E-03     456.798E-03    -226.390E-03     161.810E-03    -234.440E-03     460.729E-03    -226.040E-03     141.539E-03
            1625     11.4864E-03     66.1906E-03    -21.5278E+06     41.8644E+06      76.373E+06    -1.19336E+06    -231.114E-03     457.503E-03    -226.388E-03     169.816E-03    -235.451E-03     461.690E-03    -226.036E-03     149.020E-03
            1626     10.7691E-03     65.9594E-03    -27.6087E+06     40.5355E+06     70.5798E+06     129.018E+03    -231.169E-03     457.538E-03    -226.369E-03     172.241E-03    -235.558E-03     461.768E-03    -226.035E-03     151.649E-03
            1627     10.0510E-03     65.7234E-03    -33.2589E+06     34.7240E+06     60.9466E+06     480.275E+03    -231.065E-03     457.417E-03    -226.352E-03     172.471E-03    -235.416E-03     461.596E-03    -226.049E-03     152.202E-03
            1628     9.33259E-03     65.4898E-03    -40.7715E+06     27.5806E+06     53.2303E+06     437.869E+03    -230.870E-03     457.233E-03    -226.363E-03     170.214E-03    -235.102E-03     461.263E-03    -226.077E-03     150.432E-03
            1629     8.61442E-03     65.2609E-03    -48.6025E+06     19.8958E+06     47.0486E+06     1.09413E+06    -230.544E-03     456.937E-03    -226.393E-03     165.876E-03    -234.583E-03     460.737E-03    -226.116E-03     146.743E-03
            1630     7.89603E-03     65.0400E-03    -55.9983E+06     2.20077E+06     38.7102E+06     1.47707E+06    -230.234E-03     456.666E-03    -226.432E-03     159.367E-03    -233.981E-03     460.109E-03    -226.160E-03     141.056E-03
            1631     7.17787E-03     64.8281E-03    -63.9383E+06    -29.7474E+06     25.3012E+06     1.54919E+06    -229.905E-03     456.369E-03    -226.464E-03     150.705E-03    -233.260E-03     459.318E-03    -226.201E-03     133.425E-03
            1632     6.46011E-03     64.6301E-03    -72.3700E+06    -64.6324E+06     9.35227E+06     1.46669E+06    -229.380E-03     455.868E-03    -226.487E-03     140.251E-03    -232.290E-03     458.264E-03    -226.242E-03     124.200E-03
            1633     5.74176E-03     64.4476E-03    -81.7139E+06    -95.3886E+06    -7.56997E+06     1.32662E+06    -228.851E-03     455.358E-03    -226.507E-03     128.284E-03    -231.294E-03     457.195E-03    -226.288E-03     113.668E-03
            1634     5.02387E-03     64.2823E-03    -91.3407E+06    -122.523E+06    -25.4461E+06     1.06836E+06    -228.465E-03     454.976E-03    -226.510E-03     114.817E-03    -230.444E-03     456.269E-03    -226.327E-03     101.790E-03
            1635     4.30618E-03     64.1360E-03    -101.020E+06    -149.130E+06    -44.5716E+06     771.243E+03    -228.055E-03     454.542E-03    -226.487E-03     100.177E-03    -229.592E-03     455.321E-03    -226.347E-03     88.8554E-03
            1636     3.58852E-03     64.0101E-03    -110.434E+06    -174.001E+06    -64.9435E+06     641.252E+03    -227.524E-03     453.971E-03    -226.447E-03     84.8135E-03    -228.662E-03     454.287E-03    -226.360E-03     75.3090E-03
            1637     2.87081E-03     63.9056E-03    -119.437E+06    -201.720E+06    -85.5752E+06     755.373E+03    -227.040E-03     453.461E-03    -226.421E-03     68.7928E-03    -227.830E-03     453.359E-03    -226.383E-03     61.1426E-03
            1638     2.15301E-03     63.8235E-03    -127.547E+06    -225.180E+06    -105.589E+06     591.289E+03    -226.729E-03     453.126E-03    -226.397E-03     52.1760E-03    -227.241E-03     452.692E-03    -226.413E-03     46.3790E-03
            1639     1.43517E-03     63.7640E-03    -134.153E+06    -240.023E+06    -123.516E+06     134.890E+03    -226.501E-03     452.870E-03    -226.370E-03     35.4477E-03    -226.812E-03     452.211E-03    -226.445E-03     31.5056E-03
            1640     717.480E-06     63.7270E-03    -138.242E+06    -252.713E+06    -135.545E+06     56.1194E+03    -226.499E-03     452.773E-03    -226.273E-03     19.4671E-03    -226.682E-03     451.961E-03    -226.384E-03     17.3130E-03
            1641     13.6422E-03     65.3502E-03    -5.05822E+06     64.5465E+06     84.5255E+06    -1.20479E+06    -228.613E-03     454.956E-03    -226.343E-03     129.258E-03    -231.459E-03     457.768E-03    -226.006E-03     112.629E-03
            1642     12.9223E-03     65.1379E-03    -9.12801E+06     65.5327E+06     85.4577E+06    -374.945E+03    -230.084E-03     456.437E-03    -226.353E-03     157.614E-03    -233.980E-03     460.286E-03    -226.008E-03     137.577E-03
            1643     12.2047E-03     64.9277E-03    -13.7956E+06     52.8662E+06     81.5355E+06     1.18080E+06    -230.380E-03     456.737E-03    -226.357E-03     162.053E-03    -234.415E-03     460.674E-03    -226.006E-03     141.826E-03
            1644     11.4872E-03     64.7005E-03    -19.1564E+06     44.5300E+06     78.2001E+06     1.00467E+06    -230.728E-03     457.097E-03    -226.369E-03     169.767E-03    -235.046E-03     461.278E-03    -226.014E-03     149.086E-03
            1645     10.7690E-03     64.4682E-03    -25.5231E+06     39.4223E+06     72.7938E+06    -515.786E+03    -230.972E-03     457.350E-03    -226.378E-03     172.791E-03    -235.356E-03     461.573E-03    -226.035E-03     152.218E-03
            1646     10.0510E-03     64.2341E-03    -32.7533E+06     31.7355E+06     62.9225E+06     339.509E+03    -231.114E-03     457.490E-03    -226.377E-03     173.314E-03    -235.467E-03     461.658E-03    -226.061E-03     153.067E-03
            1647     9.33263E-03     64.0001E-03    -39.9400E+06     27.7642E+06     54.4862E+06     1.82700E+06    -230.939E-03     457.319E-03    -226.381E-03     170.549E-03    -235.171E-03     461.351E-03    -226.091E-03     150.793E-03
            1648     8.61407E-03     63.7715E-03    -47.5167E+06     21.0050E+06     48.0988E+06     931.391E+03    -230.658E-03     457.061E-03    -226.402E-03     165.690E-03    -234.695E-03     460.863E-03    -226.124E-03     146.534E-03
            1649     7.89611E-03     63.5494E-03    -55.5458E+06     1.79642E+06     39.2219E+06     303.581E+03    -230.297E-03     456.730E-03    -226.433E-03     159.168E-03    -234.039E-03     460.167E-03    -226.159E-03     140.835E-03
            1650     7.17826E-03     63.3384E-03    -64.1277E+06    -30.4967E+06     24.6152E+06     769.875E+03    -229.819E-03     456.279E-03    -226.461E-03     150.734E-03    -233.173E-03     459.226E-03    -226.200E-03     133.448E-03
            1651     6.45977E-03     63.1402E-03    -73.2501E+06    -64.6249E+06     8.21467E+06     1.26767E+06    -229.368E-03     455.855E-03    -226.487E-03     140.238E-03    -232.279E-03     458.253E-03    -226.246E-03     124.190E-03
            1652     5.74192E-03     62.9579E-03    -82.4184E+06    -94.7156E+06    -8.14834E+06     1.38223E+06    -228.964E-03     455.465E-03    -226.501E-03     128.114E-03    -231.408E-03     457.304E-03    -226.285E-03     113.500E-03
            1653     5.02401E-03     62.7919E-03    -91.9205E+06    -121.666E+06    -25.6986E+06     1.31180E+06    -228.492E-03     454.985E-03    -226.493E-03     114.710E-03    -230.472E-03     456.282E-03    -226.312E-03     101.690E-03
            1654     4.30628E-03     62.6458E-03    -101.420E+06    -148.269E+06    -44.6967E+06     1.00093E+06    -227.959E-03     454.433E-03    -226.473E-03     100.182E-03    -229.500E-03     455.217E-03    -226.335E-03     88.8699E-03
            1655     3.58845E-03     62.5201E-03    -110.812E+06    -173.672E+06    -65.1659E+06     875.887E+03    -227.436E-03     453.886E-03    -226.449E-03     84.8294E-03    -228.577E-03     454.205E-03    -226.363E-03     75.3273E-03
            1656     2.87053E-03     62.4159E-03    -119.551E+06    -201.155E+06    -85.7495E+06     851.139E+03    -227.018E-03     453.454E-03    -226.436E-03     68.8851E-03    -227.811E-03     453.357E-03    -226.400E-03     61.2227E-03
            1657     2.15287E-03     62.3334E-03    -126.986E+06    -223.876E+06    -105.372E+06     692.075E+03    -226.741E-03     453.161E-03    -226.420E-03     52.3932E-03    -227.254E-03     452.734E-03    -226.438E-03     46.5920E-03
            1658     1.43543E-03     62.2742E-03    -133.386E+06    -239.032E+06    -123.524E+06     369.688E+03    -226.571E-03     452.955E-03    -226.384E-03     35.6374E-03    -226.880E-03     452.301E-03    -226.462E-03     31.6948E-03
            1659     717.725E-06     62.2374E-03    -136.814E+06    -252.731E+06    -134.463E+06    -92.2456E+03    -226.506E-03     452.794E-03    -226.288E-03     19.5252E-03    -226.684E-03     451.979E-03    -226.395E-03     17.3667E-03
            1660     13.6384E-03     63.8582E-03    -4.74027E+06     65.9016E+06     84.8874E+06    -372.778E+03    -228.721E-03     455.059E-03    -226.338E-03     129.081E-03    -231.556E-03     457.865E-03    -226.002E-03     112.470E-03
            1661     12.9234E-03     63.6460E-03    -11.0873E+06     63.5380E+06     83.3074E+06    -1.16237E+06    -230.194E-03     456.526E-03    -226.332E-03     156.022E-03    -234.073E-03     460.349E-03    -225.991E-03     135.957E-03
            1662     12.2059E-03     63.4374E-03    -16.4447E+06     50.5804E+06     79.8455E+06    -943.913E+03    -230.037E-03     456.377E-03    -226.341E-03     162.024E-03    -234.075E-03     460.306E-03    -225.991E-03     141.815E-03
            1663     11.4872E-03     63.2108E-03    -21.7657E+06     44.2332E+06     77.0834E+06     154.823E+03    -230.466E-03     456.837E-03    -226.372E-03     170.380E-03    -234.799E-03     461.027E-03    -226.019E-03     149.721E-03
            1664     10.7682E-03     62.9791E-03    -29.5639E+06     41.0945E+06     69.1708E+06     629.707E+03    -230.834E-03     457.217E-03    -226.383E-03     172.786E-03    -235.228E-03     461.452E-03    -226.054E-03     152.255E-03
            1665     10.0497E-03     62.7429E-03    -36.8681E+06     31.8292E+06     58.5609E+06     -990.64E+03    -231.100E-03     457.483E-03    -226.383E-03     172.704E-03    -235.460E-03     461.656E-03    -226.083E-03     152.431E-03
            1666     9.33199E-03     62.5099E-03    -42.1413E+06     25.0687E+06     52.4345E+06    -2.25485E+06    -231.065E-03     457.457E-03    -226.392E-03     170.234E-03    -235.304E-03     461.483E-03    -226.105E-03     150.382E-03
            1667     8.61456E-03     62.2809E-03    -47.5619E+06     20.2422E+06     47.9061E+06    -561.203E+03    -230.759E-03     457.165E-03    -226.407E-03     165.763E-03    -234.797E-03     460.968E-03    -226.128E-03     146.571E-03
            1668     7.89643E-03     62.0599E-03    -55.6892E+06     1.23543E+06     38.0952E+06     849.527E+03    -230.290E-03     456.720E-03    -226.430E-03     159.328E-03    -234.032E-03     460.158E-03    -226.160E-03     141.006E-03
            1669     7.17774E-03     61.8486E-03    -65.1631E+06    -31.2196E+06     23.3344E+06     1.20292E+06    -229.873E-03     456.330E-03    -226.457E-03     150.719E-03    -233.228E-03     459.275E-03    -226.200E-03     133.441E-03
            1670     6.45994E-03     61.6504E-03    -74.2501E+06    -64.5066E+06     7.56588E+06     1.11286E+06    -229.504E-03     455.977E-03    -226.473E-03     140.096E-03    -232.417E-03     458.376E-03    -226.234E-03     124.047E-03
            1671     5.74205E-03     61.4673E-03    -83.2824E+06    -94.4780E+06    -8.63126E+06     940.521E+03    -229.013E-03     455.486E-03    -226.473E-03     128.003E-03    -231.461E-03     457.327E-03    -226.258E-03     113.376E-03
            1672     5.02430E-03     61.3022E-03    -92.5034E+06    -120.944E+06    -26.0160E+06     976.675E+03    -228.365E-03     454.831E-03    -226.466E-03     114.696E-03    -230.350E-03     456.134E-03    -226.287E-03     101.671E-03
            1673     4.30620E-03     61.1558E-03    -101.904E+06    -147.840E+06    -45.3281E+06     1.01365E+06    -227.785E-03     454.251E-03    -226.466E-03     100.201E-03    -229.326E-03     455.037E-03    -226.330E-03     88.9067E-03
            1674     3.58833E-03     61.0303E-03    -111.071E+06    -173.331E+06    -65.6953E+06     653.321E+03    -227.372E-03     453.836E-03    -226.464E-03     84.8349E-03    -228.514E-03     454.159E-03    -226.380E-03     75.3265E-03
            1675     2.87066E-03     60.9259E-03    -119.600E+06    -200.282E+06    -85.8360E+06     447.609E+03    -227.027E-03     453.489E-03    -226.462E-03     68.8615E-03    -227.822E-03     453.398E-03    -226.428E-03     61.1853E-03
            1676     2.15278E-03     60.8437E-03    -127.444E+06    -222.952E+06    -105.636E+06     546.027E+03    -226.709E-03     453.169E-03    -226.460E-03     52.3469E-03    -227.225E-03     452.747E-03    -226.480E-03     46.5450E-03
            1677     1.43481E-03     60.7839E-03    -133.444E+06    -237.802E+06    -122.983E+06     422.185E+03    -226.564E-03     453.021E-03    -226.457E-03     35.7149E-03    -226.877E-03     452.373E-03    -226.534E-03     31.7667E-03
            1678     717.552E-06     60.7471E-03    -137.739E+06    -252.359E+06    -135.403E+06     102.071E+03    -226.652E-03     452.969E-03    -226.317E-03     19.5347E-03    -226.834E-03     452.159E-03    -226.428E-03     17.3678E-03
            1679     13.6436E-03     62.3645E-03    -4.75410E+06     66.2883E+06     85.4665E+06     108.415E+03    -228.689E-03     455.003E-03    -226.314E-03     130.052E-03    -231.536E-03     457.821E-03    -225.976E-03     113.462E-03
            1680     12.9243E-03     62.1571E-03    -9.10393E+06     64.0588E+06     85.4642E+06     480.365E+03    -229.536E-03     455.871E-03    -226.335E-03     156.888E-03    -233.418E-03     459.701E-03    -225.988E-03     136.902E-03
            1681     12.2046E-03     61.9478E-03    -15.6766E+06     50.9021E+06     80.3119E+06     515.688E+03    -229.910E-03     456.276E-03    -226.366E-03     162.893E-03    -233.959E-03     460.217E-03    -226.015E-03     142.711E-03
            1682     11.4862E-03     61.7213E-03    -23.0729E+06     42.2203E+06     76.0189E+06    -259.131E+03    -230.793E-03     457.186E-03    -226.393E-03     170.373E-03    -235.134E-03     461.374E-03    -226.041E-03     149.661E-03
            1683     10.7688E-03     61.4884E-03    -27.4755E+06     41.1304E+06     72.1247E+06    -190.157E+03    -231.164E-03     457.559E-03    -226.394E-03     172.357E-03    -235.551E-03     461.784E-03    -226.053E-03     151.780E-03
            1684     10.0512E-03     61.2538E-03    -32.3719E+06     35.9851E+06     62.8051E+06    -69.7001E+03    -231.068E-03     457.447E-03    -226.378E-03     172.424E-03    -235.420E-03     461.629E-03    -226.070E-03     152.136E-03
            1685     9.33265E-03     61.0197E-03    -41.2251E+06     26.1462E+06     51.6536E+06    -1.11275E+06    -230.836E-03     457.216E-03    -226.380E-03     170.178E-03    -235.064E-03     461.241E-03    -226.100E-03     150.378E-03
            1686     8.61394E-03     60.7908E-03    -51.3754E+06     16.3298E+06     43.2641E+06    -1.72049E+06    -230.642E-03     457.046E-03    -226.404E-03     165.818E-03    -234.682E-03     460.836E-03    -226.137E-03     146.640E-03
            1687     7.89568E-03     60.5698E-03    -59.6168E+06    -1.18858E+06     35.2144E+06    -703.900E+03    -230.428E-03     456.859E-03    -226.431E-03     159.146E-03    -234.182E-03     460.296E-03    -226.167E-03     140.782E-03
            1688     7.17825E-03     60.3585E-03    -67.1356E+06    -31.3095E+06     22.6475E+06    -38.8467E+03    -230.034E-03     456.479E-03    -226.445E-03     150.515E-03    -233.398E-03     459.428E-03    -226.189E-03     133.199E-03
            1689     6.46022E-03     60.1602E-03    -75.3980E+06    -64.6203E+06     7.21895E+06     86.4168E+03    -229.496E-03     455.947E-03    -226.451E-03     140.183E-03    -232.415E-03     458.348E-03    -226.212E-03     124.117E-03
            1690     5.74235E-03     59.9774E-03    -84.2396E+06    -94.5228E+06    -9.36496E+06     173.964E+03    -228.908E-03     455.362E-03    -226.454E-03     128.184E-03    -231.362E-03     457.208E-03    -226.241E-03     113.548E-03
            1691     5.02424E-03     59.8125E-03    -93.4214E+06    -121.173E+06    -27.0434E+06     308.009E+03    -228.321E-03     454.775E-03    -226.455E-03     114.780E-03    -230.310E-03     456.081E-03    -226.279E-03     101.748E-03
            1692     4.30631E-03     59.6662E-03    -102.570E+06    -147.389E+06    -45.7549E+06     449.156E+03    -227.771E-03     454.230E-03    -226.459E-03     100.193E-03    -229.316E-03     455.021E-03    -226.326E-03     88.8911E-03
            1693     3.58828E-03     59.5405E-03    -111.531E+06    -172.668E+06    -66.1432E+06     243.380E+03    -227.332E-03     453.792E-03    -226.461E-03     84.7776E-03    -228.476E-03     454.120E-03    -226.379E-03     75.2626E-03
            1694     2.87037E-03     59.4359E-03    -120.242E+06    -200.089E+06    -86.8314E+06     13.8396E+03    -227.028E-03     453.488E-03    -226.459E-03     68.7454E-03    -227.826E-03     453.399E-03    -226.429E-03     61.0590E-03
            1695     2.15281E-03     59.3539E-03    -127.844E+06    -222.843E+06    -106.129E+06    -93.9898E+03    -226.775E-03     453.218E-03    -226.443E-03     52.1982E-03    -227.292E-03     452.798E-03    -226.465E-03     46.3835E-03
            1696     1.43532E-03     59.2940E-03    -133.785E+06    -237.702E+06    -122.973E+06     42.7298E+03    -226.533E-03     452.960E-03    -226.427E-03     35.4898E-03    -226.847E-03     452.311E-03    -226.503E-03     31.5469E-03
            1697     717.338E-06     59.2566E-03    -137.478E+06    -251.346E+06    -134.422E+06     478.807E+03    -226.533E-03     452.904E-03    -226.371E-03     19.3243E-03    -226.716E-03     452.097E-03    -226.479E-03     17.1755E-03
            1698     13.6398E-03     60.8769E-03    -4.50720E+06     65.3692E+06     85.2125E+06     17.6393E+03    -228.110E-03     454.424E-03    -226.315E-03     130.128E-03    -230.957E-03     457.240E-03    -225.977E-03     113.569E-03
            1699     12.9212E-03     60.6655E-03    -9.01705E+06     63.0359E+06     84.9603E+06     371.127E+03    -229.219E-03     455.579E-03    -226.360E-03     156.779E-03    -233.104E-03     459.409E-03    -226.013E-03     136.782E-03
            1700     12.2044E-03     60.4585E-03    -13.1992E+06     50.3392E+06     81.0894E+06     814.280E+03    -230.325E-03     456.712E-03    -226.387E-03     161.839E-03    -234.355E-03     460.638E-03    -226.035E-03     141.590E-03
            1701     11.4869E-03     60.2297E-03    -17.8478E+06     44.1605E+06     78.7472E+06     1.50823E+06    -230.943E-03     457.339E-03    -226.396E-03     169.910E-03    -235.248E-03     461.509E-03    -226.040E-03     149.249E-03
            1702     10.7688E-03     59.9983E-03    -25.5466E+06     43.1071E+06     73.4695E+06     105.007E+03    -231.079E-03     457.473E-03    -226.394E-03     172.581E-03    -235.465E-03     461.708E-03    -226.052E-03     152.004E-03
            1703     10.0503E-03     59.7631E-03    -34.0933E+06     34.3299E+06     62.4812E+06    -570.013E+03    -231.099E-03     457.483E-03    -226.385E-03     172.906E-03    -235.461E-03     461.665E-03    -226.073E-03     152.623E-03
            1704     9.33226E-03     59.5303E-03    -40.7370E+06     26.7944E+06     53.1819E+06     1.77078E+06    -230.989E-03     457.374E-03    -226.385E-03     170.250E-03    -235.212E-03     461.393E-03    -226.099E-03     150.516E-03
            1705     8.61413E-03     59.3012E-03    -48.0888E+06     19.4020E+06     46.1755E+06     1.58762E+06    -230.753E-03     457.150E-03    -226.397E-03     165.435E-03    -234.780E-03     460.941E-03    -226.125E-03     146.304E-03
            1706     7.89645E-03     59.0790E-03    -56.5905E+06    -833.974E+03     36.8922E+06    -823.181E+03    -230.388E-03     456.804E-03    -226.417E-03     158.846E-03    -234.127E-03     460.233E-03    -226.149E-03     140.478E-03
            1707     7.17820E-03     58.8685E-03    -65.2616E+06    -33.0806E+06     22.5865E+06    -1.02640E+06    -229.948E-03     456.379E-03    -226.431E-03     150.581E-03    -233.303E-03     459.319E-03    -226.175E-03     133.248E-03
            1708     6.46021E-03     58.6701E-03    -74.1144E+06    -64.7744E+06     6.99333E+06    -303.397E+03    -229.398E-03     455.843E-03    -226.445E-03     140.342E-03    -232.312E-03     458.244E-03    -226.209E-03     124.276E-03
            1709     5.74202E-03     58.4878E-03    -83.1987E+06    -95.2366E+06    -9.23711E+06     4.57769E+03    -228.843E-03     455.305E-03    -226.462E-03     128.304E-03    -231.291E-03     457.147E-03    -226.250E-03     113.673E-03
            1710     5.02414E-03     58.3224E-03    -92.4390E+06    -121.486E+06    -26.5762E+06     310.476E+03    -228.363E-03     454.832E-03    -226.469E-03     114.865E-03    -230.350E-03     456.136E-03    -226.291E-03     101.823E-03
            1711     4.30630E-03     58.1765E-03    -101.685E+06    -146.921E+06    -45.1585E+06     155.829E+03    -227.890E-03     454.352E-03    -226.462E-03     100.270E-03    -229.434E-03     455.145E-03    -226.328E-03     88.9446E-03
            1712     3.58851E-03     58.0507E-03    -110.848E+06    -172.618E+06    -65.3951E+06     198.839E+03    -227.420E-03     453.866E-03    -226.446E-03     84.8176E-03    -228.563E-03     454.192E-03    -226.362E-03     75.2973E-03
            1713     2.87075E-03     57.9462E-03    -119.658E+06    -199.602E+06    -86.3314E+06     129.448E+03    -227.026E-03     453.455E-03    -226.429E-03     68.7100E-03    -227.821E-03     453.366E-03    -226.397E-03     61.0316E-03
            1714     2.15290E-03     57.8636E-03    -127.519E+06    -222.863E+06    -106.409E+06    -167.720E+03    -226.784E-03     453.182E-03    -226.398E-03     52.2808E-03    -227.298E-03     452.762E-03    -226.422E-03     46.4636E-03
            1715     1.43527E-03     57.8040E-03    -133.749E+06    -238.014E+06    -124.115E+06    -259.942E+03    -226.598E-03     452.932E-03    -226.334E-03     35.5661E-03    -226.909E-03     452.284E-03    -226.416E-03     31.6173E-03
            1716     717.867E-06     57.7672E-03    -137.372E+06    -251.563E+06    -135.039E+06    -514.751E+03    -226.232E-03     452.655E-03    -226.424E-03     19.5210E-03    -226.413E-03     451.848E-03    -226.535E-03     17.3724E-03
            1717     13.6430E-03     59.3902E-03    -4.44048E+06     64.5202E+06     85.6551E+06     -560.25E+03    -228.378E-03     454.686E-03    -226.308E-03     128.185E-03    -231.204E-03     457.477E-03    -225.967E-03     111.604E-03
            1718     12.9239E-03     59.1764E-03    -10.1922E+06     62.5518E+06     84.8559E+06    -230.993E+03    -229.366E-03     455.702E-03    -226.336E-03     156.309E-03    -233.233E-03     459.509E-03    -225.987E-03     136.373E-03
            1719     12.2052E-03     58.9665E-03    -15.8961E+06     50.3761E+06     81.0823E+06     121.756E+03    -230.039E-03     456.406E-03    -226.367E-03     161.669E-03    -234.051E-03     460.306E-03    -226.012E-03     141.557E-03
            1720     11.4869E-03     58.7407E-03    -23.1630E+06     41.7621E+06     76.3722E+06     644.561E+03    -230.741E-03     457.128E-03    -226.386E-03     170.063E-03    -235.059E-03     461.290E-03    -226.031E-03     149.440E-03
            1721     10.7683E-03     58.5077E-03    -29.9662E+06     44.8837E+06     69.5074E+06     1.23923E+06    -230.938E-03     457.316E-03    -226.378E-03     172.286E-03    -235.339E-03     461.569E-03    -226.052E-03     151.723E-03
            1722     10.0504E-03     58.2736E-03    -36.7362E+06     36.5508E+06     58.1675E+06     68.4040E+03    -231.158E-03     457.519E-03    -226.361E-03     172.132E-03    -235.521E-03     461.713E-03    -226.070E-03     151.841E-03
            1723     9.33229E-03     58.0396E-03    -43.3301E+06     24.4641E+06     50.7621E+06    -2.16033E+06    -231.156E-03     457.517E-03    -226.361E-03     169.719E-03    -235.388E-03     461.535E-03    -226.080E-03     149.875E-03
            1724     8.61490E-03     57.8106E-03    -48.2384E+06     18.9857E+06     47.1393E+06    -1.54295E+06    -230.696E-03     457.070E-03    -226.374E-03     165.406E-03    -234.727E-03     460.860E-03    -226.096E-03     146.222E-03
            1725     7.89635E-03     57.5897E-03    -54.8673E+06     -147.22E+03     37.7440E+06     327.725E+03    -230.168E-03     456.569E-03    -226.400E-03     159.182E-03    -233.899E-03     459.995E-03    -226.132E-03     140.872E-03
            1726     7.17820E-03     57.3783E-03    -64.1825E+06    -33.1189E+06     22.4509E+06     382.878E+03    -229.813E-03     456.245E-03    -226.432E-03     150.783E-03    -233.162E-03     459.183E-03    -226.178E-03     133.489E-03
            1727     6.46008E-03     57.1805E-03    -73.6894E+06    -65.0173E+06     6.62706E+06    -36.3575E+03    -229.402E-03     455.857E-03    -226.455E-03     140.325E-03    -232.316E-03     458.259E-03    -226.221E-03     124.254E-03
            1728     5.74211E-03     56.9979E-03    -82.9042E+06    -95.8172E+06    -9.36666E+06     61.1013E+03    -228.892E-03     455.364E-03    -226.472E-03     128.202E-03    -231.339E-03     457.204E-03    -226.259E-03     113.560E-03
            1729     5.02405E-03     56.8325E-03    -92.1016E+06    -121.497E+06    -26.3209E+06     80.0884E+03    -228.338E-03     454.816E-03    -226.478E-03     114.758E-03    -230.323E-03     456.118E-03    -226.300E-03     101.713E-03
            1730     4.30613E-03     56.6864E-03    -101.479E+06    -146.944E+06    -45.2629E+06     245.946E+03    -227.882E-03     454.356E-03    -226.474E-03     100.316E-03    -229.426E-03     455.149E-03    -226.340E-03     88.9918E-03
            1731     3.58842E-03     56.5606E-03    -110.891E+06    -172.728E+06    -65.6411E+06     212.176E+03    -227.476E-03     453.931E-03    -226.455E-03     84.9959E-03    -228.620E-03     454.259E-03    -226.372E-03     75.4671E-03
            1732     2.87068E-03     56.4563E-03    -119.465E+06    -199.171E+06    -85.7562E+06     287.006E+03    -227.085E-03     453.516E-03    -226.432E-03     69.0012E-03    -227.881E-03     453.431E-03    -226.399E-03     61.3242E-03
            1733     2.15299E-03     56.3740E-03    -127.343E+06    -222.437E+06    -105.966E+06     387.849E+03    -226.781E-03     453.177E-03    -226.397E-03     52.4913E-03    -227.297E-03     452.759E-03    -226.419E-03     46.6799E-03
            1734     1.43529E-03     56.3139E-03    -133.526E+06    -237.586E+06    -123.758E+06     88.1786E+03    -226.555E-03     452.902E-03    -226.347E-03     35.6729E-03    -226.868E-03     452.256E-03    -226.428E-03     31.7201E-03
            1735     717.672E-06     56.2774E-03    -137.936E+06    -252.343E+06    -135.259E+06    -7.74789E+03    -226.349E-03     452.707E-03    -226.358E-03     19.3787E-03    -226.532E-03     451.897E-03    -226.468E-03     17.2206E-03
            1736     13.6404E-03     57.8975E-03    -4.34446E+06     64.6299E+06     86.0248E+06     71.3714E+03    -228.498E-03     454.808E-03    -226.311E-03     129.233E-03    -231.339E-03     457.614E-03    -225.968E-03     112.652E-03
            1737     12.9237E-03     57.6872E-03    -10.4665E+06     62.1966E+06     85.4708E+06     363.784E+03    -229.736E-03     456.070E-03    -226.333E-03     157.740E-03    -233.628E-03     459.897E-03    -225.981E-03     137.778E-03
            1738     12.2048E-03     57.4779E-03    -16.4251E+06     49.9364E+06     80.6482E+06     1.06050E+06    -230.094E-03     456.447E-03    -226.354E-03     162.432E-03    -234.114E-03     460.352E-03    -225.999E-03     142.351E-03
            1739     11.4866E-03     57.2496E-03    -21.1929E+06     42.1230E+06     77.5017E+06     91.0419E+03    -230.827E-03     457.199E-03    -226.371E-03     169.638E-03    -235.144E-03     461.365E-03    -226.014E-03     148.944E-03
            1740     10.7691E-03     57.0182E-03    -25.5088E+06     43.5349E+06     74.1953E+06    -217.675E+03    -231.081E-03     457.449E-03    -226.367E-03     171.781E-03    -235.458E-03     461.674E-03    -226.023E-03     151.199E-03
            1741     10.0509E-03     56.7829E-03    -30.1561E+06     38.5339E+06     65.3820E+06     1.28390E+06    -231.158E-03     457.506E-03    -226.347E-03     172.085E-03    -235.500E-03     461.687E-03    -226.033E-03     151.822E-03
            1742     9.33340E-03     56.5495E-03    -37.6198E+06     29.7470E+06      54.935E+06     541.259E+03    -230.884E-03     457.223E-03    -226.339E-03     169.969E-03    -235.105E-03     461.256E-03    -226.053E-03     150.174E-03
            1743     8.61451E-03     56.3212E-03    -48.4946E+06     16.7050E+06     44.8003E+06    -1.30035E+06    -230.480E-03     456.840E-03    -226.361E-03     165.704E-03    -234.507E-03     460.624E-03    -226.091E-03     146.548E-03
            1744     7.89632E-03     56.1001E-03    -58.2876E+06    -3.33199E+06     34.9886E+06    -779.638E+03    -230.183E-03     456.584E-03    -226.401E-03     159.297E-03    -233.923E-03     460.004E-03    -226.137E-03     140.976E-03
            1745     7.17802E-03     55.8885E-03    -66.1347E+06    -32.1619E+06     22.1080E+06    -9.25647E+03    -229.791E-03     456.227E-03    -226.437E-03     150.683E-03    -233.149E-03     459.172E-03    -226.184E-03     133.389E-03
            1746     6.45993E-03     55.6906E-03    -74.5231E+06    -65.4600E+06     6.43127E+06     51.3876E+03    -229.352E-03     455.816E-03    -226.464E-03     140.311E-03    -232.270E-03     458.218E-03    -226.229E-03     124.235E-03
            1747     5.74206E-03     55.5076E-03    -83.7946E+06    -95.4783E+06    -10.1699E+06     29.8420E+03    -228.901E-03     455.381E-03    -226.480E-03     128.338E-03    -231.354E-03     457.227E-03    -226.271E-03     113.687E-03
            1748     5.02423E-03     55.3430E-03    -93.0727E+06    -121.616E+06    -27.4690E+06    -185.025E+03    -228.359E-03     454.845E-03    -226.486E-03     114.906E-03    -230.347E-03     456.151E-03    -226.312E-03     101.859E-03
            1749     4.30619E-03     55.1964E-03    -102.387E+06    -147.607E+06    -46.1526E+06    -163.583E+03    -227.829E-03     454.319E-03    -226.490E-03     100.443E-03    -229.375E-03     455.112E-03    -226.359E-03     89.1196E-03
            1750     3.58822E-03     55.0707E-03    -111.480E+06    -172.281E+06    -66.3422E+06     28.1003E+03    -227.422E-03     453.908E-03    -226.486E-03     85.0211E-03    -228.569E-03     454.240E-03    -226.406E-03     75.4898E-03
            1751     2.87041E-03     54.9663E-03    -120.246E+06    -199.434E+06    -86.6955E+06     130.980E+03    -227.122E-03     453.594E-03    -226.472E-03     69.0011E-03    -227.922E-03     453.510E-03    -226.442E-03     61.3065E-03
            1752     2.15283E-03     54.8837E-03    -127.905E+06    -222.186E+06    -106.069E+06     201.362E+03    -226.805E-03     453.248E-03    -226.443E-03     52.5200E-03    -227.325E-03     452.833E-03    -226.466E-03     46.6987E-03
            1753     1.43522E-03     54.8243E-03    -134.081E+06    -237.176E+06    -123.324E+06     372.955E+03    -226.532E-03     452.954E-03    -226.423E-03     35.7200E-03    -226.848E-03     452.310E-03    -226.501E-03     31.7739E-03
            1754     717.382E-06     54.7874E-03    -137.563E+06    -251.645E+06    -135.185E+06     607.823E+03    -226.785E-03     452.900E-03    -226.115E-03     19.3115E-03    -226.966E-03     452.093E-03    -226.227E-03     17.1690E-03
            1755     13.6416E-03     56.4071E-03    -4.61095E+06     64.0147E+06     85.3667E+06     1.19307E+06    -228.683E-03     455.014E-03    -226.331E-03     129.071E-03    -231.515E-03     457.810E-03    -225.991E-03     112.503E-03
            1756     12.9222E-03     56.1966E-03    -9.00249E+06     62.9889E+06     85.1339E+06     1.16170E+06    -230.011E-03     456.344E-03    -226.333E-03     156.060E-03    -233.886E-03     460.164E-03    -225.985E-03     136.014E-03
            1757     12.2053E-03     55.9869E-03    -14.0837E+06     50.1896E+06     80.2939E+06    -828.773E+03    -230.353E-03     456.683E-03    -226.329E-03     161.788E-03    -234.376E-03     460.601E-03    -225.980E-03     141.545E-03
            1758     11.4879E-03     55.7598E-03    -18.3246E+06     43.5576E+06     78.7487E+06    -1.30627E+06    -230.801E-03     457.143E-03    -226.342E-03     169.773E-03    -235.110E-03     461.313E-03    -225.985E-03     149.064E-03
            1759     10.7693E-03     55.5278E-03    -25.2067E+06     44.5112E+06     74.3231E+06    -696.351E+03    -230.968E-03     457.311E-03    -226.343E-03     172.380E-03    -235.349E-03     461.545E-03    -225.999E-03     151.820E-03
            1760     10.0515E-03     55.2930E-03    -33.5524E+06     35.1121E+06     62.4625E+06    -1.32503E+06    -230.945E-03     457.281E-03    -226.335E-03     172.800E-03    -235.298E-03     461.457E-03    -226.025E-03     152.547E-03
            1761     9.33239E-03     55.0598E-03    -40.0846E+06     27.6882E+06     53.0649E+06     722.032E+03    -230.750E-03     457.096E-03    -226.346E-03     170.303E-03    -234.975E-03     461.123E-03    -226.063E-03     150.558E-03
            1762     8.61440E-03     54.8316E-03    -46.2515E+06     19.2509E+06     46.4260E+06     2.98080E+06    -230.605E-03     456.979E-03    -226.374E-03     165.669E-03    -234.629E-03     460.772E-03    -226.103E-03     146.558E-03
            1763     7.89625E-03     54.6098E-03    -54.9814E+06    -1.41835E+06     36.8914E+06     1.54025E+06    -230.286E-03     456.692E-03    -226.406E-03     159.123E-03    -234.019E-03     460.118E-03    -226.140E-03     140.805E-03
            1764     7.17834E-03     54.3991E-03    -64.8896E+06    -32.3270E+06     22.4921E+06     294.656E+03    -229.751E-03     456.187E-03    -226.437E-03     150.667E-03    -233.104E-03     459.130E-03    -226.183E-03     133.374E-03
            1765     6.46012E-03     54.2007E-03    -74.3817E+06    -65.5515E+06     6.29980E+06     357.438E+03    -229.242E-03     455.715E-03    -226.473E-03     140.493E-03    -232.159E-03     458.117E-03    -226.239E-03     124.438E-03
            1766     5.74178E-03     54.0180E-03    -83.5741E+06    -94.8452E+06    -10.1694E+06     288.700E+03    -228.813E-03     455.317E-03    -226.505E-03     128.487E-03    -231.266E-03     457.166E-03    -226.297E-03     113.854E-03
            1767     5.02373E-03     53.8525E-03    -92.9983E+06    -121.203E+06    -27.5576E+06     43.3674E+03    -228.393E-03     454.912E-03    -226.519E-03     114.998E-03    -230.384E-03     456.222E-03    -226.346E-03     101.944E-03
            1768     4.30601E-03     53.7069E-03    -102.514E+06    -147.774E+06    -46.2689E+06    -122.055E+03    -227.938E-03     454.456E-03    -226.518E-03     100.470E-03    -229.487E-03     455.250E-03    -226.386E-03     89.1315E-03
            1769     3.58813E-03     53.5806E-03    -112.058E+06    -172.538E+06    -66.6542E+06    -129.326E+03    -227.501E-03     454.000E-03    -226.499E-03     84.9519E-03    -228.650E-03     454.333E-03    -226.420E-03     75.4114E-03
            1770     2.87049E-03     53.4761E-03    -120.648E+06    -199.481E+06    -87.1007E+06    -113.826E+03    -227.117E-03     453.594E-03    -226.476E-03     68.7379E-03    -227.917E-03     453.510E-03    -226.448E-03     61.0430E-03
            1771     2.15272E-03     53.3938E-03    -128.204E+06    -222.206E+06    -106.829E+06    -42.2805E+03    -226.784E-03     453.233E-03    -226.449E-03     52.1911E-03    -227.302E-03     452.817E-03    -226.475E-03     46.3782E-03
            1772     1.43497E-03     53.3342E-03    -134.351E+06    -237.397E+06    -124.376E+06     5.15291E+03    -226.584E-03     453.000E-03    -226.415E-03     35.4800E-03    -226.900E-03     452.356E-03    -226.498E-03     31.5303E-03
            1773     717.697E-06     53.2971E-03    -137.569E+06    -250.989E+06    -135.309E+06    -70.8979E+03    -226.624E-03     452.861E-03    -226.236E-03     19.4265E-03    -226.807E-03     452.057E-03    -226.350E-03     17.2713E-03
            1774     13.6405E-03     54.9149E-03    -5.19052E+06     63.0278E+06     84.4891E+06    -155.274E+03    -228.898E-03     455.212E-03    -226.314E-03     128.630E-03    -231.737E-03     458.011E-03    -225.975E-03     111.958E-03
            1775     12.9249E-03     54.7063E-03    -8.70402E+06     63.6397E+06     85.3470E+06    -14.4590E+03    -230.008E-03     456.318E-03    -226.310E-03     156.181E-03    -233.873E-03     460.131E-03    -225.963E-03     136.176E-03
            1776     12.2061E-03     54.4968E-03    -14.0375E+06     53.7008E+06     82.1579E+06    -91.0899E+03    -230.174E-03     456.492E-03    -226.318E-03     162.248E-03    -234.198E-03     460.418E-03    -225.965E-03     142.088E-03
            1777     11.4871E-03     54.2700E-03    -22.0765E+06     42.9077E+06     76.5505E+06     46.3014E+03    -230.629E-03     456.965E-03    -226.336E-03     170.386E-03    -234.952E-03     461.140E-03    -225.983E-03     149.750E-03
            1778     10.7691E-03     54.0375E-03    -30.0541E+06     43.2446E+06     68.8342E+06    -354.090E+03    -230.851E-03     457.186E-03    -226.335E-03     172.615E-03    -235.253E-03     461.435E-03    -226.010E-03     152.048E-03
            1779     10.0503E-03     53.8035E-03    -37.0989E+06     36.3024E+06     57.7271E+06    -867.923E+03    -230.901E-03     457.231E-03    -226.330E-03     172.473E-03    -235.270E-03     461.430E-03    -226.040E-03     152.188E-03
            1780     9.33265E-03     53.5701E-03    -44.5136E+06     23.8820E+06     48.6575E+06    -1.63582E+06    -230.833E-03     457.178E-03    -226.345E-03     169.966E-03    -235.068E-03     461.200E-03    -226.072E-03     150.161E-03
            1781     8.61445E-03     53.3413E-03    -51.6294E+06     16.1339E+06     43.2813E+06    -1.21395E+06    -230.586E-03     456.961E-03    -226.375E-03     165.667E-03    -234.628E-03     460.752E-03    -226.107E-03     146.495E-03
            1782     7.89646E-03     53.1199E-03    -58.1060E+06    -453.618E+03     35.8330E+06     671.569E+03    -230.134E-03     456.550E-03    -226.416E-03     159.315E-03    -233.883E-03     459.987E-03    -226.152E-03     140.999E-03
            1783     7.17799E-03     52.9094E-03    -66.1512E+06    -31.2379E+06     22.0326E+06     1.05838E+06    -229.713E-03     456.172E-03    -226.459E-03     151.023E-03    -233.079E-03     459.128E-03    -226.207E-03     133.739E-03
            1784     6.45970E-03     52.7112E-03    -75.1128E+06    -65.0576E+06     5.99811E+06     486.475E+03    -229.341E-03     455.838E-03    -226.497E-03     140.682E-03    -232.264E-03     458.246E-03    -226.264E-03     124.623E-03
            1785     5.74174E-03     52.5281E-03    -84.2381E+06    -94.4711E+06    -10.1231E+06     190.544E+03    -228.853E-03     455.378E-03    -226.525E-03     128.439E-03    -231.309E-03     457.229E-03    -226.317E-03     113.805E-03
            1786     5.02377E-03     52.3627E-03    -93.5214E+06    -120.931E+06    -27.3236E+06    -9.62388E+03    -228.407E-03     454.945E-03    -226.538E-03     114.846E-03    -230.400E-03     456.256E-03    -226.364E-03     101.791E-03
            1787     4.30582E-03     52.2164E-03    -102.880E+06    -147.657E+06    -46.0776E+06    -81.1711E+03    -228.040E-03     454.566E-03    -226.526E-03     100.239E-03    -229.590E-03     455.360E-03    -226.394E-03     88.8896E-03
            1788     3.58834E-03     52.0905E-03    -111.865E+06    -172.526E+06    -66.2210E+06    -197.369E+03    -227.568E-03     454.058E-03    -226.491E-03     84.8201E-03    -228.717E-03     454.390E-03    -226.409E-03     75.2717E-03
            1789     2.87060E-03     51.9860E-03    -120.558E+06    -199.673E+06    -86.7750E+06    -344.307E+03    -227.110E-03     453.568E-03    -226.457E-03     68.7465E-03    -227.910E-03     453.482E-03    -226.427E-03     61.0523E-03
            1790     2.15299E-03     51.9039E-03    -128.100E+06    -222.378E+06    -106.656E+06    -296.522E+03    -226.810E-03     453.228E-03    -226.418E-03     52.2670E-03    -227.328E-03     452.811E-03    -226.443E-03     46.4464E-03
            1791     1.43548E-03     51.8441E-03    -133.992E+06    -237.491E+06    -124.225E+06    -279.184E+03    -226.574E-03     452.940E-03    -226.366E-03     35.5761E-03    -226.887E-03     452.295E-03    -226.448E-03     31.6194E-03
            1792     717.576E-06     51.8073E-03    -138.567E+06    -251.597E+06    -135.434E+06    -250.214E+03    -226.323E-03     452.740E-03    -226.418E-03     19.3035E-03    -226.509E-03     451.935E-03    -226.529E-03     17.1315E-03
            1793     13.6426E-03     53.4261E-03    -3.99312E+06     64.7374E+06     85.5848E+06    -399.748E+03    -228.352E-03     454.648E-03    -226.296E-03     129.189E-03    -231.178E-03     457.441E-03    -225.956E-03     112.640E-03
            1794     12.9223E-03     53.2138E-03    -9.85008E+06     62.9538E+06     85.0562E+06    -1.18457E+06    -229.630E-03     455.950E-03    -226.321E-03     156.768E-03    -233.495E-03     459.757E-03    -225.972E-03     136.830E-03
            1795     12.2050E-03     53.0077E-03    -15.1964E+06     50.7549E+06     81.4468E+06     817.427E+03    -230.343E-03     456.680E-03    -226.338E-03     162.201E-03    -234.366E-03     460.594E-03    -225.982E-03     142.053E-03
            1796     11.4873E-03     52.7794E-03    -21.3344E+06     43.1464E+06     77.0370E+06     2.12973E+06    -230.852E-03     457.192E-03    -226.341E-03     169.721E-03    -235.170E-03     461.364E-03    -225.987E-03     149.062E-03
            1797     10.7689E-03     52.5483E-03    -27.4599E+06     44.6376E+06     71.2934E+06     1.28618E+06    -230.820E-03     457.154E-03    -226.333E-03     171.749E-03    -235.206E-03     461.394E-03    -226.002E-03     151.194E-03
            1798     10.0513E-03     52.3130E-03    -34.1797E+06     38.3948E+06     60.9182E+06     1.25552E+06    -230.790E-03     457.121E-03    -226.330E-03     172.101E-03    -235.150E-03     461.319E-03    -226.032E-03     151.842E-03
            1799     9.33279E-03     52.0807E-03    -41.8646E+06     26.8797E+06     51.0095E+06     1.14371E+06    -230.690E-03     457.040E-03    -226.351E-03     170.220E-03    -234.921E-03     461.071E-03    -226.074E-03     150.467E-03
            1800     8.61449E-03     51.8514E-03    -50.9713E+06     16.7011E+06     43.2544E+06    -650.958E+03    -230.388E-03     456.781E-03    -226.393E-03     166.106E-03    -234.429E-03     460.575E-03    -226.127E-03     146.970E-03
            1801     7.89580E-03     51.6307E-03    -60.6682E+06    -3.08631E+06     33.3147E+06    -2.02226E+06    -230.076E-03     456.523E-03    -226.448E-03     159.597E-03    -233.833E-03     459.957E-03    -226.188E-03     141.252E-03
            1802     7.17750E-03     51.4195E-03    -68.2112E+06    -32.6322E+06     20.9561E+06    -1.34164E+06    -229.866E-03     456.360E-03    -226.494E-03     151.031E-03    -233.240E-03     459.315E-03    -226.243E-03     133.699E-03
            1803     6.45967E-03     51.2209E-03    -75.6829E+06    -65.0176E+06     6.45101E+06    -557.635E+03    -229.500E-03     456.021E-03    -226.520E-03     140.480E-03    -232.428E-03     458.430E-03    -226.284E-03     124.383E-03
            1804     5.74171E-03     51.0382E-03    -84.2416E+06    -94.5753E+06    -9.45300E+06    -401.807E+03    -228.977E-03     455.508E-03    -226.531E-03     128.316E-03    -231.435E-03     457.359E-03    -226.319E-03     113.658E-03
            1805     5.02378E-03     50.8726E-03    -93.2476E+06    -121.198E+06    -26.9822E+06    -446.964E+03    -228.464E-03     454.993E-03    -226.529E-03     114.876E-03    -230.455E-03     456.301E-03    -226.353E-03     101.814E-03
            1806     4.30617E-03     50.7260E-03    -102.353E+06    -147.854E+06    -45.8994E+06    -596.248E+03    -227.960E-03     454.478E-03    -226.518E-03     100.338E-03    -229.508E-03     455.271E-03    -226.385E-03     88.9810E-03
            1807     3.58829E-03     50.6003E-03    -111.271E+06    -172.396E+06    -65.7748E+06    -302.836E+03    -227.464E-03     453.966E-03    -226.502E-03     84.9648E-03    -228.612E-03     454.298E-03    -226.420E-03     75.4194E-03
            1808     2.87052E-03     50.4962E-03    -120.103E+06    -199.618E+06    -86.3748E+06    -39.4768E+03    -227.086E-03     453.576E-03    -226.490E-03     69.0463E-03    -227.886E-03     453.492E-03    -226.458E-03     61.3526E-03
            1809     2.15280E-03     50.4137E-03    -128.342E+06    -222.710E+06    -106.306E+06    -97.4072E+03    -226.803E-03     453.275E-03    -226.472E-03     52.6188E-03    -227.325E-03     452.859E-03    -226.495E-03     46.7891E-03
            1810     1.43506E-03     50.3543E-03    -134.988E+06    -237.634E+06    -123.943E+06     47.8229E+03    -226.590E-03     453.038E-03    -226.448E-03     35.8882E-03    -226.910E-03     452.395E-03    -226.527E-03     31.9342E-03
            1811     717.655E-06     50.3174E-03    -139.971E+06    -251.741E+06    -136.952E+06    -2.83765E+03    -226.585E-03     452.923E-03    -226.338E-03     19.3878E-03    -226.777E-03     452.122E-03    -226.455E-03     17.2245E-03
            1812     13.6408E-03     51.9352E-03    -3.96010E+06     66.1206E+06     86.5259E+06     209.148E+03    -228.740E-03     455.042E-03    -226.302E-03     128.782E-03    -231.557E-03     457.829E-03    -225.959E-03     112.275E-03
            1813     12.9239E-03     51.7263E-03    -9.32307E+06     63.0976E+06     85.3278E+06     271.244E+03    -229.667E-03     455.977E-03    -226.310E-03     155.896E-03    -233.532E-03     459.785E-03    -225.961E-03     135.908E-03
            1814     12.2051E-03     51.5149E-03    -16.4158E+06     46.8582E+06     78.4522E+06    -54.8439E+03    -230.237E-03     456.550E-03    -226.313E-03     161.066E-03    -234.259E-03     460.452E-03    -225.965E-03     140.822E-03
            1815     11.4877E-03     51.2899E-03    -21.1676E+06     43.8727E+06     77.4687E+06    -84.9761E+03    -230.608E-03     456.936E-03    -226.329E-03     169.485E-03    -234.925E-03     461.109E-03    -225.974E-03     148.807E-03
            1816     10.7700E-03     51.0578E-03    -26.0477E+06     44.5093E+06     74.2809E+06     890.915E+03    -230.617E-03     456.968E-03    -226.351E-03     172.628E-03    -235.003E-03     461.204E-03    -226.006E-03     152.130E-03
            1817     10.0509E-03     50.8246E-03    -32.4722E+06     36.0923E+06     63.4234E+06     2.19879E+06    -230.720E-03     457.088E-03    -226.368E-03     173.175E-03    -235.074E-03     461.270E-03    -226.056E-03     152.993E-03
            1818     9.33229E-03     50.5906E-03    -39.4438E+06     28.8878E+06     53.9618E+06     2.84188E+06    -230.699E-03     457.094E-03    -226.395E-03     170.757E-03    -234.927E-03     461.129E-03    -226.110E-03     151.055E-03
            1819     8.61369E-03     50.3623E-03    -46.3541E+06     21.2878E+06     47.3268E+06     2.35570E+06    -230.511E-03     456.948E-03    -226.437E-03     165.999E-03    -234.543E-03     460.754E-03    -226.164E-03     146.886E-03
            1820     7.89549E-03     50.1406E-03    -54.1515E+06     358.853E+03     38.0763E+06     757.944E+03    -230.309E-03     456.789E-03    -226.480E-03     159.246E-03    -234.045E-03     460.224E-03    -226.212E-03     140.906E-03
            1821     7.17770E-03     49.9292E-03    -64.0261E+06    -33.3865E+06     23.1968E+06    -786.118E+03    -229.975E-03     456.483E-03    -226.507E-03     150.719E-03    -233.330E-03     459.424E-03    -226.250E-03     133.377E-03
            1822     6.45966E-03     49.7308E-03    -73.6775E+06    -66.0802E+06     7.40539E+06    -894.687E+03    -229.463E-03     455.990E-03    -226.527E-03     140.430E-03    -232.383E-03     458.392E-03    -226.288E-03     124.320E-03
            1823     5.74176E-03     49.5480E-03    -82.7289E+06    -95.0904E+06    -8.84626E+06    -570.895E+03    -228.976E-03     455.516E-03    -226.540E-03     128.542E-03    -231.431E-03     457.366E-03    -226.327E-03     113.869E-03
            1824     5.02402E-03     49.3824E-03    -92.1737E+06    -121.325E+06    -26.4529E+06    -501.366E+03    -228.472E-03     455.014E-03    -226.542E-03     115.212E-03    -230.462E-03     456.323E-03    -226.365E-03     102.141E-03
            1825     4.30592E-03     49.2361E-03    -101.763E+06    -147.831E+06    -45.5106E+06    -477.648E+03    -227.885E-03     454.428E-03    -226.543E-03     100.559E-03    -229.433E-03     455.222E-03    -226.409E-03     89.2063E-03
            1826     3.58799E-03     49.1104E-03    -111.277E+06    -172.903E+06    -65.9254E+06    -125.367E+03    -227.404E-03     453.950E-03    -226.547E-03     85.0632E-03    -228.551E-03     454.280E-03    -226.464E-03     75.5258E-03
            1827     2.87019E-03     49.0059E-03    -120.049E+06    -200.018E+06    -86.3682E+06     109.830E+03    -227.090E-03     453.644E-03    -226.554E-03     69.0208E-03    -227.889E-03     453.557E-03    -226.522E-03     61.3257E-03
            1828     2.15249E-03     48.9237E-03    -127.681E+06    -222.757E+06    -106.260E+06     118.094E+03    -226.843E-03     453.391E-03    -226.548E-03     52.4473E-03    -227.361E-03     452.974E-03    -226.571E-03     46.6126E-03
            1829     1.43491E-03     48.8640E-03    -133.613E+06    -237.856E+06    -123.639E+06     5.78303E+03    -226.663E-03     453.197E-03    -226.534E-03     35.6348E-03    -226.976E-03     452.550E-03    -226.613E-03     31.6709E-03
            1830     717.284E-06     48.8268E-03    -136.694E+06    -251.237E+06    -134.354E+06    -146.365E+03    -226.829E-03     453.119E-03    -226.289E-03     19.2836E-03    -227.009E-03     452.311E-03    -226.399E-03     17.1236E-03
            1831     13.6425E-03     50.4464E-03    -5.21346E+06     65.0436E+06     84.9158E+06    -673.964E+03    -229.024E-03     455.325E-03    -226.301E-03     128.234E-03    -231.864E-03     458.131E-03    -225.963E-03     111.562E-03
            1832     12.9239E-03     50.2337E-03    -9.96752E+06     61.2493E+06     84.0057E+06     720.344E+03    -229.925E-03     456.221E-03    -226.296E-03     156.770E-03    -233.799E-03     460.034E-03    -225.951E-03     136.785E-03
            1833     12.2069E-03     50.0269E-03    -13.7611E+06     49.5189E+06     80.5481E+06     1.04021E+06    -229.826E-03     456.145E-03    -226.319E-03     162.604E-03    -233.839E-03     460.051E-03    -225.968E-03     142.515E-03
            1834     11.4874E-03     49.7998E-03    -19.5859E+06     44.1033E+06     77.3508E+06     259.043E+03    -230.243E-03     456.608E-03    -226.365E-03     170.779E-03    -234.555E-03     460.783E-03    -226.013E-03     150.205E-03
            1835     10.7678E-03     49.5692E-03    -27.1919E+06     41.6093E+06     71.0253E+06     527.208E+03    -230.650E-03     457.051E-03    -226.400E-03     173.123E-03    -235.035E-03     461.281E-03    -226.066E-03     152.634E-03
            1836     10.0497E-03     49.3339E-03    -33.7880E+06     34.1661E+06     61.2676E+06     818.223E+03    -230.977E-03     457.393E-03    -226.416E-03     172.960E-03    -235.331E-03     461.571E-03    -226.111E-03     152.732E-03
            1837     9.33169E-03     49.1010E-03    -39.4723E+06     28.0724E+06     54.0787E+06     502.413E+03    -230.981E-03     457.412E-03    -226.432E-03     170.234E-03    -235.212E-03     461.446E-03    -226.145E-03     150.439E-03
            1838     8.61380E-03     48.8720E-03    -45.7300E+06     21.9152E+06     49.1872E+06     1.04180E+06    -230.759E-03     457.213E-03    -226.454E-03     165.588E-03    -234.793E-03     461.020E-03    -226.174E-03     146.416E-03
            1839     7.89601E-03     48.6503E-03    -53.4999E+06     2.57772E+06     40.2327E+06     1.56097E+06    -230.355E-03     456.835E-03    -226.481E-03     159.127E-03    -234.097E-03     460.280E-03    -226.206E-03     140.780E-03
            1840     7.17777E-03     48.4392E-03    -62.0305E+06    -30.9907E+06     25.1311E+06     1.51280E+06    -229.835E-03     456.344E-03    -226.509E-03     150.837E-03    -233.189E-03     459.295E-03    -226.249E-03     133.528E-03
            1841     6.45966E-03     48.2408E-03    -71.6254E+06    -65.5873E+06     8.20724E+06     837.640E+03    -229.355E-03     455.898E-03    -226.543E-03     140.674E-03    -232.268E-03     458.300E-03    -226.303E-03     124.599E-03
            1842     5.74146E-03     48.0580E-03    -81.4988E+06    -95.0200E+06    -8.46297E+06     260.862E+03    -228.919E-03     455.490E-03    -226.571E-03     128.767E-03    -231.370E-03     457.339E-03    -226.358E-03     114.108E-03
            1843     5.02335E-03     47.8920E-03    -91.0458E+06    -120.816E+06    -25.4781E+06     238.135E+03    -228.433E-03     455.022E-03    -226.589E-03     115.259E-03    -230.422E-03     456.333E-03    -226.409E-03     102.189E-03
            1844     4.30571E-03     47.7461E-03    -100.795E+06    -147.725E+06    -44.3444E+06     516.111E+03    -227.932E-03     454.530E-03    -226.599E-03     100.512E-03    -229.477E-03     455.322E-03    -226.460E-03     89.1694E-03
            1845     3.58793E-03     47.6203E-03    -110.298E+06    -173.400E+06    -64.9002E+06     299.676E+03    -227.489E-03     454.089E-03    -226.599E-03     85.0689E-03    -228.633E-03     454.414E-03    -226.513E-03     75.5286E-03
            1846     2.87019E-03     47.5157E-03    -119.048E+06    -200.143E+06    -85.5170E+06     46.0176E+03    -227.148E-03     453.748E-03    -226.601E-03     69.0258E-03    -227.943E-03     453.658E-03    -226.565E-03     61.3278E-03
            1847     2.15261E-03     47.4333E-03    -126.890E+06    -222.657E+06    -105.448E+06    -76.7495E+03    -226.898E-03     453.490E-03    -226.592E-03     52.5207E-03    -227.413E-03     453.070E-03    -226.612E-03     46.6871E-03
            1848     1.43513E-03     47.3735E-03    -132.995E+06    -237.876E+06    -123.114E+06    -9.46548E+03    -226.721E-03     453.292E-03    -226.571E-03     35.8005E-03    -227.032E-03     452.643E-03    -226.649E-03     31.8397E-03
            1849     717.676E-06     47.3367E-03    -136.021E+06    -251.414E+06    -134.573E+06      7.4835E+03    -226.712E-03     453.186E-03    -226.474E-03     19.5259E-03    -226.888E-03     452.377E-03    -226.585E-03     17.3668E-03
            1850     13.6401E-03     48.9515E-03    -4.59784E+06     64.0922E+06     83.6989E+06    -3.56906E+03    -228.060E-03     454.392E-03    -226.332E-03     130.428E-03    -230.914E-03     457.214E-03    -225.999E-03     113.803E-03
            1851     12.9237E-03     48.7451E-03    -9.87613E+06     59.7963E+06     83.1443E+06    -304.151E+03    -229.764E-03     456.135E-03    -226.370E-03     157.581E-03    -233.633E-03     459.940E-03    -226.027E-03     137.647E-03
            1852     12.2033E-03     48.5361E-03    -15.3168E+06     50.5343E+06     80.5344E+06    -281.330E+03    -230.059E-03     456.461E-03    -226.401E-03     162.983E-03    -234.084E-03     460.376E-03    -226.050E-03     142.884E-03
            1853     11.4854E-03     48.3107E-03    -21.2524E+06     42.7217E+06     76.5588E+06    -431.372E+03    -230.751E-03     457.177E-03    -226.426E-03     170.050E-03    -235.075E-03     461.355E-03    -226.075E-03     149.352E-03
            1854     10.7682E-03     48.0786E-03    -25.9255E+06     40.5577E+06     70.9198E+06     173.693E+03    -231.063E-03     457.488E-03    -226.425E-03     171.864E-03    -235.436E-03     461.708E-03    -226.092E-03     151.278E-03
            1855     10.0502E-03     47.8440E-03    -31.9022E+06     36.0394E+06     62.2390E+06     460.884E+03    -231.110E-03     457.524E-03    -226.414E-03     171.932E-03    -235.455E-03     461.704E-03    -226.109E-03     151.641E-03
            1856     9.33210E-03     47.6105E-03    -39.5371E+06     28.1975E+06     53.9238E+06    -241.470E+03    -230.955E-03     457.373E-03    -226.418E-03     169.777E-03    -235.182E-03     461.404E-03    -226.132E-03     149.960E-03
            1857     8.61410E-03     47.3815E-03    -47.5438E+06     20.0225E+06     47.3167E+06    -430.371E+03    -230.602E-03     457.045E-03    -226.442E-03     165.681E-03    -234.641E-03     460.848E-03    -226.166E-03     146.500E-03
            1858     7.89573E-03     47.1604E-03    -55.5845E+06     955.963E+03     38.2201E+06     359.977E+03    -230.117E-03     456.604E-03    -226.487E-03     159.491E-03    -233.869E-03     460.051E-03    -226.217E-03     141.144E-03
            1859     7.17753E-03     46.9493E-03    -64.2294E+06    -30.8229E+06     23.9547E+06     1.19474E+06    -229.737E-03     456.275E-03    -226.538E-03     151.263E-03    -233.108E-03     459.239E-03    -226.280E-03     133.949E-03
            1860     6.45922E-03     46.7511E-03    -72.9810E+06    -64.0662E+06     8.21419E+06     1.31177E+06    -229.404E-03     455.986E-03    -226.582E-03     140.923E-03    -232.331E-03     458.402E-03    -226.342E-03     124.843E-03
            1861     5.74130E-03     46.5677E-03    -81.9697E+06    -93.9983E+06    -7.98891E+06     770.499E+03    -228.938E-03     455.552E-03    -226.614E-03     128.805E-03    -231.394E-03     457.407E-03    -226.399E-03     114.151E-03
            1862     5.02353E-03     46.4021E-03    -91.4253E+06    -120.564E+06    -25.3736E+06     694.935E+03    -228.392E-03     455.031E-03    -226.639E-03     115.282E-03    -230.385E-03     456.344E-03    -226.458E-03     102.219E-03
            1863     4.30541E-03     46.2556E-03    -100.882E+06    -147.529E+06    -44.2704E+06     836.193E+03    -227.944E-03     454.602E-03    -226.659E-03     100.644E-03    -229.491E-03     455.396E-03    -226.520E-03     89.3028E-03
            1864     3.58769E-03     46.1300E-03    -110.178E+06    -173.013E+06    -64.7351E+06     515.912E+03    -227.581E-03     454.244E-03    -226.662E-03     85.2588E-03    -228.727E-03     454.572E-03    -226.575E-03     75.7151E-03
            1865     2.87001E-03     46.0254E-03    -119.152E+06    -199.730E+06    -85.4414E+06     324.480E+03    -227.250E-03     453.906E-03    -226.656E-03     69.2019E-03    -228.048E-03     453.820E-03    -226.621E-03     61.5054E-03
            1866     2.15233E-03     45.9428E-03    -127.287E+06    -222.433E+06    -105.432E+06     383.276E+03    -226.966E-03     453.606E-03    -226.640E-03     52.5609E-03    -227.484E-03     453.188E-03    -226.660E-03     46.7380E-03
            1867     1.43462E-03     45.8831E-03    -133.765E+06    -237.495E+06    -122.959E+06     196.717E+03    -226.765E-03     453.379E-03    -226.615E-03     35.7261E-03    -227.080E-03     452.733E-03    -226.691E-03     31.7736E-03
            1868     717.208E-06     45.8456E-03    -138.892E+06    -251.479E+06    -135.288E+06     190.924E+03    -226.726E-03     453.253E-03    -226.527E-03     19.2633E-03    -226.914E-03     452.448E-03    -226.637E-03     17.0979E-03
            1869     13.6402E-03     47.4626E-03    -4.16845E+06     64.5520E+06     84.5678E+06     1.02206E+06    -227.967E-03     454.333E-03    -226.365E-03     129.920E-03    -230.795E-03     457.129E-03    -226.030E-03     113.396E-03
            1870     12.9200E-03     47.2532E-03    -9.49318E+06     60.7743E+06     83.6511E+06     665.988E+03    -229.449E-03     455.854E-03    -226.405E-03     154.751E-03    -233.278E-03     459.622E-03    -226.061E-03     134.839E-03
            1871     12.2043E-03     47.0462E-03    -15.4506E+06     50.9018E+06     79.7063E+06    -666.524E+03    -230.276E-03     456.696E-03    -226.420E-03     160.797E-03    -234.286E-03     460.600E-03    -226.073E-03     140.589E-03
            1872     11.4867E-03     46.8191E-03    -20.6727E+06     44.8930E+06     78.2363E+06    -2.08988E+06    -230.940E-03     457.371E-03    -226.431E-03     169.144E-03    -235.265E-03     461.555E-03    -226.075E-03     148.363E-03
            1873     10.7687E-03     46.5884E-03    -26.8110E+06     38.4901E+06     72.9007E+06    -2.70849E+06    -231.153E-03     457.580E-03    -226.427E-03     172.093E-03    -235.536E-03     461.793E-03    -226.080E-03     151.462E-03
            1874     10.0507E-03     46.3537E-03    -32.4079E+06     32.5192E+06     64.0004E+06    -1.05547E+06    -231.132E-03     457.547E-03    -226.415E-03     172.583E-03    -235.483E-03     461.714E-03    -226.095E-03     152.291E-03
            1875     9.33244E-03     46.1208E-03    -38.7065E+06     28.7505E+06     55.2079E+06     1.22371E+06    -230.830E-03     457.247E-03    -226.417E-03     170.297E-03    -235.060E-03     461.282E-03    -226.127E-03     150.526E-03
            1876     8.61386E-03     45.8919E-03    -47.0032E+06     20.4408E+06     46.9011E+06     1.27533E+06    -230.326E-03     456.781E-03    -226.455E-03     165.947E-03    -234.363E-03     460.587E-03    -226.182E-03     146.821E-03
            1877     7.89541E-03     45.6708E-03    -56.2207E+06     469.706E+03     37.2363E+06     881.532E+03    -229.970E-03     456.493E-03    -226.523E-03     159.704E-03    -233.724E-03     459.941E-03    -226.256E-03     141.381E-03
            1878     7.17688E-03     45.4595E-03    -65.2602E+06    -30.9486E+06     23.3698E+06     491.121E+03    -229.789E-03     456.374E-03    -226.586E-03     151.381E-03    -233.165E-03     459.341E-03    -226.329E-03     134.051E-03
            1879     6.45902E-03     45.2605E-03    -73.8607E+06    -63.8474E+06     8.11534E+06     290.434E+03    -229.458E-03     456.090E-03    -226.631E-03     141.007E-03    -232.392E-03     458.511E-03    -226.391E-03     124.898E-03
            1880     5.74106E-03     45.0776E-03    -82.9288E+06    -93.6952E+06    -8.47858E+06     883.832E+03    -228.979E-03     455.640E-03    -226.662E-03     128.914E-03    -231.444E-03     457.503E-03    -226.448E-03     114.246E-03
            1881     5.02286E-03     44.9118E-03    -92.4542E+06    -120.541E+06    -26.4786E+06     817.020E+03    -228.465E-03     455.147E-03    -226.682E-03     115.296E-03    -230.462E-03     456.465E-03    -226.506E-03     102.228E-03
            1882     4.30513E-03     44.7654E-03    -101.795E+06    -147.334E+06    -45.3581E+06     433.904E+03    -227.991E-03     454.690E-03    -226.699E-03     100.509E-03    -229.541E-03     455.487E-03    -226.564E-03     89.1603E-03
            1883     3.58728E-03     44.6393E-03    -111.074E+06    -172.231E+06    -65.5041E+06     519.443E+03    -227.619E-03     454.319E-03    -226.700E-03     85.0141E-03    -228.768E-03     454.653E-03    -226.617E-03     75.4633E-03
            1884     2.86975E-03     44.5346E-03    -119.872E+06    -199.314E+06    -86.3426E+06     442.739E+03    -227.332E-03     454.016E-03    -226.684E-03     68.9293E-03    -228.133E-03     453.934E-03    -226.653E-03     61.2143E-03
            1885     2.15237E-03     44.4522E-03    -127.548E+06    -222.061E+06    -106.170E+06     320.945E+03    -227.069E-03     453.711E-03    -226.642E-03     52.3579E-03    -227.588E-03     453.297E-03    -226.666E-03     46.5128E-03
            1886     1.43519E-03     44.3922E-03    -133.847E+06    -236.918E+06    -123.474E+06     346.654E+03    -226.806E-03     453.385E-03    -226.579E-03     35.5272E-03    -227.121E-03     452.742E-03    -226.659E-03     31.5720E-03
            1887     717.631E-06     44.3555E-03    -136.961E+06    -250.685E+06    -134.881E+06     108.577E+03    -226.954E-03     453.154E-03    -226.200E-03     19.1535E-03    -227.134E-03     452.350E-03    -226.312E-03     16.9984E-03
            1888     13.6415E-03     45.9730E-03    -5.51195E+06     62.8447E+06     83.8816E+06    -267.814E+03    -228.664E-03     454.991E-03    -226.327E-03     128.659E-03    -231.499E-03     457.786E-03    -225.990E-03     111.994E-03
            1889     12.9250E-03     45.7649E-03    -9.28173E+06     61.4822E+06     83.8039E+06     599.471E+03    -229.292E-03     455.637E-03    -226.345E-03     154.833E-03    -233.116E-03     459.404E-03    -226.002E-03     134.962E-03
            1890     12.2048E-03     45.5550E-03    -12.8431E+06     53.4653E+06     82.1691E+06     612.092E+03    -229.874E-03     456.256E-03    -226.382E-03     161.276E-03    -233.870E-03     460.157E-03    -226.030E-03     141.179E-03
            1891     11.4863E-03     45.3295E-03    -20.0308E+06     47.2242E+06     77.9828E+06     243.857E+03    -230.539E-03     456.949E-03    -226.410E-03     169.605E-03    -234.854E-03     461.134E-03    -226.059E-03     148.950E-03
            1892     10.7680E-03     45.0975E-03    -28.6786E+06     40.7694E+06     69.8864E+06    -1.09990E+06    -230.860E-03     457.282E-03    -226.422E-03     172.300E-03    -235.244E-03     461.506E-03    -226.090E-03     151.747E-03
            1893     10.0498E-03     44.8637E-03    -37.1855E+06     29.5738E+06     58.1679E+06    -3.28656E+06    -230.964E-03     457.389E-03    -226.425E-03     172.786E-03    -235.330E-03     461.560E-03    -226.124E-03     152.468E-03
            1894     9.33168E-03     44.6303E-03    -43.0706E+06     23.7742E+06     50.7332E+06    -2.74612E+06    -230.733E-03     457.183E-03    -226.450E-03     170.586E-03    -234.977E-03     461.212E-03    -226.168E-03     150.763E-03
            1895     8.61355E-03     44.4027E-03    -48.5343E+06     18.0992E+06     45.9588E+06     281.114E+03    -230.386E-03     456.889E-03    -226.503E-03     166.127E-03    -234.429E-03     460.691E-03    -226.229E-03     146.981E-03
            1896     7.89487E-03     44.1812E-03    -55.9854E+06     1.48013E+06     37.7637E+06     1.35860E+06    -230.135E-03     456.701E-03    -226.566E-03     159.806E-03    -233.893E-03     460.156E-03    -226.298E-03     141.473E-03
            1897     7.17694E-03     43.9691E-03    -64.4886E+06     -29.398E+06     23.8334E+06     697.912E+03    -229.866E-03     456.485E-03    -226.619E-03     151.338E-03    -233.242E-03     459.459E-03    -226.364E-03     134.003E-03
            1898     6.45866E-03     43.7705E-03    -73.9162E+06    -64.5497E+06     6.99985E+06     612.494E+03    -229.479E-03     456.138E-03    -226.659E-03     140.825E-03    -232.410E-03     458.557E-03    -226.423E-03     124.715E-03
            1899     5.74053E-03     43.5870E-03    -83.2424E+06    -93.9228E+06    -9.39772E+06     729.573E+03    -229.053E-03     455.738E-03    -226.685E-03     128.590E-03    -231.517E-03     457.600E-03    -226.475E-03     113.900E-03
            1900     5.02304E-03     43.4213E-03    -92.4646E+06    -119.768E+06    -26.6531E+06     730.530E+03    -228.545E-03     455.240E-03    -226.695E-03     114.890E-03    -230.541E-03     456.560E-03    -226.521E-03     101.803E-03
            1901     4.30525E-03     43.2749E-03    -102.057E+06    -146.790E+06    -45.8331E+06     462.203E+03    -228.046E-03     454.744E-03    -226.698E-03     100.356E-03    -229.596E-03     455.544E-03    -226.567E-03     88.9974E-03
            1902     3.58770E-03     43.1488E-03    -111.281E+06    -171.909E+06    -65.9061E+06     310.374E+03    -227.667E-03     454.357E-03    -226.689E-03     85.0150E-03    -228.818E-03     454.693E-03    -226.608E-03     75.4552E-03
            1903     2.87004E-03     43.0439E-03    -119.838E+06    -198.875E+06    -86.1494E+06     375.563E+03    -227.323E-03     453.992E-03    -226.668E-03     68.8969E-03    -228.124E-03     453.911E-03    -226.637E-03     61.1853E-03
            1904     2.15250E-03     42.9613E-03    -127.736E+06    -221.961E+06    -106.271E+06     308.574E+03    -227.003E-03     453.637E-03    -226.634E-03     52.4560E-03    -227.523E-03     453.224E-03    -226.658E-03     46.6191E-03
            1905     1.43480E-03     42.9017E-03    -133.747E+06    -236.291E+06    -124.258E+06     161.758E+03    -226.768E-03     453.361E-03    -226.593E-03     35.7587E-03    -227.083E-03     452.723E-03    -226.678E-03     31.7928E-03
            1906     717.457E-06     42.8650E-03    -136.142E+06    -250.159E+06    -134.760E+06    -5.82461E+03    -226.899E-03     453.229E-03    -226.330E-03     19.6254E-03    -227.077E-03     452.427E-03    -226.444E-03     17.4751E-03
            1907     13.6420E-03     44.4826E-03    -3.91604E+06     63.6258E+06     85.8376E+06     60.4243E+03    -228.539E-03     454.851E-03    -226.311E-03     129.069E-03    -231.363E-03     457.638E-03    -225.969E-03     112.493E-03
            1908     12.9221E-03     44.2746E-03    -9.56844E+06     60.4639E+06     84.6754E+06    -303.151E+03    -229.363E-03     455.700E-03    -226.337E-03     156.489E-03    -233.212E-03     459.484E-03    -225.987E-03     136.604E-03
            1909     12.2049E-03     44.0663E-03    -16.5648E+06     53.0070E+06     81.3437E+06     122.266E+03    -229.900E-03     456.271E-03    -226.371E-03     161.888E-03    -233.924E-03     460.189E-03    -226.017E-03     141.772E-03
            1910     11.4866E-03     43.8393E-03    -22.5755E+06     46.5883E+06     77.0259E+06     588.561E+03    -230.418E-03     456.818E-03    -226.400E-03     169.315E-03    -234.731E-03     460.992E-03    -226.049E-03     148.702E-03
            1911     10.7683E-03     43.6082E-03    -28.1080E+06     43.3599E+06     68.7080E+06     1.01722E+06    -230.594E-03     457.005E-03    -226.411E-03     171.756E-03    -234.967E-03     461.233E-03    -226.089E-03     151.251E-03
            1912     10.0499E-03     43.3735E-03    -35.1177E+06     35.8432E+06     57.8109E+06    -294.939E+03    -230.606E-03     457.036E-03    -226.430E-03     172.260E-03    -234.957E-03     461.222E-03    -226.142E-03     152.017E-03
            1913     9.33127E-03     43.1410E-03    -44.4799E+06     22.5995E+06     48.0579E+06    -2.82858E+06    -230.575E-03     457.051E-03    -226.476E-03     170.105E-03    -234.811E-03     461.070E-03    -226.204E-03     150.295E-03
            1914     8.61262E-03     42.9123E-03    -53.0551E+06     13.2200E+06     41.9099E+06    -3.82115E+06    -230.488E-03     457.020E-03    -226.532E-03     165.797E-03    -234.540E-03     460.809E-03    -226.265E-03     146.570E-03
            1915     7.89495E-03     42.6910E-03    -59.5767E+06    -1.50692E+06     34.7987E+06    -2.34288E+06    -230.277E-03     456.861E-03    -226.584E-03     159.652E-03    -234.045E-03     460.312E-03    -226.322E-03     141.246E-03
            1916     7.17657E-03     42.4789E-03    -66.9555E+06    -30.7472E+06     21.6640E+06    -218.625E+03    -229.964E-03     456.589E-03    -226.625E-03     151.239E-03    -233.348E-03     459.563E-03    -226.375E-03     133.876E-03
            1917     6.45872E-03     42.2802E-03    -75.3439E+06    -64.5556E+06     5.88471E+06     412.392E+03    -229.596E-03     456.249E-03    -226.653E-03     140.615E-03    -232.533E-03     458.672E-03    -226.421E-03     124.480E-03
            1918     5.74113E-03     42.0965E-03    -84.1593E+06    -93.5902E+06    -10.1126E+06     170.381E+03    -229.043E-03     455.714E-03    -226.671E-03     128.465E-03    -231.511E-03     457.580E-03    -226.463E-03     113.761E-03
            1919     5.02310E-03     41.9308E-03    -93.2945E+06    -119.817E+06    -27.2121E+06     229.001E+03    -228.471E-03     455.157E-03    -226.686E-03     115.029E-03    -230.471E-03     456.480E-03    -226.513E-03     101.938E-03
            1920     4.30525E-03     41.7846E-03    -102.588E+06    -146.252E+06    -46.1596E+06     359.159E+03    -228.047E-03     454.742E-03    -226.695E-03     100.600E-03    -229.602E-03     455.547E-03    -226.565E-03     89.2394E-03
            1921     3.58741E-03     41.6579E-03    -111.810E+06    -171.780E+06    -66.5455E+06     125.517E+03    -227.653E-03     454.342E-03    -226.689E-03     85.2688E-03    -228.806E-03     454.681E-03    -226.610E-03     75.7140E-03
            1922     2.86996E-03     41.5533E-03    -120.548E+06    -199.134E+06    -86.7185E+06     136.457E+03    -227.277E-03     453.958E-03    -226.681E-03     69.1132E-03    -228.080E-03     453.878E-03    -226.651E-03     61.4129E-03
            1923     2.15229E-03     41.4710E-03    -128.124E+06    -221.627E+06    -106.421E+06     264.570E+03    -226.963E-03     453.632E-03    -226.670E-03     52.5439E-03    -227.484E-03     453.221E-03    -226.695E-03     46.7181E-03
            1924     1.43487E-03     41.4110E-03    -134.105E+06    -235.826E+06    -124.038E+06     159.278E+03    -226.756E-03     453.419E-03    -226.663E-03     35.6879E-03    -227.074E-03     452.783E-03    -226.747E-03     31.7235E-03
            1925     717.234E-06     41.3743E-03    -138.599E+06    -250.067E+06    -135.974E+06     142.774E+03    -226.708E-03     453.390E-03    -226.682E-03     19.4250E-03    -226.897E-03     452.593E-03    -226.798E-03     17.2648E-03
            1926     13.6410E-03     42.9953E-03    -3.96781E+06     63.9603E+06     86.0851E+06     405.408E+03    -228.395E-03     454.729E-03    -226.334E-03     128.332E-03    -231.206E-03     457.504E-03    -225.991E-03     111.802E-03
            1927     12.9235E-03     42.7839E-03    -9.35306E+06     60.5713E+06     85.3567E+06     392.276E+03    -229.573E-03     455.933E-03    -226.360E-03     156.264E-03    -233.422E-03     459.716E-03    -226.008E-03     136.353E-03
            1928     12.2050E-03     42.5759E-03    -14.7310E+06     52.0100E+06     81.9193E+06     612.773E+03    -230.048E-03     456.431E-03    -226.383E-03     161.729E-03    -234.056E-03     460.334E-03    -226.028E-03     141.620E-03
            1929     11.4869E-03     42.3497E-03    -19.4651E+06     47.3501E+06     80.3274E+06     899.052E+03    -230.497E-03     456.915E-03    -226.418E-03     169.994E-03    -234.796E-03     461.080E-03    -226.057E-03     149.451E-03
            1930     10.7685E-03     42.1184E-03    -26.0292E+06     43.2044E+06     73.4983E+06     489.640E+03    -230.671E-03     457.113E-03    -226.441E-03     172.383E-03    -235.042E-03     461.331E-03    -226.099E-03     151.907E-03
            1931     10.0498E-03     41.8848E-03    -32.4998E+06     36.1160E+06     62.7474E+06     1.88760E+06    -230.739E-03     457.196E-03    -226.457E-03     172.385E-03    -235.080E-03     461.368E-03    -226.149E-03     152.201E-03
            1932     9.33130E-03     41.6511E-03    -39.4065E+06     28.1693E+06     53.0951E+06     2.07499E+06    -230.663E-03     457.148E-03    -226.485E-03     169.860E-03    -234.887E-03     461.178E-03    -226.203E-03     150.104E-03
            1933     8.61340E-03     41.4227E-03    -48.1248E+06     17.1720E+06     44.4914E+06    -535.906E+03    -230.522E-03     457.048E-03    -226.526E-03     165.546E-03    -234.556E-03     460.843E-03    -226.259E-03     146.353E-03
            1934     7.89469E-03     41.2006E-03    -58.2810E+06    -4.63736E+06     33.9090E+06    -2.05246E+06    -230.330E-03     456.900E-03    -226.570E-03     159.328E-03    -234.083E-03     460.332E-03    -226.309E-03     140.912E-03
            1935     7.17688E-03     40.9889E-03    -67.4880E+06    -34.0022E+06     20.2237E+06    -1.56139E+06    -230.001E-03     456.604E-03    -226.603E-03     150.991E-03    -233.377E-03     459.562E-03    -226.355E-03     133.602E-03
            1936     6.45900E-03     40.7891E-03    -75.8362E+06    -65.0086E+06     5.45380E+06    -861.475E+03    -229.483E-03     456.117E-03    -226.634E-03     140.656E-03    -232.419E-03     458.537E-03    -226.402E-03     124.520E-03
            1937     5.74092E-03     40.6065E-03    -84.5664E+06    -93.9773E+06    -10.4014E+06    -375.405E+03    -228.914E-03     455.579E-03    -226.666E-03     128.662E-03    -231.383E-03     457.445E-03    -226.459E-03     113.966E-03
            1938     5.02289E-03     40.4406E-03    -93.8054E+06    -120.283E+06    -27.7811E+06    -104.041E+03    -228.457E-03     455.148E-03    -226.691E-03     115.221E-03    -230.459E-03     456.471E-03    -226.520E-03     102.136E-03
            1939     4.30514E-03     40.2938E-03    -103.090E+06    -146.589E+06    -46.5581E+06    -174.514E+03    -228.071E-03     454.774E-03    -226.702E-03     100.628E-03    -229.628E-03     455.579E-03    -226.573E-03     89.2576E-03
            1940     3.58760E-03     40.1676E-03    -112.196E+06    -171.392E+06    -66.7594E+06     59.4316E+03    -227.637E-03     454.333E-03    -226.696E-03     85.1152E-03    -228.790E-03     454.673E-03    -226.619E-03     75.5657E-03
            1941     2.86966E-03     40.0627E-03    -120.936E+06    -199.044E+06    -87.3199E+06    -122.642E+03    -227.294E-03     453.979E-03    -226.686E-03     68.8819E-03    -228.095E-03     453.898E-03    -226.658E-03     61.1880E-03
            1942     2.15228E-03     39.9802E-03    -128.645E+06    -221.779E+06    -106.716E+06    -312.224E+03    -227.047E-03     453.702E-03    -226.655E-03     52.1970E-03    -227.569E-03     453.290E-03    -226.681E-03     46.3622E-03
            1943     1.43471E-03     39.9204E-03    -134.725E+06    -236.070E+06    -123.975E+06     87.6188E+03    -226.799E-03     453.402E-03    -226.603E-03     35.3904E-03    -227.118E-03     452.765E-03    -226.686E-03     31.4438E-03
            1944     717.505E-06     39.8832E-03    -139.276E+06    -249.720E+06    -135.607E+06     160.762E+03    -226.630E-03     453.206E-03    -226.576E-03     19.1886E-03    -226.822E-03     452.411E-03    -226.690E-03     17.0176E-03
            1945     13.6408E-03     41.5041E-03    -5.09230E+06     62.3581E+06     84.0077E+06     251.131E+03    -228.317E-03     454.667E-03    -226.350E-03     128.700E-03    -231.139E-03     457.449E-03    -226.013E-03     112.122E-03
            1946     12.9225E-03     41.2933E-03    -9.91186E+06     61.5007E+06     83.7093E+06     4.85777E+03    -229.769E-03     456.142E-03    -226.372E-03     156.438E-03    -233.609E-03     459.921E-03    -226.028E-03     136.558E-03
            1947     12.2044E-03     41.0863E-03    -15.3263E+06     52.3724E+06     81.0983E+06    -329.955E+03    -229.966E-03     456.366E-03    -226.400E-03     161.832E-03    -233.964E-03     460.261E-03    -226.049E-03     141.773E-03
            1948     11.4857E-03     40.8595E-03    -21.8197E+06     46.4964E+06     78.1160E+06    -167.456E+03    -230.533E-03     456.966E-03    -226.434E-03     169.565E-03    -234.840E-03     461.135E-03    -226.079E-03     148.962E-03
            1949     10.7672E-03     40.6285E-03    -28.1785E+06     43.2233E+06     72.4035E+06     238.398E+03    -230.740E-03     457.194E-03    -226.454E-03     171.741E-03    -235.113E-03     461.410E-03    -226.113E-03     151.251E-03
            1950     10.0496E-03     40.3940E-03    -34.3555E+06     34.0468E+06     62.4773E+06    -376.837E+03    -230.879E-03     457.344E-03    -226.465E-03     172.108E-03    -235.230E-03     461.512E-03    -226.152E-03     151.852E-03
            1951     9.33171E-03     40.1616E-03    -39.9491E+06     27.6555E+06     53.7085E+06     102.637E+03    -230.816E-03     457.297E-03    -226.481E-03     170.025E-03    -235.047E-03     461.328E-03    -226.194E-03     150.227E-03
            1952     8.61301E-03     39.9324E-03    -46.3851E+06     19.2939E+06     46.2006E+06     2.11014E+06    -230.668E-03     457.176E-03    -226.508E-03     165.696E-03    -234.697E-03     460.975E-03    -226.238E-03     146.548E-03
            1953     7.89542E-03     39.7107E-03    -54.7257E+06    -1.40352E+06     36.5850E+06     2.03119E+06    -230.390E-03     456.934E-03    -226.545E-03     159.393E-03    -234.134E-03     460.373E-03    -226.280E-03     141.032E-03
            1954     7.17732E-03     39.4983E-03    -64.5022E+06    -32.9839E+06     22.1699E+06     270.868E+03    -229.890E-03     456.471E-03    -226.581E-03     151.124E-03    -233.256E-03     459.426E-03    -226.328E-03     133.776E-03
            1955     6.45901E-03     39.2998E-03    -74.3299E+06    -65.8996E+06     6.01276E+06    -419.337E+03    -229.351E-03     455.974E-03    -226.623E-03     140.765E-03    -232.275E-03     458.383E-03    -226.389E-03     124.661E-03
            1956     5.74077E-03     39.1161E-03    -83.8580E+06    -94.8057E+06    -10.2970E+06    -266.126E+03    -228.954E-03     455.612E-03    -226.658E-03     128.506E-03    -231.413E-03     457.467E-03    -226.451E-03     113.826E-03
            1957     5.02305E-03     38.9503E-03    -93.0772E+06    -120.472E+06    -27.4692E+06    -177.156E+03    -228.563E-03     455.234E-03    -226.671E-03     114.908E-03    -230.556E-03     456.548E-03    -226.498E-03     101.827E-03
            1958     4.30523E-03     38.8033E-03    -102.414E+06    -146.701E+06    -46.4242E+06    -97.1922E+03    -228.114E-03     454.776E-03    -226.662E-03     100.233E-03    -229.661E-03     455.573E-03    -226.533E-03     88.8789E-03
            1959     3.58745E-03     38.6768E-03    -111.757E+06    -171.252E+06    -66.6500E+06     73.4324E+03    -227.675E-03     454.310E-03    -226.635E-03     84.6391E-03    -228.821E-03     454.645E-03    -226.558E-03     75.1050E-03
            1960     2.87016E-03     38.5722E-03    -120.224E+06    -198.354E+06    -86.7695E+06     162.495E+03    -227.322E-03     453.920E-03    -226.598E-03     68.5491E-03    -228.119E-03     453.837E-03    -226.570E-03     60.8689E-03
            1961     2.15261E-03     38.4892E-03    -128.524E+06    -222.024E+06    -106.851E+06    -152.380E+03    -227.004E-03     453.540E-03    -226.536E-03     51.8979E-03    -227.522E-03     453.123E-03    -226.562E-03     46.0808E-03
            1962     1.43534E-03     38.4301E-03    -135.055E+06    -236.672E+06    -124.558E+06    -413.320E+03    -226.680E-03     453.143E-03    -226.463E-03     35.2945E-03    -226.998E-03     452.503E-03    -226.547E-03     31.3453E-03
            1963     717.575E-06     38.3928E-03    -138.905E+06    -249.699E+06    -136.196E+06    -304.747E+03    -226.547E-03     452.919E-03    -226.372E-03     19.2982E-03    -226.736E-03     452.124E-03    -226.489E-03     17.1310E-03
            1964     13.6399E-03     40.0107E-03    -4.25616E+06     62.3523E+06     85.2509E+06     891.088E+03    -228.451E-03     454.821E-03    -226.370E-03     129.182E-03    -231.252E-03     457.582E-03    -226.028E-03     112.705E-03
            1965     12.9226E-03     39.8045E-03    -8.95183E+06     62.0286E+06     84.9327E+06     1.30452E+06    -229.862E-03     456.246E-03    -226.384E-03     155.176E-03    -233.681E-03     460.007E-03    -226.036E-03     135.309E-03
            1966     12.2041E-03     39.5953E-03    -15.3442E+06     54.3458E+06     81.6187E+06     328.477E+03    -230.193E-03     456.583E-03    -226.390E-03     160.638E-03    -234.199E-03     460.491E-03    -226.039E-03     140.480E-03
            1967     11.4867E-03     39.3698E-03    -22.2126E+06     45.2542E+06     77.2869E+06    -542.256E+03    -230.498E-03     456.905E-03    -226.407E-03     168.443E-03    -234.799E-03     461.063E-03    -226.054E-03     147.791E-03
            1968     10.7689E-03     39.1388E-03    -28.6418E+06     43.6294E+06     69.9080E+06    -39.1636E+03    -230.583E-03     456.997E-03    -226.414E-03     171.326E-03    -234.954E-03     461.219E-03    -226.087E-03     150.809E-03
            1969     10.0500E-03     38.9046E-03    -35.7488E+06     37.0768E+06     58.3235E+06    -973.183E+03    -230.727E-03     457.148E-03    -226.421E-03     171.908E-03    -235.080E-03     461.336E-03    -226.131E-03     151.642E-03
            1970     9.33123E-03     38.6713E-03    -43.7341E+06     23.7222E+06     48.4594E+06    -1.62137E+06    -230.803E-03     457.250E-03    -226.447E-03     169.824E-03    -235.029E-03     461.265E-03    -226.176E-03     150.028E-03
            1971     8.61370E-03     38.4423E-03    -51.3090E+06     15.6224E+06     43.0802E+06    -711.211E+03    -230.641E-03     457.127E-03    -226.486E-03     165.746E-03    -234.683E-03     460.917E-03    -226.219E-03     146.566E-03
            1972     7.89525E-03     38.2202E-03    -58.2324E+06    -810.269E+03     35.4549E+06     176.187E+03    -230.297E-03     456.824E-03    -226.527E-03     159.589E-03    -234.057E-03     460.272E-03    -226.264E-03     141.216E-03
            1973     7.17703E-03     38.0086E-03    -65.5372E+06    -31.1380E+06     22.6633E+06     718.512E+03    -229.923E-03     456.490E-03    -226.567E-03     151.039E-03    -233.293E-03     459.451E-03    -226.313E-03     133.704E-03
            1974     6.45894E-03     37.8097E-03    -74.2555E+06    -64.9854E+06     6.75394E+06     455.227E+03    -229.554E-03     456.146E-03    -226.592E-03     140.411E-03    -232.474E-03     458.552E-03    -226.356E-03     124.320E-03
            1975     5.74129E-03     37.6257E-03    -83.6154E+06    -94.6948E+06    -10.2431E+06    -86.4489E+03    -229.129E-03     455.723E-03    -226.594E-03     128.081E-03    -231.578E-03     457.568E-03    -226.387E-03     113.419E-03
            1976     5.02341E-03     37.4599E-03    -92.9571E+06    -121.264E+06    -27.9652E+06    -191.347E+03    -228.658E-03     455.230E-03    -226.573E-03     114.415E-03    -230.639E-03     456.532E-03    -226.402E-03     101.354E-03
            1977     4.30587E-03     37.3126E-03    -102.227E+06    -146.628E+06    -46.5388E+06     198.862E+03    -228.126E-03     454.661E-03    -226.535E-03     99.6982E-03    -229.664E-03     455.451E-03    -226.407E-03     88.3749E-03
            1978     3.58837E-03     37.1867E-03    -110.877E+06    -170.983E+06    -66.5471E+06     10.4299E+03    -227.605E-03     454.090E-03    -226.484E-03     84.2753E-03    -228.743E-03     454.419E-03    -226.408E-03     74.7596E-03
            1979     2.87053E-03     37.0815E-03    -119.462E+06    -198.667E+06    -86.8338E+06     37.6382E+03    -227.167E-03     453.604E-03    -226.437E-03     68.3608E-03    -227.956E-03     453.516E-03    -226.410E-03     60.6991E-03
            1980     2.15302E-03     36.9992E-03    -126.983E+06    -221.072E+06    -106.211E+06     605.929E+03    -226.770E-03     453.161E-03    -226.391E-03     51.8548E-03    -227.281E-03     452.744E-03    -226.417E-03     46.0783E-03
            1981     1.43510E-03     36.9398E-03    -132.890E+06    -236.670E+06    -123.073E+06     277.891E+03    -226.530E-03     452.880E-03    -226.349E-03     35.2639E-03    -226.839E-03     452.233E-03    -226.429E-03     31.3412E-03
            1982     717.547E-06     36.9033E-03    -136.204E+06    -250.168E+06    -134.420E+06     147.371E+03    -226.523E-03     452.719E-03    -226.195E-03     19.1784E-03    -226.701E-03     451.915E-03    -226.307E-03     17.0431E-03
            1983     13.6414E-03     38.5227E-03    -4.79404E+06     61.2551E+06     84.6587E+06    -398.926E+03    -229.049E-03     455.377E-03    -226.328E-03     126.811E-03    -231.824E-03     458.107E-03    -225.987E-03     110.307E-03
            1984     12.9225E-03     38.3120E-03    -8.88924E+06     60.5250E+06     85.2017E+06     408.729E+03    -229.471E-03     455.801E-03    -226.331E-03     154.168E-03    -233.272E-03     459.539E-03    -225.980E-03     134.328E-03
            1985     12.2060E-03     38.1052E-03    -12.5927E+06     54.6217E+06     83.6612E+06     1.67784E+06    -229.824E-03     456.180E-03    -226.356E-03     160.473E-03    -233.804E-03     460.067E-03    -225.999E-03     140.423E-03
            1986     11.4872E-03     37.8802E-03    -17.7714E+06     47.9301E+06     80.8200E+06     2.19566E+06    -230.277E-03     456.672E-03    -226.395E-03     169.373E-03    -234.559E-03     460.827E-03    -226.035E-03     148.863E-03
            1987     10.7682E-03     37.6493E-03    -24.5760E+06     43.4842E+06     73.8657E+06     952.716E+03    -230.731E-03     457.151E-03    -226.420E-03     172.341E-03    -235.095E-03     461.368E-03    -226.078E-03     151.861E-03
            1988     10.0501E-03     37.4150E-03    -31.5336E+06     36.6670E+06     62.8650E+06     2.20740E+06    -230.997E-03     457.419E-03    -226.422E-03     172.311E-03    -235.335E-03     461.593E-03    -226.115E-03     152.097E-03
            1989     9.33238E-03     37.1816E-03    -39.3904E+06     27.4590E+06     52.5110E+06     2.74467E+06    -230.858E-03     457.288E-03    -226.430E-03     169.888E-03    -235.073E-03     461.308E-03    -226.150E-03     150.151E-03
            1990     8.61349E-03     36.9524E-03    -48.0935E+06     17.2059E+06     44.8738E+06     171.142E+03    -230.580E-03     457.042E-03    -226.462E-03     165.753E-03    -234.607E-03     460.829E-03    -226.193E-03     146.595E-03
            1991     7.89538E-03     36.7304E-03    -56.6879E+06    -2.37732E+06     35.8045E+06    -881.488E+03    -230.374E-03     456.874E-03    -226.500E-03     159.263E-03    -234.115E-03     460.301E-03    -226.235E-03     140.888E-03
            1992     7.17739E-03     36.5183E-03    -65.3477E+06    -32.4337E+06     21.8530E+06    -308.282E+03    -230.159E-03     456.672E-03    -226.513E-03     150.512E-03    -233.513E-03     459.616E-03    -226.262E-03     133.169E-03
            1993     6.45985E-03     36.3192E-03    -73.5804E+06    -64.0270E+06     6.45377E+06     52.5657E+03    -229.802E-03     456.302E-03    -226.500E-03     139.935E-03    -232.709E-03     458.702E-03    -226.268E-03     123.840E-03
            1994     5.74195E-03     36.1356E-03    -82.0862E+06    -95.0094E+06    -9.60494E+06     269.513E+03    -229.287E-03     455.754E-03    -226.467E-03     127.662E-03    -231.719E-03     457.586E-03    -226.259E-03     113.019E-03
            1995     5.02445E-03     35.9693E-03    -91.4674E+06    -121.276E+06    -27.1011E+06     829.151E+03    -228.661E-03     455.077E-03    -226.415E-03     114.035E-03    -230.627E-03     456.365E-03    -226.242E-03     101.025E-03
            1996     4.30675E-03     35.8227E-03    -100.968E+06    -145.790E+06    -45.9543E+06     397.788E+03    -228.033E-03     454.388E-03    -226.355E-03     99.4750E-03    -229.561E-03     455.173E-03    -226.227E-03     88.1829E-03
            1997     3.58884E-03     35.6966E-03    -110.275E+06    -171.314E+06    -65.9291E+06     24.1413E+03    -227.485E-03     453.777E-03    -226.291E-03     84.1286E-03    -228.617E-03     454.100E-03    -226.213E-03     74.6305E-03
            1998     2.87124E-03     35.5919E-03    -119.017E+06    -198.857E+06    -86.6031E+06     272.289E+03    -226.966E-03     453.199E-03    -226.232E-03     68.0099E-03    -227.750E-03     453.105E-03    -226.204E-03     60.3792E-03
            1999     2.15315E-03     35.5097E-03    -126.096E+06    -221.143E+06    -105.892E+06     321.628E+03    -226.565E-03     452.747E-03    -226.182E-03     51.4423E-03    -227.068E-03     452.325E-03    -226.208E-03     45.6880E-03
            2000     1.43552E-03     35.4502E-03    -131.260E+06    -235.707E+06    -121.732E+06      699.23E+03    -226.338E-03     452.471E-03    -226.133E-03     34.8522E-03    -226.640E-03     451.823E-03    -226.210E-03     30.9584E-03
            2001     717.901E-06     35.4132E-03    -135.505E+06    -249.371E+06    -132.465E+06     477.961E+03    -226.139E-03     452.271E-03    -226.131E-03     19.0586E-03    -226.316E-03     451.466E-03    -226.236E-03     16.9343E-03
            2002     13.6432E-03     37.0332E-03    -4.84546E+06      61.505E+06     84.1408E+06    -455.229E+03    -228.975E-03     455.276E-03    -226.300E-03     127.533E-03    -231.768E-03     458.026E-03    -225.962E-03     111.021E-03
            2003     12.9255E-03     36.8234E-03    -10.4943E+06     59.8716E+06     83.4149E+06    -1.28095E+06    -229.245E-03     455.561E-03    -226.316E-03     156.712E-03    -233.090E-03     459.340E-03    -225.971E-03     136.853E-03
            2004     12.2047E-03     36.6162E-03    -16.3794E+06     51.5203E+06     80.5671E+06    -883.944E+03    -229.545E-03     455.913E-03    -226.368E-03     162.030E-03    -233.551E-03     459.810E-03    -226.016E-03     141.997E-03
            2005     11.4859E-03     36.3908E-03    -21.5754E+06     46.7920E+06     77.9597E+06    -125.959E+03    -230.455E-03     456.868E-03    -226.414E-03     169.716E-03    -234.763E-03     461.040E-03    -226.061E-03     149.117E-03
            2006     10.7680E-03     36.1591E-03    -27.2121E+06     43.8420E+06     72.0558E+06     840.105E+03    -230.905E-03     457.334E-03    -226.429E-03     172.098E-03    -235.277E-03     461.556E-03    -226.093E-03     151.595E-03
            2007     10.0501E-03     35.9241E-03    -33.6088E+06     34.4355E+06     62.0831E+06     998.950E+03    -231.091E-03     457.521E-03    -226.429E-03     172.433E-03    -235.435E-03     461.687E-03    -226.120E-03     152.201E-03
            2008     9.33173E-03     35.6916E-03    -38.8539E+06     27.8203E+06     54.4815E+06     1.32558E+06    -231.113E-03     457.545E-03    -226.432E-03     170.157E-03    -235.332E-03     461.567E-03    -226.144E-03     150.376E-03
            2009     8.61405E-03     35.4627E-03    -44.8759E+06     20.5044E+06     47.7104E+06     2.32194E+06    -230.976E-03     457.409E-03    -226.433E-03     165.580E-03    -234.988E-03     461.197E-03    -226.160E-03     146.442E-03
            2010     7.89601E-03     35.2400E-03    -53.7324E+06    -492.497E+03     36.8729E+06     1.83890E+06    -230.702E-03     457.130E-03    -226.429E-03     158.893E-03    -234.418E-03     460.548E-03    -226.166E-03     140.568E-03
            2011     7.17833E-03     35.0280E-03    -63.1302E+06    -32.1533E+06     22.0246E+06     782.897E+03    -230.389E-03     456.793E-03    -226.405E-03     150.186E-03    -233.721E-03     459.723E-03    -226.157E-03     132.872E-03
            2012     6.46041E-03     34.8287E-03    -72.5278E+06    -64.2588E+06     6.11773E+06     589.782E+03    -229.950E-03     456.307E-03    -226.357E-03     139.505E-03    -232.840E-03     458.693E-03    -226.128E-03     123.438E-03
            2013     5.74311E-03     34.6451E-03    -82.1854E+06    -95.2917E+06    -9.94607E+06     995.135E+03    -229.304E-03     455.599E-03    -226.296E-03     127.203E-03    -231.722E-03     457.417E-03    -226.088E-03     112.612E-03
            2014     5.02535E-03     34.4794E-03    -91.6237E+06    -120.718E+06    -26.8251E+06     1.00748E+06    -228.575E-03     454.798E-03    -226.223E-03     113.683E-03    -230.530E-03     456.078E-03    -226.049E-03     100.725E-03
            2015     4.30744E-03     34.3331E-03    -100.963E+06    -145.026E+06    -45.6973E+06     938.221E+03    -227.921E-03     454.064E-03    -226.144E-03     99.0930E-03    -229.441E-03     454.844E-03    -226.016E-03     87.8512E-03
            2016     3.58982E-03     34.2069E-03    -110.117E+06    -170.855E+06    -65.9315E+06     666.666E+03    -227.314E-03     453.376E-03    -226.062E-03     83.7029E-03    -228.437E-03     453.693E-03    -225.985E-03     74.2642E-03
            2017     2.87187E-03     34.1028E-03    -118.617E+06    -198.267E+06    -85.7383E+06     211.483E+03    -226.791E-03     452.781E-03    -225.990E-03     67.7543E-03    -227.570E-03     452.684E-03    -225.959E-03     60.1558E-03
            2018     2.15422E-03     34.0207E-03    -126.540E+06    -221.588E+06    -105.288E+06     102.204E+03    -226.394E-03     452.308E-03    -225.914E-03     51.4358E-03    -226.898E-03     451.882E-03    -225.936E-03     45.7013E-03
            2019     1.43620E-03     33.9613E-03    -132.946E+06    -235.426E+06    -122.448E+06     293.989E+03    -226.033E-03     451.879E-03    -225.846E-03     34.9063E-03    -226.342E-03     451.235E-03    -225.924E-03     31.0271E-03
            2020     717.890E-06     33.9249E-03    -136.974E+06    -247.642E+06    -134.591E+06     596.933E+03    -225.697E-03     451.688E-03    -225.992E-03     19.0134E-03    -225.880E-03     450.898E-03    -226.107E-03     16.8977E-03
            2021     13.6393E-03     35.5394E-03    -4.61681E+06     61.7310E+06     84.8546E+06    -61.7715E+03    -228.181E-03     454.557E-03    -226.376E-03     128.192E-03    -230.979E-03     457.311E-03    -226.034E-03     111.731E-03
            2022     12.9207E-03     35.3343E-03    -8.59124E+06     60.0226E+06     84.5705E+06     875.504E+03    -229.611E-03     456.019E-03    -226.407E-03     156.714E-03    -233.470E-03     459.815E-03    -226.059E-03     136.762E-03
            2023     12.2039E-03     35.1259E-03    -15.2588E+06     53.5073E+06     81.0683E+06     223.503E+03    -230.158E-03     456.587E-03    -226.429E-03     162.172E-03    -234.196E-03     460.526E-03    -226.079E-03     141.967E-03
            2024     11.4866E-03     34.9004E-03    -22.4148E+06     46.8718E+06     77.7499E+06    -1.14835E+06    -230.895E-03     457.342E-03    -226.447E-03     169.910E-03    -235.228E-03     461.536E-03    -226.094E-03     149.197E-03
            2025     10.7686E-03     34.6688E-03    -28.4020E+06     40.9529E+06     70.6037E+06    -936.582E+03    -231.119E-03     457.561E-03    -226.442E-03     172.364E-03    -235.500E-03     461.782E-03    -226.107E-03     151.798E-03
            2026     10.0498E-03     34.4350E-03    -34.2366E+06     34.3350E+06     60.4516E+06    -486.259E+03    -231.272E-03     457.696E-03    -226.424E-03     172.392E-03    -235.610E-03     461.859E-03    -226.122E-03     152.133E-03
            2027     9.33188E-03     34.2006E-03    -41.7176E+06     26.1467E+06     50.8966E+06    -661.642E+03    -231.490E-03     457.889E-03    -226.399E-03     169.673E-03    -235.702E-03     461.897E-03    -226.122E-03     149.854E-03
            2028     8.61427E-03     33.9717E-03    -49.5438E+06     17.5537E+06     43.4783E+06     131.839E+03    -231.406E-03     457.766E-03    -226.360E-03     164.933E-03    -235.416E-03     461.536E-03    -226.096E-03     145.750E-03
            2029     7.89689E-03     33.7496E-03    -56.7851E+06      375.55E+03     35.1092E+06     1.58592E+06    -231.026E-03     457.339E-03    -226.314E-03     158.365E-03    -234.739E-03     460.751E-03    -226.056E-03     140.047E-03
            2030     7.17915E-03     33.5375E-03    -65.2737E+06    -30.3763E+06     21.4746E+06     1.69129E+06    -230.588E-03     456.839E-03    -226.251E-03     149.645E-03    -233.914E-03     459.763E-03    -226.005E-03     132.373E-03
            2031     6.46201E-03     33.3381E-03    -74.7050E+06    -64.3678E+06     5.51627E+06     1.56552E+06    -229.967E-03     456.140E-03    -226.172E-03     138.861E-03    -232.845E-03     458.507E-03    -225.943E-03     122.865E-03
            2032     5.74418E-03     33.1554E-03    -83.9223E+06    -94.0579E+06    -10.8942E+06     1.12060E+06    -229.212E-03     455.295E-03    -226.083E-03     126.591E-03    -231.619E-03     457.102E-03    -225.879E-03     112.074E-03
            2033     5.02640E-03     32.9900E-03    -93.0331E+06    -120.153E+06    -27.9589E+06     408.563E+03    -228.522E-03     454.506E-03    -225.985E-03     113.097E-03    -230.467E-03     455.776E-03    -225.815E-03     100.190E-03
            2034     4.30882E-03     32.8438E-03    -102.034E+06    -145.223E+06    -46.1775E+06     446.675E+03    -227.802E-03     453.681E-03    -225.879E-03     98.4738E-03    -229.312E-03     454.447E-03    -225.751E-03     87.2915E-03
            2035     3.59073E-03     32.7184E-03    -110.738E+06    -169.308E+06    -66.0682E+06     672.001E+03    -227.070E-03     452.845E-03    -225.774E-03     83.1164E-03    -228.186E-03     453.158E-03    -225.698E-03     73.7544E-03
            2036     2.87265E-03     32.6143E-03    -119.466E+06    -197.942E+06    -86.2399E+06     338.604E+03    -226.491E-03     452.185E-03    -225.694E-03     67.2953E-03    -227.265E-03     452.083E-03    -225.665E-03     59.7642E-03
            2037     2.15432E-03     32.5324E-03    -127.354E+06    -221.667E+06    -105.475E+06     346.476E+03    -226.068E-03     451.690E-03    -225.623E-03     51.1061E-03    -226.571E-03     451.261E-03    -225.644E-03     45.4174E-03
            2038     1.43619E-03     32.4734E-03    -133.594E+06    -235.188E+06    -123.007E+06     257.576E+03    -225.776E-03     451.319E-03    -225.543E-03     34.5968E-03    -226.085E-03     450.676E-03    -225.624E-03     30.7473E-03
            2039     718.215E-06     32.4370E-03    -137.144E+06    -246.824E+06    -134.399E+06    -192.339E+03    -225.698E-03     451.056E-03    -225.358E-03     18.7494E-03    -225.883E-03     450.269E-03    -225.474E-03     16.6388E-03
            2040     13.6401E-03     34.0519E-03    -4.56623E+06     61.4427E+06     84.1834E+06    -369.007E+03    -228.038E-03     454.462E-03    -226.425E-03     127.595E-03    -230.833E-03     457.216E-03    -226.086E-03     111.072E-03
            2041     12.9223E-03     33.8420E-03    -10.1611E+06     57.8836E+06     82.5807E+06    -199.551E+03    -229.778E-03     456.226E-03    -226.448E-03     154.654E-03    -233.608E-03     459.986E-03    -226.104E-03     134.687E-03
            2042     12.2038E-03     33.6359E-03    -13.0569E+06     53.3627E+06     81.8968E+06     861.850E+03    -230.164E-03     456.631E-03    -226.466E-03     161.513E-03    -234.173E-03     460.545E-03    -226.115E-03     141.352E-03
            2043     11.4851E-03     33.4087E-03    -18.3837E+06     48.6802E+06     79.3357E+06     2.14172E+06    -230.953E-03     457.436E-03    -226.483E-03     169.990E-03    -235.262E-03     461.623E-03    -226.130E-03     149.351E-03
            2044     10.7672E-03     33.1785E-03    -26.5509E+06     42.7937E+06     72.2494E+06     540.815E+03    -231.597E-03     458.063E-03    -226.467E-03     172.213E-03    -235.972E-03     462.287E-03    -226.129E-03     151.616E-03
            2045     10.0501E-03     32.9435E-03    -34.7404E+06     33.4128E+06     61.0009E+06    -482.428E+03    -232.037E-03     458.442E-03    -226.405E-03     171.940E-03    -236.373E-03     462.596E-03    -226.098E-03     151.605E-03
            2046     9.33285E-03     32.7100E-03    -41.8767E+06     25.3210E+06     50.4927E+06     607.583E+03    -231.977E-03     458.297E-03    -226.320E-03     168.992E-03    -236.168E-03     462.283E-03    -226.044E-03     149.184E-03
            2047     8.61549E-03     32.4804E-03    -49.7630E+06     16.6678E+06     42.7640E+06     873.337E+03    -231.687E-03     457.924E-03    -226.237E-03     164.069E-03    -235.669E-03     461.665E-03    -225.975E-03     144.919E-03
            2048     7.89803E-03     32.2591E-03    -58.7748E+06    -740.606E+03     34.0212E+06     557.798E+03    -231.315E-03     457.462E-03    -226.148E-03     157.425E-03    -235.008E-03     460.845E-03    -225.891E-03     139.120E-03
            2049     7.18096E-03     32.0467E-03    -67.3548E+06    -30.2755E+06     20.7123E+06     1.06388E+06    -230.677E-03     456.720E-03    -226.042E-03     148.727E-03    -233.980E-03     459.615E-03    -225.797E-03     131.523E-03
            2050     6.46320E-03     31.8485E-03    -75.3436E+06    -63.6699E+06     5.32072E+06     936.117E+03    -229.909E-03     455.840E-03    -225.931E-03     137.998E-03    -232.759E-03     458.182E-03    -225.703E-03     122.086E-03
            2051     5.74564E-03     31.6660E-03    -83.5854E+06    -92.7147E+06    -10.4772E+06     530.620E+03    -229.201E-03     455.011E-03    -225.810E-03     125.697E-03    -231.583E-03     456.797E-03    -225.607E-03     111.248E-03
            2052     5.02806E-03     31.5009E-03    -92.3973E+06    -119.140E+06    -27.4151E+06     206.256E+03    -228.439E-03     454.112E-03    -225.673E-03     112.155E-03    -230.360E-03     455.362E-03    -225.503E-03     99.3228E-03
            2053     4.31003E-03     31.3553E-03    -101.649E+06    -145.073E+06    -45.7463E+06     61.3517E+03    -227.621E-03     453.151E-03    -225.530E-03     97.4975E-03    -229.110E-03     453.896E-03    -225.401E-03     86.3984E-03
            2054     3.59210E-03     31.2305E-03    -111.142E+06    -169.495E+06    -66.0737E+06     205.711E+03    -226.855E-03     452.240E-03    -225.385E-03     82.1384E-03    -227.957E-03     452.537E-03    -225.308E-03     72.8419E-03
            2055     2.87387E-03     31.1269E-03    -119.381E+06    -197.880E+06    -86.5048E+06     345.320E+03    -226.196E-03     451.455E-03    -225.258E-03     66.3218E-03    -226.959E-03     451.342E-03    -225.231E-03     58.8557E-03
            2056     2.15559E-03     31.0455E-03    -126.433E+06    -221.611E+06    -105.496E+06     88.4128E+03    -225.686E-03     450.832E-03    -225.146E-03     50.1858E-03    -226.177E-03     450.393E-03    -225.169E-03     44.5476E-03
            2057     1.43713E-03     30.9861E-03    -132.118E+06    -234.188E+06    -122.501E+06    -188.202E+03    -225.338E-03     450.364E-03    -225.025E-03     33.8978E-03    -225.639E-03     449.719E-03    -225.107E-03     30.0767E-03
            2058     718.672E-06     30.9501E-03    -135.346E+06    -247.038E+06    -133.256E+06    -535.473E+03    -225.235E-03     449.985E-03    -224.750E-03     18.4670E-03    -225.411E-03     449.191E-03    -224.862E-03     16.3695E-03
            2059     13.6387E-03     32.5556E-03    -3.46990E+06     63.0618E+06     85.1980E+06     304.020E+03    -227.850E-03     454.277E-03    -226.428E-03     129.006E-03    -230.660E-03     457.052E-03    -226.088E-03     112.497E-03
            2060     12.9218E-03     32.3538E-03    -9.45799E+06     58.5472E+06     83.9321E+06    -1.09303E+06    -229.650E-03     456.118E-03    -226.468E-03     155.279E-03    -233.484E-03     459.883E-03    -226.120E-03     135.327E-03
            2061     12.2032E-03     32.1447E-03    -16.4240E+06     49.0515E+06     79.5110E+06    -882.689E+03    -230.402E-03     456.882E-03    -226.480E-03     161.623E-03    -234.410E-03     460.776E-03    -226.130E-03     141.468E-03
            2062     11.4855E-03     31.9194E-03    -22.6193E+06     45.4552E+06     75.8552E+06     415.370E+03    -231.335E-03     457.804E-03    -226.469E-03     169.005E-03    -235.642E-03     461.972E-03    -226.123E-03     148.297E-03
            2063     10.7679E-03     31.6860E-03    -28.0980E+06     45.9246E+06     69.8732E+06     1.84758E+06    -231.994E-03     458.404E-03    -226.409E-03     170.898E-03    -236.357E-03     462.627E-03    -226.086E-03     150.273E-03
            2064     10.0508E-03     31.4517E-03    -35.1261E+06     36.3034E+06     58.2413E+06     1.31558E+06    -232.400E-03     458.706E-03    -226.305E-03     170.845E-03    -236.715E-03     462.855E-03    -226.016E-03     150.513E-03
            2065     9.33396E-03     31.2179E-03    -42.7086E+06     23.6102E+06     48.8101E+06     163.602E+03    -232.402E-03     458.592E-03    -226.189E-03     168.218E-03    -236.568E-03     462.548E-03    -225.918E-03     148.408E-03
            2066     8.61691E-03     30.9898E-03    -49.5268E+06     15.9728E+06     43.2567E+06     957.566E+03    -232.100E-03     458.163E-03    -226.064E-03     163.328E-03    -236.049E-03     461.868E-03    -225.799E-03     144.223E-03
            2067     7.90007E-03     30.7675E-03    -56.7793E+06     48.6917E+03     35.1197E+06     1.48344E+06    -231.558E-03     457.480E-03    -225.922E-03     156.462E-03    -235.206E-03     460.825E-03    -225.664E-03     138.242E-03
            2068     7.18275E-03     30.5571E-03    -65.0929E+06    -29.8091E+06       21.84E+06     684.786E+03    -230.793E-03     456.563E-03    -225.770E-03     147.551E-03    -234.049E-03     459.419E-03    -225.523E-03     130.425E-03
            2069     6.46536E-03     30.3590E-03    -73.6986E+06    -62.9052E+06     6.37328E+06     250.928E+03    -230.007E-03     455.615E-03    -225.608E-03     136.748E-03    -232.814E-03     457.919E-03    -225.378E-03     120.920E-03
            2070     5.74787E-03     30.1769E-03    -82.4715E+06    -92.0089E+06    -9.38986E+06     7.89058E+03    -229.203E-03     454.634E-03    -225.430E-03     124.326E-03    -231.548E-03     456.386E-03    -225.224E-03     109.963E-03
            2071     5.03007E-03     30.0127E-03    -91.6345E+06    -118.748E+06    -26.4025E+06     18.3638E+03    -228.283E-03     453.521E-03    -225.238E-03     110.680E-03    -230.172E-03     454.740E-03    -225.065E-03     97.9461E-03
            2072     4.31227E-03     29.8678E-03    -100.773E+06    -145.134E+06    -45.2766E+06     167.468E+03    -227.355E-03     452.397E-03    -225.043E-03     96.1237E-03    -228.814E-03     453.115E-03    -224.912E-03     85.1299E-03
            2073     3.59405E-03     29.7436E-03    -109.145E+06    -169.675E+06    -65.1939E+06    -169.690E+03    -226.538E-03     451.386E-03    -224.848E-03     81.0068E-03    -227.613E-03     451.661E-03    -224.770E-03     71.7962E-03
            2074     2.87570E-03     29.6408E-03    -117.355E+06    -197.907E+06    -84.8416E+06    -223.878E+03    -225.832E-03     450.499E-03    -224.667E-03     65.4647E-03    -226.575E-03     450.369E-03    -224.634E-03     58.0664E-03
            2075     2.15707E-03     29.5598E-03    -124.815E+06    -221.044E+06    -103.859E+06    -24.8780E+03    -225.183E-03     449.679E-03    -224.496E-03     49.6460E-03    -225.663E-03     449.232E-03    -224.514E-03     44.0802E-03
            2076     1.43825E-03     29.5011E-03    -130.659E+06    -233.877E+06    -121.189E+06    -75.4742E+03    -224.645E-03     448.997E-03    -224.352E-03     33.6437E-03    -224.937E-03     448.346E-03    -224.430E-03     29.8819E-03
            2077     719.087E-06     29.4654E-03    -134.885E+06    -247.431E+06    -132.621E+06     177.148E+03    -224.370E-03     448.643E-03    -224.273E-03     18.1561E-03    -224.543E-03     447.844E-03    -224.382E-03     16.0948E-03
            2078     13.6408E-03     31.0710E-03    -3.97137E+06     63.4130E+06     84.9576E+06     266.826E+03    -227.815E-03     454.229E-03    -226.414E-03     128.739E-03    -230.608E-03     456.987E-03    -226.076E-03     112.311E-03
            2079     12.9200E-03     30.8604E-03    -8.12423E+06     59.8550E+06     85.4186E+06     461.259E+03    -229.254E-03     455.724E-03    -226.470E-03     154.817E-03    -233.073E-03     459.479E-03    -226.118E-03     134.937E-03
            2080     12.2035E-03     30.6545E-03    -14.6319E+06     50.0337E+06     80.7567E+06     479.573E+03    -230.952E-03     457.425E-03    -226.473E-03     161.175E-03    -234.963E-03     461.327E-03    -226.121E-03     140.939E-03
            2081     11.4864E-03     30.4264E-03    -19.8308E+06     44.3493E+06     78.0203E+06    -475.382E+03    -232.114E-03     458.539E-03    -226.425E-03     169.128E-03    -236.408E-03     462.693E-03    -226.070E-03     148.365E-03
            2082     10.7698E-03     30.1953E-03    -25.4109E+06     41.5853E+06     71.6906E+06     872.532E+03    -232.579E-03     458.901E-03    -226.322E-03     170.983E-03    -236.908E-03     463.080E-03    -225.987E-03     150.366E-03
            2083     10.0525E-03     29.9596E-03    -30.8582E+06     36.8656E+06     61.6613E+06     3.76818E+06    -232.780E-03     458.957E-03    -226.177E-03     170.349E-03    -237.044E-03     463.064E-03    -225.878E-03     150.120E-03
            2084     9.33541E-03     29.7265E-03    -38.4368E+06     27.8797E+06     51.9295E+06     3.87314E+06    -232.771E-03     458.784E-03    -226.013E-03     167.197E-03    -236.886E-03     462.711E-03    -225.738E-03     147.490E-03
            2085     8.61898E-03     29.4976E-03    -47.6174E+06     17.3641E+06     44.2289E+06     1.53730E+06    -232.451E-03     458.284E-03    -225.833E-03     162.246E-03    -236.354E-03     461.952E-03    -225.568E-03     143.205E-03
            2086     7.90213E-03     29.2772E-03    -55.9518E+06     205.388E+03     36.0332E+06     515.158E+03    -231.844E-03     457.482E-03    -225.638E-03     155.229E-03    -235.448E-03     460.783E-03    -225.377E-03     137.070E-03
            2087     7.18521E-03     29.0668E-03    -63.5700E+06    -28.5420E+06     23.2955E+06     581.710E+03    -231.098E-03     456.515E-03    -225.417E-03     146.053E-03    -234.307E-03     459.329E-03    -225.167E-03     129.000E-03
            2088     6.46823E-03     28.8701E-03    -72.0500E+06    -62.0459E+06     7.85289E+06     264.914E+03    -230.210E-03     455.386E-03    -225.176E-03     135.200E-03    -232.969E-03     457.647E-03    -224.943E-03     119.469E-03
            2089     5.75081E-03     28.6887E-03    -81.0093E+06    -91.8897E+06    -8.48265E+06     135.198E+03    -229.174E-03     454.094E-03    -224.920E-03     122.781E-03    -231.471E-03     455.802E-03    -224.712E-03     108.552E-03
            2090     5.03328E-03     28.5254E-03    -89.7174E+06    -118.810E+06    -25.6262E+06     106.376E+03    -228.080E-03     452.739E-03    -224.660E-03     109.136E-03    -229.924E-03     453.918E-03    -224.485E-03     96.5425E-03
            2091     4.31504E-03     28.3817E-03    -98.5247E+06    -144.824E+06    -43.9206E+06    -72.5948E+03    -227.015E-03     451.419E-03    -224.404E-03     94.7375E-03    -228.437E-03     452.105E-03    -224.271E-03     83.8739E-03
            2092     3.59652E-03     28.2583E-03    -107.839E+06    -169.402E+06    -63.8372E+06     5.04862E+03    -226.040E-03     450.196E-03    -224.156E-03     79.7098E-03    -227.088E-03     450.446E-03    -224.074E-03     70.6303E-03
            2093     2.87768E-03     28.1562E-03    -116.598E+06    -197.876E+06    -83.9049E+06     59.5646E+03    -225.196E-03     449.129E-03    -223.933E-03     64.3508E-03    -225.921E-03     448.981E-03    -223.897E-03     57.0654E-03
            2094     2.15862E-03     28.0761E-03    -124.375E+06    -221.264E+06    -103.219E+06     142.597E+03    -224.476E-03     448.206E-03    -223.730E-03     48.7145E-03    -224.945E-03     447.748E-03    -223.745E-03     43.2325E-03
            2095     1.43909E-03     28.0183E-03    -130.859E+06    -234.416E+06    -120.457E+06     709.664E+03    -223.890E-03     447.450E-03    -223.560E-03     32.8836E-03    -224.178E-03     446.791E-03    -223.633E-03     29.2071E-03
            2096     719.579E-06     27.9826E-03    -134.895E+06    -245.843E+06    -132.416E+06     613.613E+03    -223.548E-03     447.013E-03    -223.465E-03     17.6941E-03    -223.722E-03     446.219E-03    -223.575E-03     15.6821E-03
            2097     13.6402E-03     29.5822E-03    -5.42210E+06     61.3018E+06     81.7310E+06    -705.025E+03    -228.259E-03     454.648E-03    -226.388E-03     128.335E-03    -231.062E-03     457.412E-03    -226.061E-03     111.797E-03
            2098     12.9230E-03     29.3727E-03    -9.82540E+06     59.0209E+06     81.7344E+06     686.098E+03    -229.602E-03     456.024E-03    -226.422E-03     156.189E-03    -233.432E-03     459.791E-03    -226.084E-03     136.350E-03
            2099     12.2037E-03     29.1615E-03    -13.7549E+06     52.2294E+06     80.1307E+06     286.111E+03    -231.072E-03     457.494E-03    -226.423E-03     161.773E-03    -235.083E-03     461.409E-03    -226.078E-03     141.543E-03
            2100     11.4868E-03     28.9345E-03    -19.3450E+06     44.8854E+06     77.2996E+06    -267.376E+03    -232.491E-03     458.853E-03    -226.361E-03     169.181E-03    -236.776E-03     463.004E-03    -226.012E-03     148.401E-03
            2101     10.7697E-03     28.7016E-03    -25.8220E+06     37.6663E+06     71.4258E+06     28.8094E+03    -233.247E-03     459.478E-03    -226.231E-03     170.873E-03    -237.554E-03     463.620E-03    -225.891E-03     150.253E-03
            2102     10.0539E-03     28.4674E-03    -32.0556E+06     31.3164E+06     62.7689E+06     1.32395E+06    -233.607E-03     459.643E-03    -226.036E-03     169.947E-03    -237.842E-03     463.693E-03    -225.721E-03     149.706E-03
            2103     9.33799E-03     28.2341E-03    -36.7926E+06     28.4195E+06     55.6471E+06     3.40708E+06    -233.413E-03     459.214E-03    -225.801E-03     166.361E-03    -237.486E-03     463.096E-03    -225.511E-03     146.705E-03
            2104     8.62139E-03     28.0064E-03    -42.4929E+06     21.6876E+06     48.7491E+06     4.39918E+06    -232.915E-03     458.460E-03    -225.544E-03     160.845E-03    -236.758E-03     462.087E-03    -225.270E-03     141.910E-03
            2105     7.90501E-03     27.7861E-03    -51.0313E+06     3.47871E+06     39.3989E+06     3.09706E+06    -232.244E-03     457.512E-03    -225.268E-03     153.485E-03    -235.780E-03     460.765E-03    -225.003E-03     135.442E-03
            2106     7.18864E-03     27.5770E-03    -60.9258E+06    -26.5843E+06     25.0894E+06     1.45799E+06    -231.405E-03     456.365E-03    -224.961E-03     144.262E-03    -234.549E-03     459.126E-03    -224.708E-03     127.341E-03
            2107     6.47173E-03     27.3814E-03    -70.0783E+06    -60.8764E+06     8.93854E+06     901.072E+03    -230.376E-03     455.005E-03    -224.629E-03     133.352E-03    -233.074E-03     457.213E-03    -224.394E-03     117.770E-03
            2108     5.75457E-03     27.2014E-03    -79.0915E+06    -91.3436E+06    -7.54264E+06     676.953E+03    -229.140E-03     453.423E-03    -224.283E-03     120.877E-03    -231.379E-03     455.080E-03    -224.074E-03     106.815E-03
            2109     5.03658E-03     27.0396E-03    -88.4464E+06    -118.318E+06    -25.0080E+06     462.265E+03    -227.840E-03     451.776E-03    -223.936E-03     107.210E-03    -229.636E-03     452.911E-03    -223.761E-03     94.7863E-03
            2110     4.31841E-03     26.8971E-03    -98.0693E+06    -144.872E+06    -43.5867E+06     637.955E+03    -226.618E-03     450.216E-03    -223.598E-03     92.8394E-03    -228.002E-03     450.864E-03    -223.463E-03     82.1442E-03
            2111     3.59974E-03     26.7750E-03    -107.405E+06    -168.626E+06    -63.4563E+06     749.916E+03    -225.466E-03     448.735E-03    -223.269E-03     77.9086E-03    -226.487E-03     448.960E-03    -223.186E-03     68.9904E-03
            2112     2.88044E-03     26.6742E-03    -116.031E+06    -197.199E+06     -83.405E+06     470.772E+03    -224.454E-03     447.426E-03    -222.972E-03     62.6266E-03    -225.158E-03     447.261E-03    -222.935E-03     55.4800E-03
            2113     2.16069E-03     26.5948E-03    -123.833E+06    -221.661E+06    -102.313E+06     492.731E+03    -223.584E-03     446.294E-03    -222.709E-03     47.1614E-03    -224.039E-03     445.818E-03    -222.720E-03     41.7882E-03
            2114     1.44090E-03     26.5379E-03    -130.005E+06    -234.195E+06    -119.244E+06     588.851E+03    -222.881E-03     445.369E-03    -222.488E-03     31.8222E-03    -223.161E-03     444.702E-03    -222.556E-03     28.2126E-03
            2115     720.568E-06     26.5028E-03    -133.674E+06    -243.958E+06    -130.722E+06     411.547E+03    -222.614E-03     444.815E-03    -222.201E-03     17.1897E-03    -222.785E-03     444.025E-03    -222.307E-03     15.2221E-03
            2116     13.6399E-03     28.0912E-03    -3.80724E+06     61.5182E+06     83.3607E+06     204.867E+03    -228.350E-03     454.743E-03    -226.393E-03     128.270E-03    -231.150E-03     457.507E-03    -226.060E-03     111.746E-03
            2117     12.9211E-03     27.8819E-03    -10.3050E+06     58.0096E+06     80.4902E+06    -207.348E+03    -230.298E-03     456.694E-03    -226.396E-03     156.984E-03    -234.152E-03     460.484E-03    -226.063E-03     137.016E-03
            2118     12.2048E-03     27.6701E-03    -15.9458E+06     52.7094E+06     77.9596E+06    -420.568E+03    -231.600E-03     457.959E-03    -226.359E-03     162.482E-03    -235.631E-03     461.895E-03    -226.023E-03     142.183E-03
            2119     11.4877E-03     27.4415E-03    -22.7741E+06     44.1668E+06     73.9578E+06    -304.707E+03    -233.015E-03     459.275E-03    -226.260E-03     168.903E-03    -237.306E-03     463.427E-03    -225.921E-03     148.067E-03
            2120     10.7717E-03     27.2088E-03    -29.5362E+06     37.5028E+06     66.4256E+06    -529.613E+03    -233.912E-03     459.982E-03    -226.069E-03     169.860E-03    -238.211E-03     464.116E-03    -225.749E-03     149.175E-03
            2121     10.0557E-03     26.9732E-03    -35.7069E+06     30.9283E+06     57.3821E+06    -2.10526E+06    -234.248E-03     460.054E-03    -225.806E-03     168.551E-03    -238.459E-03     464.082E-03    -225.512E-03     148.241E-03
            2122     9.33999E-03     26.7414E-03    -41.5131E+06     23.2934E+06     50.6607E+06    -2.41178E+06    -234.101E-03     459.604E-03    -225.503E-03     164.853E-03    -238.139E-03     463.430E-03    -225.223E-03     145.130E-03
            2123     8.62475E-03     26.5142E-03    -47.1849E+06     17.0401E+06     45.3593E+06     221.501E+03    -233.568E-03     458.729E-03    -225.161E-03     159.157E-03    -237.363E-03     462.286E-03    -224.891E-03     140.244E-03
            2124     7.90899E-03     26.2955E-03    -53.4010E+06     5.33498E+06     38.2668E+06     2.63636E+06    -232.744E-03     457.528E-03    -224.784E-03     151.499E-03    -236.222E-03     460.724E-03    -224.523E-03     133.589E-03
            2125     7.19255E-03     26.0875E-03    -61.0429E+06    -23.0871E+06     25.7195E+06     2.36586E+06    -231.739E-03     456.113E-03    -224.374E-03     141.901E-03    -234.816E-03     458.816E-03    -224.123E-03     125.163E-03
            2126     6.47608E-03     25.8933E-03    -70.1718E+06    -59.8584E+06     9.04606E+06     1.59126E+06    -230.532E-03     454.463E-03    -223.932E-03     130.639E-03    -233.159E-03     456.603E-03    -223.698E-03     115.262E-03
            2127     5.75893E-03     25.7152E-03    -79.4774E+06    -89.9918E+06    -7.52183E+06     1.35335E+06    -229.099E-03     452.568E-03    -223.469E-03     117.980E-03    -231.275E-03     454.164E-03    -223.260E-03     104.130E-03
            2128     5.04140E-03     25.5553E-03    -88.9630E+06    -117.894E+06    -25.0837E+06     1.24990E+06    -227.599E-03     450.601E-03    -223.002E-03     104.325E-03    -229.339E-03     451.679E-03    -222.827E-03     92.1253E-03
            2129     4.32292E-03     25.4145E-03    -98.1857E+06    -144.568E+06    -44.0899E+06     1.23348E+06    -226.115E-03     448.658E-03    -222.542E-03     90.0307E-03    -227.451E-03     449.260E-03    -222.411E-03     79.5555E-03
            2130     3.60369E-03     25.2942E-03    -106.839E+06    -167.667E+06    -63.7893E+06     961.438E+03    -224.713E-03     446.816E-03    -222.104E-03     75.3785E-03    -225.695E-03     447.009E-03    -222.025E-03     66.6570E-03
            2131     2.88410E-03     25.1946E-03    -114.976E+06    -196.102E+06    -82.6066E+06     830.088E+03    -223.464E-03     445.183E-03    -221.719E-03     60.5481E-03    -224.142E-03     444.996E-03    -221.681E-03     53.5768E-03
            2132     2.16393E-03     25.1171E-03    -122.577E+06    -220.811E+06    -100.735E+06     541.434E+03    -222.358E-03     443.756E-03    -221.398E-03     45.6728E-03    -222.796E-03     443.266E-03    -221.403E-03     40.4445E-03
            2133     1.44270E-03     25.0610E-03    -129.031E+06    -233.170E+06    -117.980E+06    -26.5416E+03    -221.545E-03     442.695E-03    -221.150E-03     30.9356E-03    -221.817E-03     442.023E-03    -221.214E-03     27.4122E-03
            2134     721.333E-06     25.0268E-03    -133.408E+06    -243.885E+06    -130.425E+06    -214.234E+03    -221.322E-03     442.119E-03    -220.797E-03     16.8743E-03    -221.491E-03     441.327E-03    -220.902E-03     14.9539E-03
            2135     13.6403E-03     26.6025E-03    -4.11651E+06     61.8503E+06     84.2183E+06     831.029E+03    -229.017E-03     455.425E-03    -226.408E-03     129.227E-03    -231.834E-03     458.203E-03    -226.071E-03     112.651E-03
            2136     12.9231E-03     26.3902E-03    -8.37456E+06     59.0417E+06     83.4530E+06     687.900E+03    -231.144E-03     457.522E-03    -226.378E-03     157.021E-03    -235.004E-03     461.319E-03    -226.034E-03     136.967E-03
            2137     12.2053E-03     26.1778E-03    -14.4588E+06     51.9857E+06     79.1507E+06     959.090E+03    -232.501E-03     458.783E-03    -226.282E-03     162.507E-03    -236.537E-03     462.722E-03    -225.940E-03     142.108E-03
            2138     11.4892E-03     25.9479E-03    -20.4829E+06     45.2217E+06     75.7486E+06     1.15179E+06    -233.990E-03     460.107E-03    -226.117E-03     168.432E-03    -238.259E-03     464.244E-03    -225.774E-03     147.561E-03
            2139     10.7739E-03     25.7140E-03    -26.1918E+06     40.3040E+06     70.1490E+06     38.4113E+03    -234.720E-03     460.580E-03    -225.859E-03     168.868E-03    -238.979E-03     464.685E-03    -225.529E-03     148.177E-03
            2140     10.0590E-03     25.4801E-03    -33.2497E+06     33.1766E+06     59.3757E+06    -590.529E+03    -234.963E-03     460.475E-03    -225.513E-03     167.096E-03    -239.119E-03     464.459E-03    -225.216E-03     146.826E-03
            2141     9.34406E-03     25.2477E-03    -42.1223E+06     23.2422E+06     48.4897E+06    -1.17810E+06    -234.809E-03     459.918E-03    -225.109E-03     162.909E-03    -238.776E-03     463.677E-03    -224.839E-03     143.289E-03
            2142     8.62873E-03     25.0222E-03    -50.8082E+06     13.3233E+06     41.2225E+06    -2.56474E+06    -234.356E-03     459.015E-03    -224.658E-03     156.771E-03    -238.073E-03     462.479E-03    -224.398E-03     137.953E-03
            2143     7.91339E-03     24.8044E-03    -58.1955E+06     1.32010E+06     34.8445E+06    -2.50241E+06    -233.506E-03     457.657E-03    -224.151E-03     148.464E-03    -236.901E-03     460.750E-03    -223.895E-03     130.655E-03
            2144     7.19813E-03     24.5984E-03    -65.0196E+06    -24.4144E+06     23.3021E+06    -411.568E+03    -232.263E-03     455.852E-03    -223.588E-03     138.260E-03    -235.253E-03     458.457E-03    -223.342E-03     121.699E-03
            2145     6.48199E-03     24.4062E-03    -72.6109E+06    -59.3998E+06     7.68091E+06     965.639E+03    -230.722E-03     453.711E-03    -222.989E-03     126.594E-03    -233.258E-03     455.757E-03    -222.759E-03     111.469E-03
            2146     5.76523E-03     24.2306E-03    -81.2212E+06    -89.3310E+06    -8.55983E+06     1.03490E+06    -228.990E-03     451.360E-03    -222.370E-03     113.856E-03    -231.079E-03     452.869E-03    -222.165E-03     100.295E-03
            2147     5.04739E-03     24.0729E-03    -89.8590E+06    -117.372E+06    -25.5926E+06      939.99E+03    -227.200E-03     448.950E-03    -221.750E-03     100.345E-03    -228.863E-03     449.951E-03    -221.578E-03     88.4403E-03
            2148     4.32887E-03     23.9347E-03    -98.5067E+06    -143.432E+06    -43.7334E+06     817.508E+03    -225.379E-03     446.526E-03    -221.147E-03     86.3201E-03    -226.653E-03     447.069E-03    -221.015E-03     76.1307E-03
            2149     3.60941E-03     23.8165E-03    -107.160E+06    -167.263E+06    -63.5230E+06     879.436E+03    -223.606E-03     444.191E-03    -220.584E-03     72.1154E-03    -224.543E-03     444.337E-03    -220.504E-03     63.6625E-03
            2150     2.88863E-03     23.7193E-03    -115.657E+06    -194.708E+06    -83.4871E+06     667.517E+03    -222.008E-03     442.116E-03    -220.108E-03     57.7771E-03    -222.657E-03     441.906E-03    -220.076E-03     51.0429E-03
            2151     2.16691E-03     23.6433E-03    -122.947E+06    -219.153E+06    -101.653E+06    -117.884E+03    -220.771E-03     440.505E-03    -219.733E-03     43.5043E-03    -221.192E-03     440.005E-03    -219.746E-03     38.4553E-03
            2152     1.44504E-03     23.5888E-03    -128.586E+06    -233.333E+06    -118.390E+06    -458.187E+03    -219.957E-03     439.387E-03    -219.430E-03     29.3792E-03    -220.217E-03     438.705E-03    -219.497E-03     25.9887E-03
            2153     722.728E-06     23.5545E-03    -131.944E+06    -244.657E+06    -129.817E+06    -405.144E+03    -219.255E-03     438.606E-03    -219.351E-03     15.8691E-03    -219.413E-03     437.804E-03    -219.454E-03     14.0254E-03
            2154     13.6387E-03     25.1062E-03    -4.74066E+06     61.3485E+06     82.2008E+06    -90.0438E+03    -229.801E-03     456.194E-03    -226.392E-03     129.418E-03    -232.624E-03     458.979E-03    -226.063E-03     112.730E-03
            2155     12.9227E-03     24.8989E-03    -8.38885E+06     58.5930E+06     83.3687E+06     -28.769E+03    -232.252E-03     458.568E-03    -226.316E-03     156.741E-03    -236.115E-03     462.367E-03    -225.972E-03     136.567E-03
            2156     12.2069E-03     24.6834E-03    -12.4643E+06     50.0075E+06     80.9013E+06     619.200E+03    -233.745E-03     459.898E-03    -226.153E-03     162.185E-03    -237.770E-03     463.822E-03    -225.803E-03     141.665E-03
            2157     11.4921E-03     24.4529E-03    -17.2132E+06     46.3361E+06     78.5567E+06     1.70908E+06    -234.913E-03     460.822E-03    -225.908E-03     167.407E-03    -239.131E-03     464.915E-03    -225.558E-03     146.549E-03
            2158     10.7771E-03     24.2197E-03    -24.4124E+06     43.0909E+06     72.0993E+06     2.23312E+06    -235.611E-03     461.178E-03    -225.567E-03     167.612E-03    -239.803E-03     465.228E-03    -225.234E-03     147.035E-03
            2159     10.0625E-03     23.9846E-03    -32.2599E+06     33.6372E+06     60.6326E+06     1.79992E+06    -236.078E-03     461.200E-03    -225.122E-03     165.073E-03    -240.142E-03     465.093E-03    -224.821E-03     144.964E-03
            2160     9.34816E-03     23.7545E-03    -38.8829E+06     25.4991E+06     51.9304E+06     1.30620E+06    -236.099E-03     460.686E-03    -224.587E-03     159.846E-03    -239.943E-03     464.333E-03    -224.308E-03     140.430E-03
            2161     8.63424E-03     23.5290E-03    -45.6678E+06     17.6060E+06     45.1067E+06    -59.4884E+03    -235.557E-03     459.520E-03    -223.963E-03     152.471E-03    -239.126E-03     462.859E-03    -223.697E-03     133.894E-03
            2162     7.92045E-03     23.3134E-03    -54.1943E+06     327.240E+03     35.8259E+06    -1.41223E+06    -234.422E-03     457.683E-03    -223.261E-03     143.417E-03    -237.651E-03     460.617E-03    -223.003E-03     125.898E-03
            2163     7.20565E-03     23.1097E-03    -63.8456E+06    -28.2621E+06     22.1443E+06    -1.04280E+06    -232.872E-03     455.365E-03    -222.493E-03     132.890E-03    -235.699E-03     457.802E-03    -222.249E-03     116.662E-03
            2164     6.49029E-03     22.9206E-03    -72.7083E+06    -59.8057E+06     7.17057E+06    -229.438E+03    -230.970E-03     452.655E-03    -221.685E-03     120.944E-03    -233.363E-03     454.557E-03    -221.457E-03     106.185E-03
            2165     5.77362E-03     22.7482E-03    -80.8958E+06    -88.9132E+06    -8.23164E+06    -37.6713E+03    -228.795E-03     449.653E-03    -220.858E-03     108.048E-03    -230.753E-03     451.032E-03    -220.653E-03     94.8894E-03
            2166     5.05594E-03     22.5935E-03    -89.4073E+06    -116.899E+06    -24.9213E+06    -15.1160E+03    -226.481E-03     446.524E-03    -220.043E-03     94.6394E-03    -228.031E-03     447.414E-03    -219.869E-03     83.1513E-03
            2167     4.33680E-03     22.4585E-03    -98.0300E+06    -143.188E+06    -42.7472E+06     174.454E+03    -224.188E-03     443.459E-03    -219.271E-03     81.0396E-03    -225.372E-03     443.911E-03    -219.135E-03     71.2573E-03
            2168     3.61620E-03     22.3434E-03    -106.830E+06    -167.626E+06    -62.0560E+06     542.519E+03    -222.051E-03     440.621E-03    -218.569E-03     67.4158E-03    -222.922E-03     440.696E-03    -218.481E-03     59.3368E-03
            2169     2.89464E-03     22.2490E-03    -115.119E+06    -192.513E+06    -82.8953E+06     506.701E+03    -220.225E-03     438.182E-03    -217.957E-03     53.7106E-03    -220.829E-03     437.934E-03    -217.925E-03     47.3041E-03
            2170     2.17204E-03     22.1753E-03    -122.540E+06    -217.359E+06    -102.361E+06    -434.849E+03    -218.797E-03     436.247E-03    -217.450E-03     40.1972E-03    -219.189E-03     435.729E-03    -217.469E-03     35.4119E-03
            2171     1.44847E-03     22.1215E-03    -128.376E+06    -234.788E+06    -118.481E+06    -669.905E+03    -217.697E-03     434.748E-03    -217.050E-03     27.0465E-03    -217.940E-03     434.044E-03    -217.116E-03     23.8403E-03
            2172     724.477E-06     22.0890E-03    -132.268E+06    -245.664E+06    -129.972E+06     22.0812E+03    -216.723E-03     433.753E-03    -217.030E-03     14.3646E-03    -216.875E-03     432.941E-03    -217.132E-03     12.6339E-03
            2173     13.6417E-03     23.6164E-03    -4.64690E+06     61.6060E+06     82.8021E+06    -685.802E+03    -230.611E-03     456.979E-03    -226.369E-03     130.903E-03    -233.469E-03     459.800E-03    -226.037E-03     114.067E-03
            2174     12.9243E-03     23.4038E-03    -9.61336E+06     57.9744E+06     82.3265E+06    -1.02551E+06    -233.433E-03     459.669E-03    -226.235E-03     157.891E-03    -237.334E-03     463.503E-03    -225.894E-03     137.527E-03
            2175     12.2100E-03     23.1874E-03    -15.0056E+06     49.3628E+06     79.7461E+06    -927.082E+03    -235.182E-03     461.179E-03    -225.998E-03     162.856E-03    -239.221E-03     465.109E-03    -225.649E-03     142.212E-03
            2176     11.4950E-03     22.9584E-03    -21.0336E+06     43.5117E+06     77.0966E+06     55.0105E+03    -236.581E-03     462.233E-03    -225.652E-03     167.251E-03    -240.773E-03     466.282E-03    -225.300E-03     146.367E-03
            2177     10.7810E-03     22.7232E-03    -26.5654E+06     40.9928E+06     70.3784E+06     1.61075E+06    -237.583E-03     462.747E-03    -225.164E-03     165.511E-03    -241.689E-03     466.700E-03    -224.833E-03     144.990E-03
            2178     10.0678E-03     22.4898E-03    -31.3124E+06     34.8879E+06     60.7756E+06     1.71503E+06    -238.088E-03     462.619E-03    -224.531E-03     160.849E-03    -242.008E-03     466.376E-03    -224.232E-03     140.881E-03
            2179     9.35546E-03     22.2585E-03    -36.8753E+06     27.0690E+06     53.2359E+06     597.286E+03    -237.900E-03     461.677E-03    -223.777E-03     154.148E-03    -241.570E-03     465.158E-03    -223.496E-03     134.922E-03
            2180     8.64345E-03     22.0357E-03    -44.1517E+06     18.9030E+06     45.9553E+06     1.08537E+06    -236.938E-03     459.849E-03    -222.911E-03     145.980E-03    -240.308E-03     462.997E-03    -222.645E-03     127.756E-03
            2181     7.93022E-03     21.8228E-03    -52.9551E+06     2.25989E+06     36.4044E+06     1.86319E+06    -235.424E-03     457.381E-03    -221.957E-03     136.254E-03    -238.440E-03     460.112E-03    -221.702E-03     119.235E-03
            2182     7.21661E-03     21.6222E-03    -61.7659E+06    -26.4921E+06     23.6462E+06     729.137E+03    -233.466E-03     454.398E-03    -220.932E-03     125.094E-03    -236.077E-03     456.627E-03    -220.686E-03     109.423E-03
            2183     6.50170E-03     21.4370E-03    -70.2036E+06    -59.3814E+06     8.92607E+06    -553.098E+03    -231.085E-03     450.941E-03    -219.856E-03     112.861E-03    -233.272E-03     452.642E-03    -219.623E-03     98.6702E-03
            2184     5.78570E-03     21.2685E-03    -78.6617E+06    -88.6494E+06    -6.59974E+06    -632.318E+03    -228.335E-03     447.097E-03    -218.762E-03     100.041E-03    -230.111E-03     448.299E-03    -218.552E-03     87.4626E-03
            2185     5.06768E-03     21.1187E-03    -87.3817E+06    -117.172E+06    -23.3363E+06    -300.578E+03    -225.401E-03     443.100E-03    -217.699E-03     86.9965E-03    -226.797E-03     443.838E-03    -217.519E-03     76.0971E-03
            2186     4.34780E-03     20.9877E-03    -96.4737E+06    -143.568E+06    -41.6165E+06     146.447E+03    -222.541E-03     439.246E-03    -216.705E-03     73.9124E-03    -223.603E-03     439.576E-03    -216.565E-03     64.6944E-03
            2187     3.62631E-03     20.8767E-03    -105.491E+06    -167.335E+06    -61.1326E+06     339.385E+03    -219.952E-03     435.759E-03    -215.807E-03     61.0235E-03    -220.732E-03     435.747E-03    -215.717E-03     53.4505E-03
            2188     2.90302E-03     20.7852E-03    -113.822E+06    -191.108E+06    -81.6344E+06     173.890E+03    -217.779E-03     432.801E-03    -215.023E-03     48.4854E-03    -218.324E-03     432.500E-03    -214.989E-03     42.5050E-03
            2189     2.17868E-03     20.7140E-03    -121.254E+06    -216.177E+06    -100.933E+06     173.308E+03    -216.002E-03     430.375E-03    -214.373E-03     36.2917E-03    -216.359E-03     429.826E-03    -214.389E-03     31.8522E-03
            2190     1.45326E-03     20.6630E-03    -127.723E+06    -235.799E+06    -117.286E+06     249.564E+03    -214.583E-03     428.475E-03    -213.892E-03     24.4052E-03    -214.807E-03     427.748E-03    -213.951E-03     21.4405E-03
            2191     726.605E-06     20.6315E-03    -132.174E+06    -245.396E+06    -129.422E+06     638.429E+03    -213.778E-03     427.366E-03    -213.588E-03     13.0250E-03    -213.926E-03     426.549E-03    -213.687E-03     11.4470E-03
            2192     13.6386E-03     22.1222E-03    -4.87002E+06     62.5455E+06     82.8297E+06    -625.096E+03    -231.343E-03     457.690E-03    -226.347E-03     132.880E-03    -234.243E-03     460.555E-03    -226.016E-03     115.890E-03
            2193     12.9250E-03     21.9061E-03    -9.81476E+06     57.6084E+06     81.6512E+06    -274.041E+03    -235.089E-03     461.240E-03    -226.150E-03     158.587E-03    -238.983E-03     465.066E-03    -225.812E-03     138.172E-03
            2194     12.2098E-03     21.6913E-03    -15.3128E+06     49.2719E+06     78.0943E+06    -139.517E+03    -237.333E-03     463.123E-03    -225.791E-03     161.530E-03    -241.326E-03     467.011E-03    -225.449E-03     140.809E-03
            2195     11.4976E-03     21.4579E-03    -20.7540E+06     42.6042E+06     75.7881E+06    -1.25293E+06    -239.416E-03     464.682E-03    -225.266E-03     163.946E-03    -243.520E-03     468.644E-03    -224.919E-03     142.925E-03
            2196     10.7869E-03     21.2252E-03    -24.9641E+06     38.0356E+06     72.6281E+06    -2.01153E+06    -240.597E-03     465.149E-03    -224.553E-03     160.580E-03    -244.552E-03     468.940E-03    -224.208E-03     140.032E-03
            2197     10.0771E-03     20.9903E-03    -29.8657E+06     33.3052E+06     64.1736E+06    -577.828E+03    -240.839E-03     464.480E-03    -223.641E-03     154.953E-03    -244.572E-03     468.040E-03    -223.325E-03     135.119E-03
            2198     9.36724E-03     20.7630E-03    -36.8496E+06     26.7219E+06     53.2637E+06     1.47727E+06    -240.113E-03     462.685E-03    -222.572E-03     147.156E-03    -243.562E-03     465.944E-03    -222.291E-03     128.282E-03
            2199     8.65597E-03     20.5424E-03    -45.0938E+06     17.5959E+06     44.7956E+06     2.53391E+06    -238.719E-03     460.109E-03    -221.390E-03     137.780E-03    -241.841E-03     463.004E-03    -221.126E-03     120.069E-03
            2200     7.94494E-03     20.3329E-03    -52.4476E+06     5.10899E+06     38.2346E+06     1.87387E+06    -236.694E-03     456.802E-03    -220.108E-03     126.922E-03    -239.457E-03     459.287E-03    -219.848E-03     110.492E-03
            2201     7.23241E-03     20.1370E-03    -59.6808E+06    -22.0941E+06     26.3980E+06     404.716E+03    -234.023E-03     452.764E-03    -218.740E-03     115.171E-03    -236.384E-03     454.759E-03    -218.490E-03     100.165E-03
            2202     6.51843E-03     19.9566E-03    -67.7240E+06    -58.4098E+06     10.5954E+06    -226.961E+03    -230.838E-03     448.170E-03    -217.332E-03     102.878E-03    -232.787E-03     449.642E-03    -217.097E-03     89.4178E-03
            2203     5.80204E-03     19.7939E-03    -76.5653E+06    -88.5399E+06    -5.61708E+06    -141.332E+03    -227.350E-03     443.278E-03    -215.928E-03     90.3737E-03    -228.921E-03     444.280E-03    -215.717E-03     78.5335E-03
            2204     5.08357E-03     19.6496E-03    -85.9104E+06    -117.408E+06    -22.7600E+06     170.793E+03    -223.797E-03     438.373E-03    -214.576E-03     77.9470E-03    -225.027E-03     438.947E-03    -214.395E-03     67.7557E-03
            2205     4.36281E-03     19.5243E-03    -95.2085E+06    -143.490E+06    -41.0144E+06     614.721E+03    -220.347E-03     433.662E-03    -213.314E-03     65.7910E-03    -221.281E-03     433.867E-03    -213.173E-03     57.2347E-03
            2206     3.63956E-03     19.4180E-03    -104.175E+06    -165.954E+06    -60.5240E+06     748.552E+03    -217.191E-03     429.366E-03    -212.176E-03     54.0425E-03    -217.879E-03     429.270E-03    -212.087E-03     47.0585E-03
            2207     2.91449E-03     19.3309E-03    -112.919E+06    -190.003E+06    -80.9109E+06     488.181E+03    -214.455E-03     425.653E-03    -211.198E-03     42.7154E-03    -214.940E-03     425.297E-03    -211.164E-03     37.2255E-03
            2208     2.18731E-03     19.2630E-03    -120.651E+06    -216.105E+06    -99.9698E+06     392.374E+03    -212.261E-03     422.677E-03    -210.415E-03     31.7248E-03    -212.583E-03     422.091E-03    -210.427E-03     27.6573E-03
            2209     1.45881E-03     19.2145E-03    -126.428E+06    -235.461E+06    -116.283E+06     462.012E+03    -210.711E-03     420.526E-03    -209.815E-03     21.1230E-03    -210.915E-03     419.781E-03    -209.872E-03     18.4156E-03
            2210     729.806E-06     19.1847E-03    -130.055E+06    -244.064E+06    -127.090E+06     368.809E+03    -209.715E-03     419.074E-03    -209.359E-03     11.2649E-03    -209.853E-03     418.252E-03    -209.452E-03     9.82685E-03
            2211     13.6417E-03     20.6254E-03    -4.35960E+06     63.6925E+06     82.7113E+06     827.285E+03    -233.385E-03     459.632E-03    -226.247E-03     132.629E-03    -236.262E-03     462.480E-03    -225.919E-03     115.592E-03
            2212     12.9261E-03     20.4091E-03    -10.0239E+06     58.2157E+06     80.4989E+06    -441.866E+03    -237.569E-03     463.477E-03    -225.908E-03     155.642E-03    -241.404E-03     467.250E-03    -225.575E-03     135.096E-03
            2213     12.2157E-03     20.1889E-03    -14.8352E+06     49.4491E+06     77.7907E+06    -2.08206E+06    -240.564E-03     465.911E-03    -225.347E-03     156.548E-03    -244.457E-03     469.702E-03    -225.009E-03     135.633E-03
            2214     11.5064E-03     19.9570E-03    -19.4651E+06     43.4877E+06     75.5132E+06    -2.02777E+06    -242.564E-03     467.127E-03    -224.563E-03     157.966E-03    -246.505E-03     470.935E-03    -224.220E-03     136.956E-03
            2215     10.7978E-03     19.7219E-03    -27.1860E+06     39.0885E+06     67.8012E+06    -1.65010E+06    -243.560E-03     467.106E-03    -223.546E-03     154.046E-03    -247.333E-03     470.725E-03    -223.224E-03     133.630E-03
            2216     10.0899E-03     19.4905E-03    -35.5136E+06     30.6568E+06     56.5267E+06    -2.55083E+06    -243.658E-03     465.971E-03    -222.312E-03     147.508E-03    -247.180E-03     469.312E-03    -222.023E-03     127.935E-03
            2217     9.38163E-03     19.2649E-03    -41.2686E+06     21.1447E+06     49.0620E+06    -1.85852E+06    -242.858E-03     463.757E-03    -220.900E-03     138.333E-03    -246.059E-03     466.745E-03    -220.625E-03     119.842E-03
            2218     8.67426E-03     19.0489E-03    -45.0459E+06     16.1822E+06     45.4888E+06    -434.323E+03    -240.980E-03     460.304E-03    -219.324E-03     127.690E-03    -243.832E-03     462.922E-03    -219.054E-03     110.470E-03
            2219     7.96477E-03     18.8444E-03    -50.2133E+06     6.77847E+06     39.9042E+06    -102.767E+03    -238.020E-03     455.642E-03    -217.622E-03     116.178E-03    -240.507E-03     457.861E-03    -217.360E-03     100.381E-03
            2220     7.25369E-03     18.6547E-03    -58.0551E+06    -20.3870E+06     27.2550E+06     395.660E+03    -234.332E-03     450.183E-03    -215.851E-03     104.164E-03    -236.435E-03     451.930E-03    -215.601E-03     89.9070E-03
            2221     6.53980E-03     18.4815E-03    -67.2784E+06    -57.2031E+06     10.5749E+06     847.970E+03    -230.200E-03     444.267E-03    -214.068E-03     92.0316E-03    -231.921E-03     445.517E-03    -213.834E-03     79.3881E-03
            2222     5.82333E-03     18.3259E-03    -76.5815E+06    -87.3900E+06    -5.72568E+06     704.519E+03    -225.873E-03     438.190E-03    -212.318E-03     79.9435E-03    -227.251E-03     439.004E-03    -212.108E-03     68.9224E-03
            2223     5.10379E-03     18.1886E-03    -85.6382E+06    -116.642E+06    -22.8886E+06     621.163E+03    -221.562E-03     432.209E-03    -210.648E-03     68.1894E-03    -222.634E-03     432.630E-03    -210.469E-03     58.7747E-03
            2224     4.38121E-03     18.0700E-03    -94.3995E+06    -143.063E+06    -40.7411E+06     688.851E+03    -217.443E-03     426.541E-03    -209.098E-03     57.0147E-03    -218.255E-03     426.627E-03    -208.957E-03     49.1563E-03
            2225     3.65603E-03     17.9698E-03    -102.875E+06    -164.969E+06    -59.4585E+06     892.164E+03    -213.671E-03     421.375E-03    -207.705E-03     46.4391E-03    -214.270E-03     421.196E-03    -207.613E-03     40.0673E-03
            2226     2.92805E-03     17.8880E-03    -110.884E+06    -188.656E+06    -79.2877E+06     996.264E+03    -210.411E-03     416.918E-03    -206.508E-03     36.3983E-03    -210.835E-03     416.508E-03    -206.470E-03     31.4216E-03
            2227     2.19817E-03     17.8245E-03    -118.322E+06    -215.014E+06    -97.8090E+06     618.336E+03    -207.814E-03     413.351E-03    -205.538E-03     26.8318E-03    -208.096E-03     412.733E-03    -205.544E-03     23.1594E-03
            2228     1.46664E-03     17.7788E-03    -124.691E+06    -234.576E+06    -113.829E+06    -1.09816E+03    -205.907E-03     410.689E-03    -204.782E-03     17.7551E-03    -206.092E-03     409.927E-03    -204.830E-03     15.3139E-03
            2229     733.776E-06     17.7508E-03    -128.771E+06    -243.768E+06    -125.851E+06    -290.366E+03    -204.559E-03     408.841E-03    -204.282E-03     9.19585E-03    -204.688E-03     408.011E-03    -204.371E-03     7.87388E-03
            2230     13.6442E-03     19.1322E-03    -4.40509E+06     64.0951E+06     83.8400E+06     410.719E+03    -237.836E-03     463.893E-03    -226.058E-03     133.421E-03    -240.761E-03     466.788E-03    -225.725E-03     115.935E-03
            2231     12.9339E-03     18.9043E-03    -8.62019E+06     61.1820E+06     83.2705E+06    -466.441E+03    -241.559E-03     467.035E-03    -225.477E-03     155.226E-03    -245.414E-03     470.836E-03    -225.136E-03     134.295E-03
            2232     12.2254E-03     18.6850E-03    -14.8390E+06     52.5729E+06     80.1450E+06    -570.816E+03    -244.236E-03     468.897E-03    -224.662E-03     154.881E-03    -248.071E-03     472.635E-03    -224.316E-03     133.906E-03
            2233     11.5182E-03     18.4513E-03    -22.3442E+06     42.7066E+06     74.5774E+06    -675.327E+03    -246.706E-03     470.281E-03    -223.576E-03     154.678E-03    -250.531E-03     473.963E-03    -223.232E-03     133.730E-03
            2234     10.8126E-03     18.2181E-03    -28.2489E+06     37.3142E+06     65.5435E+06    -906.543E+03    -247.661E-03     469.850E-03    -222.189E-03     147.866E-03    -251.254E-03     473.286E-03    -221.875E-03     127.564E-03
            2235     10.1073E-03     17.9883E-03    -33.3683E+06     32.7628E+06     56.8516E+06    -859.899E+03    -247.352E-03     467.897E-03    -220.544E-03     138.523E-03    -250.634E-03     471.012E-03    -220.259E-03     119.232E-03
            2236     9.40325E-03     17.7658E-03    -40.0835E+06     22.8855E+06     49.1033E+06    -3.38115E+06    -245.805E-03     464.490E-03    -218.685E-03     127.820E-03    -248.744E-03     467.227E-03    -218.415E-03     109.726E-03
            2237     8.69729E-03     17.5553E-03    -47.6278E+06     13.7732E+06     42.1704E+06    -5.55155E+06    -242.985E-03     459.634E-03    -216.649E-03     116.471E-03    -245.578E-03     461.986E-03    -216.389E-03     99.7456E-03
            2238     7.99005E-03     17.3583E-03    -54.7670E+06     2.05162E+06      35.107E+06    -3.85400E+06    -239.026E-03     453.524E-03    -214.499E-03     104.613E-03    -241.263E-03     455.474E-03    -214.247E-03     89.4669E-03
            2239     7.27954E-03     17.1772E-03    -61.7927E+06    -22.5670E+06     23.8614E+06    -1.09287E+06    -234.332E-03     446.630E-03    -212.299E-03     92.4368E-03    -236.202E-03     448.134E-03    -212.057E-03     78.9551E-03
            2240     6.56599E-03     17.0128E-03    -69.0247E+06    -56.2807E+06     9.22905E+06     119.841E+03    -229.264E-03     439.371E-03    -210.106E-03     80.3760E-03    -230.777E-03     440.413E-03    -209.879E-03     68.5532E-03
            2241     5.84873E-03     16.8660E-03    -76.5492E+06    -86.0418E+06    -5.88283E+06     247.696E+03    -223.994E-03     431.966E-03    -207.972E-03     68.6868E-03    -225.190E-03     432.603E-03    -207.766E-03     58.4899E-03
            2242     5.12786E-03     16.7376E-03    -84.6426E+06    -115.516E+06    -22.1771E+06     414.797E+03    -218.798E-03     424.750E-03    -205.952E-03     57.6111E-03    -219.720E-03     425.026E-03    -205.772E-03     48.9828E-03
            2243     4.40350E-03     16.6270E-03    -93.2545E+06    -142.396E+06    -40.0010E+06     561.128E+03    -213.869E-03     417.957E-03    -204.088E-03     47.4368E-03    -214.565E-03     417.932E-03    -203.947E-03     40.2886E-03
            2244     3.67547E-03     16.5343E-03    -101.985E+06    -164.569E+06    -59.0427E+06     693.233E+03    -209.406E-03     411.828E-03    -202.422E-03     38.1702E-03    -209.923E-03     411.569E-03    -202.331E-03     32.4120E-03
            2245     2.94457E-03     16.4588E-03    -110.338E+06    -187.926E+06    -78.7497E+06     1.11164E+06    -205.578E-03     406.575E-03    -200.996E-03     29.6208E-03    -205.950E-03     406.114E-03    -200.958E-03     25.1543E-03
            2246     2.21086E-03     16.4003E-03    -117.933E+06    -212.169E+06    -97.3222E+06     969.884E+03    -202.485E-03     402.329E-03    -199.844E-03     21.8069E-03    -202.742E-03     401.694E-03    -199.852E-03     18.5321E-03
            2247     1.47512E-03     16.3585E-03    -124.127E+06    -233.172E+06    -113.285E+06    -90.6109E+03    -200.168E-03     399.161E-03    -198.993E-03     14.4347E-03    -200.341E-03     398.391E-03    -199.041E-03     12.2579E-03
            2248     737.838E-06     16.3337E-03    -127.972E+06    -244.871E+06    -124.967E+06    -774.719E+03    -198.762E-03     397.217E-03    -198.455E-03     7.44037E-03    -198.883E-03     396.375E-03    -198.539E-03     6.25746E-03
            2249     13.6461E-03     17.6175E-03    -4.09704E+06     65.1553E+06     84.4206E+06     63.7158E+03    -242.097E-03     467.900E-03    -225.803E-03     133.659E-03    -245.053E-03     470.828E-03    -225.470E-03     115.791E-03
            2250     12.9407E-03     17.4003E-03    -10.4366E+06     59.6316E+06     81.5071E+06    -978.351E+03    -246.029E-03     470.991E-03    -224.963E-03     155.513E-03    -249.914E-03     474.815E-03    -224.627E-03     134.173E-03
            2251     12.2334E-03     17.1747E-03    -15.0998E+06     51.4184E+06     78.9151E+06     876.428E+03    -249.377E-03     473.215E-03    -223.837E-03     153.810E-03    -253.175E-03     476.913E-03    -223.496E-03     132.601E-03
            2252     11.5308E-03     16.9400E-03    -19.4965E+06     45.1228E+06     76.9003E+06     50.6726E+03    -252.134E-03     474.501E-03    -222.368E-03     149.932E-03    -255.861E-03     478.097E-03    -222.020E-03     128.715E-03
            2253     10.8302E-03     16.7079E-03    -24.4335E+06     37.6545E+06     71.7676E+06    -2.22581E+06    -252.944E-03     473.481E-03    -220.537E-03     140.826E-03    -256.369E-03     476.746E-03    -220.198E-03     120.472E-03
            2254     10.1308E-03     16.4821E-03    -29.7881E+06     32.5377E+06     63.4172E+06    -1.89397E+06    -251.858E-03     470.249E-03    -218.391E-03     130.053E-03    -254.931E-03     473.150E-03    -218.078E-03     110.947E-03
            2255     9.42902E-03     16.2665E-03    -35.9864E+06     27.4083E+06     53.2772E+06    -625.149E+03    -249.090E-03     465.095E-03    -216.004E-03     118.093E-03    -251.793E-03     467.615E-03    -215.726E-03     100.470E-03
            2256     8.72593E-03     16.0633E-03    -44.5894E+06     17.0668E+06     42.6502E+06    -1.55990E+06    -245.038E-03     458.497E-03    -213.458E-03     105.357E-03    -247.381E-03     460.620E-03    -213.205E-03     89.2801E-03
            2257     8.01954E-03     15.8760E-03    -54.0422E+06     304.334E+03     32.9314E+06    -3.55495E+06    -240.002E-03     450.825E-03    -210.823E-03     92.5242E-03    -241.994E-03     452.533E-03    -210.580E-03     78.0721E-03
            2258     7.30999E-03     15.7050E-03    -61.7344E+06    -25.4819E+06     21.6818E+06    -3.86463E+06    -234.299E-03     442.450E-03    -208.150E-03     79.8828E-03    -235.942E-03     443.722E-03    -207.915E-03     67.1227E-03
            2259     6.59642E-03     15.5514E-03    -68.5837E+06    -57.4452E+06     7.99380E+06    -2.58509E+06    -228.114E-03     433.616E-03    -205.502E-03     67.7158E-03    -229.425E-03     434.458E-03    -205.279E-03     56.6467E-03
            2260     5.87852E-03     15.4159E-03    -76.2563E+06    -86.8224E+06    -6.93469E+06    -978.622E+03    -221.711E-03     424.656E-03    -202.946E-03     56.5228E-03    -222.739E-03     425.126E-03    -202.744E-03     47.0939E-03
            2261     5.15607E-03     15.2977E-03    -84.5192E+06    -114.692E+06    -22.8073E+06    -86.1251E+03    -215.459E-03     416.011E-03    -200.552E-03     46.4549E-03    -216.252E-03     416.162E-03    -200.377E-03     38.5629E-03
            2262     4.42902E-03     15.1974E-03    -93.1106E+06    -141.987E+06    -40.4486E+06     240.430E+03    -209.638E-03     408.008E-03    -198.370E-03     37.5762E-03    -210.236E-03     407.888E-03    -198.231E-03     31.1030E-03
            2263     3.69793E-03     15.1133E-03    -101.747E+06    -164.768E+06    -59.7404E+06     1.09402E+06    -204.423E-03     400.862E-03    -196.439E-03     29.8224E-03    -204.870E-03     400.534E-03    -196.351E-03     24.6592E-03
            2264     2.96303E-03     15.0454E-03    -109.771E+06    -186.980E+06    -79.3104E+06     1.71075E+06    -199.979E-03     394.785E-03    -194.806E-03     22.8974E-03    -200.306E-03     394.286E-03    -194.772E-03     18.9262E-03
            2265     2.22510E-03     14.9932E-03    -116.906E+06    -208.918E+06    -98.4826E+06     1.29801E+06    -196.420E-03     389.925E-03    -193.504E-03     16.6882E-03    -196.650E-03     389.280E-03    -193.524E-03     13.7923E-03
            2266     1.48467E-03     14.9558E-03    -122.751E+06    -230.986E+06    -114.229E+06     140.015E+03    -193.836E-03     386.411E-03    -192.575E-03     10.8155E-03    -193.991E-03     385.638E-03    -192.633E-03     8.89539E-03
            2267     742.711E-06     14.9335E-03    -126.509E+06    -246.222E+06    -124.454E+06    -332.497E+03    -192.267E-03     384.350E-03    -192.082E-03     5.68501E-03    -192.377E-03     383.494E-03    -192.164E-03     4.65296E-03
            2268     13.6536E-03     16.1122E-03    -4.83903E+06     64.6002E+06     84.3548E+06     751.369E+03    -247.141E-03     472.668E-03    -225.527E-03     134.800E-03    -250.135E-03     475.630E-03    -225.192E-03     116.509E-03
            2269     12.9452E-03     15.8850E-03    -7.86509E+06     61.9810E+06     83.4505E+06     1.80077E+06    -251.742E-03     476.119E-03    -224.377E-03     154.843E-03    -255.652E-03     479.979E-03    -224.038E-03     132.973E-03
            2270     12.2469E-03     15.6572E-03    -13.0854E+06     51.4436E+06     79.2194E+06    -1.11062E+06    -255.958E-03     478.803E-03    -222.845E-03     150.916E-03    -259.749E-03     482.501E-03    -222.505E-03     129.026E-03
            2271     11.5492E-03     15.4227E-03    -18.2242E+06     46.9623E+06     78.0932E+06    -1.71839E+06    -258.217E-03     479.123E-03    -220.907E-03     145.057E-03    -261.862E-03     482.645E-03    -220.558E-03     123.508E-03
            2272     10.8526E-03     15.1922E-03    -24.9368E+06     41.3020E+06     71.6951E+06    -1.25577E+06    -258.286E-03     476.857E-03    -218.571E-03     133.996E-03    -261.576E-03     479.999E-03    -218.236E-03     113.649E-03
            2273     10.1551E-03     14.9726E-03    -32.6471E+06     31.6553E+06     59.5522E+06    -2.95675E+06    -256.429E-03     472.322E-03    -215.893E-03     121.374E-03    -259.333E-03     475.053E-03    -215.594E-03     102.436E-03
            2274     9.45765E-03     14.7649E-03    -38.6467E+06     24.4675E+06     50.2871E+06    -3.11683E+06    -252.785E-03     465.753E-03    -212.968E-03     107.749E-03    -255.300E-03     468.074E-03    -212.696E-03     90.4085E-03
            2275     8.75704E-03     14.5727E-03    -42.5634E+06     17.4485E+06     43.9046E+06    -1.28251E+06    -247.604E-03     457.479E-03    -209.875E-03     93.5365E-03    -249.735E-03     459.396E-03    -209.619E-03     77.9317E-03
            2276     8.05304E-03     14.3970E-03    -47.8492E+06     5.09827E+06     36.4567E+06    -875.999E+03    -241.274E-03     447.964E-03    -206.690E-03     79.5644E-03    -243.046E-03     449.481E-03    -206.446E-03     65.7255E-03
            2277     7.34459E-03     14.2386E-03    -56.4334E+06    -23.8493E+06     23.1256E+06    -2.16873E+06    -234.147E-03     437.640E-03    -203.493E-03     66.6300E-03    -235.581E-03     438.725E-03    -203.261E-03     54.5413E-03
            2278     6.63106E-03     14.0987E-03    -66.1727E+06    -59.4558E+06     6.95000E+06    -1.94794E+06    -226.619E-03     426.987E-03    -200.367E-03     54.9253E-03    -227.754E-03     427.658E-03    -200.151E-03     44.5471E-03
            2279     5.91197E-03     13.9763E-03    -75.3829E+06    -88.3060E+06    -8.77681E+06    -641.654E+03    -218.993E-03     416.381E-03    -197.388E-03     44.5580E-03    -219.881E-03     416.715E-03    -197.194E-03     35.8090E-03
            2280     5.18715E-03     13.8714E-03    -84.2104E+06    -114.063E+06    -25.0666E+06     93.7674E+03    -211.626E-03     406.253E-03    -194.627E-03     35.6264E-03    -212.312E-03     406.309E-03    -194.465E-03     28.3830E-03
            2281     4.45711E-03     13.7822E-03    -92.9498E+06    -141.733E+06    -41.9851E+06     579.688E+03    -204.893E-03     397.041E-03    -192.148E-03     28.0165E-03    -205.413E-03     396.848E-03    -192.017E-03     22.1372E-03
            2282     3.72218E-03     13.7087E-03    -101.283E+06    -165.203E+06    -60.5522E+06     1.16192E+06    -198.919E-03     388.897E-03    -189.977E-03     21.6396E-03    -199.310E-03     388.515E-03    -189.894E-03     16.9881E-03
            2283     2.98299E-03     13.6493E-03    -108.515E+06    -185.829E+06    -80.2952E+06     1.67937E+06    -193.881E-03     382.038E-03    -188.157E-03     16.2619E-03    -194.167E-03     381.509E-03    -188.132E-03     12.7137E-03
            2284     2.24033E-03     13.6039E-03    -114.560E+06    -206.403E+06    -98.9507E+06     1.81060E+06    -189.942E-03     376.666E-03    -186.723E-03     11.6441E-03    -190.144E-03     376.012E-03    -186.753E-03     9.08119E-03
            2285     1.49511E-03     13.5715E-03    -119.237E+06    -228.340E+06    -112.714E+06     1.62492E+06    -187.140E-03     372.842E-03    -185.702E-03     7.48696E-03    -187.275E-03     372.066E-03    -185.762E-03     5.81250E-03
            2286     748.037E-06     13.5521E-03    -122.503E+06    -245.309E+06    -120.929E+06     1.00008E+06    -185.385E-03     370.535E-03    -185.149E-03     3.91423E-03    -185.478E-03     369.669E-03    -185.221E-03     3.01654E-03
            2287     13.6523E-03     14.5923E-03    -5.00980E+06     63.2108E+06     83.3898E+06    -1.35868E+06    -253.325E-03     478.591E-03    -225.267E-03     136.993E-03    -256.447E-03     481.678E-03    -224.934E-03     117.778E-03
            2288     12.9578E-03     14.3616E-03    -7.57669E+06     63.5578E+06     85.6581E+06    -999.416E+03    -259.526E-03     483.264E-03    -223.738E-03     156.685E-03    -263.566E-03     487.255E-03    -223.391E-03     133.848E-03
            2289     12.2603E-03     14.1316E-03    -11.3580E+06     52.7579E+06     82.3281E+06    -196.890E+03    -263.356E-03     485.095E-03    -221.739E-03     150.280E-03    -267.178E-03     488.826E-03    -221.388E-03     127.788E-03
            2290     11.5673E-03     13.8963E-03    -18.6713E+06     45.3375E+06     77.4166E+06     688.934E+03    -265.196E-03     484.470E-03    -219.274E-03     140.690E-03    -268.779E-03     487.924E-03    -218.925E-03     118.850E-03
            2291     10.8754E-03     13.6720E-03    -25.3153E+06     44.4120E+06     70.6103E+06     431.737E+03    -264.280E-03     480.655E-03    -216.375E-03     126.337E-03    -267.462E-03     483.703E-03    -216.050E-03     105.858E-03
            2292     10.1839E-03     13.4588E-03    -31.1683E+06     36.5798E+06     58.7495E+06    -1.19222E+06    -261.379E-03     474.496E-03    -213.117E-03     111.108E-03    -264.137E-03     477.106E-03    -212.831E-03     92.1893E-03
            2293     9.48942E-03     13.2621E-03    -37.6440E+06     25.2608E+06     48.6824E+06    -3.95268E+06    -256.562E-03     466.169E-03    -209.607E-03     95.5688E-03    -258.910E-03     468.336E-03    -209.346E-03     78.3528E-03
            2294     8.79202E-03     13.0823E-03    -44.8974E+06     14.3465E+06     41.0795E+06    -5.14569E+06    -249.991E-03     455.930E-03    -205.939E-03     80.5457E-03    -251.959E-03     457.675E-03    -205.689E-03     65.1850E-03
            2295     8.09012E-03     12.9212E-03    -51.7173E+06     3.21471E+06     33.1658E+06    -3.56071E+06    -242.092E-03     444.301E-03    -202.209E-03     66.6858E-03    -243.722E-03     445.666E-03    -201.973E-03     53.2366E-03
            2296     7.38213E-03     12.7794E-03    -58.5478E+06    -23.0454E+06     20.5497E+06    -681.176E+03    -233.481E-03     432.003E-03    -198.521E-03     54.3289E-03    -234.790E-03     432.966E-03    -198.300E-03     42.7598E-03
            2297     6.66769E-03     12.6551E-03    -66.7576E+06    -59.2266E+06     4.27264E+06     590.045E+03    -224.639E-03     419.605E-03    -194.966E-03     43.4281E-03    -225.662E-03     420.171E-03    -194.762E-03     33.6089E-03
            2298     5.94684E-03     12.5488E-03    -75.4055E+06    -88.1028E+06    -11.5951E+06     753.007E+03    -215.898E-03     407.510E-03    -191.612E-03     33.9788E-03    -216.693E-03     407.761E-03    -191.433E-03     25.7565E-03
            2299     5.21966E-03     12.4584E-03    -84.0242E+06    -113.831E+06    -27.9614E+06     1.35096E+06    -207.578E-03     396.106E-03    -188.528E-03     26.1688E-03    -208.193E-03     396.100E-03    -188.381E-03     19.4048E-03
            2300     4.48630E-03     12.3829E-03    -92.6584E+06    -140.237E+06    -44.6738E+06     1.76695E+06    -199.985E-03     385.761E-03    -185.775E-03     19.8189E-03    -200.454E-03     385.532E-03    -185.661E-03     14.3642E-03
            2301     3.74747E-03     12.3208E-03    -101.003E+06    -164.235E+06    -61.7977E+06     1.40358E+06    -193.337E-03     376.726E-03    -183.389E-03     14.6549E-03    -193.693E-03     376.318E-03    -183.313E-03     10.3502E-03
            2302     3.00385E-03     12.2714E-03    -109.050E+06    -185.470E+06    -80.5436E+06     1.60865E+06    -187.763E-03     369.155E-03    -181.392E-03     10.5826E-03    -188.031E-03     368.609E-03    -181.368E-03     7.30996E-03
            2303     2.25627E-03     12.2333E-03    -115.742E+06    -205.138E+06    -99.1004E+06     2.28798E+06    -183.385E-03     363.201E-03    -179.816E-03     7.24836E-03    -183.583E-03     362.544E-03    -179.846E-03     4.90365E-03
            2304     1.50569E-03     12.2064E-03    -120.664E+06    -225.257E+06    -113.034E+06     2.41867E+06    -180.290E-03     358.978E-03    -178.688E-03     4.49557E-03    -180.431E-03     358.214E-03    -178.751E-03     2.97748E-03
            2305     753.350E-06     12.1899E-03    -123.939E+06    -240.956E+06    -121.241E+06     1.44273E+06    -178.473E-03     356.405E-03    -177.932E-03     2.21931E-03    -178.577E-03     355.562E-03    -178.009E-03     1.40911E-03
            2306     13.6585E-03     13.0580E-03    -2.28760E+06     66.8835E+06     86.2544E+06    -429.577E+03    -259.335E-03     484.291E-03    -224.957E-03     139.084E-03    -262.536E-03     487.471E-03    -224.619E-03     119.248E-03
            2307     12.9620E-03     12.8280E-03    -10.7259E+06     61.4843E+06     82.2738E+06    -3.99178E+06    -267.385E-03     490.405E-03    -223.020E-03     155.961E-03    -271.492E-03     494.453E-03    -222.682E-03     132.272E-03
            2308     12.2741E-03     12.5932E-03    -17.2529E+06     47.6102E+06     76.8002E+06    -2.98561E+06    -271.651E-03     492.154E-03    -220.502E-03     146.362E-03    -275.485E-03     495.873E-03    -220.162E-03     123.137E-03
            2309     11.5882E-03     12.3622E-03    -19.6781E+06     44.0365E+06     76.9241E+06    -1.89500E+06    -272.548E-03     490.019E-03    -217.471E-03     133.571E-03    -276.091E-03     493.427E-03    -217.122E-03     111.123E-03
            2310     10.9026E-03     12.1435E-03    -22.3933E+06     44.8574E+06     73.9938E+06    -2.06740E+06    -270.724E-03     484.705E-03    -213.980E-03     117.242E-03    -273.828E-03     487.677E-03    -213.643E-03     96.3158E-03
            2311     10.2147E-03     11.9413E-03    -26.7311E+06     37.8278E+06     63.9849E+06    -1.35364E+06    -266.461E-03     476.580E-03    -210.118E-03     100.293E-03    -269.109E-03     479.086E-03    -209.815E-03     81.1835E-03
            2312     9.52468E-03     11.7571E-03    -33.1987E+06     28.9734E+06     52.5653E+06    -221.257E+03    -259.817E-03     465.836E-03    -206.019E-03     83.6752E-03    -262.037E-03     467.894E-03    -205.750E-03     66.5570E-03
            2313     8.82967E-03     11.5939E-03    -41.7793E+06     17.3183E+06     40.3100E+06    -947.505E+03    -251.336E-03     453.154E-03    -201.818E-03     68.7401E-03    -253.183E-03     454.802E-03    -201.581E-03     53.6318E-03
            2314     8.12776E-03     11.4510E-03    -51.5953E+06     303.175E+03     28.2428E+06    -1.65957E+06    -241.878E-03     439.521E-03    -197.642E-03     55.6504E-03    -243.400E-03     440.784E-03    -197.427E-03     42.5151E-03
            2315     7.41932E-03     11.3272E-03    -61.1379E+06    -26.4717E+06     14.7210E+06    -189.603E+03    -232.024E-03     425.605E-03    -193.581E-03     44.1302E-03    -233.253E-03     426.485E-03    -193.381E-03     32.8911E-03
            2316     6.70380E-03     11.2220E-03    -69.3031E+06    -57.9900E+06    -171.895E+03     1.66933E+06    -222.034E-03     411.744E-03    -189.711E-03     34.3910E-03    -223.004E-03     412.266E-03    -189.527E-03     24.9092E-03
            2317     5.98080E-03     11.1329E-03    -77.5607E+06    -86.7754E+06    -15.5287E+06     2.24454E+06    -212.353E-03     398.456E-03    -186.102E-03     26.4096E-03    -213.114E-03     398.680E-03    -185.942E-03     18.5004E-03
            2318     5.25067E-03     11.0593E-03    -86.0615E+06    -113.216E+06    -31.3688E+06     2.52981E+06    -203.376E-03     386.187E-03    -182.811E-03     20.0377E-03    -203.971E-03     386.167E-03    -182.679E-03     13.5300E-03
            2319     4.51393E-03     10.9985E-03    -94.2522E+06    -138.123E+06    -47.9499E+06     2.59328E+06    -195.258E-03     375.132E-03    -179.874E-03     14.9596E-03    -195.718E-03     374.907E-03    -179.777E-03     9.70063E-03
            2320     3.77121E-03     10.9493E-03    -102.358E+06    -161.944E+06    -64.5304E+06     2.27252E+06    -188.180E-03     365.507E-03    -177.327E-03     10.8494E-03    -188.533E-03     365.109E-03    -177.267E-03     6.69311E-03
            2321     3.02340E-03     10.9105E-03    -110.234E+06    -184.985E+06    -80.6671E+06     2.01390E+06    -182.254E-03     357.445E-03    -175.191E-03     7.59396E-03    -182.524E-03     356.900E-03    -175.167E-03     4.42020E-03
            2322     2.27146E-03     10.8808E-03    -117.035E+06    -204.453E+06    -97.0741E+06     2.40282E+06    -177.494E-03     350.974E-03    -173.480E-03     5.02074E-03    -177.700E-03     350.318E-03    -173.499E-03     2.73709E-03
            2323     1.51626E-03     10.8599E-03    -122.528E+06    -221.619E+06    -112.592E+06     2.44997E+06    -174.026E-03     346.248E-03    -172.222E-03     3.05292E-03    -174.181E-03     345.505E-03    -172.286E-03     1.56862E-03
            2324     758.750E-06     10.8470E-03    -126.077E+06    -235.523E+06    -123.733E+06     1.52804E+06    -172.031E-03     343.354E-03    -171.324E-03     1.47096E-03    -172.149E-03     342.546E-03    -171.418E-03     680.544E-06
            2325     13.6630E-03     11.5268E-03    -4.17919E+06     67.8837E+06     86.1354E+06    -154.201E+03    -268.119E-03     492.660E-03    -224.541E-03     142.210E-03    -271.449E-03     495.965E-03    -224.203E-03     121.468E-03
            2326     12.9760E-03     11.2789E-03    -7.71850E+06     66.4640E+06     84.6683E+06     734.532E+03    -275.784E-03     497.903E-03    -222.119E-03     153.872E-03    -279.949E-03     502.031E-03    -221.781E-03     129.381E-03
            2327     12.2933E-03     11.0460E-03    -12.9812E+06     51.8321E+06     78.6894E+06    -2.49656E+06    -279.458E-03     498.523E-03    -219.065E-03     140.926E-03    -283.294E-03     502.270E-03    -218.728E-03     116.929E-03
            2328     11.6118E-03     10.8184E-03    -18.5363E+06     44.4369E+06     76.9708E+06    -5.69744E+06    -279.694E-03     495.161E-03    -215.466E-03     126.652E-03    -283.232E-03     498.569E-03    -215.119E-03     103.473E-03
            2329     10.9306E-03     10.6084E-03    -24.2913E+06     40.9175E+06     71.9408E+06    -5.93278E+06    -276.668E-03     488.059E-03    -211.391E-03     108.087E-03    -279.738E-03     490.984E-03    -211.055E-03     86.6144E-03
            2330     10.2481E-03     10.4188E-03    -29.8517E+06     31.7458E+06     61.0419E+06    -3.78157E+06    -270.382E-03     477.359E-03    -206.977E-03     89.7504E-03    -272.970E-03     479.782E-03    -206.674E-03     70.3792E-03
            2331     9.56021E-03     10.2523E-03    -35.1648E+06     25.6079E+06     49.9381E+06    -682.287E+03    -261.471E-03     463.877E-03    -202.407E-03     73.1778E-03    -263.624E-03     465.858E-03    -202.143E-03     56.0487E-03
            2332     8.86528E-03     10.1093E-03    -40.9540E+06     16.7645E+06     38.0529E+06     2.86472E+06    -251.191E-03     449.026E-03    -197.835E-03     58.9673E-03    -252.969E-03     450.613E-03    -197.610E-03     44.0382E-03
            2333     8.16356E-03     9.98664E-03    -49.2054E+06     1.53821E+06     25.7433E+06     5.42948E+06    -240.255E-03     433.638E-03    -193.383E-03     47.0765E-03    -241.716E-03     434.860E-03    -193.185E-03     34.2259E-03
            2334     7.45370E-03     9.88387E-03    -59.5348E+06    -24.7668E+06     11.9335E+06     5.50434E+06    -229.116E-03     418.260E-03    -189.145E-03     37.4370E-03    -230.307E-03     419.121E-03    -188.963E-03     26.4789E-03
            2335     6.73556E-03     9.79873E-03    -69.9652E+06    -55.8706E+06    -2.71274E+06     4.48108E+06    -218.275E-03     403.464E-03    -185.188E-03     29.8668E-03    -219.239E-03     403.992E-03    -185.020E-03     20.5984E-03
            2336     6.00940E-03     9.72939E-03    -79.1516E+06    -84.5372E+06    -17.6377E+06     3.92408E+06    -208.121E-03     389.679E-03    -181.558E-03     24.0059E-03    -208.895E-03     389.926E-03    -181.409E-03     16.2517E-03
            2337     5.27576E-03     9.67267E-03    -87.5786E+06    -111.499E+06    -32.9608E+06     3.50164E+06    -198.965E-03     377.249E-03    -178.283E-03     19.3224E-03    -199.581E-03     377.255E-03    -178.159E-03     12.9125E-03
            2338     4.53559E-03     9.62743E-03    -95.8124E+06    -136.278E+06    -48.7410E+06     3.22876E+06    -190.862E-03     366.237E-03    -175.375E-03     15.4554E-03    -191.347E-03     366.041E-03    -175.283E-03     10.2399E-03
            2339     3.78944E-03     9.59161E-03    -103.852E+06    -159.563E+06    -65.3908E+06     2.87801E+06    -183.824E-03     356.671E-03    -172.846E-03     12.2291E-03    -184.203E-03     356.304E-03    -172.792E-03     8.08345E-03
            2340     3.03828E-03     9.56369E-03    -111.382E+06    -182.539E+06    -81.6671E+06     1.95010E+06    -177.905E-03     348.624E-03    -170.719E-03     9.40230E-03    -178.195E-03     348.107E-03    -170.701E-03     6.20793E-03
            2341     2.28276E-03     9.54332E-03    -117.943E+06    -203.691E+06    -97.2765E+06     1.05231E+06    -173.142E-03     342.152E-03    -169.010E-03     6.91767E-03    -173.361E-03     341.511E-03    -169.030E-03     4.58605E-03
            2342     1.52376E-03     9.52887E-03    -122.470E+06    -219.664E+06    -112.057E+06     1.46734E+06    -169.620E-03     337.359E-03    -167.739E-03     4.62653E-03    -169.782E-03     336.631E-03    -167.803E-03     3.10477E-03
            2343     762.446E-06     9.52036E-03    -125.836E+06    -230.672E+06    -122.738E+06     1.83271E+06    -167.491E-03     334.378E-03    -166.887E-03     2.54135E-03    -167.618E-03     333.595E-03    -166.983E-03     1.74197E-03
            2344     13.6701E-03     9.96954E-03    -6.29954E+06     66.8526E+06     82.6194E+06    -2.90345E+06    -278.496E-03     502.546E-03    -224.049E-03     144.576E-03    -281.992E-03     506.016E-03    -223.724E-03     122.599E-03
            2345     12.9901E-03     9.72232E-03    -9.53330E+06     67.1716E+06     83.1814E+06    -2.48010E+06    -284.944E-03     506.037E-03    -221.093E-03     154.863E-03    -289.292E-03     510.349E-03    -220.761E-03     129.157E-03
            2346     12.3117E-03     9.48841E-03    -11.2793E+06     56.8878E+06     81.4265E+06    -1.39844E+06    -287.659E-03     505.157E-03    -217.498E-03     137.881E-03    -291.580E-03     509.005E-03    -217.157E-03     113.013E-03
            2347     11.6367E-03     9.26558E-03    -17.9465E+06     47.2283E+06     76.4542E+06    -1.79897E+06    -286.748E-03     500.063E-03    -213.315E-03     118.915E-03    -290.300E-03     503.501E-03    -212.975E-03     94.9930E-03
            2348     10.9611E-03     9.06707E-03    -26.1633E+06     41.4871E+06     66.2551E+06    -3.07789E+06    -281.107E-03     489.792E-03    -208.685E-03     97.6421E-03    -284.139E-03     492.691E-03    -208.376E-03     75.7340E-03
            2349     10.2804E-03     8.89495E-03    -34.1682E+06     29.3750E+06     50.9264E+06    -3.88335E+06    -271.819E-03     475.662E-03    -203.843E-03     78.8543E-03    -274.346E-03     478.030E-03    -203.581E-03     59.3499E-03
            2350     9.59292E-03     8.75102E-03    -40.9004E+06     18.1755E+06     38.9754E+06    -2.36673E+06    -260.560E-03     459.576E-03    -199.016E-03     63.6335E-03    -262.653E-03     461.481E-03    -198.788E-03     46.5920E-03
            2351     8.89785E-03     8.62949E-03    -47.4942E+06     7.87705E+06     30.0543E+06     2.30455E+06    -248.445E-03     442.789E-03    -194.344E-03     51.7730E-03    -250.186E-03     444.307E-03    -194.136E-03     37.0829E-03
            2352     8.19350E-03     8.53079E-03    -54.1355E+06    -2.37672E+06      21.816E+06     7.79188E+06    -235.990E-03     425.916E-03    -189.927E-03     42.9134E-03    -237.447E-03     427.114E-03    -189.736E-03     30.3865E-03
            2353     7.47987E-03     8.45050E-03    -61.4160E+06    -20.1847E+06     11.6839E+06     10.3951E+06    -223.945E-03     409.794E-03    -185.849E-03     36.5331E-03    -225.163E-03     410.691E-03    -185.672E-03     25.9009E-03
            2354     6.75747E-03     8.38690E-03    -70.0392E+06    -48.9208E+06    -1.25444E+06     8.66299E+06    -212.924E-03     395.075E-03    -182.151E-03     31.7618E-03    -213.929E-03     395.664E-03    -181.985E-03     22.7500E-03
            2355     6.02709E-03     8.33651E-03    -79.1649E+06    -80.4714E+06    -15.7387E+06     5.89417E+06    -203.084E-03     381.920E-03    -178.836E-03     28.0829E-03    -203.903E-03     382.221E-03    -178.684E-03     20.4966E-03
            2356     5.28967E-03     8.29699E-03    -88.0765E+06    -108.994E+06    -30.6728E+06     4.69022E+06    -194.385E-03     370.288E-03    -175.903E-03     24.9975E-03    -195.047E-03     370.341E-03    -175.770E-03     18.6985E-03
            2357     4.54584E-03     8.26637E-03    -96.8527E+06    -133.883E+06    -46.1347E+06     3.81484E+06    -186.876E-03     360.224E-03    -173.349E-03     22.1498E-03    -187.408E-03     360.073E-03    -173.245E-03     17.0037E-03
            2358     3.79680E-03     8.24322E-03    -105.256E+06    -156.716E+06    -62.2570E+06     2.60284E+06    -180.528E-03     351.701E-03    -171.172E-03     19.3880E-03    -180.951E-03     351.375E-03    -171.104E-03     15.2768E-03
            2359     3.04301E-03     8.22615E-03    -112.930E+06    -178.743E+06    -80.2176E+06     769.333E+03    -175.330E-03     344.701E-03    -169.370E-03     16.3854E-03    -175.657E-03     344.225E-03    -169.348E-03     13.2029E-03
            2360     2.28557E-03     8.21406E-03    -119.637E+06    -202.925E+06    -97.9036E+06    -743.132E+03    -171.320E-03     339.273E-03    -167.953E-03     12.9813E-03    -171.561E-03     338.652E-03    -167.974E-03     10.6468E-03
            2361     1.52544E-03     8.20606E-03    -125.367E+06    -220.935E+06    -112.984E+06    -752.674E+03    -168.428E-03     335.342E-03    -166.914E-03     9.18516E-03    -168.607E-03     334.620E-03    -166.977E-03     7.64814E-03
            2362     763.316E-06     8.20127E-03    -129.018E+06    -229.079E+06    -124.372E+06    -41.0935E+03    -166.500E-03     332.901E-03    -166.402E-03     5.34869E-03    -166.644E-03     332.135E-03    -166.504E-03     4.53383E-03
            2363     13.6777E-03     8.40241E-03    -3.06081E+06     72.4574E+06     86.1962E+06    -884.590E+03    -289.043E-03     512.638E-03    -223.594E-03     147.595E-03    -292.678E-03     516.268E-03    -223.264E-03     124.564E-03
            2364     13.0015E-03     8.15220E-03    -10.2156E+06     68.0461E+06     81.5743E+06    -3.37895E+06    -295.118E-03     515.177E-03    -220.059E-03     154.806E-03    -299.648E-03     519.676E-03    -219.735E-03     127.692E-03
            2365     12.3325E-03     7.91696E-03    -18.1121E+06     52.4888E+06     73.8735E+06    -3.97316E+06    -297.226E-03     513.053E-03    -215.827E-03     132.718E-03    -301.290E-03     517.028E-03    -215.508E-03     106.345E-03
            2366     11.6640E-03     7.70391E-03    -21.7255E+06     45.4849E+06     71.3938E+06    -2.01458E+06    -292.825E-03     503.881E-03    -211.056E-03     108.480E-03    -296.342E-03     507.281E-03    -210.733E-03     83.8605E-03
            2367     10.9913E-03     7.52225E-03    -26.0136E+06     42.6180E+06     62.7997E+06     145.386E+03    -282.663E-03     488.674E-03    -206.011E-03     85.6470E-03    -285.562E-03     491.456E-03    -205.721E-03     63.7926E-03
            2368     10.3113E-03     7.37559E-03    -32.7942E+06     30.5851E+06     47.6845E+06     1.40694E+06    -269.633E-03     470.628E-03    -200.995E-03     68.3479E-03    -272.011E-03     472.867E-03    -200.754E-03     49.3499E-03
            2369     9.62182E-03     7.25519E-03    -42.3825E+06     14.5707E+06     33.7625E+06     3.11811E+06    -255.621E-03     451.851E-03    -196.230E-03     56.7992E-03    -257.604E-03     453.644E-03    -196.021E-03     40.4774E-03
            2370     8.92184E-03     7.16052E-03    -51.8465E+06     1.76435E+06     24.3832E+06     4.76183E+06    -241.561E-03     433.402E-03    -191.840E-03     49.3612E-03    -243.248E-03     434.845E-03    -191.646E-03     35.4046E-03
            2371     8.21166E-03     7.08617E-03    -59.6558E+06    -8.53861E+06     18.4794E+06     6.73902E+06    -228.304E-03     416.196E-03    -187.893E-03     44.8193E-03    -229.756E-03     417.357E-03    -187.701E-03     32.9348E-03
            2372     7.49199E-03     7.02938E-03    -65.6074E+06    -19.2931E+06     13.1348E+06     8.58194E+06    -216.441E-03     400.843E-03    -184.402E-03     41.9355E-03    -217.690E-03     401.756E-03    -184.213E-03     31.8489E-03
            2373     6.76377E-03     6.98555E-03    -71.4841E+06    -42.0567E+06     3.61655E+06     8.56152E+06    -206.177E-03     387.532E-03    -181.355E-03     39.8193E-03    -207.228E-03     388.172E-03    -181.172E-03     31.2933E-03
            2374     6.02854E-03     6.95275E-03    -78.9296E+06    -75.3527E+06    -9.56132E+06     6.95415E+06    -197.464E-03     376.193E-03    -178.729E-03     37.9167E-03    -198.325E-03     376.537E-03    -178.553E-03     30.7514E-03
            2375     5.28702E-03     6.92848E-03    -87.4764E+06    -105.578E+06    -23.0133E+06     4.94439E+06    -190.109E-03     366.605E-03    -176.496E-03     35.8464E-03    -190.813E-03     366.693E-03    -176.332E-03     29.8849E-03
            2376     4.54033E-03     6.91071E-03    -96.0810E+06    -130.308E+06    -37.9211E+06     2.99148E+06    -184.042E-03     358.669E-03    -174.626E-03     33.1343E-03    -184.613E-03     358.547E-03    -174.488E-03     28.2516E-03
            2377     3.78912E-03     6.89819E-03    -104.137E+06    -152.353E+06    -55.3922E+06     272.775E+03    -179.219E-03     352.312E-03    -173.094E-03     29.5780E-03    -179.671E-03     352.015E-03    -172.999E-03     25.6520E-03
            2378     3.03474E-03     6.88945E-03    -111.604E+06    -177.509E+06    -75.0338E+06    -1.56520E+06    -175.558E-03     347.438E-03    -171.879E-03     25.1389E-03    -175.901E-03     346.971E-03    -171.835E-03     22.0851E-03
            2379     2.27790E-03     6.88368E-03    -119.180E+06    -203.585E+06    -94.7438E+06    -1.53852E+06    -172.944E-03     343.898E-03    -170.954E-03     19.8059E-03    -173.194E-03     343.276E-03    -170.960E-03     17.5707E-03
            2380     1.51933E-03     6.88007E-03    -126.290E+06    -222.416E+06    -112.794E+06    -2.11905E+06    -171.181E-03     341.453E-03    -170.271E-03     13.7651E-03    -171.368E-03     340.726E-03    -170.330E-03     12.2762E-03
            2381     759.806E-06     6.87803E-03    -131.034E+06    -233.291E+06    -126.816E+06    -2.32478E+06    -169.746E-03     339.887E-03    -170.141E-03     7.67873E-03    -169.893E-03     339.106E-03    -170.247E-03     6.86666E-03
            2382     13.6814E-03     6.81974E-03    -3.81849E+06     73.1325E+06     85.5556E+06    -469.204E+03    -301.149E-03     524.428E-03    -223.278E-03     153.524E-03    -305.075E-03     528.349E-03    -222.951E-03     128.871E-03
            2383     13.0164E-03     6.56463E-03    -8.32315E+06     70.3058E+06     81.5495E+06     1.04202E+06    -309.302E-03     528.356E-03    -219.054E-03     155.891E-03    -314.108E-03     533.146E-03    -218.736E-03     126.806E-03
            2384     12.3546E-03     6.32974E-03    -13.3971E+06     54.1213E+06     73.3954E+06     495.167E+03    -307.456E-03     521.536E-03    -214.080E-03     123.250E-03    -311.476E-03     525.494E-03    -213.772E-03     95.7578E-03
            2385     11.6919E-03     6.13537E-03    -20.5703E+06     42.8762E+06     67.5016E+06    -282.074E+03    -295.744E-03     504.535E-03    -208.791E-03     94.0023E-03    -298.980E-03     507.663E-03    -208.486E-03     69.6762E-03
            2386     11.0200E-03     5.98177E-03    -27.9206E+06     38.6931E+06     58.6912E+06     1.13042E+06    -279.206E-03     482.821E-03    -203.615E-03     73.1731E-03    -281.803E-03     485.294E-03    -203.337E-03     52.4824E-03
            2387     10.3360E-03     5.86376E-03    -34.8446E+06     25.4289E+06     46.5232E+06     5.72453E+06    -261.987E-03     460.830E-03    -198.843E-03     61.3613E-03    -264.125E-03     462.806E-03    -198.597E-03     43.8966E-03
            2388     9.63965E-03     5.77383E-03    -41.3524E+06     13.4357E+06     38.0941E+06     9.16612E+06    -245.617E-03     440.232E-03    -194.614E-03     55.4482E-03    -247.428E-03     441.839E-03    -194.383E-03     40.6995E-03
            2389     8.93139E-03     5.70628E-03    -48.7460E+06     3.86746E+06     30.8207E+06     9.13618E+06    -230.799E-03     421.762E-03    -190.963E-03     52.7961E-03    -232.360E-03     423.079E-03    -190.744E-03     40.3289E-03
            2390     8.21264E-03     5.65646E-03    -56.5262E+06    -6.57939E+06     25.3563E+06     6.75445E+06    -218.210E-03     406.095E-03    -187.885E-03     51.8990E-03    -219.570E-03     407.162E-03    -187.667E-03     41.3295E-03
            2391     7.48524E-03     5.61963E-03    -63.7879E+06    -18.6616E+06     21.1133E+06     4.63815E+06    -207.795E-03     393.127E-03    -185.331E-03     51.3811E-03    -208.981E-03     393.963E-03    -185.106E-03     42.4202E-03
            2392     6.75095E-03     5.59327E-03    -70.6355E+06    -41.2204E+06     13.2004E+06     4.68314E+06    -199.366E-03     382.602E-03    -183.236E-03     50.5622E-03    -200.378E-03     383.181E-03    -183.008E-03     43.0108E-03
            2393     6.01062E-03     5.57457E-03    -77.5427E+06    -70.8897E+06     1.46957E+06     4.12752E+06    -192.762E-03     374.298E-03    -181.536E-03     48.8723E-03    -193.604E-03     374.610E-03    -181.313E-03     42.5276E-03
            2394     5.26599E-03     5.56176E-03    -84.3843E+06    -101.063E+06    -12.8519E+06     1.38646E+06    -187.714E-03     367.881E-03    -180.167E-03     46.0160E-03    -188.398E-03     367.945E-03    -179.962E-03     40.6896E-03
            2395     4.51793E-03     5.55315E-03    -90.7234E+06    -126.321E+06    -30.2929E+06    -1.81778E+06    -183.892E-03     362.957E-03    -179.066E-03     41.8980E-03    -184.434E-03     362.816E-03    -178.903E-03     37.4680E-03
            2396     3.76771E-03     5.54746E-03    -97.0934E+06    -151.135E+06    -50.6400E+06    -3.43144E+06    -181.119E-03     359.316E-03    -178.197E-03     36.6116E-03    -181.534E-03     358.994E-03    -178.090E-03     33.0047E-03
            2397     3.01568E-03     5.54393E-03    -104.463E+06    -180.670E+06    -72.2628E+06    -2.69253E+06    -179.225E-03     356.754E-03    -177.529E-03     30.3004E-03    -179.525E-03     356.248E-03    -177.477E-03     27.4730E-03
            2398     2.26260E-03     5.54161E-03    -111.550E+06    -205.330E+06    -92.0845E+06    -2.00979E+06    -177.941E-03     354.957E-03    -177.016E-03     23.2589E-03    -178.151E-03     354.305E-03    -177.017E-03     21.1641E-03
            2399     1.50900E-03     5.54026E-03    -116.816E+06    -223.995E+06    -108.404E+06    -1.93337E+06    -177.094E-03     353.718E-03    -176.625E-03     15.8176E-03    -177.236E-03     352.961E-03    -176.673E-03     14.4104E-03
            2400     754.941E-06     5.53986E-03    -119.995E+06    -239.137E+06    -118.675E+06    -1.66025E+06    -176.166E-03     352.872E-03    -176.706E-03     8.53904E-03    -176.261E-03     352.033E-03    -176.779E-03     7.77158E-03
            2401     13.6800E-03     5.21762E-03    -2.30718E+06     74.2177E+06     82.9419E+06    -516.770E+03    -318.444E-03     541.531E-03    -223.087E-03     162.891E-03    -322.678E-03     545.774E-03    -222.777E-03     136.260E-03
            2402     13.0264E-03     4.94067E-03    -9.03491E+06     62.9681E+06     74.1627E+06    -874.381E+03    -327.129E-03     545.085E-03    -217.956E-03     146.189E-03    -331.842E-03     549.780E-03    -217.664E-03     115.589E-03
            2403     12.3794E-03     4.72833E-03    -11.1004E+06     51.4826E+06     70.4453E+06     3.44997E+06    -313.971E-03     526.218E-03    -212.247E-03     101.748E-03    -317.410E-03     529.608E-03    -211.953E-03     75.3277E-03
            2404     11.7188E-03     4.56752E-03    -17.0516E+06     44.3501E+06     68.0908E+06     6.52926E+06    -291.290E-03     498.077E-03    -206.787E-03     76.1950E-03    -293.937E-03     500.634E-03    -206.486E-03     54.2131E-03
            2405     11.0414E-03     4.45427E-03    -25.8661E+06     35.7891E+06     59.4371E+06     8.23480E+06    -268.549E-03     470.532E-03    -201.983E-03     63.9854E-03    -270.672E-03     472.527E-03    -201.700E-03     46.0324E-03
            2406     10.3474E-03     4.37081E-03    -34.4608E+06     23.5469E+06     49.8357E+06     8.27705E+06    -248.728E-03     446.686E-03    -197.959E-03     59.6786E-03    -250.497E-03     448.278E-03    -197.694E-03     44.9756E-03
            2407     9.63988E-03     4.31110E-03    -40.2069E+06     13.9482E+06     44.3802E+06     7.10655E+06    -232.202E-03     426.893E-03    -194.691E-03     58.5627E-03    -233.705E-03     428.180E-03    -194.431E-03     46.4378E-03
            2408     8.92098E-03     4.26961E-03    -43.8187E+06     6.69192E+06     41.9348E+06     6.82030E+06    -218.987E-03     411.085E-03    -192.097E-03     58.7328E-03    -220.277E-03     412.126E-03    -191.834E-03     48.6828E-03
            2409     8.19342E-03     4.23949E-03    -48.5284E+06    -462.155E+03     41.1910E+06     5.71007E+06    -208.676E-03     398.762E-03    -190.086E-03     58.7505E-03    -209.800E-03     399.596E-03    -189.809E-03     50.3335E-03
            2410     7.45930E-03     4.21896E-03    -56.0628E+06    -14.7677E+06     35.3777E+06     3.01493E+06    -200.895E-03     389.435E-03    -188.540E-03     57.9408E-03    -201.876E-03     390.065E-03    -188.261E-03     50.8156E-03
            2411     6.71996E-03     4.20481E-03    -63.5065E+06    -39.3256E+06     22.3564E+06    -651.347E+03    -195.323E-03     382.679E-03    -187.357E-03     55.8789E-03    -196.156E-03     383.084E-03    -187.096E-03     49.7894E-03
            2412     5.97763E-03     4.19524E-03    -68.1995E+06    -68.5545E+06     6.12626E+06    -3.77846E+06    -191.429E-03     377.884E-03    -186.455E-03     52.3982E-03    -192.106E-03     378.058E-03    -186.226E-03     47.1672E-03
            2413     5.23308E-03     4.18888E-03    -71.7282E+06    -98.1680E+06    -12.5245E+06    -5.89847E+06    -188.779E-03     374.542E-03    -185.763E-03     47.7396E-03    -189.306E-03     374.501E-03    -185.579E-03     43.2504E-03
            2414     4.48736E-03     4.18508E-03    -76.5323E+06    -126.829E+06    -31.3992E+06    -6.64605E+06    -187.018E-03     372.255E-03    -185.237E-03     42.1439E-03    -187.415E-03     372.019E-03    -185.099E-03     38.3355E-03
            2415     3.74039E-03     4.18289E-03    -83.3337E+06    -157.753E+06    -50.3935E+06    -4.18375E+06    -185.848E-03     370.687E-03    -184.838E-03     35.8873E-03    -186.135E-03     370.261E-03    -184.741E-03     32.7591E-03
            2416     2.99309E-03     4.18146E-03    -90.1929E+06    -184.737E+06    -69.4686E+06    -1.50433E+06    -185.069E-03     369.597E-03    -184.528E-03     29.2452E-03    -185.264E-03     369.014E-03    -184.477E-03     26.7724E-03
            2417     2.24538E-03     4.18102E-03    -95.9294E+06    -207.217E+06    -85.3608E+06    -651.135E+03    -184.542E-03     368.847E-03    -184.305E-03     22.3973E-03    -184.663E-03     368.136E-03    -184.292E-03     20.5431E-03
            2418     1.49703E-03     4.18096E-03    -100.256E+06    -226.142E+06    -96.4098E+06    -3.09481E+03    -184.206E-03     368.387E-03    -184.181E-03     15.3455E-03    -184.273E-03     367.570E-03    -184.189E-03     14.0974E-03
            2419     748.327E-06     4.18146E-03    -102.914E+06    -241.362E+06    -102.662E+06     560.877E+03    -183.888E-03     368.264E-03    -184.376E-03     8.31868E-03    -183.916E-03     367.363E-03    -184.390E-03     7.64475E-03
            2420     13.6801E-03     3.56074E-03    -3.13464E+06     74.4049E+06     79.7385E+06    -2.03400E+06    -348.924E-03     571.565E-03    -222.641E-03     154.909E-03    -352.876E-03     575.538E-03    -222.346E-03     127.403E-03
            2421     13.0520E-03     3.28812E-03    -5.44956E+06     56.6766E+06     71.0826E+06     1.84615E+06    -337.809E-03     554.231E-03    -216.422E-03     109.908E-03    -341.314E-03     557.729E-03    -216.141E-03     82.4427E-03
            2422     12.4066E-03     3.12430E-03    -11.8826E+06     44.7295E+06     65.8636E+06     5.39032E+06    -306.610E-03     517.111E-03    -210.501E-03     73.1778E-03    -308.935E-03     519.377E-03    -210.219E-03     51.6365E-03
            2423     11.7371E-03     3.02020E-03    -17.0049E+06     41.6241E+06     67.8645E+06     7.91630E+06    -276.971E-03     482.568E-03    -205.596E-03     62.4769E-03    -278.783E-03     484.281E-03    -205.293E-03     45.5448E-03
            2424     11.0455E-03     2.94946E-03    -21.0484E+06     35.8434E+06     67.5899E+06     10.0220E+06    -253.096E-03     454.818E-03    -201.722E-03     59.3171E-03    -254.544E-03     456.131E-03    -201.406E-03     46.2255E-03
            2425     10.3389E-03     2.90061E-03     -25.524E+06     29.8919E+06     64.8505E+06      9.0876E+06    -234.577E-03     433.317E-03    -198.740E-03     58.3671E-03    -235.775E-03     434.348E-03    -198.423E-03     48.0599E-03
            2426     9.61974E-03     2.86830E-03    -32.4608E+06     18.8208E+06     55.5141E+06     5.99981E+06    -220.626E-03     417.113E-03    -196.487E-03     57.8082E-03    -221.635E-03     417.917E-03    -196.190E-03     49.5148E-03
            2427     8.89255E-03     2.84493E-03    -39.7457E+06     9.72911E+06     45.7661E+06     2.82031E+06    -210.613E-03     405.439E-03    -194.826E-03     56.8386E-03    -211.487E-03     406.076E-03    -194.554E-03     49.9891E-03
            2428     8.15966E-03     2.83005E-03    -45.0248E+06     2.34516E+06     37.8891E+06     854.278E+03    -203.539E-03     397.167E-03    -193.627E-03     54.8030E-03    -204.303E-03     397.670E-03    -193.376E-03     49.0288E-03
            2429     7.42238E-03     2.81929E-03    -48.0735E+06    -7.87763E+06     28.2850E+06    -2.16151E+06    -198.717E-03     391.484E-03    -192.767E-03     51.7525E-03    -199.373E-03     391.859E-03    -192.544E-03     46.7857E-03
            2430     6.68330E-03     2.81180E-03    -50.6558E+06    -33.4179E+06     12.3740E+06    -7.30095E+06    -195.615E-03     387.763E-03    -192.149E-03     47.8537E-03    -196.146E-03     387.960E-03    -191.965E-03     43.4809E-03
            2431     5.94257E-03     2.80670E-03    -54.6178E+06    -69.8853E+06    -6.47454E+06    -10.0300E+06    -193.647E-03     385.359E-03    -191.712E-03     43.3293E-03    -194.053E-03     385.340E-03    -191.564E-03     39.4624E-03
            2432     5.20089E-03     2.80365E-03    -59.8861E+06    -102.085E+06    -24.5561E+06    -8.87340E+06    -192.361E-03     383.765E-03    -191.404E-03     38.4132E-03    -192.665E-03     383.564E-03    -191.292E-03     35.0476E-03
            2433     4.45835E-03     2.80161E-03    -66.3493E+06    -134.981E+06    -39.6510E+06    -5.29265E+06    -191.601E-03     382.809E-03    -191.207E-03     33.3474E-03    -191.821E-03     382.426E-03    -191.114E-03     30.4878E-03
            2434     3.71592E-03     2.80095E-03    -72.6489E+06    -165.825E+06    -52.6766E+06    -1.76576E+06    -191.193E-03     382.275E-03    -191.082E-03     28.1607E-03    -191.339E-03     381.725E-03    -190.999E-03     25.7950E-03
            2435     2.97277E-03     2.80077E-03    -77.4996E+06    -188.311E+06    -64.4907E+06     403.569E+03    -190.922E-03     381.921E-03    -190.999E-03     22.8054E-03    -191.009E-03     381.249E-03    -190.936E-03     20.9179E-03
            2436     2.22926E-03     2.80102E-03    -81.3111E+06    -208.701E+06    -74.0410E+06     1.82940E+06    -190.780E-03     381.758E-03    -190.978E-03     17.2530E-03    -190.816E-03     380.976E-03    -190.927E-03     15.8409E-03
            2437     1.48597E-03     2.80135E-03    -84.5466E+06    -225.924E+06    -81.1121E+06     2.31596E+06    -190.796E-03     381.819E-03    -191.023E-03     11.6716E-03    -190.793E-03     380.945E-03    -190.978E-03     10.7286E-03
            2438     742.911E-06     2.80159E-03    -87.2378E+06    -238.362E+06    -86.1962E+06     1.90544E+06    -190.979E-03     382.098E-03    -191.119E-03     6.33669E-03    -190.951E-03     381.163E-03    -191.078E-03     5.83765E-03
            2439     13.7101E-03     1.83010E-03    -6.89732E+06     71.5549E+06     79.7095E+06    -2.19053E+06    -406.568E-03     629.683E-03    -223.115E-03     154.336E-03    -409.883E-03     633.032E-03    -222.810E-03     127.747E-03
            2440     13.0870E-03     1.64736E-03    -7.66211E+06     56.8072E+06     74.6227E+06     3.19702E+06    -344.168E-03     559.624E-03    -215.456E-03     83.6355E-03    -345.949E-03     561.398E-03    -215.154E-03     66.2118E-03
            2441     12.4220E-03     1.55468E-03    -11.4054E+06     47.2773E+06     72.0564E+06     4.79950E+06    -294.335E-03     504.037E-03    -209.703E-03     52.2871E-03    -295.406E-03     505.043E-03    -209.394E-03     40.7713E-03
            2442     11.7325E-03     1.50169E-03    -15.4977E+06     40.9218E+06     71.6816E+06     3.83977E+06    -262.132E-03     467.708E-03    -205.576E-03     43.6318E-03    -262.981E-03     468.448E-03    -205.255E-03     35.0199E-03
            2443     11.0292E-03     1.46770E-03    -18.0424E+06     35.4833E+06     69.6434E+06     3.66669E+06    -240.392E-03     442.980E-03    -202.588E-03     41.3776E-03    -241.077E-03     443.531E-03    -202.265E-03     34.9235E-03
            2444     10.3137E-03     1.44750E-03    -20.4104E+06     30.0880E+06     62.1259E+06     5.43112E+06    -225.410E-03     425.815E-03    -200.405E-03     40.2813E-03    -225.982E-03     426.245E-03    -200.109E-03     35.2425E-03
            2445     9.59056E-03     1.43373E-03    -23.3792E+06     23.2133E+06     50.1934E+06     6.48084E+06    -215.178E-03     413.988E-03    -198.810E-03     38.8208E-03    -215.664E-03     414.329E-03    -198.559E-03     34.7789E-03
            2446     8.86127E-03     1.42465E-03    -28.4798E+06     17.5223E+06     36.5630E+06     3.45110E+06    -208.159E-03     405.810E-03    -197.650E-03     36.3932E-03    -208.587E-03     406.093E-03    -197.452E-03     33.0137E-03
            2447     8.12807E-03     1.41772E-03    -33.5775E+06     9.04242E+06     20.2687E+06    -2.68629E+06    -203.438E-03     400.242E-03    -196.804E-03     33.3942E-03    -203.812E-03     400.470E-03    -196.667E-03     30.4284E-03
            2448     7.39323E-03     1.41299E-03    -37.5987E+06    -2.03678E+06     5.43620E+06    -7.47168E+06    -200.236E-03     396.439E-03    -196.203E-03     30.3187E-03    -200.559E-03     396.605E-03    -196.119E-03     27.6665E-03
            2449     6.65588E-03     1.40934E-03    -42.5168E+06    -32.5837E+06    -8.17013E+06    -8.52185E+06    -198.057E-03     393.875E-03    -195.817E-03     27.2156E-03    -198.315E-03     393.888E-03    -195.749E-03     24.8528E-03
            2450     5.91750E-03     1.40692E-03    -49.3446E+06    -74.9872E+06    -20.9261E+06    -7.13306E+06    -196.661E-03     392.253E-03    -195.592E-03     24.1150E-03    -196.851E-03     392.062E-03    -195.516E-03     22.0257E-03
            2451     5.17835E-03     1.40548E-03    -56.7606E+06    -110.654E+06    -32.6959E+06    -4.34433E+06    -195.797E-03     391.262E-03    -195.465E-03     21.0726E-03    -195.936E-03     390.901E-03    -195.386E-03     19.2597E-03
            2452     4.43877E-03     1.40502E-03    -62.5963E+06    -143.033E+06    -43.0414E+06    -1.67116E+06    -195.323E-03     390.737E-03    -195.414E-03     18.1136E-03    -195.414E-03     390.222E-03    -195.331E-03     16.5726E-03
            2453     3.69846E-03     1.40439E-03    -66.4973E+06    -169.872E+06    -51.7098E+06    -280.972E+03    -195.150E-03     390.564E-03    -195.414E-03     15.0780E-03    -195.195E-03     389.919E-03    -195.330E-03     13.7881E-03
            2454     2.95870E-03     1.40478E-03    -69.3074E+06    -191.405E+06    -58.8166E+06     813.341E+03    -195.171E-03     390.612E-03    -195.442E-03     12.0444E-03    -195.177E-03     389.863E-03    -195.358E-03     11.0100E-03
            2455     2.21913E-03     1.40484E-03    -71.1276E+06    -209.311E+06    -64.5393E+06     1.80838E+06    -195.288E-03     390.769E-03    -195.481E-03     8.98435E-03    -195.259E-03     389.931E-03    -195.397E-03     8.21193E-03
            2456     1.47937E-03     1.40531E-03    -72.0368E+06    -223.493E+06    -68.7703E+06     2.00261E+06    -195.436E-03     390.949E-03    -195.513E-03     6.00567E-03    -195.378E-03     390.040E-03    -195.428E-03     5.49098E-03
            2457     739.618E-06     1.40471E-03    -72.5257E+06    -232.910E+06    -71.3830E+06     1.46510E+06    -195.610E-03     391.039E-03    -195.429E-03     3.32670E-03    -195.532E-03     390.084E-03    -195.343E-03     3.05783E-03


