********************************************************************************
Field Output Report, written Tue May 28 21:57:20 2024

Source 1
---------

   ODB: G:/Abaqus_calc_2019/1740/Vel_10/odb/zeides_2a_32_red_150_cal_75_vel_10_fric_050.odb
   Step: Step-1
   Frame: Increment   6779254: Step Time =   0.8858

Loc 1 : Nodal values from source 1

Output sorted by column "Nodal Label".

Field Output reported at nodes for region: DIE_2A_32_D0_36-1.Region_1
   Computation algorithm: EXTRAPOLATE_COMPUTE_AVERAGE
   Averaged at nodes
   Averaging regions: ODB_REGIONS

      Node Label     COORD.COOR1     COORD.COOR2
                          @Loc 1          @Loc 1
-------------------------------------------------
               1     22.6170E-03     106.849E-03


Field Output reported at nodes for region: DIE_2A_32_D0_36-1.Region_2
   Computation algorithm: EXTRAPOLATE_COMPUTE_AVERAGE
   Averaged at nodes
   Averaging regions: ODB_REGIONS

      Node Label     COORD.COOR1     COORD.COOR2
                          @Loc 1          @Loc 1
-------------------------------------------------
               1     22.6170E-03     106.849E-03


Field Output reported at nodes for part: WIRE-1
   Computation algorithm: EXTRAPOLATE_COMPUTE_AVERAGE
   Averaged at nodes
   Averaging regions: ODB_REGIONS

      Node Label     COORD.COOR1     COORD.COOR2           S.S11           S.S22           S.S33           S.S12         PE.PE11         PE.PE22         PE.PE33         PE.PE12         LE.LE11         LE.LE22         LE.LE33         LE.LE12
                          @Loc 1          @Loc 1          @Loc 1          @Loc 1          @Loc 1          @Loc 1          @Loc 1          @Loc 1          @Loc 1          @Loc 1          @Loc 1          @Loc 1          @Loc 1          @Loc 1
-------------------------------------------------------------------------------------------------------------------------------------------------------------------------------------------------------------------------------------------------
               1    -80.5644E-09     56.3783E-03    -13.5100E+06    -66.8105E+06    -13.5490E+06    -174.506E+03    -15.6185E-03     31.2757E-03    -15.6571E-03     1.93104E-03    -15.5695E-03     30.9811E-03    -15.6084E-03     1.92852E-03
               2     17.7263E-03     57.4501E-03     2.22321E+06     185.417E+06     88.9865E+06    -386.437E+03    -26.0785E-03     41.8196E-03    -15.7411E-03     276.108E-03    -34.7949E-03     50.9450E-03    -15.5682E-03     283.804E-03
               3     17.4949E-03     114.164E-03     20.4182E+06    -11.6691E+06     22.4302E+06     1.82419E+06     12.0075E-03     11.7633E-03    -23.7708E-03     2.37617E-03     12.0748E-03     11.6236E-03    -23.6713E-03     2.39967E-03
               4    -37.9152E-09     113.022E-03     19.3852E+06     868.701E+03     20.2302E+06    -747.761E+03    -18.7487E-03     37.6367E-03    -18.8880E-03    -207.736E-06    -18.6826E-03     37.5835E-03    -18.8162E-03    -217.407E-06
               5     17.5240E-09    -145.717E-18    -6.43294E+06    -56.8465E+06    -6.18945E+06    -893.443E+03    -12.9325E-03     25.7794E-03    -12.8470E-03     62.1690E-06    -12.8726E-03     25.5138E-03    -12.7862E-03     50.7536E-06
               6     17.6306E-03    -145.717E-18    -3.91924E+06     95.1809E+06     65.8889E+06     10.6117E+06    -59.7968E-03     77.9310E-03    -18.1343E-03     67.5382E-03    -60.2271E-03     78.4917E-03    -17.9371E-03     67.2750E-03
               7     886.088E-06     56.3801E-03    -13.3823E+06    -65.7997E+06    -12.9791E+06    -136.546E+03    -15.6259E-03     31.2730E-03    -15.6472E-03     3.43523E-03    -15.5785E-03     30.9824E-03    -15.5973E-03     3.43297E-03
               8     1.77215E-03     56.3847E-03    -12.9023E+06    -64.6136E+06    -11.2762E+06    -81.6978E+03    -15.6395E-03     31.2809E-03    -15.6414E-03     6.50041E-03    -15.5941E-03     30.9930E-03    -15.5854E-03     6.49839E-03
               9     2.65825E-03     56.3922E-03    -12.1420E+06    -62.2037E+06    -9.21621E+06     62.9495E+03    -15.6483E-03     31.2941E-03    -15.6458E-03     9.71799E-03    -15.6056E-03     31.0142E-03    -15.5841E-03     9.71735E-03
              10     3.54433E-03     56.4028E-03    -11.2405E+06    -60.0857E+06    -7.06814E+06     203.878E+03    -15.6647E-03     31.3157E-03    -15.6511E-03     13.0785E-03    -15.6238E-03     31.0422E-03    -15.5830E-03     13.0791E-03
              11     4.43042E-03     56.4166E-03    -10.2509E+06    -62.8064E+06    -4.54693E+06     290.762E+03    -15.7028E-03     31.3687E-03    -15.6660E-03     16.5527E-03    -15.6569E-03     31.0767E-03    -15.5828E-03     16.5538E-03
              12     5.31649E-03     56.4336E-03    -9.30402E+06    -62.0188E+06    -3.30531E+06     83.9110E+03    -15.7404E-03     31.4106E-03    -15.6702E-03     20.2019E-03    -15.6930E-03     31.1196E-03    -15.5833E-03     20.1996E-03
              13     6.20258E-03     56.4542E-03    -8.40963E+06    -60.4200E+06    -2.64896E+06    -2.87671E+03    -15.7867E-03     31.4572E-03    -15.6705E-03     24.0320E-03    -15.7385E-03     31.1724E-03    -15.5839E-03     24.0277E-03
              14     7.08864E-03     56.4784E-03    -6.92552E+06    -62.3432E+06    -869.898E+03     106.588E+03    -15.8563E-03     31.5374E-03    -15.6812E-03     28.0193E-03    -15.8012E-03     31.2390E-03    -15.5851E-03     28.0153E-03
              15     7.97472E-03     56.5064E-03    -5.68439E+06    -60.8078E+06     200.198E+03    -161.756E+03    -15.9347E-03     31.6193E-03    -15.6845E-03     32.1819E-03    -15.8782E-03     31.3261E-03    -15.5871E-03     32.1728E-03
              16     8.86080E-03     56.5382E-03    -5.99442E+06    -57.8337E+06    -14.6414E+03     145.461E+03    -16.0237E-03     31.7065E-03    -15.6829E-03     36.4404E-03    -15.9742E-03     31.4306E-03    -15.5904E-03     36.4330E-03
              17     9.74679E-03     56.5743E-03    -6.24806E+06    -57.9946E+06    -107.439E+03     698.685E+03    -16.1345E-03     31.8224E-03    -15.6880E-03     40.6763E-03    -16.0884E-03     31.5487E-03    -15.5954E-03     40.6729E-03
              18     10.6328E-03     56.6140E-03    -5.90990E+06    -54.2029E+06    -4.21716E+06     524.038E+03    -16.2410E-03     31.9084E-03    -15.6673E-03     45.0553E-03    -16.1968E-03     31.6629E-03    -15.6013E-03     45.0455E-03
              19     11.5188E-03     56.6582E-03    -5.58875E+06    -42.5724E+06    -2.87722E+06     428.128E+03    -16.3128E-03     31.9745E-03    -15.6616E-03     49.5500E-03    -16.2920E-03     31.7910E-03    -15.6062E-03     49.5337E-03
              20     12.4048E-03     56.7061E-03    -5.06394E+06    -36.8960E+06    -1.57067E+06     157.089E+03    -16.5162E-03     32.1798E-03    -15.6636E-03     56.7149E-03    -16.5151E-03     32.0343E-03    -15.6106E-03     56.6879E-03
              21     13.2908E-03     56.7636E-03    -4.94656E+06    -33.9880E+06    -10.2121E+06     175.483E+03    -16.6128E-03     32.2344E-03    -15.6216E-03     59.2900E-03    -16.6193E-03     32.1323E-03    -15.6162E-03     59.2552E-03
              22     14.1762E-03     56.8155E-03    -5.29436E+06    -16.5789E+06    -12.2284E+06    -38.2918E+03    -16.6170E-03     32.2068E-03    -15.5898E-03     63.8973E-03    -16.6797E-03     32.2274E-03    -15.6192E-03     63.8550E-03
              23     15.0635E-03     56.8817E-03    -6.93219E+06     25.4091E+06    -12.6963E+06     790.512E+03    -18.6591E-03     34.2063E-03    -15.5472E-03     98.7724E-03    -18.9897E-03     34.6393E-03    -15.6374E-03     98.7532E-03
              24     15.9461E-03     57.0009E-03    -11.4130E+06     84.6027E+06    -10.5546E+06     1.25495E+06    -21.5011E-03     36.9968E-03    -15.4958E-03     167.621E-03    -23.3809E-03     39.1667E-03    -15.6547E-03     168.206E-03
              25     16.8267E-03     57.1929E-03    -6.10652E+06     150.517E+06     41.6977E+06    -69.8868E+03    -24.2308E-03     39.8408E-03    -15.6100E-03     242.340E-03    -30.1938E-03     46.1956E-03    -15.6109E-03     246.766E-03
              26     17.7205E-03     58.4423E-03    -6.42232E+06     180.881E+06     98.0850E+06    -4.37969E+06    -30.3665E-03     46.0815E-03    -15.7150E-03     278.152E-03    -39.2497E-03     55.3012E-03    -15.4775E-03     285.522E-03
              27     17.7227E-03     59.4198E-03    -5.28321E+06     182.067E+06     97.9090E+06     2.36734E+06    -26.9252E-03     42.7532E-03    -15.8280E-03     274.532E-03    -35.5546E-03     51.7273E-03    -15.5947E-03     282.133E-03
              28     17.7215E-03     60.3836E-03    -2.94761E+06     184.286E+06     98.6795E+06     1.14762E+06    -25.7300E-03     41.5671E-03    -15.8371E-03     270.917E-03    -34.1442E-03     50.3393E-03    -15.6067E-03     278.542E-03
              29     17.7225E-03     61.3705E-03    -2.58055E+06     185.485E+06     99.2127E+06     442.090E+03    -27.7233E-03     43.4973E-03    -15.7740E-03     268.562E-03    -36.0583E-03     52.1939E-03    -15.5431E-03     275.906E-03
              30     17.7221E-03     62.3494E-03    -2.82083E+06     185.570E+06     98.7405E+06    -263.038E+03    -26.9224E-03     42.7179E-03    -15.7955E-03     272.220E-03    -35.4376E-03     51.5955E-03    -15.5668E-03     279.734E-03
              31     17.7222E-03     63.3263E-03    -2.17929E+06     186.193E+06     99.4130E+06     423.421E+03    -26.5809E-03     42.3867E-03    -15.8058E-03     271.175E-03    -35.0515E-03     51.2223E-03    -15.5756E-03     278.721E-03
              32     17.7222E-03     64.3027E-03    -2.34660E+06     186.811E+06     99.4911E+06     339.691E+03    -26.7798E-03     42.5747E-03    -15.7949E-03     269.468E-03    -35.1655E-03     51.3267E-03    -15.5650E-03     276.951E-03
              33     17.7222E-03     65.2827E-03    -2.20690E+06     186.887E+06     99.4147E+06    -84.8557E+03    -26.9858E-03     42.7731E-03    -15.7874E-03     269.565E-03    -35.3762E-03     51.5308E-03    -15.5581E-03     277.019E-03
              34     17.7223E-03     66.2612E-03    -2.64144E+06     186.761E+06     99.4677E+06    -84.8449E+03    -27.0038E-03     42.7938E-03    -15.7900E-03     270.251E-03    -35.4280E-03     51.5831E-03    -15.5596E-03     277.711E-03
              35     17.7221E-03     67.2399E-03    -2.60755E+06     186.674E+06     99.7150E+06    -3.86669E+03    -27.0073E-03     42.8007E-03    -15.7934E-03     270.223E-03    -35.4338E-03     51.5915E-03    -15.5617E-03     277.695E-03
              36     17.7222E-03     68.2180E-03    -2.33229E+06     186.900E+06     99.7859E+06     280.603E+03    -27.0121E-03     42.8061E-03    -15.7940E-03     269.846E-03    -35.4217E-03     51.5815E-03    -15.5627E-03     277.317E-03
              37     17.7220E-03     69.1966E-03    -2.68138E+06     187.708E+06     99.3822E+06     439.204E+03    -26.8779E-03     42.6708E-03    -15.7929E-03     269.651E-03    -35.2868E-03     51.4483E-03    -15.5643E-03     277.130E-03
              38     17.7224E-03     70.1750E-03    -2.91788E+06     188.282E+06     99.2428E+06     82.0693E+03    -26.9020E-03     42.6931E-03    -15.7911E-03     270.705E-03    -35.3708E-03     51.5322E-03    -15.5637E-03     278.223E-03
              39     17.7220E-03     71.1554E-03    -2.64420E+06     188.683E+06     99.7282E+06     129.063E+03    -26.6711E-03     42.4734E-03    -15.8023E-03     271.425E-03    -35.1706E-03     51.3442E-03    -15.5735E-03     278.977E-03
              40     17.7223E-03     72.1313E-03    -2.36592E+06     189.182E+06     99.9753E+06     300.225E+03    -26.6206E-03     42.4255E-03    -15.8048E-03     271.243E-03    -35.1105E-03     51.2886E-03    -15.5758E-03     278.804E-03
              41     17.7221E-03     73.1097E-03    -2.47803E+06     189.846E+06     99.9012E+06     431.088E+03    -26.8587E-03     42.6529E-03    -15.7942E-03     270.602E-03    -35.3156E-03     51.4853E-03    -15.5664E-03     278.122E-03
              42     17.7223E-03     74.0895E-03    -2.62537E+06     190.748E+06     100.259E+06     510.219E+03    -26.7238E-03     42.5233E-03    -15.7995E-03     271.013E-03    -35.2060E-03     51.3826E-03    -15.5710E-03     278.558E-03
              43     17.7220E-03     75.0658E-03    -3.09087E+06     191.126E+06     99.9810E+06    -83.5877E+03    -26.6282E-03     42.4283E-03    -15.8001E-03     270.059E-03    -35.0753E-03     51.2530E-03    -15.5729E-03     277.597E-03
              44     17.7223E-03     76.0440E-03    -1.95553E+06     191.623E+06     99.7766E+06     384.264E+03    -26.5306E-03     42.3249E-03    -15.7943E-03     269.586E-03    -34.9371E-03     51.1154E-03    -15.5704E-03     277.098E-03
              45     17.7223E-03     77.0234E-03    -2.62583E+06     191.863E+06     100.060E+06     100.514E+03    -26.8638E-03     42.6542E-03    -15.7904E-03     271.120E-03    -35.3462E-03     51.5182E-03    -15.5645E-03     278.643E-03
              46     17.7221E-03     78.0020E-03    -2.65791E+06     192.654E+06     100.412E+06     353.645E+03    -26.8533E-03     42.6465E-03    -15.7932E-03     270.406E-03    -35.3189E-03     51.4954E-03    -15.5666E-03     277.930E-03
              47     17.7222E-03     78.9786E-03    -2.37277E+06     194.077E+06     99.7075E+06     764.072E+03    -26.5284E-03     42.3196E-03    -15.7913E-03     270.247E-03    -34.9808E-03     51.1635E-03    -15.5707E-03     277.794E-03
              48     17.7224E-03     79.9585E-03    -3.11574E+06     194.561E+06     99.5913E+06     91.0129E+03    -26.7686E-03     42.5545E-03    -15.7859E-03     271.146E-03    -35.2644E-03     51.4411E-03    -15.5655E-03     278.685E-03
              49     17.7220E-03     80.9372E-03    -2.06806E+06     195.310E+06     100.258E+06     503.404E+03    -26.4455E-03     42.2443E-03    -15.7988E-03     271.197E-03    -34.9399E-03     51.1340E-03    -15.5777E-03     278.763E-03
              50     17.7224E-03     81.9130E-03    -2.85775E+06     196.037E+06     101.655E+06     167.844E+03    -26.4906E-03     42.3032E-03    -15.8125E-03     270.471E-03    -34.9784E-03     51.1819E-03    -15.5844E-03     278.037E-03
              51     17.7213E-03     82.8921E-03    -1.93013E+06     196.246E+06     97.5804E+06    -319.363E+03    -26.4692E-03     42.2386E-03    -15.7694E-03     268.591E-03    -34.9109E-03     51.0872E-03    -15.5632E-03     276.132E-03
              52     17.7242E-03     83.8670E-03    -2.33347E+06     195.935E+06     94.2303E+06     826.517E+03    -27.3182E-03     43.0320E-03    -15.7138E-03     274.577E-03    -35.9832E-03     52.1111E-03    -15.5234E-03     282.128E-03
              53     17.7220E-03     84.8632E-03    -3.46483E+06     197.022E+06     98.5567E+06     304.040E+03    -27.8262E-03     43.5802E-03    -15.7540E-03     282.659E-03    -36.7773E-03     52.9328E-03    -15.5419E-03     290.211E-03
              54     17.7229E-03     85.8282E-03    -3.01937E+06     198.162E+06     99.1700E+06    -385.655E+03    -25.3810E-03     41.1925E-03    -15.8115E-03     276.082E-03    -34.0283E-03     50.2454E-03    -15.5987E-03     283.720E-03
              55     17.7223E-03     86.7943E-03    -2.06004E+06     197.947E+06     98.1319E+06     367.035E+03    -25.6468E-03     41.4030E-03    -15.7562E-03     266.796E-03    -33.8837E-03     50.0509E-03    -15.5496E-03     274.304E-03
              56     17.7238E-03     87.7834E-03    -1.91015E+06     198.276E+06     95.8252E+06     675.041E+03    -26.9362E-03     42.6242E-03    -15.6880E-03     267.199E-03    -35.1938E-03     51.3011E-03    -15.4936E-03     274.564E-03
              57     17.7232E-03     88.7585E-03    -3.48853E+06     197.290E+06     92.8176E+06    -1.12938E+06    -25.8873E-03     41.5736E-03    -15.6863E-03     269.993E-03    -34.3077E-03     50.4128E-03    -15.5032E-03     277.527E-03
              58     17.7246E-03     89.7360E-03     1.06815E+06     198.021E+06     79.7721E+06     1.45173E+06    -25.5617E-03     41.1300E-03    -15.5684E-03     271.596E-03    -33.9734E-03     50.0172E-03    -15.4582E-03     279.207E-03
              59     17.7265E-03     90.7149E-03    -7.20217E+06     192.705E+06     81.6907E+06     788.052E+03    -29.8889E-03     45.5660E-03    -15.6771E-03     270.596E-03    -38.4884E-03     54.5870E-03    -15.5376E-03     277.924E-03
              60     17.7076E-03     91.7065E-03    -6.13142E+06     174.422E+06     45.3235E+06     8.10029E+06    -25.7818E-03     41.5698E-03    -15.7880E-03     260.259E-03    -34.1292E-03     50.3846E-03    -15.8054E-03     267.891E-03
              61     17.7301E-03     92.6392E-03     4.92777E+06     182.805E+06     45.3920E+06     903.916E+03    -21.6954E-03     37.2888E-03    -15.5933E-03     263.666E-03    -29.8778E-03     46.0100E-03    -15.6386E-03     271.602E-03
              62     17.7237E-03     93.6649E-03    -1.64980E+06     198.792E+06     98.5205E+06     -9.2217E+06    -29.5670E-03     45.0839E-03    -15.5169E-03     281.283E-03    -38.4017E-03     54.3376E-03    -15.3102E-03     288.496E-03
              63     17.7260E-03     94.6490E-03    -4.06501E+06     196.456E+06     97.7282E+06    -78.1754E+03    -26.9579E-03     42.5989E-03    -15.6410E-03     287.838E-03    -36.1285E-03     52.1729E-03    -15.4313E-03     295.449E-03
              64     17.7253E-03     95.5864E-03    -1.72250E+06     196.546E+06     97.4201E+06    -245.788E+03    -24.9412E-03     40.5668E-03    -15.6255E-03     273.549E-03    -33.4667E-03     49.5033E-03    -15.4209E-03      281.25E-03
              65     17.7263E-03     96.5848E-03    -1.85152E+06     194.610E+06     97.6091E+06    -295.188E+03    -29.3953E-03     44.8592E-03    -15.4638E-03     262.971E-03    -37.4909E-03     53.3561E-03    -15.2553E-03     269.952E-03
              66     17.7266E-03     97.5593E-03    -3.35057E+06     191.890E+06     93.5364E+06     29.2763E+03    -30.5411E-03     45.9537E-03    -15.4126E-03     271.732E-03    -39.0931E-03     54.9040E-03    -15.2183E-03     278.851E-03
              67     17.7270E-03     98.5548E-03     23.6032E+03     190.626E+06     87.0850E+06    -902.659E+03    -28.5533E-03     43.9471E-03    -15.3938E-03     275.369E-03    -37.1470E-03     52.9657E-03    -15.2349E-03     282.546E-03
              68     17.7291E-03     99.5205E-03    -1.38621E+06     187.435E+06     93.9189E+06    -5.25679E+06    -30.6323E-03     46.0023E-03    -15.3699E-03     278.167E-03    -39.3405E-03     55.1001E-03    -15.1701E-03     285.218E-03
              69     17.7259E-03     100.511E-03    -6.33957E+06     181.612E+06     102.161E+06    -1.84140E+06    -36.3618E-03     51.6591E-03    -15.2973E-03     273.408E-03    -44.9634E-03     60.5887E-03    -15.0406E-03     279.979E-03
              70     17.7281E-03     101.501E-03    -3.52419E+06     179.900E+06     99.1419E+06     1.53847E+06    -32.1052E-03     47.4663E-03    -15.3611E-03     269.348E-03    -40.4279E-03     56.1285E-03    -15.1211E-03     276.102E-03
              71     17.7281E-03     102.468E-03    -2.07187E+06     177.691E+06     101.157E+06    -1.77618E+06    -29.6253E-03     45.0127E-03    -15.3873E-03     267.616E-03    -37.7909E-03     53.5085E-03    -15.1362E-03     274.511E-03
              72     17.7290E-03     103.454E-03    -2.00594E+06     173.104E+06     103.715E+06    -1.98577E+06    -33.9748E-03     49.2249E-03    -15.2501E-03     262.278E-03    -41.8463E-03     57.4032E-03    -14.9796E-03     268.508E-03
              73     17.7296E-03     104.443E-03    -2.73185E+06     167.886E+06     102.925E+06    -2.27861E+06    -36.5027E-03     51.6525E-03    -15.1497E-03     264.497E-03    -44.3874E-03     59.8251E-03    -14.8746E-03     270.360E-03
              74     17.7309E-03     105.433E-03    -2.78116E+06     162.168E+06     100.788E+06    -2.72044E+06    -37.9220E-03     52.9838E-03    -15.0618E-03     268.239E-03    -45.8231E-03     61.1586E-03    -14.7890E-03     273.804E-03
              75     17.7320E-03     106.424E-03    -3.30837E+06     154.300E+06     97.0613E+06    -4.19352E+06    -39.8310E-03     54.7813E-03    -14.9502E-03     269.892E-03    -47.5738E-03     62.7786E-03    -14.6839E-03     274.961E-03
              76     17.7330E-03     107.413E-03    -2.66414E+06     143.107E+06     92.0595E+06    -5.52421E+06    -41.7538E-03     56.5856E-03    -14.8318E-03     267.438E-03    -49.1092E-03     64.1724E-03    -14.5752E-03     271.860E-03
              77     17.7340E-03     108.403E-03    -4.09331E+06     128.826E+06     80.0657E+06    -7.22528E+06    -44.5991E-03     59.2713E-03    -14.6722E-03     266.616E-03    -51.5316E-03     66.4146E-03    -14.4527E-03     270.226E-03
              78     17.7349E-03     109.403E-03    -4.29338E+06     115.618E+06     63.7062E+06    -6.12561E+06    -46.6282E-03     61.1487E-03    -14.5205E-03     269.278E-03    -53.0309E-03     67.7624E-03    -14.3634E-03     272.026E-03
              79     17.7362E-03     110.401E-03    -11.9237E+06     87.0963E+06     33.3454E+06    -17.4368E+06    -39.2318E-03     53.7643E-03    -14.5325E-03     266.563E-03    -44.3820E-03     59.0852E-03    -14.4748E-03     268.532E-03
              80     17.7390E-03     111.366E-03     3.09309E+06     39.8842E+06     12.1924E+06    -26.7114E+06    -18.3246E-03     33.2078E-03    -14.8831E-03     242.498E-03    -21.1037E-03     36.1079E-03    -14.8845E-03     243.642E-03
              81     17.7385E-03     112.293E-03     3.25319E+06     5.85886E+06     6.03086E+06    -8.62415E+06     7.02623E-03     9.17647E-03    -16.2027E-03     173.911E-03     6.26763E-03     9.95768E-03    -16.1858E-03     174.337E-03
              82     17.6816E-03     113.205E-03    -1.21762E+06    -8.13098E+06     9.58235E+06     3.05112E+06     15.4468E-03     5.05375E-03    -20.5005E-03     63.6096E-03     15.3881E-03     5.03638E-03    -20.4390E-03     63.6851E-03
              83     16.6202E-03     113.991E-03     2.42091E+06     12.9771E+06     38.8476E+06     4.00438E+06     7.78988E-03     16.5455E-03    -24.3354E-03     13.7201E-03     7.71902E-03     16.5429E-03    -24.1635E-03     13.7716E-03
              84     15.7219E-03     113.851E-03    -12.3250E+06     3.35095E+06     53.8464E+06    -2.38361E+06    -11.7091E-03     36.6829E-03    -24.9738E-03     23.6610E-03    -11.8600E-03     36.6370E-03    -24.6916E-03     23.6201E-03
              85     14.8694E-03     113.693E-03     1.35468E+06    -6.85096E+06     43.8513E+06    -10.0653E+06    -26.7364E-03     51.3467E-03    -24.6103E-03     13.9233E-03    -26.7972E-03     51.2380E-03    -24.3831E-03     13.7755E-03
              86     14.0140E-03     113.573E-03     13.6371E+06    -3.86364E+06     45.4773E+06    -4.38624E+06    -25.9599E-03     49.9576E-03    -23.9976E-03     3.36772E-03    -25.9606E-03     49.8458E-03    -23.7844E-03     3.29723E-03
              87     13.1481E-03     113.483E-03     14.9413E+06    -2.01169E+06     55.3159E+06    -272.817E+03    -26.4001E-03     49.9498E-03    -23.5497E-03     72.7579E-06    -26.4071E-03     49.8343E-03    -23.2919E-03     57.4205E-06
              88     12.2808E-03     113.406E-03     15.4274E+06     1.24407E+06     49.7644E+06    -1.40607E+06    -27.9078E-03     50.8972E-03    -22.9894E-03    -1.35413E-03    -27.9079E-03     50.8061E-03    -22.7647E-03    -1.38337E-03
              89     11.4137E-03     113.341E-03     16.4577E+06    -2.52329E+06     47.3801E+06    -1.00991E+06    -28.1804E-03     50.5591E-03    -22.3787E-03    -1.51390E-03    -28.1656E-03     50.4517E-03    -22.1621E-03    -1.53682E-03
              90     10.5441E-03     113.284E-03     16.6543E+06     1.41318E+06     47.9652E+06    -842.457E+03    -27.2982E-03     49.0553E-03    -21.7570E-03    -1.27617E-03    -27.2885E-03     48.9670E-03    -21.5434E-03    -1.29537E-03
              91     9.67293E-03     113.236E-03     16.5969E+06    -1.14385E+06     47.0855E+06    -1.01583E+06    -25.8851E-03     47.0614E-03    -21.1763E-03    -1.04865E-03    -25.8703E-03     46.9619E-03    -20.9633E-03    -1.06856E-03
              92     8.79926E-03     113.194E-03     16.2303E+06     901.237E+03     45.2088E+06    -1.00941E+06    -24.3637E-03     45.0164E-03    -20.6527E-03    -722.286E-06    -24.3507E-03     44.9308E-03    -20.4515E-03    -740.633E-06
              93     7.92370E-03     113.158E-03     16.1196E+06    -560.695E+03     41.6291E+06    -1.34705E+06    -23.0146E-03     43.2160E-03    -20.2014E-03    -446.394E-06    -22.9945E-03     43.1286E-03    -20.0158E-03    -467.926E-06
              94     7.04642E-03     113.128E-03     16.3406E+06     409.505E+03     38.2835E+06    -1.43263E+06    -21.8464E-03     41.6675E-03    -19.8211E-03    -221.702E-06    -21.8217E-03     41.5896E-03    -19.6539E-03    -243.432E-06
              95     6.16786E-03     113.102E-03     16.5972E+06    -573.357E+03     34.3781E+06    -1.35394E+06    -20.8918E-03     40.4024E-03    -19.5106E-03    -79.8242E-06    -20.8586E-03     40.3249E-03    -19.3619E-03    -99.8482E-06
              96     5.28814E-03     113.080E-03     16.8892E+06     355.971E+03     31.1502E+06    -1.31469E+06    -20.1586E-03     39.4216E-03    -19.2629E-03    -22.9773E-06    -20.1205E-03     39.3531E-03    -19.1322E-03    -41.9566E-06
              97     4.40776E-03     113.062E-03     17.4693E+06    -274.579E+03     27.8597E+06    -1.50313E+06    -19.6071E-03     38.6782E-03    -19.0711E-03     4.24076E-06    -19.5603E-03     38.6105E-03    -18.9567E-03    -16.7269E-06
              98     3.52667E-03     113.048E-03     18.3443E+06    -208.162E+03     24.8152E+06    -1.33793E+06    -19.2049E-03     38.1330E-03    -18.9281E-03    -4.14881E-06    -19.1494E-03     38.0689E-03    -18.8303E-03    -22.6060E-06
              99     2.64524E-03     113.037E-03     19.1266E+06    -439.331E+03     22.7227E+06    -1.05357E+06    -18.9343E-03     37.7706E-03    -18.8362E-03    -80.1948E-06    -18.8715E-03     37.7072E-03    -18.7497E-03    -94.6487E-06
             100     1.76333E-03     113.029E-03     19.5433E+06    -148.840E+03     21.1570E+06     -946.35E+03    -18.7670E-03     37.5632E-03    -18.7961E-03    -137.441E-06    -18.7003E-03     37.5029E-03    -18.7185E-03    -150.216E-06
             101     881.607E-06     113.024E-03     19.5589E+06    -545.329E+03     19.9281E+06    -904.044E+03    -18.7266E-03     37.5650E-03    -18.8384E-03    -177.291E-06    -18.6573E-03     37.5047E-03    -18.7663E-03    -189.183E-06
             102    -77.5973E-09     112.037E-03     17.2403E+06    -1.35169E+06     16.5484E+06    -832.088E+03    -17.1237E-03     34.3985E-03    -17.2748E-03     306.420E-06    -17.0596E-03     34.3428E-03    -17.2151E-03     295.577E-06
             103    -78.4946E-09     111.059E-03     11.9036E+06    -4.11938E+06     12.0820E+06    -681.417E+03    -14.4943E-03     29.0329E-03    -14.5386E-03     1.00874E-03    -14.4462E-03     28.9777E-03    -14.4894E-03     999.724E-06
             104     159.477E-09     110.085E-03     6.90048E+06    -8.26395E+06     7.48352E+06    -1.49926E+06    -12.7417E-03     25.4535E-03    -12.7118E-03     1.29227E-03    -12.7060E-03     25.3916E-03    -12.6724E-03     1.27268E-03
             105    -180.856E-09     109.113E-03    -1.49158E+06    -13.8461E+06    -1.73033E+06    -1.65640E+06    -11.5446E-03     23.0551E-03    -11.5106E-03     1.46133E-03    -11.5293E-03     22.9908E-03    -11.4970E-03     1.43976E-03
             106     259.116E-09     108.145E-03    -13.8057E+06    -19.3080E+06    -13.4194E+06    -1.71466E+06    -10.8777E-03     21.6216E-03    -10.7438E-03     1.68814E-03    -10.8992E-03     21.5648E-03    -10.7629E-03     1.66585E-03
             107    -95.9166E-09     107.176E-03    -29.5669E+06    -26.3520E+06    -29.4576E+06    -2.44120E+06    -10.4915E-03     20.9424E-03    -10.4509E-03     1.90269E-03    -10.5583E-03     20.8964E-03    -10.5171E-03     1.87106E-03
             108     4.61338E-09     106.208E-03    -48.5420E+06    -34.5946E+06    -48.2816E+06    -2.73515E+06    -10.3803E-03     20.8825E-03    -10.5022E-03     2.01217E-03    -10.5027E-03     20.8501E-03    -10.6231E-03     1.97680E-03
             109    -129.388E-09     105.239E-03    -65.0414E+06    -42.9858E+06    -65.2629E+06    -2.56618E+06    -10.6429E-03     21.3550E-03    -10.7121E-03     2.17481E-03    -10.8110E-03     21.3292E-03    -10.8818E-03     2.14163E-03
             110     126.155E-09     104.270E-03    -68.9739E+06    -49.9872E+06    -69.2836E+06    -1.65371E+06    -11.1448E-03     22.1867E-03    -11.0419E-03     2.32550E-03    -11.3167E-03     22.1374E-03    -11.2158E-03     2.30411E-03
             111     54.2352E-09     103.300E-03    -56.2589E+06    -52.2431E+06    -57.1682E+06     324.469E+03    -11.6664E-03     23.2495E-03    -11.5831E-03     2.45831E-03    -11.7890E-03     23.1530E-03    -11.7116E-03     2.46242E-03
             112    -99.4868E-09     102.329E-03    -43.2326E+06    -48.2050E+06    -43.3985E+06     2.21664E+06    -12.1524E-03     24.3955E-03    -12.2432E-03     2.42769E-03    -12.2356E-03     24.2803E-03    -12.3276E-03     2.45622E-03
             113    -21.3315E-09     101.357E-03    -34.4127E+06    -39.9153E+06    -34.7503E+06     2.79664E+06    -12.7015E-03     25.5337E-03    -12.8322E-03     2.23229E-03    -12.7653E-03     25.4346E-03    -12.8982E-03     2.26831E-03
             114    -96.2395E-09     100.384E-03    -29.8769E+06    -30.2591E+06    -29.5994E+06     3.04159E+06    -13.3048E-03     26.6430E-03    -13.3382E-03     2.09014E-03    -13.3673E-03     26.5781E-03    -13.3990E-03     2.12932E-03
             115     155.533E-09     99.4092E-03    -26.4008E+06    -21.1195E+06    -26.2673E+06     2.33625E+06    -13.8596E-03     27.5754E-03    -13.7157E-03     2.14196E-03    -13.9228E-03     27.5463E-03    -13.7782E-03     2.17201E-03
             116     39.8170E-09     98.4346E-03    -23.0013E+06    -14.7163E+06    -22.9417E+06     1.80307E+06    -14.1947E-03     28.2880E-03    -14.0933E-03     2.33014E-03    -14.2550E-03     28.2813E-03    -14.1533E-03     2.35321E-03
             117    -57.0796E-09     97.4581E-03    -18.8218E+06    -9.94944E+06    -18.3733E+06     1.03985E+06    -14.4364E-03     28.9215E-03    -14.4852E-03     2.23179E-03    -14.4894E-03     28.9259E-03    -14.5353E-03     2.24501E-03
             118    -9.47389E-09     96.4827E-03    -14.3786E+06    -7.96138E+06    -14.2850E+06     33.6412E+03    -14.7359E-03     29.4887E-03    -14.7529E-03     1.99164E-03    -14.7754E-03     29.4907E-03    -14.7919E-03     1.99192E-03
             119     44.9964E-09     95.5050E-03    -11.2936E+06    -9.50886E+06    -10.7921E+06    -991.250E+03    -15.0036E-03     29.9613E-03    -14.9577E-03     1.98872E-03    -15.0305E-03     29.9460E-03    -14.9815E-03     1.97575E-03
             120     4.63109E-09     94.5283E-03    -9.05957E+06    -13.5151E+06    -9.35921E+06    -1.47095E+06    -15.1236E-03     30.3113E-03    -15.1878E-03     2.12272E-03    -15.1356E-03     30.2707E-03    -15.2018E-03     2.10349E-03
             121    -173.700E-09     93.5500E-03    -8.85237E+06    -18.1513E+06    -8.80955E+06    -1.18864E+06    -15.2460E-03     30.6049E-03    -15.3589E-03     2.13962E-03    -15.2511E-03     30.5399E-03    -15.3638E-03     2.12400E-03
             122     140.977E-09     92.5729E-03    -8.97371E+06    -22.1981E+06    -9.04895E+06    -1.28285E+06    -15.4167E-03     30.8483E-03    -15.4315E-03     2.08632E-03    -15.4162E-03     30.7636E-03    -15.4316E-03     2.06949E-03
             123    -137.346E-09     91.5944E-03    -8.44480E+06    -26.1135E+06    -8.43513E+06    -1.05117E+06    -15.5373E-03     31.0486E-03    -15.5113E-03     2.01844E-03    -15.5293E-03     30.9427E-03    -15.5034E-03     2.00461E-03
             124     177.874E-09     90.6167E-03    -9.71333E+06    -29.6458E+06    -9.68825E+06    -1.22869E+06    -15.6493E-03     31.2007E-03    -15.5515E-03     1.90171E-03    -15.6407E-03     31.0808E-03    -15.5428E-03     1.88562E-03
             125    -46.5518E-09     89.6382E-03    -12.1729E+06    -33.6260E+06    -12.0972E+06    -1.22663E+06    -15.6910E-03     31.2853E-03    -15.5943E-03     1.92224E-03    -15.6855E-03     31.1526E-03    -15.5884E-03     1.90616E-03
             126     85.6141E-09     88.6599E-03    -12.6885E+06    -37.5015E+06    -12.7877E+06    -1.12310E+06    -15.6395E-03     31.3338E-03    -15.6943E-03     2.03851E-03    -15.6299E-03     31.1835E-03    -15.6855E-03     2.02373E-03
             127    -224.983E-09     87.6815E-03    -11.6512E+06    -41.0643E+06    -11.6705E+06    -912.930E+03    -15.6685E-03     31.3990E-03    -15.7305E-03     2.06435E-03    -15.6502E-03     31.2278E-03    -15.7124E-03     2.05226E-03
             128     252.235E-09     86.7032E-03    -11.7753E+06    -43.2672E+06    -11.9957E+06    -534.358E+03    -15.7455E-03     31.4459E-03    -15.7004E-03     2.10581E-03    -15.7241E-03     31.2642E-03    -15.6806E-03     2.09860E-03
             129    -204.334E-09     85.7246E-03    -14.0958E+06    -44.5505E+06    -14.0504E+06    -248.120E+03    -15.7326E-03     31.4206E-03    -15.6880E-03     2.11265E-03    -15.7180E-03     31.2389E-03    -15.6732E-03     2.10913E-03
             130     233.759E-09     84.7465E-03    -14.4259E+06    -47.0093E+06    -13.8106E+06    -1.22689E+06    -15.7109E-03     31.4209E-03    -15.7100E-03     2.13071E-03    -15.6947E-03     31.2270E-03    -15.6900E-03     2.11455E-03
             131    -256.836E-09     83.7679E-03    -13.9047E+06    -50.1883E+06    -14.8114E+06    -699.787E+03    -15.6749E-03     31.4122E-03    -15.7373E-03     2.12981E-03    -15.6501E-03     31.2031E-03    -15.7184E-03     2.12046E-03
             132     156.718E-09     82.7898E-03    -16.0130E+06    -51.5532E+06    -15.4198E+06    -223.262E+03    -15.6736E-03     31.3946E-03    -15.7210E-03     2.09708E-03    -15.6565E-03     31.1826E-03    -15.7001E-03     2.09390E-03
             133    -135.991E-09     81.8114E-03    -15.9758E+06    -53.6160E+06    -16.1773E+06    -965.903E+03    -15.7100E-03     31.4002E-03    -15.6901E-03     2.09859E-03    -15.6886E-03     31.1789E-03    -15.6701E-03     2.08582E-03
             134     146.101E-09     80.8331E-03    -16.0835E+06    -55.7478E+06    -16.1467E+06    -350.421E+03    -15.7015E-03     31.3979E-03    -15.6964E-03     2.12566E-03    -15.6776E-03     31.1661E-03    -15.6730E-03     2.12082E-03
             135    -150.089E-09     79.8547E-03    -16.3922E+06    -57.2100E+06    -16.3086E+06    -487.687E+03    -15.6727E-03     31.3814E-03    -15.7087E-03     2.14973E-03    -15.6480E-03     31.1430E-03    -15.6835E-03     2.14311E-03
             136     89.0250E-09     78.8766E-03    -16.1014E+06    -58.5885E+06    -16.3011E+06    -358.244E+03    -15.6811E-03     31.3732E-03    -15.6921E-03     2.11970E-03    -15.6529E-03     31.1274E-03    -15.6653E-03     2.11477E-03
             137    -51.9191E-09     77.8983E-03    -16.3189E+06    -59.9029E+06    -16.1285E+06    -420.149E+03    -15.6970E-03     31.3784E-03    -15.6815E-03     2.12150E-03    -15.6682E-03     31.1262E-03    -15.6516E-03     2.11577E-03
             138     42.2550E-09     76.9200E-03    -15.5914E+06    -60.7766E+06    -15.9388E+06    -127.276E+03    -15.6908E-03     31.3727E-03    -15.6819E-03     2.10699E-03    -15.6575E-03     31.1147E-03    -15.6509E-03     2.10504E-03
             139    -22.9288E-09     75.9418E-03    -15.8419E+06    -61.4383E+06    -15.3951E+06    -303.307E+03    -15.6787E-03     31.3705E-03    -15.6918E-03     2.10798E-03    -15.6464E-03     31.1088E-03    -15.6567E-03     2.10376E-03
             140    -16.6853E-09     74.9636E-03    -15.2035E+06    -62.5563E+06    -15.6536E+06    -368.696E+03    -15.6646E-03     31.3693E-03    -15.7047E-03     2.07777E-03    -15.6272E-03     31.1014E-03    -15.6702E-03     2.07271E-03
             141    -21.9008E-09     73.9854E-03    -15.7319E+06    -63.1365E+06    -15.5522E+06     17.4428E+03    -15.6792E-03     31.3609E-03    -15.6816E-03     2.03746E-03    -15.6437E-03     31.0908E-03    -15.6450E-03     2.03739E-03
             142     56.2738E-09     73.0072E-03    -15.3473E+06    -63.6072E+06    -15.3264E+06    -295.716E+03    -15.6968E-03     31.3595E-03    -15.6626E-03     2.05856E-03    -15.6591E-03     31.0861E-03    -15.6248E-03     2.05445E-03
             143    -31.7751E-09     72.0289E-03    -15.0173E+06    -64.3601E+06    -15.0810E+06    -210.270E+03    -15.6684E-03     31.3423E-03    -15.6738E-03     2.09720E-03    -15.6283E-03     31.0643E-03    -15.6341E-03     2.09417E-03
             144    -5.12248E-09     71.0508E-03    -14.9478E+06    -64.9705E+06    -14.8218E+06    -153.874E+03    -15.6413E-03     31.3390E-03    -15.6977E-03     2.11805E-03    -15.6002E-03     31.0575E-03    -15.6559E-03     2.11576E-03
             145    -58.7600E-09     70.0725E-03    -14.6778E+06    -65.5143E+06    -14.7685E+06    -164.905E+03    -15.6702E-03     31.3472E-03    -15.6770E-03     2.11225E-03    -15.6271E-03     31.0625E-03    -15.6346E-03     2.10983E-03
             146     107.248E-09     69.0943E-03    -14.7130E+06    -66.0174E+06    -14.6915E+06         619.895    -15.7333E-03     31.3434E-03    -15.6101E-03     2.14160E-03    -15.6898E-03     31.0562E-03    -15.5665E-03     2.14131E-03
             147     60.5899E-09     68.1161E-03    -14.6957E+06    -66.2086E+06    -14.5824E+06    -147.440E+03    -15.7312E-03     31.3413E-03    -15.6101E-03     2.15764E-03    -15.6875E-03     31.0529E-03    -15.5657E-03     2.15542E-03
             148    -14.7451E-09     67.1380E-03    -14.6364E+06    -66.6051E+06    -14.8299E+06    -97.7586E+03    -15.6775E-03     31.3329E-03    -15.6554E-03     2.11726E-03    -15.6325E-03     31.0428E-03    -15.6117E-03     2.11568E-03
             149     3.71258E-09     66.1598E-03    -14.4794E+06    -66.5332E+06    -14.4116E+06     67.0215E+03    -15.6671E-03     31.3395E-03    -15.6724E-03     2.08711E-03    -15.6221E-03     31.0489E-03    -15.6269E-03     2.08768E-03
             150    -3.26361E-09     65.1818E-03    -14.3245E+06    -66.5809E+06    -14.2438E+06    -60.6359E+03    -15.6643E-03     31.3610E-03    -15.6967E-03     2.09666E-03    -15.6186E-03     31.0698E-03    -15.6506E-03     2.09557E-03
             151    -55.8905E-09     64.2033E-03    -14.1424E+06    -66.8040E+06    -14.1584E+06    -48.1343E+03    -15.6529E-03     31.3650E-03    -15.7121E-03     2.12094E-03    -15.6062E-03     31.0723E-03    -15.6655E-03     2.12000E-03
             152     7.82227E-09     63.2253E-03    -13.8323E+06    -66.6706E+06    -13.8460E+06    -65.3326E+03    -15.6607E-03     31.3518E-03    -15.6912E-03     2.14141E-03    -15.6130E-03     31.0588E-03    -15.6437E-03     2.14024E-03
             153    -16.1458E-09     62.2469E-03    -13.9624E+06    -66.9730E+06    -13.9871E+06    -35.4011E+03    -15.6610E-03     31.3301E-03    -15.6691E-03     2.14055E-03    -15.6133E-03     31.0360E-03    -15.6217E-03     2.13978E-03
             154     7.62244E-09     61.2690E-03    -13.9827E+06    -67.3153E+06    -14.0049E+06     40.0750E+03    -15.6417E-03     31.3116E-03    -15.6699E-03     2.10433E-03    -15.5937E-03     31.0158E-03    -15.6220E-03     2.10456E-03
             155    -51.3531E-09     60.2908E-03    -13.8481E+06    -67.2144E+06    -13.9151E+06     74.7477E+03    -15.6345E-03     31.3211E-03    -15.6866E-03     2.04765E-03    -15.5860E-03     31.0255E-03    -15.6386E-03     2.04833E-03
             156    -71.4634E-12     59.3127E-03    -13.9952E+06    -67.0793E+06    -13.9302E+06    -9.55249E+03    -15.6470E-03     31.3272E-03    -15.6802E-03     2.02911E-03    -15.5995E-03     31.0325E-03    -15.6323E-03     2.02871E-03
             157    -8.55646E-09     58.3344E-03    -13.7557E+06    -66.9448E+06    -13.8222E+06    -20.5563E+03    -15.6563E-03     31.3068E-03    -15.6505E-03     2.03037E-03    -15.6078E-03     31.0123E-03    -15.6026E-03     2.02982E-03
             158     24.5454E-09     57.3564E-03    -13.6681E+06    -66.8003E+06    -13.6252E+06    -113.091E+03    -15.6322E-03     31.2862E-03    -15.6540E-03     1.98153E-03    -15.5838E-03     30.9919E-03    -15.6054E-03     1.97979E-03
             159     65.8326E-09     55.4002E-03    -13.7878E+06    -67.0149E+06    -13.7804E+06    -29.2103E+03    -15.6230E-03     31.2446E-03    -15.6216E-03     1.96378E-03    -15.5747E-03     30.9497E-03    -15.5733E-03     1.96313E-03
             160    -50.4704E-09     54.4220E-03    -13.7512E+06    -67.0375E+06    -13.8347E+06     27.8590E+03    -15.6241E-03     31.2291E-03    -15.6050E-03     2.05352E-03    -15.5755E-03     30.9341E-03    -15.5570E-03     2.05358E-03
             161     65.8369E-09     53.4439E-03    -13.5828E+06    -66.9624E+06    -13.6282E+06     99.4374E+03    -15.5992E-03     31.2069E-03    -15.6077E-03     2.09489E-03    -15.5502E-03     30.9117E-03    -15.5590E-03     2.09586E-03
             162    -98.9190E-09     52.4659E-03    -13.6864E+06    -67.0607E+06    -13.6771E+06     26.9897E+03    -15.5455E-03     31.1361E-03    -15.5905E-03     2.08700E-03    -15.4968E-03     30.8406E-03    -15.5418E-03     2.08705E-03
             163     50.3122E-09     51.4880E-03    -13.5295E+06    -67.0372E+06    -13.5419E+06    -89.0471E+03    -15.5405E-03     31.1003E-03    -15.5598E-03     2.04491E-03    -15.4913E-03     30.8046E-03    -15.5106E-03     2.04346E-03
             164    -37.9456E-09     50.5101E-03    -13.4344E+06    -66.9833E+06    -13.5348E+06    -46.3569E+03    -15.5549E-03     31.0800E-03    -15.5251E-03     2.02022E-03    -15.5053E-03     30.7844E-03    -15.4762E-03     2.01933E-03
             165     75.2363E-09     49.5322E-03    -13.3510E+06     -66.912E+06    -13.0731E+06    -61.4553E+03    -15.5270E-03     31.0396E-03    -15.5126E-03     2.07194E-03    -15.4777E-03     30.7436E-03    -15.4616E-03     2.07085E-03
             166    -85.8984E-09     48.5542E-03    -13.1784E+06    -67.0109E+06    -13.4361E+06     145.976E+03    -15.4680E-03     30.9769E-03    -15.5088E-03     2.12115E-03    -15.4172E-03     30.6806E-03    -15.4597E-03     2.12272E-03
             167     19.1357E-09     47.5764E-03    -13.6792E+06    -66.4950E+06    -13.6163E+06     212.564E+03    -15.4464E-03     30.9167E-03    -15.4703E-03     2.09427E-03    -15.3986E-03     30.6240E-03    -15.4222E-03     2.09671E-03
             168     3.81193E-09     46.5989E-03    -12.9701E+06    -66.3422E+06    -12.9965E+06    -48.6754E+03    -15.4555E-03     30.8610E-03    -15.4054E-03     2.02949E-03    -15.4053E-03     30.5671E-03    -15.3554E-03     2.02857E-03
             169     59.7315E-09     45.6210E-03    -12.6064E+06    -66.3362E+06    -12.6505E+06     74.5835E+03    -15.4095E-03     30.7584E-03    -15.3489E-03     2.02722E-03    -15.3579E-03     30.4635E-03    -15.2977E-03     2.02789E-03
             170    -18.2986E-09     44.6436E-03    -13.4096E+06    -66.5472E+06    -13.2435E+06    -164.535E+03    -15.3114E-03     30.6458E-03    -15.3344E-03     2.03476E-03    -15.2627E-03     30.3520E-03    -15.2847E-03     2.03233E-03
             171    -64.0223E-09     43.6661E-03    -13.1211E+06    -66.7420E+06    -13.3936E+06     14.6417E+03    -15.2611E-03     30.5525E-03    -15.2913E-03     1.94468E-03    -15.2105E-03     30.2574E-03    -15.2425E-03     1.94460E-03
             172     87.8605E-09     42.6889E-03    -13.1745E+06    -66.2150E+06    -13.0488E+06     287.249E+03    -15.2471E-03     30.4586E-03    -15.2115E-03     1.90656E-03    -15.1980E-03     30.1658E-03    -15.1617E-03     1.91001E-03
             173    -48.9584E-09     41.7115E-03    -13.2064E+06    -65.5839E+06    -13.1564E+06     51.1796E+03    -15.1814E-03     30.3485E-03    -15.1671E-03     1.90551E-03    -15.1332E-03     30.0590E-03    -15.1187E-03     1.90591E-03
             174     34.1273E-09     40.7344E-03    -13.2748E+06    -65.5264E+06    -13.2999E+06    -7.98668E+03    -15.1287E-03     30.2065E-03    -15.0777E-03     1.88767E-03    -15.0807E-03     29.9176E-03    -15.0300E-03     1.88730E-03
             175     69.0922E-09     39.7573E-03    -12.7314E+06    -64.9936E+06    -12.9181E+06     297.516E+03    -15.0612E-03     30.0497E-03    -14.9885E-03     1.95634E-03    -15.0118E-03     29.7621E-03    -14.9404E-03     1.95989E-03
             176    -47.4671E-09     38.7805E-03    -13.9585E+06    -63.7618E+06    -13.8782E+06     469.312E+03    -14.8991E-03     29.8465E-03    -14.9474E-03     1.97587E-03    -14.8563E-03     29.5683E-03    -14.9041E-03     1.98164E-03
             177    -60.8375E-09     37.8039E-03    -14.7036E+06    -62.4308E+06    -14.7641E+06     480.539E+03    -14.7762E-03     29.6092E-03    -14.8330E-03     1.87546E-03    -14.7377E-03     29.3400E-03    -14.7950E-03     1.88141E-03
             178     65.8524E-09     36.8277E-03    -14.2469E+06    -61.2444E+06    -14.0672E+06     234.632E+03    -14.7015E-03     29.3988E-03    -14.6974E-03     1.77853E-03    -14.6634E-03     29.1339E-03    -14.6583E-03     1.78132E-03
             179    -63.1576E-09     35.8514E-03    -13.9385E+06    -60.8516E+06    -13.9093E+06    -98.3680E+03    -14.5728E-03     29.1648E-03    -14.5919E-03     1.72352E-03    -14.5340E-03     28.9011E-03    -14.5530E-03     1.72202E-03
             180     25.4165E-09     34.8754E-03    -14.0364E+06    -61.2726E+06    -13.9677E+06    -220.045E+03    -14.4387E-03     28.8644E-03    -14.4258E-03     1.70392E-03    -14.3997E-03     28.5989E-03    -14.3864E-03     1.70085E-03
             181     34.5509E-09     33.8998E-03    -14.2296E+06    -62.1303E+06    -14.2756E+06    -210.888E+03    -14.3042E-03     28.5420E-03    -14.2379E-03     1.69869E-03    -14.2644E-03     28.2729E-03    -14.1985E-03     1.69573E-03
             182     21.1454E-09     32.9246E-03    -13.9227E+06    -62.1155E+06    -13.9159E+06     75.1513E+03    -14.1122E-03     28.2098E-03    -14.0976E-03     1.65131E-03    -14.0715E-03     27.9398E-03    -14.0569E-03     1.65206E-03
             183    -52.3451E-09     31.9496E-03    -13.7760E+06    -61.8520E+06    -13.7433E+06     98.2480E+03    -13.9045E-03     27.8373E-03    -13.9328E-03     1.62414E-03    -13.8637E-03     27.5681E-03    -13.8918E-03     1.62519E-03
             184     32.3883E-09     30.9749E-03    -13.5617E+06    -61.6503E+06    -13.6580E+06     66.3476E+03    -13.7238E-03     27.4244E-03    -13.7006E-03     1.66755E-03    -13.6823E-03     27.1559E-03    -13.6599E-03     1.66817E-03
             185     26.1698E-09     30.0008E-03    -13.4877E+06    -61.3468E+06    -13.5245E+06     188.968E+03    -13.5050E-03     26.9681E-03    -13.4631E-03     1.65927E-03    -13.4638E-03     26.7008E-03    -13.4222E-03     1.66147E-03
             186    -12.2312E-09     29.0272E-03    -13.3595E+06    -60.9416E+06    -13.1992E+06     47.9858E+03    -13.2554E-03     26.4834E-03    -13.2280E-03     1.53903E-03    -13.2146E-03     26.2174E-03    -13.1862E-03     1.53944E-03
             187     47.6550E-09     28.0540E-03    -12.9892E+06    -60.6771E+06    -13.0940E+06     116.876E+03    -13.0095E-03     25.9895E-03    -12.9799E-03     1.47297E-03    -12.9674E-03     25.7241E-03    -12.9386E-03     1.47429E-03
             188    -32.8300E-09     27.0812E-03    -12.5464E+06    -59.8628E+06    -12.5335E+06     364.800E+03    -12.7324E-03     25.4620E-03    -12.7296E-03     1.39538E-03    -12.6900E-03     25.1992E-03    -12.6872E-03     1.39990E-03
             189     22.0959E-09     26.1092E-03    -11.8462E+06    -58.9628E+06    -11.7560E+06     120.220E+03    -12.4561E-03     24.9094E-03    -12.4533E-03     1.31558E-03    -12.4127E-03     24.6490E-03    -12.4094E-03     1.31696E-03
             190    -6.17287E-09     25.1374E-03    -11.1360E+06    -58.3740E+06    -11.3181E+06     194.367E+03    -12.1840E-03     24.3500E-03    -12.1660E-03     1.33411E-03    -12.1385E-03     24.0909E-03    -12.1218E-03     1.33645E-03
             191     19.1677E-09     24.1663E-03    -11.2132E+06    -57.7503E+06    -11.1836E+06     404.838E+03    -11.8876E-03     23.7478E-03    -11.8601E-03     1.30463E-03    -11.8436E-03     23.4917E-03    -11.8161E-03     1.30970E-03
             192     16.0668E-09     23.1959E-03    -11.3033E+06    -57.2159E+06    -11.1434E+06     210.583E+03    -11.5853E-03     23.1378E-03    -11.5525E-03     1.21670E-03    -11.5426E-03     22.8845E-03    -11.5088E-03     1.21927E-03
             193     8.12165E-09     22.2260E-03    -11.0633E+06    -57.2061E+06    -11.0509E+06    -142.400E+03    -11.2994E-03     22.5824E-03    -11.2830E-03     1.14439E-03    -11.2556E-03     22.3286E-03    -11.2392E-03     1.14241E-03
             194    -3.66645E-09     21.2566E-03    -10.5301E+06    -56.7768E+06    -10.9332E+06     210.450E+03    -11.0402E-03     22.0565E-03    -11.0163E-03     1.05641E-03    -10.9945E-03     21.8040E-03    -10.9734E-03     1.05898E-03
             195     36.3152E-09     20.2878E-03    -10.0515E+06    -54.8559E+06    -9.89578E+06     675.722E+03    -10.8129E-03     21.5633E-03    -10.7503E-03     955.640E-06    -10.7692E-03     21.3182E-03    -10.7057E-03     964.226E-06
             196     43.6315E-09     19.3193E-03    -8.58361E+06    -52.6039E+06    -8.55536E+06     521.231E+03    -10.5681E-03     21.1287E-03    -10.5606E-03     913.984E-06    -10.5222E-03     20.8908E-03    -10.5146E-03     920.594E-06
             197    -110.395E-09     18.3512E-03    -5.93905E+06    -50.0857E+06    -6.37375E+06     1.14144E+06    -10.3543E-03     20.7208E-03    -10.3665E-03     900.239E-06    -10.3019E-03     20.4884E-03    -10.3172E-03     914.869E-06
             198     149.722E-09     17.3833E-03    -3.93945E+06    -47.0712E+06    -3.30486E+06     930.523E+03    -10.1814E-03     20.2956E-03    -10.1143E-03     841.682E-06    -10.1279E-03     20.0710E-03    -10.0568E-03     853.594E-06
             199    -62.7725E-09     16.4166E-03    -2.03658E+06    -45.9927E+06    -2.01156E+06    -187.555E+03    -9.93716E-03     19.8690E-03    -9.93180E-03     719.624E-06    -9.87757E-03     19.6451E-03    -9.87221E-03     717.114E-06
             200    -14.8651E-09     15.4493E-03     481.752E+03    -45.9312E+06     96.9313E+03     211.103E+03    -9.70809E-03     19.3895E-03    -9.68145E-03     627.422E-06    -9.63906E-03     19.1593E-03    -9.61507E-03     630.065E-06
             201     135.174E-09     14.4831E-03     792.801E+03     -45.375E+06     983.079E+03     166.711E+03    -9.44017E-03     18.7000E-03    -9.25978E-03     538.816E-06    -9.37169E-03     18.4707E-03    -9.19022E-03     540.893E-06
             202     68.0908E-09     13.5176E-03    -1.51354E+06    -45.4342E+06    -1.69314E+06    -145.849E+03    -8.97651E-03     17.8384E-03    -8.86191E-03     349.171E-06    -8.91560E-03     17.6161E-03    -8.80230E-03     347.232E-06
             203    -69.2824E-09     12.5532E-03    -4.09636E+06    -45.2639E+06    -4.00264E+06     20.5361E+03    -8.45500E-03     16.8450E-03    -8.38999E-03     91.9917E-06    -8.40390E-03     16.6306E-03    -8.33843E-03     92.2114E-06
             204     187.497E-09     11.5893E-03    -6.81717E+06    -45.1184E+06    -6.75900E+06    -131.504E+03    -7.87760E-03     15.6331E-03    -7.75549E-03     15.1304E-06    -7.83632E-03     15.4274E-03    -7.71398E-03     13.3799E-06
             205    -87.0571E-09     10.6272E-03    -9.67568E+06    -45.0577E+06    -9.78652E+06    -23.8322E+03    -7.19900E-03     14.3515E-03    -7.15252E-03     44.7515E-06    -7.16770E-03     14.1547E-03    -7.12209E-03     44.3818E-06
             206     68.2270E-09     9.66574E-03    -12.3374E+06    -45.2187E+06    -12.0646E+06     40.0638E+03    -6.75564E-03     13.4203E-03    -6.66466E-03     171.847E-06    -6.73410E-03     13.2298E-03    -6.64152E-03     172.299E-06
             207     116.211E-09     8.70537E-03    -13.5597E+06    -45.7556E+06    -13.0936E+06    -138.535E+03    -6.65477E-03     13.1962E-03    -6.54147E-03     365.432E-06    -6.63707E-03     13.0064E-03    -6.52093E-03     363.575E-06
             208    -92.9977E-09     7.74465E-03    -12.4973E+06    -46.6819E+06    -12.4660E+06    -439.836E+03    -6.95154E-03     13.8927E-03    -6.94111E-03     471.485E-06    -6.92811E-03     13.6957E-03    -6.91763E-03     465.743E-06
             209     88.5725E-09     6.78285E-03    -10.0322E+06    -47.8299E+06    -10.1559E+06    -680.329E+03    -7.68053E-03     15.4094E-03    -7.72886E-03     584.022E-06    -7.64647E-03     15.1997E-03    -7.69574E-03     575.183E-06
             210    -171.959E-09     5.81908E-03    -6.88574E+06    -49.1377E+06    -6.92870E+06    -491.968E+03    -8.70391E-03     17.3994E-03    -8.69546E-03     690.533E-06    -8.65689E-03     17.1739E-03    -8.64886E-03     684.125E-06
             211     269.728E-09     4.85330E-03    -4.16050E+06    -50.8588E+06    -3.78108E+06    -626.812E+03    -9.76992E-03     19.5024E-03    -9.73246E-03     820.009E-06    -9.71129E-03     19.2598E-03    -9.67159E-03     811.875E-06
             212    -296.564E-09     3.88553E-03    -1.38776E+06    -52.8775E+06    -1.88178E+06    -580.528E+03    -10.7004E-03     21.4726E-03    -10.7722E-03     752.029E-06    -10.6277E-03     21.2132E-03    -10.7029E-03     744.489E-06
             213     189.542E-09     2.91622E-03    -1.80725E+06    -54.9588E+06    -2.21697E+06    -387.410E+03    -11.6222E-03     23.2602E-03    -11.6381E-03     556.477E-06    -11.5480E-03     22.9916E-03    -11.5668E-03     551.402E-06
             214    -116.041E-09     1.94495E-03    -4.47889E+06    -56.1057E+06    -4.13522E+06    -51.1665E+03    -12.3350E-03     24.6624E-03    -12.3274E-03     432.451E-06    -12.2696E-03     24.3947E-03    -12.2602E-03     431.736E-06
             215     59.2898E-09     972.743E-06    -5.66346E+06     -56.536E+06    -5.74671E+06    -168.232E+03    -12.7571E-03     25.5018E-03    -12.7447E-03     215.059E-06    -12.6945E-03     25.2360E-03    -12.6832E-03     212.936E-06
             216     888.524E-06    -145.717E-18    -6.54514E+06    -56.9396E+06    -6.51678E+06    -79.3130E+03    -12.9417E-03     25.8194E-03    -12.8776E-03     154.680E-06    -12.8821E-03     25.5537E-03    -12.8182E-03     153.712E-06
             217     1.77683E-03    -145.717E-18    -6.79066E+06    -57.7298E+06    -7.75476E+06    -81.1307E+03    -12.9937E-03     25.9151E-03    -12.9214E-03     342.653E-06    -12.9326E-03     25.6475E-03    -12.8666E-03     341.589E-06
             218     2.66522E-03    -145.717E-18    -6.78279E+06    -58.6277E+06    -9.84996E+06    -598.589E+03    -13.0985E-03     26.0486E-03    -12.9501E-03     551.802E-06    -13.0331E-03     25.7796E-03    -12.9046E-03     544.043E-06
             219     3.55336E-03    -145.717E-18    -6.87221E+06    -59.6512E+06    -12.7738E+06    -672.399E+03    -13.2418E-03     26.2276E-03    -12.9858E-03     758.024E-06    -13.1711E-03     25.9578E-03    -12.9532E-03     749.300E-06
             220     4.44150E-03    -145.717E-18    -6.84667E+06    -60.9737E+06    -16.4535E+06    -1.14301E+06    -13.4262E-03     26.4562E-03    -13.0300E-03     966.918E-06    -13.3482E-03     26.1851E-03    -13.0139E-03     952.101E-06
             221     5.32933E-03    -145.717E-18    -6.32591E+06    -62.1341E+06    -20.0467E+06    -1.64527E+06    -13.6569E-03     26.7435E-03    -13.0865E-03     1.19406E-03    -13.5694E-03     26.4710E-03    -13.0875E-03     1.17274E-03
             222     6.21705E-03    -145.717E-18    -5.30852E+06    -65.1666E+06    -22.3651E+06    -2.03903E+06    -13.9431E-03     27.1088E-03    -13.1657E-03     1.45357E-03    -13.8427E-03     26.8230E-03    -13.1753E-03     1.42715E-03
             223     7.10436E-03    -145.717E-18    -3.50548E+06    -67.7288E+06    -25.3239E+06    -2.75069E+06    -14.2777E-03     27.5325E-03    -13.2548E-03     1.74006E-03    -14.1603E-03     27.2357E-03    -13.2781E-03     1.70442E-03
             224     7.99149E-03    -145.717E-18    -852.259E+03    -67.7424E+06    -30.0525E+06     -3.4125E+06    -14.6553E-03     28.0001E-03    -13.3448E-03     2.08446E-03    -14.5178E-03     27.7062E-03    -13.3956E-03     2.04023E-03
             225     8.87810E-03    -145.717E-18     1.97284E+06    -67.0826E+06    -35.0639E+06    -3.53841E+06    -15.1056E-03     28.5536E-03    -13.4479E-03     2.46073E-03    -14.9477E-03     28.2662E-03    -13.5289E-03     2.41481E-03
             226     9.76452E-03    -145.717E-18     5.05473E+06    -63.5875E+06    -39.2170E+06    -3.96662E+06    -15.6482E-03     29.2182E-03    -13.5700E-03     3.01187E-03    -15.4738E-03     28.9498E-03    -13.6812E-03     2.96037E-03
             227     10.6498E-03    -145.717E-18     8.76420E+06    -54.1474E+06    -41.3380E+06    -4.64601E+06    -16.2271E-03     29.9402E-03    -13.7131E-03     3.53782E-03    -16.0448E-03     29.7167E-03    -13.8539E-03     3.47742E-03
             228     11.5355E-03    -145.717E-18     12.5519E+06    -38.3623E+06    -38.9892E+06    -3.99050E+06    -16.9623E-03     30.8551E-03    -13.8928E-03     4.09111E-03    -16.7874E-03     30.7017E-03    -14.0504E-03     4.03889E-03
             229     12.4195E-03    -145.717E-18     15.5578E+06    -14.9970E+06     -30.928E+06    -3.26966E+06    -18.0170E-03     32.1451E-03    -14.1281E-03     4.94534E-03    -17.8726E-03     32.0924E-03    -14.2836E-03     4.90240E-03
             230     13.3028E-03    -145.717E-18     17.4761E+06     18.3602E+06    -17.4381E+06    -2.11750E+06    -19.3121E-03     33.7396E-03    -14.4275E-03     6.16940E-03    -19.2261E-03     33.8314E-03    -14.5667E-03     6.14092E-03
             231     14.1841E-03    -145.717E-18     16.4120E+06     45.0333E+06    -142.343E+03     1.60648E+06    -22.0324E-03     36.8847E-03    -14.8523E-03     11.1752E-03    -22.0159E-03     37.0865E-03    -14.9421E-03     11.1933E-03
             232     15.0582E-03    -145.717E-18     16.7014E+06     61.2411E+06     25.5441E+06    -2.36668E+06    -24.7729E-03     40.2254E-03    -15.4525E-03     13.2694E-03    -24.8156E-03     40.4707E-03    -15.4378E-03     13.2358E-03
             233     15.9392E-03    -145.717E-18     13.9898E+06     75.2183E+06     54.9410E+06    -387.522E+03    -28.9664E-03     45.1839E-03    -16.2175E-03     17.7977E-03    -29.0891E-03     45.4643E-03    -16.0721E-03     17.7726E-03
             234     16.8045E-03    -145.717E-18     2.57750E+06     87.7466E+06     66.7573E+06     9.18827E+06    -46.1231E-03     63.5100E-03    -17.3870E-03     45.9985E-03    -46.4266E-03     63.9395E-03    -17.1841E-03     45.8983E-03
             235     17.6929E-03     1.04729E-03    -328.328E+03     104.728E+06     65.4592E+06     8.88332E+06    -52.0984E-03     69.3440E-03    -17.2457E-03     78.0372E-03    -52.6344E-03     70.0630E-03    -17.0698E-03     77.8227E-03
             236     17.7049E-03     2.07807E-03    -231.974E+03     119.409E+06     70.8394E+06     6.78192E+06    -52.2800E-03     68.2822E-03    -16.0022E-03     102.463E-03    -53.1437E-03     69.3703E-03    -15.8208E-03     102.172E-03
             237     17.7069E-03     3.11673E-03    -728.211E+03     133.941E+06     83.5892E+06      7.6393E+06    -63.4437E-03     78.9599E-03    -15.5162E-03     130.701E-03    -64.8511E-03     80.6042E-03    -15.2914E-03     130.200E-03
             238     17.7108E-03     4.15876E-03     302.009E+03     146.121E+06     91.3662E+06     4.07736E+06    -66.0318E-03     81.3814E-03    -15.3497E-03     159.330E-03    -68.1782E-03     83.7885E-03    -15.1051E-03     158.808E-03
             239     17.7122E-03     5.19601E-03    -3.05977E+06     150.382E+06     92.7847E+06     49.9917E+03    -62.7349E-03     78.0908E-03    -15.3559E-03     181.480E-03    -65.6122E-03     81.2250E-03    -15.1056E-03     181.340E-03
             240     17.7134E-03     6.21396E-03    -3.22015E+06     153.806E+06     93.4186E+06     1.23274E+06    -56.4400E-03     71.8896E-03    -15.4496E-03     192.331E-03    -59.7952E-03     75.5088E-03    -15.2008E-03     192.870E-03
             241     17.7149E-03     7.22374E-03    -2.15317E+06     155.798E+06     93.1530E+06     967.298E+03    -50.8999E-03     66.4190E-03    -15.5192E-03     199.693E-03    -54.6137E-03     70.4089E-03    -15.2762E-03     200.855E-03
             242     17.7157E-03     8.23304E-03    -3.00152E+06     156.149E+06     92.7880E+06     384.315E+03    -48.7811E-03     64.3228E-03    -15.5417E-03     209.181E-03    -52.9195E-03     68.7369E-03    -15.2998E-03     210.784E-03
             243     17.7157E-03     9.24154E-03    -2.58372E+06     159.466E+06     94.2496E+06     1.72527E+06    -47.0239E-03     62.6095E-03    -15.5857E-03     216.957E-03    -51.5775E-03     67.4475E-03    -15.3419E-03     219.021E-03
             244     17.7159E-03     10.2421E-03    -997.098E+03     163.386E+06     92.4906E+06     1.67222E+06    -43.8872E-03     59.5001E-03    -15.6129E-03     223.775E-03    -48.8150E-03     64.7363E-03    -15.3859E-03     226.347E-03
             245     17.7186E-03     11.2409E-03    -1.56762E+06     164.071E+06     89.9314E+06     772.612E+03    -42.3767E-03     57.9611E-03    -15.5844E-03     233.534E-03    -47.7091E-03     63.6105E-03    -15.3704E-03     236.463E-03
             246     17.7181E-03     12.2465E-03    -2.83411E+06     164.575E+06     91.7091E+06     164.111E+03    -42.5644E-03     58.1423E-03    -15.5779E-03     242.309E-03    -48.3001E-03     64.1867E-03    -15.3539E-03     245.490E-03
             247     17.7186E-03     13.2371E-03    -3.16379E+06     165.584E+06     93.1089E+06     260.563E+03    -42.0288E-03     57.6202E-03    -15.5914E-03     243.641E-03    -47.9785E-03     63.8761E-03    -15.3613E-03     247.112E-03
             248     17.7185E-03     14.2318E-03    -2.74912E+06     166.529E+06     92.8582E+06     719.259E+03    -40.8818E-03     56.4746E-03    -15.5928E-03     244.710E-03    -47.0234E-03     62.9286E-03    -15.3660E-03     248.517E-03
             249     17.7198E-03     15.2296E-03    -2.54855E+06     166.712E+06     92.0914E+06    -26.5822E+03    -39.8581E-03     55.4469E-03    -15.5888E-03     250.109E-03    -46.2788E-03     62.1835E-03    -15.3663E-03     254.195E-03
             250     17.7198E-03     16.2198E-03    -2.00748E+06     167.606E+06     93.3824E+06     356.375E+03    -38.9356E-03     54.5278E-03    -15.5923E-03     251.086E-03    -45.4583E-03     61.3676E-03    -15.3655E-03     255.381E-03
             251     17.7202E-03     17.2096E-03    -2.17732E+06     168.034E+06     94.3560E+06     406.118E+03    -39.0262E-03     54.6098E-03    -15.5837E-03     250.380E-03    -45.6184E-03     61.5173E-03    -15.3524E-03     254.805E-03
             252     17.7199E-03     18.2023E-03    -2.69613E+06     167.972E+06     93.6541E+06     702.562E+03    -39.2192E-03     54.7866E-03    -15.5674E-03     252.299E-03    -46.0004E-03     61.8832E-03    -15.3387E-03     256.888E-03
             253     17.7208E-03     19.1974E-03    -2.43558E+06     169.057E+06     93.3771E+06     517.489E+03    -37.7159E-03     53.3053E-03    -15.5894E-03     256.617E-03    -44.7774E-03     60.6877E-03    -15.3641E-03     261.564E-03
             254     17.7207E-03     20.1852E-03    -2.62103E+06     169.527E+06     93.4809E+06     121.458E+03    -36.3264E-03     51.9454E-03    -15.6190E-03     260.548E-03    -43.6404E-03     59.5809E-03    -15.3936E-03     265.829E-03
             255     17.7210E-03     21.1746E-03    -2.62504E+06     170.148E+06     93.6957E+06     428.740E+03    -35.9232E-03     51.5483E-03    -15.6252E-03     262.435E-03    -43.3866E-03     59.3349E-03    -15.3996E-03     267.896E-03
             256     17.7211E-03     22.1616E-03    -2.46501E+06     170.626E+06     93.9556E+06     250.237E+03    -35.2602E-03     50.8939E-03    -15.6337E-03     263.003E-03    -42.7959E-03     58.7541E-03    -15.4078E-03     268.618E-03
             257     17.7212E-03     23.1474E-03    -2.35513E+06     171.065E+06     94.3468E+06     153.835E+03    -34.5243E-03     50.1704E-03    -15.6461E-03     262.713E-03    -42.1020E-03     58.0734E-03    -15.4190E-03     268.487E-03
             258     17.7213E-03     24.1331E-03    -2.10540E+06     171.654E+06     94.1646E+06     207.104E+03    -33.7875E-03     49.4397E-03    -15.6522E-03     262.783E-03    -41.4121E-03     57.3931E-03    -15.4272E-03     268.706E-03
             259     17.7218E-03     25.1185E-03    -2.46118E+06     171.847E+06     94.6479E+06     289.642E+03    -33.2265E-03     48.8944E-03    -15.6678E-03     263.649E-03    -40.9279E-03     56.9226E-03    -15.4402E-03     269.712E-03
             260     17.7209E-03     26.1038E-03    -2.48176E+06     172.433E+06     95.2587E+06     274.333E+03    -32.7403E-03     48.4260E-03    -15.6857E-03     264.302E-03    -40.5346E-03     56.5473E-03    -15.4558E-03     270.514E-03
             261     17.7219E-03     27.0868E-03    -2.43252E+06     172.975E+06     94.8522E+06     345.426E+03    -32.0526E-03     47.7426E-03    -15.6900E-03     265.521E-03    -39.9374E-03     55.9578E-03    -15.4631E-03     271.901E-03
             262     17.7216E-03     28.0729E-03    -2.43680E+06     173.453E+06     94.3287E+06     61.8378E+03    -31.6825E-03     47.3711E-03    -15.6885E-03     268.228E-03    -39.7069E-03     55.7290E-03    -15.4649E-03     274.733E-03
             263     17.7222E-03     29.0557E-03    -2.33654E+06     173.528E+06     94.3669E+06     33.9119E+03    -31.0205E-03     46.7227E-03    -15.7022E-03     268.789E-03    -39.0908E-03     55.1270E-03    -15.4786E-03     275.397E-03
             264     17.7217E-03     30.0356E-03    -2.45627E+06     173.628E+06     95.1993E+06     180.950E+03    -30.3996E-03     46.1216E-03    -15.7220E-03     268.214E-03    -38.4767E-03     54.5303E-03    -15.4942E-03     274.935E-03
             265     17.7220E-03     31.0188E-03    -2.36881E+06     174.092E+06     95.3902E+06     190.687E+03    -30.1098E-03     45.8383E-03    -15.7285E-03     268.892E-03    -38.2627E-03     54.3241E-03    -15.5005E-03     275.725E-03
             266     17.7219E-03     32.0000E-03    -2.49365E+06     174.157E+06     95.2883E+06     196.787E+03    -29.5806E-03     45.3188E-03    -15.7382E-03     269.383E-03    -37.7710E-03     53.8423E-03    -15.5107E-03     276.305E-03
             267     17.7220E-03     32.9799E-03    -2.34804E+06     174.533E+06     95.6629E+06     124.597E+03    -29.2610E-03     45.0058E-03    -15.7448E-03     268.754E-03    -37.4407E-03     53.5194E-03    -15.5162E-03     275.720E-03
             268     17.7220E-03     33.9600E-03    -2.45631E+06     174.675E+06     95.7409E+06     64.7139E+03    -29.2506E-03     44.9920E-03    -15.7414E-03     268.384E-03    -37.4370E-03     53.5121E-03    -15.5124E-03     275.383E-03
             269     17.7221E-03     34.9420E-03    -2.56871E+06     174.439E+06     95.4662E+06    -143.261E+03    -28.9377E-03     44.6846E-03    -15.7468E-03     269.042E-03    -37.1712E-03     53.2513E-03    -15.5187E-03     276.107E-03
             270     17.7221E-03     35.9218E-03    -2.44273E+06     174.350E+06     95.9710E+06    -43.9403E+03    -28.6903E-03     44.4502E-03    -15.7599E-03     270.120E-03    -36.9874E-03     53.0792E-03    -15.5293E-03     277.262E-03
             271     17.7219E-03     36.9024E-03    -2.76849E+06     174.803E+06     96.2858E+06     331.307E+03    -28.5737E-03     44.3411E-03    -15.7674E-03     270.272E-03    -36.8976E-03     52.9965E-03    -15.5354E-03     277.459E-03
             272     17.7220E-03     37.8816E-03    -2.87879E+06     175.458E+06     96.0855E+06     366.835E+03    -28.2356E-03     44.0075E-03    -15.7719E-03     270.067E-03    -36.5607E-03     52.6666E-03    -15.5417E-03     277.294E-03
             273     17.7221E-03     38.8610E-03    -2.21345E+06     176.160E+06     96.1343E+06     345.069E+03    -27.9900E-03     43.7593E-03    -15.7693E-03     269.916E-03    -36.3090E-03     52.4170E-03    -15.5409E-03     277.178E-03
             274     17.7224E-03     39.8404E-03    -2.13431E+06     176.346E+06     96.1347E+06    -71.2169E+03    -27.9109E-03     43.6776E-03    -15.7667E-03     270.211E-03    -36.2462E-03     52.3526E-03    -15.5386E-03     277.488E-03
             275     17.7221E-03     40.8205E-03    -2.64789E+06     176.041E+06     96.3648E+06    -189.852E+03    -27.8177E-03     43.5950E-03    -15.7772E-03     270.438E-03    -36.1838E-03     52.2972E-03    -15.5468E-03     277.747E-03
             276     17.7220E-03     41.7987E-03    -2.66999E+06     176.129E+06     96.1728E+06     210.582E+03    -27.6452E-03     43.4278E-03    -15.7826E-03     270.208E-03    -36.0180E-03     52.1374E-03    -15.5533E-03     277.563E-03
             277     17.7223E-03     42.7777E-03    -2.34130E+06     176.289E+06     96.1462E+06     100.983E+03    -27.6101E-03     43.3884E-03    -15.7783E-03     270.377E-03    -35.9767E-03     52.0937E-03    -15.5498E-03     277.730E-03
             278     17.7221E-03     43.7579E-03    -2.36114E+06     176.594E+06     97.0558E+06     200.617E+03    -27.5972E-03     43.3815E-03    -15.7844E-03     270.520E-03    -35.9716E-03     52.0930E-03    -15.5517E-03     277.873E-03
             279     17.7221E-03     44.7352E-03    -2.62555E+06     177.148E+06     96.7128E+06     178.169E+03    -27.4825E-03     43.2650E-03    -15.7825E-03     270.068E-03    -35.8572E-03     51.9788E-03    -15.5520E-03     277.452E-03
             280     17.7224E-03     45.7148E-03    -2.58138E+06     177.438E+06     96.6901E+06     181.769E+03    -27.3438E-03     43.1258E-03    -15.7820E-03     270.123E-03    -35.7298E-03     51.8522E-03    -15.5521E-03     277.538E-03
             281     17.7220E-03     46.6945E-03    -2.48796E+06     177.797E+06     96.6732E+06     188.659E+03    -27.1066E-03     42.8971E-03    -15.7905E-03     271.133E-03    -35.5386E-03     51.6710E-03    -15.5613E-03     278.582E-03
             282     17.7225E-03     47.6719E-03    -2.22189E+06     178.274E+06     96.8408E+06     305.731E+03    -27.1633E-03     42.9512E-03    -15.7878E-03     271.242E-03    -35.5940E-03     51.7259E-03    -15.5589E-03     278.691E-03
             283     17.7220E-03     48.6509E-03    -2.52868E+06     178.839E+06     96.9374E+06     320.501E+03    -27.2931E-03     43.0728E-03    -15.7798E-03     270.606E-03    -35.7028E-03     51.8273E-03    -15.5507E-03     278.039E-03
             284     17.7226E-03     49.6294E-03    -2.28711E+06       179.4E+06     98.3775E+06     161.286E+03    -27.2195E-03     43.0135E-03    -15.7939E-03     270.223E-03    -35.6354E-03     51.7728E-03    -15.5589E-03     277.674E-03
             285     17.7214E-03     50.6081E-03    -1.81914E+06     179.445E+06     97.2336E+06    -193.167E+03    -26.6144E-03     42.4149E-03    -15.8004E-03     268.779E-03    -35.0031E-03     51.1522E-03    -15.5718E-03     276.270E-03
             286     17.7231E-03     51.5827E-03    -2.44294E+06     179.353E+06     95.2328E+06     496.766E+03    -27.4852E-03     43.2435E-03    -15.7583E-03     272.114E-03    -36.0159E-03     52.1262E-03    -15.5387E-03     279.609E-03
             287     17.7222E-03     52.5736E-03    -3.24937E+06     179.595E+06     96.3590E+06     97.4784E+03    -28.3944E-03     44.1486E-03    -15.7542E-03     277.484E-03    -37.0991E-03     53.2001E-03    -15.5281E-03     284.908E-03
             288     17.7224E-03     53.5478E-03    -3.00695E+06     180.585E+06     97.1163E+06    -104.708E+03    -26.5278E-03     42.3373E-03    -15.8095E-03     275.334E-03    -35.1212E-03     51.2797E-03    -15.5814E-03     282.864E-03
             289     17.7221E-03     54.5156E-03    -1.34959E+06     182.495E+06     94.5746E+06     1.44190E+06    -25.7976E-03     41.5739E-03    -15.7763E-03     269.520E-03    -34.1304E-03     50.2756E-03    -15.5661E-03     277.077E-03
             290     17.7239E-03     55.5000E-03    -4.41886E+06     180.321E+06     94.7318E+06    -1.44402E+06    -27.3558E-03     43.1322E-03    -15.7764E-03     267.204E-03    -35.6886E-03     51.8147E-03    -15.5578E-03     274.589E-03
             291     17.7179E-03     56.4782E-03     1.03911E+06     183.583E+06     89.4836E+06     3.56498E+06    -25.1701E-03     40.9904E-03    -15.8203E-03     267.999E-03    -33.5468E-03     49.7631E-03    -15.6406E-03     275.590E-03
             292     886.067E-06     57.3582E-03    -13.5310E+06    -65.7832E+06    -13.1871E+06    -46.5609E+03    -15.6429E-03     31.2930E-03    -15.6501E-03     3.46099E-03    -15.5960E-03     31.0029E-03    -15.6010E-03     3.45989E-03
             293     1.77215E-03     57.3628E-03    -13.0797E+06    -64.6172E+06    -11.6452E+06     25.6607E+03    -15.6529E-03     31.3039E-03    -15.6510E-03     6.51143E-03    -15.6078E-03     31.0168E-03    -15.5966E-03     6.51080E-03
             294     2.65821E-03     57.3703E-03    -12.2320E+06    -62.4105E+06    -9.58535E+06     65.2994E+03    -15.6561E-03     31.3117E-03    -15.6556E-03     9.73719E-03    -15.6131E-03     31.0315E-03    -15.5953E-03     9.73658E-03
             295     3.54430E-03     57.3810E-03    -11.1500E+06    -60.2410E+06    -7.26708E+06     166.342E+03    -15.6716E-03     31.3319E-03    -15.6602E-03     13.0980E-03    -15.6298E-03     31.0577E-03    -15.5930E-03     13.0981E-03
             296     4.43038E-03     57.3947E-03    -9.97952E+06    -63.0090E+06    -4.62435E+06     280.615E+03    -15.7079E-03     31.3823E-03    -15.6744E-03     16.5731E-03    -15.6603E-03     31.0890E-03    -15.5917E-03     16.5741E-03
             297     5.31646E-03     57.4118E-03    -9.10046E+06    -61.8465E+06    -3.24690E+06     383.112E+03    -15.7447E-03     31.4226E-03    -15.6779E-03     20.2298E-03    -15.6966E-03     31.1321E-03    -15.5913E-03     20.2314E-03
             298     6.20253E-03     57.4323E-03    -8.53289E+06    -60.2553E+06    -2.64899E+06     101.275E+03    -15.7890E-03     31.4668E-03    -15.6777E-03     24.0638E-03    -15.7418E-03     31.1830E-03    -15.5912E-03     24.0609E-03
             299     7.08862E-03     57.4566E-03    -7.86504E+06    -61.8417E+06    -1.66160E+06    -622.940E+03    -15.8589E-03     31.5437E-03    -15.6847E-03     28.0695E-03    -15.8081E-03     31.2502E-03    -15.5920E-03     28.0561E-03
             300     7.97468E-03     57.4845E-03    -7.20203E+06    -61.6405E+06    -234.946E+03    -3.61204E+03    -15.9447E-03     31.6378E-03    -15.6931E-03     32.2144E-03    -15.8939E-03     31.3433E-03    -15.5944E-03     32.2073E-03
             301     8.86067E-03     57.5166E-03    -6.52411E+06    -58.5047E+06     459.940E+03     1.01302E+06    -16.0269E-03     31.7215E-03    -15.6946E-03     36.4712E-03    -15.9799E-03     31.4423E-03    -15.5980E-03     36.4750E-03
             302     9.74674E-03     57.5524E-03    -5.72403E+06    -57.6365E+06     146.407E+03     582.984E+03    -16.1278E-03     31.8225E-03    -15.6947E-03     40.7648E-03    -16.0801E-03     31.5494E-03    -15.6021E-03     40.7599E-03
             303     10.6327E-03     57.5924E-03    -4.97963E+06    -54.1422E+06    -3.82116E+06     248.719E+03    -16.2318E-03     31.9047E-03    -15.6730E-03     45.1257E-03    -16.1835E-03     31.6577E-03    -15.6064E-03     45.1124E-03
             304     11.5188E-03     57.6362E-03    -4.42336E+06    -42.6819E+06    -2.10106E+06     196.787E+03    -16.2631E-03     31.9291E-03    -15.6660E-03     49.6277E-03    -16.2374E-03     31.7422E-03    -15.6082E-03     49.6085E-03
             305     12.4049E-03     57.6847E-03    -4.31597E+06    -36.5245E+06    -768.722E+03     122.794E+03    -16.3816E-03     32.0427E-03    -15.6610E-03     56.7063E-03    -16.3783E-03     31.8966E-03    -15.6057E-03     56.6791E-03
             306     13.2912E-03     57.7414E-03    -4.66249E+06    -34.3286E+06    -9.92023E+06     349.604E+03    -16.4338E-03     32.0419E-03    -15.6081E-03     59.1816E-03    -16.4382E-03     31.9367E-03    -15.6012E-03     59.1497E-03
             307     14.1776E-03     57.7946E-03    -5.46523E+06    -15.8812E+06    -11.7328E+06     593.120E+03    -17.0292E-03     32.6129E-03    -15.5837E-03     64.3929E-03    -17.0970E-03     32.6390E-03    -15.6115E-03     64.3564E-03
             308     15.0617E-03     57.8601E-03    -7.90070E+06     23.0425E+06    -13.7365E+06     2.24567E+06    -17.9299E-03     33.4595E-03    -15.5295E-03     99.5788E-03    -18.2541E-03     33.8772E-03    -15.6202E-03     99.5860E-03
             309     15.9501E-03     57.9808E-03    -3.57155E+06     85.5042E+06    -10.0442E+06     2.62770E+06    -19.1414E-03     34.5293E-03    -15.3879E-03     165.214E-03    -20.8909E-03     36.5980E-03    -15.5569E-03     165.828E-03
             310     16.8506E-03     58.1662E-03    -1.90884E+06     153.648E+06     48.3944E+06    -1.46093E+06    -25.2432E-03     40.7526E-03    -15.5094E-03     240.683E-03    -31.1741E-03     47.0819E-03    -15.4875E-03     244.955E-03
             311     886.076E-06     58.3364E-03    -13.6665E+06    -65.9091E+06    -13.3810E+06     56.7098E+03    -15.6566E-03     31.3089E-03    -15.6523E-03     3.47408E-03    -15.6099E-03     31.0187E-03    -15.6038E-03     3.47431E-03
             312     1.77212E-03     58.3409E-03    -13.2394E+06    -64.6490E+06    -11.8481E+06     87.4347E+03    -15.6593E-03     31.3177E-03    -15.6584E-03     6.50885E-03    -15.6147E-03     31.0309E-03    -15.6047E-03     6.50902E-03
             313     2.65820E-03     58.3485E-03    -12.4361E+06    -62.3524E+06    -9.75839E+06    -41.4280E+03    -15.6637E-03     31.3264E-03    -15.6628E-03     9.75096E-03    -15.6215E-03     31.0470E-03    -15.6031E-03     9.74897E-03
             314     3.54427E-03     58.3591E-03    -11.2722E+06    -60.2987E+06    -7.44087E+06    -151.189E+03    -15.6752E-03     31.3422E-03    -15.6671E-03     13.1119E-03    -15.6336E-03     31.0682E-03    -15.6005E-03     13.1079E-03
             315     4.43036E-03     58.3729E-03    -9.82926E+06    -63.2386E+06    -4.59137E+06    -54.9696E+03    -15.7112E-03     31.3925E-03    -15.6812E-03     16.5901E-03    -15.6626E-03     31.0977E-03    -15.5983E-03     16.5868E-03
             316     5.31642E-03     58.3899E-03    -8.26455E+06    -62.1741E+06    -2.79525E+06     244.176E+03    -15.7486E-03     31.4337E-03    -15.6851E-03     20.2482E-03    -15.6966E-03     31.1397E-03    -15.5969E-03     20.2480E-03
             317     6.20252E-03     58.4106E-03    -6.87687E+06    -59.5821E+06    -1.02038E+06     97.4214E+03    -15.8010E-03     31.4887E-03    -15.6877E-03     24.0788E-03    -15.7488E-03     31.2035E-03    -15.5965E-03     24.0758E-03
             318     7.08858E-03     58.4347E-03    -6.60826E+06    -61.8649E+06     600.583E+03     246.617E+03    -15.8787E-03     31.5790E-03    -15.7003E-03     28.0705E-03    -15.8249E-03     31.2803E-03    -15.5980E-03     28.0682E-03
             319     7.97459E-03     58.4628E-03    -7.13398E+06    -62.8878E+06     541.064E+03     832.171E+03    -15.9488E-03     31.6540E-03    -15.7051E-03     32.2305E-03    -15.8971E-03     31.3520E-03    -15.6009E-03     32.2342E-03
             320     8.86067E-03     58.4946E-03    -6.66637E+06    -58.3218E+06     362.752E+03     614.824E+03    -16.0113E-03     31.7106E-03    -15.6993E-03     36.5170E-03    -15.9651E-03     31.4326E-03    -15.6032E-03     36.5157E-03
             321     9.74670E-03     58.5308E-03    -5.32397E+06    -56.8641E+06     487.395E+03    -6.50541E+03    -16.1075E-03     31.8053E-03    -15.6977E-03     40.8253E-03    -16.0594E-03     31.5349E-03    -15.6051E-03     40.8128E-03
             322     10.6328E-03     58.5705E-03    -4.49771E+06    -54.4228E+06    -3.57532E+06    -180.861E+03    -16.2019E-03     31.8764E-03    -15.6745E-03     45.1504E-03    -16.1512E-03     31.6268E-03    -15.6069E-03     45.1316E-03
             323     11.5188E-03     58.6147E-03    -4.20831E+06    -42.5773E+06    -1.73252E+06     5.95975E+03    -16.2694E-03     31.9362E-03    -15.6668E-03     49.6224E-03    -16.2434E-03     31.7491E-03    -15.6076E-03     49.6007E-03
             324     12.4050E-03     58.6625E-03    -3.76676E+06    -36.7738E+06    -700.260E+03     242.420E+03    -16.3999E-03     32.0612E-03    -15.6614E-03     56.4992E-03    -16.3935E-03     31.9130E-03    -15.6061E-03     56.4735E-03
             325     13.2909E-03     58.7199E-03    -3.66893E+06    -34.5962E+06    -9.58187E+06     398.702E+03    -16.5062E-03     32.1187E-03    -15.6125E-03     58.8346E-03    -16.5060E-03     32.0104E-03    -15.6049E-03     58.8029E-03
             326     14.1771E-03     58.7718E-03    -4.21481E+06    -16.8568E+06    -11.2269E+06     1.19125E+06    -16.7863E-03     32.3701E-03    -15.5838E-03     64.8437E-03    -16.8477E-03     32.3892E-03    -15.6094E-03     64.8157E-03
             327     15.0629E-03     58.8421E-03    -2.43687E+06     22.4752E+06    -11.2815E+06     1.28637E+06    -17.1600E-03     32.6661E-03    -15.5061E-03     97.4117E-03    -17.4459E-03     33.0559E-03    -15.5915E-03     97.4104E-03
             328     15.9516E-03     58.9504E-03    -1.12868E+06     86.6187E+06    -6.39748E+06    -1.38666E+06    -21.1167E-03     36.5309E-03    -15.4143E-03     162.189E-03    -22.9137E-03     38.6495E-03    -15.5702E-03     162.661E-03
             329     16.8260E-03     59.1455E-03    -3.59731E+06     154.350E+06     49.3411E+06    -493.033E+03    -25.9441E-03     41.5551E-03    -15.6110E-03     238.602E-03    -31.8277E-03     47.8308E-03    -15.5829E-03     242.865E-03
             330     886.041E-06     59.3145E-03    -13.7497E+06    -66.0692E+06    -13.4072E+06     33.7522E+03    -15.6515E-03     31.3222E-03    -15.6707E-03     3.47779E-03    -15.6050E-03     31.0314E-03    -15.6220E-03     3.47773E-03
             331     1.77212E-03     59.3191E-03    -13.1694E+06    -64.7019E+06    -11.7273E+06     110.149E+03    -15.6618E-03     31.3265E-03    -15.6647E-03     6.52034E-03    -15.6169E-03     31.0391E-03    -15.6104E-03     6.52080E-03
             332     2.65818E-03     59.3266E-03    -12.4022E+06    -62.1260E+06    -9.54734E+06    -4.23907E+03    -15.6681E-03     31.3364E-03    -15.6683E-03     9.76508E-03    -15.6263E-03     31.0577E-03    -15.6080E-03     9.76356E-03
             333     3.54426E-03     59.3373E-03    -11.4555E+06    -59.9844E+06    -7.16774E+06    -360.035E+03    -15.6804E-03     31.3537E-03    -15.6733E-03     13.1252E-03    -15.6406E-03     31.0811E-03    -15.6055E-03     13.1185E-03
             334     4.43032E-03     59.3510E-03    -10.1048E+06    -63.2829E+06    -4.44774E+06    -590.855E+03    -15.7160E-03     31.4038E-03    -15.6878E-03     16.6027E-03    -15.6688E-03     31.1090E-03    -15.6036E-03     16.5924E-03
             335     5.31640E-03     59.3682E-03    -8.48051E+06    -62.4715E+06    -2.78157E+06    -512.142E+03    -15.7559E-03     31.4475E-03    -15.6915E-03     20.2631E-03    -15.7046E-03     31.1523E-03    -15.6026E-03     20.2531E-03
             336     6.20248E-03     59.3887E-03    -7.35042E+06    -59.7488E+06    -958.075E+03     22.1520E+03    -15.8095E-03     31.5046E-03    -15.6951E-03     24.1005E-03    -15.7595E-03     31.2192E-03    -15.6026E-03     24.0965E-03
             337     7.08850E-03     59.4130E-03    -6.62285E+06    -63.2120E+06     1.21686E+06     1.17900E+06    -15.8836E-03     31.5952E-03    -15.7116E-03     28.0714E-03    -15.8287E-03     31.2889E-03    -15.6043E-03     28.0812E-03
             338     7.97459E-03     59.4409E-03    -5.74559E+06    -62.8356E+06     1.71077E+06     1.52256E+06    -15.9455E-03     31.6597E-03    -15.7143E-03     32.2290E-03    -15.8885E-03     31.3544E-03    -15.6063E-03     32.2416E-03
             339     8.86061E-03     59.4730E-03    -4.81112E+06    -56.8845E+06     1.22808E+06     168.454E+03    -16.0096E-03     31.7124E-03    -15.7028E-03     36.5320E-03    -15.9575E-03     31.4377E-03    -15.6072E-03     36.5249E-03
             340     9.74671E-03     59.5088E-03    -3.98786E+06    -56.8545E+06     859.659E+03    -547.244E+03    -16.0915E-03     31.7914E-03    -15.6999E-03     40.8248E-03    -16.0372E-03     31.5187E-03    -15.6074E-03     40.8054E-03
             341     10.6327E-03     59.5490E-03    -3.79851E+06    -54.6508E+06    -3.36870E+06    -139.507E+03    -16.1951E-03     31.8706E-03    -15.6756E-03     45.1109E-03    -16.1408E-03     31.6187E-03    -15.6077E-03     45.0927E-03
             342     11.5189E-03     59.5925E-03    -3.90492E+06    -42.7989E+06    -1.56048E+06     126.857E+03    -16.2955E-03     31.9642E-03    -15.6687E-03     49.6450E-03    -16.2680E-03     31.7754E-03    -15.6088E-03     49.6248E-03
             343     12.4046E-03     59.6414E-03    -3.91095E+06    -36.9970E+06    -674.997E+03     231.231E+03    -16.4369E-03     32.1023E-03    -15.6654E-03     56.4386E-03    -16.4309E-03     31.9531E-03    -15.6095E-03     56.4126E-03
             344     13.2911E-03     59.6972E-03    -3.98543E+06    -34.9062E+06    -9.86636E+06     300.500E+03    -16.6800E-03     32.3017E-03    -15.6216E-03     59.3596E-03    -16.6817E-03     32.1939E-03    -15.6146E-03     59.3258E-03
             345     14.1761E-03     59.7520E-03    -3.62714E+06    -17.7675E+06    -10.9123E+06     399.168E+03    -16.4114E-03     32.0005E-03    -15.5891E-03     64.4808E-03    -16.4668E-03     32.0116E-03    -15.6126E-03     64.4445E-03
             346     15.0642E-03     59.8168E-03    -3.06561E+06     23.6226E+06    -10.3987E+06    -362.026E+03    -17.3905E-03     32.9005E-03    -15.5100E-03     96.1973E-03    -17.6817E-03     33.2949E-03    -15.5918E-03     96.1698E-03
             347     15.9486E-03     59.9311E-03    -4.86711E+06     86.5398E+06    -8.40046E+06    -203.806E+03    -22.2336E-03     37.6694E-03    -15.4359E-03     167.362E-03    -24.1491E-03     39.8992E-03    -15.5963E-03     167.879E-03
             348     16.8376E-03     60.1336E-03    -4.91807E+06     153.473E+06     47.4021E+06     940.090E+03    -25.7086E-03     41.3408E-03    -15.6322E-03     242.176E-03    -31.5908E-03     47.6131E-03    -15.6106E-03     246.515E-03
             349     886.063E-06     60.2927E-03    -13.7244E+06    -66.1100E+06    -13.3864E+06     13.0100E+03    -15.6494E-03     31.3236E-03    -15.6743E-03     3.49419E-03    -15.6027E-03     31.0325E-03    -15.6254E-03     3.49386E-03
             350     1.77211E-03     60.2972E-03    -13.0816E+06    -64.8070E+06    -11.5918E+06    -2.98980E+03    -15.6668E-03     31.3335E-03    -15.6667E-03     6.53268E-03    -15.6215E-03     31.0454E-03    -15.6118E-03     6.53168E-03
             351     2.65818E-03     60.3048E-03    -12.0968E+06    -62.0327E+06    -9.10739E+06     51.5621E+03    -15.6727E-03     31.3451E-03    -15.6723E-03     9.77489E-03    -15.6302E-03     31.0658E-03    -15.6104E-03     9.77409E-03
             352     3.54425E-03     60.3154E-03    -11.2432E+06    -59.5222E+06    -6.39726E+06    -98.7298E+03    -15.6878E-03     31.3672E-03    -15.6794E-03     13.1313E-03    -15.6487E-03     31.0955E-03    -15.6088E-03     13.1280E-03
             353     4.43031E-03     60.3293E-03    -10.3789E+06    -62.6815E+06    -3.76421E+06    -672.600E+03    -15.7271E-03     31.4226E-03    -15.6955E-03     16.6082E-03    -15.6832E-03     31.1303E-03    -15.6084E-03     16.5968E-03
             354     5.31637E-03     60.3462E-03    -9.33902E+06    -62.6703E+06    -2.74866E+06    -882.568E+03    -15.7671E-03     31.4668E-03    -15.6997E-03     20.2759E-03    -15.7198E-03     31.1719E-03    -15.6090E-03     20.2612E-03
             355     6.20241E-03     60.3670E-03    -8.30435E+06    -61.0527E+06    -1.96868E+06     73.4394E+03    -15.8096E-03     31.5098E-03    -15.7001E-03     24.1192E-03    -15.7611E-03     31.2207E-03    -15.6094E-03     24.1159E-03
             356     7.08850E-03     60.3911E-03    -7.27459E+06    -64.5934E+06    -14.0978E+03     1.18494E+06    -15.8777E-03     31.5918E-03    -15.7141E-03     28.0857E-03    -15.8223E-03     31.2813E-03    -15.6099E-03     28.0955E-03
             357     7.97451E-03     60.4193E-03    -5.67819E+06    -61.7606E+06     985.416E+03     712.227E+03    -15.9412E-03     31.6546E-03    -15.7134E-03     32.2497E-03    -15.8844E-03     31.3555E-03    -15.6107E-03     32.2519E-03
             358     8.86062E-03     60.4511E-03    -4.02049E+06    -55.4897E+06     869.705E+03    -379.777E+03    -16.0064E-03     31.7077E-03    -15.7013E-03     36.5659E-03    -15.9518E-03     31.4394E-03    -15.6107E-03     36.5518E-03
             359     9.74660E-03     60.4873E-03    -3.65563E+06    -57.5222E+06     598.876E+03    -250.316E+03    -16.0885E-03     31.7902E-03    -15.7017E-03     40.7961E-03    -16.0312E-03     31.5140E-03    -15.6100E-03     40.7805E-03
             360     10.6328E-03     60.5268E-03    -3.91049E+06    -54.8588E+06    -3.43292E+06     183.703E+03    -16.2129E-03     31.8914E-03    -15.6785E-03     45.1578E-03    -16.1589E-03     31.6387E-03    -15.6105E-03     45.1436E-03
             361     11.5186E-03     60.5713E-03    -4.04684E+06    -43.0780E+06    -1.67618E+06     273.261E+03    -16.2561E-03     31.9267E-03    -15.6706E-03     49.6452E-03    -16.2286E-03     31.7368E-03    -15.6106E-03     49.6270E-03
             362     12.4051E-03     60.6190E-03    -3.89366E+06    -36.9484E+06    -656.607E+03     330.987E+03    -16.4480E-03     32.1139E-03    -15.6659E-03     56.5157E-03    -16.4422E-03     31.9650E-03    -15.6100E-03     56.4910E-03
             363     13.2906E-03     60.6763E-03    -3.99195E+06    -35.0365E+06    -9.95295E+06     170.111E+03    -16.5481E-03     32.1657E-03    -15.6176E-03     59.6477E-03    -16.5494E-03     32.0573E-03    -15.6108E-03     59.6128E-03
             364     14.1773E-03     60.7299E-03    -4.47924E+06    -17.4196E+06    -11.2151E+06    -45.7500E+03    -16.3935E-03     31.9738E-03    -15.5803E-03     64.0370E-03    -16.4521E-03     31.9872E-03    -15.6046E-03     63.9951E-03
             365     15.0626E-03     60.7942E-03    -4.98005E+06     23.4674E+06    -11.7040E+06     164.557E+03    -17.7975E-03     33.3062E-03    -15.5088E-03     97.2850E-03    -18.1072E-03     33.7155E-03    -15.5941E-03     97.2628E-03
             366     15.9497E-03     60.9109E-03    -5.90299E+06     85.4064E+06    -9.78968E+06     522.918E+03    -20.9280E-03     36.3389E-03    -15.4109E-03     167.134E-03    -22.8090E-03     38.5306E-03    -15.5752E-03     167.725E-03
             367     16.8365E-03     61.1069E-03    -4.50246E+06     154.039E+06     47.6479E+06     535.903E+03    -25.1769E-03     40.7499E-03    -15.5730E-03     239.120E-03    -30.9705E-03     46.9362E-03    -15.5516E-03     243.384E-03
             368     886.066E-06     61.2708E-03    -13.7452E+06    -66.0867E+06    -13.3825E+06    -4.94420E+03    -15.6571E-03     31.3229E-03    -15.6658E-03     3.51688E-03    -15.6106E-03     31.0320E-03    -15.6170E-03     3.51631E-03
             369     1.77212E-03     61.2755E-03    -13.0804E+06    -64.6883E+06    -11.4351E+06    -151.916E+03    -15.6745E-03     31.3432E-03    -15.6687E-03     6.52867E-03    -15.6296E-03     31.0554E-03    -15.6131E-03     6.52574E-03
             370     2.65817E-03     61.2829E-03    -12.0097E+06    -62.2316E+06    -8.94388E+06    -80.7066E+03    -15.6779E-03     31.3545E-03    -15.6766E-03     9.77827E-03    -15.6349E-03     31.0739E-03    -15.6137E-03     9.77577E-03
             371     3.54423E-03     61.2937E-03    -10.8178E+06    -59.4761E+06    -6.08637E+06     172.465E+03    -15.6934E-03     31.3773E-03    -15.6839E-03     13.1344E-03    -15.6527E-03     31.1047E-03    -15.6124E-03     13.1346E-03
             372     4.43030E-03     61.3074E-03    -10.0597E+06    -61.9675E+06    -3.15702E+06     59.6396E+03    -15.7353E-03     31.4364E-03    -15.7011E-03     16.6170E-03    -15.6917E-03     31.1463E-03    -15.6125E-03     16.6151E-03
             373     5.31631E-03     61.3246E-03    -10.0034E+06    -62.8106E+06    -2.69309E+06    -74.5571E+03    -15.7714E-03     31.4772E-03    -15.7059E-03     20.2853E-03    -15.7273E-03     31.1824E-03    -15.6137E-03     20.2810E-03
             374     6.20240E-03     61.3450E-03    -9.91433E+06    -62.2525E+06    -3.44374E+06     279.342E+03    -15.8062E-03     31.5076E-03    -15.7014E-03     24.1413E-03    -15.7618E-03     31.2170E-03    -15.6140E-03     24.1407E-03
             375     7.08842E-03     61.3695E-03    -8.29264E+06    -64.5088E+06    -2.17188E+06    -19.9172E+03    -15.8666E-03     31.5748E-03    -15.7081E-03     28.1347E-03    -15.8133E-03     31.2693E-03    -15.6134E-03     28.1291E-03
             376     7.97453E-03     61.3973E-03    -5.87957E+06    -60.6166E+06    -635.389E+03    -864.621E+03    -15.9333E-03     31.6393E-03    -15.7060E-03     32.3201E-03    -15.8768E-03     31.3486E-03    -15.6128E-03     32.3019E-03
             377     8.86054E-03     61.4295E-03    -4.94334E+06    -55.8249E+06    -50.5772E+03    -499.316E+03    -15.9980E-03     31.6977E-03    -15.6997E-03     36.5933E-03    -15.9462E-03     31.4303E-03    -15.6118E-03     36.5776E-03
             378     9.74672E-03     61.4652E-03    -4.79294E+06    -58.0491E+06     249.309E+03     207.769E+03    -16.1016E-03     31.8055E-03    -15.7039E-03     40.8171E-03    -16.0488E-03     31.5288E-03    -15.6115E-03     40.8074E-03
             379     10.6326E-03     61.5053E-03    -4.60624E+06    -54.9661E+06    -3.78399E+06     262.574E+03    -16.1986E-03     31.8781E-03    -15.6795E-03     45.2148E-03    -16.1473E-03     31.6264E-03    -15.6121E-03     45.2017E-03
             380     11.5189E-03     61.5493E-03    -4.33356E+06    -43.1214E+06    -1.81446E+06     268.445E+03    -16.2372E-03     31.9079E-03    -15.6707E-03     49.6134E-03    -16.2109E-03     31.7184E-03    -15.6110E-03     49.5952E-03
             381     12.4047E-03     61.5974E-03    -3.99259E+06    -37.0895E+06    -807.687E+03     217.626E+03    -16.4185E-03     32.0825E-03    -15.6641E-03     56.6452E-03    -16.4129E-03     31.9334E-03    -15.6085E-03     56.6190E-03
             382     13.2911E-03     61.6546E-03    -4.02040E+06    -34.7729E+06    -9.84085E+06     164.959E+03    -16.3825E-03     31.9927E-03    -15.6102E-03     59.4012E-03    -16.3836E-03     31.8846E-03    -15.6031E-03     59.3669E-03
             383     14.1771E-03     61.7074E-03    -4.76737E+06    -17.3391E+06    -11.3909E+06     228.061E+03    -16.3474E-03     31.9136E-03    -15.5662E-03     63.8241E-03    -16.4073E-03     31.9281E-03    -15.5911E-03     63.7861E-03
             384     15.0642E-03     61.7731E-03    -5.38637E+06     22.5920E+06    -12.5312E+06     371.505E+03    -17.8622E-03     33.3560E-03    -15.4937E-03     97.7995E-03    -18.1755E-03     33.7666E-03    -15.5813E-03     97.7814E-03
             385     15.9492E-03     61.8888E-03    -5.53555E+06     85.5143E+06    -9.44510E+06     702.101E+03    -21.4672E-03     36.8846E-03    -15.4174E-03     166.424E-03    -23.3257E-03     39.0544E-03    -15.5806E-03     166.987E-03
             386     16.8354E-03     62.0848E-03    -4.29938E+06     154.444E+06     48.0029E+06     324.251E+03    -25.3242E-03     40.9209E-03    -15.5967E-03     239.942E-03    -31.1834E-03     47.1739E-03    -15.5744E-03     244.260E-03
             387     886.054E-06     62.2491E-03    -13.7643E+06    -65.9245E+06    -13.4153E+06    -108.728E+03    -15.6663E-03     31.3346E-03    -15.6684E-03     3.53506E-03    -15.6200E-03     31.0446E-03    -15.6199E-03     3.53314E-03
             388     1.77211E-03     62.2536E-03    -13.2097E+06    -64.5509E+06    -11.5813E+06    -140.306E+03    -15.6759E-03     31.3493E-03    -15.6733E-03     6.53082E-03    -15.6317E-03     31.0626E-03    -15.6185E-03     6.52804E-03
             389     2.65815E-03     62.2612E-03    -12.3572E+06    -62.2684E+06    -9.26964E+06    -180.272E+03    -15.6814E-03     31.3615E-03    -15.6801E-03     9.78457E-03    -15.6396E-03     31.0817E-03    -15.6182E-03     9.78077E-03
             390     3.54422E-03     62.2718E-03    -11.1491E+06    -59.9195E+06    -6.91964E+06     11.5454E+03    -15.6938E-03     31.3787E-03    -15.6849E-03     13.1497E-03    -15.6529E-03     31.1056E-03    -15.6164E-03     13.1479E-03
             391     4.43027E-03     62.2857E-03    -9.72023E+06    -61.9952E+06    -3.74529E+06     432.357E+03    -15.7302E-03     31.4304E-03    -15.7003E-03     16.6348E-03    -15.6840E-03     31.1405E-03    -15.6150E-03     16.6378E-03
             392     5.31636E-03     62.3027E-03    -8.57194E+06    -63.3214E+06    -1.50719E+06     963.487E+03    -15.7752E-03     31.4868E-03    -15.7116E-03     20.2883E-03    -15.7249E-03     31.1857E-03    -15.6149E-03     20.2974E-03
             393     6.20237E-03     62.3234E-03    -7.84472E+06    -62.1326E+06    -1.74463E+06     777.936E+03    -15.8097E-03     31.5170E-03    -15.7073E-03     24.1445E-03    -15.7576E-03     31.2216E-03    -15.6146E-03     24.1503E-03
             394     7.08847E-03     62.3475E-03    -7.37366E+06    -62.5659E+06    -2.19750E+06    -923.945E+03    -15.8591E-03     31.5626E-03    -15.7035E-03     28.1854E-03    -15.8041E-03     31.2656E-03    -15.6130E-03     28.1681E-03
             395     7.97450E-03     62.3757E-03    -7.13063E+06    -60.7776E+06    -1.71426E+06    -1.50278E+06    -15.9245E-03     31.6259E-03    -15.7014E-03     32.3693E-03    -15.8724E-03     31.3378E-03    -15.6115E-03     32.3429E-03
             396     8.86064E-03     62.4075E-03    -6.51444E+06    -57.0406E+06    -520.384E+03    -441.425E+03    -15.9983E-03     31.6985E-03    -15.7003E-03     36.6110E-03    -15.9519E-03     31.4280E-03    -15.6107E-03     36.5961E-03
             397     9.74659E-03     62.4436E-03    -5.61663E+06    -58.1974E+06     196.830E+03     55.5906E+03    -16.0988E-03     31.8031E-03    -15.7043E-03     40.8702E-03    -16.0498E-03     31.5270E-03    -15.6107E-03     40.8586E-03
             398     10.6328E-03     62.4834E-03    -4.95688E+06    -54.9301E+06    -3.67482E+06     66.3248E+03    -16.1861E-03     31.8655E-03    -15.6794E-03     45.2106E-03    -16.1368E-03     31.6143E-03    -15.6110E-03     45.1949E-03
             399     11.5186E-03     62.5275E-03    -4.60761E+06    -43.2668E+06    -1.86414E+06     111.069E+03    -16.2253E-03     31.8944E-03    -15.6692E-03     49.6532E-03    -16.2000E-03     31.7046E-03    -15.6091E-03     49.6329E-03
             400     12.4050E-03     62.5757E-03    -4.25000E+06    -37.0694E+06    -857.125E+03     93.8848E+03    -16.3696E-03     32.0299E-03    -15.6603E-03     56.6942E-03    -16.3652E-03     31.8813E-03    -15.6047E-03     56.6665E-03
             401     13.2910E-03     62.6326E-03    -4.34337E+06    -34.7734E+06    -9.94536E+06     150.994E+03    -16.3892E-03     31.9945E-03    -15.6053E-03     59.1537E-03    -16.3917E-03     31.8870E-03    -15.5983E-03     59.1193E-03
             402     14.1774E-03     62.6855E-03    -4.66293E+06    -17.4765E+06    -11.3414E+06     182.815E+03    -16.4233E-03     31.9884E-03    -15.5650E-03     63.5901E-03    -16.4831E-03     32.0024E-03    -15.5896E-03     63.5512E-03
             403     15.0632E-03     62.7508E-03    -5.11755E+06     22.3394E+06    -12.5208E+06     337.939E+03    -17.8226E-03     33.3164E-03    -15.4938E-03     97.7268E-03    -18.1332E-03     33.7245E-03    -15.5814E-03     97.7086E-03
             404     15.9499E-03     62.8681E-03    -5.19493E+06     85.1971E+06    -9.82044E+06     502.420E+03    -21.6268E-03     37.0444E-03    -15.4177E-03     166.831E-03    -23.4929E-03     39.2230E-03    -15.5828E-03     167.376E-03
             405     16.8350E-03     63.0636E-03    -3.45225E+06     154.929E+06     48.3158E+06     434.703E+03    -25.3811E-03     40.9845E-03    -15.6034E-03     239.876E-03    -31.2273E-03     47.2284E-03    -15.5815E-03     244.192E-03
             406     886.041E-06     63.2272E-03    -13.7444E+06    -65.7152E+06    -13.4039E+06    -83.6193E+03    -15.6663E-03     31.3492E-03    -15.6828E-03     3.54155E-03    -15.6203E-03     31.0601E-03    -15.6346E-03     3.53995E-03
             407     1.77209E-03     63.2318E-03    -13.2991E+06    -64.5830E+06    -11.8466E+06    -70.7399E+03    -15.6754E-03     31.3535E-03    -15.6781E-03     6.53789E-03    -15.6311E-03     31.0671E-03    -15.6244E-03     6.53602E-03
             408     2.65816E-03     63.2393E-03    -12.5375E+06    -62.1194E+06    -9.68310E+06    -80.7040E+03    -15.6811E-03     31.3629E-03    -15.6817E-03     9.79321E-03    -15.6399E-03     31.0847E-03    -15.6219E-03     9.79070E-03
             409     3.54419E-03     63.2500E-03    -11.5859E+06    -60.0628E+06    -7.47283E+06    -218.391E+03    -15.6912E-03     31.3768E-03    -15.6856E-03     13.1610E-03    -15.6516E-03     31.1045E-03    -15.6190E-03     13.1562E-03
             410     4.43029E-03     63.2638E-03    -10.2615E+06    -62.6315E+06    -4.77326E+06     41.0453E+03    -15.7238E-03     31.4220E-03    -15.6982E-03     16.6504E-03    -15.6779E-03     31.1312E-03    -15.6164E-03     16.6483E-03
             411     5.31632E-03     63.2810E-03    -8.18466E+06    -63.7757E+06    -2.20100E+06     289.184E+03    -15.7660E-03     31.4738E-03    -15.7078E-03     20.3068E-03    -15.7121E-03     31.1708E-03    -15.6145E-03     20.3071E-03
             412     6.20241E-03     63.3015E-03    -5.64125E+06    -61.4518E+06    -238.494E+03     16.8196E+03    -15.8107E-03     31.5195E-03    -15.7088E-03     24.1506E-03    -15.7507E-03     31.2220E-03    -15.6127E-03     24.1465E-03
             413     7.08847E-03     63.3258E-03    -4.66252E+06    -61.3398E+06     965.368E+03    -55.3149E+03    -15.8699E-03     31.5816E-03    -15.7117E-03     28.1638E-03    -15.8076E-03     31.2823E-03    -15.6112E-03     28.1577E-03
             414     7.97458E-03     63.3538E-03    -5.41043E+06    -60.9021E+06     727.338E+03    -234.550E+03    -15.9310E-03     31.6410E-03    -15.7100E-03     32.3336E-03    -15.8738E-03     31.3463E-03    -15.6102E-03     32.3235E-03
             415     8.86057E-03     63.3859E-03    -5.77106E+06    -57.6415E+06     177.833E+03    -480.217E+03    -15.9974E-03     31.6996E-03    -15.7022E-03     36.6168E-03    -15.9474E-03     31.4240E-03    -15.6094E-03     36.6013E-03
             416     9.74673E-03     63.4218E-03    -5.12848E+06    -58.3137E+06     440.498E+03    -317.813E+03    -16.0866E-03     31.7894E-03    -15.7029E-03     40.8812E-03    -16.0353E-03     31.5117E-03    -15.6087E-03     40.8647E-03
             417     10.6327E-03     63.4617E-03    -4.66813E+06    -55.1162E+06    -3.43494E+06    -59.4885E+03    -16.1729E-03     31.8503E-03    -15.6774E-03     45.2106E-03    -16.1223E-03     31.5974E-03    -15.6079E-03     45.1933E-03
             418     11.5189E-03     63.5057E-03    -4.55057E+06    -43.2741E+06    -1.72054E+06     51.2511E+03    -16.2082E-03     31.8740E-03    -15.6657E-03     49.6529E-03    -16.1829E-03     31.6839E-03    -15.6050E-03     49.6318E-03
             419     12.4049E-03     63.5538E-03    -4.31993E+06    -37.1249E+06    -850.957E+03     72.3413E+03    -16.3882E-03     32.0450E-03    -15.6568E-03     56.6568E-03    -16.3841E-03     31.8963E-03    -15.6009E-03     56.6288E-03
             420     13.2912E-03     63.6109E-03    -4.31600E+06    -34.7184E+06    -9.81813E+06     85.5799E+03    -16.4570E-03     32.0624E-03    -15.6054E-03     58.9863E-03    -16.4597E-03     31.9550E-03    -15.5979E-03     58.9508E-03
             421     14.1770E-03     63.6634E-03    -4.62147E+06    -17.6123E+06    -11.3042E+06     137.491E+03    -16.5140E-03     32.0839E-03    -15.5699E-03     63.6909E-03    -16.5738E-03     32.0976E-03    -15.5942E-03     63.6509E-03
             422     15.0634E-03     63.7294E-03    -4.94658E+06     22.2305E+06    -12.4700E+06     248.420E+03    -17.8465E-03     33.3477E-03    -15.5012E-03     98.0265E-03    -18.1569E-03     33.7556E-03    -15.5886E-03     98.0067E-03
             423     15.9493E-03     63.8456E-03    -5.43456E+06     85.0848E+06    -9.93774E+06     267.799E+03    -21.3902E-03     36.8074E-03    -15.4173E-03     167.378E-03    -23.2722E-03     39.0010E-03    -15.5825E-03     167.938E-03
             424     16.8359E-03     64.0438E-03    -4.10015E+06     154.794E+06     47.8571E+06     293.413E+03    -25.2742E-03     40.8672E-03    -15.5930E-03     239.511E-03    -31.0943E-03     47.0834E-03    -15.5722E-03     243.812E-03
             425     886.041E-06     64.2054E-03    -13.9220E+06    -65.6918E+06    -13.6053E+06    -29.1338E+03    -15.6617E-03     31.3570E-03    -15.6953E-03     3.53215E-03    -15.6164E-03     31.0686E-03    -15.6479E-03     3.53126E-03
             426     1.77209E-03     64.2099E-03    -13.3678E+06    -64.4997E+06    -11.9666E+06    -68.4042E+03    -15.6756E-03     31.3568E-03    -15.6813E-03     6.54303E-03    -15.6316E-03     31.0711E-03    -15.6282E-03     6.54118E-03
             427     2.65813E-03     64.2176E-03    -12.5366E+06    -62.1276E+06    -9.91998E+06    -70.0753E+03    -15.6778E-03     31.3604E-03    -15.6826E-03     9.79846E-03    -15.6362E-03     31.0825E-03    -15.6239E-03     9.79609E-03
             428     3.54423E-03     64.2281E-03    -11.6730E+06    -59.8677E+06    -7.49162E+06    -80.9015E+03    -15.6881E-03     31.3741E-03    -15.6860E-03     13.1649E-03    -15.6491E-03     31.1029E-03    -15.6197E-03     13.1619E-03
             429     4.43025E-03     64.2420E-03    -10.8055E+06    -63.0052E+06    -5.32883E+06    -150.231E+03    -15.7189E-03     31.4155E-03    -15.6967E-03     16.6590E-03    -15.6744E-03     31.1245E-03    -15.6163E-03     16.6544E-03
             430     5.31635E-03     64.2591E-03    -9.64057E+06    -62.9621E+06    -4.14747E+06    -835.716E+03    -15.7523E-03     31.4503E-03    -15.6980E-03     20.3326E-03    -15.7041E-03     31.1563E-03    -15.6135E-03     20.3184E-03
             431     6.20242E-03     64.2797E-03    -8.37898E+06    -61.4820E+06    -2.06263E+06    -1.18380E+06    -15.8043E-03     31.5068E-03    -15.7025E-03     24.1694E-03    -15.7553E-03     31.2158E-03    -15.6115E-03     24.1498E-03
             432     7.08848E-03     64.3040E-03    -6.64376E+06    -62.1969E+06     452.940E+03    -212.492E+03    -15.8691E-03     31.5821E-03    -15.7129E-03     28.1583E-03    -15.8148E-03     31.2820E-03    -15.6109E-03     28.1501E-03
             433     7.97450E-03     64.3320E-03    -4.75523E+06    -60.4210E+06     1.50331E+06     253.588E+03    -15.9285E-03     31.6406E-03    -15.7122E-03     32.3234E-03    -15.8698E-03     31.3462E-03    -15.6102E-03     32.3197E-03
             434     8.86064E-03     64.3640E-03    -3.91699E+06    -57.4837E+06     1.00259E+06    -34.5600E+03    -15.9923E-03     31.6948E-03    -15.7025E-03     36.6128E-03    -15.9345E-03     31.4161E-03    -15.6085E-03     36.6031E-03
             435     9.74665E-03     64.4000E-03    -4.09331E+06    -58.5603E+06     369.802E+03    -45.4583E+03    -16.0757E-03     31.7749E-03    -15.6992E-03     40.8750E-03    -16.0188E-03     31.4945E-03    -15.6065E-03     40.8621E-03
             436     10.6328E-03     64.4399E-03    -4.36126E+06    -55.3197E+06    -3.48935E+06     87.4938E+03    -16.1577E-03     31.8313E-03    -15.6736E-03     45.1748E-03    -16.1052E-03     31.5770E-03    -15.6045E-03     45.1595E-03
             437     11.5188E-03     64.4838E-03    -4.32456E+06    -43.2935E+06    -1.71273E+06     94.7332E+03    -16.2194E-03     31.8816E-03    -15.6622E-03     49.6181E-03    -16.1930E-03     31.6911E-03    -15.6017E-03     49.5976E-03
             438     12.4051E-03     64.5320E-03    -4.15237E+06    -37.0663E+06    -739.090E+03     67.1818E+03    -16.4082E-03     32.0631E-03    -15.6550E-03     56.6993E-03    -16.4035E-03     31.9143E-03    -15.5989E-03     56.6712E-03
             439     13.2909E-03     64.5891E-03    -4.20629E+06    -34.7699E+06    -9.83367E+06     101.939E+03    -16.4544E-03     32.0582E-03    -15.6038E-03     59.0185E-03    -16.4564E-03     31.9503E-03    -15.5965E-03     58.9832E-03
             440     14.1772E-03     64.6415E-03    -4.54139E+06    -17.8763E+06    -11.4067E+06     177.669E+03    -16.4779E-03     32.0448E-03    -15.5669E-03     63.8328E-03    -16.5369E-03     32.0573E-03    -15.5914E-03     63.7935E-03
             441     15.0634E-03     64.7074E-03    -5.16083E+06     22.2046E+06    -12.3966E+06     318.229E+03    -17.8662E-03     33.3643E-03    -15.4982E-03     98.3496E-03    -18.1790E-03     33.7736E-03    -15.5849E-03     98.3305E-03
             442     15.9495E-03     64.8244E-03    -5.61365E+06     85.0406E+06    -9.81723E+06     347.057E+03    -21.3358E-03     36.7489E-03    -15.4131E-03     167.564E-03    -23.2215E-03     38.9451E-03    -15.5774E-03     168.134E-03
             443     16.8359E-03     65.0211E-03    -3.90214E+06     154.956E+06     48.0123E+06     91.0455E+03    -25.2694E-03     40.8558E-03    -15.5865E-03     239.582E-03    -31.0931E-03     47.0766E-03    -15.5654E-03     243.877E-03
             444     886.027E-06     65.1835E-03    -14.1305E+06    -65.6076E+06    -13.7877E+06    -71.1916E+03    -15.6687E-03     31.3560E-03    -15.6873E-03     3.53042E-03    -15.6242E-03     31.0686E-03    -15.6406E-03     3.52898E-03
             445     1.77208E-03     65.1882E-03    -13.5684E+06    -64.4106E+06    -12.1984E+06    -111.544E+03    -15.6746E-03     31.3551E-03    -15.6805E-03     6.55180E-03    -15.6315E-03     31.0705E-03    -15.6284E-03     6.54939E-03
             446     2.65815E-03     65.1957E-03    -12.7439E+06    -62.1226E+06    -10.0917E+06    -138.397E+03    -15.6755E-03     31.3574E-03    -15.6819E-03     9.80003E-03    -15.6347E-03     31.0801E-03    -15.6238E-03     9.79678E-03
             447     3.54419E-03     65.2064E-03    -11.6961E+06    -59.9354E+06    -7.82682E+06    -35.6346E+03    -15.6832E-03     31.3668E-03    -15.6835E-03     13.1721E-03    -15.6438E-03     31.0957E-03    -15.6188E-03     13.1697E-03
             448     4.43030E-03     65.2202E-03    -10.4392E+06    -62.6455E+06    -4.92943E+06    -220.438E+03    -15.7181E-03     31.4143E-03    -15.6961E-03     16.6559E-03    -15.6729E-03     31.1239E-03    -15.6148E-03     16.6504E-03
             449     5.31635E-03     65.2373E-03    -9.65853E+06    -62.0097E+06    -3.38297E+06    -627.075E+03    -15.7566E-03     31.4562E-03    -15.6996E-03     20.3305E-03    -15.7109E-03     31.1659E-03    -15.6126E-03     20.3191E-03
             450     6.20240E-03     65.2579E-03    -9.41690E+06    -61.3811E+06    -2.72642E+06    -959.068E+03    -15.7997E-03     31.5000E-03    -15.7003E-03     24.1763E-03    -15.7551E-03     31.2120E-03    -15.6113E-03     24.1597E-03
             451     7.08847E-03     65.2822E-03    -8.62742E+06    -62.7796E+06    -1.82935E+06    -1.26808E+06    -15.8539E-03     31.5584E-03    -15.7045E-03     28.1900E-03    -15.8053E-03     31.2616E-03    -15.6101E-03     28.1682E-03
             452     7.97457E-03     65.3102E-03    -7.03978E+06    -60.6568E+06    -1.05751E+06    -955.796E+03    -15.9118E-03     31.6130E-03    -15.7013E-03     32.3662E-03    -15.8604E-03     31.3244E-03    -15.6084E-03     32.3469E-03
             453     8.86060E-03     65.3422E-03    -5.79425E+06    -57.9614E+06    -509.314E+03    -6.54525E+03    -15.9792E-03     31.6751E-03    -15.6959E-03     36.6357E-03    -15.9278E-03     31.3989E-03    -15.6060E-03     36.6264E-03
             454     9.74676E-03     65.3782E-03    -5.21092E+06    -58.5261E+06    -288.190E+03     373.428E+03    -16.0656E-03     31.7603E-03    -15.6947E-03     40.8813E-03    -16.0133E-03     31.4826E-03    -15.6037E-03     40.8738E-03
             455     10.6328E-03     65.4181E-03    -4.86108E+06    -55.2203E+06    -3.82732E+06     82.9407E+03    -16.1599E-03     31.8298E-03    -15.6699E-03     45.1618E-03    -16.1095E-03     31.5772E-03    -15.6019E-03     45.1464E-03
             456     11.5189E-03     65.4621E-03    -4.50635E+06    -43.3404E+06    -1.81036E+06    -50.6213E+03    -16.2241E-03     31.8841E-03    -15.6599E-03     49.6493E-03    -16.1984E-03     31.6937E-03    -15.5996E-03     49.6269E-03
             457     12.4049E-03     65.5102E-03    -4.08605E+06    -37.1444E+06    -822.649E+03     8.05317E+03    -16.3734E-03     32.0249E-03    -15.6516E-03     56.7118E-03    -16.3681E-03     31.8757E-03    -15.5959E-03     56.6831E-03
             458     13.2913E-03     65.5674E-03    -4.02938E+06    -34.8241E+06    -9.73508E+06     87.5955E+03    -16.4112E-03     32.0100E-03    -15.5987E-03     58.9768E-03    -16.4122E-03     31.9013E-03    -15.5911E-03     58.9416E-03
             459     14.1773E-03     65.6195E-03    -4.45666E+06    -18.2644E+06    -11.4386E+06     238.378E+03    -16.4903E-03     32.0515E-03    -15.5612E-03     63.7760E-03    -16.5483E-03     32.0620E-03    -15.5854E-03     63.7375E-03
             460     15.0636E-03     65.6857E-03    -4.95236E+06     22.0284E+06    -12.4805E+06     504.253E+03    -17.8530E-03     33.3448E-03    -15.4919E-03     98.4076E-03    -18.1645E-03     33.7532E-03    -15.5790E-03     98.3915E-03
             461     15.9498E-03     65.8026E-03    -5.27587E+06     85.5597E+06    -9.63972E+06     196.148E+03    -21.3833E-03     36.7917E-03    -15.4084E-03     167.445E-03    -23.2654E-03     38.9867E-03    -15.5730E-03     168.009E-03
             462     16.8359E-03     65.9997E-03    -4.03809E+06     155.000E+06     48.0437E+06    -165.859E+03    -25.3608E-03     40.9470E-03    -15.5862E-03     239.705E-03    -31.1981E-03     47.1810E-03    -15.5649E-03     243.996E-03
             463     886.059E-06     66.1618E-03    -14.3476E+06    -65.4985E+06    -13.9772E+06    -34.7884E+03    -15.6711E-03     31.3430E-03    -15.6718E-03     3.52939E-03    -15.6276E-03     31.0567E-03    -15.6259E-03     3.52843E-03
             464     1.77209E-03     66.1663E-03    -13.7886E+06    -64.2600E+06    -12.3801E+06    -179.842E+03    -15.6763E-03     31.3520E-03    -15.6757E-03     6.55449E-03    -15.6342E-03     31.0687E-03    -15.6244E-03     6.55120E-03
             465     2.65814E-03     66.1739E-03    -12.8576E+06    -62.0476E+06    -10.2125E+06    -240.784E+03    -15.6750E-03     31.3543E-03    -15.6794E-03     9.79910E-03    -15.6347E-03     31.0777E-03    -15.6218E-03     9.79453E-03
             466     3.54423E-03     66.1845E-03    -11.6601E+06    -59.8736E+06    -7.70596E+06    -366.431E+03    -15.6835E-03     31.3661E-03    -15.6826E-03     13.1712E-03    -15.6441E-03     31.0951E-03    -15.6174E-03     13.1645E-03
             467     4.43028E-03     66.1984E-03    -10.4086E+06    -62.4539E+06    -4.65036E+06    -336.112E+03    -15.7205E-03     31.4169E-03    -15.6964E-03     16.6578E-03    -15.6758E-03     31.1270E-03    -15.6140E-03     16.6508E-03
             468     5.31633E-03     66.2155E-03    -9.39816E+06    -61.8775E+06    -3.16258E+06    -120.127E+03    -15.7544E-03     31.4539E-03    -15.6995E-03     20.3320E-03    -15.7079E-03     31.1636E-03    -15.6120E-03     20.3271E-03
             469     6.20243E-03     66.2361E-03    -8.52908E+06    -60.5516E+06    -2.61529E+06    -527.256E+03    -15.7907E-03     31.4875E-03    -15.6968E-03     24.1866E-03    -15.7431E-03     31.2022E-03    -15.6097E-03     24.1756E-03
             470     7.08850E-03     66.2604E-03    -7.82444E+06    -62.0380E+06    -1.64355E+06    -1.39162E+06    -15.8461E-03     31.5464E-03    -15.7003E-03     28.2005E-03    -15.7949E-03     31.2519E-03    -15.6072E-03     28.1771E-03
             471     7.97457E-03     66.2884E-03    -7.65447E+06    -61.7282E+06    -1.26385E+06    -1.10713E+06    -15.9079E-03     31.6072E-03    -15.6994E-03     32.3656E-03    -15.8578E-03     31.3145E-03    -15.6051E-03     32.3443E-03
             472     8.86070E-03     66.3204E-03    -7.40648E+06    -58.8755E+06    -760.324E+03    -170.385E+03    -15.9745E-03     31.6698E-03    -15.6953E-03     36.6199E-03    -15.9295E-03     31.3918E-03    -15.6030E-03     36.6085E-03
             473     9.74673E-03     66.3564E-03    -6.38780E+06    -58.2264E+06    -249.683E+03    -100.709E+03    -16.0612E-03     31.7549E-03    -15.6936E-03     40.8710E-03    -16.0154E-03     31.4803E-03    -15.6012E-03     40.8573E-03
             474     10.6329E-03     66.3963E-03     -5.3878E+06    -54.9839E+06    -3.90895E+06    -344.002E+03    -16.1649E-03     31.8329E-03    -15.6680E-03     45.1555E-03    -16.1173E-03     31.5823E-03    -15.6000E-03     45.1346E-03
             475     11.5189E-03     66.4402E-03    -4.79991E+06    -43.3941E+06    -1.91579E+06    -359.519E+03    -16.2225E-03     31.8809E-03    -15.6585E-03     49.6344E-03    -16.1980E-03     31.6909E-03    -15.5982E-03     49.6081E-03
             476     12.4051E-03     66.4885E-03    -4.28841E+06    -37.2069E+06    -886.121E+03    -251.200E+03    -16.3695E-03     32.0198E-03    -15.6503E-03     56.6124E-03    -16.3650E-03     31.8706E-03    -15.5946E-03     56.5804E-03
             477     13.2911E-03     66.5453E-03    -4.10626E+06    -35.3065E+06    -9.84818E+06    -10.7978E+03    -16.3882E-03     31.9853E-03    -15.5972E-03     58.8065E-03    -16.3885E-03     31.8743E-03    -15.5893E-03     58.7701E-03
             478     14.1773E-03     66.5979E-03    -4.45789E+06    -18.6072E+06    -11.6090E+06     161.276E+03    -16.5647E-03     32.1254E-03    -15.5607E-03     63.7830E-03    -16.6222E-03     32.1347E-03    -15.5853E-03     63.7431E-03
             479     15.0634E-03     66.6636E-03    -4.53956E+06     22.2107E+06    -12.2942E+06     329.863E+03    -17.9522E-03     33.4495E-03    -15.4974E-03     98.1549E-03    -18.2617E-03     33.8574E-03    -15.5845E-03     98.1359E-03
             480     15.9495E-03     66.7811E-03    -4.86059E+06     85.8017E+06    -9.55781E+06     246.730E+03    -21.3329E-03     36.7478E-03    -15.4149E-03     167.300E-03    -23.2148E-03     38.9448E-03    -15.5801E-03     167.864E-03
             481     16.8358E-03     66.9780E-03    -3.98515E+06     155.146E+06     48.0643E+06     3.20622E+03    -25.3146E-03     40.9045E-03    -15.5899E-03     239.879E-03    -31.1554E-03     47.1425E-03    -15.5687E-03     244.177E-03
             482     886.045E-06     67.1399E-03    -14.4623E+06    -65.3905E+06    -14.2276E+06    -90.3409E+03    -15.6740E-03     31.3355E-03    -15.6615E-03     3.53901E-03    -15.6308E-03     31.0502E-03    -15.6168E-03     3.53732E-03
             483     1.77211E-03     67.1446E-03    -13.9500E+06    -63.9813E+06    -12.4511E+06    -213.208E+03    -15.6725E-03     31.3448E-03    -15.6723E-03     6.54719E-03    -15.6315E-03     31.0632E-03    -15.6215E-03     6.54347E-03
             484     2.65816E-03     67.1521E-03    -12.9881E+06    -61.7703E+06    -10.0774E+06    -469.092E+03    -15.6751E-03     31.3528E-03    -15.6776E-03     9.79598E-03    -15.6361E-03     31.0775E-03    -15.6196E-03     9.78846E-03
             485     3.54421E-03     67.1627E-03    -11.8020E+06    -59.6336E+06    -7.54365E+06    -604.567E+03    -15.6860E-03     31.3682E-03    -15.6822E-03     13.1753E-03    -15.6479E-03     31.0985E-03    -15.6164E-03     13.1655E-03
             486     4.43028E-03     67.1766E-03    -10.4924E+06    -62.5816E+06    -5.02761E+06    -546.059E+03    -15.7171E-03     31.4112E-03    -15.6941E-03     16.6677E-03    -15.6721E-03     31.1213E-03    -15.6133E-03     16.6580E-03
             487     5.31637E-03     67.1937E-03     -8.8785E+06    -61.9328E+06    -3.46293E+06    -485.325E+03    -15.7481E-03     31.4438E-03    -15.6957E-03     20.3402E-03    -15.6985E-03     31.1529E-03    -15.6103E-03     20.3305E-03
             488     6.20244E-03     67.2143E-03    -7.38104E+06    -59.6691E+06    -1.58554E+06    -749.387E+03    -15.7893E-03     31.4858E-03    -15.6965E-03     24.1811E-03    -15.7387E-03     31.2018E-03    -15.6072E-03     24.1672E-03
             489     7.08854E-03     67.2385E-03    -6.86464E+06    -61.8213E+06     308.449E+03    -648.165E+03    -15.8536E-03     31.5600E-03    -15.7063E-03     28.1647E-03    -15.8007E-03     31.2623E-03    -15.6052E-03     28.1509E-03
             490     7.97461E-03     67.2666E-03    -7.00509E+06    -62.6229E+06     582.246E+03    -63.8608E+03    -15.9210E-03     31.6291E-03    -15.7081E-03     32.3082E-03    -15.8690E-03     31.3283E-03    -15.6043E-03     32.3003E-03
             491     8.86064E-03     67.2986E-03    -6.58207E+06    -58.7639E+06     204.069E+03    -251.660E+03    -15.9813E-03     31.6802E-03    -15.6989E-03     36.5786E-03    -15.9338E-03     31.4002E-03    -15.6032E-03     36.5661E-03
             492     9.74677E-03     67.3346E-03    -5.57155E+06    -57.7601E+06     144.088E+03    -843.059E+03    -16.0649E-03     31.7591E-03    -15.6942E-03     40.8416E-03    -16.0163E-03     31.4852E-03    -15.6016E-03     40.8184E-03
             493     10.6328E-03     67.3744E-03    -4.74566E+06    -55.1017E+06    -3.77231E+06    -852.039E+03    -16.1694E-03     31.8379E-03    -15.6685E-03     45.1304E-03    -16.1187E-03     31.5857E-03    -15.6006E-03     45.1029E-03
             494     11.5189E-03     67.4185E-03    -4.32264E+06    -43.4954E+06    -1.91752E+06    -579.991E+03    -16.2391E-03     31.8982E-03    -15.6591E-03     49.5952E-03    -16.2121E-03     31.7070E-03    -15.5994E-03     49.5659E-03
             495     12.4050E-03     67.4665E-03    -4.02719E+06    -37.4174E+06    -921.249E+03    -372.560E+03    -16.3714E-03     32.0232E-03    -15.6518E-03     56.5508E-03    -16.3652E-03     31.8726E-03    -15.5963E-03     56.5172E-03
             496     13.2911E-03     67.5237E-03    -4.10398E+06    -35.7565E+06    -10.1995E+06    -214.653E+03    -16.4411E-03     32.0406E-03    -15.5995E-03     58.7443E-03    -16.4404E-03     31.9279E-03    -15.5927E-03     58.7050E-03
             497     14.1774E-03     67.5755E-03    -4.25849E+06    -18.3965E+06    -11.5510E+06    -4.15249E+03    -16.6453E-03     32.2129E-03    -15.5676E-03     63.9220E-03    -16.7024E-03     32.2230E-03    -15.5925E-03     63.8795E-03
             498     15.0630E-03     67.6431E-03    -4.59552E+06     21.9599E+06    -12.2878E+06     29.4510E+03    -17.8710E-03     33.3756E-03    -15.5046E-03     98.2228E-03    -18.1799E-03     33.7818E-03    -15.5912E-03     98.2006E-03
             499     15.9492E-03     67.7583E-03    -4.60449E+06     85.4424E+06    -9.66634E+06     289.441E+03    -21.3055E-03     36.7219E-03    -15.4164E-03     167.832E-03    -23.1964E-03     38.9278E-03    -15.5819E-03     168.399E-03
             500     16.8359E-03     67.9570E-03    -3.27470E+06     155.628E+06     48.2185E+06     476.179E+03    -25.3853E-03     40.9745E-03    -15.5892E-03     240.327E-03    -31.2270E-03     47.2172E-03    -15.5690E-03     244.630E-03
             501     886.050E-06     68.1182E-03    -14.4813E+06    -65.1803E+06    -14.1269E+06    -183.054E+03    -15.6998E-03     31.3396E-03    -15.6398E-03     3.55587E-03    -15.6572E-03     31.0553E-03    -15.5949E-03     3.55299E-03
             502     1.77209E-03     68.1227E-03    -13.8344E+06    -63.7232E+06    -12.2824E+06    -242.124E+03    -15.6681E-03     31.3416E-03    -15.6735E-03     6.53912E-03    -15.6271E-03     31.0609E-03    -15.6225E-03     6.53503E-03
             503     2.65816E-03     68.1303E-03    -13.0366E+06    -61.2998E+06    -9.87411E+06    -437.545E+03    -15.6712E-03     31.3486E-03    -15.6773E-03     9.79422E-03    -15.6334E-03     31.0755E-03    -15.6189E-03     9.78710E-03
             504     3.54422E-03     68.1409E-03    -11.9808E+06    -59.2246E+06    -7.62648E+06    -798.530E+03    -15.6836E-03     31.3640E-03    -15.6804E-03     13.1781E-03    -15.6469E-03     31.0967E-03    -15.6153E-03     13.1658E-03
             505     4.43031E-03     68.1547E-03    -10.3509E+06    -62.2945E+06    -4.81927E+06    -1.16608E+06    -15.7173E-03     31.4109E-03    -15.6936E-03     16.6652E-03    -15.6723E-03     31.1219E-03    -15.6124E-03     16.6475E-03
             506     5.31635E-03     68.1718E-03    -8.69005E+06    -61.9335E+06    -2.85513E+06    -1.21147E+06    -15.7526E-03     31.4507E-03    -15.6980E-03     20.3307E-03    -15.7030E-03     31.1586E-03    -15.6099E-03     20.3117E-03
             507     6.20246E-03     68.1925E-03    -7.60598E+06    -59.5091E+06    -967.254E+03    -877.197E+03    -15.7972E-03     31.4977E-03    -15.7005E-03     24.1630E-03    -15.7489E-03     31.2139E-03    -15.6080E-03     24.1474E-03
             508     7.08850E-03     68.2167E-03    -6.82720E+06    -62.9054E+06     1.10070E+06     39.8835E+03    -15.8678E-03     31.5818E-03    -15.7140E-03     28.1210E-03    -15.8143E-03     31.2775E-03    -15.6073E-03     28.1160E-03
             509     7.97455E-03     68.2448E-03    -6.02860E+06    -62.7143E+06     1.35136E+06     521.311E+03    -15.9304E-03     31.6442E-03    -15.7138E-03     32.2704E-03    -15.8746E-03     31.3404E-03    -15.6073E-03     32.2701E-03
             510     8.86064E-03     68.2768E-03    -5.08795E+06    -57.2478E+06     509.063E+03    -633.501E+03    -15.9902E-03     31.6895E-03    -15.6994E-03     36.5627E-03    -15.9378E-03     31.4145E-03    -15.6065E-03     36.5453E-03
             511     9.74671E-03     68.3127E-03    -4.15135E+06    -57.7159E+06     77.9640E+03    -1.30882E+06    -16.0734E-03     31.7684E-03    -15.6950E-03     40.8260E-03    -16.0176E-03     31.4927E-03    -15.6049E-03     40.7968E-03
             512     10.6328E-03     68.3527E-03    -3.95615E+06    -55.4736E+06    -3.85413E+06    -876.419E+03    -16.1720E-03     31.8425E-03    -15.6705E-03     45.1246E-03    -16.1167E-03     31.5874E-03    -15.6036E-03     45.0968E-03
             513     11.5189E-03     68.3966E-03    -4.04811E+06    -43.6339E+06    -2.04303E+06    -606.726E+03    -16.2385E-03     31.8994E-03    -15.6609E-03     49.6190E-03    -16.2098E-03     31.7073E-03    -15.6019E-03     49.5893E-03
             514     12.4049E-03     68.4450E-03    -3.88263E+06    -37.6265E+06    -1.09111E+06    -450.373E+03    -16.3773E-03     32.0309E-03    -15.6536E-03     56.4772E-03    -16.3698E-03     31.8792E-03    -15.5988E-03     56.4425E-03
             515     13.2913E-03     68.5014E-03    -3.75794E+06    -35.6297E+06    -10.0220E+06    -352.434E+03    -16.5283E-03     32.1333E-03    -15.6050E-03     58.8595E-03    -16.5266E-03     32.0208E-03    -15.5980E-03     58.8181E-03
             516     14.1767E-03     68.5546E-03    -4.03365E+06    -18.7835E+06    -11.6229E+06    -220.432E+03    -16.5740E-03     32.1468E-03    -15.5728E-03     64.0257E-03    -16.6291E-03     32.1547E-03    -15.5979E-03     63.9808E-03
             517     15.0634E-03     68.6204E-03    -4.51609E+06     21.5138E+06    -12.6332E+06    -26.4389E+03    -17.7031E-03     33.2044E-03    -15.5013E-03     98.1686E-03    -18.0093E-03     33.6076E-03    -15.5891E-03     98.1464E-03
             518     15.9502E-03     68.7369E-03    -5.12055E+06     85.3019E+06    -9.79434E+06     213.474E+03    -21.4025E-03     36.8149E-03    -15.4124E-03     167.938E-03    -23.2985E-03     39.0239E-03    -15.5776E-03     168.502E-03
             519     16.8358E-03     68.9356E-03    -4.12495E+06     155.597E+06     47.9396E+06     403.379E+03    -25.4333E-03     41.0223E-03    -15.5890E-03     240.280E-03    -31.2808E-03     47.2685E-03    -15.5689E-03     244.583E-03
             520     886.039E-06     69.0963E-03    -14.5026E+06    -64.8291E+06    -14.0392E+06    -169.909E+03    -15.7002E-03     31.3410E-03    -15.6407E-03     3.54223E-03    -15.6584E-03     31.0583E-03    -15.5959E-03     3.53953E-03
             521     1.77210E-03     69.1009E-03    -13.8104E+06    -63.5054E+06    -12.2325E+06    -347.534E+03    -15.6672E-03     31.3414E-03    -15.6741E-03     6.53824E-03    -15.6265E-03     31.0617E-03    -15.6232E-03     6.53279E-03
             522     2.65815E-03     69.1085E-03    -12.7558E+06    -60.9667E+06    -9.79694E+06    -379.571E+03    -15.6689E-03     31.3456E-03    -15.6767E-03     9.80048E-03    -15.6303E-03     31.0737E-03    -15.6188E-03     9.79411E-03
             523     3.54424E-03     69.1191E-03    -11.7647E+06    -58.4544E+06    -6.94249E+06    -742.717E+03    -15.6850E-03     31.3672E-03    -15.6822E-03     13.1748E-03    -15.6494E-03     31.1024E-03    -15.6151E-03     13.1631E-03
             524     4.43028E-03     69.1329E-03    -10.8326E+06    -61.4554E+06    -4.11607E+06    -1.41738E+06    -15.7248E-03     31.4225E-03    -15.6978E-03     16.6547E-03    -15.6844E-03     31.1375E-03    -15.6135E-03     16.6338E-03
             525     5.31636E-03     69.1500E-03    -9.65839E+06    -61.9844E+06    -2.80375E+06    -1.58758E+06    -15.7623E-03     31.4653E-03    -15.7030E-03     20.3152E-03    -15.7175E-03     31.1743E-03    -15.6132E-03     20.2913E-03
             526     6.20239E-03     69.1707E-03    -8.58033E+06    -60.3703E+06    -2.05378E+06    -746.337E+03    -15.8028E-03     31.5050E-03    -15.7021E-03     24.1571E-03    -15.7565E-03     31.2198E-03    -15.6124E-03     24.1432E-03
             527     7.08847E-03     69.1950E-03    -7.69168E+06    -63.8862E+06    -542.406E+03     100.790E+03    -15.8693E-03     31.5822E-03    -15.7129E-03     28.1256E-03    -15.8163E-03     31.2767E-03    -15.6119E-03     28.1214E-03
             528     7.97452E-03     69.2230E-03    -5.96192E+06    -61.8056E+06     125.176E+03    -449.895E+03    -15.9303E-03     31.6406E-03    -15.7103E-03     32.2887E-03    -15.8736E-03     31.3430E-03    -15.6114E-03     32.2758E-03
             529     8.86060E-03     69.2550E-03    -4.18990E+06    -55.9889E+06    -50.6055E+03    -1.25577E+06    -15.9921E-03     31.6891E-03    -15.6970E-03     36.5864E-03    -15.9363E-03     31.4198E-03    -15.6100E-03     36.5609E-03
             530     9.74665E-03     69.2910E-03    -4.01782E+06    -58.2907E+06    -441.618E+03    -979.801E+03    -16.0802E-03     31.7765E-03    -15.6964E-03     40.8227E-03    -16.0221E-03     31.4986E-03    -15.6082E-03     40.7977E-03
             531     10.6328E-03     69.3308E-03    -4.35428E+06    -55.6010E+06    -4.44036E+06    -646.694E+03    -16.1765E-03     31.8482E-03    -15.6717E-03     45.1389E-03    -16.1221E-03     31.5939E-03    -15.6070E-03     45.1141E-03
             532     11.5188E-03     69.3749E-03    -4.29819E+06    -43.7200E+06    -2.45702E+06    -676.119E+03    -16.2281E-03     31.8904E-03    -15.6623E-03     49.5951E-03    -16.1998E-03     31.6988E-03    -15.6050E-03     49.5646E-03
             533     12.4051E-03     69.4229E-03    -3.87490E+06    -37.5700E+06    -1.28613E+06    -654.658E+03    -16.4268E-03     32.0835E-03    -15.6567E-03     56.4654E-03    -16.4191E-03     31.9324E-03    -15.6030E-03     56.4280E-03
             534     13.2908E-03     69.4799E-03    -3.91599E+06    -35.8072E+06    -10.4082E+06    -470.646E+03    -16.4864E-03     32.0941E-03    -15.6077E-03     58.9446E-03    -16.4846E-03     31.9815E-03    -15.6021E-03     58.9018E-03
             535     14.1774E-03     69.5326E-03    -4.46177E+06    -19.3151E+06    -12.2520E+06    -231.012E+03    -16.4719E-03     32.0425E-03    -15.5706E-03     63.8913E-03    -16.5270E-03     32.0488E-03    -15.5974E-03     63.8467E-03
             536     15.0634E-03     69.5983E-03    -4.90730E+06     21.4533E+06    -12.9255E+06    -66.0542E+03    -17.9479E-03     33.4521E-03    -15.5042E-03     98.0623E-03    -18.2572E-03     33.8576E-03    -15.5928E-03     98.0373E-03
             537     15.9490E-03     69.7153E-03    -5.40318E+06     84.9674E+06    -10.4940E+06     334.252E+03    -21.4124E-03     36.8338E-03    -15.4214E-03     167.647E-03    -23.2992E-03     39.0335E-03    -15.5892E-03     168.215E-03
             538     16.8356E-03     69.9140E-03    -4.25213E+06     155.586E+06     47.3446E+06     366.140E+03    -25.2116E-03     40.8037E-03    -15.5921E-03     240.438E-03    -31.0769E-03     47.0689E-03    -15.5748E-03     244.767E-03
             539     886.050E-06     70.0745E-03    -14.4869E+06    -64.3992E+06    -14.2123E+06    -236.823E+03    -15.6645E-03     31.3373E-03    -15.6728E-03     3.52923E-03    -15.6229E-03     31.0570E-03    -15.6295E-03     3.52566E-03
             540     1.77209E-03     70.0791E-03    -13.8616E+06    -63.1002E+06    -12.3101E+06    -475.491E+03    -15.6668E-03     31.3394E-03    -15.6725E-03     6.54039E-03    -15.6269E-03     31.0619E-03    -15.6225E-03     6.53328E-03
             541     2.65817E-03     70.0866E-03    -12.7778E+06    -60.7637E+06    -9.73219E+06    -625.341E+03    -15.6761E-03     31.3535E-03    -15.6775E-03     9.79928E-03    -15.6379E-03     31.0825E-03    -15.6195E-03     9.78974E-03
             542     3.54421E-03     70.0973E-03    -11.6282E+06    -58.1217E+06    -6.77866E+06    -453.833E+03    -15.6895E-03     31.3739E-03    -15.6845E-03     13.1728E-03    -15.6538E-03     31.1104E-03    -15.6172E-03     13.1649E-03
             543     4.43029E-03     70.1111E-03    -11.0136E+06    -60.5521E+06    -3.95724E+06    -593.578E+03    -15.7291E-03     31.4295E-03    -15.7004E-03     16.6529E-03    -15.6912E-03     31.1490E-03    -15.6164E-03     16.6426E-03
             544     5.31629E-03     70.1282E-03    -10.9411E+06      -61.78E+06    -3.66202E+06    -988.659E+03    -15.7659E-03     31.4699E-03    -15.7040E-03     20.3169E-03    -15.7266E-03     31.1830E-03    -15.6168E-03     20.3008E-03
             545     6.20238E-03     70.1489E-03    -10.5408E+06    -61.3812E+06    -4.40306E+06    -736.589E+03    -15.7992E-03     31.4979E-03    -15.6986E-03     24.1739E-03    -15.7579E-03     31.2139E-03    -15.6163E-03     24.1601E-03
             546     7.08844E-03     70.1731E-03    -8.67926E+06    -63.3605E+06    -2.94183E+06    -1.08134E+06    -15.8591E-03     31.5637E-03    -15.7046E-03     28.1684E-03    -15.8083E-03     31.2657E-03    -15.6149E-03     28.1490E-03
             547     7.97450E-03     70.2012E-03    -6.48728E+06    -60.5890E+06    -1.57090E+06    -2.04654E+06    -15.9244E-03     31.6271E-03    -15.7027E-03     32.3404E-03    -15.8697E-03     31.3388E-03    -15.6133E-03     32.3070E-03
             548     8.86057E-03     70.2332E-03    -5.77446E+06    -56.7641E+06    -1.33169E+06    -1.39272E+06    -15.9898E-03     31.6854E-03    -15.6956E-03     36.6085E-03    -15.9390E-03     31.4164E-03    -15.6116E-03     36.5813E-03
             549     9.74670E-03     70.2691E-03    -5.52977E+06    -58.5555E+06    -857.716E+03    -552.733E+03    -16.0911E-03     31.7903E-03    -15.6992E-03     40.8277E-03    -16.0396E-03     31.5138E-03    -15.6106E-03     40.8082E-03
             550     10.6327E-03     70.3090E-03    -5.12013E+06    -55.2952E+06    -4.69048E+06    -816.297E+03    -16.1860E-03     31.8606E-03    -15.6746E-03     45.1247E-03    -16.1356E-03     31.6093E-03    -15.6104E-03     45.0977E-03
             551     11.5188E-03     70.3530E-03     -4.6108E+06    -43.6973E+06    -2.67293E+06    -986.731E+03    -16.2458E-03     31.9119E-03    -15.6661E-03     49.5869E-03    -16.2188E-03     31.7212E-03    -15.6094E-03     49.5524E-03
             552     12.4048E-03     70.4012E-03    -4.15569E+06    -37.8001E+06    -1.65563E+06    -893.089E+03    -16.4267E-03     32.0870E-03    -15.6603E-03     56.5465E-03    -16.4196E-03     31.9357E-03    -15.6078E-03     56.5060E-03
             553     13.2911E-03     70.4582E-03    -4.08796E+06    -36.1655E+06    -10.7011E+06    -678.647E+03    -16.4497E-03     32.0600E-03    -15.6103E-03     58.7939E-03    -16.4476E-03     31.9461E-03    -15.6055E-03     58.7485E-03
             554     14.1770E-03     70.5104E-03    -4.29424E+06    -19.3148E+06    -12.2230E+06    -322.222E+03    -16.5609E-03     32.1363E-03    -15.5754E-03     63.7291E-03    -16.6154E-03     32.1424E-03    -15.6023E-03     63.6829E-03
             555     15.0632E-03     70.5770E-03    -4.78769E+06     21.0158E+06    -13.1878E+06     192.060E+03    -18.0641E-03     33.5775E-03    -15.5134E-03     98.4728E-03    -18.3739E-03     33.9831E-03    -15.6029E-03     98.4508E-03
             556     15.9489E-03     70.6943E-03    -5.26450E+06     84.5955E+06    -11.0263E+06     332.848E+03    -21.4469E-03     36.8796E-03    -15.4327E-03     167.523E-03    -23.3277E-03     39.0739E-03    -15.6029E-03     168.087E-03
             557     16.8360E-03     70.8905E-03    -4.05745E+06     155.731E+06     47.1553E+06     156.191E+03    -25.1182E-03     40.7212E-03    -15.6030E-03     240.322E-03    -30.9921E-03     46.9967E-03    -15.5871E-03     244.661E-03
             558     886.029E-06     71.0527E-03    -14.6893E+06    -63.8506E+06    -14.3014E+06    -322.437E+03    -15.6536E-03     31.3366E-03    -15.6830E-03     3.52918E-03    -15.6137E-03     31.0595E-03    -15.6406E-03     3.52450E-03
             559     1.77212E-03     71.0573E-03    -14.0166E+06    -62.5526E+06    -12.4452E+06    -570.737E+03    -15.6724E-03     31.3459E-03    -15.6735E-03     6.53915E-03    -15.6339E-03     31.0716E-03    -15.6247E-03     6.53082E-03
             560     2.65813E-03     71.0648E-03    -13.1568E+06    -60.4827E+06    -10.0544E+06    -697.157E+03    -15.6811E-03     31.3610E-03    -15.6799E-03     9.79627E-03    -15.6448E-03     31.0925E-03    -15.6234E-03     9.78579E-03
             561     3.54421E-03     71.0755E-03    -11.9789E+06    -58.3381E+06    -7.80434E+06    -570.735E+03    -15.6914E-03     31.3757E-03    -15.6843E-03     13.1747E-03    -15.6557E-03     31.1130E-03    -15.6213E-03     13.1653E-03
             562     4.43025E-03     71.0893E-03    -10.4660E+06    -60.4068E+06    -4.73980E+06    -190.161E+03    -15.7258E-03     31.4241E-03    -15.6983E-03     16.6623E-03    -15.6842E-03     31.1447E-03    -15.6192E-03     16.6572E-03
             563     5.31634E-03     71.1065E-03    -9.37447E+06    -61.5776E+06    -2.50787E+06     41.7698E+03    -15.7708E-03     31.4797E-03    -15.7088E-03     20.3079E-03    -15.7257E-03     31.1899E-03    -15.6185E-03     20.3050E-03
             564     6.20236E-03     71.1270E-03    -8.60118E+06    -60.8907E+06    -2.77944E+06    -686.114E+03    -15.8072E-03     31.5118E-03    -15.7046E-03     24.1631E-03    -15.7591E-03     31.2251E-03    -15.6177E-03     24.1499E-03
             565     7.08844E-03     71.1513E-03    -7.75236E+06    -61.4340E+06    -2.99503E+06    -2.33018E+06    -15.8553E-03     31.5564E-03    -15.7012E-03     28.1990E-03    -15.8026E-03     31.2668E-03    -15.6158E-03     28.1634E-03
             566     7.97452E-03     71.1794E-03    -7.38535E+06    -60.9531E+06    -1.85518E+06    -2.31285E+06    -15.9245E-03     31.6283E-03    -15.7038E-03     32.3496E-03    -15.8733E-03     31.3399E-03    -15.6140E-03     32.3127E-03
             567     8.86061E-03     71.2114E-03    -7.13183E+06    -58.0790E+06    -1.03270E+06    -1.06489E+06    -16.0042E-03     31.7069E-03    -15.7028E-03     36.5848E-03    -15.9586E-03     31.4329E-03    -15.6134E-03     36.5618E-03
             568     9.74660E-03     71.2474E-03    -6.30913E+06    -58.1106E+06    -809.955E+03    -1.01769E+06    -16.0967E-03     31.7997E-03    -15.7029E-03     40.8309E-03    -16.0499E-03     31.5265E-03    -15.6136E-03     40.8053E-03
             569     10.6327E-03     71.2873E-03    -5.33854E+06    -54.9723E+06    -4.57042E+06    -1.34953E+06    -16.1962E-03     31.8750E-03    -15.6787E-03     45.1201E-03    -16.1475E-03     31.6254E-03    -15.6141E-03     45.0862E-03
             570     11.5187E-03     71.3312E-03    -4.81761E+06    -43.6887E+06    -2.80098E+06    -1.37356E+06    -16.2537E-03     31.9237E-03    -15.6699E-03     49.6262E-03    -16.2276E-03     31.7335E-03    -15.6136E-03     49.5867E-03
             571     12.4049E-03     71.3796E-03    -4.32852E+06    -38.0796E+06    -1.88067E+06    -1.22375E+06    -16.4069E-03     32.0703E-03    -15.6634E-03     56.5648E-03    -16.3998E-03     31.9181E-03    -15.6113E-03     56.5201E-03
             572     13.2908E-03     71.4362E-03    -4.11788E+06    -36.5011E+06    -10.9803E+06    -914.603E+03    -16.5220E-03     32.1364E-03    -15.6144E-03     58.7563E-03    -16.5192E-03     32.0213E-03    -15.6104E-03     58.7076E-03
             573     14.1770E-03     71.4888E-03    -4.41296E+06    -19.5177E+06    -12.4524E+06    -575.167E+03    -16.6985E-03     32.2842E-03    -15.5857E-03     63.8631E-03    -16.7536E-03     32.2905E-03    -15.6133E-03     63.8130E-03
             574     15.0628E-03     71.5552E-03    -4.40868E+06     20.2512E+06    -13.1304E+06    -39.9432E+03    -17.9013E-03     33.4254E-03    -15.5241E-03     98.4234E-03    -18.2071E-03     33.8255E-03    -15.6127E-03     98.3999E-03
             575     15.9496E-03     71.6725E-03    -4.49943E+06     84.1168E+06    -11.0111E+06     439.884E+03    -21.3648E-03     36.7988E-03    -15.4340E-03     167.739E-03    -23.2456E-03     38.9942E-03    -15.6045E-03     168.302E-03
             576     16.8341E-03     71.8697E-03    -3.53852E+06     156.305E+06     47.3289E+06     424.353E+03    -25.2255E-03     40.8282E-03    -15.6027E-03     240.636E-03    -31.0994E-03     47.1071E-03    -15.5875E-03     244.978E-03
             577     886.070E-06     72.0309E-03    -14.9085E+06    -63.2548E+06    -14.5271E+06    -306.363E+03    -15.6709E-03     31.3440E-03    -15.6731E-03     3.52237E-03    -15.6327E-03     31.0706E-03    -15.6324E-03     3.51790E-03
             578     1.77205E-03     72.0355E-03    -14.4588E+06    -62.0137E+06    -12.8988E+06    -538.025E+03    -15.6772E-03     31.3540E-03    -15.6768E-03     6.54517E-03    -15.6410E-03     31.0837E-03    -15.6304E-03     6.53726E-03
             579     2.65815E-03     72.0430E-03    -13.5288E+06    -60.0745E+06    -10.7899E+06    -755.607E+03    -15.6818E-03     31.3635E-03    -15.6817E-03     9.80013E-03    -15.6469E-03     31.0985E-03    -15.6289E-03     9.78890E-03
             580     3.54417E-03     72.0537E-03    -12.3109E+06    -58.1712E+06    -8.54213E+06    -971.733E+03    -15.6917E-03     31.3770E-03    -15.6853E-03     13.1771E-03    -15.6568E-03     31.1167E-03    -15.6258E-03     13.1625E-03
             581     4.43026E-03     72.0675E-03    -10.7921E+06    -60.8102E+06    -5.76623E+06    -850.060E+03    -15.7232E-03     31.4209E-03    -15.6976E-03     16.6694E-03    -15.6812E-03     31.1414E-03    -15.6226E-03     16.6557E-03
             582     5.31629E-03     72.0847E-03    -8.61123E+06    -61.6638E+06    -3.02527E+06    -550.211E+03    -15.7661E-03     31.4732E-03    -15.7071E-03     20.3186E-03    -15.7162E-03     31.1826E-03    -15.6203E-03     20.3081E-03
             583     6.20237E-03     72.1053E-03    -6.50807E+06    -59.2706E+06    -894.311E+03    -1.15518E+06    -15.8135E-03     31.5231E-03    -15.7096E-03     24.1572E-03    -15.7601E-03     31.2388E-03    -15.6187E-03     24.1380E-03
             584     7.08844E-03     72.1295E-03    -6.09230E+06    -60.3826E+06    -96.4552E+03    -1.57216E+06    -15.8729E-03     31.5864E-03    -15.7135E-03     28.1611E-03    -15.8176E-03     31.2954E-03    -15.6176E-03     28.1353E-03
             585     7.97450E-03     72.1576E-03    -6.86107E+06    -61.9449E+06    -321.445E+03    -1.09517E+06    -15.9431E-03     31.6587E-03    -15.7156E-03     32.3058E-03    -15.8901E-03     31.3623E-03    -15.6174E-03     32.2846E-03
             586     8.86050E-03     72.1896E-03    -6.72244E+06    -58.0317E+06    -584.344E+03    -1.21240E+06    -16.0120E-03     31.7206E-03    -15.7086E-03     36.5768E-03    -15.9651E-03     31.4456E-03    -15.6177E-03     36.5519E-03
             587     9.74662E-03     72.2256E-03    -5.53284E+06    -57.3859E+06    -735.387E+03    -1.82572E+06    -16.0959E-03     31.8011E-03    -15.7052E-03     40.8342E-03    -16.0463E-03     31.5303E-03    -15.6176E-03     40.7982E-03
             588     10.6326E-03     72.2654E-03    -4.69622E+06    -55.0298E+06    -4.66916E+06    -1.91852E+06    -16.1975E-03     31.8784E-03    -15.6809E-03     45.1411E-03    -16.1454E-03     31.6278E-03    -15.6176E-03     45.0998E-03
             589     11.5187E-03     72.3095E-03    -4.28438E+06    -43.7257E+06    -2.84857E+06    -1.62565E+06    -16.2558E-03     31.9279E-03    -15.6721E-03     49.6211E-03    -16.2269E-03     31.7368E-03    -15.6167E-03     49.5783E-03
             590     12.4047E-03     72.3576E-03    -3.98320E+06    -38.1117E+06    -1.91921E+06    -1.49007E+06    -16.4199E-03     32.0859E-03    -15.6660E-03     56.5621E-03    -16.4110E-03     31.9331E-03    -15.6145E-03     56.5140E-03
             591     13.2909E-03     72.4147E-03    -3.94404E+06    -36.5962E+06    -11.0987E+06    -1.32071E+06    -16.5839E-03     32.2028E-03    -15.6189E-03     58.9019E-03    -16.5802E-03     32.0874E-03    -15.6156E-03     58.8478E-03
             592     14.1767E-03     72.4671E-03    -3.88320E+06    -20.0829E+06    -12.4638E+06    -803.941E+03    -16.6682E-03     32.2596E-03    -15.5913E-03     63.9951E-03    -16.7200E-03     32.2624E-03    -15.6189E-03     63.9422E-03
             593     15.0627E-03     72.5338E-03    -4.38572E+06     19.3038E+06    -13.5597E+06    -257.763E+03    -17.8687E-03     33.3950E-03    -15.5263E-03     98.5381E-03    -18.1725E-03     33.7910E-03    -15.6157E-03     98.5118E-03
             594     15.9487E-03     72.6498E-03    -5.00190E+06     83.6336E+06    -11.3621E+06     343.953E+03    -21.2115E-03     36.6425E-03    -15.4310E-03     167.892E-03    -23.0955E-03     38.8386E-03    -15.6018E-03     168.464E-03
             595     16.8372E-03     72.8490E-03    -3.76224E+06     156.648E+06     47.3901E+06     589.537E+03    -25.1437E-03     40.7382E-03    -15.5945E-03     240.369E-03    -31.0037E-03     47.0036E-03    -15.5793E-03     244.702E-03
             596     885.998E-06     73.0090E-03    -15.1523E+06    -62.7092E+06    -14.8798E+06    -317.222E+03    -15.6845E-03     31.3542E-03    -15.6697E-03     3.51346E-03    -15.6478E-03     31.0843E-03    -15.6312E-03     3.50886E-03
             597     1.77211E-03     73.0137E-03    -14.6175E+06    -61.4791E+06    -13.2649E+06    -475.093E+03    -15.6787E-03     31.3592E-03    -15.6805E-03     6.55283E-03    -15.6435E-03     31.0923E-03    -15.6364E-03     6.54572E-03
             598     2.65809E-03     73.0212E-03    -13.8069E+06    -59.3698E+06    -11.1304E+06    -915.092E+03    -15.6834E-03     31.3677E-03    -15.6843E-03     9.79966E-03    -15.6504E-03     31.1072E-03    -15.6338E-03     9.78637E-03
             599     3.54419E-03     73.0319E-03    -12.6835E+06    -57.5769E+06    -8.79014E+06    -1.33552E+06    -15.6915E-03     31.3797E-03    -15.6882E-03     13.1791E-03    -15.6590E-03     31.1233E-03    -15.6303E-03     13.1598E-03
             600     4.43021E-03     73.0457E-03    -11.3557E+06    -60.8210E+06    -6.39616E+06    -1.47015E+06    -15.7225E-03     31.4217E-03    -15.6992E-03     16.6730E-03    -15.6823E-03     31.1439E-03    -15.6265E-03     16.6513E-03
             601     5.31630E-03     73.0629E-03    -9.87165E+06    -61.1270E+06    -4.82174E+06    -1.89961E+06    -15.7591E-03     31.4614E-03    -15.7023E-03     20.3414E-03    -15.7137E-03     31.1779E-03    -15.6234E-03     20.3135E-03
             602     6.20238E-03     73.0835E-03    -8.37076E+06    -58.6807E+06    -2.09459E+06    -1.95829E+06    -15.8132E-03     31.5216E-03    -15.7084E-03     24.1673E-03    -15.7682E-03     31.2447E-03    -15.6217E-03     24.1378E-03
             603     7.08839E-03     73.1078E-03    -7.23757E+06    -61.4130E+06     429.610E+03    -736.074E+03    -15.8898E-03     31.6136E-03    -15.7238E-03     28.1311E-03    -15.8395E-03     31.3184E-03    -15.6221E-03     28.1160E-03
             604     7.97441E-03     73.1358E-03    -6.31368E+06    -61.6348E+06     253.503E+03    -368.555E+03    -15.9527E-03     31.6756E-03    -15.7230E-03     32.2951E-03    -15.8982E-03     31.3792E-03    -15.6232E-03     32.2832E-03
             605     8.86051E-03     73.1678E-03    -5.19783E+06    -56.4489E+06    -517.116E+03    -1.80586E+06    -16.0069E-03     31.7164E-03    -15.7095E-03     36.5930E-03    -15.9548E-03     31.4470E-03    -15.6227E-03     36.5604E-03
             606     9.74652E-03     73.2038E-03    -4.21486E+06    -57.1821E+06    -862.861E+03    -2.50297E+06    -16.0964E-03     31.8026E-03    -15.7062E-03     40.8506E-03    -16.0404E-03     31.5311E-03    -15.6215E-03     40.8059E-03
             607     10.6326E-03     73.2437E-03    -4.02839E+06    -55.3813E+06    -4.91147E+06    -1.94892E+06    -16.2012E-03     31.8837E-03    -15.6824E-03     45.1493E-03    -16.1449E-03     31.6307E-03    -15.6209E-03     45.1076E-03
             608     11.5186E-03     73.2877E-03    -4.20623E+06    -43.6576E+06    -3.01903E+06    -1.75214E+06    -16.2633E-03     31.9376E-03    -15.6742E-03     49.6145E-03    -16.2339E-03     31.7470E-03    -15.6199E-03     49.5701E-03
             609     12.4048E-03     73.3360E-03    -3.69478E+06    -37.8632E+06    -1.92436E+06    -1.94105E+06    -16.4429E-03     32.1120E-03    -15.6692E-03     56.5729E-03    -16.4330E-03     31.9602E-03    -15.6185E-03     56.5189E-03
             610     13.2907E-03     73.3928E-03    -3.24548E+06    -36.9643E+06    -10.9840E+06    -1.76194E+06    -16.5062E-03     32.1270E-03    -15.6207E-03     59.0583E-03    -16.4986E-03     32.0084E-03    -15.6174E-03     58.9988E-03
             611     14.1767E-03     73.4459E-03    -3.73848E+06    -21.5025E+06    -12.9153E+06    -901.516E+03    -16.5748E-03     32.1615E-03    -15.5868E-03     64.0805E-03    -16.6229E-03     32.1575E-03    -15.6147E-03     64.0268E-03
             612     15.0633E-03     73.5111E-03    -4.58836E+06     18.8329E+06    -13.9802E+06     56.0994E+03    -17.8983E-03     33.4174E-03    -15.5190E-03     98.5362E-03    -18.2021E-03     33.8122E-03    -15.6096E-03     98.5139E-03
             613     15.9496E-03     73.6294E-03    -5.43805E+06     83.5413E+06    -11.6393E+06     295.684E+03    -21.3401E-03     36.7695E-03    -15.4293E-03     167.725E-03    -23.2220E-03     38.9624E-03    -15.6008E-03     168.293E-03
             614     16.8341E-03     73.8250E-03    -4.23978E+06     156.506E+06     47.2051E+06     349.560E+03    -25.1747E-03     40.7730E-03    -15.5983E-03     240.353E-03    -31.0440E-03     47.0459E-03    -15.5831E-03     244.691E-03
             615     886.063E-06     73.9873E-03    -15.4933E+06    -62.0471E+06    -15.0781E+06    -303.492E+03    -15.6796E-03     31.3605E-03    -15.6809E-03     3.50522E-03    -15.6452E-03     31.0947E-03    -15.6439E-03     3.50079E-03
             616     1.77203E-03     73.9919E-03    -14.7714E+06    -60.9144E+06    -13.4926E+06    -684.437E+03    -15.6805E-03     31.3638E-03    -15.6834E-03     6.55955E-03    -15.6465E-03     31.1003E-03    -15.6411E-03     6.54975E-03
             617     2.65813E-03     73.9995E-03    -13.8726E+06    -58.5931E+06    -11.1814E+06    -907.130E+03    -15.6836E-03     31.3704E-03    -15.6868E-03     9.80472E-03    -15.6520E-03     31.1140E-03    -15.6377E-03     9.79154E-03
             618     3.54413E-03     74.0101E-03    -12.9738E+06    -56.6346E+06    -8.79597E+06    -1.45768E+06    -15.6943E-03     31.3852E-03    -15.6909E-03     13.1811E-03    -15.6647E-03     31.1340E-03    -15.6340E-03     13.1603E-03
             619     4.43023E-03     74.0239E-03    -11.5473E+06    -60.1304E+06    -6.11930E+06    -2.10719E+06    -15.7291E-03     31.4334E-03    -15.7043E-03     16.6680E-03    -15.6914E-03     31.1589E-03    -15.6309E-03     16.6381E-03
             620     5.31626E-03     74.0410E-03    -10.1510E+06    -60.3782E+06    -4.37432E+06    -2.32141E+06    -15.7694E-03     31.4788E-03    -15.7094E-03     20.3313E-03    -15.7272E-03     31.1989E-03    -15.6290E-03     20.2979E-03
             621     6.20230E-03     74.0617E-03    -9.50000E+06    -59.0359E+06    -3.33192E+06    -1.98685E+06    -15.8158E-03     31.5264E-03    -15.7106E-03     24.1740E-03    -15.7742E-03     31.2512E-03    -15.6279E-03     24.1440E-03
             622     7.08836E-03     74.0860E-03    -8.34943E+06    -62.7255E+06    -1.42744E+06    -1.28164E+06    -15.8872E-03     31.6109E-03    -15.7238E-03     28.1449E-03    -15.8379E-03     31.3135E-03    -15.6278E-03     28.1228E-03
             623     7.97440E-03     74.1141E-03    -6.09609E+06    -60.3498E+06    -559.866E+03    -1.57057E+06    -15.9463E-03     31.6676E-03    -15.7213E-03     32.3189E-03    -15.8914E-03     31.3785E-03    -15.6278E-03     32.2915E-03
             624     8.86042E-03     74.1460E-03    -4.43617E+06    -54.9249E+06    -986.104E+03    -2.46130E+06    -16.0029E-03     31.7102E-03    -15.7073E-03     36.6186E-03    -15.9485E-03     31.4480E-03    -15.6262E-03     36.5776E-03
             625     9.74655E-03     74.1821E-03    -4.17099E+06    -57.4209E+06    -1.22678E+06    -2.46687E+06    -16.0976E-03     31.8051E-03    -15.7075E-03     40.8668E-03    -16.0405E-03     31.5329E-03    -15.6243E-03     40.8226E-03
             626     10.6325E-03     74.2219E-03    -4.05193E+06    -55.7518E+06    -5.30085E+06    -2.08723E+06    -16.2022E-03     31.8858E-03    -15.6836E-03     45.1682E-03    -16.1449E-03     31.6316E-03    -15.6234E-03     45.1248E-03
             627     11.5186E-03     74.2660E-03    -3.62727E+06    -43.4404E+06    -3.20197E+06    -1.88240E+06    -16.2709E-03     31.9456E-03    -15.6747E-03     49.6602E-03    -16.2387E-03     31.7555E-03    -15.6224E-03     49.6140E-03
             628     12.4047E-03     74.3141E-03    -3.51703E+06    -37.2887E+06    -1.97991E+06    -2.23426E+06    -16.4334E-03     32.1032E-03    -15.6698E-03     56.6481E-03    -16.4234E-03     31.9541E-03    -15.6206E-03     56.5902E-03
             629     13.2907E-03     74.3713E-03    -4.08452E+06    -38.3544E+06    -11.7573E+06    -1.69545E+06    -16.4388E-03     32.0583E-03    -15.6196E-03     58.9246E-03    -16.4320E-03     31.9350E-03    -15.6168E-03     58.8662E-03
             630     14.1774E-03     74.4233E-03    -5.14765E+06    -22.2192E+06    -13.6816E+06    -688.364E+03    -16.5535E-03     32.1365E-03    -15.5830E-03     64.0070E-03    -16.6063E-03     32.1319E-03    -15.6118E-03     63.9561E-03
             631     15.0627E-03     74.4905E-03    -5.41359E+06     18.4613E+06    -14.2049E+06    -377.892E+03    -17.8446E-03     33.3598E-03    -15.5152E-03     98.4170E-03    -18.1511E-03     33.7538E-03    -15.6052E-03     98.3896E-03
             632     15.9490E-03     74.6062E-03    -5.00465E+06     82.8582E+06    -11.9382E+06     385.568E+03    -21.4168E-03     36.8404E-03    -15.4236E-03     168.102E-03    -23.3022E-03     39.0369E-03    -15.5962E-03     168.664E-03
             633     16.8366E-03     74.8056E-03    -4.00877E+06     156.926E+06     46.8989E+06     434.023E+03    -25.2875E-03     40.8825E-03    -15.5950E-03     240.470E-03    -31.1448E-03     47.1466E-03    -15.5822E-03     244.803E-03
             634     885.996E-06     74.9655E-03    -15.2007E+06    -61.3193E+06    -15.1138E+06    -405.095E+03    -15.6730E-03     31.3666E-03    -15.6936E-03     3.51753E-03    -15.6381E-03     31.1041E-03    -15.6583E-03     3.51179E-03
             635     1.77209E-03     74.9701E-03    -14.8538E+06    -60.0706E+06    -13.3671E+06    -789.378E+03    -15.6832E-03     31.3700E-03    -15.6867E-03     6.55352E-03    -15.6511E-03     31.1106E-03    -15.6449E-03     6.54235E-03
             636     2.65807E-03     74.9777E-03    -13.8015E+06    -57.9797E+06    -11.1944E+06    -1.18238E+06    -15.6856E-03     31.3752E-03    -15.6896E-03     9.80565E-03    -15.6545E-03     31.1217E-03    -15.6415E-03     9.78891E-03
             637     3.54417E-03     74.9883E-03    -12.5961E+06    -55.6687E+06    -8.41363E+06    -1.39823E+06    -15.7007E-03     31.3955E-03    -15.6948E-03     13.1774E-03    -15.6711E-03     31.1480E-03    -15.6379E-03     13.1573E-03
             638     4.43017E-03     75.0021E-03    -11.9425E+06    -58.9163E+06    -5.67526E+06    -2.01368E+06    -15.7395E-03     31.4500E-03    -15.7105E-03     16.6676E-03    -15.7061E-03     31.1815E-03    -15.6361E-03     16.6389E-03
             639     5.31621E-03     75.0193E-03    -11.5035E+06    -60.3667E+06    -5.35323E+06    -2.09400E+06    -15.7728E-03     31.4855E-03    -15.7128E-03     20.3388E-03    -15.7358E-03     31.2090E-03    -15.6353E-03     20.3084E-03
             640     6.20228E-03     75.0399E-03    -10.8508E+06    -59.1347E+06    -5.35991E+06    -1.71611E+06    -15.8090E-03     31.5175E-03    -15.7084E-03     24.1985E-03    -15.7711E-03     31.2466E-03    -15.6337E-03     24.1721E-03
             641     7.08831E-03     75.0643E-03    -9.30609E+06    -61.8320E+06    -3.76345E+06    -2.73578E+06    -15.8706E-03     31.5868E-03    -15.7162E-03     28.1925E-03    -15.8240E-03     31.2986E-03    -15.6319E-03     28.1517E-03
             642     7.97436E-03     75.0923E-03    -7.15043E+06    -59.5691E+06    -2.61025E+06    -3.54687E+06    -15.9319E-03     31.6455E-03    -15.7136E-03     32.3678E-03    -15.8804E-03     31.3648E-03    -15.6299E-03     32.3150E-03
             643     8.86047E-03     75.1243E-03    -5.81501E+06    -54.8859E+06    -1.94521E+06    -2.91726E+06    -16.0027E-03     31.7087E-03    -15.7061E-03     36.6408E-03    -15.9539E-03     31.4501E-03    -15.6278E-03     36.5939E-03
             644     9.74648E-03     75.1603E-03    -5.10946E+06    -57.4657E+06    -1.47332E+06    -2.45125E+06    -16.0966E-03     31.8061E-03    -15.7095E-03     40.8727E-03    -16.0437E-03     31.5353E-03    -15.6261E-03     40.8287E-03
             645     10.6326E-03     75.2002E-03    -4.66455E+06    -55.6516E+06    -5.51173E+06    -2.53788E+06    -16.1954E-03     31.8803E-03    -15.6849E-03     45.1843E-03    -16.1409E-03     31.6277E-03    -15.6250E-03     45.1350E-03
             646     11.5186E-03     75.2441E-03    -4.21571E+06    -43.4647E+06    -3.52373E+06    -2.48550E+06    -16.2624E-03     31.9374E-03    -15.6750E-03     49.7014E-03    -16.2326E-03     31.7485E-03    -15.6235E-03     49.6475E-03
             647     12.4047E-03     75.2926E-03    -4.26869E+06    -37.5052E+06    -1.49534E+06    -1.62645E+06    -16.3947E-03     32.0680E-03    -15.6733E-03     56.5991E-03    -16.3888E-03     31.9181E-03    -15.6202E-03     56.5492E-03
             648     13.2909E-03     75.3492E-03    -5.05841E+06    -38.7057E+06    -11.2949E+06    -1.22171E+06    -16.5084E-03     32.1331E-03    -15.6247E-03     58.8772E-03    -16.5068E-03     32.0089E-03    -15.6178E-03     58.8246E-03
             649     14.1764E-03     75.4019E-03    -4.75686E+06    -22.8674E+06    -13.8825E+06    -1.24596E+06    -16.5068E-03     32.0910E-03    -15.5843E-03     63.9911E-03    -16.5562E-03     32.0826E-03    -15.6136E-03     63.9333E-03
             650     15.0635E-03     75.4682E-03    -4.92209E+06     17.6910E+06    -14.6518E+06    -612.109E+03    -17.8262E-03     33.3391E-03    -15.5129E-03     98.4467E-03    -18.1284E-03     33.7291E-03    -15.6047E-03     98.4159E-03
             651     15.9499E-03     75.5848E-03    -5.72047E+06     82.4113E+06    -12.8036E+06    -78.5437E+03    -21.4556E-03     36.8772E-03    -15.4216E-03     167.941E-03    -23.3463E-03     39.0772E-03    -15.5968E-03     168.502E-03
             652     16.8346E-03     75.7837E-03    -3.81301E+06     156.961E+06     46.4231E+06     218.995E+03    -25.1475E-03     40.7398E-03    -15.5922E-03     239.995E-03    -30.9886E-03     46.9898E-03    -15.5822E-03     244.315E-03
             653     886.050E-06     75.9438E-03    -15.4643E+06    -60.5179E+06    -14.9963E+06    -481.675E+03    -15.6834E-03     31.3722E-03    -15.6888E-03     3.53091E-03    -15.6512E-03     31.1139E-03    -15.6536E-03     3.52418E-03
             654     1.77202E-03     75.9484E-03    -14.7918E+06    -59.2305E+06    -13.3956E+06    -737.807E+03    -15.6877E-03     31.3775E-03    -15.6898E-03     6.54760E-03    -15.6565E-03     31.1223E-03    -15.6494E-03     6.53710E-03
             655     2.65810E-03     75.9559E-03    -14.1449E+06    -56.9375E+06    -11.2108E+06    -1.30488E+06    -15.6893E-03     31.3828E-03    -15.6935E-03     9.80411E-03    -15.6614E-03     31.1351E-03    -15.6465E-03     9.78578E-03
             656     3.54410E-03     75.9666E-03    -13.0831E+06    -55.2567E+06    -9.04534E+06    -1.61526E+06    -15.7025E-03     31.3994E-03    -15.6969E-03     13.1849E-03    -15.6750E-03     31.1555E-03    -15.6431E-03     13.1620E-03
             657     4.43018E-03     75.9804E-03    -11.7524E+06    -57.9418E+06    -6.04392E+06    -1.56915E+06    -15.7394E-03     31.4509E-03    -15.7115E-03     16.6749E-03    -15.7059E-03     31.1875E-03    -15.6407E-03     16.6520E-03
             658     5.31621E-03     75.9975E-03    -10.6164E+06    -60.2376E+06    -4.40624E+06    -1.79790E+06    -15.7808E-03     31.5009E-03    -15.7202E-03     20.3321E-03    -15.7410E-03     31.2224E-03    -15.6395E-03     20.3055E-03
             659     6.20224E-03     76.0182E-03    -9.05194E+06    -58.3765E+06    -4.70549E+06    -2.42600E+06    -15.8097E-03     31.5212E-03    -15.7115E-03     24.2043E-03    -15.7648E-03     31.2506E-03    -15.6373E-03     24.1687E-03
             660     7.08832E-03     76.0425E-03    -7.76855E+06    -59.5382E+06    -3.49347E+06    -3.59819E+06    -15.8637E-03     31.5777E-03    -15.7140E-03     28.2109E-03    -15.8131E-03     31.2983E-03    -15.6339E-03     28.1590E-03
             661     7.97440E-03     76.0705E-03    -7.44854E+06    -59.4346E+06    -2.59909E+06    -4.15332E+06    -15.9337E-03     31.6490E-03    -15.7152E-03     32.3692E-03    -15.8840E-03     31.3693E-03    -15.6312E-03     32.3085E-03
             662     8.86041E-03     76.1025E-03    -6.74451E+06    -55.5851E+06    -2.36005E+06    -3.56312E+06    -16.0006E-03     31.7083E-03    -15.7078E-03     36.6463E-03    -15.9548E-03     31.4482E-03    -15.6292E-03     36.5911E-03
             663     9.74651E-03     76.1386E-03    -5.98817E+06    -57.7381E+06    -1.71685E+06    -2.66589E+06    -16.0955E-03     31.8069E-03    -15.7114E-03     40.8701E-03    -16.0463E-03     31.5364E-03    -15.6276E-03     40.8233E-03
             664     10.6325E-03     76.1783E-03    -5.84393E+06    -54.8458E+06    -5.46170E+06    -2.69116E+06    -16.1967E-03     31.8842E-03    -15.6875E-03     45.1775E-03    -16.1494E-03     31.6373E-03    -15.6268E-03     45.1263E-03
             665     11.5186E-03     76.2225E-03    -5.84939E+06    -43.7684E+06    -4.23233E+06    -2.86203E+06    -16.2369E-03     31.9125E-03    -15.6756E-03     49.6752E-03    -16.2137E-03     31.7255E-03    -15.6248E-03     49.6165E-03
             666     12.4047E-03     76.2706E-03    -5.05671E+06    -38.7440E+06    -2.46213E+06    -1.97553E+06    -16.4165E-03     32.0892E-03    -15.6728E-03     56.5609E-03    -16.4114E-03     31.9358E-03    -15.6216E-03     56.5064E-03
             667     13.2907E-03     76.3275E-03    -3.71773E+06    -37.9005E+06    -11.0451E+06    -1.70193E+06    -16.4523E-03     32.0753E-03    -15.6230E-03     58.9047E-03    -16.4454E-03     31.9527E-03    -15.6179E-03     58.8461E-03
             668     14.1771E-03     76.3803E-03    -3.82217E+06    -23.6130E+06    -14.4109E+06    -1.97286E+06    -16.5384E-03     32.1187E-03    -15.5803E-03     63.9506E-03    -16.5812E-03     32.1059E-03    -15.6125E-03     63.8832E-03
             669     15.0630E-03     76.4455E-03    -3.89801E+06     16.1419E+06    -15.0823E+06    -750.824E+03    -18.0234E-03     33.5398E-03    -15.5164E-03     98.5909E-03    -18.3189E-03     33.9225E-03    -15.6096E-03     98.5573E-03
             670     15.9483E-03     76.5645E-03    -4.31944E+06     82.4070E+06    -12.8786E+06     320.362E+03    -21.2903E-03     36.7147E-03    -15.4244E-03     167.942E-03    -23.1672E-03     38.9061E-03    -15.6020E-03     168.518E-03
             671     16.8362E-03     76.7606E-03    -3.96513E+06     157.042E+06     46.0508E+06     182.836E+03    -25.0849E-03     40.6725E-03    -15.5877E-03     240.542E-03    -30.9542E-03     46.9518E-03    -15.5794E-03     244.879E-03
             672     885.999E-06     76.9220E-03    -15.6306E+06    -59.6096E+06    -15.3427E+06    -405.927E+03    -15.6893E-03     31.3740E-03    -15.6846E-03     3.53248E-03    -15.6588E-03     31.1210E-03    -15.6523E-03     3.52672E-03
             673     1.77206E-03     76.9266E-03    -15.1176E+06    -58.4476E+06    -13.6520E+06    -876.649E+03    -15.6905E-03     31.3818E-03    -15.6913E-03     6.55072E-03    -15.6616E-03     31.1314E-03    -15.6529E-03     6.53843E-03
             674     2.65806E-03     76.9342E-03    -14.2364E+06    -56.0585E+06    -11.4243E+06    -1.03572E+06    -15.6933E-03     31.3888E-03    -15.6954E-03     9.81076E-03    -15.6668E-03     31.1459E-03    -15.6506E-03     9.79591E-03
             675     3.54411E-03     76.9448E-03    -13.5613E+06    -54.3541E+06    -9.21787E+06    -1.58936E+06    -15.7036E-03     31.4034E-03    -15.6998E-03     13.1893E-03    -15.6796E-03     31.1650E-03    -15.6474E-03     13.1668E-03
             676     4.43015E-03     76.9586E-03    -12.3660E+06    -57.6220E+06    -6.91200E+06    -1.98528E+06    -15.7367E-03     31.4483E-03    -15.7115E-03     16.6824E-03    -15.7055E-03     31.1887E-03    -15.6446E-03     16.6541E-03
             677     5.31618E-03     76.9758E-03    -10.3069E+06    -58.9685E+06    -4.72802E+06    -2.56444E+06    -15.7770E-03     31.4962E-03    -15.7192E-03     20.3415E-03    -15.7370E-03     31.2241E-03    -15.6424E-03     20.3050E-03
             678     6.20222E-03     76.9964E-03    -8.60604E+06    -57.1922E+06    -4.05619E+06    -3.45547E+06    -15.8115E-03     31.5263E-03    -15.7148E-03     24.2023E-03    -15.7670E-03     31.2600E-03    -15.6396E-03     24.1534E-03
             679     7.08831E-03     77.0207E-03    -7.69874E+06    -58.2569E+06    -2.96529E+06    -3.69360E+06    -15.8673E-03     31.5846E-03    -15.7173E-03     28.2075E-03    -15.8190E-03     31.3107E-03    -15.6365E-03     28.1543E-03
             680     7.97432E-03     77.0487E-03    -6.82745E+06    -58.6699E+06    -1.60158E+06    -4.09796E+06    -15.9384E-03     31.6595E-03    -15.7211E-03     32.3546E-03    -15.8881E-03     31.3814E-03    -15.6341E-03     32.2946E-03
             681     8.86042E-03     77.0808E-03    -6.52035E+06    -56.6204E+06    -2.13189E+06    -3.60942E+06    -16.0016E-03     31.7145E-03    -15.7129E-03     36.6232E-03    -15.9536E-03     31.4485E-03    -15.6320E-03     36.5673E-03
             682     9.74648E-03     77.1167E-03    -6.23081E+06    -57.9111E+06    -1.97998E+06    -2.84588E+06    -16.0963E-03     31.8096E-03    -15.7133E-03     40.8698E-03    -16.0477E-03     31.5390E-03    -15.6301E-03     40.8206E-03
             683     10.6325E-03     77.1567E-03    -5.66859E+06    -54.1741E+06    -5.59078E+06    -2.84807E+06    -16.1926E-03     31.8805E-03    -15.6879E-03     45.1737E-03    -16.1452E-03     31.6369E-03    -15.6291E-03     45.1204E-03
             684     11.5186E-03     77.2006E-03    -5.30815E+06    -43.6510E+06    -4.30138E+06    -2.96680E+06    -16.2501E-03     31.9268E-03    -15.6767E-03     49.6456E-03    -16.2244E-03     31.7397E-03    -15.6272E-03     49.5855E-03
             685     12.4047E-03     77.2489E-03    -4.40522E+06    -39.0561E+06    -3.07532E+06    -3.34327E+06    -16.4189E-03     32.0906E-03    -15.6717E-03     56.6390E-03    -16.4092E-03     31.9355E-03    -15.6240E-03     56.5669E-03
             686     13.2907E-03     77.3059E-03    -3.40718E+06    -38.1515E+06    -11.7161E+06    -3.28002E+06    -16.4330E-03     32.0542E-03    -15.6212E-03     58.6845E-03    -16.4231E-03     31.9308E-03    -15.6195E-03     58.6055E-03
             687     14.1771E-03     77.3575E-03    -3.12463E+06    -23.8148E+06    -14.1029E+06    -2.12864E+06    -16.6124E-03     32.1966E-03    -15.5842E-03     63.9661E-03    -16.6522E-03     32.1817E-03    -15.6156E-03     63.8963E-03
             688     15.0627E-03     77.4255E-03    -4.11798E+06     14.3794E+06    -15.6430E+06    -903.532E+03    -17.8597E-03     33.3762E-03    -15.5165E-03     98.8382E-03    -18.1525E-03     33.7508E-03    -15.6096E-03     98.8044E-03
             689     15.9498E-03     77.5412E-03    -4.45582E+06     81.0661E+06    -13.5181E+06     345.842E+03    -21.2372E-03     36.6538E-03    -15.4166E-03     168.023E-03    -23.1113E-03     38.8390E-03    -15.5952E-03     168.592E-03
             690     16.8357E-03     77.7393E-03    -3.25326E+06     157.799E+06     46.2317E+06     782.182E+03    -25.2648E-03     40.8481E-03    -15.5833E-03     240.350E-03    -31.1230E-03     47.1208E-03    -15.5762E-03     244.684E-03
             691     886.038E-06     77.9003E-03    -15.9362E+06    -58.7181E+06    -15.6294E+06    -516.374E+03    -15.6915E-03     31.3759E-03    -15.6844E-03     3.54063E-03    -15.6634E-03     31.1282E-03    -15.6543E-03     3.53345E-03
             692     1.77202E-03     77.9049E-03    -15.2953E+06    -57.4093E+06    -13.8168E+06    -941.907E+03    -15.6915E-03     31.3840E-03    -15.6925E-03     6.55149E-03    -15.6648E-03     31.1393E-03    -15.6562E-03     6.53835E-03
             693     2.65807E-03     77.9124E-03    -14.2334E+06    -55.6188E+06    -11.5447E+06    -1.26890E+06    -15.6955E-03     31.3929E-03    -15.6974E-03     9.80926E-03    -15.6695E-03     31.1524E-03    -15.6538E-03     9.79140E-03
             694     3.54410E-03     77.9231E-03    -13.0120E+06    -53.3674E+06    -8.95463E+06    -1.29783E+06    -15.7055E-03     31.4072E-03    -15.7017E-03     13.1912E-03    -15.6805E-03     31.1725E-03    -15.6503E-03     13.1725E-03
             695     4.43012E-03     77.9369E-03    -12.2261E+06    -56.5227E+06     -6.8522E+06    -2.08446E+06    -15.7346E-03     31.4468E-03    -15.7123E-03     16.6903E-03    -15.7044E-03     31.1925E-03    -15.6469E-03     16.6607E-03
             696     5.31618E-03     77.9540E-03    -11.6687E+06    -57.3244E+06    -6.25742E+06    -3.15771E+06    -15.7654E-03     31.4779E-03    -15.7125E-03     20.3660E-03    -15.7324E-03     31.2181E-03    -15.6438E-03     20.3219E-03
             697     6.20225E-03     77.9747E-03    -11.0292E+06    -56.1929E+06    -4.78213E+06    -3.68883E+06    -15.8124E-03     31.5273E-03    -15.7149E-03     24.2040E-03    -15.7805E-03     31.2706E-03    -15.6413E-03     24.1521E-03
             698     7.08825E-03     77.9989E-03    -9.64568E+06    -57.0892E+06    -3.46302E+06    -4.47330E+06    -15.8687E-03     31.5877E-03    -15.7190E-03     28.2208E-03    -15.8311E-03     31.3233E-03    -15.6396E-03     28.1576E-03
             699     7.97434E-03     78.0270E-03    -8.36715E+06    -58.4161E+06    -2.70122E+06    -4.40379E+06    -15.9318E-03     31.6528E-03    -15.7209E-03     32.3646E-03    -15.8880E-03     31.3797E-03    -15.6376E-03     32.3006E-03
             700     8.86036E-03     78.0590E-03    -7.46391E+06    -57.4299E+06    -2.60757E+06    -3.55210E+06    -16.0065E-03     31.7231E-03    -15.7165E-03     36.6140E-03    -15.9613E-03     31.4551E-03    -15.6355E-03     36.5588E-03
             701     9.74642E-03     78.0950E-03    -6.22431E+06    -57.1839E+06    -2.89142E+06    -3.69950E+06    -16.0864E-03     31.7972E-03    -15.7107E-03     40.8972E-03    -16.0375E-03     31.5315E-03    -15.6332E-03     40.8370E-03
             702     10.6325E-03     78.1349E-03    -5.01544E+06    -54.4671E+06    -6.12239E+06    -3.58888E+06    -16.1905E-03     31.8773E-03    -15.6868E-03     45.1867E-03    -16.1386E-03     31.6320E-03    -15.6312E-03     45.1239E-03
             703     11.5186E-03     78.1789E-03    -4.19584E+06    -42.8730E+06    -3.92960E+06    -3.44452E+06    -16.2642E-03     31.9420E-03    -15.6778E-03     49.6737E-03    -16.2346E-03     31.7567E-03    -15.6292E-03     49.6074E-03
             704     12.4045E-03     78.2272E-03    -3.62582E+06    -38.1319E+06    -2.82705E+06    -4.22829E+06    -16.3583E-03     32.0288E-03    -15.6705E-03     56.6170E-03    -16.3462E-03     31.8767E-03    -15.6241E-03     56.5337E-03
             705     13.2910E-03     78.2839E-03    -3.77171E+06    -39.1903E+06    -12.2524E+06    -3.82161E+06    -16.5451E-03     32.1670E-03    -15.6219E-03     58.8948E-03    -16.5351E-03     32.0400E-03    -15.6209E-03     58.8085E-03
             706     14.1764E-03     78.3364E-03    -4.77047E+06    -25.0863E+06    -14.6087E+06    -2.22187E+06    -16.6159E-03     32.2068E-03    -15.5909E-03     64.0131E-03    -16.6614E-03     32.1887E-03    -15.6207E-03     63.9422E-03
             707     15.0633E-03     78.4029E-03    -4.97653E+06     13.3491E+06    -15.9986E+06    -1.16099E+06    -17.7091E-03     33.2281E-03    -15.5190E-03     98.3109E-03    -18.0018E-03     33.5970E-03    -15.6112E-03     98.2741E-03
             708     15.9495E-03     78.5193E-03    -5.34030E+06     79.5164E+06    -14.1801E+06    -189.293E+03    -21.3809E-03     36.7998E-03    -15.4189E-03     167.851E-03    -23.2608E-03     38.9841E-03    -15.5974E-03     168.407E-03
             709     16.8350E-03     78.7188E-03    -4.22293E+06     157.665E+06     45.5336E+06     609.754E+03    -25.2250E-03     40.8116E-03    -15.5866E-03     240.410E-03    -31.0869E-03     47.0862E-03    -15.5814E-03     244.746E-03
             710     885.991E-06     78.8785E-03    -16.0660E+06    -57.6316E+06    -15.7940E+06    -628.161E+03    -15.6866E-03     31.3769E-03    -15.6903E-03     3.54367E-03    -15.6605E-03     31.1351E-03    -15.6624E-03     3.53504E-03
             711     1.77205E-03     78.8831E-03    -15.5047E+06    -56.3903E+06    -14.1187E+06    -1.03915E+06    -15.6925E-03     31.3851E-03    -15.6926E-03     6.55910E-03    -15.6679E-03     31.1462E-03    -15.6589E-03     6.54471E-03
             712     2.65804E-03     78.8907E-03    -14.5468E+06    -54.6260E+06    -11.8349E+06    -1.59668E+06    -15.6955E-03     31.3931E-03    -15.6977E-03     9.81392E-03    -15.6720E-03     31.1584E-03    -15.6566E-03     9.79183E-03
             713     3.54408E-03     78.9013E-03    -12.9678E+06    -52.8991E+06    -9.61209E+06    -2.00577E+06    -15.7018E-03     31.4015E-03    -15.6997E-03     13.1985E-03    -15.6763E-03     31.1700E-03    -15.6522E-03     13.1706E-03
             714     4.43015E-03     78.9152E-03    -10.9034E+06    -54.8766E+06    -5.83446E+06    -2.35399E+06    -15.7363E-03     31.4504E-03    -15.7141E-03     16.6881E-03    -15.7034E-03     31.2008E-03    -15.6479E-03     16.6550E-03
             715     5.31618E-03     78.9322E-03    -9.66730E+06    -56.5025E+06    -3.24647E+06    -2.60646E+06    -15.7837E-03     31.5090E-03    -15.7253E-03     20.3362E-03    -15.7463E-03     31.2461E-03    -15.6456E-03     20.2992E-03
             716     6.20220E-03     78.9529E-03    -8.91739E+06    -54.2889E+06    -2.95613E+06    -3.59679E+06    -15.8213E-03     31.5425E-03    -15.7211E-03     24.1935E-03    -15.7842E-03     31.2895E-03    -15.6443E-03     24.1428E-03
             717     7.08826E-03     78.9772E-03    -8.47419E+06    -55.7569E+06    -2.37850E+06    -4.67646E+06    -15.8754E-03     31.5994E-03    -15.7239E-03     28.2020E-03    -15.8355E-03     31.3383E-03    -15.6427E-03     28.1361E-03
             718     7.97428E-03     79.0052E-03    -8.34170E+06    -59.1478E+06    -2.44442E+06    -4.18941E+06    -15.9390E-03     31.6656E-03    -15.7266E-03     32.3470E-03    -15.8944E-03     31.3885E-03    -15.6410E-03     32.2858E-03
             719     8.86035E-03     79.0372E-03    -7.58549E+06    -56.6238E+06    -2.93897E+06    -4.33141E+06    -16.0016E-03     31.7186E-03    -15.7171E-03     36.6271E-03    -15.9577E-03     31.4553E-03    -15.6387E-03     36.5619E-03
             720     9.74642E-03     79.0732E-03    -6.23700E+06    -56.4171E+06    -3.04056E+06    -4.93790E+06    -16.0860E-03     31.7977E-03    -15.7116E-03     40.8959E-03    -16.0380E-03     31.5361E-03    -15.6360E-03     40.8198E-03
             721     10.6325E-03     79.1131E-03    -5.01379E+06    -54.8130E+06    -6.31762E+06    -4.80120E+06    -16.1925E-03     31.8814E-03    -15.6890E-03     45.2099E-03    -16.1398E-03     31.6347E-03    -15.6338E-03     45.1314E-03
             722     11.5185E-03     79.1572E-03    -3.85566E+06    -42.5433E+06    -3.87522E+06    -4.47898E+06    -16.2337E-03     31.9121E-03    -15.6784E-03     49.6710E-03    -16.2029E-03     31.7278E-03    -15.6305E-03     49.5914E-03
             723     12.4048E-03     79.2053E-03    -3.52110E+06    -37.3551E+06    -2.31402E+06    -4.17819E+06    -16.3919E-03     32.0651E-03    -15.6732E-03     56.4718E-03    -16.3813E-03     31.9161E-03    -15.6255E-03     56.3890E-03
             724     13.2908E-03     79.2620E-03    -4.66707E+06    -40.8670E+06    -12.4437E+06    -3.10211E+06    -16.5115E-03     32.1378E-03    -15.6263E-03     58.9739E-03    -16.5032E-03     32.0039E-03    -15.6225E-03     58.8970E-03
             725     14.1770E-03     79.3153E-03    -5.47719E+06    -25.7802E+06    -15.0652E+06    -2.38890E+06    -16.6220E-03     32.2135E-03    -15.5915E-03     63.8390E-03    -16.6692E-03     32.1935E-03    -15.6215E-03     63.7658E-03
             726     15.0626E-03     79.3800E-03    -5.58162E+06     12.6671E+06    -16.5188E+06    -1.97162E+06    -18.0193E-03     33.5474E-03    -15.5281E-03     98.3578E-03    -18.3156E-03     33.9168E-03    -15.6210E-03     98.3079E-03
             727     15.9486E-03     79.4987E-03    -5.49378E+06     77.8478E+06    -16.3262E+06    -397.625E+03    -21.2223E-03     36.6467E-03    -15.4244E-03     167.947E-03    -23.0921E-03     38.8208E-03    -15.6110E-03     168.514E-03
             728     16.8361E-03     79.6955E-03    -4.19727E+06     157.444E+06     44.0695E+06     296.852E+03    -24.9793E-03     40.5607E-03    -15.5814E-03     240.539E-03    -30.8506E-03     46.8482E-03    -15.5833E-03     244.886E-03
             729     886.049E-06     79.8568E-03    -16.0712E+06    -56.3189E+06    -15.7756E+06    -717.777E+03    -15.6805E-03     31.3798E-03    -15.6993E-03     3.55418E-03    -15.6563E-03     31.1445E-03    -15.6732E-03     3.54440E-03
             730     1.77201E-03     79.8614E-03    -15.4220E+06    -55.2775E+06    -14.1546E+06    -1.23797E+06    -15.6927E-03     31.3862E-03    -15.6936E-03     6.55580E-03    -15.6692E-03     31.1528E-03    -15.6618E-03     6.53884E-03
             731     2.65806E-03     79.8689E-03    -14.3968E+06    -53.2122E+06    -11.9074E+06    -1.88083E+06    -15.6954E-03     31.3928E-03    -15.6974E-03     9.81358E-03    -15.6731E-03     31.1650E-03    -15.6589E-03     9.78782E-03
             732     3.54408E-03     79.8796E-03    -13.1349E+06    -51.5310E+06    -9.10343E+06    -2.84846E+06    -15.7060E-03     31.4092E-03    -15.7032E-03     13.1907E-03    -15.6840E-03     31.1841E-03    -15.6550E-03     13.1519E-03
             733     4.43012E-03     79.8934E-03    -11.8165E+06    -54.3764E+06    -6.12202E+06    -3.05379E+06    -15.7406E-03     31.4578E-03    -15.7172E-03     16.6871E-03    -15.7126E-03     31.2125E-03    -15.6518E-03     16.6450E-03
             734     5.31613E-03     79.9106E-03    -9.88355E+06    -55.6264E+06    -3.78989E+06    -3.08494E+06    -15.7841E-03     31.5100E-03    -15.7259E-03     20.3415E-03    -15.7482E-03     31.2526E-03    -15.6499E-03     20.2982E-03
             735     6.20218E-03     79.9311E-03    -8.22675E+06    -52.3607E+06    -2.69002E+06    -3.73284E+06    -15.8201E-03     31.5424E-03    -15.7224E-03     24.1984E-03    -15.7827E-03     31.2978E-03    -15.6480E-03     24.1460E-03
             736     7.08823E-03     79.9555E-03    -7.88408E+06    -55.3360E+06    -1.66743E+06    -3.66937E+06    -15.8796E-03     31.6089E-03    -15.7293E-03     28.1856E-03    -15.8384E-03     31.3481E-03    -15.6460E-03     28.1328E-03
             737     7.97426E-03     79.9834E-03    -7.59951E+06    -58.6672E+06    -1.45045E+06    -3.99544E+06    -15.9478E-03     31.6811E-03    -15.7333E-03     32.3274E-03    -15.9016E-03     31.4039E-03    -15.6445E-03     32.2687E-03
             738     8.86031E-03     80.0155E-03    -6.56036E+06    -54.7335E+06    -2.17484E+06    -5.17524E+06    -16.0029E-03     31.7232E-03    -15.7202E-03     36.6211E-03    -15.9578E-03     31.4667E-03    -15.6422E-03     36.5450E-03
             739     9.74638E-03     80.0514E-03    -5.72879E+06    -56.1439E+06    -2.66448E+06    -5.60671E+06    -16.0907E-03     31.8065E-03    -15.7158E-03     40.8880E-03    -16.0411E-03     31.5450E-03    -15.6394E-03     40.8032E-03
             740     10.6324E-03     80.0914E-03    -5.52897E+06    -54.4404E+06    -6.53522E+06    -5.51993E+06    -16.1774E-03     31.8682E-03    -15.6909E-03     45.2221E-03    -16.1275E-03     31.6245E-03    -15.6366E-03     45.1344E-03
             741     11.5186E-03     80.1353E-03    -5.33713E+06    -42.5966E+06    -4.93091E+06    -5.44383E+06    -16.2512E-03     31.9295E-03    -15.6783E-03     49.6425E-03    -16.2262E-03     31.7486E-03    -15.6335E-03     49.5504E-03
             742     12.4045E-03     80.1835E-03    -4.58538E+06    -38.1829E+06    -2.19136E+06    -4.31357E+06    -16.4703E-03     32.1534E-03    -15.6831E-03     56.4625E-03    -16.4642E-03     32.0018E-03    -15.6321E-03     56.3775E-03
             743     13.2905E-03     80.2404E-03    -3.52695E+06    -41.8186E+06    -11.9091E+06    -3.35001E+06    -16.4701E-03     32.1064E-03    -15.6363E-03     58.7637E-03    -16.4553E-03     31.9652E-03    -15.6301E-03     58.6837E-03
             744     14.1768E-03     80.2927E-03    -3.07047E+06    -26.3327E+06    -14.8442E+06    -2.61569E+06    -16.5656E-03     32.1591E-03    -15.5935E-03     63.9190E-03    -16.6003E-03     32.1324E-03    -15.6251E-03     63.8430E-03
             745     15.0629E-03     80.3596E-03    -4.29632E+06     12.0354E+06    -16.3165E+06    -1.61053E+06    -18.0212E-03     33.5500E-03    -15.5288E-03     98.6985E-03    -18.3116E-03     33.9152E-03    -15.6216E-03     98.6540E-03
             746     15.9490E-03     80.4760E-03    -5.65378E+06     76.0613E+06    -17.8851E+06    -1.09417E+06    -21.3846E-03     36.8091E-03    -15.4246E-03     167.668E-03    -23.2478E-03     38.9742E-03    -15.6161E-03     168.217E-03
             747     16.8353E-03     80.6733E-03    -3.95369E+06     157.110E+06     43.3949E+06    -159.722E+03    -25.0046E-03     40.5940E-03    -15.5893E-03     240.266E-03    -30.8709E-03     46.8781E-03    -15.5944E-03     244.609E-03
             748     885.956E-06     80.8350E-03    -15.9120E+06    -54.6895E+06    -15.6604E+06    -875.101E+03    -15.6946E-03     31.3902E-03    -15.6955E-03     3.54449E-03    -15.6722E-03     31.1626E-03    -15.6715E-03     3.53267E-03
             749     1.77205E-03     80.8397E-03    -15.0766E+06    -53.8236E+06    -13.8973E+06    -1.66419E+06    -15.6919E-03     31.3898E-03    -15.6979E-03     6.55659E-03    -15.6692E-03     31.1628E-03    -15.6675E-03     6.53413E-03
             750     2.65802E-03     80.8472E-03    -13.9968E+06    -51.8416E+06    -11.3056E+06    -2.18200E+06    -15.6993E-03     31.4015E-03    -15.7022E-03     9.80832E-03    -15.6779E-03     31.1792E-03    -15.6632E-03     9.77866E-03
             751     3.54408E-03     80.8578E-03    -13.2757E+06    -49.9133E+06    -8.63977E+06    -2.62133E+06    -15.7127E-03     31.4212E-03    -15.7085E-03     13.1831E-03    -15.6945E-03     31.2037E-03    -15.6601E-03     13.1472E-03
             752     4.43006E-03     80.8717E-03    -12.3926E+06    -53.6075E+06    -6.68025E+06    -3.24844E+06    -15.7408E-03     31.4604E-03    -15.7196E-03     16.6858E-03    -15.7159E-03     31.2206E-03    -15.6573E-03     16.6412E-03
             753     5.31614E-03     80.8888E-03    -11.1175E+06    -54.1441E+06    -5.74539E+06    -4.10969E+06    -15.7702E-03     31.4902E-03    -15.7201E-03     20.3658E-03    -15.7398E-03     31.2448E-03    -15.6542E-03     20.3093E-03
             754     6.20217E-03     80.9095E-03    -9.88976E+06    -51.9543E+06    -3.92293E+06    -4.02187E+06    -15.8139E-03     31.5350E-03    -15.7211E-03     24.2077E-03    -15.7837E-03     31.2966E-03    -15.6510E-03     24.1515E-03
             755     7.08821E-03     80.9337E-03    -8.48379E+06    -55.2008E+06    -1.65369E+06    -3.58338E+06    -15.8818E-03     31.6149E-03    -15.7331E-03     28.1831E-03    -15.8438E-03     31.3556E-03    -15.6490E-03     28.1313E-03
             756     7.97424E-03     80.9618E-03    -6.80702E+06    -56.4765E+06    -879.556E+03    -4.55594E+06    -15.9494E-03     31.6844E-03    -15.7349E-03     32.3272E-03    -15.9033E-03     31.4161E-03    -15.6476E-03     32.2612E-03
             757     8.86027E-03     80.9936E-03    -5.93644E+06    -53.5294E+06    -2.14243E+06    -5.48515E+06    -16.0060E-03     31.7268E-03    -15.7207E-03     36.6268E-03    -15.9595E-03     31.4754E-03    -15.6452E-03     36.5467E-03
             758     9.74632E-03     81.0298E-03    -5.79657E+06    -55.5642E+06    -3.24727E+06    -5.63499E+06    -16.0811E-03     31.7956E-03    -15.7145E-03     40.9094E-03    -16.0318E-03     31.5379E-03    -15.6418E-03     40.8243E-03
             759     10.6325E-03     81.0695E-03    -5.54466E+06    -53.8492E+06    -7.01611E+06    -5.82386E+06    -16.1763E-03     31.8657E-03    -15.6893E-03     45.2245E-03    -16.1267E-03     31.6256E-03    -15.6383E-03     45.1329E-03
             760     11.5184E-03     81.1137E-03    -5.27936E+06    -42.3379E+06    -5.87512E+06    -5.72566E+06    -16.2862E-03     31.9620E-03    -15.6758E-03     49.7759E-03    -16.2599E-03     31.7837E-03    -15.6361E-03     49.6802E-03
             761     12.4045E-03     81.1619E-03    -4.42077E+06    -39.1115E+06    -3.99962E+06    -5.63487E+06    -16.4510E-03     32.1288E-03    -15.6778E-03     56.6328E-03    -16.4400E-03     31.9749E-03    -15.6347E-03     56.5310E-03
             762     13.2906E-03     81.2187E-03    -3.32559E+06    -42.2135E+06    -13.1276E+06    -4.89204E+06    -16.5316E-03     32.1654E-03    -15.6338E-03     58.8687E-03    -16.5136E-03     32.0238E-03    -15.6334E-03     58.7687E-03
             763     14.1766E-03     81.2708E-03    -3.05669E+06    -28.2213E+06    -16.0436E+06    -3.24270E+06    -16.6358E-03     32.2328E-03    -15.5970E-03     63.9908E-03    -16.6663E-03     32.1988E-03    -15.6319E-03     63.9066E-03
             764     15.0629E-03     81.3377E-03    -2.90321E+06     10.6712E+06    -15.8565E+06    -1.54630E+06    -17.8181E-03     33.3521E-03    -15.5340E-03     98.3526E-03    -18.0978E-03     33.7053E-03    -15.6245E-03     98.3101E-03
             765     15.9492E-03     81.4546E-03    -3.45932E+06     75.8840E+06    -18.6631E+06    -401.353E+03    -21.4196E-03     36.8341E-03    -15.4145E-03     167.938E-03    -23.2751E-03     39.0008E-03    -15.6129E-03     168.491E-03
             766     16.8344E-03     81.6524E-03    -3.53913E+06     156.249E+06     41.5083E+06     24.5163E+03    -25.2264E-03     40.8084E-03    -15.5820E-03     240.520E-03    -31.0868E-03     47.0906E-03    -15.5959E-03     244.860E-03
             767     886.050E-06     81.8134E-03    -15.7402E+06    -52.7348E+06    -15.5594E+06    -1.14981E+06    -15.7022E-03     31.3964E-03    -15.6943E-03     3.53418E-03    -15.6818E-03     31.1783E-03    -15.6728E-03     3.51882E-03
             768     1.77197E-03     81.8179E-03    -15.1475E+06    -51.8185E+06    -13.6521E+06    -2.01322E+06    -15.6980E-03     31.4007E-03    -15.7026E-03     6.55864E-03    -15.6789E-03     31.1834E-03    -15.6738E-03     6.53166E-03
             769     2.65806E-03     81.8255E-03    -14.0519E+06    -50.8110E+06    -11.4039E+06    -2.50100E+06    -15.7026E-03     31.4097E-03    -15.7071E-03     9.80765E-03    -15.6828E-03     31.1927E-03    -15.6701E-03     9.77387E-03
             770     3.54401E-03     81.8362E-03    -12.7971E+06    -48.9945E+06    -9.13347E+06    -2.40895E+06    -15.7100E-03     31.4193E-03    -15.7093E-03     13.1867E-03    -15.6901E-03     31.2065E-03    -15.6654E-03     13.1536E-03
             771     4.43011E-03     81.8499E-03    -11.7512E+06    -51.6748E+06    -6.21490E+06    -3.18069E+06    -15.7403E-03     31.4623E-03    -15.7219E-03     16.6830E-03    -15.7157E-03     31.2305E-03    -15.6610E-03     16.6392E-03
             772     5.31607E-03     81.8671E-03    -11.1711E+06    -52.8703E+06    -5.02052E+06    -3.91458E+06    -15.7712E-03     31.4965E-03    -15.7253E-03     20.3564E-03    -15.7440E-03     31.2565E-03    -15.6575E-03     20.3025E-03
             773     6.20216E-03     81.8877E-03    -10.7700E+06    -51.8006E+06    -4.91857E+06    -4.03390E+06    -15.8076E-03     31.5277E-03    -15.7201E-03     24.2154E-03    -15.7805E-03     31.2928E-03    -15.6540E-03     24.1590E-03
             774     7.08817E-03     81.9121E-03    -9.28135E+06    -53.7476E+06    -3.23990E+06    -4.92333E+06    -15.8706E-03     31.5967E-03    -15.7262E-03     28.2164E-03    -15.8363E-03     31.3481E-03    -15.6510E-03     28.1473E-03
             775     7.97422E-03     81.9400E-03    -7.38062E+06    -54.9835E+06    -2.01474E+06    -5.63961E+06    -15.9361E-03     31.6648E-03    -15.7287E-03     32.3690E-03    -15.8934E-03     31.4065E-03    -15.6483E-03     32.2891E-03
             776     8.86027E-03     81.9721E-03    -6.34069E+06    -52.9522E+06    -2.41850E+06    -5.47460E+06    -16.0025E-03     31.7217E-03    -15.7192E-03     36.6436E-03    -15.9585E-03     31.4742E-03    -15.6453E-03     36.5636E-03
             777     9.74638E-03     82.0078E-03    -5.66385E+06    -54.4352E+06    -3.05045E+06    -5.87024E+06    -16.0837E-03     31.7975E-03    -15.7138E-03     40.9039E-03    -16.0357E-03     31.5450E-03    -15.6419E-03     40.8158E-03
             778     10.6324E-03     82.0479E-03    -5.17454E+06    -53.2223E+06    -7.17695E+06    -6.27307E+06    -16.1788E-03     31.8662E-03    -15.6874E-03     45.2477E-03    -16.1280E-03     31.6289E-03    -15.6386E-03     45.1503E-03
             779     11.5185E-03     82.0917E-03    -4.61654E+06    -41.9793E+06    -5.64133E+06    -6.36012E+06    -16.2459E-03     31.9201E-03    -15.6742E-03     49.8856E-03    -16.2171E-03     31.7423E-03    -15.6348E-03     49.7818E-03
             780     12.4046E-03     82.1404E-03    -4.50145E+06    -38.8293E+06    -3.65289E+06    -6.17591E+06    -16.4471E-03     32.1234E-03    -15.6763E-03     56.6173E-03    -16.4375E-03     31.9705E-03    -15.6317E-03     56.5086E-03
             781     13.2908E-03     82.1965E-03    -4.72397E+06    -43.0345E+06    -13.2510E+06    -5.95075E+06    -16.5836E-03     32.2190E-03    -15.6355E-03     58.8337E-03    -16.5714E-03     32.0758E-03    -15.6325E-03     58.7197E-03
             782     14.1766E-03     82.2499E-03    -4.29077E+06    -29.7690E+06    -17.0931E+06    -4.75692E+06    -16.7390E-03     32.3390E-03    -15.6000E-03     64.1046E-03    -16.7721E-03     32.3008E-03    -15.6361E-03     64.0005E-03
             783     15.0622E-03     82.3154E-03    -3.44826E+06     8.16759E+06    -17.4858E+06    -2.84809E+06    -17.6585E-03     33.1915E-03    -15.5330E-03     98.2232E-03    -17.9347E-03     33.5352E-03    -15.6273E-03     98.1650E-03
             784     15.9490E-03     82.4325E-03    -3.91232E+06     74.3644E+06    -18.5601E+06     63.1998E+03    -21.1555E-03     36.5619E-03    -15.4064E-03     168.737E-03    -23.0086E-03     38.7189E-03    -15.6013E-03     169.303E-03
             785     16.8368E-03     82.6310E-03    -3.42330E+06     156.762E+06     40.2941E+06     1.01419E+06    -25.2020E-03     40.7558E-03    -15.5538E-03     240.558E-03    -31.0406E-03     47.0220E-03    -15.5747E-03     244.907E-03
             786     885.941E-06     82.7916E-03    -15.7836E+06    -50.5468E+06    -15.0850E+06    -1.01359E+06    -15.6880E-03     31.3982E-03    -15.7102E-03     3.53144E-03    -15.6718E-03     31.1904E-03    -15.6894E-03     3.51784E-03
             787     1.77204E-03     82.7963E-03    -15.2745E+06    -49.7807E+06    -13.7914E+06    -1.94888E+06    -15.7028E-03     31.4063E-03    -15.7035E-03     6.56224E-03    -15.6871E-03     31.1996E-03    -15.6781E-03     6.53610E-03
             788     2.65794E-03     82.8038E-03    -14.6231E+06    -49.3820E+06    -11.9205E+06    -2.69798E+06    -15.7023E-03     31.4107E-03    -15.7083E-03     9.81218E-03    -15.6867E-03     31.2024E-03    -15.6751E-03     9.77587E-03
             789     3.54408E-03     82.8144E-03    -13.2757E+06    -48.3745E+06    -9.67363E+06    -3.06470E+06    -15.7082E-03     31.4190E-03    -15.7108E-03     13.1863E-03    -15.6908E-03     31.2108E-03    -15.6698E-03     13.1447E-03
             790     4.43003E-03     82.8283E-03    -11.6275E+06    -49.8156E+06    -6.16931E+06    -3.31044E+06    -15.7378E-03     31.4606E-03    -15.7228E-03     16.6793E-03    -15.7153E-03     31.2379E-03    -15.6646E-03     16.6339E-03
             791     5.31613E-03     82.8453E-03    -10.1134E+06    -52.0414E+06    -3.83752E+06    -3.72522E+06    -15.7770E-03     31.5087E-03    -15.7317E-03     20.3370E-03    -15.7474E-03     31.2696E-03    -15.6607E-03     20.2855E-03
             792     6.20210E-03     82.8661E-03    -8.52970E+06    -50.4905E+06    -4.03050E+06    -4.34915E+06    -15.8048E-03     31.5265E-03    -15.7217E-03     24.2164E-03    -15.7697E-03     31.2936E-03    -15.6563E-03     24.1560E-03
             793     7.08821E-03     82.8902E-03    -7.69698E+06    -51.5113E+06    -3.30056E+06    -5.52228E+06    -15.8528E-03     31.5730E-03    -15.7203E-03     28.2403E-03    -15.8138E-03     31.3334E-03    -15.6509E-03     28.1636E-03
             794     7.97426E-03     82.9184E-03    -7.56908E+06    -54.5797E+06    -1.92513E+06    -5.87101E+06    -15.9277E-03     31.6548E-03    -15.7270E-03     32.3718E-03    -15.8866E-03     31.3986E-03    -15.6466E-03     32.2889E-03
             795     8.86033E-03     82.9501E-03    -6.77830E+06    -52.0327E+06    -2.10389E+06    -6.10718E+06    -15.9971E-03     31.7152E-03    -15.7180E-03     36.6517E-03    -15.9571E-03     31.4724E-03    -15.6433E-03     36.5635E-03
             796     9.74631E-03     82.9863E-03    -5.55704E+06    -53.1850E+06    -2.70735E+06    -6.60202E+06    -16.0888E-03     31.8007E-03    -15.7120E-03     40.9222E-03    -16.0425E-03     31.5538E-03    -15.6403E-03     40.8246E-03
             797     10.6325E-03     83.0259E-03    -4.86037E+06    -52.7638E+06    -7.02221E+06    -6.75978E+06    -16.1789E-03     31.8648E-03    -15.6859E-03     45.2499E-03    -16.1275E-03     31.6292E-03    -15.6375E-03     45.1461E-03
             798     11.5185E-03     83.0702E-03    -5.16550E+06    -41.5491E+06    -5.87362E+06    -6.48380E+06    -16.2177E-03     31.8889E-03    -15.6712E-03     49.8488E-03    -16.1919E-03     31.7143E-03    -15.6328E-03     49.7435E-03
             799     12.4047E-03     83.1183E-03    -4.66461E+06    -38.2392E+06    -3.87997E+06    -6.69196E+06    -16.4615E-03     32.1337E-03    -15.6722E-03     56.7525E-03    -16.4532E-03     31.9843E-03    -15.6293E-03     56.6371E-03
             800     13.2903E-03     83.1755E-03    -4.15247E+06    -43.3597E+06    -13.9948E+06    -6.41675E+06    -16.5331E-03     32.1608E-03    -15.6277E-03     58.8960E-03    -16.5165E-03     32.0162E-03    -15.6288E-03     58.7762E-03
             801     14.1767E-03     83.2272E-03    -5.32377E+06    -31.2572E+06    -18.1958E+06    -5.48376E+06    -16.5181E-03     32.1037E-03    -15.5857E-03     64.5645E-03    -16.5521E-03     32.0607E-03    -15.6236E-03     64.4520E-03
             802     15.0629E-03     83.2949E-03    -6.10618E+06     6.07631E+06    -19.4893E+06    -4.12980E+06    -18.3954E-03     33.9285E-03    -15.5332E-03     97.9806E-03    -18.6845E-03     34.2741E-03    -15.6306E-03     97.9004E-03
             803     15.9501E-03     83.4079E-03    -5.17956E+06     72.8315E+06    -19.3614E+06    -1.16774E+06    -20.7461E-03     36.1727E-03    -15.4266E-03     166.186E-03    -22.5659E-03     38.2890E-03    -15.6215E-03     166.750E-03
             804     16.8347E-03     83.6121E-03    -3.22626E+06     155.854E+06     39.4343E+06     704.661E+03    -24.3429E-03     39.8807E-03    -15.5378E-03     241.809E-03    -30.2490E-03     46.2145E-03    -15.5619E-03     246.172E-03
             805     886.069E-06     83.7700E-03    -14.0207E+06    -48.4653E+06    -14.1792E+06    -992.731E+03    -15.6884E-03     31.4084E-03    -15.7200E-03     3.54870E-03    -15.6676E-03     31.2071E-03    -15.7003E-03     3.53535E-03
             806     1.77193E-03     83.7746E-03    -13.6749E+06    -47.7889E+06    -12.1775E+06    -1.88505E+06    -15.7070E-03     31.4162E-03    -15.7093E-03     6.55469E-03    -15.6885E-03     31.2149E-03    -15.6810E-03     6.52937E-03
             807     2.65808E-03     83.7821E-03    -12.6710E+06    -47.6492E+06    -9.45880E+06    -2.62004E+06    -15.7139E-03     31.4326E-03    -15.7186E-03     9.79716E-03    -15.6947E-03     31.2266E-03    -15.6785E-03     9.76184E-03
             808     3.54395E-03     83.7928E-03    -11.9314E+06     -47.219E+06    -7.56242E+06    -3.21025E+06    -15.7199E-03     31.4424E-03    -15.7225E-03     13.1691E-03    -15.7005E-03     31.2349E-03    -15.6745E-03     13.1256E-03
             809     4.43008E-03     83.8065E-03    -10.9739E+06    -48.4706E+06    -6.43612E+06    -3.78089E+06    -15.7350E-03     31.4581E-03    -15.7231E-03     16.6807E-03    -15.7108E-03     31.2415E-03    -15.6691E-03     16.6292E-03
             810     5.31602E-03     83.8237E-03    -9.30741E+06    -50.5361E+06    -4.71187E+06    -4.60654E+06    -15.7676E-03     31.4939E-03    -15.7263E-03     20.3474E-03    -15.7349E-03     31.2624E-03    -15.6631E-03     20.2846E-03
             811     6.20215E-03     83.8442E-03    -7.55784E+06    -48.9224E+06    -3.65731E+06    -5.44063E+06    -15.7967E-03     31.5170E-03    -15.7203E-03     24.2195E-03    -15.7596E-03     31.2900E-03    -15.6567E-03     24.1450E-03
             812     7.08818E-03     83.8686E-03    -6.56662E+06    -50.5790E+06    -2.32339E+06    -5.19158E+06    -15.8464E-03     31.5677E-03    -15.7213E-03     28.2276E-03    -15.8045E-03     31.3297E-03    -15.6500E-03     28.1551E-03
             813     7.97428E-03     83.8965E-03    -6.10085E+06    -53.3796E+06    -931.459E+03    -5.49113E+06    -15.9188E-03     31.6449E-03    -15.7261E-03     32.3697E-03    -15.8735E-03     31.3912E-03    -15.6445E-03     32.2918E-03
             814     8.86027E-03     83.9286E-03    -5.50022E+06    -50.2426E+06    -1.57310E+06    -6.76578E+06    -15.9817E-03     31.6945E-03    -15.7128E-03     36.6695E-03    -15.9386E-03     31.4581E-03    -15.6399E-03     36.5729E-03
             815     9.74648E-03     83.9643E-03    -4.70587E+06    -52.4461E+06    -2.66196E+06    -7.35101E+06    -16.0780E-03     31.7833E-03    -15.7053E-03     40.9795E-03    -16.0287E-03     31.5388E-03    -15.6357E-03     40.8723E-03
             816     10.6324E-03     84.0045E-03    -4.28669E+06    -52.2107E+06    -7.20077E+06    -7.19076E+06    -16.1983E-03     31.8775E-03    -15.6792E-03     45.2888E-03    -16.1446E-03     31.6441E-03    -15.6332E-03     45.1795E-03
             817     11.5186E-03     84.0480E-03    -3.65423E+06    -41.8466E+06    -6.18964E+06    -6.69370E+06    -16.2345E-03     31.8994E-03    -15.6649E-03     49.8564E-03    -16.2003E-03     31.7216E-03    -15.6299E-03     49.7483E-03
             818     12.4046E-03     84.0969E-03    -4.28994E+06    -37.2711E+06    -4.08071E+06    -6.30272E+06    -16.3122E-03     31.9736E-03    -15.6614E-03     56.9500E-03    -16.3028E-03     31.8285E-03    -15.6215E-03     56.8401E-03
             819     13.2910E-03     84.1535E-03    -5.73925E+06    -42.8772E+06    -14.3065E+06    -6.51943E+06    -16.4541E-03     32.0667E-03    -15.6126E-03     59.0545E-03    -16.4454E-03     31.9269E-03    -15.6137E-03     58.9338E-03
             820     14.1770E-03     84.2055E-03    -6.12305E+06    -32.4403E+06    -18.9582E+06    -6.28051E+06    -16.9055E-03     32.4860E-03    -15.5805E-03     64.0481E-03    -16.9416E-03     32.4402E-03    -15.6193E-03     63.9236E-03
             821     15.0640E-03     84.2721E-03    -5.32408E+06     3.93454E+06    -19.3462E+06    -4.37179E+06    -18.5354E-03     34.0812E-03    -15.5458E-03     98.9668E-03    -18.8160E-03     34.4129E-03    -15.6405E-03     98.8834E-03
             822     15.9432E-03     84.3929E-03    -3.45181E+06     69.4788E+06    -22.5944E+06    -1.92580E+06    -20.5952E-03     36.0200E-03    -15.4248E-03     164.736E-03    -22.3812E-03     38.1060E-03    -15.6335E-03     165.293E-03
             823     16.8395E-03     84.5743E-03    -3.06903E+06     154.730E+06     37.8575E+06    -295.532E+03    -24.6294E-03     40.1763E-03    -15.5469E-03     242.913E-03    -30.6542E-03     46.6301E-03    -15.5775E-03     247.269E-03
             824     885.901E-06     84.7483E-03    -13.9722E+06    -46.4261E+06    -13.5430E+06    -1.30738E+06    -15.7076E-03     31.4164E-03    -15.7088E-03     3.54661E-03    -15.6905E-03     31.2243E-03    -15.6889E-03     3.52921E-03
             825     1.77207E-03     84.7530E-03    -13.2739E+06    -45.8195E+06    -11.6488E+06    -1.80504E+06    -15.7082E-03     31.4219E-03    -15.7137E-03     6.54773E-03    -15.6913E-03     31.2290E-03    -15.6862E-03     6.52344E-03
             826     2.65789E-03     84.7605E-03    -12.4532E+06    -45.9577E+06    -9.20772E+06    -2.65174E+06    -15.7119E-03     31.4329E-03    -15.7210E-03     9.79084E-03    -15.6943E-03     31.2347E-03    -15.6824E-03     9.75511E-03
             827     3.54407E-03     84.7711E-03    -11.3836E+06    -46.1546E+06    -7.57882E+06    -2.86278E+06    -15.7167E-03     31.4391E-03    -15.7224E-03     13.1665E-03    -15.6960E-03     31.2362E-03    -15.6769E-03     13.1275E-03
             828     4.42995E-03     84.7849E-03    -10.6714E+06    -46.2036E+06    -6.83638E+06    -3.89641E+06    -15.7249E-03     31.4428E-03    -15.7179E-03     16.6918E-03    -15.7019E-03     31.2377E-03    -15.6696E-03     16.6389E-03
             829     5.31614E-03     84.8019E-03    -9.88384E+06    -48.4223E+06    -6.10114E+06    -5.47872E+06    -15.7479E-03     31.4635E-03    -15.7155E-03     20.3764E-03    -15.7192E-03     31.2454E-03    -15.6615E-03     20.3023E-03
             830     6.20211E-03     84.8226E-03    -9.29892E+06    -47.9392E+06    -4.81916E+06    -5.79512E+06    -15.7825E-03     31.4951E-03    -15.7126E-03     24.2395E-03    -15.7538E-03     31.2772E-03    -15.6537E-03     24.1604E-03
             831     7.08823E-03     84.8467E-03    -8.22935E+06    -50.1224E+06    -3.55879E+06    -5.90585E+06    -15.8305E-03     31.5437E-03    -15.7133E-03     28.2616E-03    -15.7957E-03     31.3122E-03    -15.6465E-03     28.1799E-03
             832     7.97425E-03     84.8749E-03    -6.31616E+06    -51.7197E+06    -2.39708E+06    -6.28604E+06    -15.8897E-03     31.6012E-03    -15.7115E-03     32.4349E-03    -15.8457E-03     31.3582E-03    -15.6393E-03     32.3468E-03
             833     8.86046E-03     84.9066E-03    -5.10264E+06    -48.2808E+06    -1.71228E+06    -7.01722E+06    -15.9565E-03     31.6578E-03    -15.7013E-03     36.7196E-03    -15.9140E-03     31.4308E-03    -15.6325E-03     36.6198E-03
             834     9.74639E-03     84.9428E-03    -4.74806E+06    -51.5052E+06    -2.31323E+06    -7.72995E+06    -16.0591E-03     31.7560E-03    -15.6970E-03     41.0339E-03    -16.0118E-03     31.5157E-03    -15.6270E-03     40.9218E-03
             835     10.6327E-03     84.9824E-03    -4.17697E+06    -51.7160E+06    -6.52115E+06    -7.89606E+06    -16.1756E-03     31.8475E-03    -15.6719E-03     45.3875E-03    -16.1230E-03     31.6154E-03    -15.6235E-03     45.2692E-03
             836     11.5185E-03     85.0267E-03    -3.97887E+06    -42.3077E+06    -5.56891E+06    -7.34596E+06    -16.2308E-03     31.8898E-03    -15.6591E-03     49.9238E-03    -16.1984E-03     31.7093E-03    -15.6198E-03     49.8073E-03
             837     12.4049E-03     85.0745E-03    -3.29185E+06    -37.8540E+06    -2.61764E+06    -5.91455E+06    -16.2654E-03     31.9225E-03    -15.6571E-03     56.7108E-03    -16.2521E-03     31.7708E-03    -15.6106E-03     56.6061E-03
             838     13.2912E-03     85.1317E-03    -3.28449E+06    -41.1539E+06    -11.4191E+06    -5.58753E+06    -16.5503E-03     32.1625E-03    -15.6122E-03     59.0760E-03    -16.5359E-03     32.0235E-03    -15.6048E-03     58.9670E-03
             839     14.1769E-03     85.1841E-03    -4.95101E+06    -31.6331E+06    -17.8347E+06    -6.95543E+06    -17.1537E-03     32.7380E-03    -15.5843E-03     65.0143E-03    -17.1885E-03     32.6946E-03    -15.6205E-03     64.8801E-03
             840     15.0594E-03     85.2527E-03    -4.52147E+06     107.391E+03    -19.8701E+06    -5.38901E+06    -17.3424E-03     32.8633E-03    -15.5209E-03     99.0336E-03    -17.5968E-03     33.1595E-03    -15.6138E-03     98.9460E-03
             841     15.9563E-03     85.3660E-03    -5.15702E+06     65.3258E+06    -24.6422E+06    -2.75250E+06    -21.5949E-03     36.9824E-03    -15.3875E-03     165.657E-03    -23.4139E-03     39.0865E-03    -15.5980E-03     166.140E-03
             842     16.8300E-03     85.5611E-03    -4.92802E+06     154.006E+06     36.4388E+06    -1.40529E+06    -25.6962E-03     41.2632E-03    -15.5670E-03     241.177E-03    -31.6261E-03     47.6171E-03    -15.6010E-03     245.493E-03
             843     886.080E-06     85.7267E-03    -14.0734E+06    -44.2674E+06    -13.2490E+06    -921.460E+03    -15.7210E-03     31.4229E-03    -15.7019E-03     3.53418E-03    -15.7080E-03     31.2414E-03    -15.6836E-03     3.52176E-03
             844     1.77188E-03     85.7312E-03    -13.4878E+06    -44.0135E+06    -12.1704E+06    -1.91899E+06    -15.6999E-03     31.4124E-03    -15.7125E-03     6.54459E-03    -15.6859E-03     31.2296E-03    -15.6900E-03     6.51884E-03
             845     2.65808E-03     85.7388E-03    -12.7914E+06    -44.2984E+06    -10.5583E+06    -2.43556E+06    -15.6936E-03     31.4049E-03    -15.7113E-03     9.79776E-03    -15.6782E-03     31.2175E-03    -15.6813E-03     9.76484E-03
             846     3.54392E-03     85.7494E-03    -11.7796E+06    -44.7914E+06    -8.46467E+06    -3.34959E+06    -15.6988E-03     31.4105E-03    -15.7117E-03     13.1819E-03    -15.6808E-03     31.2162E-03    -15.6720E-03     13.1366E-03
             847     4.43014E-03     85.7632E-03    -10.0727E+06    -43.7808E+06    -6.34563E+06    -4.24482E+06    -15.7089E-03     31.4179E-03    -15.7090E-03     16.7078E-03    -15.6871E-03     31.2234E-03    -15.6627E-03     16.6503E-03
             848     5.31605E-03     85.7802E-03    -9.12950E+06    -45.9397E+06    -4.58597E+06    -5.44607E+06    -15.7387E-03     31.4494E-03    -15.7107E-03     20.3871E-03    -15.7120E-03     31.2405E-03    -15.6538E-03     20.3135E-03
             849     6.20224E-03     85.8008E-03    -8.27018E+06    -47.5472E+06    -4.51963E+06    -5.93900E+06    -15.7686E-03     31.4722E-03    -15.7036E-03     24.2640E-03    -15.7358E-03     31.2544E-03    -15.6453E-03     24.1831E-03
             850     7.08824E-03     85.8251E-03    -7.47276E+06    -48.0755E+06    -3.28806E+06    -6.50600E+06    -15.8093E-03     31.5100E-03    -15.7007E-03     28.3009E-03    -15.7741E-03     31.2872E-03    -15.6366E-03     28.2116E-03
             851     7.97445E-03     85.8529E-03    -6.38941E+06    -50.2956E+06    -1.98905E+06    -7.82165E+06    -15.8677E-03     31.5682E-03    -15.7005E-03     32.4798E-03    -15.8267E-03     31.3318E-03    -15.6282E-03     32.3719E-03
             852     8.86042E-03     85.8851E-03    -5.01987E+06    -47.6792E+06    -1.12181E+06    -7.44877E+06    -15.9352E-03     31.6265E-03    -15.6913E-03     36.7679E-03    -15.8940E-03     31.4015E-03    -15.6205E-03     36.6626E-03
             853     9.74674E-03     85.9207E-03    -4.28654E+06    -49.4897E+06    -432.573E+03    -7.75936E+06    -16.0300E-03     31.7197E-03    -15.6897E-03     41.0715E-03    -15.9860E-03     31.4861E-03    -15.6139E-03     40.9591E-03
             854     10.6326E-03     85.9609E-03    -4.21946E+06    -51.3428E+06    -5.50790E+06    -8.41043E+06    -16.1231E-03     31.7844E-03    -15.6614E-03     45.4304E-03    -16.0726E-03     31.5527E-03    -15.6083E-03     45.3056E-03
             855     11.5191E-03     86.0045E-03    -3.49090E+06    -42.3407E+06    -5.21087E+06    -8.06589E+06    -16.2158E-03     31.8593E-03    -15.6435E-03     49.9909E-03    -16.1815E-03     31.6773E-03    -15.6031E-03     49.8652E-03
             856     12.4048E-03     86.0532E-03    -2.28600E+06    -38.9465E+06    -3.02803E+06    -7.33308E+06    -16.4491E-03     32.0942E-03    -15.6451E-03     56.6797E-03    -16.4287E-03     31.9362E-03    -15.6005E-03     56.5563E-03
             857     13.2910E-03     86.1090E-03    -1.05956E+06    -41.7948E+06    -10.6852E+06    -5.92949E+06    -16.6235E-03     32.2354E-03    -15.6119E-03     59.5632E-03    -16.5989E-03     32.0896E-03    -15.6032E-03     59.4495E-03
             858     14.1766E-03     86.1641E-03    -1.74451E+06    -29.1793E+06    -13.8064E+06    -5.33480E+06    -16.4234E-03     31.9973E-03    -15.5739E-03     65.1316E-03    -16.4491E-03     31.9532E-03    -15.5981E-03     65.0212E-03
             859     15.0667E-03     86.2293E-03    -5.02778E+06    -688.040E+03    -18.3433E+06    -6.49661E+06    -17.5634E-03     33.0598E-03    -15.4964E-03     97.0461E-03    -17.8184E-03     33.3476E-03    -15.5799E-03     96.9375E-03
             860     15.9453E-03     86.3418E-03    -6.08331E+06     61.0675E+06    -26.2107E+06    -4.58681E+06    -21.7707E-03     37.1326E-03    -15.3619E-03     168.073E-03    -23.6384E-03     39.2716E-03    -15.5727E-03     168.554E-03
             861     16.8372E-03     86.5485E-03    -3.83890E+06     152.300E+06     35.1903E+06    -661.236E+03    -25.1452E-03     40.6687E-03    -15.5234E-03     240.496E-03    -30.9159E-03     46.8646E-03    -15.5627E-03     244.783E-03
             862     885.878E-06     86.7050E-03    -11.5363E+06    -42.2435E+06    -11.8616E+06    -1.00355E+06    -15.7189E-03     31.4228E-03    -15.7039E-03     3.52542E-03    -15.6981E-03     31.2456E-03    -15.6852E-03     3.51194E-03
             863     1.77207E-03     86.7097E-03    -11.0494E+06    -41.6680E+06    -10.3632E+06    -2.17118E+06    -15.6904E-03     31.3986E-03    -15.7082E-03     6.54106E-03    -15.6703E-03     31.2214E-03    -15.6836E-03     6.51206E-03
             864     2.65791E-03     86.7171E-03    -9.86334E+06    -43.1285E+06    -7.87727E+06    -2.83229E+06    -15.6874E-03     31.3966E-03    -15.7091E-03     9.79831E-03    -15.6630E-03     31.2068E-03    -15.6717E-03     9.76027E-03
             865     3.54415E-03     86.7277E-03    -8.64190E+06    -42.1880E+06    -5.53088E+06    -3.69115E+06    -15.6897E-03     31.3966E-03    -15.7068E-03     13.1827E-03    -15.6641E-03     31.2065E-03    -15.6608E-03     13.1331E-03
             866     4.43003E-03     86.7414E-03    -7.77966E+06    -42.1019E+06    -3.96975E+06    -4.92245E+06    -15.6995E-03     31.4024E-03    -15.7030E-03     16.7047E-03    -15.6721E-03     31.2095E-03    -15.6505E-03     16.6385E-03
             867     5.31628E-03     86.7585E-03    -6.70061E+06    -43.8765E+06    -2.63822E+06    -5.30862E+06    -15.7226E-03     31.4233E-03    -15.7007E-03     20.3958E-03    -15.6895E-03     31.2183E-03    -15.6405E-03     20.3239E-03
             868     6.20220E-03     86.7790E-03    -6.04818E+06    -46.1109E+06    -2.16530E+06    -6.25407E+06    -15.7556E-03     31.4514E-03    -15.6958E-03     24.2624E-03    -15.7171E-03     31.2340E-03    -15.6310E-03     24.1775E-03
             869     7.08847E-03     86.8032E-03    -5.13217E+06    -46.4477E+06    -1.50547E+06    -6.79668E+06    -15.7877E-03     31.4761E-03    -15.6884E-03     28.3236E-03    -15.7458E-03     31.2554E-03    -15.6212E-03     28.2306E-03
             870     7.97442E-03     86.8312E-03    -5.10204E+06    -47.8203E+06    -214.605E+03    -7.56411E+06    -15.8431E-03     31.5303E-03    -15.6872E-03     32.5070E-03    -15.8019E-03     31.3018E-03    -15.6115E-03     32.4024E-03
             871     8.86074E-03     86.8630E-03    -4.85189E+06    -47.7877E+06    -1.39850E+06    -8.42881E+06    -15.9065E-03     31.5784E-03    -15.6719E-03     36.8555E-03    -15.8639E-03     31.3530E-03    -15.6026E-03     36.7377E-03
             872     9.74663E-03     86.8992E-03    -3.75834E+06    -47.9013E+06    -932.161E+03    -8.04598E+06    -15.9848E-03     31.6491E-03    -15.6643E-03     41.1696E-03    -15.9397E-03     31.4233E-03    -15.5940E-03     41.0537E-03
             873     10.6331E-03     86.9387E-03    -2.48511E+06    -49.3996E+06    -4.01750E+06    -9.25719E+06    -16.1007E-03     31.7427E-03    -15.6420E-03     45.5121E-03    -16.0465E-03     31.5160E-03    -15.5869E-03     45.3764E-03
             874     11.5188E-03     86.9830E-03    -1.38371E+06    -43.0207E+06    -4.90343E+06    -9.37385E+06    -16.2051E-03     31.8262E-03    -15.6211E-03     50.1419E-03    -16.1596E-03     31.6373E-03    -15.5812E-03     49.9996E-03
             875     12.4055E-03     87.0310E-03    -1.60554E+06    -40.1817E+06    -2.53837E+06    -7.17632E+06    -16.4573E-03     32.0842E-03    -15.6269E-03     57.0704E-03    -16.4325E-03     31.9185E-03    -15.5790E-03     56.9490E-03
             876     13.2909E-03     87.0883E-03    -3.73027E+06    -42.6675E+06    -11.3482E+06    -6.02989E+06    -16.5442E-03     32.1350E-03    -15.5908E-03     59.9779E-03    -16.5309E-03     31.9899E-03    -15.5802E-03     59.8632E-03
             877     14.1778E-03     87.1409E-03    -2.45030E+06    -28.6912E+06    -11.8773E+06    -5.67915E+06    -16.4363E-03     31.9974E-03    -15.5611E-03     64.4175E-03    -16.4680E-03     31.9530E-03    -15.5753E-03     64.3027E-03
             878     15.0615E-03     87.2067E-03    -2.46557E+06     1.00530E+06    -14.0511E+06    -5.13142E+06    -17.8976E-03     33.3972E-03    -15.4996E-03     97.6810E-03    -18.1590E-03     33.6941E-03    -15.5678E-03     97.5895E-03
             879     15.9522E-03     87.3243E-03    -6.22006E+06     57.3569E+06    -24.9189E+06    -4.91686E+06    -20.9857E-03     36.3358E-03    -15.3501E-03     168.301E-03    -22.8313E-03     38.4353E-03    -15.5488E-03     168.826E-03
             880     16.8378E-03     87.5186E-03    -4.31233E+06     148.610E+06     34.4498E+06    -2.19800E+06    -24.7813E-03     40.2570E-03    -15.4757E-03     239.484E-03    -30.5294E-03     46.4176E-03    -15.5127E-03     243.726E-03
             881     886.079E-06     87.6835E-03    -11.5187E+06    -39.6934E+06    -11.5019E+06    -1.54065E+06    -15.6707E-03     31.3792E-03    -15.7085E-03     3.49650E-03    -15.6540E-03     31.2142E-03    -15.6917E-03     3.47611E-03
             882     1.77194E-03     87.6879E-03    -10.9435E+06    -39.2155E+06    -9.94645E+06    -2.50394E+06    -15.6710E-03     31.3595E-03    -15.6884E-03     6.53474E-03    -15.6545E-03     31.1938E-03    -15.6654E-03     6.50146E-03
             883     2.65815E-03     87.6955E-03    -9.80908E+06    -41.0552E+06    -7.06069E+06    -3.67665E+06    -15.6742E-03     31.3680E-03    -15.6938E-03     9.79942E-03    -15.6537E-03     31.1874E-03    -15.6553E-03     9.75049E-03
             884     3.54402E-03     87.7059E-03    -7.99996E+06    -40.2165E+06    -4.89892E+06    -4.44169E+06    -15.6708E-03     31.3615E-03    -15.6907E-03     13.1850E-03    -15.6457E-03     31.1794E-03    -15.6453E-03     13.1257E-03
             885     4.43027E-03     87.7198E-03    -6.19466E+06    -39.4349E+06    -2.51850E+06    -5.42744E+06    -15.6781E-03     31.3656E-03    -15.6875E-03     16.7132E-03    -15.6488E-03     31.1816E-03    -15.6339E-03     16.6405E-03
             886     5.31619E-03     87.7366E-03    -4.70390E+06    -43.2738E+06    -676.237E+03    -6.00082E+06    -15.7025E-03     31.3913E-03    -15.6888E-03     20.3949E-03    -15.6632E-03     31.1836E-03    -15.6226E-03     20.3141E-03
             887     6.20250E-03     87.7573E-03    -3.54130E+06    -43.6108E+06     574.052E+03    -6.10058E+06    -15.7286E-03     31.4113E-03    -15.6827E-03     24.2718E-03    -15.6852E-03     31.1989E-03    -15.6115E-03     24.1889E-03
             888     7.08841E-03     87.7813E-03    -3.14246E+06    -45.3195E+06     433.378E+03    -7.14575E+06    -15.7568E-03     31.4290E-03    -15.6722E-03     28.3312E-03    -15.7093E-03     31.2083E-03    -15.5998E-03     28.2337E-03
             889     7.97484E-03     87.8094E-03    -2.08693E+06    -46.0401E+06     463.222E+03    -7.30409E+06    -15.8004E-03     31.4599E-03    -15.6595E-03     32.5758E-03    -15.7476E-03     31.2349E-03    -15.5874E-03     32.4747E-03
             890     8.86073E-03     87.8412E-03    -1.88256E+06    -45.8307E+06     35.0024E+03    -8.22591E+06    -15.8623E-03     31.5070E-03    -15.6447E-03     36.9048E-03    -15.8097E-03     31.2850E-03    -15.5754E-03     36.7897E-03
             891     9.74730E-03     87.8771E-03    -1.43895E+06    -47.4274E+06    -673.118E+03    -9.20981E+06    -15.9389E-03     31.5706E-03    -15.6316E-03     41.3044E-03    -15.8832E-03     31.3433E-03    -15.5641E-03     41.1737E-03
             892     10.6330E-03     87.9171E-03    -1.19728E+06    -46.4778E+06    -2.22887E+06    -9.58075E+06    -16.0654E-03     31.6787E-03    -15.6134E-03     45.6754E-03    -16.0115E-03     31.4621E-03    -15.5554E-03     45.5357E-03
             893     11.5197E-03     87.9608E-03    -1.85950E+06    -43.8910E+06    -2.83921E+06    -9.80307E+06    -16.1376E-03     31.7378E-03    -15.6002E-03     50.3113E-03    -16.0961E-03     31.5422E-03    -15.5481E-03     50.1635E-03
             894     12.4053E-03     88.0095E-03    -1.20772E+06    -42.9420E+06    -2.69714E+06    -7.53174E+06    -16.3525E-03     31.9445E-03    -15.5921E-03     57.4071E-03    -16.3215E-03     31.7646E-03    -15.5416E-03     57.2815E-03
             895     13.2923E-03     88.0660E-03    -176.237E+03    -42.5808E+06    -8.80007E+06    -5.11484E+06    -16.5422E-03     32.1008E-03    -15.5586E-03     59.9328E-03    -16.5145E-03     31.9469E-03    -15.5406E-03     59.8301E-03
             896     14.1774E-03     88.1197E-03    -2.71008E+06    -27.8327E+06    -11.2263E+06    -5.47373E+06    -16.6107E-03     32.1414E-03    -15.5308E-03     64.7765E-03    -16.6465E-03     32.1014E-03    -15.5426E-03     64.6640E-03
             897     15.0654E-03     88.1852E-03    -2.41968E+06     847.881E+03    -12.7179E+06    -6.64137E+06    -17.8430E-03     33.3214E-03    -15.4784E-03     98.3710E-03    -18.1086E-03     33.6183E-03    -15.5398E-03     98.2635E-03
             898     15.9491E-03     88.2999E-03     481.034E+03     55.5455E+06    -20.1127E+06    -3.26551E+06    -21.4554E-03     36.8093E-03    -15.3538E-03     166.772E-03    -23.2364E-03     38.8475E-03    -15.5356E-03     167.285E-03
             899     16.8355E-03     88.4987E-03    -1.83125E+06     145.435E+06     34.3295E+06    -372.512E+03    -24.9116E-03     40.3940E-03    -15.4824E-03     239.234E-03    -30.6856E-03     46.5783E-03    -15.5190E-03     243.558E-03
             900     885.953E-06     88.6617E-03    -12.3979E+06    -36.5463E+06    -11.7650E+06    -1.64998E+06    -15.6418E-03     31.3209E-03    -15.6792E-03     3.47407E-03    -15.6337E-03     31.1734E-03    -15.6670E-03     3.45228E-03
             901     1.77213E-03     88.6663E-03    -11.4127E+06    -36.5281E+06    -9.50857E+06    -2.92287E+06    -15.6473E-03     31.3133E-03    -15.6660E-03     6.51615E-03    -15.6376E-03     31.1611E-03    -15.6441E-03     6.47747E-03
             902     2.65803E-03     88.6736E-03    -10.0010E+06    -38.1848E+06    -6.99073E+06    -4.18688E+06    -15.6458E-03     31.3154E-03    -15.6696E-03     9.79058E-03    -15.6305E-03     31.1493E-03    -15.6347E-03     9.73510E-03
             903     3.54425E-03     88.6843E-03    -8.45244E+06    -37.8551E+06    -4.89490E+06    -5.62394E+06    -15.6388E-03     31.3051E-03    -15.6663E-03     13.1937E-03    -15.6194E-03     31.1355E-03    -15.6236E-03     13.1192E-03
             904     4.43021E-03     88.6978E-03    -6.70679E+06    -37.1839E+06    -2.91550E+06    -6.43202E+06    -15.6374E-03     31.2969E-03    -15.6596E-03     16.7384E-03    -15.6133E-03     31.1255E-03    -15.6105E-03     16.6528E-03
             905     5.31650E-03     88.7151E-03    -5.07979E+06    -41.9324E+06    -524.064E+03    -6.84606E+06    -15.6636E-03     31.3263E-03    -15.6627E-03     20.4261E-03    -15.6283E-03     31.1256E-03    -15.5972E-03     20.3344E-03
             906     6.20244E-03     88.7352E-03    -3.50829E+06    -42.6833E+06     164.960E+03    -6.88048E+06    -15.6761E-03     31.3274E-03    -15.6513E-03     24.3241E-03    -15.6333E-03     31.1201E-03    -15.5835E-03     24.2312E-03
             907     7.08889E-03     88.7597E-03    -1.96548E+06    -42.5942E+06     1.73034E+06    -7.37184E+06    -15.7109E-03     31.3532E-03    -15.6423E-03     28.3821E-03    -15.6634E-03     31.1425E-03    -15.5691E-03     28.2818E-03
             908     7.97479E-03     88.7871E-03    -786.879E+03    -45.3114E+06     1.54393E+06    -8.64786E+06    -15.7527E-03     31.3820E-03    -15.6292E-03     32.6193E-03    -15.6961E-03     31.1572E-03    -15.5546E-03     32.5010E-03
             909     8.86141E-03     88.8195E-03     1.18288E+06    -43.6875E+06     2.54571E+06    -8.63784E+06    -15.8015E-03     31.4156E-03    -15.6141E-03     36.9656E-03    -15.7403E-03     31.1961E-03    -15.5398E-03     36.8453E-03
             910     9.74722E-03     88.8549E-03     1.11116E+06    -46.5659E+06     2.12875E+06    -8.75962E+06    -15.8878E-03     31.4902E-03    -15.6024E-03     41.3274E-03    -15.8246E-03     31.2595E-03    -15.5258E-03     41.2025E-03
             911     10.6340E-03     88.8952E-03    -209.336E+03    -45.1749E+06    -1.04875E+06    -8.69156E+06    -16.0152E-03     31.5913E-03    -15.5761E-03     45.8071E-03    -15.9600E-03     31.3779E-03    -15.5155E-03     45.6790E-03
             912     11.5196E-03     88.9389E-03    -757.307E+03    -42.3972E+06    -880.973E+03    -9.46659E+06    -16.1048E-03     31.6709E-03    -15.5662E-03     50.1624E-03    -16.0628E-03     31.4783E-03    -15.5080E-03     50.0189E-03
             913     12.4068E-03     88.9871E-03    -40.6431E+03    -45.4987E+06    -2.10228E+06    -9.34261E+06    -16.3589E-03     31.9175E-03    -15.5586E-03     57.4808E-03    -16.3192E-03     31.7223E-03    -15.5031E-03     57.3318E-03
             914     13.2918E-03     89.0448E-03     806.937E+03    -45.4263E+06    -8.41961E+06    -6.00275E+06    -16.5961E-03     32.1247E-03    -15.5286E-03     59.8885E-03    -16.5601E-03     31.9547E-03    -15.5060E-03     59.7742E-03
             915     14.1789E-03     89.0973E-03     1.79882E+06    -26.4371E+06    -6.59896E+06    -4.18522E+06    -16.5142E-03     32.0259E-03    -15.5118E-03     64.0406E-03    -16.5357E-03     31.9791E-03    -15.5090E-03     63.9449E-03
             916     15.0639E-03     89.1630E-03    -2.49439E+06     2.24289E+06    -10.5057E+06    -4.69822E+06    -18.1198E-03     33.5810E-03    -15.4612E-03     98.3275E-03    -18.3930E-03     33.8837E-03    -15.5133E-03     98.2413E-03
             917     15.9509E-03     89.2803E-03    -8.88440E+06     50.6610E+06    -22.9404E+06    -4.99981E+06    -21.5145E-03     36.8594E-03    -15.3448E-03     167.364E-03    -23.3417E-03     38.9013E-03    -15.5201E-03     167.859E-03
             918     16.8367E-03     89.4758E-03    -4.13887E+06     143.269E+06     27.7902E+06    -1.73304E+06    -24.4031E-03     39.8301E-03    -15.4270E-03     240.341E-03    -30.1998E-03     46.0401E-03    -15.4898E-03     244.678E-03
             919     886.087E-06     89.6401E-03    -11.8185E+06    -33.1851E+06    -11.4938E+06    -1.83536E+06    -15.6518E-03     31.2660E-03    -15.6142E-03     3.42786E-03    -15.6461E-03     31.1340E-03    -15.6064E-03     3.40369E-03
             920     1.77204E-03     89.6445E-03    -10.9769E+06    -33.2887E+06    -9.32279E+06    -3.19261E+06    -15.6114E-03     31.2472E-03    -15.6358E-03     6.52797E-03    -15.6046E-03     31.1103E-03    -15.6182E-03     6.48583E-03
             921     2.65823E-03     89.6520E-03    -9.50232E+06    -34.8184E+06    -6.46351E+06    -4.93920E+06    -15.6061E-03     31.2438E-03    -15.6377E-03     9.79840E-03    -15.5939E-03     31.0930E-03    -15.6058E-03     9.73323E-03
             922     3.54424E-03     89.6623E-03    -7.89013E+06    -34.8919E+06    -4.36663E+06    -6.24348E+06    -15.5940E-03     31.2262E-03    -15.6322E-03     13.2096E-03    -15.5768E-03     31.0699E-03    -15.5920E-03     13.1270E-03
             923     4.43047E-03     89.6762E-03    -6.79458E+06    -35.1462E+06    -3.05642E+06    -7.12433E+06    -15.5883E-03     31.2102E-03    -15.6219E-03     16.7648E-03    -15.5674E-03     31.0492E-03    -15.5763E-03     16.6703E-03
             924     5.31654E-03     89.6929E-03    -5.61775E+06    -40.1680E+06    -1.55371E+06    -7.63406E+06    -15.6019E-03     31.2206E-03    -15.6187E-03     20.4682E-03    -15.5703E-03     31.0310E-03    -15.5601E-03     20.3664E-03
             925     6.20291E-03     89.7136E-03    -4.08677E+06    -41.3648E+06    -215.906E+03    -8.14734E+06    -15.6222E-03     31.2309E-03    -15.6087E-03     24.3644E-03    -15.5836E-03     31.0316E-03    -15.5439E-03     24.2552E-03
             926     7.08894E-03     89.7373E-03    -2.41205E+06    -40.7796E+06     1.49401E+06    -8.56776E+06    -15.6461E-03     31.2437E-03    -15.5976E-03     28.4562E-03    -15.6031E-03     31.0430E-03    -15.5275E-03     28.3405E-03
             927     7.97544E-03     89.7657E-03    -1.18465E+06    -42.8606E+06     3.33505E+06    -9.21235E+06    -15.7046E-03     31.2971E-03    -15.5925E-03     32.6687E-03    -15.6560E-03     31.0825E-03    -15.5120E-03     32.5431E-03
             928     8.86138E-03     89.7968E-03    -1.27816E+06    -43.7621E+06     2.75225E+06    -9.56532E+06    -15.7514E-03     31.3279E-03    -15.5765E-03     37.0090E-03    -15.7027E-03     31.1113E-03    -15.4974E-03     36.8768E-03
             929     9.74817E-03     89.8335E-03    -339.875E+03    -45.7024E+06     3.60695E+06    -8.43368E+06    -15.8724E-03     31.4425E-03    -15.5701E-03     41.3364E-03    -15.8199E-03     31.2161E-03    -15.4853E-03     41.2157E-03
             930     10.6339E-03     89.8724E-03     935.032E+03    -44.3606E+06     1.53370E+06    -8.71867E+06    -16.0230E-03     31.5722E-03    -15.5491E-03     45.7235E-03    -15.9670E-03     31.3575E-03    -15.4785E-03     45.5949E-03
             931     11.5208E-03     89.9177E-03     1.48364E+06    -40.0681E+06     3.09327E+06    -9.20750E+06    -16.2203E-03     31.7703E-03    -15.5500E-03     49.9901E-03    -16.1765E-03     31.5806E-03    -15.4786E-03     49.8496E-03
             932     12.4059E-03     89.9644E-03     307.047E+03    -46.8226E+06    -674.798E+03    -9.08287E+06    -16.3323E-03     31.8760E-03    -15.5437E-03     57.0674E-03    -16.2913E-03     31.6719E-03    -15.4796E-03     56.9214E-03
             933     13.2933E-03     90.0236E-03     20.0325E+03    -48.1478E+06    -10.1516E+06    -7.51408E+06    -16.5097E-03     32.0092E-03    -15.4994E-03     60.2223E-03    -16.4708E-03     31.8289E-03    -15.4804E-03     60.0890E-03
             934     14.1779E-03     90.0751E-03     253.037E+03    -28.1501E+06    -7.75675E+06    -4.80737E+06    -17.0410E-03     32.5410E-03    -15.5000E-03     63.8141E-03    -17.0685E-03     32.4919E-03    -15.4983E-03     63.7077E-03
             935     15.0654E-03     90.1414E-03     2.35553E+06     2.09457E+06    -5.23515E+06    -1.95530E+06    -18.3380E-03     33.8314E-03    -15.4934E-03     97.6857E-03    -18.5980E-03     34.1224E-03    -15.5260E-03     97.6335E-03
             936     15.9501E-03     90.2590E-03     4.71166E+06     54.2119E+06    -16.7262E+06    -2.19477E+06    -20.6423E-03     35.9936E-03    -15.3513E-03     164.905E-03    -22.3948E-03     38.0038E-03    -15.5204E-03     165.450E-03
             937     16.8387E-03     90.4515E-03    -1.78817E+06     140.727E+06     26.7570E+06    -1.85707E+06    -25.9200E-03     41.3726E-03    -15.4527E-03     237.181E-03    -31.7537E-03     47.6219E-03    -15.5203E-03     241.393E-03
             938     886.019E-06     90.6182E-03    -9.70422E+06    -29.6832E+06    -9.46816E+06    -1.84927E+06    -15.6149E-03     31.1875E-03    -15.5727E-03     3.40186E-03    -15.6066E-03     31.0671E-03    -15.5629E-03     3.37753E-03
             939     1.77221E-03     90.6228E-03    -9.40715E+06    -29.7350E+06    -8.53794E+06    -3.35228E+06    -15.5672E-03     31.1571E-03    -15.5899E-03     6.52872E-03    -15.5588E-03     31.0346E-03    -15.5759E-03     6.48454E-03
             940     2.65826E-03     90.6300E-03    -8.85083E+06    -30.7344E+06    -6.49582E+06    -5.27885E+06    -15.5509E-03     31.1371E-03    -15.5861E-03     9.81722E-03    -15.5414E-03     31.0058E-03    -15.5612E-03     9.74769E-03
             941     3.54447E-03     90.6406E-03    -7.81556E+06    -32.0614E+06    -4.52887E+06    -6.85914E+06    -15.5379E-03     31.1185E-03    -15.5806E-03     13.2295E-03    -15.5243E-03     30.9764E-03    -15.5454E-03     13.1391E-03
             942     4.43062E-03     90.6540E-03    -6.56059E+06    -33.0036E+06    -2.96835E+06      -7.369E+06    -15.5303E-03     31.1010E-03    -15.5707E-03     16.7907E-03    -15.5115E-03     30.9503E-03    -15.5282E-03     16.6931E-03
             943     5.31691E-03     90.6712E-03    -5.40867E+06    -37.6725E+06    -989.372E+03    -8.35789E+06    -15.5476E-03     31.1160E-03    -15.5685E-03     20.4867E-03    -15.5194E-03     30.9378E-03    -15.5109E-03     20.3756E-03
             944     6.20306E-03     90.6912E-03    -3.88026E+06    -39.4212E+06     120.426E+03    -9.34709E+06    -15.5618E-03     31.1192E-03    -15.5574E-03     24.4004E-03    -15.5255E-03     30.9288E-03    -15.4940E-03     24.2758E-03
             945     7.08948E-03     90.7157E-03    -2.38587E+06    -39.2969E+06     1.82746E+06    -9.69547E+06    -15.5914E-03     31.1379E-03    -15.5465E-03     28.4915E-03    -15.5509E-03     30.9441E-03    -15.4769E-03     28.3613E-03
             946     7.97564E-03     90.7429E-03    -1.77972E+06    -42.0793E+06     3.98259E+06    -8.98692E+06    -15.6607E-03     31.2061E-03    -15.5454E-03     32.7037E-03    -15.6172E-03     30.9954E-03    -15.4618E-03     32.5811E-03
             947     8.86217E-03     90.7755E-03    -1.84895E+06    -42.5222E+06     4.76120E+06    -8.48792E+06    -15.7743E-03     31.3141E-03    -15.5399E-03     36.9759E-03    -15.7332E-03     31.1017E-03    -15.4517E-03     36.8575E-03
             948     9.74807E-03     90.8103E-03    -1.90364E+06    -45.3929E+06     3.62856E+06    -9.43494E+06    -15.9090E-03     31.4429E-03    -15.5339E-03     41.3821E-03    -15.8648E-03     31.2203E-03    -15.4472E-03     41.2484E-03
             949     10.6347E-03     90.8518E-03    -1.56609E+06    -43.0361E+06     1.53269E+06    -9.06043E+06    -16.0912E-03     31.6123E-03    -15.5211E-03     45.7510E-03    -16.0497E-03     31.4081E-03    -15.4488E-03     45.6179E-03
             950     11.5202E-03     90.8942E-03    -2.21907E+06    -40.0963E+06     2.84114E+06    -8.56086E+06    -16.2976E-03     31.8310E-03    -15.5334E-03     50.1912E-03    -16.2721E-03     31.6470E-03    -15.4578E-03     50.0589E-03
             951     12.4068E-03     90.9447E-03    -2.43356E+06    -45.1936E+06    -1.19630E+06    -8.57868E+06    -16.6577E-03     32.1967E-03    -15.5390E-03     56.6348E-03    -16.6328E-03     32.0062E-03    -15.4759E-03     56.4941E-03
             952     13.2926E-03     90.9982E-03    -2.19938E+06    -49.9751E+06    -12.5017E+06    -9.10005E+06    -16.7140E-03     32.2242E-03    -15.5102E-03     59.2279E-03    -16.6806E-03     32.0419E-03    -15.4971E-03     59.0730E-03
             953     14.1797E-03     91.0573E-03    -1.69220E+06    -30.5949E+06    -12.2553E+06    -6.57212E+06    -17.5455E-03     33.0681E-03    -15.5226E-03     63.7626E-03    -17.5743E-03     33.0178E-03    -15.5371E-03     63.6315E-03
             954     15.0618E-03     91.1180E-03     944.080E+03    -3.50740E+06    -12.4814E+06    -6.74782E+06    -18.2011E-03     33.7201E-03    -15.5190E-03     95.5557E-03    -18.4482E-03     33.9945E-03    -15.5777E-03     95.4434E-03
             955     15.9497E-03     91.2383E-03     3.79864E+06     59.9721E+06    -13.6413E+06    -5.14395E+06    -23.1454E-03     38.6235E-03    -15.4781E-03     163.479E-03    -24.9686E-03     40.7131E-03    -15.6388E-03     163.902E-03
             956     16.8361E-03     91.4253E-03    -528.145E+03     146.141E+06     18.1326E+06     4.00272E+06    -27.1333E-03     42.7603E-03    -15.6271E-03     232.950E-03    -32.9289E-03     49.0214E-03    -15.7475E-03     237.253E-03
             957     886.182E-06     91.5966E-03    -8.18144E+06    -26.0152E+06    -8.06036E+06    -1.89324E+06    -15.5337E-03     31.0525E-03    -15.5188E-03     3.44150E-03    -15.5252E-03     30.9461E-03    -15.5095E-03     3.41661E-03
             958     1.77223E-03     91.6007E-03    -7.72019E+06    -26.0885E+06    -7.11170E+06    -3.47081E+06    -15.5109E-03     31.0348E-03    -15.5239E-03     6.52095E-03    -15.5014E-03     30.9259E-03    -15.5104E-03     6.47526E-03
             959     2.65849E-03     91.6083E-03    -7.15837E+06    -26.5784E+06    -5.43993E+06    -5.23968E+06    -15.4846E-03     31.0035E-03    -15.5190E-03     9.83532E-03    -15.4741E-03     30.8891E-03    -15.4972E-03     9.76634E-03
             960     3.54467E-03     91.6184E-03    -6.69996E+06    -28.8652E+06    -3.12455E+06    -6.82252E+06    -15.4784E-03     30.9958E-03    -15.5175E-03     13.2394E-03    -15.4658E-03     30.8661E-03    -15.4815E-03     13.1495E-03
             961     4.43092E-03     91.6322E-03    -6.01999E+06    -31.0594E+06    -1.60650E+06    -7.67941E+06    -15.4723E-03     30.9837E-03    -15.5114E-03     16.8065E-03    -15.4556E-03     30.8400E-03    -15.4656E-03     16.7049E-03
             962     5.31718E-03     91.6488E-03    -5.00031E+06    -34.2915E+06    -504.546E+03    -8.70729E+06    -15.4799E-03     30.9832E-03    -15.5033E-03     20.5310E-03    -15.4552E-03     30.8205E-03    -15.4488E-03     20.4155E-03
             963     6.20350E-03     91.6695E-03    -4.34961E+06    -37.3008E+06     158.692E+03    -9.91999E+06    -15.5029E-03     30.9964E-03    -15.4934E-03     24.4505E-03    -15.4721E-03     30.8172E-03    -15.4322E-03     24.3185E-03
             964     7.08981E-03     91.6930E-03    -4.35641E+06    -38.5843E+06     803.436E+03    -9.52747E+06    -15.5449E-03     31.0282E-03    -15.4834E-03     28.5576E-03    -15.5137E-03     30.8423E-03    -15.4171E-03     28.4296E-03
             965     7.97618E-03     91.7215E-03    -4.39255E+06    -42.2059E+06     2.18846E+06    -8.56711E+06    -15.6390E-03     31.1233E-03    -15.4843E-03     32.7798E-03    -15.6058E-03     30.9183E-03    -15.4058E-03     32.6627E-03
             966     8.86236E-03     91.7525E-03    -3.52751E+06    -41.1886E+06     2.80652E+06    -8.39684E+06    -15.7750E-03     31.2547E-03    -15.4797E-03     37.1594E-03    -15.7414E-03     31.0542E-03    -15.4008E-03     37.0422E-03
             967     9.74870E-03     91.7895E-03    -3.06858E+06    -43.3076E+06     2.12025E+06    -8.88482E+06    -15.9465E-03     31.4273E-03    -15.4808E-03     41.5705E-03    -15.9091E-03     31.2190E-03    -15.4029E-03     41.4439E-03
             968     10.6347E-03     91.8281E-03    -3.57395E+06    -43.8831E+06    -2.16562E+06    -8.78802E+06    -16.1313E-03     31.6007E-03    -15.4693E-03     46.1143E-03    -16.0933E-03     31.4004E-03    -15.4114E-03     45.9848E-03
             969     11.5210E-03     91.8744E-03    -3.56117E+06    -39.1020E+06    -293.208E+03    -7.91875E+06    -16.4341E-03     31.9240E-03    -15.4899E-03     50.5698E-03    -16.4123E-03     31.7516E-03    -15.4295E-03     50.4457E-03
             970     12.4068E-03     91.9204E-03    -2.72205E+06    -43.5045E+06    -1.81875E+06    -9.14082E+06    -17.1241E-03     32.6518E-03    -15.5277E-03     57.4225E-03    -17.1028E-03     32.4717E-03    -15.4698E-03     57.2738E-03
             971     13.2908E-03     91.9813E-03    -3.32136E+06    -49.4658E+06    -15.3987E+06    -9.36936E+06    -17.4011E-03     32.9293E-03    -15.5282E-03     59.5474E-03    -17.3716E-03     32.7571E-03    -15.5286E-03     59.3868E-03
             972     14.1761E-03     92.0296E-03    -3.91707E+06    -34.5855E+06    -17.2411E+06    -8.64635E+06    -16.9734E-03     32.5117E-03    -15.5383E-03     65.9911E-03    -16.9976E-03     32.4493E-03    -15.5687E-03     65.8367E-03
             973     15.0623E-03     92.1066E-03    -8.24354E+06     1.91902E+06    -16.6964E+06    -8.55810E+06    -19.3205E-03     34.8677E-03    -15.5471E-03     96.2157E-03    -19.6260E-03     35.1996E-03    -15.6215E-03     96.0685E-03
             974     15.9504E-03     92.2021E-03    -18.3704E+06     54.3399E+06    -20.5275E+06    -2.94595E+06    -23.7903E-03     39.3482E-03    -15.5579E-03     169.692E-03    -25.6822E-03     41.4277E-03    -15.7127E-03     170.158E-03
             975     16.8157E-03     92.4368E-03    -9.34974E+06     134.811E+06     12.6224E+06     1.51075E+06    -23.6897E-03     39.2703E-03    -15.5806E-03     242.854E-03    -29.4053E-03     45.3967E-03    -15.6994E-03     247.355E-03
             976     886.191E-06     92.5743E-03    -8.81167E+06    -22.0340E+06    -8.60136E+06    -2.10635E+06    -15.4240E-03     30.8535E-03    -15.4295E-03     3.47815E-03    -15.4237E-03     30.7687E-03    -15.4277E-03     3.45051E-03
             977     1.77247E-03     92.5790E-03    -8.11061E+06    -22.2362E+06    -7.04907E+06    -3.83287E+06    -15.4199E-03     30.8491E-03    -15.4292E-03     6.52492E-03    -15.4180E-03     30.7599E-03    -15.4204E-03     6.47460E-03
             978     2.65868E-03     92.5860E-03    -7.17156E+06    -22.8728E+06    -4.61907E+06    -5.33794E+06    -15.4033E-03     30.8346E-03    -15.4313E-03     9.86425E-03    -15.3995E-03     30.7375E-03    -15.4108E-03     9.79404E-03
             979     3.54496E-03     92.5966E-03    -6.16688E+06    -25.7335E+06    -1.85175E+06    -6.50322E+06    -15.4018E-03     30.8371E-03    -15.4353E-03     13.2801E-03    -15.3930E-03     30.7204E-03    -15.3983E-03     13.1944E-03
             980     4.43126E-03     92.6098E-03     -5.3041E+06    -28.5603E+06    -550.505E+03    -7.54688E+06    -15.3964E-03     30.8271E-03    -15.4307E-03     16.8522E-03    -15.3812E-03     30.6933E-03    -15.3843E-03     16.7525E-03
             981     5.31760E-03     92.6269E-03    -4.78749E+06    -31.1728E+06    -467.268E+03    -8.70894E+06    -15.3988E-03     30.8170E-03    -15.4182E-03     20.6089E-03    -15.3777E-03     30.6696E-03    -15.3684E-03     20.4936E-03
             982     6.20401E-03     92.6468E-03    -4.93804E+06    -35.6483E+06     52.6626E+03    -8.95405E+06    -15.4377E-03     30.8501E-03    -15.4123E-03     24.5427E-03    -15.4120E-03     30.6801E-03    -15.3532E-03     24.4233E-03
             983     7.09031E-03     92.6713E-03    -5.58805E+06    -38.5115E+06    -180.358E+03    -8.36690E+06    -15.4934E-03     30.8974E-03    -15.4041E-03     28.6960E-03    -15.4670E-03     30.7150E-03    -15.3410E-03     28.5832E-03
             984     7.97673E-03     92.6985E-03    -5.44942E+06    -41.0894E+06    -185.416E+03    -8.37514E+06    -15.5839E-03     30.9828E-03    -15.3989E-03     33.0518E-03    -15.5540E-03     30.7883E-03    -15.3324E-03     32.9373E-03
             985     8.86299E-03     92.7312E-03    -5.25077E+06    -40.4030E+06     17.9145E+03    -8.51936E+06    -15.7073E-03     31.1022E-03    -15.3948E-03     37.5512E-03    -15.6793E-03     30.9120E-03    -15.3285E-03     37.4328E-03
             986     9.74933E-03     92.7663E-03    -4.71649E+06    -41.4867E+06     692.443E+03    -8.77330E+06    -15.8996E-03     31.3018E-03    -15.4022E-03     42.0980E-03    -15.8708E-03     31.1070E-03    -15.3318E-03     41.9732E-03
             987     10.6354E-03     92.8077E-03    -3.48189E+06    -43.5723E+06    -2.77894E+06    -9.24049E+06    -16.1866E-03     31.5866E-03    -15.4000E-03     46.6960E-03    -16.1476E-03     31.3886E-03    -15.3456E-03     46.5609E-03
             988     11.5216E-03     92.8505E-03    -1.60704E+06    -39.2403E+06    -697.901E+03    -8.94771E+06    -16.5022E-03     31.9296E-03    -15.4274E-03     51.5172E-03    -16.4697E-03     31.7541E-03    -15.3717E-03     51.3802E-03
             989     12.4066E-03     92.9021E-03    -1.45074E+06    -41.1845E+06    -495.509E+03    -8.74080E+06    -16.9084E-03     32.3759E-03    -15.4675E-03     59.0648E-03    -16.8854E-03     32.2030E-03    -15.4082E-03     58.9226E-03
             990     13.2935E-03     92.9570E-03    -2.35707E+06    -49.9826E+06    -14.8912E+06    -8.60453E+06    -17.3203E-03     32.7785E-03    -15.4582E-03     61.9800E-03    -17.2856E-03     32.6012E-03    -15.4568E-03     61.8307E-03
             991     14.1773E-03     93.0138E-03    -5.45314E+06    -34.2699E+06    -16.8515E+06    -8.01292E+06    -17.4237E-03     32.9068E-03    -15.4831E-03     66.5147E-03    -17.4578E-03     32.8488E-03    -15.5098E-03     66.3667E-03
             992     15.0681E-03     93.0739E-03    -6.81199E+06     3.18226E+06    -11.7706E+06    -3.25645E+06    -20.4377E-03     35.9855E-03    -15.5478E-03     101.296E-03    -20.7540E-03     36.3231E-03    -15.6014E-03     101.210E-03
             993     15.9367E-03     93.2077E-03    -2.97483E+06     40.9580E+06    -20.3853E+06     1.91396E+06    -18.9250E-03     34.3612E-03    -15.4362E-03     165.816E-03    -20.5030E-03     36.1319E-03    -15.5932E-03     166.458E-03
             994     16.8625E-03     93.3751E-03    -1.40878E+06     129.903E+06     35.2649E+06    -3.36146E+06    -21.9516E-03     37.3559E-03    -15.4043E-03     241.758E-03    -27.6872E-03     43.4466E-03    -15.4143E-03     246.018E-03
             995     886.337E-06     93.5525E-03    -8.60082E+06    -17.8251E+06    -8.12481E+06    -2.11424E+06    -15.2760E-03     30.6087E-03    -15.3328E-03     3.52006E-03    -15.2813E-03     30.5440E-03    -15.3351E-03     3.49234E-03
             996     1.77263E-03     93.5564E-03    -8.17741E+06    -18.2579E+06    -6.17016E+06    -3.80778E+06    -15.3055E-03     30.6180E-03    -15.3125E-03     6.55173E-03    -15.3111E-03     30.5476E-03    -15.3050E-03     6.50177E-03
             997     2.65899E-03     93.5640E-03    -7.64042E+06    -19.7118E+06    -3.95472E+06    -5.05969E+06    -15.2979E-03     30.6175E-03    -15.3196E-03     9.89981E-03    -15.3019E-03     30.5359E-03    -15.2997E-03     9.83324E-03
             998     3.54536E-03     93.5740E-03    -6.98711E+06    -22.6779E+06    -2.25130E+06    -6.22772E+06    -15.2882E-03     30.6097E-03    -15.3215E-03     13.3438E-03    -15.2873E-03     30.5100E-03    -15.2898E-03     13.2617E-03
             999     4.43172E-03     93.5878E-03    -6.13117E+06    -25.7815E+06    -1.03818E+06    -7.40626E+06    -15.2870E-03     30.6046E-03    -15.3177E-03     16.9344E-03    -15.2792E-03     30.4866E-03    -15.2766E-03     16.8366E-03
            1000     5.31820E-03     93.6042E-03    -5.71430E+06    -28.8606E+06    -485.331E+03    -7.95532E+06    -15.2997E-03     30.6097E-03    -15.3100E-03     20.7242E-03    -15.2865E-03     30.4751E-03    -15.2623E-03     20.6187E-03
            1001     6.20455E-03     93.6249E-03    -5.84665E+06    -34.9582E+06    -751.006E+03    -7.78939E+06    -15.3339E-03     30.6378E-03    -15.3039E-03     24.7102E-03    -15.3125E-03     30.4737E-03    -15.2485E-03     24.6061E-03
            1002     7.09112E-03     93.6483E-03    -5.33227E+06    -37.3096E+06    -1.06656E+06    -7.87626E+06    -15.3805E-03     30.6728E-03    -15.2922E-03     28.9610E-03    -15.3533E-03     30.4972E-03    -15.2357E-03     28.8547E-03
            1003     7.97743E-03     93.6768E-03    -4.93631E+06    -39.8508E+06    -913.650E+03    -8.20180E+06    -15.4504E-03     30.7352E-03    -15.2848E-03     33.4313E-03    -15.4186E-03     30.5471E-03    -15.2245E-03     33.3195E-03
            1004     8.86408E-03     93.7080E-03    -4.74754E+06     -39.767E+06    -224.279E+03    -7.95561E+06    -15.5577E-03     30.8374E-03    -15.2797E-03     38.0753E-03    -15.5275E-03     30.6498E-03    -15.2163E-03     37.9647E-03
            1005     9.75026E-03     93.7451E-03     -4.9301E+06    -39.3169E+06     1.06531E+06    -8.65564E+06    -15.7654E-03     31.0506E-03    -15.2852E-03     42.8272E-03    -15.7411E-03     30.8661E-03    -15.2157E-03     42.7045E-03
            1006     10.6369E-03     93.7842E-03    -4.77698E+06    -41.9998E+06    -982.673E+03    -10.0111E+06    -16.0841E-03     31.3754E-03    -15.2913E-03     47.7141E-03    -16.0562E-03     31.1843E-03    -15.2284E-03     47.5697E-03
            1007     11.5222E-03     93.8307E-03    -4.76469E+06    -39.4664E+06    -868.179E+03    -10.2219E+06    -16.3140E-03     31.6251E-03    -15.3111E-03     52.7170E-03    -16.2963E-03     31.4529E-03    -15.2513E-03     52.5644E-03
            1008     12.4096E-03     93.8776E-03    -3.40610E+06    -40.7298E+06     764.538E+03    -9.31758E+06    -16.5569E-03     31.9010E-03    -15.3441E-03     59.9699E-03    -16.5455E-03     31.7307E-03    -15.2763E-03     59.8216E-03
            1009     13.2943E-03     93.9385E-03    -3.39654E+06    -50.8682E+06    -11.6010E+06    -7.86406E+06    -17.0022E-03     32.3335E-03    -15.3313E-03     62.3837E-03    -16.9747E-03     32.1470E-03    -15.3106E-03     62.2456E-03
            1010     14.1824E-03     93.9888E-03    -3.68827E+06    -33.9194E+06    -12.7790E+06    -5.77525E+06    -18.7708E-03     34.1628E-03    -15.3920E-03     68.0226E-03    -18.8096E-03     34.1050E-03    -15.4014E-03     67.8971E-03
            1011     15.0572E-03     94.0623E-03    -2.46739E+06    -6.82305E+06    -12.1745E+06    -3.31706E+06    -18.5791E-03     34.0143E-03    -15.4352E-03     102.678E-03    -18.8332E-03     34.2702E-03    -15.4826E-03     102.611E-03
            1012     15.9618E-03     94.1768E-03     487.493E+03     36.5634E+06    -18.0822E+06    -4.86433E+06    -19.9846E-03     35.3156E-03    -15.3310E-03     157.807E-03    -21.5213E-03     37.0354E-03    -15.4751E-03     158.228E-03
            1013     16.8226E-03     94.3440E-03    -87.0986E+03     136.796E+06     41.5431E+06    -3.79427E+06    -25.0242E-03     40.4768E-03    -15.4526E-03     237.057E-03    -30.9491E-03     46.7680E-03    -15.4431E-03     241.291E-03
            1014     886.449E-06     94.5296E-03    -9.03216E+06    -13.8861E+06    -8.49528E+06    -1.97891E+06    -15.1376E-03     30.3118E-03    -15.1742E-03     3.54407E-03    -15.1503E-03     30.2679E-03    -15.1834E-03     3.51812E-03
            1015     1.77291E-03     94.5344E-03    -8.83595E+06    -14.9152E+06    -6.44424E+06    -3.03313E+06    -15.1586E-03     30.3248E-03    -15.1663E-03     6.59508E-03    -15.1718E-03     30.2725E-03    -15.1641E-03     6.55516E-03
            1016     2.65935E-03     94.5413E-03    -8.44110E+06    -16.7285E+06    -4.19746E+06    -4.22981E+06    -15.1542E-03     30.3295E-03    -15.1753E-03     9.94091E-03    -15.1662E-03     30.2643E-03    -15.1598E-03     9.88514E-03
            1017     3.54581E-03     94.5519E-03    -7.94958E+06    -19.7135E+06    -2.31523E+06    -5.44460E+06    -15.1400E-03     30.3190E-03    -15.1790E-03     13.4104E-03    -15.1481E-03     30.2356E-03    -15.1505E-03     13.3385E-03
            1018     4.43239E-03     94.5649E-03    -7.90693E+06    -23.1171E+06    -1.32420E+06    -6.51209E+06    -15.1381E-03     30.3139E-03    -15.1758E-03     17.0378E-03    -15.1427E-03     30.2122E-03    -15.1374E-03     16.9516E-03
            1019     5.31884E-03     94.5820E-03    -8.16398E+06    -27.6663E+06    -1.69476E+06    -6.76364E+06    -15.1407E-03     30.3068E-03    -15.1661E-03     20.8722E-03    -15.1397E-03     30.1835E-03    -15.1226E-03     20.7822E-03
            1020     6.20554E-03     94.6018E-03    -7.96730E+06    -33.3428E+06    -2.46015E+06    -7.19464E+06    -15.1551E-03     30.3087E-03    -15.1536E-03     24.9524E-03    -15.1441E-03     30.1582E-03    -15.1060E-03     24.8562E-03
            1021     7.09198E-03     94.6262E-03    -7.82390E+06    -35.9008E+06    -2.96713E+06    -7.84395E+06    -15.1715E-03     30.3079E-03    -15.1364E-03     29.2975E-03    -15.1559E-03     30.1456E-03    -15.0878E-03     29.1920E-03
            1022     7.97888E-03     94.6534E-03    -7.56226E+06    -38.7737E+06    -1.95451E+06    -7.89353E+06    -15.2180E-03     30.3446E-03    -15.1266E-03     33.8778E-03    -15.1992E-03     30.1670E-03    -15.0692E-03     33.7704E-03
            1023     8.86525E-03     94.6861E-03    -6.97278E+06    -38.9887E+06    -860.465E+03    -8.15302E+06    -15.3158E-03     30.4313E-03    -15.1155E-03     38.6617E-03    -15.2967E-03     30.2515E-03    -15.0531E-03     38.5491E-03
            1024     9.75232E-03     94.7214E-03    -5.72182E+06    -37.2822E+06     1.67201E+06    -8.44374E+06    -15.5222E-03     30.6378E-03    -15.1156E-03     43.6654E-03    -15.5053E-03     30.4634E-03    -15.0449E-03     43.5462E-03
            1025     10.6382E-03     94.7633E-03    -6.37122E+06    -40.5314E+06     907.381E+03    -8.73581E+06    -15.7818E-03     30.9027E-03    -15.1209E-03     48.5879E-03    -15.7663E-03     30.7180E-03    -15.0484E-03     48.4608E-03
            1026     11.5257E-03     94.8066E-03    -7.04966E+06    -37.3639E+06     436.418E+03    -9.98089E+06    -16.1629E-03     31.2964E-03    -15.1335E-03     53.6316E-03    -16.1615E-03     31.1360E-03    -15.0669E-03     53.4826E-03
            1027     12.4101E-03     94.8580E-03    -6.69979E+06    -41.4018E+06    -583.305E+03    -10.8674E+06    -16.5586E-03     31.7247E-03    -15.1660E-03     60.5235E-03    -16.5602E-03     31.5572E-03    -15.0992E-03     60.3557E-03
            1028     13.2979E-03     94.9136E-03    -4.61387E+06    -52.3365E+06    -11.6255E+06    -9.12809E+06    -17.3716E-03     32.5520E-03    -15.1804E-03     63.8294E-03    -17.3497E-03     32.3616E-03    -15.1560E-03     63.6737E-03
            1029     14.1798E-03     94.9720E-03    -2.78839E+06    -37.1077E+06    -12.8414E+06    -6.80255E+06    -17.7977E-03     33.0256E-03    -15.2279E-03     70.9317E-03    -17.8259E-03     32.9493E-03    -15.2342E-03     70.7980E-03
            1030     15.0719E-03     95.0418E-03    -1.63822E+06    -6.69944E+06    -8.43388E+06    -6.83234E+06    -17.8358E-03     33.0829E-03    -15.2471E-03     100.145E-03    -18.0770E-03     33.3187E-03    -15.2771E-03     100.032E-03
            1031     15.9480E-03     95.1445E-03    -2.34069E+06     37.3323E+06    -15.7144E+06    -4.45618E+06    -23.0625E-03     38.2633E-03    -15.2009E-03     165.301E-03    -24.8182E-03     40.1893E-03    -15.3302E-03     165.691E-03
            1032     16.8413E-03     95.3536E-03    -3.40398E+06     132.153E+06     37.8994E+06    -764.647E+03    -26.4641E-03     41.8675E-03    -15.4034E-03     241.393E-03    -32.2881E-03     48.0401E-03    -15.4006E-03     245.683E-03
            1033     886.571E-06     95.5073E-03    -11.1863E+06    -10.7010E+06    -10.2808E+06    -1.40224E+06    -14.9853E-03     29.9557E-03    -14.9704E-03     3.51447E-03    -15.0108E-03     29.9334E-03    -14.9900E-03     3.49600E-03
            1034     1.77319E-03     95.5113E-03    -10.8634E+06    -12.5377E+06    -8.42968E+06    -2.16389E+06    -14.9703E-03     29.9574E-03    -14.9871E-03     6.64979E-03    -14.9943E-03     29.9228E-03    -14.9953E-03     6.62114E-03
            1035     2.65980E-03     95.5189E-03    -10.4408E+06    -14.0985E+06    -5.40308E+06    -3.04115E+06    -14.9624E-03     29.9586E-03    -14.9961E-03     9.97912E-03    -14.9865E-03     29.9112E-03    -14.9876E-03     9.93878E-03
            1036     3.54649E-03     95.5287E-03    -10.1343E+06    -17.2474E+06    -2.64852E+06    -4.04789E+06    -14.9461E-03     29.9487E-03    -15.0026E-03     13.4880E-03    -14.9682E-03     29.8813E-03    -14.9762E-03     13.4343E-03
            1037     4.43306E-03     95.5424E-03    -10.1004E+06    -21.2102E+06    -1.66926E+06    -4.61847E+06    -14.9292E-03     29.9266E-03    -14.9974E-03     17.1560E-03    -14.9469E-03     29.8380E-03    -14.9604E-03     17.0945E-03
            1038     5.31991E-03     95.5587E-03    -10.1127E+06    -26.0197E+06    -2.10782E+06    -5.43007E+06    -14.9143E-03     29.8968E-03    -14.9825E-03     21.0463E-03    -14.9247E-03     29.7851E-03    -14.9407E-03     20.9738E-03
            1039     6.20654E-03     95.5792E-03    -10.0952E+06    -31.1572E+06    -2.90608E+06    -6.51599E+06    -14.8996E-03     29.8621E-03    -14.9624E-03     25.1888E-03    -14.9017E-03     29.7261E-03    -14.9172E-03     25.1017E-03
            1040     7.09362E-03     95.6026E-03    -10.0462E+06    -34.6690E+06    -2.90209E+06    -7.01901E+06    -14.8946E-03     29.8354E-03    -14.9408E-03     29.6071E-03    -14.8918E-03     29.6823E-03    -14.8905E-03     29.5127E-03
            1041     7.98023E-03     95.6309E-03    -10.0684E+06    -37.5125E+06    -1.97591E+06    -7.47062E+06    -14.9140E-03     29.8357E-03    -14.9216E-03     34.2724E-03    -14.9094E-03     29.6678E-03    -14.8625E-03     34.1710E-03
            1042     8.86760E-03     95.6622E-03    -9.51892E+06    -37.2182E+06    -671.856E+03    -8.30285E+06    -15.0253E-03     29.9277E-03    -14.9024E-03     39.2305E-03    -15.0216E-03     29.7600E-03    -14.8380E-03     39.1166E-03
            1043     9.75394E-03     95.6993E-03    -9.50001E+06    -37.0865E+06     531.927E+03    -8.30689E+06    -15.1832E-03     30.0746E-03    -14.8914E-03     44.3071E-03    -15.1836E-03     29.9080E-03    -14.8212E-03     44.1905E-03
            1044     10.6416E-03     95.7393E-03    -8.43315E+06    -39.0096E+06     1.20932E+06    -7.96312E+06    -15.5280E-03     30.4212E-03    -14.8932E-03     49.3557E-03    -15.5251E-03     30.2464E-03    -14.8184E-03     49.2394E-03
            1045     11.5269E-03     95.7854E-03    -7.51968E+06    -34.2726E+06     1.53213E+06    -9.55753E+06    -15.9340E-03     30.8374E-03    -14.9034E-03     54.5930E-03    -15.9406E-03     30.6911E-03    -14.8351E-03     54.4505E-03
            1046     12.4148E-03     95.8346E-03    -6.90893E+06    -39.6261E+06    -272.187E+03    -11.1966E+06    -16.5470E-03     31.4865E-03    -14.9395E-03     61.7060E-03    -16.5529E-03     31.3280E-03    -14.8734E-03     61.5341E-03
            1047     13.2988E-03     95.8930E-03    -6.78827E+06    -55.0943E+06    -13.8904E+06    -11.1816E+06    -17.2897E-03     32.2489E-03    -14.9592E-03     66.3039E-03    -17.2730E-03     32.0527E-03    -14.9389E-03     66.1222E-03
            1048     14.1863E-03     95.9513E-03    -5.15655E+06    -37.4698E+06    -13.3420E+06    -10.1738E+06    -16.9271E-03     31.9228E-03    -14.9957E-03     70.5500E-03    -16.9616E-03     31.8447E-03    -15.0006E-03     70.3773E-03
            1049     15.0699E-03     96.0147E-03    -3.74052E+06    -7.69958E+06    -8.53712E+06    -7.18318E+06    -18.3881E-03     33.4087E-03    -15.0206E-03     100.375E-03    -18.6519E-03     33.6566E-03    -15.0467E-03     100.254E-03
            1050     15.9607E-03     96.1345E-03    -5.52918E+06     33.5363E+06    -17.8868E+06    -3.47235E+06    -22.4819E-03     37.4611E-03    -14.9792E-03     167.526E-03    -24.2632E-03     39.3938E-03    -15.1092E-03     168.012E-03
            1051     16.8435E-03     96.3190E-03    -3.83646E+06     131.122E+06     38.9556E+06    -1.13523E+06    -26.9484E-03     42.1597E-03    -15.2114E-03     235.949E-03    -32.5597E-03     48.1103E-03    -15.2012E-03     239.965E-03
            1052     886.792E-06     96.4837E-03    -14.4816E+06    -8.94857E+06    -13.2600E+06    -335.217E+03    -14.7463E-03     29.5028E-03    -14.7565E-03     3.54793E-03    -14.7865E-03     29.4984E-03    -14.7888E-03     3.54327E-03
            1053     1.77354E-03     96.4886E-03    -14.3128E+06    -10.8510E+06    -10.7807E+06    -1.04932E+06    -14.7462E-03     29.5122E-03    -14.7660E-03     6.72177E-03    -14.7864E-03     29.4944E-03    -14.7835E-03     6.70757E-03
            1054     2.66037E-03     96.4954E-03    -13.8020E+06    -12.5989E+06    -7.51565E+06    -1.49535E+06    -14.7217E-03     29.4970E-03    -14.7753E-03     10.0566E-03    -14.7617E-03     29.4651E-03    -14.7746E-03     10.0363E-03
            1055     3.54715E-03     96.5059E-03    -13.4935E+06    -15.4268E+06    -4.33653E+06    -2.01609E+06    -14.6883E-03     29.4668E-03    -14.7785E-03     13.5887E-03    -14.7274E-03     29.4157E-03    -14.7582E-03     13.5613E-03
            1056     4.43416E-03     96.5188E-03    -13.0145E+06    -19.7566E+06    -2.32344E+06    -2.88022E+06    -14.6597E-03     29.4320E-03    -14.7723E-03     17.3017E-03    -14.6931E-03     29.3558E-03    -14.7364E-03     17.2628E-03
            1057     5.32099E-03     96.5357E-03    -12.6181E+06    -23.8932E+06    -1.85612E+06    -3.84069E+06    -14.6251E-03     29.3787E-03    -14.7535E-03     21.2157E-03    -14.6515E-03     29.2808E-03    -14.7099E-03     21.1640E-03
            1058     6.20821E-03     96.5553E-03    -12.7867E+06    -29.0711E+06    -2.32695E+06    -4.96523E+06    -14.5932E-03     29.3212E-03    -14.7280E-03     25.3989E-03    -14.6125E-03     29.1986E-03    -14.6789E-03     25.3321E-03
            1059     7.09508E-03     96.5795E-03    -13.0768E+06    -33.3730E+06    -2.89074E+06    -5.87033E+06    -14.5642E-03     29.2612E-03    -14.6969E-03     29.8582E-03    -14.5784E-03     29.1188E-03    -14.6441E-03     29.7790E-03
            1060     7.98264E-03     96.6067E-03    -12.5485E+06    -35.2763E+06    -2.17540E+06    -6.99741E+06    -14.5924E-03     29.2593E-03    -14.6669E-03     34.6228E-03    -14.6029E-03     29.1064E-03    -14.6084E-03     34.5279E-03
            1061     8.86944E-03     96.6391E-03    -12.4510E+06    -36.2920E+06    -1.35821E+06    -7.46964E+06    -14.6836E-03     29.3245E-03    -14.6409E-03     39.6840E-03    -14.6946E-03     29.1664E-03    -14.5770E-03     39.5814E-03
            1062     9.75723E-03     96.6751E-03    -12.1635E+06    -36.1117E+06    -247.643E+03    -7.53390E+06    -14.8790E-03     29.5026E-03    -14.6236E-03     44.8280E-03    -14.8927E-03     29.3456E-03    -14.5548E-03     44.7220E-03
            1063     10.6435E-03     96.7164E-03    -11.2822E+06    -37.4415E+06    -179.872E+03    -8.98241E+06    -15.2250E-03     29.8435E-03    -14.6185E-03     50.2205E-03    -15.2363E-03     29.6824E-03    -14.5488E-03     50.0918E-03
            1064     11.5315E-03     96.7621E-03    -9.38233E+06    -31.2138E+06     1.91557E+06    -10.1694E+06    -15.6556E-03     30.2873E-03    -14.6318E-03     55.4049E-03    -15.6759E-03     30.1581E-03    -14.5634E-03     55.2554E-03
            1065     12.4168E-03     96.8119E-03    -8.19635E+06    -37.8711E+06     644.759E+03    -11.2608E+06    -16.4018E-03     31.0765E-03    -14.6747E-03     62.7918E-03    -16.4183E-03     30.9276E-03    -14.6047E-03     62.6197E-03
            1066     13.3042E-03     96.8717E-03    -7.81461E+06    -55.2540E+06    -13.8696E+06    -11.6342E+06    -16.9824E-03     31.6766E-03    -14.6941E-03     66.7590E-03    -16.9693E-03     31.4797E-03    -14.6720E-03     66.5732E-03
            1067     14.1888E-03     96.9280E-03    -9.24438E+06    -37.5308E+06    -14.3474E+06    -10.8295E+06    -17.6746E-03     32.4344E-03    -14.7599E-03     70.1447E-03    -17.7286E-03     32.3640E-03    -14.7638E-03     69.9615E-03
            1068     15.0758E-03     96.9952E-03    -8.75923E+06    -10.8943E+06    -10.6425E+06    -10.1153E+06    -19.7979E-03     34.6631E-03    -14.8652E-03     99.4536E-03    -20.0888E-03     34.9151E-03    -14.8899E-03     99.2891E-03
            1069     15.9583E-03     97.1086E-03    -4.77539E+06     30.1362E+06    -16.8311E+06    -5.64808E+06    -22.8990E-03     37.8022E-03    -14.9031E-03     163.139E-03    -24.5896E-03     39.6317E-03    -15.0241E-03     163.570E-03
            1070     16.8417E-03     97.3062E-03    -3.56228E+06     128.546E+06     38.1355E+06    -809.063E+03    -27.5181E-03     42.6793E-03    -15.1612E-03     236.853E-03    -33.2619E-03     48.7564E-03    -15.1518E-03     240.915E-03
            1071     887.017E-06     97.4607E-03    -18.8434E+06    -9.54155E+06    -17.2522E+06     1.13493E+06    -14.4593E-03     28.9414E-03    -14.4820E-03     3.65472E-03    -14.5147E-03     28.9461E-03    -14.5271E-03     3.66906E-03
            1072     1.77404E-03     97.4646E-03    -18.8317E+06    -10.0434E+06    -14.1766E+06     879.598E+03    -14.4633E-03     28.9515E-03    -14.4881E-03     6.76651E-03    -14.5224E-03     28.9492E-03    -14.5172E-03     6.77729E-03
            1073     2.66104E-03     97.4721E-03    -18.4675E+06    -12.1840E+06    -10.5581E+06     435.376E+03    -14.4246E-03     28.9234E-03    -14.4987E-03     10.1519E-03    -14.4841E-03     28.9047E-03    -14.5071E-03     10.1566E-03
            1074     3.54822E-03     97.4818E-03    -17.6491E+06    -14.4171E+06    -6.82820E+06     60.1884E+03    -14.3819E-03     28.8811E-03    -14.4992E-03     13.6957E-03    -14.4396E-03     28.8447E-03    -14.4868E-03     13.6953E-03
            1075     4.43527E-03     97.4954E-03    -17.1542E+06    -18.2763E+06    -3.72957E+06    -755.372E+03    -14.3307E-03     28.8230E-03    -14.4923E-03     17.4346E-03    -14.3849E-03     28.7623E-03    -14.4596E-03     17.4234E-03
            1076     5.32264E-03     97.5114E-03    -17.0227E+06    -22.2861E+06    -2.48868E+06    -1.73719E+06    -14.2803E-03     28.7514E-03    -14.4711E-03     21.3791E-03    -14.3300E-03     28.6688E-03    -14.4265E-03     21.3548E-03
            1077     6.20980E-03     97.5317E-03    -17.1477E+06    -27.2663E+06    -2.91923E+06    -2.68942E+06    -14.2349E-03     28.6736E-03    -14.4387E-03     25.5967E-03    -14.2777E-03     28.5671E-03    -14.3889E-03     25.5596E-03
            1078     7.09747E-03     97.5549E-03    -17.2044E+06    -30.9137E+06    -3.81055E+06    -4.41818E+06    -14.2149E-03     28.6141E-03    -14.3992E-03     30.1135E-03    -14.2518E-03     28.4913E-03    -14.3485E-03     30.0534E-03
            1079     7.98465E-03     97.5828E-03    -17.2540E+06    -33.0794E+06    -3.93512E+06    -6.16574E+06    -14.2415E-03     28.6038E-03    -14.3622E-03     34.9889E-03    -14.2761E-03     28.4710E-03    -14.3089E-03     34.9053E-03
            1080     8.87257E-03     97.6145E-03    -16.4646E+06    -35.5430E+06    -2.75262E+06    -6.80730E+06    -14.3448E-03     28.6808E-03    -14.3360E-03     40.1026E-03    -14.3747E-03     28.5341E-03    -14.2744E-03     40.0092E-03
            1081     9.75959E-03     97.6511E-03    -14.8192E+06    -34.1148E+06    -1.12852E+06    -7.89197E+06    -14.5751E-03     28.8915E-03    -14.3164E-03     45.4637E-03    -14.6034E-03     28.7494E-03    -14.2511E-03     45.3537E-03
            1082     10.6476E-03     97.6924E-03    -12.9574E+06    -34.5145E+06    -249.071E+03    -9.55961E+06    -14.9714E-03     29.2859E-03    -14.3146E-03     50.8735E-03    -14.9949E-03     29.1416E-03    -14.2470E-03     50.7382E-03
            1083     11.5339E-03     97.7383E-03    -11.6787E+06    -29.4332E+06     1.27775E+06    -11.1140E+06    -15.5277E-03     29.8632E-03    -14.3355E-03     56.1174E-03    -15.5610E-03     29.7469E-03    -14.2695E-03     55.9564E-03
            1084     12.4214E-03     97.7895E-03    -9.53752E+06    -35.6976E+06     1.05026E+06    -12.3377E+06    -16.3800E-03     30.7766E-03    -14.3966E-03     63.5244E-03    -16.4066E-03     30.6396E-03    -14.3257E-03     63.3390E-03
            1085     13.3064E-03     97.8486E-03    -8.26533E+06    -55.4258E+06    -14.1580E+06    -12.2066E+06    -17.2524E-03     31.6930E-03    -14.4406E-03     66.8163E-03    -17.2401E-03     31.4957E-03    -14.4191E-03     66.6232E-03
            1086     14.1929E-03     97.9070E-03    -8.48411E+06    -38.4440E+06    -14.5337E+06    -10.4956E+06    -18.5254E-03     33.0802E-03    -14.5549E-03     71.1746E-03    -18.5752E-03     33.0056E-03    -14.5595E-03     70.9933E-03
            1087     15.0745E-03     97.9752E-03    -10.1829E+06    -9.44516E+06    -9.13388E+06    -9.64665E+06    -21.7267E-03     36.4830E-03    -14.7563E-03     101.955E-03    -22.0390E-03     36.7521E-03    -14.7735E-03     101.783E-03
            1088     15.9554E-03     98.0929E-03    -10.7142E+06     24.6073E+06    -19.1645E+06    -8.49954E+06    -24.6749E-03     39.5768E-03    -14.9019E-03     162.325E-03    -26.3968E-03     41.4036E-03    -15.0179E-03     162.688E-03
            1089     16.8461E-03     98.2760E-03    -4.45187E+06     121.853E+06     32.9392E+06    -3.94731E+06    -26.9587E-03     42.1369E-03    -15.1783E-03     236.577E-03    -32.7292E-03     48.2290E-03    -15.1838E-03     240.613E-03
            1090     887.309E-06     98.4361E-03    -23.0084E+06    -13.0476E+06    -21.7764E+06     2.60239E+06    -14.1633E-03     28.2836E-03    -14.1202E-03     3.73519E-03    -14.2279E-03     28.2834E-03    -14.1768E-03     3.76849E-03
            1091     1.77457E-03     98.4408E-03    -23.1374E+06    -11.0465E+06    -18.4691E+06     3.41285E+06    -14.1119E-03     28.2638E-03    -14.1519E-03     6.81207E-03    -14.1848E-03     28.2689E-03    -14.1947E-03     6.85563E-03
            1092     2.66197E-03     98.4476E-03    -22.9492E+06    -12.0210E+06    -13.8047E+06     2.86649E+06    -14.0752E-03     28.2369E-03    -14.1616E-03     10.2281E-03    -14.1526E-03     28.2302E-03    -14.1800E-03     10.2644E-03
            1093     3.54927E-03     98.4579E-03    -22.3125E+06    -14.5075E+06    -9.35982E+06     2.34735E+06    -14.0209E-03     28.1848E-03    -14.1639E-03     13.7991E-03    -14.0980E-03     28.1584E-03    -14.1573E-03     13.8284E-03
            1094     4.43685E-03     98.4707E-03    -21.5629E+06    -17.2804E+06    -5.61867E+06     1.89647E+06    -13.9504E-03     28.1044E-03    -14.1540E-03     17.5640E-03    -14.0253E-03     28.0578E-03    -14.1258E-03     17.5872E-03
            1095     5.32431E-03     98.4872E-03    -21.1655E+06    -21.3088E+06    -3.53803E+06     1.04129E+06    -13.8898E-03     28.0211E-03    -14.1313E-03     21.5487E-03    -13.9601E-03     27.9509E-03    -14.0874E-03     21.5605E-03
            1096     6.21213E-03     98.5067E-03    -20.8261E+06    -25.2199E+06    -3.60684E+06    -441.619E+03    -13.8490E-03     27.9431E-03    -14.0941E-03     25.7942E-03    -13.9121E-03     27.8531E-03    -14.0453E-03     25.7864E-03
            1097     7.09968E-03     98.5304E-03    -20.4332E+06    -27.8404E+06    -4.29285E+06    -2.70845E+06    -13.8429E-03     27.8941E-03    -14.0512E-03     30.4013E-03    -13.8996E-03     27.7919E-03    -14.0026E-03     30.3636E-03
            1098     7.98774E-03     98.5577E-03    -20.0559E+06    -30.8598E+06    -4.18427E+06    -4.63931E+06    -13.8903E-03     27.9060E-03    -14.0157E-03     35.3359E-03    -13.9416E-03     27.7886E-03    -13.9628E-03     35.2724E-03
            1099     8.87526E-03     98.5897E-03    -19.2133E+06    -33.2237E+06    -3.31228E+06    -6.86126E+06    -14.0280E-03     28.0178E-03    -13.9898E-03     40.5896E-03    -14.0740E-03     27.8873E-03    -13.9303E-03     40.4960E-03
            1100     9.76343E-03     98.6263E-03    -17.0109E+06    -31.1912E+06    -1.59063E+06    -9.20197E+06    -14.3126E-03     28.2868E-03    -13.9742E-03     46.0975E-03    -14.3552E-03     28.1629E-03    -13.9123E-03     45.9712E-03
            1101     10.6505E-03     98.6678E-03    -14.5743E+06    -32.5478E+06    -662.282E+03    -10.4338E+06    -14.8153E-03     28.7987E-03    -13.9835E-03     51.6831E-03    -14.8488E-03     28.6669E-03    -13.9185E-03     51.5371E-03
            1102     11.5381E-03     98.7147E-03    -12.7206E+06    -26.5800E+06     1.37714E+06    -11.5673E+06    -15.5203E-03     29.5428E-03    -14.0226E-03     57.1668E-03    -15.5629E-03     29.4419E-03    -13.9587E-03     57.0004E-03
            1103     12.4241E-03     98.7657E-03    -11.0967E+06    -32.7267E+06     1.42875E+06    -14.1488E+06    -16.5542E-03     30.6662E-03    -14.1120E-03     64.6842E-03    -16.5935E-03     30.5458E-03    -14.0413E-03     64.4756E-03
            1104     13.3105E-03     98.8274E-03    -8.45009E+06    -55.9803E+06    -14.5120E+06    -14.5883E+06    -17.9079E-03     32.1074E-03    -14.1994E-03     68.0571E-03    -17.8964E-03     31.9092E-03    -14.1785E-03     67.8316E-03
            1105     14.1942E-03     98.8846E-03    -6.47474E+06    -40.1146E+06    -13.8332E+06    -12.7209E+06    -19.2668E-03     33.6392E-03    -14.3724E-03     72.9212E-03    -19.3093E-03     33.5564E-03    -14.3740E-03     72.7079E-03
            1106     15.0795E-03     98.9584E-03    -5.73208E+06    -12.3982E+06    -6.67321E+06    -9.00031E+06    -21.2287E-03     35.8214E-03    -14.5927E-03     104.751E-03    -21.5103E-03     36.0579E-03    -14.5998E-03     104.593E-03
            1107     15.9628E-03     99.0753E-03    -6.51873E+06     21.0410E+06    -17.0090E+06    -6.24804E+06    -25.2508E-03     39.9832E-03    -14.7324E-03     167.240E-03    -26.9846E-03     41.8173E-03    -14.8385E-03     167.602E-03
            1108     16.8337E-03     99.2600E-03    -4.80400E+06     118.662E+06     36.8304E+06    -5.97319E+06    -29.2963E-03     44.3816E-03    -15.0854E-03     241.198E-03    -35.1664E-03     50.5493E-03    -15.0663E-03     245.138E-03
            1109     887.594E-06     99.4115E-03    -26.5706E+06    -19.3068E+06    -25.4000E+06     3.85881E+06    -13.7828E-03     27.5233E-03    -13.7405E-03     3.67790E-03    -13.8508E-03     27.5023E-03    -13.8010E-03     3.72749E-03
            1110     1.77531E-03     99.4156E-03    -26.6745E+06    -14.5108E+06    -22.4147E+06     5.84395E+06    -13.6965E-03     27.4560E-03    -13.7595E-03     6.88265E-03    -13.7764E-03     27.4546E-03    -13.8118E-03     6.95766E-03
            1111     2.66293E-03     99.4229E-03    -26.7463E+06    -12.7111E+06    -17.3404E+06     5.99424E+06    -13.6589E-03     27.4179E-03    -13.7590E-03     10.3289E-03    -13.7491E-03     27.4184E-03    -13.7885E-03     10.4056E-03
            1112     3.55076E-03     99.4326E-03    -26.3810E+06    -15.0008E+06    -11.7598E+06     5.20433E+06    -13.6027E-03     27.3667E-03    -13.7640E-03     13.9319E-03    -13.6960E-03     27.3471E-03    -13.7627E-03     13.9982E-03
            1113     4.43851E-03     99.4457E-03    -25.4264E+06    -17.3726E+06    -7.39174E+06     4.58375E+06    -13.5378E-03     27.2930E-03    -13.7552E-03     17.7097E-03    -13.6293E-03     27.2539E-03    -13.7301E-03     17.7678E-03
            1114     5.32654E-03     99.4617E-03    -24.3199E+06    -20.4612E+06    -4.68501E+06     3.70382E+06    -13.4767E-03     27.2094E-03    -13.7328E-03     21.7078E-03    -13.5622E-03     27.1496E-03    -13.6913E-03     21.7542E-03
            1115     6.21444E-03     99.4814E-03    -23.2011E+06    -22.5846E+06    -3.78099E+06     1.50233E+06    -13.4447E-03     27.1414E-03    -13.6968E-03     26.0072E-03    -13.5231E-03     27.0683E-03    -13.6493E-03     26.0248E-03
            1116     7.10270E-03     99.5047E-03    -22.1840E+06    -24.9466E+06    -3.98107E+06    -1.08586E+06    -13.4592E-03     27.1158E-03    -13.6567E-03     30.6697E-03    -13.5292E-03     27.0300E-03    -13.6082E-03     30.6534E-03
            1117     7.99063E-03     99.5322E-03    -20.9715E+06    -27.9734E+06    -3.79602E+06    -3.68518E+06    -13.5432E-03     27.1675E-03    -13.6243E-03     35.6932E-03    -13.6036E-03     27.0651E-03    -13.5723E-03     35.6424E-03
            1118     8.87899E-03     99.5642E-03    -19.3705E+06    -29.1230E+06    -2.47974E+06    -6.72723E+06    -13.7348E-03     27.3396E-03    -13.6048E-03     41.0874E-03    -13.7885E-03     27.2283E-03    -13.5469E-03     40.9959E-03
            1119     9.76667E-03     99.6009E-03    -18.3607E+06    -28.0264E+06    -1.40546E+06    -9.48477E+06    -14.0866E-03     27.6866E-03    -13.6000E-03     46.8236E-03    -14.1406E-03     27.5799E-03    -13.5398E-03     46.6942E-03
            1120     10.6547E-03     99.6431E-03    -17.1083E+06    -30.2910E+06    -1.01516E+06    -11.4798E+06    -14.6678E-03     28.2923E-03    -13.6244E-03     52.6506E-03    -14.7165E-03     28.1756E-03    -13.5608E-03     52.4916E-03
            1121     11.5417E-03     99.6900E-03    -14.4417E+06    -23.9599E+06     1.26791E+06    -13.0070E+06    -15.5356E-03     29.2196E-03    -13.6840E-03     58.5029E-03    -15.5904E-03     29.1344E-03    -13.6220E-03     58.3183E-03
            1122     12.4284E-03     99.7434E-03    -12.1871E+06    -28.2868E+06     2.16257E+06    -14.9237E+06    -16.8070E-03     30.6122E-03    -13.8052E-03     66.2458E-03    -16.8596E-03     30.5149E-03    -13.7357E-03     66.0269E-03
            1123     13.3135E-03     99.8042E-03    -11.5352E+06    -55.9258E+06    -15.6229E+06    -16.7393E+06    -18.4697E-03     32.4062E-03    -13.9364E-03     70.3629E-03    -18.4742E-03     32.2165E-03    -13.9167E-03     70.1082E-03
            1124     14.1974E-03     99.8667E-03    -8.77999E+06    -40.8088E+06    -14.8453E+06    -16.5247E+06    -19.8842E-03     34.0431E-03    -14.1589E-03     75.1452E-03    -19.9401E-03     33.9661E-03    -14.1612E-03     74.8797E-03
            1125     15.0794E-03     99.9361E-03    -3.66173E+06    -17.4918E+06    -6.56376E+06    -13.4143E+06    -20.7917E-03     35.1941E-03    -14.4024E-03     104.301E-03    -21.0462E-03     35.3925E-03    -14.4045E-03     104.084E-03
            1126     15.9656E-03     100.055E-03     898.773E+03     16.5907E+06    -15.8522E+06    -7.95253E+06    -23.9196E-03     38.4204E-03    -14.5007E-03     166.813E-03    -25.5752E-03     40.1831E-03    -14.6053E-03     167.152E-03
            1127     16.8617E-03     100.247E-03    -1.56150E+06     118.760E+06     43.1100E+06    -3.30281E+06    -31.5082E-03     46.4230E-03    -14.9148E-03     239.502E-03    -37.2797E-03     52.4857E-03    -14.8692E-03     243.212E-03
            1128     887.988E-06     100.385E-03    -29.6448E+06    -27.8513E+06    -28.5810E+06     4.85306E+06    -13.2905E-03     26.6146E-03    -13.3241E-03     3.69679E-03    -13.3569E-03     26.5598E-03    -13.3836E-03     3.75927E-03
            1129     1.77605E-03     100.390E-03    -29.5983E+06    -20.8223E+06    -25.5082E+06     8.15012E+06    -13.2392E-03     26.5407E-03    -13.3015E-03     6.97215E-03    -13.3201E-03     26.5166E-03    -13.3559E-03     7.07700E-03
            1130     2.66424E-03     100.397E-03    -29.6185E+06    -15.0449E+06    -20.2630E+06     9.33167E+06    -13.1806E-03     26.4742E-03    -13.2937E-03     10.4105E-03    -13.2775E-03     26.4714E-03    -13.3302E-03     10.5304E-03
            1131     3.55235E-03     100.407E-03    -29.2850E+06    -15.7604E+06    -14.1103E+06     8.53103E+06    -13.1419E-03     26.4398E-03    -13.2979E-03     14.0401E-03    -13.2452E-03     26.4241E-03    -13.3032E-03     14.1495E-03
            1132     4.44062E-03     100.420E-03    -28.4342E+06    -17.8329E+06    -8.93091E+06     7.42102E+06    -13.0972E-03     26.3938E-03    -13.2966E-03     17.8357E-03    -13.2008E-03     26.3591E-03    -13.2742E-03     17.9306E-03
            1133     5.32885E-03     100.436E-03    -26.7620E+06    -19.2679E+06    -5.62946E+06     5.60939E+06    -13.0531E-03     26.3329E-03    -13.2798E-03     21.8698E-03    -13.1512E-03     26.2839E-03    -13.2412E-03     21.9410E-03
            1134     6.21734E-03     100.455E-03    -24.8477E+06    -19.8372E+06    -3.92514E+06     3.05840E+06    -13.0342E-03     26.2848E-03    -13.2506E-03     26.2079E-03    -13.1245E-03     26.2278E-03    -13.2054E-03     26.2459E-03
            1135     7.10566E-03     100.478E-03    -23.2529E+06    -21.9971E+06    -3.77761E+06     183.816E+03    -13.0735E-03     26.2913E-03    -13.2178E-03     30.9241E-03    -13.1533E-03     26.2214E-03    -13.1711E-03     30.9245E-03
            1136     7.99427E-03     100.506E-03    -21.5692E+06    -23.6751E+06    -3.52003E+06    -3.43463E+06    -13.1927E-03     26.3841E-03    -13.1914E-03     36.0603E-03    -13.2626E-03     26.3035E-03    -13.1434E-03     36.0131E-03
            1137     8.88250E-03     100.538E-03    -19.6006E+06    -25.1508E+06    -1.93219E+06    -6.87574E+06    -13.4434E-03     26.6274E-03    -13.1840E-03     41.6280E-03    -13.5047E-03     26.5354E-03    -13.1288E-03     41.5352E-03
            1138     9.77094E-03     100.575E-03    -17.8385E+06    -25.1169E+06    -60.8402E+03    -8.81600E+06    -13.8671E-03     27.0647E-03    -13.1976E-03     47.5492E-03    -13.9243E-03     26.9696E-03    -13.1356E-03     47.4291E-03
            1139     10.6586E-03     100.617E-03    -16.6083E+06    -26.0995E+06     534.979E+03    -11.5206E+06    -14.5623E-03     27.8021E-03    -13.2398E-03     53.6917E-03    -14.6166E-03     27.7032E-03    -13.1752E-03     53.5328E-03
            1140     11.5460E-03     100.666E-03    -15.2592E+06    -20.9836E+06     1.14574E+06    -14.5210E+06    -15.5387E-03     28.8569E-03    -13.3182E-03     59.9412E-03    -15.6016E-03     28.7878E-03    -13.2599E-03     59.7376E-03
            1141     12.4324E-03     100.719E-03    -13.4491E+06    -26.0135E+06     1.89595E+06    -15.3356E+06    -16.9879E-03     30.4573E-03    -13.4693E-03     68.1564E-03    -17.0501E-03     30.3739E-03    -13.4026E-03     67.9322E-03
            1142     13.3175E-03     100.784E-03    -12.3915E+06    -52.2050E+06    -14.1983E+06    -17.3221E+06    -18.6970E-03     32.3348E-03    -13.6378E-03     72.8463E-03    -18.7143E-03     32.1639E-03    -13.6151E-03     72.5838E-03
            1143     14.2016E-03     100.845E-03    -10.9255E+06    -40.0927E+06    -15.8562E+06    -19.2521E+06    -20.2230E-03     34.1087E-03    -13.8857E-03     77.7040E-03    -20.2902E-03     34.0408E-03    -13.8910E-03     77.4026E-03
            1144     15.0849E-03     100.919E-03    -7.64255E+06    -19.4482E+06    -9.12875E+06    -18.0764E+06    -22.4939E-03     36.6949E-03    -14.2010E-03     104.399E-03    -22.7701E-03     36.9015E-03    -14.2073E-03     104.110E-03
            1145     15.9673E-03     101.031E-03    -5.57839E+06     8.79148E+06    -20.7010E+06    -12.9730E+06    -27.4765E-03     41.9378E-03    -14.4613E-03     164.313E-03    -29.1628E-03     43.6952E-03    -14.5694E-03     164.486E-03
            1146     16.8381E-03     101.228E-03    -4.51438E+06     110.403E+06     37.1495E+06    -3.68664E+06    -31.5139E-03     46.4898E-03    -14.9760E-03     236.071E-03    -37.1591E-03     52.4033E-03    -14.9438E-03     239.756E-03
            1147     888.575E-06     101.359E-03    -33.8938E+06    -37.5632E+06    -33.2892E+06     4.90577E+06    -12.7438E-03     25.5485E-03    -12.8047E-03     3.77908E-03    -12.8105E-03     25.4582E-03    -12.8675E-03     3.84226E-03
            1148     1.77703E-03     101.363E-03    -32.5869E+06    -29.8707E+06    -29.0577E+06     9.38340E+06    -12.7466E-03     25.5235E-03    -12.7770E-03     7.01423E-03    -12.8241E-03     25.4636E-03    -12.8317E-03     7.13507E-03
            1149     2.66557E-03     101.370E-03    -31.7365E+06    -19.7286E+06    -22.7932E+06     12.3444E+06    -12.6777E-03     25.4533E-03    -12.7757E-03     10.4765E-03    -12.7747E-03     25.4338E-03    -12.8150E-03     10.6354E-03
            1150     3.55422E-03     101.380E-03    -31.0445E+06    -16.7122E+06    -15.9375E+06     11.7924E+06    -12.6407E-03     25.4220E-03    -12.7813E-03     14.1203E-03    -12.7487E-03     25.4066E-03    -12.7918E-03     14.2719E-03
            1151     4.44284E-03     101.393E-03    -29.1462E+06    -17.9265E+06    -9.78165E+06     9.59056E+06    -12.6261E-03     25.4137E-03    -12.7875E-03     17.9596E-03    -12.7319E-03     25.3806E-03    -12.7682E-03     18.0826E-03
            1152     5.33159E-03     101.409E-03    -26.8583E+06    -17.7146E+06    -5.60738E+06     7.23997E+06    -12.6226E-03     25.4037E-03    -12.7811E-03     22.0271E-03    -12.7234E-03     25.3625E-03    -12.7445E-03     22.1195E-03
            1153     6.22027E-03     101.428E-03    -24.9539E+06    -17.2749E+06    -3.57252E+06     4.40974E+06    -12.6366E-03     25.4007E-03    -12.7641E-03     26.3972E-03    -12.7316E-03     25.3562E-03    -12.7208E-03     26.4528E-03
            1154     7.10915E-03     101.451E-03    -22.8694E+06    -18.1874E+06    -3.06444E+06     810.045E+03    -12.6982E-03     25.4414E-03    -12.7432E-03     31.1624E-03    -12.7825E-03     25.3889E-03    -12.6990E-03     31.1711E-03
            1155     7.99784E-03     101.479E-03    -20.7396E+06    -18.7398E+06    -2.40218E+06    -3.29612E+06    -12.8543E-03     25.5836E-03    -12.7293E-03     36.4119E-03    -12.9287E-03     25.5248E-03    -12.6841E-03     36.3669E-03
            1156     8.88665E-03     101.511E-03    -18.9713E+06    -21.2196E+06    -711.926E+03    -6.90868E+06    -13.1624E-03     25.9012E-03    -12.7388E-03     42.1329E-03    -13.2278E-03     25.8260E-03    -12.6840E-03     42.0400E-03
            1157     9.77498E-03     101.548E-03    -16.7235E+06    -22.6041E+06     984.096E+03    -9.33787E+06    -13.6621E-03     26.4321E-03    -12.7701E-03     48.2799E-03    -13.7186E-03     26.3462E-03    -12.7081E-03     48.1535E-03
            1158     10.6631E-03     101.592E-03    -13.8959E+06    -20.9392E+06     2.69329E+06    -11.9567E+06    -14.4255E-03     27.2564E-03    -12.8309E-03     54.8241E-03    -14.4765E-03     27.1760E-03    -12.7669E-03     54.6602E-03
            1159     11.5505E-03     101.641E-03    -12.3231E+06    -18.0165E+06     3.58239E+06    -14.1111E+06    -15.5477E-03     28.4841E-03    -12.9364E-03     61.5045E-03    -15.6035E-03     28.4218E-03    -12.8745E-03     61.3068E-03
            1160     12.4369E-03     101.696E-03    -11.6394E+06    -23.9655E+06     3.79741E+06    -15.7430E+06    -17.0674E-03     30.1814E-03    -13.1140E-03     70.1723E-03    -17.1263E-03     30.1029E-03    -13.0433E-03     69.9434E-03
            1161     13.3223E-03     101.761E-03    -9.75997E+06    -46.5532E+06    -10.0658E+06    -18.8760E+06    -18.9477E-03     32.2644E-03    -13.3167E-03     75.0748E-03    -18.9663E-03     32.1123E-03    -13.2854E-03     74.7922E-03
            1162     14.2057E-03     101.826E-03    -8.24251E+06    -38.3322E+06    -12.8000E+06    -21.1035E+06    -20.8053E-03     34.4116E-03    -13.6063E-03     79.2086E-03    -20.8663E-03     34.3445E-03    -13.6027E-03     78.8818E-03
            1163     15.0881E-03     101.900E-03    -7.68447E+06    -22.0973E+06    -8.49864E+06    -20.0499E+06    -24.6358E-03     38.6446E-03    -14.0088E-03     106.780E-03    -24.9240E-03     38.8519E-03    -14.0081E-03     106.448E-03
            1164     15.9645E-03     102.019E-03    -7.67171E+06    -846.455E+03    -22.6963E+06    -13.5058E+06    -30.8593E-03     45.2703E-03    -14.4110E-03     171.012E-03    -32.6080E-03     47.0547E-03    -14.5122E-03     171.110E-03
            1165     16.8450E-03     102.219E-03    -5.06112E+06     101.604E+06     35.6554E+06    -5.06112E+06    -31.8598E-03     46.8597E-03    -14.9999E-03     239.934E-03    -37.4720E-03     52.7113E-03    -14.9616E-03     243.643E-03
            1166     888.966E-06     102.331E-03    -41.8657E+06    -45.9994E+06    -41.3889E+06     3.61675E+06    -12.1815E-03     24.4069E-03    -12.2254E-03     3.87292E-03    -12.2640E-03     24.2977E-03    -12.3050E-03     3.91948E-03
            1167     1.77804E-03     102.335E-03    -38.0982E+06    -39.5888E+06    -35.8046E+06     7.45039E+06    -12.1951E-03     24.4073E-03    -12.2121E-03     7.03612E-03    -12.2763E-03     24.3165E-03    -12.2785E-03     7.13207E-03
            1168     2.66708E-03     102.342E-03    -33.2404E+06    -27.6002E+06    -27.0219E+06     12.1588E+06    -12.1480E-03     24.3660E-03    -12.2180E-03     10.5258E-03    -12.2350E-03     24.3154E-03    -12.2649E-03     10.6824E-03
            1169     3.55617E-03     102.352E-03    -29.7583E+06    -18.4695E+06    -17.3085E+06     13.7400E+06    -12.1188E-03     24.3472E-03    -12.2284E-03     14.1893E-03    -12.2158E-03     24.3232E-03    -12.2450E-03     14.3661E-03
            1170     4.44531E-03     102.365E-03    -27.8404E+06    -17.1281E+06    -9.97176E+06     11.3375E+06    -12.1410E-03     24.3843E-03    -12.2434E-03     18.0590E-03    -12.2410E-03     24.3537E-03    -12.2280E-03     18.2047E-03
            1171     5.33441E-03     102.381E-03    -25.3490E+06    -16.2307E+06    -5.12823E+06     8.21350E+06    -12.1862E-03     24.4371E-03    -12.2509E-03     22.1454E-03    -12.2822E-03     24.4004E-03    -12.2163E-03     22.2505E-03
            1172     6.22358E-03     102.400E-03    -22.3031E+06    -14.5205E+06    -2.02428E+06     5.14978E+06    -12.2465E-03     24.4978E-03    -12.2512E-03     26.5348E-03    -12.3345E-03     24.4609E-03    -12.2079E-03     26.6002E-03
            1173     7.11263E-03     102.423E-03    -19.9518E+06    -13.7107E+06    -722.331E+03     1.26483E+06    -12.3516E-03     24.6000E-03    -12.2484E-03     31.3542E-03    -12.4311E-03     24.5621E-03    -12.2032E-03     31.3690E-03
            1174     8.00178E-03     102.451E-03    -18.2006E+06    -13.8695E+06     57.3722E+03    -2.98780E+06    -12.5453E-03     24.7982E-03    -12.2529E-03     36.7000E-03    -12.6174E-03     24.7563E-03    -12.2061E-03     36.6592E-03
            1175     8.89068E-03     102.483E-03    -16.8416E+06    -17.4013E+06     895.873E+03    -6.29029E+06    -12.8929E-03     25.1710E-03    -12.2781E-03     42.5920E-03    -12.9553E-03     25.1092E-03    -12.2240E-03     42.5076E-03
            1176     9.77940E-03     102.521E-03    -15.4024E+06    -17.9887E+06     2.29292E+06    -10.1060E+06    -13.4175E-03     25.7426E-03    -12.3251E-03     49.0214E-03    -13.4757E-03     25.6756E-03    -12.2653E-03     48.8857E-03
            1177     10.6677E-03     102.565E-03    -13.3643E+06    -17.3235E+06     4.04406E+06    -13.1405E+06    -14.2374E-03     26.6431E-03    -12.4058E-03     55.9990E-03    -14.2925E-03     26.5776E-03    -12.3411E-03     55.8206E-03
            1178     11.5552E-03     102.616E-03    -11.4496E+06    -16.2987E+06     5.48509E+06    -13.7607E+06    -15.4414E-03     27.9760E-03    -12.5346E-03     63.2041E-03    -15.4975E-03     27.9177E-03    -12.4669E-03     63.0118E-03
            1179     12.4417E-03     102.672E-03    -9.21753E+06    -18.4637E+06     7.11269E+06    -16.5548E+06    -17.1732E-03     29.9089E-03    -12.7356E-03     72.3516E-03    -17.2326E-03     29.8494E-03    -12.6599E-03     72.1127E-03
            1180     13.3267E-03     102.739E-03    -7.46173E+06    -41.9623E+06    -6.39823E+06    -20.4742E+06    -19.3327E-03     32.3098E-03    -12.9771E-03     77.7728E-03    -19.3521E-03     32.1724E-03    -12.9374E-03     77.4693E-03
            1181     14.2098E-03     102.806E-03    -6.82227E+06    -36.3048E+06    -9.94218E+06    -22.0196E+06    -21.6685E-03     34.9892E-03    -13.3206E-03     82.2740E-03    -21.7321E-03     34.9286E-03    -13.3078E-03     81.9319E-03
            1182     15.0905E-03     102.883E-03    -5.81094E+06    -24.5444E+06    -6.84645E+06    -20.8401E+06    -25.6176E-03     39.3988E-03    -13.7812E-03     112.184E-03    -25.9129E-03     39.6063E-03    -13.7714E-03     111.832E-03
            1183     15.9710E-03     103.008E-03    -5.56335E+06    -10.4145E+06    -23.5984E+06    -14.6198E+06    -30.2668E-03     44.4569E-03    -14.1901E-03     174.178E-03    -31.9433E-03     46.1452E-03    -14.2849E-03     174.286E-03
            1184     16.8496E-03     103.202E-03    -4.01090E+06     94.4536E+06     35.5228E+06    -5.93490E+06    -33.0828E-03     47.8906E-03    -14.8078E-03     236.598E-03    -38.4720E-03     53.4979E-03    -14.7613E-03     239.994E-03
            1185     889.552E-06     103.302E-03    -54.4929E+06    -50.2607E+06    -54.6581E+06     679.663E+03    -11.6424E-03     23.2482E-03    -11.6058E-03     3.91493E-03    -11.7627E-03     23.1553E-03    -11.7272E-03     3.92360E-03
            1186     1.77899E-03     103.306E-03    -48.9277E+06    -45.4285E+06    -47.9427E+06     1.79043E+06    -11.6137E-03     23.2470E-03    -11.6333E-03     7.06518E-03    -11.7230E-03     23.1604E-03    -11.7362E-03     7.08813E-03
            1187     2.66857E-03     103.313E-03    -39.9106E+06    -36.1435E+06    -37.3695E+06     5.27333E+06    -11.5987E-03     23.2424E-03    -11.6436E-03     10.5318E-03    -11.6917E-03     23.1737E-03    -11.7202E-03     10.5996E-03
            1188     3.55820E-03     103.323E-03    -30.4147E+06    -23.8662E+06    -24.1124E+06     10.2769E+06    -11.5925E-03     23.2517E-03    -11.6592E-03     14.1526E-03    -11.6750E-03     23.2115E-03    -11.7011E-03     14.2848E-03
            1189     4.44780E-03     103.336E-03    -24.5030E+06    -17.0983E+06    -12.2019E+06     11.8797E+06    -11.6411E-03     23.3271E-03    -11.6860E-03     18.0271E-03    -11.7212E-03     23.2949E-03    -11.6867E-03     18.1799E-03
            1190     5.33732E-03     103.352E-03    -22.0764E+06    -14.0673E+06    -4.35335E+06     9.11822E+06    -11.7364E-03     23.4501E-03    -11.7137E-03     22.1641E-03    -11.8203E-03     23.4183E-03    -11.6830E-03     22.2810E-03
            1191     6.22682E-03     103.371E-03    -19.7793E+06    -11.4053E+06    -203.979E+03     5.11077E+06    -11.8548E-03     23.5882E-03    -11.7334E-03     26.5812E-03    -11.9372E-03     23.5605E-03    -11.6892E-03     26.6462E-03
            1192     7.11631E-03     103.395E-03    -16.7680E+06    -9.43659E+06     2.10184E+06     1.28026E+06    -12.0135E-03     23.7649E-03    -11.7513E-03     31.4450E-03    -12.0874E-03     23.7396E-03    -11.7028E-03     31.4602E-03
            1193     8.00563E-03     103.422E-03    -14.8609E+06    -9.71632E+06     2.90541E+06    -2.06600E+06    -12.2530E-03     24.0285E-03    -11.7755E-03     36.8808E-03    -12.3185E-03     23.9984E-03    -11.7253E-03     36.8522E-03
            1194     8.89485E-03     103.455E-03    -13.3388E+06    -12.6604E+06     3.44089E+06    -6.06163E+06    -12.6090E-03     24.4252E-03    -11.8162E-03     42.9457E-03    -12.6643E-03     24.3782E-03    -11.7613E-03     42.8646E-03
            1195     9.78383E-03     103.493E-03    -11.4870E+06    -12.5680E+06     5.48998E+06    -10.0270E+06    -13.1483E-03     25.0284E-03    -11.8801E-03     49.6354E-03    -13.1990E-03     24.9778E-03    -11.8178E-03     49.5013E-03
            1196     10.6723E-03     103.538E-03    -11.0301E+06    -14.6604E+06     6.44511E+06    -12.3682E+06    -13.9876E-03     25.9639E-03    -11.9763E-03     57.0426E-03    -14.0378E-03     25.9042E-03    -11.9069E-03     56.8751E-03
            1197     11.5602E-03     103.589E-03    -10.2446E+06    -13.8608E+06     6.94330E+06    -14.2792E+06    -15.2172E-03     27.3313E-03    -12.1141E-03     64.8406E-03    -15.2721E-03     27.2806E-03    -12.0445E-03     64.6428E-03
            1198     12.4469E-03     103.648E-03    -8.11851E+06    -11.6919E+06     9.42987E+06    -17.7512E+06    -17.1291E-03     29.4577E-03    -12.3286E-03     74.9319E-03    -17.1955E-03     29.4265E-03    -12.2527E-03     74.6786E-03
            1199     13.3318E-03     103.717E-03    -6.72833E+06    -38.0354E+06    -3.25465E+06    -21.2289E+06    -19.4972E-03     32.0999E-03    -12.6027E-03     81.0321E-03    -19.5228E-03     31.9761E-03    -12.5541E-03     80.7194E-03
            1200     14.2149E-03     103.787E-03    -6.50578E+06    -34.7306E+06    -7.90560E+06    -21.9905E+06    -22.2106E-03     35.1915E-03    -12.9809E-03     86.5054E-03    -22.2807E-03     35.1383E-03    -12.9607E-03     86.1616E-03
            1201     15.0959E-03     103.867E-03    -6.67984E+06    -25.4108E+06    -6.38174E+06    -21.8860E+06    -26.4715E-03     39.9598E-03    -13.4883E-03     116.246E-03    -26.7797E-03     40.1729E-03    -13.4737E-03     115.873E-03
            1202     15.9736E-03     103.994E-03    -5.90381E+06    -20.2136E+06    -26.0352E+06    -16.5393E+06    -31.2425E-03     45.1978E-03    -13.9553E-03     173.770E-03    -32.8118E-03     46.7500E-03    -14.0476E-03     173.799E-03
            1203     16.8527E-03     104.188E-03    -3.89262E+06     85.5648E+06     32.6780E+06    -6.67863E+06    -34.8952E-03     49.5469E-03    -14.6517E-03     235.810E-03    -40.1788E-03     55.0257E-03    -14.6067E-03     238.966E-03
            1204     889.879E-06     104.272E-03    -67.5120E+06    -48.2455E+06    -67.9034E+06    -2.74869E+06    -11.1006E-03     22.1614E-03    -11.0607E-03     3.82788E-03    -11.2697E-03     22.1166E-03    -11.2324E-03     3.79233E-03
            1205     1.77994E-03     104.276E-03    -63.5054E+06    -44.6072E+06    -63.0453E+06    -4.57304E+06    -11.0625E-03     22.1455E-03    -11.0830E-03     7.02557E-03    -11.2240E-03     22.1060E-03    -11.2415E-03     6.96642E-03
            1206     2.66991E-03     104.283E-03    -56.3195E+06    -39.7119E+06    -54.5059E+06    -4.63555E+06    -11.0747E-03     22.1694E-03    -11.0947E-03     10.4713E-03    -11.2197E-03     22.1315E-03    -11.2279E-03     10.4112E-03
            1207     3.55992E-03     104.293E-03    -44.4753E+06    -30.7722E+06    -41.4060E+06    -1.16714E+06    -11.0889E-03     22.2058E-03    -11.1168E-03     14.0347E-03    -11.2067E-03     22.1765E-03    -11.2148E-03     14.0193E-03
            1208     4.45002E-03     104.306E-03    -30.2301E+06    -21.0795E+06    -24.9409E+06     4.05864E+06    -11.1376E-03     22.2889E-03    -11.1513E-03     17.8121E-03    -11.2221E-03     22.2636E-03    -11.2016E-03     17.8640E-03
            1209     5.34011E-03     104.322E-03    -19.5460E+06    -13.6542E+06    -9.43775E+06     6.79714E+06    -11.2497E-03     22.4461E-03    -11.1963E-03     21.9089E-03    -11.3142E-03     22.4200E-03    -11.1954E-03     21.9960E-03
            1210     6.22999E-03     104.342E-03    -15.1402E+06    -8.40543E+06     771.468E+03     5.45305E+06    -11.4332E-03     22.6748E-03    -11.2416E-03     26.3954E-03    -11.4982E-03     22.6540E-03    -11.2036E-03     26.4649E-03
            1211     7.11974E-03     104.365E-03    -14.1911E+06    -5.62916E+06     4.73250E+06     2.05387E+06    -11.6658E-03     22.9466E-03    -11.2808E-03     31.3263E-03    -11.7361E-03     22.9328E-03    -11.2284E-03     31.3516E-03
            1212     8.00941E-03     104.393E-03    -12.5113E+06    -5.63520E+06     5.73604E+06    -1.85476E+06    -11.9429E-03     23.2647E-03    -11.3218E-03     36.8379E-03    -12.0066E-03     23.2473E-03    -11.2668E-03     36.8123E-03
            1213     8.89889E-03     104.426E-03    -10.1470E+06    -6.76410E+06     6.75496E+06    -6.28514E+06    -12.3068E-03     23.6827E-03    -11.3759E-03     43.0386E-03    -12.3592E-03     23.6555E-03    -11.3176E-03     42.9550E-03
            1214     9.78808E-03     104.465E-03    -9.08888E+06    -9.21675E+06     8.06104E+06    -9.26956E+06    -12.8422E-03     24.2950E-03    -11.4528E-03     49.9957E-03    -12.8892E-03     24.2536E-03    -11.3860E-03     49.8721E-03
            1215     10.6770E-03     104.510E-03    -7.96023E+06    -11.1108E+06     9.25649E+06    -11.3188E+06    -13.6542E-03     25.2108E-03    -11.5565E-03     57.7879E-03    -13.6975E-03     25.1595E-03    -11.4826E-03     57.6350E-03
            1216     11.5650E-03     104.563E-03    -6.67177E+06    -9.89187E+06     10.1218E+06    -14.1762E+06    -14.8967E-03     26.5957E-03    -11.6990E-03     66.2537E-03    -14.9430E-03     26.5538E-03    -11.6244E-03     66.0587E-03
            1217     12.4522E-03     104.623E-03    -7.12903E+06    -6.72305E+06     11.6607E+06    -16.6116E+06    -16.8091E-03     28.7221E-03    -11.9130E-03     77.2805E-03    -16.8792E-03     28.7092E-03    -11.8346E-03     77.0439E-03
            1218     13.3377E-03     104.695E-03    -8.71588E+06    -32.0777E+06     -10.107E+03    -20.4760E+06    -19.4029E-03     31.6053E-03    -12.2023E-03     84.0307E-03    -19.4500E-03     31.5076E-03    -12.1432E-03     83.7294E-03
            1219     14.2208E-03     104.767E-03    -8.27652E+06    -33.1767E+06    -6.25017E+06    -23.4093E+06    -22.8283E-03     35.4396E-03    -12.6113E-03     90.4560E-03    -22.9131E-03     35.3956E-03    -12.5825E-03     90.0918E-03
            1220     15.1006E-03     104.852E-03    -6.35014E+06    -24.8988E+06    -4.62895E+06    -22.8598E+06    -27.9056E-03     41.0932E-03    -13.1876E-03     119.964E-03    -28.2174E-03     41.3078E-03    -13.1655E-03     119.565E-03
            1221     15.9775E-03     104.982E-03    -6.36214E+06    -29.1916E+06    -26.1092E+06    -17.9664E+06    -33.0526E-03     46.8088E-03    -13.7562E-03     174.602E-03    -34.5244E-03     48.2302E-03    -13.8352E-03     174.524E-03
            1222     16.8530E-03     105.174E-03    -4.93042E+06     73.6242E+06     29.2076E+06    -8.15868E+06    -36.5149E-03     51.0448E-03    -14.5299E-03     237.154E-03    -41.7085E-03     56.3976E-03    -14.4834E-03     240.067E-03
            1223     890.362E-06     105.241E-03    -65.0234E+06    -41.2395E+06    -64.9968E+06    -4.34286E+06    -10.6458E-03     21.3337E-03    -10.6879E-03     3.70191E-03    -10.8168E-03     21.3161E-03    -10.8588E-03     3.64577E-03
            1224     1.78064E-03     105.245E-03    -64.1444E+06    -38.6665E+06    -62.8728E+06    -7.68451E+06    -10.6616E-03     21.3295E-03    -10.6680E-03     6.88224E-03    -10.8351E-03     21.3204E-03    -10.8333E-03     6.78289E-03
            1225     2.67102E-03     105.252E-03    -61.5214E+06    -36.2337E+06    -58.1328E+06    -10.5093E+06    -10.6890E-03     21.3712E-03    -10.6822E-03     10.2497E-03    -10.8599E-03     21.3636E-03    -10.8311E-03     10.1138E-03
            1226     3.56136E-03     105.262E-03    -56.2642E+06    -32.0859E+06    -51.1615E+06    -11.6632E+06    -10.7169E-03     21.4206E-03    -10.7037E-03     13.7521E-03    -10.8776E-03     21.4160E-03    -10.8314E-03     13.6012E-03
            1227     4.45168E-03     105.275E-03    -46.6456E+06    -25.6575E+06    -41.9831E+06    -9.45475E+06    -10.7414E-03     21.4648E-03    -10.7234E-03     17.4183E-03    -10.8768E-03     21.4652E-03    -10.8284E-03     17.2958E-03
            1228     5.34206E-03     105.291E-03    -32.7159E+06    -17.2682E+06    -28.5771E+06    -4.76643E+06    -10.8014E-03     21.5533E-03    -10.7520E-03     21.3624E-03    -10.8987E-03     21.5561E-03    -10.8224E-03     21.3003E-03
            1229     6.23259E-03     105.311E-03    -19.1409E+06    -9.57770E+06    -11.0951E+06     16.9492E+03    -10.9667E-03     21.7750E-03    -10.8083E-03     25.7504E-03    -11.0328E-03     21.7713E-03    -10.8221E-03     25.7498E-03
            1230     7.12276E-03     105.335E-03    -11.0848E+06    -3.46586E+06     3.39728E+06     1.66065E+06    -11.2455E-03     22.1226E-03    -10.8771E-03     30.7116E-03    -11.3014E-03     22.1170E-03    -10.8390E-03     30.7319E-03
            1231     8.01268E-03     105.363E-03    -8.59996E+06    -423.056E+03     9.30719E+06    -1.38909E+06    -11.5889E-03     22.5256E-03    -10.9366E-03     36.3302E-03    -11.6457E-03     22.5233E-03    -10.8770E-03     36.3107E-03
            1232     8.90242E-03     105.396E-03    -8.10455E+06    -1.73018E+06     10.1302E+06    -5.61444E+06    -11.9773E-03     22.9751E-03    -10.9979E-03     42.6398E-03    -12.0315E-03     22.9650E-03    -10.9330E-03     42.5652E-03
            1233     9.79202E-03     105.436E-03    -6.98094E+06    -6.26374E+06     10.6550E+06    -8.50648E+06    -12.4898E-03     23.5679E-03    -11.0781E-03     49.8139E-03    -12.5338E-03     23.5340E-03    -11.0057E-03     49.7008E-03
            1234     10.6811E-03     105.482E-03    -5.58991E+06    -6.92194E+06     11.8486E+06    -11.2811E+06    -13.2442E-03     24.4234E-03    -11.1792E-03     58.0029E-03    -13.2846E-03     24.3850E-03    -11.1018E-03     57.8516E-03
            1235     11.5698E-03     105.535E-03    -4.75998E+06    -6.50948E+06     13.3518E+06    -13.2714E+06    -14.4847E-03     25.8073E-03    -11.3225E-03     67.1375E-03    -14.5294E-03     25.7732E-03    -11.2394E-03     66.9558E-03
            1236     12.4572E-03     105.597E-03    -5.09275E+06     -4.5024E+06     14.6254E+06    -13.5447E+06    -16.4466E-03     27.9792E-03    -11.5326E-03     78.8369E-03    -16.5114E-03     27.9676E-03    -11.4456E-03     78.6422E-03
            1237     13.3432E-03     105.672E-03    -6.23402E+06    -22.6202E+06     6.47587E+06    -17.7942E+06    -19.3029E-03     31.1355E-03    -11.8326E-03     86.6047E-03    -19.3575E-03     31.0690E-03    -11.7584E-03     86.3402E-03
            1238     14.2260E-03     105.748E-03    -7.60629E+06    -28.6802E+06    -2.13544E+06    -24.1328E+06    -23.4168E-03     35.6852E-03    -12.2683E-03     94.6452E-03    -23.5098E-03     35.6557E-03    -12.2264E-03     94.2702E-03
            1239     15.1050E-03     105.838E-03    -7.91653E+06    -26.5069E+06    -2.55230E+06    -24.3446E+06    -28.8465E-03     41.7442E-03    -12.8977E-03     124.466E-03    -29.1600E-03     41.9432E-03    -12.8605E-03     124.038E-03
            1240     15.9806E-03     105.971E-03    -6.99236E+06    -36.6375E+06    -22.0205E+06    -18.9068E+06    -34.5173E-03     48.0675E-03    -13.5502E-03     177.032E-03    -35.8983E-03     49.3576E-03    -13.5970E-03     176.851E-03
            1241     16.8569E-03     106.162E-03    -4.94720E+06     60.7302E+06     28.1038E+06    -9.71739E+06    -38.5086E-03     52.8994E-03    -14.3908E-03     238.426E-03    -43.5279E-03     58.0353E-03    -14.3311E-03     240.998E-03
            1242     890.563E-06     106.209E-03    -48.2539E+06    -32.8589E+06    -47.5934E+06    -4.34447E+06    -10.4203E-03     20.8957E-03    -10.4754E-03     3.49838E-03    -10.5448E-03     20.8705E-03    -10.5958E-03     3.44218E-03
            1243     1.78121E-03     106.214E-03    -47.8415E+06    -30.7993E+06    -45.6917E+06    -7.67147E+06    -10.4794E-03     20.9392E-03    -10.4597E-03     6.55429E-03    -10.6078E-03     20.9208E-03    -10.5741E-03     6.45503E-03
            1244     2.67172E-03     106.221E-03    -47.5946E+06    -29.1668E+06    -43.3988E+06    -11.0387E+06    -10.5226E-03     21.0040E-03    -10.4814E-03     9.77230E-03    -10.6554E-03     20.9901E-03    -10.5871E-03     9.62945E-03
            1245     3.56223E-03     106.231E-03    -47.1783E+06    -27.1203E+06    -41.1348E+06    -14.0387E+06    -10.5673E-03     21.0712E-03    -10.5039E-03     13.1276E-03    -10.7043E-03     21.0637E-03    -10.6018E-03     12.9459E-03
            1246     4.45272E-03     106.244E-03    -45.4859E+06    -24.3116E+06    -38.3760E+06    -16.1913E+06    -10.6020E-03     21.1260E-03    -10.5240E-03     16.6542E-03    -10.7388E-03     21.1263E-03    -10.6147E-03     16.4446E-03
            1247     5.34327E-03     106.260E-03    -40.9035E+06    -19.6235E+06    -34.0978E+06    -15.8547E+06    -10.6277E-03     21.1674E-03    -10.5396E-03     20.4421E-03    -10.7547E-03     21.1783E-03    -10.6224E-03     20.2366E-03
            1248     6.23371E-03     106.280E-03    -31.5158E+06    -14.0528E+06    -25.2231E+06    -12.2238E+06    -10.6736E-03     21.2380E-03    -10.5643E-03     24.6173E-03    -10.7747E-03     21.2504E-03    -10.6244E-03     24.4586E-03
            1249     7.12445E-03     106.304E-03    -18.4354E+06    -5.69524E+06    -11.0177E+06    -7.07332E+06    -10.8225E-03     21.4293E-03    -10.6068E-03     29.4024E-03    -10.8911E-03     21.4441E-03    -10.6269E-03     29.3099E-03
            1250     8.01490E-03     106.332E-03    -7.97208E+06     1.74696E+06     4.41083E+06    -3.74097E+06    -11.1333E-03     21.8066E-03    -10.6733E-03     34.9686E-03    -11.1830E-03     21.8214E-03    -10.6422E-03     34.9189E-03
            1251     8.90501E-03     106.366E-03    -4.09778E+06     1.94737E+06     12.9943E+06    -4.19708E+06    -11.5749E-03     22.3229E-03    -10.7480E-03     41.3681E-03    -11.6184E-03     22.3211E-03    -10.6799E-03     41.3120E-03
            1252     9.79473E-03     106.406E-03    -4.03385E+06    -2.12953E+06     13.9728E+06    -7.28248E+06    -12.0943E-03     22.9138E-03    -10.8195E-03     48.7105E-03    -12.1339E-03     22.8910E-03    -10.7407E-03     48.6137E-03
            1253     10.6844E-03     106.452E-03    -3.83889E+06    -2.59863E+06     14.9086E+06    -10.6207E+06    -12.8083E-03     23.7181E-03    -10.9098E-03     57.2242E-03    -12.8496E-03     23.6933E-03    -10.8259E-03     57.0826E-03
            1254     11.5733E-03     106.507E-03    -2.66207E+06    -4.22690E+06     16.9690E+06    -12.6759E+06    -14.0475E-03     25.0941E-03    -11.0466E-03     67.0060E-03    -14.0883E-03     25.0612E-03    -10.9517E-03     66.8340E-03
            1255     12.4612E-03     106.570E-03    -797.873E+03    -4.60140E+06     18.8722E+06    -12.1962E+06    -16.0703E-03     27.3197E-03    -11.2494E-03     79.5096E-03    -16.1161E-03     27.2916E-03    -11.1473E-03     79.3350E-03
            1256     13.3473E-03     106.648E-03    -991.067E+03    -13.2969E+06     14.5057E+06    -14.2607E+06    -19.0771E-03     30.6244E-03    -11.5473E-03     88.9233E-03    -19.1260E-03     30.5805E-03    -11.4540E-03     88.7075E-03
            1257     14.2305E-03     106.728E-03    -3.74062E+06    -20.5288E+06     4.75392E+06    -20.9158E+06    -23.4300E-03     35.4124E-03    -11.9824E-03     98.9428E-03    -23.5201E-03     35.4028E-03    -11.9235E-03     98.6112E-03
            1258     15.1096E-03     106.824E-03    -5.79249E+06    -28.3250E+06     1.78720E+06    -23.3045E+06    -29.0650E-03     41.6902E-03    -12.6253E-03     128.586E-03    -29.3525E-03     41.8517E-03    -12.5669E-03     128.167E-03
            1259     15.9867E-03     106.960E-03    -6.13278E+06    -42.9920E+06    -15.1390E+06    -19.9190E+06    -35.9146E-03     49.2541E-03    -13.3395E-03     180.110E-03    -37.1852E-03     50.3946E-03    -13.3440E-03     179.827E-03
            1260     16.8588E-03     107.155E-03    -4.26796E+06     48.8664E+06     29.2831E+06    -11.5539E+06    -40.7264E-03     54.9754E-03    -14.2491E-03     238.670E-03    -45.4558E-03     59.7784E-03    -14.1673E-03     240.818E-03
            1261     890.687E-06     107.178E-03    -29.7832E+06    -25.0273E+06    -29.2994E+06     -3.7862E+06    -10.4931E-03     20.9576E-03    -10.4644E-03     3.24302E-03    -10.5632E-03     20.9182E-03    -10.5314E-03     3.19396E-03
            1262     1.78122E-03     107.182E-03    -30.0056E+06    -23.3554E+06    -28.2725E+06    -6.70714E+06    -10.5234E-03     21.0139E-03    -10.4905E-03     6.05689E-03    -10.5986E-03     20.9816E-03    -10.5545E-03     5.96996E-03
            1263     2.67183E-03     107.189E-03    -29.8795E+06    -21.8850E+06    -26.5104E+06    -9.81902E+06    -10.5888E-03     21.1065E-03    -10.5176E-03     9.05334E-03    -10.6682E-03     21.0789E-03    -10.5751E-03     8.92605E-03
            1264     3.56233E-03     107.199E-03    -29.4252E+06    -20.2812E+06    -24.0574E+06    -12.9055E+06    -10.6653E-03     21.2180E-03    -10.5527E-03     12.1507E-03    -10.7483E-03     21.1943E-03    -10.6010E-03     11.9833E-03
            1265     4.45281E-03     107.212E-03    -29.2418E+06    -18.6732E+06    -21.1125E+06    -15.6080E+06    -10.7406E-03     21.3333E-03    -10.5928E-03     15.4167E-03    -10.8294E-03     21.3133E-03    -10.6288E-03     15.2143E-03
            1266     5.34313E-03     107.228E-03    -29.3002E+06    -16.9383E+06    -19.0763E+06    -17.5441E+06    -10.7916E-03     21.4181E-03    -10.6264E-03     18.9469E-03    -10.8864E-03     21.4040E-03    -10.6548E-03     18.7192E-03
            1267     6.23364E-03     107.248E-03    -28.2895E+06    -14.3005E+06    -18.0309E+06    -18.5534E+06    -10.7991E-03     21.4437E-03    -10.6447E-03     22.8569E-03    -10.8942E-03     21.4400E-03    -10.6731E-03     22.6160E-03
            1268     7.12401E-03     107.272E-03    -24.1846E+06    -9.09661E+06    -15.0209E+06    -17.0725E+06    -10.7741E-03     21.4265E-03    -10.6523E-03     27.3063E-03    -10.8609E-03     21.4386E-03    -10.6792E-03     27.0844E-03
            1269     8.01475E-03     107.301E-03    -15.7193E+06    -1.62771E+06    -6.38010E+06    -12.3652E+06    -10.8187E-03     21.4876E-03    -10.6689E-03     32.5290E-03    -10.8866E-03     21.5125E-03    -10.6757E-03     32.3678E-03
            1270     8.90539E-03     107.335E-03    -6.29911E+06     1.71769E+06     5.27194E+06    -7.55355E+06    -11.0901E-03     21.7993E-03    -10.7092E-03     38.7837E-03    -11.1330E-03     21.8106E-03    -10.6762E-03     38.6844E-03
            1271     9.79571E-03     107.375E-03    -446.166E+03     2.08656E+06     14.8626E+06    -7.11792E+06    -11.6095E-03     22.3792E-03    -10.7697E-03     46.2301E-03    -11.6381E-03     22.3705E-03    -10.6978E-03     46.1359E-03
            1272     10.6854E-03     107.422E-03     1.55796E+06     1.00900E+06     19.5885E+06    -9.46166E+06    -12.3979E-03     23.2449E-03    -10.8471E-03     55.0717E-03    -12.4232E-03     23.2226E-03    -10.7528E-03     54.9460E-03
            1273     11.5748E-03     107.477E-03     476.382E+03    -2.76708E+06     21.1274E+06    -10.1341E+06    -13.6001E-03     24.5636E-03    -10.9635E-03     65.4003E-03    -13.6312E-03     24.5253E-03    -10.8545E-03     65.2630E-03
            1274     12.4631E-03     107.543E-03    -1.38581E+06    -3.44207E+06     22.2487E+06    -11.1219E+06    -15.4958E-03     26.6372E-03    -11.1414E-03     78.7771E-03    -15.5463E-03     26.6061E-03    -11.0232E-03     78.6200E-03
            1275     13.3500E-03     107.623E-03    -1.70148E+06    -9.05492E+06     19.8561E+06    -11.9146E+06    -18.4487E-03     29.8613E-03    -11.4126E-03     90.0362E-03    -18.5077E-03     29.8246E-03    -11.2977E-03     89.8555E-03
            1276     14.2337E-03     107.708E-03    -3.42109E+06    -9.03314E+06     12.9553E+06    -16.1850E+06    -22.8164E-03     34.6317E-03    -11.8153E-03     101.847E-03    -22.9215E-03     34.6552E-03    -11.7324E-03     101.582E-03
            1277     15.1138E-03     107.809E-03    -4.36714E+06    -25.8366E+06     6.72280E+06    -22.7034E+06    -28.8363E-03     41.2653E-03    -12.4290E-03     131.447E-03    -29.0979E-03     41.4005E-03    -12.3516E-03     131.037E-03
            1278     15.9893E-03     107.949E-03    -3.91250E+06    -50.6393E+06    -11.7573E+06    -20.5149E+06    -36.5551E-03     49.7055E-03    -13.1504E-03     183.985E-03    -37.6694E-03     50.6606E-03    -13.1301E-03     183.622E-03
            1279     16.8619E-03     108.150E-03    -4.25448E+06     38.2634E+06     25.9487E+06    -11.8976E+06    -42.7201E-03     56.8039E-03    -14.0837E-03     240.972E-03    -47.1159E-03     61.2454E-03    -14.0033E-03     242.651E-03
            1280     890.328E-06     108.146E-03    -13.8739E+06    -18.3856E+06    -13.6273E+06    -3.03124E+06    -10.8634E-03     21.6453E-03    -10.7819E-03     2.89469E-03    -10.8863E-03     21.5934E-03    -10.8033E-03     2.85529E-03
            1281     1.78079E-03     108.151E-03    -14.0875E+06    -16.6926E+06    -13.2552E+06    -5.83735E+06    -10.8826E-03     21.7164E-03    -10.8338E-03     5.43014E-03    -10.9097E-03     21.6727E-03    -10.8554E-03     5.35428E-03
            1282     2.67105E-03     108.158E-03    -14.2584E+06    -15.3099E+06    -11.5294E+06    -8.70576E+06    -10.9655E-03     21.8344E-03    -10.8689E-03     8.09580E-03    -10.9980E-03     21.7953E-03    -10.8836E-03     7.98264E-03
            1283     3.56130E-03     108.168E-03    -14.7487E+06    -14.1481E+06    -9.50160E+06    -11.1628E+06    -11.0677E-03     21.9822E-03    -10.9145E-03     10.8354E-03    -11.1074E-03     21.9468E-03    -10.9201E-03     10.6902E-03
            1284     4.45138E-03     108.181E-03    -15.4510E+06    -13.0780E+06    -7.74427E+06    -13.2741E+06    -11.1730E-03     22.1371E-03    -10.9641E-03     13.7422E-03    -11.2204E-03     22.1057E-03    -10.9615E-03     13.5695E-03
            1285     5.34153E-03     108.197E-03    -15.7914E+06    -11.9013E+06    -5.41560E+06    -15.3650E+06    -11.2675E-03     22.2845E-03    -11.0170E-03     16.8759E-03    -11.3220E-03     22.2563E-03    -11.0039E-03     16.6758E-03
            1286     6.23140E-03     108.217E-03    -16.0619E+06    -10.3390E+06    -2.87578E+06    -17.2387E+06    -11.3094E-03     22.3747E-03    -11.0654E-03     20.3570E-03    -11.3713E-03     22.3512E-03    -11.0414E-03     20.1324E-03
            1287     7.12150E-03     108.241E-03    -16.6327E+06    -8.42987E+06    -1.57300E+06    -18.1838E+06    -11.2565E-03     22.3506E-03    -11.0941E-03     24.3574E-03    -11.3262E-03     22.3359E-03    -11.0656E-03     24.1204E-03
            1288     8.01155E-03     108.269E-03    -16.3286E+06    -4.20624E+06    -1.95143E+06    -17.5404E+06    -11.1172E-03     22.2060E-03    -11.0888E-03     29.0665E-03    -11.1912E-03     22.2127E-03    -11.0688E-03     28.8377E-03
            1289     8.90213E-03     108.304E-03    -12.3725E+06    -1.80598E+06     1.17145E+06    -14.4865E+06    -11.0358E-03     22.1144E-03    -11.0786E-03     34.7376E-03    -11.0981E-03     22.1230E-03    -11.0522E-03     34.5483E-03
            1290     9.79282E-03     108.344E-03    -6.58806E+06     2.31473E+06     9.06755E+06    -10.5003E+06    -11.2184E-03     22.3013E-03    -11.0829E-03     41.7784E-03    -11.2695E-03     22.3110E-03    -11.0314E-03     41.6405E-03
            1291     10.6833E-03     108.391E-03    -3.56139E+06     3.11008E+06     16.2226E+06    -8.83897E+06    -11.8551E-03     22.9691E-03    -11.1140E-03     50.7624E-03    -11.9034E-03     22.9687E-03    -11.0322E-03     50.6455E-03
            1292     11.5726E-03     108.448E-03    -1.70897E+06    -2.69827E+06     21.3053E+06    -8.52127E+06    -13.0556E-03     24.2507E-03    -11.1951E-03     61.6479E-03    -13.0958E-03     24.2135E-03    -11.0821E-03     61.5332E-03
            1293     12.4615E-03     108.515E-03    -1.02470E+06    -1.29965E+06     25.0862E+06    -7.88870E+06    -14.8400E-03     26.1707E-03    -11.3308E-03     75.5786E-03    -14.8907E-03     26.1405E-03    -11.2019E-03     75.4669E-03
            1294     13.3487E-03     108.596E-03    -2.22592E+06    -6.20869E+06     23.9427E+06    -9.73447E+06    -17.4746E-03     29.0249E-03    -11.5502E-03     88.4110E-03    -17.5368E-03     28.9877E-03    -11.4183E-03     88.2649E-03
            1295     14.2337E-03     108.686E-03    -3.25435E+06    -1.22461E+06     19.7639E+06    -12.1202E+06    -21.5594E-03     33.4435E-03    -11.8841E-03     102.223E-03    -21.6668E-03     33.4778E-03    -11.7787E-03     102.022E-03
            1296     15.1145E-03     108.792E-03    -7.48764E+06    -14.8143E+06     12.4532E+06    -19.1765E+06    -27.8316E-03     40.2517E-03    -12.4201E-03     132.927E-03    -28.0916E-03     40.3968E-03    -12.3255E-03     132.571E-03
            1297     15.9921E-03     108.938E-03    -8.37425E+06    -56.0981E+06    -12.8577E+06    -24.5117E+06    -35.9988E-03     49.0788E-03    -13.0800E-03     185.697E-03    -36.9338E-03     49.8225E-03    -13.0508E-03     185.237E-03
            1298     16.8668E-03     109.143E-03    -4.91247E+06     22.3901E+06     15.7437E+06    -14.5924E+06    -43.5077E-03     57.4692E-03    -13.9615E-03     243.061E-03    -47.4622E-03     61.4404E-03    -13.9081E-03     244.219E-03
            1299     889.877E-06     109.116E-03    -1.59153E+06    -12.6876E+06    -1.65025E+06    -2.83224E+06    -11.5742E-03     23.1047E-03    -11.5305E-03     2.49972E-03    -11.5614E-03     23.0461E-03    -11.5180E-03     2.46280E-03
            1300     1.77951E-03     109.120E-03    -1.84170E+06    -10.8840E+06    -972.279E+03    -5.06603E+06    -11.6487E-03     23.2210E-03    -11.5723E-03     4.65248E-03    -11.6409E-03     23.1707E-03    -11.5587E-03     4.58639E-03
            1301     2.66922E-03     109.127E-03    -2.49060E+06    -9.86796E+06     212.868E+03    -7.09301E+06    -11.7467E-03     23.3666E-03    -11.6199E-03     6.90117E-03    -11.7453E-03     23.3207E-03    -11.6009E-03     6.80854E-03
            1302     3.55873E-03     109.137E-03    -3.17678E+06    -9.18458E+06     1.60613E+06    -8.98994E+06    -11.8701E-03     23.5460E-03    -11.6759E-03     9.21565E-03    -11.8753E-03     23.5026E-03    -11.6500E-03     9.09814E-03
            1303     4.44824E-03     109.151E-03    -3.71734E+06    -8.31290E+06     3.53095E+06    -10.8171E+06    -12.0119E-03     23.7528E-03    -11.7409E-03     11.6618E-03    -12.0240E-03     23.7119E-03    -11.7058E-03     11.5203E-03
            1304     5.33746E-03     109.167E-03    -4.72232E+06    -7.37129E+06     5.59137E+06    -12.4646E+06    -12.1326E-03     23.9430E-03    -11.8104E-03     14.3012E-03    -12.1543E-03     23.9054E-03    -11.7649E-03     14.1379E-03
            1305     6.22679E-03     109.187E-03    -6.32316E+06    -6.38731E+06     7.33697E+06    -13.7095E+06    -12.2067E-03     24.0825E-03    -11.8758E-03     17.2422E-03    -12.2406E-03     24.0499E-03    -11.8207E-03     17.0624E-03
            1306     7.11590E-03     109.211E-03    -7.71000E+06    -5.24430E+06     9.14370E+06    -14.8419E+06    -12.2177E-03     24.1492E-03    -11.9315E-03     20.6201E-03    -12.2631E-03     24.1220E-03    -11.8670E-03     20.4254E-03
            1307     8.00529E-03     109.239E-03    -8.91775E+06    -3.31120E+06     11.0441E+06    -15.1681E+06    -12.1373E-03     24.1076E-03    -11.9703E-03     24.6091E-03    -12.1946E-03     24.0894E-03    -11.8974E-03     24.4099E-03
            1308     8.89458E-03     109.273E-03    -10.9878E+06    -3.03251E+06     10.8800E+06    -14.7014E+06    -11.9461E-03     23.9259E-03    -11.9798E-03     29.4366E-03    -12.0142E-03     23.9125E-03    -11.9050E-03     29.2434E-03
            1309     9.78438E-03     109.313E-03    -11.7802E+06    -896.453E+03     10.3964E+06    -12.3399E+06    -11.7446E-03     23.7028E-03    -11.9583E-03     35.5077E-03    -11.8193E-03     23.7022E-03    -11.8879E-03     35.3451E-03
            1310     10.6746E-03     109.360E-03    -9.59176E+06     3.00227E+06     15.8774E+06    -9.44707E+06    -11.8496E-03     23.7982E-03    -11.9486E-03     43.6017E-03    -11.9272E-03     23.8063E-03    -11.8597E-03     43.4766E-03
            1311     11.5650E-03     109.418E-03    -6.57582E+06    -1.46120E+06     21.9158E+06    -9.39192E+06    -12.6145E-03     24.5882E-03    -11.9737E-03     54.2009E-03    -12.6802E-03     24.5618E-03    -11.8524E-03     54.0760E-03
            1312     12.4537E-03     109.486E-03    -2.81386E+06    -3.59366E+06     26.0479E+06    -7.74252E+06    -13.9925E-03     26.0280E-03    -12.0355E-03     68.3342E-03    -14.0455E-03     25.9828E-03    -11.8960E-03     68.2280E-03
            1313     13.3417E-03     109.569E-03    -1.18342E+06    -2.15362E+06     28.5989E+06    -6.21729E+06    -16.2136E-03     28.3803E-03    -12.1667E-03     82.7208E-03    -16.2729E-03     28.3449E-03    -12.0188E-03     82.6273E-03
            1314     14.2276E-03     109.663E-03    -3.44870E+06     240.179E+03     26.1741E+06    -7.69134E+06    -19.8910E-03     32.2963E-03    -12.4053E-03     98.0468E-03    -19.9892E-03     32.3074E-03    -12.2698E-03     97.9152E-03
            1315     15.1112E-03     109.773E-03    -6.73508E+06    -1.02451E+06     25.8741E+06    -11.2519E+06    -26.2358E-03     39.0852E-03    -12.8494E-03     129.432E-03    -26.4732E-03     39.2204E-03    -12.7088E-03     129.195E-03
            1316     15.9890E-03     109.925E-03    -12.8008E+06    -45.3747E+06    -1.29018E+06    -22.5023E+06    -35.4486E-03     48.8988E-03    -13.4502E-03     180.618E-03    -36.2059E-03     49.4537E-03    -13.3723E-03     180.148E-03
            1317     16.8623E-03     110.133E-03    -14.4865E+06     1.28539E+06     1.60587E+06    -24.1728E+06    -39.8999E-03     54.0455E-03    -14.1455E-03     238.063E-03    -43.0597E-03     57.1540E-03    -14.1184E-03     238.737E-03
            1318     888.709E-06     110.087E-03     6.72155E+06    -7.50440E+06     7.38380E+06    -2.35800E+06    -12.7888E-03     25.5269E-03    -12.7380E-03     2.08180E-03    -12.7550E-03     25.4690E-03    -12.7000E-03     2.05091E-03
            1319     1.77750E-03     110.092E-03     6.18080E+06    -6.42925E+06     7.49498E+06    -3.96384E+06    -12.8910E-03     25.6834E-03    -12.7924E-03     3.73211E-03    -12.8618E-03     25.6314E-03    -12.7546E-03     3.68005E-03
            1320     2.66600E-03     110.099E-03     5.65875E+06    -5.83325E+06     8.34898E+06    -5.35600E+06    -13.0160E-03     25.8698E-03    -12.8538E-03     5.48261E-03    -12.9915E-03     25.8203E-03    -12.8118E-03     5.41213E-03
            1321     3.55452E-03     110.109E-03     4.98639E+06    -5.12842E+06     9.90907E+06    -6.81523E+06    -13.1693E-03     26.0959E-03    -12.9266E-03     7.29269E-03    -13.1516E-03     26.0487E-03    -12.8768E-03     7.20288E-03
            1322     4.44273E-03     110.123E-03     3.87505E+06    -4.70354E+06     11.4745E+06    -8.07736E+06    -13.3317E-03     26.3398E-03    -13.0080E-03     9.20206E-03    -13.3227E-03     26.2943E-03    -12.9495E-03     9.09543E-03
            1323     5.33096E-03     110.140E-03     2.62295E+06    -3.99815E+06     13.0171E+06    -9.03229E+06    -13.4911E-03     26.5849E-03    -13.0938E-03     11.2615E-03    -13.4918E-03     26.5427E-03    -13.0267E-03     11.1420E-03
            1324     6.21888E-03     110.159E-03     1.62007E+06    -3.38521E+06     15.4033E+06    -9.98223E+06    -13.6535E-03     26.8396E-03    -13.1861E-03     13.5362E-03    -13.6637E-03     26.7986E-03    -13.1065E-03     13.4039E-03
            1325     7.10687E-03     110.184E-03     218.502E+03    -2.47514E+06     18.2215E+06    -10.6425E+06    -13.8013E-03     27.0831E-03    -13.2818E-03     16.1202E-03    -13.8243E-03     27.0450E-03    -13.1874E-03     15.9787E-03
            1326     7.99452E-03     110.212E-03    -1.73218E+06    -2.17377E+06     20.1537E+06    -10.5890E+06    -13.8900E-03     27.2617E-03    -13.3717E-03     19.1541E-03    -13.9263E-03     27.2254E-03    -13.2652E-03     19.0128E-03
            1327     8.88241E-03     110.245E-03    -2.90708E+06    -1.85789E+06     21.7663E+06    -10.1699E+06    -13.8932E-03     27.3422E-03    -13.4490E-03     22.8413E-03    -13.9386E-03     27.3072E-03    -13.3332E-03     22.7049E-03
            1328     9.77024E-03     110.284E-03    -2.92554E+06    -1.66547E+06     23.4854E+06    -10.4506E+06    -13.8099E-03     27.3193E-03    -13.5094E-03     27.5181E-03    -13.8586E-03     27.2831E-03    -13.3853E-03     27.3778E-03
            1329     10.6583E-03     110.331E-03    -2.38654E+06     719.947E+03     26.7734E+06    -8.92305E+06    -13.6348E-03     27.1875E-03    -13.5527E-03     33.8274E-03    -13.6894E-03     27.1581E-03    -13.4165E-03     33.7068E-03
            1330     11.5466E-03     110.388E-03    -2.58120E+06     581.500E+03     29.7599E+06    -7.47451E+06    -13.5658E-03     27.1459E-03    -13.5801E-03     42.5013E-03    -13.6260E-03     27.1122E-03    -13.4284E-03     42.3997E-03
            1331     12.4359E-03     110.457E-03    -2.65686E+06    -5.18479E+06     29.8726E+06    -8.20569E+06    -13.7447E-03     27.3352E-03    -13.5905E-03     54.6898E-03    -13.7977E-03     27.2733E-03    -13.4297E-03     54.5790E-03
            1332     13.3247E-03     110.540E-03     1.14527E+06    -3.33535E+06     32.9835E+06    -6.34030E+06    -14.8374E-03     28.4541E-03    -13.6167E-03     69.4733E-03    -14.8816E-03     28.3949E-03    -13.4486E-03     69.3843E-03
            1333     14.2115E-03     110.638E-03     5.16833E+06     963.607E+03     37.2978E+06    -3.45565E+06    -18.0665E-03     31.8067E-03    -13.7402E-03     86.2929E-03    -18.1183E-03     31.7723E-03    -13.5626E-03     86.2287E-03
            1334     15.0946E-03     110.751E-03     3.04523E+06     3.38691E+06     38.5336E+06    -2.14539E+06    -24.6771E-03     38.7380E-03    -14.0610E-03     118.717E-03    -24.8281E-03     38.8004E-03    -13.8776E-03     118.620E-03
            1335     15.9734E-03     110.911E-03    -758.712E+03    -21.2265E+06     25.5561E+06    -11.6105E+06    -33.4667E-03     48.0584E-03    -14.5917E-03     170.364E-03    -33.9838E-03     48.4240E-03    -14.4321E-03     170.043E-03
            1336     16.8448E-03     111.123E-03     637.563E+03    -4.17384E+06     12.2198E+06    -24.1505E+06    -28.1216E-03     43.0129E-03    -14.8913E-03     220.650E-03    -29.9085E-03     44.7542E-03    -14.8251E-03     220.966E-03
            1337     887.314E-06     111.061E-03     11.7470E+06    -3.66266E+06     12.4280E+06    -1.38006E+06    -14.5734E-03     29.1267E-03    -14.5533E-03     1.52540E-03    -14.5274E-03     29.0733E-03    -14.5029E-03     1.50710E-03
            1338     1.77429E-03     111.066E-03     11.4046E+06    -3.19831E+06     13.2004E+06    -2.62975E+06    -14.7287E-03     29.3346E-03    -14.6059E-03     2.58840E-03    -14.6864E-03     29.2828E-03    -14.5518E-03     2.55347E-03
            1339     2.66137E-03     111.073E-03     10.9742E+06    -2.79180E+06     14.3329E+06    -3.76576E+06    -14.8867E-03     29.5735E-03    -14.6869E-03     3.70376E-03    -14.8488E-03     29.5228E-03    -14.6271E-03     3.65366E-03
            1340     3.54808E-03     111.084E-03     10.4606E+06    -2.45203E+06     15.8299E+06    -4.53180E+06    -15.0533E-03     29.8301E-03    -14.7769E-03     4.88509E-03    -15.0207E-03     29.7797E-03    -14.7094E-03     4.82457E-03
            1341     4.43480E-03     111.098E-03     9.83721E+06    -2.10970E+06     17.7452E+06    -5.25227E+06    -15.2524E-03     30.1292E-03    -14.8768E-03     6.15589E-03    -15.2264E-03     30.0787E-03    -14.7992E-03     6.08549E-03
            1342     5.32116E-03     111.114E-03     9.24790E+06    -1.76516E+06     20.4638E+06    -5.98786E+06    -15.5196E-03     30.5132E-03    -14.9936E-03     7.52129E-03    -15.5011E-03     30.4615E-03    -14.9021E-03     7.44074E-03
            1343     6.20740E-03     111.135E-03     8.37293E+06    -1.22676E+06     23.6975E+06    -6.47769E+06    -15.8519E-03     30.9832E-03    -15.1313E-03     8.99236E-03    -15.8435E-03     30.9309E-03    -15.0232E-03     8.90474E-03
            1344     7.09313E-03     111.159E-03     7.38602E+06    -1.28080E+06     26.6609E+06    -6.40328E+06    -16.2278E-03     31.5159E-03    -15.2880E-03     10.6184E-03    -16.2288E-03     31.4606E-03    -15.1636E-03     10.5309E-03
            1345     7.97870E-03     111.188E-03     6.87297E+06    -870.384E+03     29.5807E+06    -6.43738E+06    -16.6310E-03     32.0922E-03    -15.4612E-03     12.4824E-03    -16.6397E-03     32.0357E-03    -15.3220E-03     12.3935E-03
            1346     8.86371E-03     111.221E-03     6.63827E+06    -1.03021E+06     32.3564E+06    -6.69740E+06    -17.0444E-03     32.6941E-03    -15.6498E-03     14.7282E-03    -17.0585E-03     32.6334E-03    -15.4961E-03     14.6349E-03
            1347     9.74846E-03     111.260E-03     5.75709E+06    -161.922E+03     34.8727E+06    -6.66291E+06    -17.4133E-03     33.2616E-03    -15.8484E-03     17.6480E-03    -17.4373E-03     33.2033E-03    -15.6821E-03     17.5541E-03
            1348     10.6327E-03     111.307E-03     4.83953E+06    -1.09259E+06     36.5072E+06    -6.20128E+06    -17.5876E-03     33.6340E-03    -16.0464E-03     21.6232E-03    -17.6179E-03     33.5703E-03    -15.8693E-03     21.5344E-03
            1349     11.5174E-03     111.363E-03     5.50595E+06     274.606E+03     38.0547E+06    -4.76606E+06    -17.3245E-03     33.5412E-03    -16.2167E-03     27.1188E-03    -17.3564E-03     33.4815E-03    -16.0348E-03     27.0483E-03
            1350     12.4021E-03     111.430E-03     5.89449E+06    -2.42999E+06     38.4358E+06    -5.16434E+06    -16.5118E-03     32.8470E-03    -16.3352E-03     34.8866E-03    -16.5387E-03     32.7728E-03    -16.1480E-03     34.8118E-03
            1351     13.2887E-03     111.512E-03     6.02295E+06    -5.03818E+06     40.0590E+06    -7.51992E+06    -15.5634E-03     31.9545E-03    -16.3910E-03     46.1837E-03    -15.5887E-03     31.8653E-03    -16.1921E-03     46.0796E-03
            1352     14.1766E-03     111.611E-03     9.96495E+06    -3.19238E+06     43.4906E+06    -4.63984E+06    -16.3632E-03     32.7860E-03    -16.4228E-03     62.7814E-03    -16.3807E-03     32.7009E-03    -16.2152E-03     62.7110E-03
            1353     15.0610E-03     111.729E-03     18.1769E+06     879.138E+03     48.0748E+06     880.472E+03    -22.0279E-03     38.6090E-03    -16.5811E-03     97.1743E-03    -22.0587E-03     38.5684E-03    -16.3684E-03     97.1432E-03
            1354     15.9389E-03     111.893E-03     25.9603E+06     1.51938E+06     55.2655E+06    -6.85060E+06    -27.1737E-03     44.0878E-03    -16.9141E-03     146.282E-03    -27.3642E-03     44.2165E-03    -16.6776E-03     146.088E-03
            1355     16.8212E-03     112.104E-03     16.1079E+06     655.325E+03     32.4213E+06    -12.3773E+06    -10.4196E-03     27.0763E-03    -16.6568E-03     172.390E-03    -10.9596E-03     27.5864E-03    -16.5190E-03     172.429E-03
            1356     884.956E-06     112.039E-03     16.8852E+06    -1.37239E+06     16.9085E+06    -938.646E+03    -17.1668E-03     34.4095E-03    -17.2426E-03     506.644E-06    -17.1052E-03     34.3534E-03    -17.1806E-03     494.184E-06
            1357     1.76998E-03     112.044E-03     16.4715E+06    -1.01670E+06     18.3347E+06    -1.46154E+06    -17.2919E-03     34.5289E-03    -17.2370E-03     901.619E-06    -17.2351E-03     34.4730E-03    -17.1677E-03     881.975E-06
            1358     2.65453E-03     112.052E-03     16.1367E+06    -914.826E+03     19.9202E+06    -1.97989E+06    -17.4618E-03     34.7657E-03    -17.3039E-03     1.30820E-03    -17.4091E-03     34.7085E-03    -17.2263E-03     1.28146E-03
            1359     3.53915E-03     112.063E-03     15.6921E+06    -917.890E+03     21.6037E+06    -2.40406E+06    -17.6790E-03     35.0775E-03    -17.3984E-03     1.75581E-03    -17.6310E-03     35.0185E-03    -17.3118E-03     1.72316E-03
            1360     4.42340E-03     112.077E-03     15.3014E+06    -591.662E+03     24.5425E+06    -2.71807E+06    -17.9974E-03     35.5230E-03    -17.5257E-03     2.22492E-03    -17.9561E-03     35.4620E-03    -17.4243E-03     2.18773E-03
            1361     5.30743E-03     112.094E-03     14.7535E+06    -310.637E+03     27.9899E+06    -2.99722E+06    -18.4420E-03     36.1326E-03    -17.6905E-03     2.70328E-03    -18.4090E-03     36.0687E-03    -17.5715E-03     2.66192E-03
            1362     6.19082E-03     112.115E-03     14.1942E+06    -452.994E+03     31.2203E+06    -2.91912E+06    -19.0282E-03     36.9243E-03    -17.8961E-03     3.18677E-03    -19.0026E-03     36.8559E-03    -17.7599E-03     3.14575E-03
            1363     7.07373E-03     112.140E-03     13.9247E+06    -382.428E+03     34.6746E+06    -3.03039E+06    -19.7647E-03     37.9132E-03    -18.1485E-03     3.66691E-03    -19.7457E-03     37.8405E-03    -17.9947E-03     3.62363E-03
            1364     7.95573E-03     112.169E-03     13.7273E+06    -254.394E+03     38.1440E+06    -3.02293E+06    -20.6514E-03     39.1027E-03    -18.4513E-03     4.16964E-03    -20.6388E-03     39.0259E-03    -18.2801E-03     4.12542E-03
            1365     8.83691E-03     112.203E-03     13.2676E+06      64.758E+03     41.1948E+06    -3.05232E+06    -21.6624E-03     40.4677E-03    -18.8052E-03     4.77852E-03    -21.6574E-03     40.3888E-03    -18.6186E-03     4.73265E-03
            1366     9.71693E-03     112.243E-03     12.9293E+06    -363.782E+03     43.3721E+06    -2.58901E+06    -22.7399E-03     41.9477E-03    -19.2078E-03     5.62509E-03    -22.7395E-03     41.8639E-03    -19.0091E-03     5.58373E-03
            1367     10.5960E-03     112.290E-03     12.9404E+06     65.0547E+03     44.7491E+06    -2.69531E+06    -23.6969E-03     43.3445E-03    -19.6476E-03     6.80149E-03    -23.6997E-03     43.2609E-03    -19.4427E-03     6.75725E-03
            1368     11.4736E-03     112.345E-03     12.7519E+06    -1.58963E+06     44.2458E+06    -2.47140E+06    -24.0944E-03     44.1906E-03    -20.0961E-03     8.48669E-03    -24.0958E-03     44.0996E-03    -19.8911E-03     8.44413E-03
            1369     12.3517E-03     112.412E-03     13.1900E+06     302.491E+03     46.4566E+06    -2.39523E+06    -23.4489E-03     43.9649E-03    -20.5160E-03     11.2237E-03    -23.4548E-03     43.8794E-03    -20.3032E-03     11.1817E-03
            1370     13.2298E-03     112.490E-03     12.0508E+06    -3.07173E+06     50.4257E+06    -3.51761E+06    -21.6767E-03     42.5398E-03    -20.8631E-03     16.0743E-03    -21.6899E-03     42.4330E-03    -20.6240E-03     16.0184E-03
            1371     14.1105E-03     112.584E-03     9.29788E+06    -5.66097E+06      44.254E+06    -5.87147E+06    -20.7965E-03     41.8867E-03    -21.0902E-03     25.3230E-03    -20.8127E-03     41.7792E-03    -20.8742E-03     25.2364E-03
            1372     14.9952E-03     112.703E-03     12.5149E+06    -3.89670E+06     48.7085E+06    -5.98522E+06    -23.4340E-03     44.8688E-03    -21.4348E-03     48.2972E-03    -23.4560E-03     44.7690E-03    -21.2037E-03     48.1974E-03
            1373     15.8747E-03     112.873E-03     13.2251E+06     7.23885E+06     61.3985E+06    -4.96318E+06    -17.2317E-03     38.9411E-03    -21.7094E-03     75.9303E-03    -17.3218E-03     38.9219E-03    -21.4321E-03     75.8288E-03
            1374     16.7612E-03     113.062E-03     4.28260E+06     7.14929E+06     36.2336E+06    -1.61930E+06     3.39801E-03     17.7110E-03    -21.1090E-03     75.1632E-03     3.28993E-03     17.7492E-03    -20.9445E-03     75.1397E-03
            1375     16.8363E-03     56.2170E-03    -1.62819E+06     152.995E+06     43.8074E+06     2.95364E+06    -24.7450E-03     40.3992E-03    -15.6542E-03     236.348E-03    -30.5421E-03     46.6066E-03    -15.6546E-03     240.698E-03
            1376     15.9487E-03     56.0176E-03    -4.47183E+06     84.9116E+06    -8.24775E+06     108.841E+03    -21.9961E-03     37.4866E-03    -15.4905E-03     164.097E-03    -23.8622E-03     39.6621E-03    -15.6484E-03     164.633E-03
            1377     15.0630E-03     55.9040E-03    -4.50154E+06     24.3882E+06    -11.8510E+06    -417.007E+03    -18.1241E-03     33.6584E-03    -15.5343E-03     97.2433E-03    -18.4380E-03     34.0773E-03    -15.6224E-03     97.2120E-03
            1378     14.1770E-03     55.8378E-03    -4.31151E+06    -15.9018E+06    -11.5924E+06     454.808E+03    -16.5265E-03     32.1178E-03    -15.5913E-03     63.9429E-03    -16.5866E-03     32.1398E-03    -15.6199E-03     63.9068E-03
            1379     13.2905E-03     55.7846E-03    -4.43971E+06    -34.6188E+06    -8.82814E+06     601.229E+03    -16.6717E-03     32.3018E-03    -15.6301E-03     58.8950E-03    -16.6772E-03     32.1942E-03    -15.6176E-03     58.8652E-03
            1380     12.4049E-03     55.7279E-03    -5.41371E+06    -36.3743E+06    -387.964E+03     915.717E+03    -16.6010E-03     32.2655E-03    -15.6645E-03     56.2481E-03    -16.6043E-03     32.1216E-03    -15.6058E-03     56.2304E-03
            1381     11.5189E-03     55.6797E-03    -5.90677E+06    -42.3354E+06    -2.22253E+06     79.8694E+03    -16.3178E-03     31.9734E-03    -15.6556E-03     49.4156E-03    -16.2999E-03     31.7907E-03    -15.5968E-03     49.3948E-03
            1382     10.6329E-03     55.6358E-03    -5.37154E+06    -54.7568E+06    -3.66944E+06     224.600E+03    -16.2338E-03     31.8936E-03    -15.6598E-03     44.9789E-03    -16.1868E-03     31.6438E-03    -15.5910E-03     44.9652E-03
            1383     9.74692E-03     55.5959E-03    -5.09750E+06    -57.6718E+06    -36.2304E+03     419.063E+03    -16.1081E-03     31.7849E-03    -15.6768E-03     40.6519E-03    -16.0569E-03     31.5110E-03    -15.5860E-03     40.6450E-03
            1384     8.86084E-03     55.5601E-03    -5.86967E+06    -56.8254E+06    -218.047E+03    -174.268E+03    -16.0072E-03     31.6794E-03    -15.6722E-03     36.4261E-03    -15.9583E-03     31.4086E-03    -15.5823E-03     36.4147E-03
            1385     7.97478E-03     55.5281E-03    -7.16346E+06    -61.4907E+06    -465.099E+03    -210.117E+03    -15.9278E-03     31.6041E-03    -15.6763E-03     32.1518E-03    -15.8767E-03     31.3106E-03    -15.5790E-03     32.1421E-03
            1386     7.08874E-03     55.5003E-03    -7.59630E+06    -62.4588E+06    -826.478E+03     294.187E+03    -15.8547E-03     31.5281E-03    -15.6733E-03     27.9868E-03    -15.8029E-03     31.2299E-03    -15.5759E-03     27.9851E-03
            1387     6.20265E-03     55.4760E-03    -8.21228E+06    -60.1081E+06    -2.37850E+06     309.824E+03    -15.7829E-03     31.4436E-03    -15.6607E-03     24.0013E-03    -15.7346E-03     31.1597E-03    -15.5736E-03     24.0010E-03
            1388     5.31656E-03     55.4555E-03    -9.43894E+06    -62.0974E+06    -3.32337E+06     68.6221E+03    -15.7345E-03     31.3936E-03    -15.6590E-03     20.1755E-03    -15.6877E-03     31.1024E-03    -15.5719E-03     20.1731E-03
            1389     4.43047E-03     55.4384E-03    -10.4342E+06    -62.8294E+06    -4.28137E+06     15.4802E+03    -15.6946E-03     31.3497E-03    -15.6551E-03     16.5276E-03    -15.6501E-03     31.0575E-03    -15.5703E-03     16.5251E-03
            1390     3.54438E-03     55.4247E-03    -11.2991E+06    -59.8615E+06    -6.73586E+06    -4.74533E+03    -15.6530E-03     31.2920E-03    -15.6390E-03     13.0570E-03    -15.6133E-03     31.0192E-03    -15.5695E-03     13.0549E-03
            1391     2.65828E-03     55.4141E-03    -12.1166E+06    -62.0666E+06    -9.00460E+06    -160.279E+03    -15.6368E-03     31.2690E-03    -15.6322E-03     9.70559E-03    -15.5945E-03     30.9895E-03    -15.5697E-03     9.70207E-03
            1392     1.77221E-03     55.4066E-03    -12.8744E+06    -64.6623E+06    -11.3101E+06     -139.56E+03    -15.6255E-03     31.2515E-03    -15.6260E-03     6.48547E-03    -15.5798E-03     30.9634E-03    -15.5701E-03     6.48271E-03
            1393     886.074E-06     55.4020E-03    -13.5211E+06    -66.0047E+06    -13.1997E+06    -75.6188E+03    -15.6200E-03     31.2413E-03    -15.6213E-03     3.43926E-03    -15.5727E-03     30.9501E-03    -15.5719E-03     3.43779E-03
            1394     16.8358E-03     55.2364E-03    -3.24872E+06     152.535E+06     47.1727E+06     882.221E+03    -25.1206E-03     40.7073E-03    -15.5867E-03     239.073E-03    -30.9179E-03     46.8977E-03    -15.5673E-03     243.359E-03
            1395     15.9506E-03     55.0422E-03    -2.27636E+06     85.5979E+06    -8.11772E+06     2.64186E+06    -21.0020E-03     36.4325E-03    -15.4305E-03     167.460E-03    -22.8779E-03     38.6277E-03    -15.5919E-03     168.063E-03
            1396     15.0625E-03     54.9247E-03    -3.30936E+06     24.6555E+06    -10.8463E+06     1.05183E+06    -17.9292E-03     33.4509E-03    -15.5218E-03     97.0483E-03    -18.2337E-03     33.8627E-03    -15.6069E-03     97.0359E-03
            1397     14.1767E-03     54.8600E-03    -4.14220E+06    -15.6072E+06    -10.3350E+06     722.123E+03    -16.6784E-03     32.2597E-03    -15.5813E-03     63.7159E-03    -16.7403E-03     32.2814E-03    -15.6044E-03     63.6825E-03
            1398     13.2912E-03     54.8059E-03    -4.11896E+06    -35.3738E+06    -9.00961E+06     1.32558E+06    -16.6365E-03     32.2457E-03    -15.6092E-03     58.8839E-03    -16.6387E-03     32.1339E-03    -15.5970E-03     58.8636E-03
            1399     12.4052E-03     54.7496E-03    -3.72944E+06    -35.4041E+06     343.674E+03     1.05342E+06    -16.4908E-03     32.1384E-03    -15.6476E-03     56.0491E-03    -16.4877E-03     31.9954E-03    -15.5892E-03     56.0336E-03
            1400     11.5191E-03     54.7015E-03    -3.94551E+06    -41.5984E+06    -1.81425E+06     304.644E+03    -16.2953E-03     31.9364E-03    -15.6411E-03     49.4114E-03    -16.2692E-03     31.7538E-03    -15.5841E-03     49.3936E-03
            1401     10.6331E-03     54.6575E-03    -4.57878E+06    -55.2731E+06    -3.90628E+06    -85.4875E+03    -16.2046E-03     31.8518E-03    -15.6472E-03     44.9627E-03    -16.1525E-03     31.5986E-03    -15.5800E-03     44.9451E-03
            1402     9.74697E-03     54.6178E-03    -4.75997E+06    -57.4787E+06    -187.447E+03     50.6763E+03    -16.0883E-03     31.7541E-03    -15.6658E-03     40.6584E-03    -16.0354E-03     31.4808E-03    -15.5765E-03     40.6468E-03
            1403     8.86090E-03     54.5818E-03    -5.10470E+06    -56.6740E+06     936.790E+03     399.755E+03    -16.0035E-03     31.6710E-03    -15.6674E-03     36.3778E-03    -15.9527E-03     31.3981E-03    -15.5732E-03     36.3738E-03
            1404     7.97488E-03     54.5501E-03    -6.15617E+06    -61.4954E+06     956.963E+03     382.877E+03    -15.9321E-03     31.6040E-03    -15.6719E-03     32.0901E-03    -15.8781E-03     31.3070E-03    -15.5690E-03     32.0880E-03
            1405     7.08878E-03     54.5220E-03    -7.72276E+06    -62.6334E+06    -777.166E+03     112.993E+03    -15.8514E-03     31.5142E-03    -15.6627E-03     27.9540E-03    -15.8001E-03     31.2152E-03    -15.5646E-03     27.9500E-03
            1406     6.20272E-03     54.4980E-03    -8.56998E+06    -59.9056E+06    -1.94193E+06     164.098E+03    -15.7795E-03     31.4299E-03    -15.6504E-03     23.9694E-03    -15.7340E-03     31.1469E-03    -15.5608E-03     23.9672E-03
            1407     5.31663E-03     54.4773E-03    -9.08567E+06    -61.7789E+06    -2.44779E+06    -16.5406E+03    -15.7307E-03     31.3786E-03    -15.6479E-03     20.1439E-03    -15.6838E-03     31.0872E-03    -15.5574E-03     20.1403E-03
            1408     4.43055E-03     54.4604E-03    -10.0880E+06    -62.8456E+06    -3.71042E+06    -245.021E+03    -15.6838E-03     31.3253E-03    -15.6415E-03     16.5000E-03    -15.6383E-03     31.0316E-03    -15.5543E-03     16.4942E-03
            1409     3.54444E-03     54.4466E-03    -11.0952E+06    -59.7965E+06    -6.47716E+06    -325.101E+03    -15.6348E-03     31.2586E-03    -15.6239E-03     13.0403E-03    -15.5945E-03     30.9855E-03    -15.5534E-03     13.0341E-03
            1410     2.65833E-03     54.4360E-03    -12.0441E+06    -62.1973E+06    -9.28357E+06    -209.106E+03    -15.6157E-03     31.2321E-03    -15.6164E-03     9.70213E-03    -15.5725E-03     30.9522E-03    -15.5552E-03     9.69797E-03
            1411     1.77220E-03     54.4285E-03    -13.0008E+06    -64.8199E+06    -11.6722E+06    -37.7802E+03    -15.6078E-03     31.2207E-03    -15.6129E-03     6.48734E-03    -15.5620E-03     30.9325E-03    -15.5584E-03     6.48590E-03
            1412     886.133E-06     54.4240E-03    -13.5801E+06    -66.0431E+06    -13.3404E+06     49.3520E+03    -15.6129E-03     31.2204E-03    -15.6075E-03     3.48323E-03    -15.5657E-03     30.9293E-03    -15.5587E-03     3.48336E-03
            1413     16.8368E-03     54.2643E-03    -5.59078E+06     150.767E+06     44.0221E+06    -144.264E+03    -25.1002E-03     40.6902E-03    -15.5900E-03     240.321E-03    -30.9198E-03     46.8976E-03    -15.5804E-03     244.627E-03
            1414     15.9466E-03     54.0602E-03    -7.29590E+06     84.2637E+06    -10.7281E+06    -382.980E+03    -21.5971E-03     37.0235E-03    -15.4264E-03     166.730E-03    -23.4951E-03     39.2258E-03    -15.5916E-03     167.260E-03
            1415     15.0642E-03     53.9476E-03    -3.61680E+06     25.5026E+06    -10.3651E+06     1.43120E+06    -17.8278E-03     33.3344E-03    -15.5066E-03     96.7739E-03    -18.1277E-03     33.7420E-03    -15.5901E-03     96.7667E-03
            1416     14.1775E-03     53.8810E-03    -2.82018E+06    -16.1135E+06    -9.98824E+06     1.61627E+06    -16.7809E-03     32.3445E-03    -15.5636E-03     64.0492E-03    -16.8364E-03     32.3617E-03    -15.5861E-03     64.0271E-03
            1417     13.2914E-03     53.8279E-03    -2.55621E+06    -34.9107E+06    -8.19416E+06     1.11641E+06    -16.5655E-03     32.1564E-03    -15.5908E-03     58.8173E-03    -16.5612E-03     32.0428E-03    -15.5775E-03     58.7948E-03
            1418     12.4052E-03     53.7714E-03    -2.09732E+06    -34.9828E+06     918.157E+03     693.481E+03    -16.3791E-03     32.0129E-03    -15.6338E-03     56.2432E-03    -16.3689E-03     31.8684E-03    -15.5755E-03     56.2236E-03
            1419     11.5192E-03     53.7232E-03    -2.59507E+06    -41.6547E+06     46.6147E+03     1.20225E+06    -16.2926E-03     31.9312E-03    -15.6386E-03     49.3946E-03    -16.2623E-03     31.7437E-03    -15.5742E-03     49.3884E-03
            1420     10.6331E-03     53.6794E-03    -3.89940E+06    -54.1823E+06    -1.63130E+06     924.491E+03    -16.2015E-03     31.8471E-03    -15.6456E-03     44.8893E-03    -16.1508E-03     31.5950E-03    -15.5695E-03     44.8848E-03
            1421     9.74710E-03     53.6396E-03    -4.79024E+06    -57.1992E+06     781.440E+03    -407.794E+03    -16.0922E-03     31.7508E-03    -15.6585E-03     40.6118E-03    -16.0413E-03     31.4775E-03    -15.5648E-03     40.5942E-03
            1422     8.86105E-03     53.6037E-03    -4.50850E+06    -57.6357E+06     1.02225E+06    -207.881E+03    -15.9986E-03     31.6542E-03    -15.6556E-03     36.3372E-03    -15.9435E-03     31.3755E-03    -15.5604E-03     36.3253E-03
            1423     7.97495E-03     53.5718E-03    -4.66111E+06    -61.6293E+06     2.07617E+06     945.419E+03    -15.9285E-03     31.5907E-03    -15.6623E-03     32.0401E-03    -15.8683E-03     31.2892E-03    -15.5558E-03     32.0453E-03
            1424     7.08892E-03     53.5440E-03    -5.90259E+06    -61.9183E+06     1.67877E+06     900.721E+03    -15.8552E-03     31.5121E-03    -15.6569E-03     27.8882E-03    -15.7993E-03     31.2106E-03    -15.5502E-03     27.8944E-03
            1425     6.20282E-03     53.5198E-03    -7.36415E+06    -59.4822E+06    -568.781E+03    -89.6857E+03    -15.7734E-03     31.4126E-03    -15.6391E-03     23.9343E-03    -15.7245E-03     31.1280E-03    -15.5451E-03     23.9289E-03
            1426     5.31674E-03     53.4993E-03    -8.43386E+06    -61.8310E+06    -1.67297E+06    -257.779E+03    -15.7200E-03     31.3543E-03    -15.6343E-03     20.1184E-03    -15.6709E-03     31.0606E-03    -15.5408E-03     20.1118E-03
            1427     4.43063E-03     53.4822E-03    -9.51390E+06    -62.5760E+06    -3.48345E+06    -277.350E+03    -15.6677E-03     31.2924E-03    -15.6247E-03     16.4807E-03    -15.6201E-03     30.9989E-03    -15.5376E-03     16.4745E-03
            1428     3.54451E-03     53.4686E-03    -10.8090E+06    -60.1251E+06    -6.77808E+06    -284.403E+03    -15.6154E-03     31.2219E-03    -15.6065E-03     13.0269E-03    -15.5727E-03     30.9471E-03    -15.5376E-03     13.0212E-03
            1429     2.65835E-03     53.4579E-03    -12.0443E+06    -62.4210E+06    -9.50469E+06     28.7771E+03    -15.5968E-03     31.1981E-03    -15.6013E-03     9.69367E-03    -15.5529E-03     30.9174E-03    -15.5409E-03     9.69260E-03
            1430     1.77224E-03     53.4505E-03    -13.0057E+06    -64.8162E+06    -11.6388E+06     80.0555E+03    -15.5924E-03     31.1927E-03    -15.6003E-03     6.46594E-03    -15.5467E-03     30.9044E-03    -15.5456E-03     6.46603E-03
            1431     886.057E-06     53.4459E-03    -13.5060E+06    -65.9712E+06    -13.1552E+06     47.6723E+03    -15.5937E-03     31.1967E-03    -15.6031E-03     3.48854E-03    -15.5464E-03     30.9057E-03    -15.5536E-03     3.48864E-03
            1432     16.8315E-03     53.2773E-03    -2.64090E+06     151.650E+06     44.4474E+06     316.353E+03    -25.7693E-03     41.3548E-03    -15.5856E-03     240.341E-03    -31.6583E-03     47.6441E-03    -15.5794E-03     244.633E-03
            1433     15.9543E-03     53.0855E-03    -3.07389E+06     84.4672E+06    -11.2195E+06     570.532E+03    -21.5004E-03     36.8979E-03    -15.3974E-03     164.876E-03    -23.3341E-03     39.0530E-03    -15.5715E-03     165.407E-03
            1434     15.0621E-03     52.9691E-03    -3.95797E+06     23.7642E+06    -10.8788E+06     992.104E+03    -17.5466E-03     33.0408E-03    -15.4942E-03     98.1405E-03    -17.8467E-03     33.4427E-03    -15.5773E-03     98.1325E-03
            1435     14.1773E-03     52.9021E-03    -2.86459E+06    -15.9123E+06    -10.0713E+06     1.41270E+06    -16.8527E-03     32.4107E-03    -15.5580E-03     64.1145E-03    -16.9093E-03     32.4298E-03    -15.5811E-03     64.0894E-03
            1436     13.2916E-03     52.8500E-03    -1.97511E+06    -33.9372E+06    -7.45820E+06     965.205E+03    -16.5514E-03     32.1366E-03    -15.5852E-03     58.7194E-03    -16.5465E-03     32.0258E-03    -15.5704E-03     58.6951E-03
            1437     12.4054E-03     52.7932E-03    -2.57022E+06    -35.0863E+06     1.21590E+06     992.774E+03    -16.3952E-03     32.0237E-03    -15.6285E-03     56.4119E-03    -16.3878E-03     31.8791E-03    -15.5678E-03     56.3960E-03
            1438     11.5193E-03     52.7449E-03    -3.21021E+06    -42.5556E+06     52.2159E+03     1.64433E+06    -16.2865E-03     31.9187E-03    -15.6323E-03     49.3707E-03    -16.2579E-03     31.7276E-03    -15.5656E-03     49.3701E-03
            1439     10.6333E-03     52.7012E-03    -3.41386E+06    -52.6029E+06    -1.00090E+06     1.65268E+06    -16.2237E-03     31.8593E-03    -15.6356E-03     44.8682E-03    -16.1739E-03     31.6135E-03    -15.5594E-03     44.8730E-03
            1440     9.74725E-03     52.6614E-03    -4.41302E+06    -55.5164E+06     1.33490E+06     189.297E+03    -16.1000E-03     31.7458E-03    -15.6458E-03     40.6044E-03    -16.0504E-03     31.4795E-03    -15.5522E-03     40.5945E-03
            1441     8.86118E-03     52.6256E-03    -6.38726E+06    -59.1374E+06    -194.102E+03    -235.816E+03    -15.9925E-03     31.6327E-03    -15.6402E-03     36.3165E-03    -15.9428E-03     31.3510E-03    -15.5462E-03     36.3043E-03
            1442     7.97509E-03     52.5937E-03    -7.35846E+06    -62.1372E+06     55.4503E+03     532.971E+03    -15.9098E-03     31.5513E-03    -15.6415E-03     32.0400E-03    -15.8595E-03     31.2541E-03    -15.5404E-03     32.0399E-03
            1443     7.08902E-03     52.5658E-03    -7.04159E+06    -60.8117E+06     1.16968E+06     247.191E+03    -15.8380E-03     31.4764E-03    -15.6384E-03     27.8770E-03    -15.7887E-03     31.1828E-03    -15.5342E-03     27.8748E-03
            1444     6.20294E-03     52.5417E-03    -7.00791E+06    -59.1624E+06    -106.133E+03    -34.6478E+03    -15.7600E-03     31.3839E-03    -15.6239E-03     23.9044E-03    -15.7104E-03     31.0997E-03    -15.5285E-03     23.8997E-03
            1445     5.31681E-03     52.5212E-03    -8.09338E+06    -61.8607E+06    -2.24122E+06    -154.509E+03    -15.6978E-03     31.3127E-03    -15.6149E-03     20.1042E-03    -15.6461E-03     31.0192E-03    -15.5247E-03     20.0989E-03
            1446     4.43070E-03     52.5042E-03    -9.47758E+06    -62.6801E+06    -4.08319E+06    -65.7079E+03    -15.6501E-03     31.2568E-03    -15.6068E-03     16.4621E-03    -15.6012E-03     30.9636E-03    -15.5225E-03     16.4586E-03
            1447     3.54454E-03     52.4905E-03    -10.9155E+06    -60.2902E+06    -6.96109E+06     170.669E+03    -15.6043E-03     31.1951E-03    -15.5908E-03     13.0043E-03    -15.5617E-03     30.9199E-03    -15.5224E-03     13.0045E-03
            1448     2.65841E-03     52.4800E-03    -12.1358E+06    -62.5061E+06    -9.18859E+06     146.536E+03    -15.5863E-03     31.1725E-03    -15.5862E-03     9.68064E-03    -15.5432E-03     30.8911E-03    -15.5240E-03     9.68108E-03
            1449     1.77226E-03     52.4724E-03    -12.9336E+06    -64.5943E+06    -11.3759E+06     74.7681E+03    -15.5839E-03     31.1636E-03    -15.5797E-03     6.45620E-03    -15.5385E-03     30.8760E-03    -15.5242E-03     6.45622E-03
            1450     886.192E-06     52.4679E-03    -13.4636E+06    -65.9855E+06    -13.1339E+06     5.68060E+03    -15.5652E-03     31.1474E-03    -15.5821E-03     3.47609E-03    -15.5178E-03     30.8562E-03    -15.5326E-03     3.47566E-03
            1451     16.8403E-03     52.2973E-03    -3.58588E+06     150.785E+06     44.2108E+06    -159.747E+03    -25.2003E-03     40.7512E-03    -15.5508E-03     241.339E-03    -31.1218E-03     47.0671E-03    -15.5432E-03     245.620E-03
            1452     15.9460E-03     52.1080E-03    -4.93540E+06     85.0206E+06    -11.6916E+06     449.503E+03    -20.7840E-03     36.1823E-03    -15.3983E-03     165.376E-03    -22.6129E-03     38.3294E-03    -15.5729E-03     165.949E-03
            1453     15.0645E-03     51.9907E-03    -4.87031E+06     23.7948E+06    -11.0779E+06     657.805E+03    -18.1916E-03     33.6895E-03    -15.4980E-03     98.5337E-03    -18.5078E-03     34.1050E-03    -15.5808E-03     98.5166E-03
            1454     14.1775E-03     51.9237E-03    -3.84657E+06    -16.0974E+06    -9.72687E+06     438.987E+03    -16.6322E-03     32.1849E-03    -15.5526E-03     63.7569E-03    -16.6927E-03     32.2028E-03    -15.5723E-03     63.7202E-03
            1455     13.2913E-03     51.8718E-03    -3.39962E+06    -33.7383E+06    -8.18201E+06     927.278E+03    -16.5514E-03     32.1315E-03    -15.5802E-03     58.5241E-03    -16.5528E-03     32.0248E-03    -15.5672E-03     58.4992E-03
            1456     12.4054E-03     51.8149E-03    -3.27118E+06    -35.6663E+06     819.909E+03     1.37130E+06    -16.4690E-03     32.0907E-03    -15.6217E-03     56.3662E-03    -16.4639E-03     31.9449E-03    -15.5611E-03     56.3550E-03
            1457     11.5194E-03     51.7668E-03    -3.26208E+06    -42.2625E+06    -168.862E+03     1.27977E+06    -16.2732E-03     31.8945E-03    -15.6213E-03     49.3772E-03    -16.2450E-03     31.7051E-03    -15.5561E-03     49.3720E-03
            1458     10.6333E-03     51.7229E-03    -2.49170E+06    -52.3042E+06    -947.308E+03     945.944E+03    -16.2310E-03     31.8551E-03    -15.6241E-03     44.8523E-03    -16.1771E-03     31.6094E-03    -15.5494E-03     44.8481E-03
            1459     9.74733E-03     51.6833E-03    -2.86948E+06    -54.8645E+06     3.69824E+06     1.78427E+06    -16.1219E-03     31.7642E-03    -15.6424E-03     40.5065E-03    -16.0689E-03     31.4956E-03    -15.5402E-03     40.5172E-03
            1460     8.86127E-03     51.6474E-03     -5.0423E+06    -58.6754E+06     2.66117E+06     1.50184E+06    -16.0028E-03     31.6399E-03    -15.6371E-03     36.2277E-03    -15.9512E-03     31.3544E-03    -15.5314E-03     36.2379E-03
            1461     7.97525E-03     51.6157E-03    -6.52528E+06    -61.4466E+06     621.442E+03    -158.074E+03    -15.8998E-03     31.5257E-03    -15.6259E-03     32.0160E-03    -15.8471E-03     31.2299E-03    -15.5243E-03     32.0070E-03
            1462     7.08912E-03     51.5877E-03    -6.97799E+06    -60.5247E+06    -377.559E+03    -805.898E+03    -15.8120E-03     31.4265E-03    -15.6145E-03     27.8856E-03    -15.7605E-03     31.1365E-03    -15.5185E-03     27.8699E-03
            1463     6.20303E-03     51.5636E-03    -7.62533E+06    -59.7265E+06    -1.08152E+06    -366.267E+03    -15.7427E-03     31.3487E-03    -15.6060E-03     23.8837E-03    -15.6939E-03     31.0639E-03    -15.5137E-03     23.8748E-03
            1464     5.31690E-03     51.5432E-03    -8.54070E+06    -61.8428E+06    -2.77424E+06     253.635E+03    -15.6819E-03     31.2801E-03    -15.5982E-03     20.0757E-03    -15.6317E-03     30.9881E-03    -15.5100E-03     20.0757E-03
            1465     4.43074E-03     51.5262E-03    -9.95611E+06    -62.7875E+06    -4.44550E+06     320.810E+03    -15.6362E-03     31.2270E-03    -15.5908E-03     16.4384E-03    -15.5890E-03     30.9344E-03    -15.5075E-03     16.4400E-03
            1466     3.54462E-03     51.5125E-03    -11.0803E+06    -60.1913E+06    -6.36633E+06     186.579E+03    -15.5974E-03     31.1744E-03    -15.5771E-03     12.9746E-03    -15.5566E-03     30.8991E-03    -15.5056E-03     12.9750E-03
            1467     2.65845E-03     51.5020E-03    -11.9321E+06    -62.3355E+06    -8.78327E+06     91.3642E+03    -15.5736E-03     31.1419E-03    -15.5683E-03     9.66585E-03    -15.5303E-03     30.8605E-03    -15.5045E-03     9.66558E-03
            1468     1.77232E-03     51.4945E-03    -12.8303E+06    -64.5190E+06    -11.2356E+06     31.2396E+03    -15.5633E-03     31.1230E-03    -15.5597E-03     6.46511E-03    -15.5177E-03     30.8354E-03    -15.5037E-03     6.46456E-03
            1469     886.123E-06     51.4899E-03    -13.3798E+06    -65.9394E+06    -13.0214E+06         138.772    -15.5505E-03     31.1072E-03    -15.5568E-03     3.45999E-03    -15.5029E-03     30.8160E-03    -15.5069E-03     3.45949E-03
            1470     16.8345E-03     51.3274E-03    -3.79006E+06     151.012E+06     45.6906E+06     984.065E+03    -25.0994E-03     40.6686E-03    -15.5692E-03     240.829E-03    -30.9587E-03     46.9182E-03    -15.5542E-03     245.147E-03
            1471     15.9508E-03     51.1269E-03    -5.19313E+06     85.6046E+06    -9.44557E+06     123.650E+03    -21.1590E-03     36.5733E-03    -15.4143E-03     166.460E-03    -23.0111E-03     38.7384E-03    -15.5782E-03     167.019E-03
            1472     15.0632E-03     51.0122E-03    -5.30923E+06     23.0744E+06    -11.8397E+06     -471.38E+03    -18.2220E-03     33.7139E-03    -15.4919E-03     97.5889E-03    -18.5376E-03     34.1270E-03    -15.5769E-03     97.5566E-03
            1473     14.1777E-03     50.9459E-03    -4.97159E+06    -16.5662E+06    -10.1265E+06     558.546E+03    -16.6391E-03     32.1850E-03    -15.5458E-03     64.0244E-03    -16.7039E-03     32.2026E-03    -15.5652E-03     63.9894E-03
            1474     13.2917E-03     50.8933E-03     -4.6542E+06    -33.7624E+06    -7.64433E+06     770.372E+03    -16.5383E-03     32.1156E-03    -15.5773E-03     58.5591E-03    -16.5467E-03     32.0098E-03    -15.5598E-03     58.5322E-03
            1475     12.4056E-03     50.8367E-03    -4.08507E+06    -35.9754E+06     691.500E+03     602.729E+03    -16.4801E-03     32.0944E-03    -15.6143E-03     56.2769E-03    -16.4784E-03     31.9485E-03    -15.5528E-03     56.2557E-03
            1476     11.5195E-03     50.7886E-03    -3.23452E+06    -41.5526E+06     248.140E+03     359.990E+03    -16.2987E-03     31.9102E-03    -15.6115E-03     49.3659E-03    -16.2720E-03     31.7238E-03    -15.5453E-03     49.3488E-03
            1477     10.6336E-03     50.7448E-03    -3.11537E+06    -52.6601E+06    -1.12609E+06     435.560E+03    -16.2265E-03     31.8384E-03    -15.6119E-03     44.8219E-03    -16.1748E-03     31.5920E-03    -15.5367E-03     44.8111E-03
            1478     9.74749E-03     50.7050E-03    -2.97433E+06    -56.6208E+06     3.61760E+06     1.73444E+06    -16.1204E-03     31.7514E-03    -15.6310E-03     40.4476E-03    -16.0653E-03     31.4742E-03    -15.5265E-03     40.4577E-03
            1479     8.86148E-03     50.6693E-03    -2.52125E+06    -56.4268E+06     4.72891E+06     2.05591E+06    -16.0049E-03     31.6308E-03    -15.6258E-03     36.1815E-03    -15.9470E-03     31.3499E-03    -15.5167E-03     36.1988E-03
            1480     7.97535E-03     50.6375E-03    -3.31886E+06    -59.7667E+06     2.84550E+06     353.947E+03    -15.8975E-03     31.5120E-03    -15.6145E-03     31.9721E-03    -15.8345E-03     31.2167E-03    -15.5088E-03     31.9697E-03
            1481     7.08926E-03     50.6097E-03    -5.04120E+06    -60.8069E+06    -410.750E+03    -337.445E+03    -15.8004E-03     31.3970E-03    -15.5967E-03     27.8571E-03    -15.7387E-03     31.1028E-03    -15.5032E-03     27.8475E-03
            1482     6.20308E-03     50.5856E-03    -6.55858E+06    -60.3138E+06    -1.29734E+06    -63.3767E+03    -15.7315E-03     31.3209E-03    -15.5894E-03     23.8541E-03    -15.6762E-03     31.0320E-03    -15.4990E-03     23.8491E-03
            1483     5.31697E-03     50.5652E-03    -8.08527E+06    -62.5625E+06    -1.10949E+06     584.971E+03    -15.6835E-03     31.2744E-03    -15.5909E-03     20.0151E-03    -15.6324E-03     30.9758E-03    -15.4940E-03     20.0193E-03
            1484     4.43084E-03     50.5482E-03    -9.43958E+06    -61.8520E+06    -3.16943E+06     576.421E+03    -15.6260E-03     31.2027E-03    -15.5767E-03     16.4000E-03    -15.5794E-03     30.9122E-03    -15.4892E-03     16.4048E-03
            1485     3.54467E-03     50.5345E-03    -10.7073E+06    -60.2139E+06    -6.04889E+06    -31.0863E+03    -15.5805E-03     31.1392E-03    -15.5587E-03     12.9494E-03    -15.5382E-03     30.8628E-03    -15.4861E-03     12.9470E-03
            1486     2.65852E-03     50.5240E-03    -11.8445E+06    -62.2298E+06    -8.71902E+06     69.5986E+03    -15.5559E-03     31.1043E-03    -15.5484E-03     9.64526E-03    -15.5124E-03     30.8231E-03    -15.4846E-03     9.64472E-03
            1487     1.77233E-03     50.5165E-03    -12.7774E+06    -64.4746E+06    -11.1891E+06     39.1612E+03    -15.5381E-03     31.0793E-03    -15.5412E-03     6.45233E-03    -15.4923E-03     30.7918E-03    -15.4851E-03     6.45188E-03
            1488     886.191E-06     50.5120E-03    -13.3124E+06    -65.8854E+06    -12.9191E+06    -56.8790E+03    -15.5425E-03     31.0739E-03    -15.5314E-03     3.44427E-03    -15.4948E-03     30.7826E-03    -15.4812E-03     3.44304E-03
            1489     16.8361E-03     50.3462E-03    -3.73892E+06     150.748E+06     46.2401E+06     476.813E+03    -25.4794E-03     41.0705E-03    -15.5911E-03     239.238E-03    -31.2857E-03     47.2646E-03    -15.5730E-03     243.536E-03
            1490     15.9492E-03     50.1494E-03    -4.05047E+06     85.5408E+06    -8.99106E+06     805.380E+03    -21.5990E-03     37.0068E-03    -15.4078E-03     166.856E-03    -23.4599E-03     39.1831E-03    -15.5710E-03     167.409E-03
            1491     15.0637E-03     50.0338E-03    -3.46925E+06     22.9806E+06    -11.2047E+06     523.200E+03    -17.8909E-03     33.3748E-03    -15.4839E-03     97.6184E-03    -18.1943E-03     33.7799E-03    -15.5682E-03     97.6014E-03
            1492     14.1775E-03     49.9674E-03    -4.42799E+06    -16.9760E+06    -10.8382E+06     743.507E+03    -16.7196E-03     32.2604E-03    -15.5407E-03     63.7866E-03    -16.7801E-03     32.2763E-03    -15.5639E-03     63.7537E-03
            1493     13.2916E-03     49.9152E-03    -3.81569E+06    -33.3395E+06    -8.06412E+06     511.828E+03    -16.5746E-03     32.1428E-03    -15.5682E-03     58.6503E-03    -16.5788E-03     32.0384E-03    -15.5546E-03     58.6201E-03
            1494     12.4056E-03     49.8584E-03    -3.64830E+06    -35.7315E+06    -208.863E+03     48.4000E+03    -16.5026E-03     32.1041E-03    -15.6015E-03     56.3186E-03    -16.4977E-03     31.9601E-03    -15.5455E-03     56.2903E-03
            1495     11.5197E-03     49.8104E-03    -4.31551E+06    -41.5672E+06    -2.07520E+06     193.390E+03    -16.3295E-03     31.9212E-03    -15.5917E-03     49.3604E-03    -16.3048E-03     31.7396E-03    -15.5355E-03     49.3412E-03
            1496     10.6336E-03     49.7665E-03    -4.92116E+06    -53.1221E+06    -3.56492E+06     609.266E+03    -16.2218E-03     31.8129E-03    -15.5911E-03     44.8346E-03    -16.1750E-03     31.5703E-03    -15.5247E-03     44.8261E-03
            1497     9.74760E-03     49.7269E-03    -5.16440E+06    -57.5227E+06     471.109E+03     675.755E+03    -16.0964E-03     31.7040E-03    -15.6076E-03     40.4866E-03    -16.0463E-03     31.4301E-03    -15.5144E-03     40.4831E-03
            1498     8.86151E-03     49.6911E-03    -4.63514E+06    -55.3994E+06     1.74552E+06     477.960E+03    -15.9907E-03     31.5912E-03    -15.6004E-03     36.1974E-03    -15.9405E-03     31.3228E-03    -15.5047E-03     36.1944E-03
            1499     7.97548E-03     49.6595E-03    -4.19201E+06    -59.0345E+06     2.65616E+06     718.548E+03    -15.8982E-03     31.4984E-03    -15.6003E-03     31.9223E-03    -15.8402E-03     31.2084E-03    -15.4953E-03     31.9247E-03
            1500     7.08934E-03     49.6317E-03    -5.32776E+06    -60.8722E+06     355.510E+03     934.830E+03    -15.8010E-03     31.3863E-03    -15.5852E-03     27.7898E-03    -15.7418E-03     31.0910E-03    -15.4875E-03     27.7965E-03
            1501     6.20323E-03     49.6076E-03    -7.16367E+06    -60.1776E+06    -1.45217E+06     752.037E+03    -15.7216E-03     31.2932E-03    -15.5716E-03     23.8147E-03    -15.6693E-03     31.0060E-03    -15.4812E-03     23.8203E-03
            1502     5.31707E-03     49.5872E-03    -8.21900E+06    -62.8181E+06    -830.375E+03     374.385E+03    -15.6734E-03     31.2468E-03    -15.5734E-03     19.9746E-03    -15.6230E-03     30.9466E-03    -15.4745E-03     19.9761E-03
            1503     4.43095E-03     49.5703E-03    -8.93597E+06    -61.3085E+06    -2.42454E+06     349.069E+03    -15.6123E-03     31.1701E-03    -15.5578E-03     16.3586E-03    -15.5651E-03     30.8806E-03    -15.4681E-03     16.3605E-03
            1504     3.54475E-03     49.5566E-03    -10.1570E+06    -59.9029E+06    -5.76036E+06     321.469E+03    -15.5601E-03     31.0973E-03    -15.5372E-03     12.9190E-03    -15.5160E-03     30.8212E-03    -15.4644E-03     12.9212E-03
            1505     2.65856E-03     49.5461E-03    -11.4787E+06    -62.2470E+06    -8.26152E+06         199.992    -15.5381E-03     31.0660E-03    -15.5279E-03     9.60975E-03    -15.4934E-03     30.7836E-03    -15.4623E-03     9.60833E-03
            1506     1.77240E-03     49.5386E-03    -12.2848E+06    -64.3682E+06    -10.7375E+06     12.9009E+03    -15.5177E-03     31.0372E-03    -15.5194E-03     6.42468E-03    -15.4703E-03     30.7488E-03    -15.4620E-03     6.42391E-03
            1507     886.160E-06     49.5341E-03    -12.9827E+06    -65.9143E+06    -12.6351E+06        -52.1406    -15.5159E-03     31.0293E-03    -15.5134E-03     3.46683E-03    -15.4669E-03     30.7370E-03    -15.4622E-03     3.46632E-03
            1508     16.8356E-03     49.3676E-03    -3.57067E+06     150.340E+06     45.1786E+06     154.357E+03    -25.4597E-03     41.0337E-03    -15.5740E-03     239.252E-03    -31.2663E-03     47.2303E-03    -15.5609E-03     243.528E-03
            1509     15.9502E-03     49.1712E-03    -5.06910E+06     84.7061E+06    -11.3164E+06     34.6258E+03    -21.3879E-03     36.7795E-03    -15.3916E-03     166.338E-03    -23.2411E-03     38.9482E-03    -15.5637E-03     166.885E-03
            1510     15.0637E-03     49.0554E-03    -3.99512E+06     23.5007E+06    -10.9702E+06     496.136E+03    -17.9852E-03     33.4640E-03    -15.4788E-03     97.6698E-03    -18.2923E-03     33.8722E-03    -15.5620E-03     97.6516E-03
            1511     14.1778E-03     48.9893E-03    -2.33501E+06    -16.8454E+06    -10.3645E+06     749.119E+03    -16.6843E-03     32.2161E-03    -15.5318E-03     63.6105E-03    -16.7349E-03     32.2286E-03    -15.5558E-03     63.5778E-03
            1512     13.2917E-03     48.9368E-03    -2.44240E+06    -33.3904E+06    -7.36235E+06     881.070E+03    -16.5757E-03     32.1382E-03    -15.5624E-03     58.5300E-03    -16.5739E-03     32.0305E-03    -15.5473E-03     58.5045E-03
            1513     12.4058E-03     48.8802E-03    -3.72761E+06    -35.1002E+06     810.262E+03     980.880E+03    -16.5172E-03     32.1144E-03    -15.5973E-03     56.1785E-03    -16.5151E-03     31.9722E-03    -15.5369E-03     56.1622E-03
            1514     11.5197E-03     48.8321E-03    -4.66192E+06    -41.5482E+06    -1.89871E+06     432.610E+03    -16.3200E-03     31.9033E-03    -15.5832E-03     49.2682E-03    -16.2973E-03     31.7220E-03    -15.5257E-03     49.2521E-03
            1515     10.6338E-03     48.7884E-03    -4.39629E+06    -53.4832E+06    -2.82961E+06     402.628E+03    -16.2267E-03     31.8106E-03    -15.5839E-03     44.7512E-03    -16.1778E-03     31.5644E-03    -15.5141E-03     44.7400E-03
            1516     9.74769E-03     48.7487E-03    -4.03039E+06    -56.8167E+06     1.26971E+06     115.851E+03    -16.0988E-03     31.6960E-03    -15.5971E-03     40.4172E-03    -16.0453E-03     31.4227E-03    -15.5025E-03     40.4066E-03
            1517     8.86165E-03     48.7131E-03    -4.39632E+06    -55.4371E+06     1.54022E+06    -315.593E+03    -15.9855E-03     31.5718E-03    -15.5863E-03     36.1367E-03    -15.9337E-03     31.3032E-03    -15.4919E-03     36.1235E-03
            1518     7.97554E-03     48.6813E-03    -5.43890E+06    -60.2144E+06     2.33096E+06     596.072E+03    -15.9020E-03     31.4897E-03    -15.5877E-03     31.8384E-03    -15.8481E-03     31.1960E-03    -15.4809E-03     31.8391E-03
            1519     7.08949E-03     48.6537E-03    -6.67387E+06    -60.8727E+06     1.56939E+06     1.75900E+06    -15.8055E-03     31.3810E-03    -15.5755E-03     27.7013E-03    -15.7548E-03     31.0859E-03    -15.4697E-03     27.7187E-03
            1520     6.20333E-03     48.6296E-03    -7.80061E+06    -58.8918E+06    -1.18159E+06     1.18177E+06    -15.7101E-03     31.2612E-03    -15.5511E-03     23.7606E-03    -15.6632E-03     30.9810E-03    -15.4603E-03     23.7717E-03
            1521     5.31721E-03     48.6092E-03    -8.82258E+06    -62.1239E+06    -2.39069E+06    -77.5988E+03    -15.6469E-03     31.1906E-03    -15.5437E-03     19.9490E-03    -15.5983E-03     30.8971E-03    -15.4528E-03     19.9447E-03
            1522     4.43101E-03     48.5923E-03    -9.76158E+06    -61.9341E+06    -3.27272E+06    -107.396E+03    -15.5946E-03     31.1281E-03    -15.5335E-03     16.3251E-03    -15.5493E-03     30.8378E-03    -15.4459E-03     16.3211E-03
            1523     3.54485E-03     48.5787E-03    -10.5031E+06    -59.4507E+06    -5.60766E+06     237.993E+03    -15.5433E-03     31.0569E-03    -15.5137E-03     12.8827E-03    -15.5017E-03     30.7834E-03    -15.4403E-03     12.8839E-03
            1524     2.65865E-03     48.5682E-03    -11.3568E+06    -62.0935E+06    -8.35587E+06     81.2774E+03    -15.5119E-03     31.0138E-03    -15.5019E-03     9.58319E-03    -15.4667E-03     30.7321E-03    -15.4372E-03     9.58282E-03
            1525     1.77243E-03     48.5608E-03    -12.4692E+06    -64.4323E+06    -10.9164E+06     43.0481E+03    -15.4941E-03     30.9874E-03    -15.4933E-03     6.40511E-03    -15.4473E-03     30.6993E-03    -15.4364E-03     6.40473E-03
            1526     886.228E-06     48.5562E-03    -13.0675E+06    -65.7967E+06    -12.7724E+06     135.985E+03    -15.4770E-03     30.9756E-03    -15.4986E-03     3.48043E-03    -15.4284E-03     30.6842E-03    -15.4481E-03     3.48168E-03
            1527     16.8367E-03     48.3888E-03    -3.90490E+06     150.840E+06     46.1294E+06     56.9133E+03    -25.4510E-03     41.0217E-03    -15.5706E-03     239.243E-03    -31.2536E-03     47.2121E-03    -15.5530E-03     243.506E-03
            1528     15.9496E-03     48.1933E-03    -4.91994E+06     84.6375E+06    -10.5005E+06    -84.8925E+03    -21.3492E-03     36.7381E-03    -15.3889E-03     166.474E-03    -23.1973E-03     38.8997E-03    -15.5570E-03     167.020E-03
            1529     15.0638E-03     48.0767E-03    -4.51470E+06     22.8052E+06    -11.7683E+06    -354.795E+03    -18.0126E-03     33.4830E-03    -15.4704E-03     97.8415E-03    -18.3202E-03     33.8897E-03    -15.5558E-03     97.8122E-03
            1530     14.1778E-03     48.0111E-03    -4.05902E+06    -17.3266E+06    -10.6955E+06     190.267E+03    -16.7401E-03     32.2643E-03    -15.5242E-03     63.5104E-03    -16.7981E-03     32.2774E-03    -15.5467E-03     63.4703E-03
            1531     13.2919E-03     47.9585E-03    -3.62374E+06    -34.1911E+06    -6.98789E+06     1.71756E+06    -16.5888E-03     32.1434E-03    -15.5546E-03     58.5437E-03    -16.5923E-03     32.0329E-03    -15.5347E-03     58.5291E-03
            1532     12.4059E-03     47.9019E-03    -3.69445E+06     -33.726E+06     2.33833E+06     1.52475E+06    -16.4828E-03     32.0726E-03    -15.5898E-03     56.0910E-03    -16.4847E-03     31.9349E-03    -15.5239E-03     56.0818E-03
            1533     11.5199E-03     47.8540E-03    -3.63763E+06    -40.7750E+06    -731.966E+03     186.794E+03    -16.3125E-03     31.8862E-03    -15.5738E-03     49.1956E-03    -16.2873E-03     31.7056E-03    -15.5130E-03     49.1764E-03
            1534     10.6339E-03     47.8102E-03    -3.42871E+06    -53.8126E+06    -2.19080E+06    -150.884E+03    -16.2351E-03     31.8076E-03    -15.5724E-03     44.6697E-03    -16.1818E-03     31.5574E-03    -15.5004E-03     44.6514E-03
            1535     9.74789E-03     47.7707E-03    -3.46731E+06    -55.9930E+06     1.94487E+06    -283.911E+03    -16.1060E-03     31.6889E-03    -15.5829E-03     40.3383E-03    -16.0518E-03     31.4180E-03    -15.4869E-03     40.3225E-03
            1536     8.86178E-03     47.7349E-03    -4.03930E+06    -56.1585E+06     2.34359E+06    -45.4472E+03    -15.9854E-03     31.5587E-03    -15.5733E-03     36.0525E-03    -15.9319E-03     31.2848E-03    -15.4743E-03     36.0428E-03
            1537     7.97573E-03     47.7033E-03    -5.04547E+06    -61.5332E+06     2.84639E+06     996.544E+03    -15.8993E-03     31.4717E-03    -15.5724E-03     31.7523E-03    -15.8423E-03     31.1701E-03    -15.4616E-03     31.7582E-03
            1538     7.08961E-03     47.6756E-03    -5.77173E+06    -60.9224E+06     2.62033E+06     1.43212E+06    -15.8047E-03     31.3630E-03    -15.5583E-03     27.6186E-03    -15.7509E-03     31.0648E-03    -15.4485E-03     27.6317E-03
            1539     6.20353E-03     47.6517E-03    -6.23040E+06    -57.4192E+06     176.757E+03     1.15717E+06    -15.7001E-03     31.2305E-03    -15.5304E-03     23.6887E-03    -15.6494E-03     30.9534E-03    -15.4372E-03     23.6995E-03
            1540     5.31730E-03     47.6313E-03    -7.51911E+06    -61.1630E+06    -1.54412E+06     406.861E+03    -15.6330E-03     31.1533E-03    -15.5202E-03     19.8876E-03    -15.5805E-03     30.8614E-03    -15.4284E-03     19.8896E-03
            1541     4.43114E-03     47.6145E-03    -9.25959E+06    -62.2901E+06    -3.14385E+06    -148.705E+03    -15.5749E-03     31.0835E-03    -15.5086E-03     16.2710E-03    -15.5268E-03     30.7905E-03    -15.4205E-03     16.2665E-03
            1542     3.54494E-03     47.6008E-03    -10.6648E+06    -59.5624E+06    -6.23711E+06    -35.4854E+03    -15.5178E-03     31.0030E-03    -15.4852E-03     12.8458E-03    -15.4760E-03     30.7300E-03    -15.4145E-03     12.8434E-03
            1543     2.65871E-03     47.5905E-03    -11.8579E+06    -61.9962E+06    -8.95157E+06     254.321E+03    -15.4848E-03     30.9584E-03    -15.4736E-03     9.55029E-03    -15.4414E-03     30.6788E-03    -15.4113E-03     9.55216E-03
            1544     1.77247E-03     47.5829E-03    -12.7983E+06    -64.3016E+06    -11.3032E+06     203.465E+03    -15.4669E-03     30.9325E-03    -15.4656E-03     6.39086E-03    -15.4213E-03     30.6461E-03    -15.4104E-03     6.39255E-03
            1545     886.234E-06     47.5785E-03    -13.4575E+06    -65.6111E+06    -13.0224E+06     125.397E+03    -15.4548E-03     30.9206E-03    -15.4658E-03     3.46681E-03    -15.4081E-03     30.6311E-03    -15.4163E-03     3.46793E-03
            1546     16.8356E-03     47.4102E-03    -3.43720E+06     151.009E+06     46.4689E+06     260.351E+03    -25.5429E-03     41.1205E-03    -15.5776E-03     239.299E-03    -31.3528E-03     47.3196E-03    -15.5593E-03     243.566E-03
            1547     15.9502E-03     47.2151E-03    -5.13912E+06     85.1317E+06    -10.0583E+06     30.1041E+03    -21.5360E-03     36.9249E-03    -15.3889E-03     166.143E-03    -23.3837E-03     39.0858E-03    -15.5552E-03     166.682E-03
            1548     15.0638E-03     47.0983E-03    -5.35369E+06     22.6090E+06    -12.0730E+06    -97.9781E+03    -18.0069E-03     33.4691E-03    -15.4622E-03     97.7706E-03    -18.3176E-03     33.8761E-03    -15.5476E-03     97.7445E-03
            1549     14.1780E-03     47.0327E-03    -5.45595E+06    -18.2845E+06    -11.3987E+06     289.334E+03    -16.7365E-03     32.2517E-03    -15.5152E-03     63.4165E-03    -16.7988E-03     32.2629E-03    -15.5378E-03     63.3776E-03
            1550     13.2921E-03     46.9802E-03    -4.66033E+06    -34.7317E+06    -8.61904E+06     642.155E+03    -16.6132E-03     32.1514E-03    -15.5383E-03     58.5472E-03    -16.6186E-03     32.0420E-03    -15.5243E-03     58.5187E-03
            1551     12.4061E-03     46.9237E-03    -2.76392E+06    -32.7705E+06     1.82250E+06     512.792E+03    -16.4937E-03     32.0659E-03    -15.5722E-03     56.1520E-03    -16.4915E-03     31.9322E-03    -15.5116E-03     56.1298E-03
            1552     11.5200E-03     46.8757E-03    -2.44637E+06    -40.0421E+06    -388.665E+03     339.937E+03    -16.3328E-03     31.8914E-03    -15.5585E-03     49.1289E-03    -16.3033E-03     31.7121E-03    -15.4989E-03     49.1117E-03
            1553     10.6341E-03     46.8321E-03    -3.20600E+06    -53.8331E+06    -2.75412E+06     83.0852E+03    -16.2382E-03     31.7914E-03    -15.5532E-03     44.6122E-03    -16.1828E-03     31.5415E-03    -15.4842E-03     44.5969E-03
            1554     9.74801E-03     46.7925E-03    -4.26103E+06    -55.8106E+06     1.33339E+06     53.6698E+03    -16.1079E-03     31.6706E-03    -15.5627E-03     40.2694E-03    -16.0570E-03     31.4026E-03    -15.4689E-03     40.2579E-03
            1555     8.86201E-03     46.7569E-03    -5.74154E+06    -57.0519E+06     1.52140E+06     490.808E+03    -15.9846E-03     31.5371E-03    -15.5525E-03     35.9738E-03    -15.9372E-03     31.2623E-03    -15.4538E-03     35.9710E-03
            1556     7.97589E-03     46.7253E-03    -6.60252E+06    -61.7951E+06     1.23113E+06     656.966E+03    -15.8837E-03     31.4281E-03    -15.5444E-03     31.7055E-03    -15.8318E-03     31.1298E-03    -15.4390E-03     31.7071E-03
            1557     7.08983E-03     46.6976E-03    -6.70837E+06    -60.7445E+06     984.272E+03     517.316E+03    -15.7850E-03     31.3124E-03    -15.5274E-03     27.5712E-03    -15.7338E-03     31.0189E-03    -15.4247E-03     27.5726E-03
            1558     6.20362E-03     46.6737E-03    -7.01233E+06    -57.2320E+06     110.019E+03     705.522E+03    -15.6886E-03     31.1939E-03    -15.5053E-03     23.6165E-03    -15.6421E-03     30.9190E-03    -15.4116E-03     23.6215E-03
            1559     5.31749E-03     46.6534E-03    -7.49674E+06    -60.1792E+06    -1.19494E+06     645.904E+03    -15.6162E-03     31.1085E-03    -15.4924E-03     19.8178E-03    -15.5655E-03     30.8211E-03    -15.4002E-03     19.8229E-03
            1560     4.43128E-03     46.6366E-03    -8.59548E+06    -62.2368E+06    -3.18049E+06     361.364E+03    -15.5480E-03     31.0261E-03    -15.4781E-03     16.2059E-03    -15.4967E-03     30.7325E-03    -15.3913E-03     16.2080E-03
            1561     3.54502E-03     46.6231E-03    -10.2408E+06    -59.6804E+06    -6.26887E+06     388.944E+03    -15.4886E-03     30.9443E-03    -15.4556E-03     12.7959E-03    -15.4445E-03     30.6701E-03    -15.3856E-03     12.7990E-03
            1562     2.65878E-03     46.6126E-03    -11.5036E+06    -61.8862E+06    -8.59170E+06     286.360E+03    -15.4627E-03     30.9077E-03    -15.4449E-03     9.49710E-03    -15.4182E-03     30.6276E-03    -15.3815E-03     9.49940E-03
            1563     1.77254E-03     46.6053E-03    -12.3306E+06    -64.0349E+06    -10.8752E+06     255.714E+03    -15.4398E-03     30.8747E-03    -15.4348E-03     6.35916E-03    -15.3929E-03     30.5882E-03    -15.3785E-03     6.36153E-03
            1564     886.254E-06     46.6006E-03    -12.8064E+06    -65.3655E+06    -12.5904E+06     134.181E+03    -15.4413E-03     30.8582E-03    -15.4169E-03     3.43735E-03    -15.3923E-03     30.5684E-03    -15.3665E-03     3.43858E-03
            1565     16.8357E-03     46.4309E-03    -4.18788E+06     150.875E+06     46.9672E+06     143.932E+03    -25.5106E-03     41.0950E-03    -15.5844E-03     239.233E-03    -31.3232E-03     47.2922E-03    -15.5623E-03     243.497E-03
            1566     15.9500E-03     46.2363E-03    -5.44758E+06     85.8242E+06    -9.33078E+06     220.953E+03    -21.6717E-03     37.0630E-03    -15.3913E-03     165.897E-03    -23.5210E-03     39.2247E-03    -15.5545E-03     166.435E-03
            1567     15.0643E-03     46.1205E-03    -5.11724E+06     22.2938E+06    -12.3468E+06     462.409E+03    -18.1156E-03     33.5679E-03    -15.4523E-03     97.6565E-03    -18.4240E-03     33.9732E-03    -15.5390E-03     97.6367E-03
            1568     14.1781E-03     46.0540E-03    -4.45625E+06    -18.5824E+06    -11.3006E+06     314.123E+03    -16.6728E-03     32.1772E-03    -15.5043E-03     63.4286E-03    -16.7296E-03     32.1849E-03    -15.5274E-03     63.3904E-03
            1569     13.2921E-03     46.0023E-03    -3.45744E+06    -34.0255E+06    -9.14438E+06    -629.533E+03    -16.6303E-03     32.1539E-03    -15.5236E-03     58.4828E-03    -16.6298E-03     32.0469E-03    -15.5150E-03     58.4378E-03
            1570     12.4061E-03     45.9452E-03    -3.26436E+06    -33.5697E+06     445.874E+03    -499.440E+03    -16.5433E-03     32.0982E-03    -15.5549E-03     56.0993E-03    -16.5404E-03     31.9632E-03    -15.4993E-03     56.0640E-03
            1571     11.5203E-03     45.8976E-03    -3.38881E+06     -40.236E+06    -733.554E+03     616.568E+03    -16.3365E-03     31.8794E-03    -15.5430E-03     49.0147E-03    -16.3108E-03     31.7010E-03    -15.4834E-03     49.0011E-03
            1572     10.6342E-03     45.8539E-03    -3.73501E+06    -53.2791E+06    -2.84222E+06     679.881E+03    -16.2463E-03     31.7813E-03    -15.5349E-03     44.5382E-03    -16.1942E-03     31.5350E-03    -15.4665E-03     44.5307E-03
            1573     9.74826E-03     45.8145E-03    -4.38867E+06    -56.2621E+06     1.05505E+06     712.508E+03    -16.1123E-03     31.6542E-03    -15.5419E-03     40.1728E-03    -16.0610E-03     31.3845E-03    -15.4487E-03     40.1699E-03
            1574     8.86214E-03     45.7788E-03    -5.05462E+06    -57.0470E+06     1.61184E+06     883.922E+03    -15.9871E-03     31.5165E-03    -15.5294E-03     35.8819E-03    -15.9364E-03     31.2406E-03    -15.4313E-03     35.8843E-03
            1575     7.97613E-03     45.7474E-03    -6.11195E+06    -61.5611E+06     1.35340E+06     684.561E+03    -15.8785E-03     31.3977E-03    -15.5191E-03     31.6124E-03    -15.8246E-03     31.0996E-03    -15.4143E-03     31.6144E-03
            1576     7.08993E-03     45.7197E-03    -7.63035E+06    -60.1971E+06     38.3298E+03     266.093E+03    -15.7696E-03     31.2659E-03    -15.4963E-03     27.4967E-03    -15.7224E-03     30.9778E-03    -15.3978E-03     27.4949E-03
            1577     6.20387E-03     45.6959E-03    -8.21518E+06    -57.2848E+06    -933.289E+03    -338.975E+03    -15.6709E-03     31.1437E-03    -15.4728E-03     23.5396E-03    -15.6288E-03     30.8718E-03    -15.3824E-03     23.5312E-03
            1578     5.31764E-03     45.6756E-03    -8.43765E+06    -60.5366E+06    -2.22426E+06     162.228E+03    -15.5892E-03     31.0473E-03    -15.4581E-03     19.7465E-03    -15.5412E-03     30.7609E-03    -15.3692E-03     19.7454E-03
            1579     4.43140E-03     45.6589E-03    -9.41392E+06    -61.9734E+06    -3.70648E+06     762.523E+03    -15.5233E-03     30.9667E-03    -15.4434E-03     16.1378E-03    -15.4756E-03     30.6764E-03    -15.3584E-03     16.1451E-03
            1580     3.54517E-03     45.6453E-03    -10.4142E+06    -59.3791E+06    -5.87032E+06     468.934E+03    -15.4632E-03     30.8850E-03    -15.4218E-03     12.7317E-03    -15.4209E-03     30.6120E-03    -15.3500E-03     12.7359E-03
            1581     2.65888E-03     45.6349E-03    -11.2420E+06    -61.6353E+06    -8.39093E+06     281.515E+03    -15.4304E-03     30.8375E-03    -15.4071E-03     9.44419E-03    -15.3852E-03     30.5579E-03    -15.3434E-03     9.44643E-03
            1582     1.77260E-03     45.6275E-03    -12.0747E+06    -63.8638E+06    -10.5363E+06     174.597E+03    -15.4101E-03     30.8041E-03    -15.3940E-03     6.31241E-03    -15.3627E-03     30.5176E-03    -15.3365E-03     6.31374E-03
            1583     886.314E-06     45.6231E-03    -12.5389E+06    -65.0911E+06    -12.1174E+06     107.404E+03    -15.4030E-03     30.7702E-03    -15.3672E-03     3.41888E-03    -15.3538E-03     30.4806E-03    -15.3152E-03     3.41977E-03
            1584     16.8363E-03     45.4534E-03    -3.78895E+06     150.778E+06     46.7445E+06     552.932E+03    -25.4926E-03     41.0662E-03    -15.5735E-03     239.031E-03    -31.2779E-03     47.2377E-03    -15.5529E-03     243.289E-03
            1585     15.9495E-03     45.2570E-03    -5.15215E+06     86.0929E+06    -9.37253E+06     455.764E+03    -21.5154E-03     36.9008E-03    -15.3854E-03     165.840E-03    -23.3603E-03     39.0602E-03    -15.5496E-03     166.385E-03
            1586     15.0643E-03     45.1419E-03    -5.07238E+06     22.0992E+06    -12.5123E+06     89.3119E+03    -18.1671E-03     33.6163E-03    -15.4492E-03     97.3499E-03    -18.4736E-03     34.0195E-03    -15.5365E-03     97.3246E-03
            1587     14.1783E-03     45.0762E-03    -4.18181E+06    -17.9119E+06    -11.3134E+06    -236.724E+03    -16.7819E-03     32.2765E-03    -15.4946E-03     63.5252E-03    -16.8383E-03     32.2873E-03    -15.5192E-03     63.4795E-03
            1588     13.2923E-03     45.0236E-03    -3.44256E+06    -33.2473E+06    -8.93963E+06    -617.255E+03    -16.6748E-03     32.1844E-03    -15.5096E-03     58.3661E-03    -16.6757E-03     32.0810E-03    -15.5011E-03     58.3212E-03
            1589     12.4065E-03     44.9671E-03    -3.81728E+06    -34.8342E+06     6.66881E+03    -290.480E+03    -16.5359E-03     32.0747E-03    -15.5388E-03     55.9371E-03    -16.5331E-03     31.9347E-03    -15.4827E-03     55.9046E-03
            1590     11.5204E-03     44.9193E-03    -4.16775E+06    -40.9044E+06    -960.611E+03     316.104E+03    -16.3409E-03     31.8667E-03    -15.5258E-03     48.9536E-03    -16.3177E-03     31.6863E-03    -15.4653E-03     48.9361E-03
            1591     10.6345E-03     44.8758E-03    -3.93246E+06    -52.9690E+06    -2.55066E+06     716.664E+03    -16.2649E-03     31.7802E-03    -15.5153E-03     44.4153E-03    -16.2146E-03     31.5353E-03    -15.4455E-03     44.4083E-03
            1592     9.74843E-03     44.8363E-03    -3.89917E+06    -56.4297E+06     1.47253E+06     715.141E+03    -16.1163E-03     31.6357E-03    -15.5195E-03     40.0583E-03    -16.0628E-03     31.3638E-03    -15.4246E-03     40.0555E-03
            1593     8.86244E-03     44.8008E-03    -4.13227E+06    -56.8119E+06     2.24431E+06     652.670E+03    -15.9899E-03     31.4940E-03    -15.5041E-03     35.7694E-03    -15.9358E-03     31.2170E-03    -15.4045E-03     35.7688E-03
            1594     7.97630E-03     44.7694E-03    -4.44473E+06    -61.6238E+06     3.20407E+06     884.106E+03    -15.8833E-03     31.3794E-03    -15.4962E-03     31.4743E-03    -15.8236E-03     31.0759E-03    -15.3843E-03     31.4789E-03
            1595     7.09026E-03     44.7418E-03    -4.67121E+06    -58.7461E+06     1.56499E+06     237.265E+03    -15.7599E-03     31.2250E-03    -15.4651E-03     27.3857E-03    -15.7022E-03     30.9376E-03    -15.3653E-03     27.3835E-03
            1596     6.20401E-03     44.7180E-03    -5.67147E+06    -57.4628E+06    -296.960E+03    -377.776E+03    -15.6512E-03     31.0901E-03    -15.4389E-03     23.4419E-03    -15.5971E-03     30.8127E-03    -15.3488E-03     23.4329E-03
            1597     5.31782E-03     44.6979E-03    -7.65592E+06    -61.9398E+06    -989.342E+03     551.159E+03    -15.5762E-03     31.0059E-03    -15.4298E-03     19.6400E-03    -15.5240E-03     30.7096E-03    -15.3338E-03     19.6439E-03
            1598     4.43159E-03     44.6811E-03    -9.30270E+06    -61.1210E+06    -3.11354E+06     784.759E+03    -15.5010E-03     30.9070E-03    -15.4061E-03     16.0565E-03    -15.4549E-03     30.6199E-03    -15.3195E-03     16.0641E-03
            1599     3.54531E-03     44.6677E-03    -10.5082E+06    -59.0908E+06    -5.95690E+06     304.089E+03    -15.4331E-03     30.8117E-03    -15.3786E-03     12.6600E-03    -15.3917E-03     30.5404E-03    -15.3074E-03     12.6620E-03
            1600     2.65901E-03     44.6573E-03    -11.6444E+06    -61.4534E+06    -8.38279E+06     241.590E+03    -15.3903E-03     30.7521E-03    -15.3619E-03     9.39701E-03    -15.3474E-03     30.4741E-03    -15.2978E-03     9.39875E-03
            1601     1.77269E-03     44.6500E-03    -12.5542E+06    -63.5989E+06    -10.9116E+06     129.544E+03    -15.3651E-03     30.7092E-03    -15.3440E-03     6.27050E-03    -15.3199E-03     30.4253E-03    -15.2882E-03     6.27126E-03
            1602     886.361E-06     44.6454E-03    -13.1668E+06    -64.9993E+06    -12.7703E+06    -60.3435E+03    -15.3324E-03     30.6657E-03    -15.3333E-03     3.39293E-03    -15.2855E-03     30.3784E-03    -15.2838E-03     3.39165E-03
            1603     16.8362E-03     44.4751E-03    -4.02475E+06     150.330E+06     46.3700E+06     429.875E+03    -25.7586E-03     41.3235E-03    -15.5649E-03     238.824E-03    -31.5373E-03     47.4871E-03    -15.5452E-03     243.057E-03
            1604     15.9507E-03     44.2787E-03    -4.51540E+06     85.7762E+06    -9.47044E+06     559.777E+03    -21.4827E-03     36.8518E-03    -15.3691E-03     165.550E-03    -23.3199E-03     39.0049E-03    -15.5343E-03     166.091E-03
            1605     15.0639E-03     44.1634E-03    -3.76711E+06     22.9301E+06    -11.6340E+06     93.2718E+03    -17.9922E-03     33.4319E-03    -15.4398E-03     97.0672E-03    -18.2917E-03     33.8332E-03    -15.5257E-03     97.0434E-03
            1606     14.1782E-03     44.0976E-03    -3.99876E+06    -17.0139E+06    -10.9700E+06    -323.377E+03    -16.8816E-03     32.3666E-03    -15.4850E-03     63.3319E-03    -16.9390E-03     32.3812E-03    -15.5094E-03     63.2847E-03
            1607     13.2928E-03     44.0453E-03    -4.04968E+06    -33.5360E+06    -9.36706E+06    -289.984E+03    -16.6977E-03     32.1916E-03    -15.4939E-03     58.3156E-03    -16.7005E-03     32.0881E-03    -15.4863E-03     58.2749E-03
            1608     12.4066E-03     43.9890E-03    -4.15139E+06    -35.2149E+06    -395.492E+03    -61.6586E+03    -16.5504E-03     32.0709E-03    -15.5205E-03     55.9234E-03    -16.5480E-03     31.9299E-03    -15.4654E-03     55.8938E-03
            1609     11.5207E-03     43.9411E-03    -4.39264E+06    -41.3175E+06    -1.40904E+06     111.084E+03    -16.3788E-03     31.8824E-03    -15.5037E-03     48.8890E-03    -16.3554E-03     31.7009E-03    -15.4445E-03     48.8689E-03
            1610     10.6347E-03     43.8976E-03    -4.45625E+06    -53.1783E+06    -3.01659E+06     340.945E+03    -16.2716E-03     31.7610E-03    -15.4894E-03     44.2967E-03    -16.2229E-03     31.5164E-03    -15.4209E-03     44.2849E-03
            1611     9.74877E-03     43.8583E-03    -4.68525E+06    -56.3304E+06     1.06646E+06     548.778E+03    -16.1207E-03     31.6113E-03    -15.4906E-03     39.9594E-03    -16.0707E-03     31.3416E-03    -15.3968E-03     39.9544E-03
            1612     8.86267E-03     43.8228E-03    -5.49604E+06    -56.8187E+06     1.19528E+06     625.948E+03    -15.9829E-03     31.4526E-03    -15.4697E-03     35.6686E-03    -15.9340E-03     31.1790E-03    -15.3733E-03     35.6677E-03
            1613     7.97666E-03     43.7915E-03    -5.71596E+06    -60.7742E+06     1.34427E+06    -255.928E+03    -15.8662E-03     31.3197E-03    -15.4535E-03     31.4028E-03    -15.8114E-03     31.0250E-03    -15.3504E-03     31.3928E-03
            1614     7.09046E-03     43.7640E-03    -5.39582E+06    -58.6535E+06     109.589E+03    -503.024E+03    -15.7384E-03     31.1607E-03    -15.4223E-03     27.2980E-03    -15.6823E-03     30.8770E-03    -15.3289E-03     27.2863E-03
            1615     6.20429E-03     43.7403E-03    -6.30101E+06    -58.3744E+06    -897.804E+03     857.186E+03    -15.6308E-03     31.0299E-03    -15.3991E-03     23.3262E-03    -15.5775E-03     30.7497E-03    -15.3098E-03     23.3332E-03
            1616     5.31805E-03     43.7201E-03    -7.85768E+06    -61.9736E+06    -741.106E+03     1.05814E+06    -15.5514E-03     30.9406E-03    -15.3892E-03     19.5299E-03    -15.5005E-03     30.6440E-03    -15.2917E-03     19.5404E-03
            1617     4.43180E-03     43.7035E-03    -9.03322E+06    -60.5667E+06    -2.60701E+06     689.404E+03    -15.4667E-03     30.8292E-03    -15.3625E-03     15.9753E-03    -15.4208E-03     30.5437E-03    -15.2746E-03     15.9817E-03
            1618     3.54548E-03     43.6900E-03    -10.2983E+06    -58.6390E+06    -5.71622E+06     503.820E+03    -15.3942E-03     30.7259E-03    -15.3317E-03     12.5875E-03    -15.3526E-03     30.4562E-03    -15.2603E-03     12.5922E-03
            1619     2.65914E-03     43.6798E-03    -11.5655E+06    -61.3005E+06    -8.10322E+06     175.908E+03    -15.3470E-03     30.6607E-03    -15.3137E-03     9.34465E-03    -15.3044E-03     30.3828E-03    -15.2485E-03     9.34554E-03
            1620     1.77278E-03     43.6724E-03    -12.5054E+06    -63.3643E+06    -10.7950E+06     87.0284E+03    -15.3134E-03     30.6076E-03    -15.2942E-03     6.23382E-03    -15.2684E-03     30.3246E-03    -15.2382E-03     6.23404E-03
            1621     886.399E-06     43.6680E-03    -13.0132E+06    -64.9377E+06    -12.9029E+06     24.4053E+03    -15.2798E-03     30.5661E-03    -15.2864E-03     3.32178E-03    -15.2319E-03     30.2792E-03    -15.2379E-03     3.32162E-03
            1622     16.8360E-03     43.4944E-03    -3.32222E+06     150.141E+06     46.2843E+06     255.827E+03    -25.8091E-03     41.3712E-03    -15.5621E-03     238.648E-03    -31.5778E-03     47.5268E-03    -15.5435E-03     242.860E-03
            1623     15.9507E-03     43.3011E-03    -4.69280E+06     85.8795E+06    -10.1919E+06     408.875E+03    -21.6379E-03     36.9953E-03    -15.3573E-03     165.402E-03    -23.4699E-03     39.1450E-03    -15.5260E-03     165.937E-03
            1624     15.0648E-03     43.1852E-03    -4.50270E+06     23.3739E+06    -12.0666E+06     404.907E+03    -18.0913E-03     33.5128E-03    -15.4216E-03     97.3070E-03    -18.3955E-03     33.9191E-03    -15.5093E-03     97.2864E-03
            1625     14.1787E-03     43.1190E-03    -4.01305E+06    -16.6521E+06    -11.0816E+06     64.4419E+03    -16.7523E-03     32.2202E-03    -15.4679E-03     63.2162E-03    -16.8093E-03     32.2360E-03    -15.4933E-03     63.1746E-03
            1626     13.2925E-03     43.0672E-03    -3.93484E+06    -33.7693E+06    -9.34071E+06    -193.966E+03    -16.6936E-03     32.1749E-03    -15.4813E-03     58.2347E-03    -16.6954E-03     32.0698E-03    -15.4733E-03     58.1953E-03
            1627     12.4069E-03     43.0106E-03    -3.82758E+06    -35.3514E+06    -244.300E+03     -93.196E+03    -16.6447E-03     32.1483E-03    -15.5037E-03     55.8338E-03    -16.6408E-03     32.0061E-03    -15.4481E-03     55.8036E-03
            1628     11.5210E-03     42.9629E-03    -4.10050E+06    -41.5251E+06    -1.83920E+06     211.777E+03    -16.4092E-03     31.8872E-03    -15.4780E-03     48.7449E-03    -16.3834E-03     31.7047E-03    -15.4210E-03     48.7261E-03
            1629     10.6350E-03     42.9195E-03    -4.49269E+06    -53.3513E+06    -3.72097E+06     404.630E+03    -16.2788E-03     31.7379E-03    -15.4592E-03     44.2038E-03    -16.2289E-03     31.4935E-03    -15.3939E-03     44.1929E-03
            1630     9.74901E-03     42.8802E-03    -5.13633E+06    -56.6898E+06     300.459E+03     770.003E+03    -16.1297E-03     31.5872E-03    -15.4575E-03     39.8368E-03    -16.0803E-03     31.3174E-03    -15.3664E-03     39.8347E-03
            1631     8.86303E-03     42.8449E-03    -5.40526E+06    -55.8514E+06     15.5670E+03     319.134E+03    -15.9764E-03     31.4049E-03    -15.4285E-03     35.5662E-03    -15.9267E-03     31.1377E-03    -15.3396E-03     35.5614E-03
            1632     7.97686E-03     42.8135E-03    -5.76193E+06    -59.5443E+06     267.966E+03    -799.141E+03    -15.8520E-03     31.2619E-03    -15.4098E-03     31.2896E-03    -15.7977E-03     30.9749E-03    -15.3138E-03     31.2725E-03
            1633     7.09076E-03     42.7862E-03    -7.59481E+06    -60.7694E+06    -693.336E+03     42.1032E+03    -15.7257E-03     31.1101E-03    -15.3844E-03     27.1490E-03    -15.6764E-03     30.8201E-03    -15.2887E-03     27.1444E-03
            1634     6.20455E-03     42.7625E-03    -9.11573E+06    -58.6290E+06    -2.53619E+06     1.05296E+06    -15.6025E-03     30.9534E-03    -15.3509E-03     23.2148E-03    -15.5606E-03     30.6783E-03    -15.2653E-03     23.2244E-03
            1635     5.31831E-03     42.7425E-03    -9.30846E+06    -60.8660E+06    -2.33924E+06     403.358E+03    -15.5109E-03     30.8448E-03    -15.3339E-03     19.4429E-03    -15.4666E-03     30.5582E-03    -15.2439E-03     19.4449E-03
            1636     4.43200E-03     42.7259E-03    -9.63413E+06    -60.8778E+06    -2.68379E+06     198.729E+03    -15.4259E-03     30.7390E-03    -15.3131E-03     15.8785E-03    -15.3824E-03     30.4530E-03    -15.2243E-03     15.8786E-03
            1637     3.54566E-03     42.7126E-03    -10.3836E+06    -58.1253E+06    -5.43600E+06     445.908E+03    -15.3459E-03     30.6260E-03    -15.2801E-03     12.4987E-03    -15.3060E-03     30.3586E-03    -15.2079E-03     12.5025E-03
            1638     2.65928E-03     42.7023E-03    -11.3531E+06    -60.9522E+06    -8.25353E+06     171.355E+03    -15.2955E-03     30.5541E-03    -15.2586E-03     9.26768E-03    -15.2521E-03     30.2780E-03    -15.1951E-03     9.26853E-03
            1639     1.77288E-03     42.6950E-03    -12.2748E+06    -63.3715E+06    -10.6435E+06     9.15096E+03    -15.2569E-03     30.4990E-03    -15.2421E-03     6.18446E-03    -15.2110E-03     30.2154E-03    -15.1856E-03     6.18368E-03
            1640     886.443E-06     42.6906E-03    -12.8994E+06    -64.7967E+06    -12.4645E+06     175.891E+03    -15.2428E-03     30.4649E-03    -15.2221E-03     3.28784E-03    -15.1953E-03     30.1778E-03    -15.1718E-03     3.28965E-03
            1641     16.8366E-03     42.5168E-03    -3.68746E+06     149.716E+06     46.2698E+06     199.045E+03    -25.7400E-03     41.3027E-03    -15.5627E-03     238.464E-03    -31.4968E-03     47.4438E-03    -15.5431E-03     242.674E-03
            1642     15.9498E-03     42.3216E-03    -4.97496E+06     85.9105E+06    -9.71536E+06     204.944E+03    -21.6724E-03     37.0321E-03    -15.3597E-03     165.088E-03    -23.4970E-03     39.1721E-03    -15.5256E-03     165.617E-03
            1643     15.0647E-03     42.2066E-03    -4.33743E+06     23.4877E+06    -12.2327E+06     247.321E+03    -18.2154E-03     33.6298E-03    -15.4143E-03     97.2082E-03    -18.5193E-03     34.0371E-03    -15.5033E-03     97.1844E-03
            1644     14.1787E-03     42.1410E-03    -3.63828E+06    -16.2577E+06    -11.2092E+06     333.945E+03    -16.8135E-03     32.2675E-03    -15.4540E-03     63.3698E-03    -16.8690E-03     32.2849E-03    -15.4812E-03     63.3315E-03
            1645     13.2930E-03     42.0888E-03    -3.53870E+06    -33.2777E+06    -9.46414E+06     31.3981E+03    -16.7760E-03     32.2378E-03    -15.4618E-03     58.1767E-03    -16.7763E-03     32.1349E-03    -15.4558E-03     58.1401E-03
            1646     12.4071E-03     42.0322E-03    -3.84579E+06    -35.9443E+06    -933.847E+03     92.5189E+03    -16.6716E-03     32.1499E-03    -15.4783E-03     55.6082E-03    -16.6658E-03     32.0055E-03    -15.4253E-03     55.5805E-03
            1647     11.5213E-03     41.9848E-03    -4.33133E+06    -41.6427E+06    -2.34128E+06     418.313E+03    -16.4183E-03     31.8680E-03    -15.4497E-03     48.5805E-03    -16.3927E-03     31.6859E-03    -15.3947E-03     48.5645E-03
            1648     10.6353E-03     41.9414E-03    -4.49320E+06    -53.4728E+06    -3.85172E+06     525.793E+03    -16.3016E-03     31.7302E-03    -15.4286E-03     44.0720E-03    -16.2514E-03     31.4853E-03    -15.3638E-03     44.0627E-03
            1649     9.74939E-03     41.9022E-03    -4.03784E+06    -56.6383E+06     499.511E+03     321.429E+03    -16.1415E-03     31.5639E-03    -15.4224E-03     39.6776E-03    -16.0869E-03     31.2924E-03    -15.3319E-03     39.6697E-03
            1650     8.86329E-03     41.8670E-03    -3.78434E+06    -54.7462E+06     982.843E+03    -180.539E+03    -15.9818E-03     31.3726E-03    -15.3908E-03     35.4040E-03    -15.9270E-03     31.1071E-03    -15.3010E-03     35.3928E-03
            1651     7.97726E-03     41.8357E-03    -5.13905E+06    -60.0930E+06     1.58208E+06     393.865E+03    -15.8490E-03     31.2224E-03    -15.3734E-03     31.1022E-03    -15.7926E-03     30.9299E-03    -15.2709E-03     31.1005E-03
            1652     7.09109E-03     41.8084E-03    -6.98258E+06    -61.8361E+06     1.02223E+06     1.13058E+06    -15.7152E-03     31.0613E-03    -15.3461E-03     26.9658E-03    -15.6637E-03     30.7626E-03    -15.2412E-03     26.9753E-03
            1653     6.20488E-03     41.7849E-03    -7.84695E+06    -57.6344E+06    -981.757E+03     479.107E+03    -15.5777E-03     30.8813E-03    -15.3037E-03     23.0667E-03    -15.5331E-03     30.6071E-03    -15.2136E-03     23.0688E-03
            1654     5.31857E-03     41.7649E-03    -8.53895E+06    -60.1732E+06    -1.90267E+06    -306.675E+03    -15.4751E-03     30.7540E-03    -15.2789E-03     19.3121E-03    -15.4286E-03     30.4691E-03    -15.1888E-03     19.3050E-03
            1655     4.43228E-03     41.7484E-03    -9.56361E+06    -61.4165E+06    -3.04847E+06    -299.237E+03    -15.3783E-03     30.6327E-03    -15.2543E-03     15.7618E-03    -15.3332E-03     30.3444E-03    -15.1667E-03     15.7555E-03
            1656     3.54588E-03     41.7351E-03    -10.5718E+06    -58.1726E+06    -5.93134E+06     81.0922E+03    -15.2867E-03     30.5060E-03    -15.2194E-03     12.4158E-03    -15.2469E-03     30.2394E-03    -15.1493E-03     12.4150E-03
            1657     2.65945E-03     41.7250E-03    -11.4912E+06    -60.5842E+06    -8.65290E+06     225.461E+03    -15.2347E-03     30.4327E-03    -15.1980E-03     9.19816E-03    -15.1919E-03     30.1591E-03    -15.1367E-03     9.19972E-03
            1658     1.77298E-03     41.7177E-03    -12.4957E+06    -63.3717E+06    -11.0232E+06     113.625E+03    -15.1958E-03     30.3790E-03    -15.1832E-03     6.13310E-03    -15.1505E-03     30.0963E-03    -15.1283E-03     6.13368E-03
            1659     886.483E-06     41.7134E-03    -13.1258E+06    -64.6284E+06    -12.6974E+06     54.6633E+03    -15.1784E-03     30.3497E-03    -15.1713E-03     3.27394E-03    -15.1319E-03     30.0641E-03    -15.1220E-03     3.27418E-03
            1660     16.8358E-03     41.5375E-03    -3.71524E+06     149.516E+06     46.3752E+06     107.385E+03    -25.9088E-03     41.4703E-03    -15.5616E-03     238.107E-03    -31.6631E-03     47.6078E-03    -15.5411E-03     242.309E-03
            1661     15.9512E-03     41.3432E-03    -4.58178E+06     85.8998E+06    -9.47024E+06    -23.9006E+03    -21.6878E-03     37.0391E-03    -15.3513E-03     164.616E-03    -23.5033E-03     39.1708E-03    -15.5165E-03     165.136E-03
            1662     15.0645E-03     41.2282E-03    -4.06342E+06     23.7241E+06    -11.9247E+06    -12.2333E+03    -18.1603E-03     33.5656E-03    -15.4053E-03     96.7709E-03    -18.4611E-03     33.9707E-03    -15.4934E-03     96.7440E-03
            1663     14.1788E-03     41.1626E-03    -3.31913E+06    -16.5832E+06    -10.9983E+06     165.892E+03    -16.9984E-03     32.4378E-03    -15.4394E-03     63.0803E-03    -17.0522E-03     32.4529E-03    -15.4656E-03     63.0391E-03
            1664     13.2933E-03     41.1102E-03    -3.35612E+06    -33.4218E+06    -8.46165E+06     913.578E+03    -16.8498E-03     32.2909E-03    -15.4411E-03     57.9376E-03    -16.8503E-03     32.1853E-03    -15.4300E-03     57.9121E-03
            1665     12.4075E-03     41.0541E-03    -4.50762E+06    -35.4627E+06    -156.506E+03     860.592E+03    -16.6320E-03     32.0851E-03    -15.4531E-03     55.3829E-03    -16.6310E-03     31.9427E-03    -15.3960E-03     55.3653E-03
            1666     11.5216E-03     41.0065E-03    -4.93881E+06    -41.5665E+06    -2.05597E+06     88.2192E+03    -16.4267E-03     31.8475E-03    -15.4208E-03     48.4381E-03    -16.4046E-03     31.6662E-03    -15.3636E-03     48.4179E-03
            1667     10.6357E-03     40.9633E-03    -4.18974E+06    -53.4672E+06    -3.19869E+06    -96.8958E+03    -16.3251E-03     31.7210E-03    -15.3958E-03     43.8903E-03    -16.2742E-03     31.4747E-03    -15.3282E-03     43.8730E-03
            1668     9.74974E-03     40.9242E-03    -3.81636E+06    -55.9580E+06     952.072E+03    -496.507E+03    -16.1503E-03     31.5331E-03    -15.3828E-03     39.5144E-03    -16.0962E-03     31.2640E-03    -15.2913E-03     39.4961E-03
            1669     8.86378E-03     40.8891E-03    -4.43672E+06    -55.5334E+06     1.48170E+06     13.7653E+03    -15.9842E-03     31.3338E-03    -15.3497E-03     35.2158E-03    -15.9322E-03     31.0646E-03    -15.2553E-03     35.2071E-03
            1670     7.97762E-03     40.8579E-03    -5.35045E+06    -61.1627E+06     2.17465E+06     1.23395E+06    -15.8404E-03     31.1676E-03    -15.3272E-03     30.9176E-03    -15.7843E-03     30.8691E-03    -15.2199E-03     30.9269E-03
            1671     7.09149E-03     40.8308E-03    -5.90611E+06    -60.8714E+06     2.31172E+06     923.659E+03    -15.6969E-03     30.9906E-03    -15.2937E-03     26.7941E-03    -15.6433E-03     30.6933E-03    -15.1853E-03     26.8009E-03
            1672     6.20526E-03     40.8073E-03    -6.43333E+06    -56.7888E+06     392.865E+03     90.4644E+03    -15.5465E-03     30.7936E-03    -15.2471E-03     22.9000E-03    -15.4981E-03     30.5196E-03    -15.1535E-03     22.8972E-03
            1673     5.31896E-03     40.7875E-03    -7.56306E+06      -59.99E+06    -1.69903E+06    -54.7599E+03    -15.4242E-03     30.6396E-03    -15.2154E-03     19.1720E-03    -15.3734E-03     30.3538E-03    -15.1259E-03     19.1682E-03
            1674     4.43254E-03     40.7710E-03    -9.19225E+06    -61.6331E+06    -3.59600E+06    -86.7815E+03    -15.3194E-03     30.5069E-03    -15.1875E-03     15.6432E-03    -15.2713E-03     30.2177E-03    -15.1028E-03     15.6397E-03
            1675     3.54610E-03     40.7579E-03    -10.6112E+06    -58.4728E+06    -6.43394E+06    -17.9594E+03    -15.2236E-03     30.3766E-03    -15.1530E-03     12.3211E-03    -15.1828E-03     30.1092E-03    -15.0850E-03     12.3191E-03
            1676     2.65959E-03     40.7477E-03    -11.6080E+06    -60.5529E+06    -8.87251E+06     195.811E+03    -15.1694E-03     30.3020E-03    -15.1326E-03     9.12027E-03    -15.1269E-03     30.0291E-03    -15.0724E-03     9.12146E-03
            1677     1.77309E-03     40.7406E-03    -12.3337E+06    -63.1134E+06    -11.0019E+06     261.949E+03    -15.1355E-03     30.2526E-03    -15.1171E-03     6.06312E-03    -15.0898E-03     29.9709E-03    -15.0627E-03     6.06563E-03
            1678     886.550E-06     40.7362E-03    -12.9474E+06    -64.4493E+06    -12.7127E+06     99.7529E+03    -15.1230E-03     30.2158E-03    -15.0929E-03     3.23423E-03    -15.0758E-03     29.9309E-03    -15.0442E-03     3.23506E-03
            1679     16.8367E-03     40.5576E-03    -3.92810E+06     149.450E+06     46.5064E+06    -195.883E+03    -25.9558E-03     41.5100E-03    -15.5543E-03     237.833E-03    -31.7015E-03     47.6375E-03    -15.5327E-03     242.009E-03
            1680     15.9505E-03     40.3648E-03    -4.85951E+06     86.2421E+06    -9.31670E+06     98.8829E+03    -21.7507E-03     37.0890E-03    -15.3384E-03     164.133E-03    -23.5612E-03     39.2155E-03    -15.5029E-03     164.652E-03
            1681     15.0652E-03     40.2497E-03    -5.13392E+06     24.1287E+06    -12.1952E+06     180.893E+03    -18.2755E-03     33.6592E-03    -15.3837E-03     96.6818E-03    -18.5808E-03     34.0673E-03    -15.4722E-03     96.6565E-03
            1682     14.1795E-03     40.1839E-03    -5.58279E+06    -17.6805E+06    -12.0347E+06     298.194E+03    -16.9962E-03     32.4087E-03    -15.4126E-03     63.0228E-03    -17.0578E-03     32.4227E-03    -15.4390E-03     62.9834E-03
            1683     13.2938E-03     40.1318E-03    -4.73324E+06    -34.4971E+06    -9.07146E+06     938.169E+03    -16.8387E-03     32.2518E-03    -15.4131E-03     57.7854E-03    -16.8433E-03     32.1434E-03    -15.4016E-03     57.7604E-03
            1684     12.4079E-03     40.0759E-03    -3.64302E+06    -34.1321E+06     765.868E+03     812.235E+03    -16.6600E-03     32.0831E-03    -15.4230E-03     55.2799E-03    -16.6579E-03     31.9446E-03    -15.3644E-03     55.2617E-03
            1685     11.5220E-03     40.0283E-03    -3.43543E+06    -40.9774E+06    -1.35396E+06    -82.8938E+03    -16.4592E-03     31.8442E-03    -15.3850E-03     48.3272E-03    -16.4313E-03     31.6625E-03    -15.3273E-03     48.3048E-03
            1686     10.6361E-03     39.9852E-03    -3.90451E+06    -53.5356E+06    -3.23236E+06    -392.348E+03    -16.3409E-03     31.6950E-03    -15.3541E-03     43.7078E-03    -16.2883E-03     31.4479E-03    -15.2870E-03     43.6867E-03
            1687     9.75024E-03     39.9463E-03    -4.83485E+06    -55.6900E+06     876.528E+03    -204.607E+03    -16.1571E-03     31.4939E-03    -15.3369E-03     39.3317E-03    -16.1082E-03     31.2277E-03    -15.2447E-03     39.3172E-03
            1688     8.86417E-03     39.9112E-03    -5.97697E+06    -56.9667E+06     1.05726E+06     310.003E+03    -15.9828E-03     31.2822E-03    -15.2994E-03     35.0124E-03    -15.9357E-03     31.0087E-03    -15.2029E-03     35.0076E-03
            1689     7.97813E-03     39.8803E-03    -6.21853E+06    -61.0479E+06     1.35662E+06     448.386E+03    -15.8238E-03     31.0900E-03    -15.2662E-03     30.7385E-03    -15.7711E-03     30.7945E-03    -15.1619E-03     30.7377E-03
            1690     7.09195E-03     39.8531E-03    -5.85198E+06    -59.9126E+06     1.17198E+06    -78.2671E+03    -15.6579E-03     30.8822E-03    -15.2243E-03     26.6410E-03    -15.6037E-03     30.5912E-03    -15.1231E-03     26.6350E-03
            1691     6.20568E-03     39.8299E-03    -6.36497E+06    -57.1377E+06    -459.277E+03     230.597E+03    -15.4965E-03     30.6749E-03    -15.1784E-03     22.7471E-03    -15.4460E-03     30.4002E-03    -15.0886E-03     22.7462E-03
            1692     5.31927E-03     39.8101E-03    -7.85931E+06    -59.8205E+06    -2.11987E+06     656.045E+03    -15.3695E-03     30.5158E-03    -15.1463E-03     19.0289E-03    -15.3197E-03     30.2319E-03    -15.0587E-03     19.0343E-03
            1693     4.43287E-03     39.7938E-03    -9.40806E+06    -61.3424E+06    -3.72497E+06     383.055E+03    -15.2623E-03     30.3791E-03    -15.1168E-03     15.5060E-03    -15.2155E-03     30.0919E-03    -15.0329E-03     15.5085E-03
            1694     3.54636E-03     39.7807E-03    -10.7647E+06    -58.4888E+06    -6.47121E+06     125.812E+03    -15.1637E-03     30.2435E-03    -15.0798E-03     12.1955E-03    -15.1236E-03     29.9763E-03    -15.0118E-03     12.1953E-03
            1695     2.65982E-03     39.7707E-03    -11.8176E+06    -60.6206E+06    -8.92369E+06     72.5012E+03    -15.1014E-03     30.1573E-03    -15.0559E-03     9.02057E-03    -15.0598E-03     29.8845E-03    -14.9955E-03     9.02019E-03
            1696     1.77323E-03     39.7635E-03    -12.4976E+06    -63.0331E+06    -11.1934E+06     177.399E+03    -15.0577E-03     30.0949E-03    -15.0371E-03     5.98300E-03    -15.0126E-03     29.8141E-03    -14.9836E-03     5.98443E-03
            1697     886.625E-06     39.7592E-03    -12.7553E+06    -64.0698E+06    -12.6607E+06     291.571E+03    -15.0486E-03     30.0563E-03    -15.0077E-03     3.23034E-03    -15.0011E-03     29.7729E-03    -14.9596E-03     3.23364E-03
            1698     16.8364E-03     39.5792E-03    -3.77222E+06     149.583E+06     46.6425E+06     92.5149E+03    -25.9715E-03     41.5172E-03    -15.5457E-03     237.701E-03    -31.6954E-03     47.6235E-03    -15.5239E-03     241.859E-03
            1699     15.9512E-03     39.3856E-03    -5.90285E+06     85.8769E+06    -9.69642E+06     263.882E+03    -21.8373E-03     37.1633E-03    -15.3260E-03     163.928E-03    -23.6444E-03     39.2824E-03    -15.4905E-03     164.444E-03
            1700     15.0654E-03     39.2713E-03    -5.87512E+06     24.0078E+06    -12.5591E+06     554.132E+03    -18.4205E-03     33.7828E-03    -15.3623E-03     96.4848E-03    -18.7283E-03     34.1914E-03    -15.4514E-03     96.4631E-03
            1701     14.1796E-03     39.2054E-03    -5.38090E+06    -17.5582E+06    -11.9123E+06     643.359E+03    -16.9659E-03     32.3526E-03    -15.3867E-03     62.9599E-03    -17.0264E-03     32.3662E-03    -15.4130E-03     62.9252E-03
            1702     13.2939E-03     39.1535E-03    -4.62136E+06    -34.5882E+06    -10.3132E+06    -134.473E+03    -16.8284E-03     32.2089E-03    -15.3805E-03     57.7472E-03    -16.8302E-03     32.1014E-03    -15.3752E-03     57.7086E-03
            1703     12.4083E-03     39.0976E-03    -3.55446E+06    -34.0474E+06    -335.284E+03    -281.901E+03    -16.7546E-03     32.1405E-03    -15.3859E-03     55.1841E-03    -16.7505E-03     32.0039E-03    -15.3330E-03     55.1517E-03
            1704     11.5225E-03     39.0502E-03    -3.60057E+06    -40.6003E+06    -1.48552E+06     342.916E+03    -16.5105E-03     31.8549E-03    -15.3444E-03     48.1435E-03    -16.4837E-03     31.6755E-03    -15.2877E-03     48.1266E-03
            1705     10.6367E-03     39.0072E-03    -4.40771E+06    -53.4620E+06    -3.68266E+06     341.027E+03    -16.3565E-03     31.6628E-03    -15.3063E-03     43.5239E-03    -16.3058E-03     31.4174E-03    -15.2408E-03     43.5124E-03
            1706     9.75071E-03     38.9683E-03    -5.50098E+06    -56.2363E+06     331.009E+03     621.920E+03    -16.1690E-03     31.4528E-03    -15.2838E-03     39.1124E-03    -16.1219E-03     31.1856E-03    -15.1926E-03     39.1086E-03
            1707     8.86475E-03     38.9335E-03    -6.60762E+06    -56.7696E+06     98.6840E+03     548.982E+03    -15.9744E-03     31.2116E-03    -15.2372E-03     34.8064E-03    -15.9294E-03     30.9413E-03    -15.1448E-03     34.8048E-03
            1708     7.97863E-03     38.9026E-03    -7.18324E+06    -60.0130E+06    -691.048E+03    -623.842E+03    -15.7908E-03     30.9838E-03    -15.1930E-03     30.5641E-03    -15.7413E-03     30.6978E-03    -15.0990E-03     30.5495E-03
            1709     7.09241E-03     38.8757E-03    -7.69968E+06    -60.4447E+06    -1.67802E+06    -680.168E+03    -15.6096E-03     30.7566E-03    -15.1471E-03     26.4714E-03    -15.5597E-03     30.4697E-03    -15.0567E-03     26.4576E-03
            1710     6.20606E-03     38.8525E-03    -8.47239E+06    -58.0854E+06    -2.29586E+06     330.565E+03    -15.4486E-03     30.5521E-03    -15.1034E-03     22.5535E-03    -15.4046E-03     30.2784E-03    -15.0184E-03     22.5539E-03
            1711     5.31969E-03     38.8329E-03    -9.01899E+06    -59.4625E+06    -2.29605E+06     644.199E+03    -15.3187E-03     30.3902E-03    -15.0715E-03     18.8312E-03    -15.2750E-03     30.1100E-03    -14.9836E-03     18.8364E-03
            1712     4.43320E-03     38.8167E-03    -9.77578E+06    -60.9336E+06    -3.41780E+06     432.106E+03    -15.2023E-03     30.2403E-03    -15.0380E-03     15.3311E-03    -15.1583E-03     29.9553E-03    -14.9526E-03     15.3343E-03
            1713     3.54666E-03     38.8037E-03    -10.8814E+06    -58.2173E+06    -6.18392E+06     203.300E+03    -15.0936E-03     30.0898E-03    -14.9962E-03     12.0569E-03    -15.0549E-03     29.8237E-03    -14.9269E-03     12.0577E-03
            1714     2.66005E-03     38.7937E-03    -12.0050E+06    -60.5492E+06    -8.79530E+06     12.4890E+03    -15.0221E-03     29.9900E-03    -14.9679E-03     8.92352E-03    -14.9818E-03     29.7176E-03    -14.9066E-03     8.92238E-03
            1715     1.77340E-03     38.7867E-03    -12.9701E+06    -63.2288E+06    -11.2185E+06     81.6009E+03    -14.9694E-03     29.9150E-03    -14.9456E-03     5.90472E-03    -14.9264E-03     29.6340E-03    -14.8912E-03     5.90493E-03
            1716     886.689E-06     38.7824E-03    -13.6634E+06    -63.6069E+06    -13.1919E+06     334.999E+03    -14.9212E-03     29.8618E-03    -14.9405E-03     3.19932E-03    -14.8782E-03     29.5828E-03    -14.8945E-03     3.20320E-03
            1717     16.8368E-03     38.5999E-03    -3.88034E+06     149.375E+06     46.6410E+06     460.701E+03    -26.1494E-03     41.6926E-03    -15.5432E-03     237.430E-03    -31.8575E-03     47.7820E-03    -15.5209E-03     241.574E-03
            1718     15.9509E-03     38.4068E-03    -5.56918E+06     85.9109E+06    -9.45726E+06     628.669E+03    -21.9768E-03     37.2908E-03    -15.3140E-03     163.672E-03    -23.7737E-03     39.4003E-03    -15.4778E-03     164.183E-03
            1719     15.0657E-03     38.2923E-03    -5.17324E+06     23.8750E+06    -12.2952E+06     550.059E+03    -18.4474E-03     33.7913E-03    -15.3439E-03     96.1563E-03    -18.7505E-03     34.1965E-03    -15.4325E-03     96.1340E-03
            1720     14.1803E-03     38.2272E-03    -4.05032E+06    -16.9195E+06    -11.3064E+06     135.254E+03    -17.0360E-03     32.3994E-03    -15.3634E-03     62.7680E-03    -17.0914E-03     32.4131E-03    -15.3895E-03     62.7265E-03
            1721     13.2944E-03     38.1752E-03    -3.40583E+06    -33.6729E+06    -9.70161E+06    -410.307E+03    -16.9065E-03     32.2569E-03    -15.3504E-03     57.6484E-03    -16.9042E-03     32.1511E-03    -15.3451E-03     57.6061E-03
            1722     12.4087E-03     38.1191E-03    -3.94943E+06    -34.9839E+06    -592.256E+03    -283.497E+03    -16.8083E-03     32.1577E-03    -15.3494E-03     54.9200E-03    -16.8042E-03     32.0171E-03    -15.2959E-03     54.8876E-03
            1723     11.5230E-03     38.0721E-03    -4.43341E+06    -41.0883E+06    -1.65358E+06     408.472E+03    -16.5586E-03     31.8595E-03    -15.3009E-03     47.8709E-03    -16.5349E-03     31.6790E-03    -15.2431E-03     47.8548E-03
            1724     10.6372E-03     38.0291E-03    -4.36481E+06    -53.2138E+06    -3.58417E+06     737.239E+03    -16.3882E-03     31.6423E-03    -15.2541E-03     43.2790E-03    -16.3377E-03     31.3978E-03    -15.1885E-03     43.2726E-03
            1725     9.75132E-03     37.9905E-03    -4.32816E+06    -56.7281E+06     287.175E+03     841.776E+03    -16.1755E-03     31.3992E-03    -15.2237E-03     38.8549E-03    -16.1216E-03     31.1277E-03    -15.1337E-03     38.8541E-03
            1726     8.86526E-03     37.9557E-03    -4.29019E+06    -55.5614E+06     577.200E+03     469.830E+03    -15.9649E-03     31.1351E-03    -15.1702E-03     34.5569E-03    -15.9107E-03     30.8667E-03    -15.0805E-03     34.5543E-03
            1727     7.97916E-03     37.9251E-03    -5.29894E+06    -59.3478E+06     522.588E+03    -25.7243E+03    -15.7721E-03     30.8980E-03    -15.1259E-03     30.2840E-03    -15.7159E-03     30.6108E-03    -15.0295E-03     30.2772E-03
            1728     7.09290E-03     37.8983E-03    -7.45478E+06    -61.2620E+06    -593.299E+03     99.9661E+03    -15.5896E-03     30.6670E-03    -15.0775E-03     26.1797E-03    -15.5388E-03     30.3741E-03    -14.9808E-03     26.1761E-03
            1729     6.20661E-03     37.8753E-03    -8.80805E+06    -58.1705E+06    -1.95503E+06    -64.0207E+03    -15.4079E-03     30.4307E-03    -15.0228E-03     22.2984E-03    -15.3659E-03     30.1566E-03    -14.9355E-03     22.2938E-03
            1730     5.32015E-03     37.8558E-03    -9.27352E+06    -59.5366E+06    -2.24514E+06    -167.134E+03    -15.2578E-03     30.2410E-03    -14.9833E-03     18.6162E-03    -15.2153E-03     29.9608E-03    -14.8947E-03     18.6110E-03
            1731     4.43364E-03     37.8398E-03    -9.92752E+06    -60.8151E+06    -3.23557E+06     110.949E+03    -15.1281E-03     30.0733E-03    -14.9452E-03     15.1415E-03    -15.0853E-03     29.7888E-03    -14.8588E-03     15.1406E-03
            1732     3.54701E-03     37.8268E-03    -10.9714E+06    -57.9806E+06    -6.09693E+06     138.032E+03    -15.0037E-03     29.9029E-03    -14.8992E-03     11.8968E-03    -14.9659E-03     29.6381E-03    -14.8297E-03     11.8968E-03
            1733     2.66030E-03     37.8170E-03    -12.1231E+06    -60.4343E+06    -8.78120E+06     63.3472E+03    -14.9222E-03     29.7919E-03    -14.8697E-03     8.80943E-03    -14.8826E-03     29.5202E-03    -14.8084E-03     8.80896E-03
            1734     1.77357E-03     37.8099E-03    -13.3280E+06    -63.4672E+06    -11.1639E+06     147.622E+03    -14.8769E-03     29.7229E-03    -14.8461E-03     5.83217E-03    -14.8354E-03     29.4412E-03    -14.7905E-03     5.83324E-03
            1735     886.827E-06     37.8058E-03    -14.3316E+06    -63.1426E+06    -13.6056E+06     383.532E+03    -14.8175E-03     29.6502E-03    -14.8326E-03     3.12249E-03    -14.7779E-03     29.3751E-03    -14.7883E-03     3.12700E-03
            1736     16.8363E-03     37.6202E-03    -4.05791E+06     149.069E+06     46.6652E+06     562.505E+03    -26.3796E-03     41.9172E-03    -15.5376E-03     236.964E-03    -32.0784E-03     47.9955E-03    -15.5146E-03     241.083E-03
            1737     15.9518E-03     37.4278E-03    -4.94226E+06     86.1225E+06    -9.02023E+06     671.096E+03    -22.0238E-03     37.3221E-03    -15.2983E-03     163.001E-03    -23.8051E-03     39.4177E-03    -15.4611E-03     163.503E-03
            1738     15.0660E-03     37.3137E-03    -4.43539E+06     24.0775E+06    -11.9788E+06     372.577E+03    -18.4198E-03     33.7441E-03    -15.3244E-03     95.9391E-03    -18.7181E-03     34.1469E-03    -15.4127E-03     95.9146E-03
            1739     14.1801E-03     37.2487E-03    -4.07102E+06    -16.3408E+06    -11.2599E+06    -129.889E+03    -17.1814E-03     32.5189E-03    -15.3375E-03     62.5800E-03    -17.2377E-03     32.5354E-03    -15.3642E-03     62.5346E-03
            1740     13.2949E-03     37.1966E-03    -3.74288E+06    -33.3239E+06    -9.75676E+06    -211.397E+03    -17.0383E-03     32.3516E-03    -15.3134E-03     57.4571E-03    -17.0380E-03     32.2481E-03    -15.3084E-03     57.4171E-03
            1741     12.4093E-03     37.1409E-03    -3.71154E+06    -35.5665E+06    -648.876E+03     114.271E+03    -16.8506E-03     32.1543E-03    -15.3037E-03     54.7021E-03    -16.8442E-03     32.0103E-03    -15.2500E-03     54.6749E-03
            1742     11.5235E-03     37.0938E-03    -3.90462E+06    -41.4957E+06    -1.64903E+06     297.679E+03    -16.6010E-03     31.8487E-03    -15.2478E-03     47.5722E-03    -16.5739E-03     31.6653E-03    -15.1902E-03     47.5548E-03
            1743     10.6379E-03     37.0512E-03    -3.82638E+06    -53.2792E+06    -3.45389E+06     472.562E+03    -16.4148E-03     31.6083E-03    -15.1935E-03     42.9770E-03    -16.3616E-03     31.3624E-03    -15.1280E-03     42.9673E-03
            1744     9.75194E-03     37.0126E-03    -3.41130E+06    -56.2864E+06     719.894E+03     146.542E+03    -16.1802E-03     31.3363E-03    -15.1561E-03     38.5726E-03    -16.1230E-03     31.0650E-03    -15.0659E-03     38.5629E-03
            1745     8.86596E-03     36.9781E-03    -3.29903E+06    -55.5272E+06     1.49593E+06     124.606E+03    -15.9592E-03     31.0577E-03    -15.0985E-03     34.2402E-03    -15.9013E-03     30.7866E-03    -15.0058E-03     34.2332E-03
            1746     7.97980E-03     36.9476E-03    -4.13610E+06    -59.8886E+06     2.65470E+06     1.19053E+06    -15.7638E-03     30.8169E-03    -15.0531E-03     29.9451E-03    -15.7041E-03     30.5222E-03    -14.9470E-03     29.9540E-03
            1747     7.09361E-03     36.9211E-03    -5.50352E+06    -60.4631E+06     2.07649E+06     1.08707E+06    -15.5627E-03     30.5588E-03    -14.9961E-03     25.8620E-03    -15.5072E-03     30.2631E-03    -14.8901E-03     25.8712E-03
            1748     6.20721E-03     36.8982E-03    -6.89852E+06    -57.4451E+06    -258.765E+03    -29.7587E+03    -15.3550E-03     30.2849E-03    -14.9298E-03     22.0258E-03    -15.3069E-03     30.0091E-03    -14.8378E-03     22.0216E-03
            1749     5.32071E-03     36.8789E-03    -8.37573E+06    -59.8947E+06    -1.87247E+06    -320.125E+03    -15.1844E-03     30.0659E-03    -14.8814E-03     18.3806E-03    -15.1374E-03     29.7820E-03    -14.7918E-03     18.3735E-03
            1750     4.43410E-03     36.8629E-03    -9.79794E+06    -61.0163E+06    -3.37393E+06    -112.862E+03    -15.0374E-03     29.8752E-03    -14.8378E-03     14.9401E-03    -14.9935E-03     29.5897E-03    -14.7520E-03     14.9363E-03
            1751     3.54740E-03     36.8502E-03    -10.9741E+06    -57.9437E+06    -6.25699E+06     54.2293E+03    -14.9033E-03     29.6919E-03    -14.7886E-03     11.7253E-03    -14.8654E-03     29.4274E-03    -14.7199E-03     11.7243E-03
            1752     2.66061E-03     36.8404E-03    -12.0818E+06    -60.4052E+06    -8.95434E+06     143.349E+03    -14.8117E-03     29.5692E-03    -14.7575E-03     8.67585E-03    -14.7717E-03     29.2978E-03    -14.6971E-03     8.67645E-03
            1753     1.77375E-03     36.8335E-03    -13.1545E+06    -63.5631E+06    -11.2145E+06     251.014E+03    -14.7618E-03     29.4976E-03    -14.7358E-03     5.75274E-03    -14.7192E-03     29.2152E-03    -14.6807E-03     5.75516E-03
            1754     886.891E-06     36.8293E-03    -13.9545E+06    -62.6342E+06    -13.2134E+06     266.398E+03    -14.7238E-03     29.4346E-03    -14.7108E-03     3.05132E-03    -14.6836E-03     29.1610E-03    -14.6658E-03     3.05433E-03
            1755     16.8373E-03     36.6401E-03    -3.58042E+06     148.917E+06     47.2438E+06     469.763E+03    -26.4921E-03     42.0223E-03    -15.5302E-03     236.684E-03    -32.1791E-03     48.0882E-03    -15.5047E-03     240.779E-03
            1756     15.9517E-03     36.4489E-03    -4.19062E+06     86.0125E+06    -8.59218E+06     585.149E+03    -22.0794E-03     37.3625E-03    -15.2831E-03     162.499E-03    -23.8466E-03     39.4451E-03    -15.4447E-03     162.996E-03
            1757     15.0662E-03     36.3352E-03    -3.96087E+06     24.4761E+06    -11.5995E+06     416.388E+03    -18.6088E-03     33.9077E-03    -15.2989E-03     95.5948E-03    -18.9049E-03     34.3103E-03    -15.3867E-03     95.5691E-03
            1758     14.1811E-03     36.2698E-03    -3.86345E+06    -15.7306E+06    -10.9133E+06     175.025E+03    -17.2478E-03     32.5495E-03    -15.3017E-03     62.1653E-03    -17.3039E-03     32.5677E-03    -15.3278E-03     62.1236E-03
            1759     13.2955E-03     36.2183E-03    -3.80399E+06    -33.6387E+06    -9.95544E+06     38.6570E+03    -17.0897E-03     32.3592E-03    -15.2695E-03     57.1840E-03    -17.0887E-03     32.2542E-03    -15.2650E-03     57.1473E-03
            1760     12.4099E-03     36.1624E-03    -3.82986E+06    -35.7006E+06    -827.878E+03     65.6776E+03    -16.9390E-03     32.1902E-03    -15.2512E-03     54.4507E-03    -16.9326E-03     32.0458E-03    -15.1980E-03     54.4228E-03
            1761     11.5244E-03     36.1157E-03    -3.95409E+06    -41.5582E+06    -1.77067E+06     245.586E+03    -16.6287E-03     31.8150E-03    -15.1863E-03     47.2747E-03    -16.6013E-03     31.6312E-03    -15.1292E-03     47.2567E-03
            1762     10.6385E-03     36.0732E-03    -3.98219E+06    -53.2499E+06    -3.68699E+06     226.406E+03    -16.4323E-03     31.5563E-03    -15.1240E-03     42.6972E-03    -16.3794E-03     31.3109E-03    -15.0594E-03     42.6844E-03
            1763     9.75275E-03     36.0349E-03    -4.45801E+06    -55.6568E+06     520.422E+03    -53.3836E+03    -16.1949E-03     31.2735E-03    -15.0786E-03     38.2598E-03    -16.1434E-03     31.0071E-03    -14.9888E-03     38.2476E-03
            1764     8.86670E-03     36.0005E-03    -5.65331E+06    -56.6080E+06     496.471E+03     350.541E+03    -15.9498E-03     30.9620E-03    -15.0121E-03     33.9219E-03    -15.9006E-03     30.6903E-03    -14.9194E-03     33.9180E-03
            1765     7.98062E-03     35.9703E-03    -6.27743E+06    -60.4270E+06     799.912E+03     951.111E+03    -15.7286E-03     30.6814E-03    -14.9528E-03     29.6581E-03    -15.6760E-03     30.3897E-03    -14.8521E-03     29.6640E-03
            1766     7.09430E-03     35.9439E-03    -6.09109E+06    -59.1420E+06     1.38897E+06     634.470E+03    -15.5062E-03     30.3956E-03    -14.8894E-03     25.5831E-03    -15.4546E-03     30.1084E-03    -14.7879E-03     25.5865E-03
            1767     6.20790E-03     35.9213E-03    -6.47481E+06    -57.1023E+06     252.403E+03     328.148E+03    -15.2910E-03     30.1134E-03    -14.8224E-03     21.7386E-03    -15.2420E-03     29.8380E-03    -14.7289E-03     21.7392E-03
            1768     5.32133E-03     35.9021E-03    -7.89003E+06    -59.8372E+06    -1.52426E+06     301.584E+03    -15.1013E-03     29.8687E-03    -14.7674E-03     18.1149E-03    -15.0525E-03     29.5839E-03    -14.6768E-03     18.1159E-03
            1769     4.43464E-03     35.8864E-03    -9.55022E+06    -61.0377E+06    -3.46296E+06     86.7757E+03    -14.9343E-03     29.6519E-03    -14.7176E-03     14.7165E-03    -14.8890E-03     29.3661E-03    -14.6326E-03     14.7154E-03
            1770     3.54783E-03     35.8737E-03    -10.9394E+06    -58.0358E+06    -6.52946E+06     42.1942E+03    -14.7928E-03     29.4575E-03    -14.6647E-03     11.5400E-03    -14.7541E-03     29.1929E-03    -14.5973E-03     11.5389E-03
            1771     2.66094E-03     35.8641E-03    -12.0096E+06    -60.4669E+06    -9.17396E+06     200.169E+03    -14.6973E-03     29.3276E-03    -14.6303E-03     8.53064E-03    -14.6565E-03     29.0561E-03    -14.5710E-03     8.53200E-03
            1772     1.77400E-03     35.8572E-03    -12.9191E+06    -63.4280E+06    -11.1344E+06     260.218E+03    -14.6313E-03     29.2400E-03    -14.6086E-03     5.65954E-03    -14.5879E-03     28.9578E-03    -14.5536E-03     5.66209E-03
            1773     886.999E-06     35.8531E-03    -13.6431E+06    -62.2485E+06    -12.9888E+06     74.5207E+03    -14.5879E-03     29.1831E-03    -14.5952E-03     2.98810E-03    -14.5470E-03     28.9106E-03    -14.5501E-03     2.98865E-03
            1774     16.8368E-03     35.6605E-03    -3.77577E+06     148.177E+06     47.1834E+06     58.0789E+03    -26.5935E-03     42.1146E-03    -15.5211E-03     236.105E-03    -32.2553E-03     48.1523E-03    -15.4946E-03     240.167E-03
            1775     15.9518E-03     35.4699E-03    -4.76856E+06     86.1285E+06    -8.47289E+06     410.547E+03    -22.2465E-03     37.5099E-03    -15.2634E-03     161.769E-03    -24.0030E-03     39.5798E-03    -15.4238E-03     162.256E-03
            1776     15.0672E-03     35.3559E-03    -4.26397E+06     25.0843E+06    -11.7480E+06     525.530E+03    -18.7535E-03     34.0177E-03    -15.2642E-03     95.1882E-03    -19.0502E-03     34.4223E-03    -15.3531E-03     95.1625E-03
            1777     14.1816E-03     35.2916E-03    -3.91437E+06    -15.5572E+06    -10.9999E+06     393.545E+03    -17.3094E-03     32.5676E-03    -15.2582E-03     62.0194E-03    -17.3651E-03     32.5862E-03    -15.2850E-03     61.9805E-03
            1778     13.2960E-03     35.2396E-03    -3.53990E+06    -33.4599E+06    -9.88035E+06     308.905E+03    -17.1651E-03     32.3838E-03    -15.2187E-03     57.0112E-03    -17.1629E-03     32.2789E-03    -15.2145E-03     56.9779E-03
            1779     12.4108E-03     35.1840E-03    -3.61397E+06    -35.9822E+06    -1.03016E+06     239.919E+03    -16.9786E-03     32.1702E-03    -15.1916E-03     54.1043E-03    -16.9701E-03     32.0241E-03    -15.1393E-03     54.0787E-03
            1780     11.5250E-03     35.1376E-03    -3.99779E+06    -41.6212E+06    -1.86839E+06     295.255E+03    -16.6678E-03     31.7870E-03    -15.1192E-03     46.9892E-03    -16.6402E-03     31.6029E-03    -15.0624E-03     46.9720E-03
            1781     10.6394E-03     35.0952E-03    -4.31193E+06    -53.0301E+06    -3.78551E+06     313.855E+03    -16.4707E-03     31.5181E-03    -15.0474E-03     42.3690E-03    -16.4195E-03     31.2743E-03    -14.9832E-03     42.3575E-03
            1782     9.75353E-03     35.0571E-03    -5.04280E+06    -55.8344E+06     169.151E+03     634.615E+03    -16.2040E-03     31.1958E-03    -14.9918E-03     37.9061E-03    -16.1546E-03     30.9298E-03    -14.9027E-03     37.9029E-03
            1783     8.86760E-03     35.0231E-03    -6.10196E+06    -57.0204E+06     324.190E+03     891.521E+03    -15.9462E-03     30.8629E-03    -14.9167E-03     33.5684E-03    -15.8983E-03     30.5900E-03    -14.8236E-03     33.5715E-03
            1784     7.98140E-03     34.9930E-03    -6.70639E+06    -59.6605E+06    -116.971E+03     154.630E+03    -15.6911E-03     30.5339E-03    -14.8428E-03     29.3235E-03    -15.6404E-03     30.2479E-03    -14.7471E-03     29.3193E-03
            1785     7.09512E-03     34.9669E-03    -6.88792E+06    -58.9016E+06    -190.570E+03    -419.136E+03    -15.4437E-03     30.2134E-03    -14.7697E-03     25.2666E-03    -15.3940E-03     29.9307E-03    -14.6753E-03     25.2565E-03
            1786     6.20863E-03     34.9445E-03    -7.32696E+06    -57.7101E+06    -563.609E+03     241.422E+03    -15.2139E-03     29.9147E-03    -14.7008E-03     21.4245E-03    -15.1671E-03     29.6386E-03    -14.6093E-03     21.4240E-03
            1787     5.32200E-03     34.9256E-03    -8.22846E+06    -59.4785E+06    -1.55540E+06     676.222E+03    -15.0081E-03     29.6491E-03    -14.6410E-03     17.8250E-03    -14.9614E-03     29.3666E-03    -14.5506E-03     17.8309E-03
            1788     4.43523E-03     34.9100E-03    -9.53225E+06    -60.7216E+06    -3.40825E+06     435.311E+03    -14.8262E-03     29.4116E-03    -14.5855E-03     14.4688E-03    -14.7813E-03     29.1272E-03    -14.5006E-03     14.4722E-03
            1789     3.54832E-03     34.8976E-03    -10.9636E+06    -57.9586E+06    -6.60667E+06     225.745E+03    -14.6698E-03     29.1976E-03    -14.5278E-03     11.3409E-03    -14.6312E-03     28.9335E-03    -14.4609E-03     11.3421E-03
            1790     2.66132E-03     34.8880E-03    -12.1540E+06    -60.5753E+06    -9.14506E+06     210.427E+03    -14.5668E-03     29.0575E-03    -14.4907E-03     8.37790E-03    -14.5266E-03     28.7856E-03    -14.4310E-03     8.37942E-03
            1791     1.77425E-03     34.8812E-03    -13.1270E+06    -63.1200E+06    -11.3200E+06     235.869E+03    -14.4950E-03     28.9583E-03    -14.4634E-03     5.56170E-03    -14.4527E-03     28.6783E-03    -14.4094E-03     5.56396E-03
            1792     887.134E-06     34.8771E-03    -13.8175E+06    -62.0605E+06    -13.2572E+06    -28.0797E+03    -14.4506E-03     28.8879E-03    -14.4373E-03     2.94179E-03    -14.4104E-03     28.6169E-03    -14.3935E-03     2.94102E-03
            1793     16.8374E-03     34.6805E-03    -3.86547E+06     147.989E+06     47.0157E+06    -18.7668E+03    -26.8037E-03     42.3061E-03    -15.5024E-03     235.322E-03    -32.4246E-03     48.3023E-03    -15.4763E-03     239.338E-03
            1794     15.9530E-03     34.4905E-03    -5.17010E+06     85.7158E+06    -8.72411E+06     255.527E+03    -22.3326E-03     37.5659E-03    -15.2332E-03     161.252E-03    -24.0785E-03     39.6230E-03    -15.3937E-03     161.728E-03
            1795     15.0672E-03     34.3771E-03    -4.81711E+06     25.1269E+06    -12.0992E+06     408.778E+03    -18.7675E-03     33.9943E-03    -15.2268E-03     94.7571E-03    -19.0634E-03     34.3974E-03    -15.3167E-03     94.7292E-03
            1796     14.1820E-03     34.3129E-03    -4.20206E+06    -15.2462E+06    -11.1327E+06     376.690E+03    -17.4223E-03     32.6362E-03    -15.2139E-03     61.7796E-03    -17.4792E-03     32.6564E-03    -15.2413E-03     61.7402E-03
            1797     13.2971E-03     34.2609E-03    -3.81620E+06    -33.3547E+06    -10.1512E+06     379.128E+03    -17.2622E-03     32.4257E-03    -15.1635E-03     56.7865E-03    -17.2608E-03     32.3218E-03    -15.1603E-03     56.7540E-03
            1798     12.4114E-03     34.2059E-03    -3.78003E+06    -36.0720E+06    -1.22479E+06     433.586E+03    -17.0252E-03     32.1526E-03    -15.1274E-03     53.8346E-03    -17.0167E-03     32.0062E-03    -15.0757E-03     53.8117E-03
            1799     11.5259E-03     34.1594E-03    -4.05259E+06    -41.6512E+06    -2.02152E+06     493.282E+03    -16.7408E-03     31.7857E-03    -15.0448E-03     46.6529E-03    -16.7131E-03     31.6016E-03    -14.9887E-03     46.6383E-03
            1800     10.6403E-03     34.1173E-03    -4.39102E+06    -52.9865E+06    -3.81558E+06     618.608E+03    -16.5086E-03     31.4707E-03    -14.9621E-03     41.9722E-03    -16.4577E-03     31.2272E-03    -14.8980E-03     41.9647E-03
            1801     9.75451E-03     34.0795E-03    -4.74200E+06    -56.4077E+06     104.089E+03     946.048E+03    -16.2190E-03     31.1149E-03    -14.8959E-03     37.5199E-03    -16.1669E-03     30.8455E-03    -14.8068E-03     37.5208E-03
            1802     8.86847E-03     34.0457E-03    -5.04704E+06    -56.4928E+06     753.380E+03     960.071E+03    -15.9378E-03     30.7481E-03    -14.8103E-03     33.1635E-03    -15.8860E-03     30.4756E-03    -14.7173E-03     33.1677E-03
            1803     7.98240E-03     34.0160E-03    -5.69836E+06    -58.2716E+06     433.638E+03     91.8510E+03    -15.6569E-03     30.3829E-03    -14.7260E-03     28.9256E-03    -15.6039E-03     30.1016E-03    -14.6311E-03     28.9206E-03
            1804     7.09599E-03     33.9901E-03    -7.01665E+06    -59.3013E+06    -1.12680E+06    -312.052E+03    -15.3797E-03     30.0207E-03    -14.6410E-03     24.8952E-03    -15.3287E-03     29.7375E-03    -14.5504E-03     24.8866E-03
            1805     6.20946E-03     33.9680E-03    -8.28689E+06    -58.4833E+06    -1.90047E+06     77.2172E+03    -15.1229E-03     29.6874E-03    -14.5644E-03     21.0772E-03    -15.0778E-03     29.4107E-03    -14.4771E-03     21.0747E-03
            1806     5.32274E-03     33.9493E-03    -9.08419E+06    -59.3726E+06    -2.24828E+06     397.823E+03    -14.9007E-03     29.4007E-03    -14.4999E-03     17.5104E-03    -14.8575E-03     29.1209E-03    -14.4119E-03     17.5127E-03
            1807     4.43587E-03     33.9339E-03    -9.96183E+06    -60.4152E+06    -3.49529E+06     481.615E+03    -14.7074E-03     29.1477E-03    -14.4403E-03     14.1969E-03    -14.6650E-03     28.8656E-03    -14.3557E-03     14.2009E-03
            1808     3.54886E-03     33.9216E-03    -11.0645E+06    -57.6823E+06    -6.27720E+06     327.968E+03    -14.5349E-03     28.9138E-03    -14.3789E-03     11.1222E-03    -14.4977E-03     28.6508E-03    -14.3107E-03     11.1248E-03
            1809     2.66173E-03     33.9122E-03    -12.1999E+06    -60.6110E+06    -8.90950E+06     251.598E+03    -14.4194E-03     28.7576E-03    -14.3382E-03     8.21541E-03    -14.3797E-03     28.4853E-03    -14.2772E-03     8.21749E-03
            1810     1.77453E-03     33.9055E-03    -13.2323E+06    -62.7471E+06    -11.3798E+06     212.314E+03    -14.3435E-03     28.6495E-03    -14.3060E-03     5.45557E-03    -14.3023E-03     28.3715E-03    -14.2527E-03     5.45754E-03
            1811     887.289E-06     33.9015E-03    -13.9467E+06    -61.9519E+06    -13.5568E+06    -17.2898E+03    -14.3065E-03     28.5692E-03    -14.2627E-03     2.90224E-03    -14.2667E-03     28.2994E-03    -14.2204E-03     2.90162E-03
            1812     16.8380E-03     33.7012E-03    -3.82289E+06     147.919E+06      46.706E+06     92.0945E+03    -27.0498E-03     42.5369E-03    -15.4871E-03     234.905E-03    -32.6382E-03     48.5014E-03    -15.4625E-03     238.878E-03
            1813     15.9526E-03     33.5105E-03    -4.96909E+06     85.5342E+06    -8.98623E+06     237.315E+03    -22.4849E-03     37.6901E-03    -15.2052E-03     160.814E-03    -24.2190E-03     39.7363E-03    -15.3669E-03     161.279E-03
            1814     15.0683E-03     33.3986E-03    -4.70392E+06     25.1937E+06    -12.0207E+06     341.873E+03    -18.9240E-03     34.1123E-03    -15.1883E-03     94.2855E-03    -19.2172E-03     34.5131E-03    -15.2781E-03     94.2553E-03
            1815     14.1829E-03     33.3338E-03    -4.47267E+06    -15.3128E+06    -11.4321E+06     344.580E+03    -17.4889E-03     32.6529E-03    -15.1640E-03     61.5329E-03    -17.5460E-03     32.6729E-03    -15.1924E-03     61.4929E-03
            1816     13.2975E-03     33.2826E-03    -4.04135E+06    -33.5403E+06    -10.3886E+06     427.229E+03    -17.3190E-03     32.4251E-03    -15.1061E-03     56.5336E-03    -17.3177E-03     32.3205E-03    -15.1036E-03     56.5018E-03
            1817     12.4123E-03     33.2274E-03    -3.93140E+06    -35.9281E+06    -1.37530E+06     533.341E+03    -17.1600E-03     32.2183E-03    -15.0582E-03     53.4997E-03    -17.1520E-03     32.0728E-03    -15.0073E-03     53.4780E-03
            1818     11.5269E-03     33.1813E-03    -4.22724E+06    -41.7670E+06    -2.33427E+06     638.893E+03    -16.8093E-03     31.7708E-03    -14.9615E-03     46.2552E-03    -16.7816E-03     31.5866E-03    -14.9065E-03     46.2426E-03
            1819     10.6413E-03     33.1395E-03    -4.44509E+06    -53.1418E+06    -4.12142E+06     843.490E+03    -16.5506E-03     31.4172E-03    -14.8666E-03     41.5670E-03    -16.4991E-03     31.1732E-03    -14.8037E-03     41.5626E-03
            1820     9.75552E-03     33.1020E-03    -4.74252E+06    -56.4934E+06    -169.895E+03     918.036E+03    -16.2434E-03     31.0314E-03    -14.7881E-03     37.0761E-03    -16.1907E-03     30.7619E-03    -14.7001E-03     37.0768E-03
            1821     8.86960E-03     33.0685E-03    -4.83776E+06    -55.5853E+06    -92.5369E+03     361.073E+03    -15.9165E-03     30.6029E-03    -14.6863E-03     32.7333E-03    -15.8636E-03     30.3357E-03    -14.5992E-03     32.7298E-03
            1822     7.98334E-03     33.0390E-03    -4.91602E+06    -58.0550E+06     560.704E+03     269.955E+03    -15.6151E-03     30.2120E-03    -14.5969E-03     28.4803E-03    -15.5586E-03     29.9304E-03    -14.5028E-03     28.4777E-03
            1823     7.09699E-03     33.0135E-03    -6.05325E+06    -59.5399E+06    -107.047E+03     763.293E+03    -15.3162E-03     29.8232E-03    -14.5070E-03     24.4465E-03    -15.2615E-03     29.5359E-03    -14.4124E-03     24.4518E-03
            1824     6.21037E-03     32.9916E-03    -7.69445E+06    -58.1745E+06    -1.74569E+06     435.241E+03    -15.0269E-03     29.4443E-03    -14.4174E-03     20.6872E-03    -14.9795E-03     29.1681E-03    -14.3306E-03     20.6893E-03
            1825     5.32355E-03     32.9732E-03    -9.00568E+06    -59.6013E+06    -2.21208E+06     131.018E+03    -14.7833E-03     29.1301E-03    -14.3468E-03     17.1647E-03    -14.7393E-03     28.8490E-03    -14.2584E-03     17.1636E-03
            1826     4.43657E-03     32.9581E-03    -10.0653E+06    -60.1744E+06    -3.32777E+06     165.328E+03    -14.5704E-03     28.8520E-03    -14.2816E-03     13.9014E-03    -14.5290E-03     28.5710E-03    -14.1964E-03     13.9014E-03
            1827     3.54944E-03     32.9460E-03    -11.0274E+06     -57.593E+06    -6.03444E+06     127.678E+03    -14.3884E-03     28.6041E-03    -14.2157E-03     10.8866E-03    -14.3515E-03     28.3412E-03    -14.1464E-03     10.8867E-03
            1828     2.66217E-03     32.9367E-03    -12.0002E+06    -60.5542E+06    -8.60011E+06     220.093E+03    -14.2623E-03     28.4330E-03    -14.1707E-03     8.03298E-03    -14.2221E-03     28.1602E-03    -14.1085E-03     8.03467E-03
            1829     1.77484E-03     32.9302E-03    -12.9782E+06    -62.4877E+06    -11.1403E+06     206.069E+03    -14.1723E-03     28.3083E-03    -14.1360E-03     5.33777E-03    -14.1305E-03     28.0309E-03    -14.0823E-03     5.33968E-03
            1830     887.418E-06     32.9262E-03    -13.6961E+06    -61.7293E+06    -13.2686E+06     109.049E+03    -14.1225E-03     28.2301E-03    -14.1076E-03     2.84309E-03    -14.0822E-03     27.9607E-03    -14.0646E-03     2.84411E-03
            1831     16.8372E-03     32.7197E-03    -4.02157E+06     147.653E+06     46.5508E+06     53.7155E+03    -27.2922E-03     42.7756E-03    -15.4834E-03     234.315E-03    -32.8602E-03     48.7185E-03    -15.4589E-03     238.251E-03
            1832     15.9539E-03     32.5317E-03    -5.32892E+06     85.3678E+06    -9.34407E+06     221.670E+03    -22.7738E-03     37.9564E-03    -15.1826E-03     159.904E-03    -24.4891E-03     39.9830E-03    -15.3454E-03     160.348E-03
            1833     15.0684E-03     32.4187E-03    -4.54095E+06     25.2394E+06    -12.2242E+06     407.032E+03    -19.0183E-03     34.1691E-03    -15.1508E-03     93.9861E-03    -19.3080E-03     34.5677E-03    -15.2419E-03     93.9558E-03
            1834     14.1837E-03     32.3556E-03    -4.12721E+06    -15.1974E+06    -11.4133E+06     401.820E+03    -17.6531E-03     32.7695E-03    -15.1164E-03     61.3949E-03    -17.7081E-03     32.7890E-03    -15.1454E-03     61.3552E-03
            1835     13.2984E-03     32.3037E-03    -3.84526E+06    -33.4236E+06    -10.4999E+06     475.497E+03    -17.5129E-03     32.5556E-03    -15.0427E-03     56.2864E-03    -17.5104E-03     32.4512E-03    -15.0411E-03     56.2549E-03
            1836     12.4133E-03     32.2490E-03    -3.75820E+06    -36.0871E+06    -1.66672E+06     642.911E+03    -17.2603E-03     32.2391E-03    -14.9788E-03     53.0020E-03    -17.2504E-03     32.0926E-03    -14.9294E-03     52.9818E-03
            1837     11.5279E-03     32.2032E-03    -4.02924E+06    -41.8261E+06    -2.60472E+06     784.897E+03    -16.8826E-03     31.7512E-03    -14.8686E-03     45.7965E-03    -16.8532E-03     31.5665E-03    -14.8151E-03     45.7859E-03
            1838     10.6424E-03     32.1617E-03    -4.11006E+06    -53.3259E+06    -4.42072E+06     916.764E+03    -16.6083E-03     31.3679E-03    -14.7597E-03     41.0746E-03    -16.5542E-03     31.1228E-03    -14.6985E-03     41.0712E-03
            1839     9.75671E-03     32.1245E-03    -4.13204E+06    -56.0148E+06    -328.471E+03     803.880E+03    -16.2533E-03     30.9205E-03    -14.6672E-03     36.5648E-03    -16.1979E-03     30.6525E-03    -14.5816E-03     36.5642E-03
            1840     8.87069E-03     32.0914E-03    -4.76629E+06    -54.8264E+06    -345.767E+03     380.639E+03    -15.8957E-03     30.4490E-03    -14.5533E-03     32.2318E-03    -15.8431E-03     30.1858E-03    -14.4686E-03     32.2288E-03
            1841     7.98455E-03     32.0623E-03    -6.00244E+06    -58.7436E+06    -303.993E+03     485.806E+03    -15.5586E-03     30.0120E-03    -14.4534E-03     27.9911E-03    -15.5053E-03     29.7297E-03    -14.3610E-03     27.9915E-03
            1842     7.09807E-03     32.0371E-03    -6.70410E+06    -59.7020E+06    -129.383E+03     978.161E+03    -15.2335E-03     29.5895E-03    -14.3561E-03     23.9771E-03    -15.1817E-03     29.3024E-03    -14.2604E-03     23.9853E-03
            1843     6.21138E-03     32.0156E-03    -7.32770E+06    -57.2382E+06    -971.124E+03     870.942E+03    -14.9229E-03     29.1809E-03    -14.2580E-03     20.2562E-03    -14.8761E-03     28.9077E-03    -14.1692E-03     20.2640E-03
            1844     5.32446E-03     31.9974E-03     -8.4517E+06    -59.3100E+06    -1.67653E+06     173.764E+03    -14.6534E-03     28.8324E-03    -14.1791E-03     16.7841E-03    -14.6078E-03     28.5512E-03    -14.0892E-03     16.7837E-03
            1845     4.43736E-03     31.9826E-03    -9.63751E+06    -60.1639E+06    -3.06041E+06    -118.272E+03    -14.4207E-03     28.5278E-03    -14.1071E-03     13.5752E-03    -14.3776E-03     28.2457E-03    -14.0212E-03     13.5716E-03
            1846     3.55006E-03     31.9706E-03    -10.8181E+06    -57.6401E+06    -6.09595E+06    -31.2959E+03    -14.2247E-03     28.2599E-03    -14.0352E-03     10.6253E-03    -14.1866E-03     27.9964E-03    -13.9664E-03     10.6234E-03
            1847     2.66268E-03     31.9615E-03    -11.9219E+06    -60.6568E+06    -8.62929E+06     109.970E+03    -14.0899E-03     28.0765E-03    -13.9865E-03     7.83549E-03    -14.0492E-03     27.8031E-03    -13.9245E-03     7.83580E-03
            1848     1.77516E-03     31.9551E-03    -12.8760E+06    -62.2744E+06    -11.0810E+06     224.748E+03    -13.9890E-03     27.9378E-03    -13.9488E-03     5.20421E-03    -13.9470E-03     27.6612E-03    -13.8952E-03     5.20638E-03
            1849     887.600E-06     31.9512E-03    -13.5440E+06    -61.4799E+06    -13.1423E+06     147.137E+03    -13.9231E-03     27.8541E-03    -13.9310E-03     2.78072E-03    -13.8825E-03     27.5855E-03    -13.8880E-03     2.78224E-03
            1850     16.8379E-03     31.7385E-03    -3.61370E+06     147.751E+06     46.6787E+06     312.536E+03    -27.4594E-03     42.9319E-03    -15.4725E-03     233.770E-03    -33.0080E-03     48.8568E-03    -15.4481E-03     237.680E-03
            1851     15.9535E-03     31.5514E-03    -4.97842E+06     85.1448E+06    -9.35133E+06     256.431E+03    -22.8876E-03     38.0478E-03    -15.1603E-03     158.762E-03    -24.5758E-03     40.0478E-03    -15.3233E-03     159.197E-03
            1852     15.0694E-03     31.4402E-03    -4.73250E+06     24.8624E+06    -12.5598E+06     281.858E+03    -19.2527E-03     34.3659E-03    -15.1132E-03     93.4021E-03    -19.5397E-03     34.7607E-03    -15.2051E-03     93.3678E-03
            1853     14.1838E-03     31.3763E-03    -3.92108E+06    -14.8472E+06    -11.3161E+06     454.835E+03    -17.9051E-03     32.9656E-03    -15.0605E-03     60.7999E-03    -17.9588E-03     32.9855E-03    -15.0898E-03     60.7602E-03
            1854     13.2995E-03     31.3249E-03    -3.66618E+06    -33.3851E+06    -10.5825E+06     531.463E+03    -17.6698E-03     32.6379E-03    -14.9681E-03     55.7508E-03    -17.6660E-03     32.5332E-03    -14.9672E-03     55.7197E-03
            1855     12.4144E-03     31.2706E-03    -3.79886E+06    -36.2040E+06    -1.90058E+06     702.678E+03    -17.3592E-03     32.2479E-03    -14.8887E-03     52.5048E-03    -17.3486E-03     32.1007E-03    -14.8402E-03     52.4854E-03
            1856     11.5291E-03     31.2250E-03    -3.89575E+06    -41.8116E+06    -2.72568E+06     836.627E+03    -16.9743E-03     31.7377E-03    -14.7634E-03     45.2391E-03    -16.9437E-03     31.5528E-03    -14.7108E-03     45.2293E-03
            1857     10.6437E-03     31.1839E-03    -3.76992E+06    -53.2195E+06    -4.42051E+06     787.115E+03    -16.6398E-03     31.2798E-03    -14.6400E-03     40.4925E-03    -16.5840E-03     31.0345E-03    -14.5794E-03     40.4877E-03
            1858     9.75796E-03     31.1472E-03    -3.72389E+06    -55.5939E+06    -267.598E+03     587.744E+03    -16.2526E-03     30.7867E-03    -14.5342E-03     35.9995E-03    -16.1957E-03     30.5201E-03    -14.4495E-03     35.9962E-03
            1859     8.87203E-03     31.1144E-03    -4.13989E+06    -55.0447E+06     312.048E+03     967.986E+03    -15.8666E-03     30.2780E-03    -14.4113E-03     31.6512E-03    -15.8114E-03     30.0117E-03    -14.3239E-03     31.6559E-03
            1860     7.98575E-03     31.0857E-03    -5.24147E+06    -58.7752E+06     587.833E+03     1.32836E+06    -15.4958E-03     29.7963E-03    -14.3005E-03     27.4358E-03    -15.4398E-03     29.5114E-03    -14.2047E-03     27.4472E-03
            1861     7.09924E-03     31.0609E-03    -6.72793E+06    -59.4710E+06     147.073E+03     912.313E+03    -15.1396E-03     29.3300E-03    -14.1904E-03     23.4718E-03    -15.0886E-03     29.0436E-03    -14.0937E-03     23.4792E-03
            1862     6.21248E-03     31.0397E-03    -7.51320E+06    -56.6790E+06    -736.148E+03     525.714E+03    -14.8014E-03     28.8839E-03    -14.0825E-03     19.7934E-03    -14.7567E-03     28.6134E-03    -13.9931E-03     19.7968E-03
            1863     5.32545E-03     31.0220E-03    -8.11453E+06    -58.5612E+06    -1.61879E+06     173.084E+03    -14.5092E-03     28.5028E-03    -13.9936E-03     16.3791E-03    -14.4632E-03     28.2247E-03    -13.9050E-03     16.3788E-03
            1864     4.43820E-03     31.0073E-03    -9.30430E+06    -60.2953E+06    -3.12622E+06    -104.243E+03    -14.2604E-03     28.1759E-03    -13.9156E-03     13.2342E-03    -14.2153E-03     27.8929E-03    -13.8303E-03     13.2308E-03
            1865     3.55080E-03     30.9957E-03    -10.6073E+06    -57.7560E+06    -6.15651E+06     26.7294E+03    -14.0467E-03     27.8851E-03    -13.8385E-03     10.3465E-03    -14.0072E-03     27.6209E-03    -13.7701E-03     10.3454E-03
            1866     2.66318E-03     30.9868E-03    -11.8096E+06    -60.7578E+06    -8.72700E+06     143.387E+03    -13.8988E-03     27.6848E-03    -13.7859E-03     7.62352E-03    -13.8572E-03     27.4109E-03    -13.7243E-03     7.62430E-03
            1867     1.77554E-03     30.9805E-03    -12.8125E+06    -62.1454E+06    -11.0244E+06     196.123E+03    -13.7914E-03     27.5371E-03    -13.7457E-03     5.05838E-03    -13.7494E-03     27.2610E-03    -13.6921E-03     5.06022E-03
            1868     887.769E-06     30.9767E-03    -13.3975E+06    -61.1659E+06    -13.0556E+06     165.412E+03    -13.7322E-03     27.4447E-03    -13.7125E-03     2.74211E-03    -13.6915E-03     27.1774E-03    -13.6697E-03     2.74387E-03
            1869     16.8382E-03     30.7576E-03    -4.00227E+06     147.150E+06     46.2055E+06     178.133E+03    -27.7913E-03     43.2421E-03    -15.4509E-03     233.108E-03    -33.3111E-03     49.1361E-03    -15.4274E-03     236.962E-03
            1870     15.9543E-03     30.5717E-03    -4.69793E+06     85.0128E+06    -9.32555E+06     213.060E+03    -23.1228E-03     38.2414E-03    -15.1186E-03     157.202E-03    -24.7936E-03     40.2244E-03    -15.2817E-03     157.625E-03
            1871     15.0695E-03     30.4604E-03    -3.89197E+06     25.5403E+06    -12.1733E+06     582.922E+03    -19.3692E-03     34.4231E-03    -15.0539E-03     92.1083E-03    -19.6475E-03     34.8135E-03    -15.1462E-03     92.0757E-03
            1872     14.1859E-03     30.3972E-03    -4.36140E+06    -14.8763E+06    -11.9201E+06     686.766E+03    -17.9113E-03     32.9008E-03    -14.9896E-03     60.6757E-03    -17.9653E-03     32.9211E-03    -15.0213E-03     60.6391E-03
            1873     13.3005E-03     30.3462E-03    -4.28381E+06    -33.6633E+06    -10.9572E+06     460.686E+03    -17.8640E-03     32.7509E-03    -14.8870E-03     55.4633E-03    -17.8620E-03     32.6461E-03    -14.8867E-03     55.4309E-03
            1874     12.4156E-03     30.2921E-03    -3.79989E+06    -36.2675E+06    -1.89319E+06     651.062E+03    -17.5355E-03     32.3239E-03    -14.7884E-03     51.8899E-03    -17.5244E-03     32.1761E-03    -14.7397E-03     51.8697E-03
            1875     11.5305E-03     30.2470E-03    -3.83343E+06    -41.7692E+06    -3.00840E+06     847.061E+03    -17.0280E-03     31.6719E-03    -14.6439E-03     44.6413E-03    -16.9965E-03     31.4872E-03    -14.5928E-03     44.6318E-03
            1876     10.6451E-03     30.2063E-03    -4.01177E+06    -52.8993E+06    -4.76999E+06     775.449E+03    -16.6591E-03     31.1653E-03    -14.5062E-03     39.9133E-03    -16.6042E-03     30.9222E-03    -14.4475E-03     39.9085E-03
            1877     9.75944E-03     30.1699E-03    -4.45481E+06    -55.4761E+06    -585.215E+03     716.392E+03    -16.2435E-03     30.6313E-03    -14.3879E-03     35.4071E-03    -16.1898E-03     30.3666E-03    -14.3039E-03     35.4057E-03
            1878     8.87342E-03     30.1377E-03    -5.07620E+06    -55.7940E+06    -235.660E+03     1.03333E+06    -15.8204E-03     30.0728E-03    -14.2524E-03     31.0500E-03    -15.7679E-03     29.8048E-03    -14.1653E-03     31.0557E-03
            1879     7.98715E-03     30.1094E-03    -5.34951E+06    -58.6237E+06     631.369E+03     1.52275E+06    -15.4203E-03     29.5503E-03    -14.1300E-03     26.8632E-03    -15.3651E-03     29.2661E-03    -14.0340E-03     26.8772E-03
            1880     7.10057E-03     30.0850E-03    -5.68529E+06    -58.3641E+06     895.342E+03     1.11090E+06    -15.0346E-03     29.0441E-03    -14.0095E-03     22.9283E-03    -14.9810E-03     28.7606E-03    -13.9122E-03     22.9384E-03
            1881     6.21366E-03     30.0642E-03    -6.66607E+06    -56.3557E+06    -580.075E+03     364.319E+03    -14.6663E-03     28.5573E-03    -13.8909E-03     19.3006E-03    -14.6180E-03     28.2869E-03    -13.8025E-03     19.3021E-03
            1882     5.32650E-03     30.0468E-03    -7.88753E+06    -58.1836E+06    -1.82544E+06     207.236E+03    -14.3514E-03     28.1448E-03    -13.7934E-03     15.9433E-03    -14.3044E-03     27.8686E-03    -13.7067E-03     15.9435E-03
            1883     4.43913E-03     30.0325E-03    -9.18357E+06    -60.2392E+06    -3.28816E+06     128.249E+03    -14.0846E-03     27.7941E-03    -13.7095E-03     12.8669E-03    -14.0387E-03     27.5113E-03    -13.6253E-03     12.8667E-03
            1884     3.55151E-03     30.0211E-03    -10.5006E+06    -57.9545E+06    -6.17798E+06     142.691E+03    -13.8573E-03     27.4849E-03    -13.6276E-03     10.0522E-03    -13.8170E-03     27.2195E-03    -13.5593E-03     10.0526E-03
            1885     2.66381E-03     30.0124E-03    -11.6161E+06    -60.6850E+06    -8.55090E+06     253.870E+03    -13.6935E-03     27.2646E-03    -13.5711E-03     7.40321E-03    -13.6513E-03     26.9905E-03    -13.5090E-03     7.40546E-03
            1886     1.77590E-03     30.0062E-03    -12.6507E+06    -62.0014E+06    -10.9332E+06     223.897E+03    -13.5802E-03     27.1069E-03    -13.5267E-03     4.90969E-03    -13.5377E-03     26.8311E-03    -13.4731E-03     4.91191E-03
            1887     887.982E-06     30.0025E-03    -13.3181E+06    -60.8335E+06    -12.9465E+06     179.835E+03    -13.5192E-03     27.0024E-03    -13.4832E-03     2.67754E-03    -13.4788E-03     26.7364E-03    -13.4404E-03     2.67949E-03
            1888     16.8386E-03     29.7774E-03    -3.73608E+06     146.754E+06     45.6755E+06    -45.0893E+03    -28.3098E-03     43.7371E-03    -15.4273E-03     232.606E-03    -33.7840E-03     49.5866E-03    -15.4063E-03     236.377E-03
            1889     15.9555E-03     29.5900E-03    -5.21556E+06     85.0979E+06    -10.3825E+06     275.322E+03    -23.4788E-03     38.5444E-03    -15.0657E-03     156.356E-03    -25.1404E-03     40.5198E-03    -15.2334E-03     156.755E-03
            1890     15.0723E-03     29.4821E-03    -4.44015E+06     25.7168E+06    -12.7811E+06     949.616E+03    -19.4014E-03     34.3881E-03    -14.9868E-03     91.5492E-03    -19.6767E-03     34.7760E-03    -15.0815E-03     91.5212E-03
            1891     14.1853E-03     29.4184E-03    -3.68859E+06    -14.7265E+06    -11.9074E+06     901.715E+03    -18.0864E-03     32.9986E-03    -14.9121E-03     60.5499E-03    -18.1369E-03     33.0182E-03    -14.9450E-03     60.5157E-03
            1892     13.3015E-03     29.3667E-03    -3.80408E+06    -33.5990E+06    -11.0468E+06     592.285E+03    -18.0514E-03     32.8430E-03    -14.7916E-03     54.7135E-03    -18.0463E-03     32.7372E-03    -14.7926E-03     54.6827E-03
            1893     12.4172E-03     29.3137E-03    -4.07140E+06    -36.6482E+06    -2.52185E+06     690.814E+03    -17.6203E-03     32.2946E-03    -14.6743E-03     51.1237E-03    -17.6085E-03     32.1456E-03    -14.6279E-03     51.1042E-03
            1894     11.5319E-03     29.2689E-03    -4.48957E+06    -41.6538E+06    -3.61436E+06     970.044E+03    -17.0747E-03     31.5895E-03    -14.5148E-03     44.0863E-03    -17.0453E-03     31.4068E-03    -14.4660E-03     44.0787E-03
            1895     10.6466E-03     29.2288E-03    -4.64843E+06    -52.7221E+06    -5.09777E+06     981.655E+03    -16.6894E-03     31.0528E-03    -14.3634E-03     39.3068E-03    -16.6372E-03     30.8118E-03    -14.3057E-03     39.3049E-03
            1896     9.76094E-03     29.1929E-03    -5.03659E+06    -55.5037E+06    -1.00394E+06     1.04467E+06    -16.2302E-03     30.4601E-03    -14.2299E-03     34.7726E-03    -16.1786E-03     30.1965E-03    -14.1472E-03     34.7757E-03
            1897     8.87496E-03     29.1611E-03    -5.83441E+06    -56.1807E+06    -733.791E+03     1.30008E+06    -15.7732E-03     29.8540E-03    -14.0809E-03     30.4132E-03    -15.7230E-03     29.5859E-03    -13.9946E-03     30.4225E-03
            1898     7.98860E-03     29.1333E-03    -6.56605E+06    -58.1117E+06    -891.513E+03     1.00589E+06    -15.3316E-03     29.2716E-03    -13.9399E-03     26.2666E-03    -15.2809E-03     28.9939E-03    -13.8506E-03     26.2741E-03
            1899     7.10192E-03     29.1094E-03    -6.67256E+06    -57.5533E+06    -616.739E+03     464.551E+03    -14.9099E-03     28.7176E-03    -13.8078E-03     22.3715E-03    -14.8602E-03     28.4417E-03    -13.7177E-03     22.3734E-03
            1900     6.21495E-03     29.0890E-03    -6.90774E+06    -56.2711E+06    -939.805E+03     528.923E+03    -14.5210E-03     28.2063E-03    -13.6853E-03     18.7679E-03    -14.4735E-03     27.9372E-03    -13.5984E-03     18.7716E-03
            1901     5.32764E-03     29.0720E-03    -7.92341E+06    -57.8580E+06    -2.02198E+06     458.495E+03    -14.1797E-03     27.7592E-03    -13.5795E-03     15.4769E-03    -14.1330E-03     27.4849E-03    -13.4943E-03     15.4804E-03
            1902     4.44009E-03     29.0581E-03    -9.14782E+06    -60.1447E+06    -3.33584E+06     256.893E+03    -13.8959E-03     27.3854E-03    -13.4895E-03     12.4685E-03    -13.8499E-03     27.1031E-03    -13.4057E-03     12.4700E-03
            1903     3.55235E-03     29.0469E-03    -10.2992E+06    -57.9867E+06    -6.08583E+06     270.369E+03    -13.6500E-03     27.0526E-03    -13.4026E-03     9.73137E-03    -13.6088E-03     26.7867E-03    -13.3340E-03     9.73347E-03
            1904     2.66436E-03     29.0384E-03    -11.4226E+06    -60.6324E+06    -8.44588E+06     316.205E+03    -13.4766E-03     26.8181E-03    -13.3415E-03     7.16384E-03    -13.4337E-03     26.5439E-03    -13.2792E-03     7.16693E-03
            1905     1.77635E-03     29.0324E-03    -12.3926E+06    -61.7241E+06    -10.6934E+06     320.946E+03    -13.3577E-03     26.6497E-03    -13.2921E-03     4.75711E-03    -13.3147E-03     26.3746E-03    -13.2381E-03     4.76060E-03
            1906     888.197E-06     29.0287E-03    -13.1034E+06    -60.5127E+06    -12.6774E+06     158.981E+03    -13.2801E-03     26.5268E-03    -13.2467E-03     2.56810E-03    -13.2395E-03     26.2618E-03    -13.2033E-03     2.56981E-03
            1907     16.8385E-03     28.7939E-03    -3.35988E+06     146.639E+06     45.4797E+06     186.638E+03    -28.4957E-03     43.9000E-03    -15.4043E-03     231.867E-03    -33.9265E-03     49.7075E-03    -15.3847E-03     235.574E-03
            1908     15.9560E-03     28.6099E-03    -5.01453E+06     85.0086E+06    -10.2151E+06     547.663E+03    -23.4108E-03     38.4486E-03    -15.0377E-03     155.252E-03    -25.0328E-03     40.3842E-03    -15.2048E-03     155.643E-03
            1909     15.0704E-03     28.5026E-03    -6.24412E+06     25.5112E+06    -13.7461E+06     456.179E+03    -19.9985E-03     34.9343E-03    -14.9357E-03     91.1295E-03    -20.2815E-03     35.3255E-03    -15.0324E-03     91.0919E-03
            1910     14.1886E-03     28.4390E-03    -5.00451E+06    -14.9781E+06    -12.9327E+06     555.442E+03    -18.6498E-03     33.4692E-03    -14.8194E-03     59.8950E-03    -18.7046E-03     33.4906E-03    -14.8551E-03     59.8545E-03
            1911     13.3035E-03     28.3879E-03    -3.42193E+06    -33.7604E+06    -10.4691E+06     1.53749E+06    -17.9957E-03     32.6765E-03    -14.6808E-03     54.1099E-03    -17.9879E-03     32.5670E-03    -14.6792E-03     54.0921E-03
            1912     12.4184E-03     28.3352E-03    -4.28314E+06    -36.2495E+06    -1.82750E+06     1.58407E+06    -17.6080E-03     32.1653E-03    -14.5573E-03     50.5124E-03    -17.5982E-03     32.0169E-03    -14.5076E-03     50.5050E-03
            1913     11.5336E-03     28.2911E-03    -4.90977E+06    -41.4320E+06    -3.63525E+06     878.937E+03    -17.1712E-03     31.5519E-03    -14.3807E-03     43.4313E-03    -17.1439E-03     31.3707E-03    -14.3317E-03     43.4227E-03
            1914     10.6482E-03     28.2513E-03    -4.71204E+06    -52.9144E+06    -5.15615E+06     955.247E+03    -16.7198E-03     30.9314E-03    -14.2115E-03     38.6072E-03    -16.6673E-03     30.6893E-03    -14.1538E-03     38.6052E-03
            1915     9.76262E-03     28.2160E-03    -4.82709E+06    -55.6222E+06    -1.20960E+06     1.32238E+06    -16.2198E-03     30.2808E-03    -14.0610E-03     34.0647E-03    -16.1665E-03     30.0164E-03    -13.9794E-03     34.0716E-03
            1916     8.87655E-03     28.1847E-03    -5.10953E+06    -56.0396E+06    -694.854E+03     1.33104E+06    -15.7274E-03     29.6246E-03    -13.8972E-03     29.7164E-03    -15.6738E-03     29.3559E-03    -13.8120E-03     29.7263E-03
            1917     7.99020E-03     28.1575E-03    -5.28956E+06    -57.1043E+06    -443.421E+03     864.041E+03    -15.2456E-03     28.9883E-03    -13.7427E-03     25.5846E-03    -15.1906E-03     28.7130E-03    -13.6544E-03     25.5904E-03
            1918     7.10341E-03     28.1341E-03    -6.17101E+06    -57.2046E+06    -702.626E+03     304.183E+03    -14.7837E-03     28.3817E-03    -13.5981E-03     21.7385E-03    -14.7318E-03     28.1069E-03    -13.5097E-03     21.7385E-03
            1919     6.21630E-03     28.1142E-03    -7.13448E+06    -56.5447E+06    -1.09535E+06     275.678E+03    -14.3629E-03     27.8299E-03    -13.4670E-03     18.1931E-03    -14.3158E-03     27.5600E-03    -13.3802E-03     18.1936E-03
            1920     5.32885E-03     28.0976E-03    -7.75321E+06    -57.5356E+06    -1.71780E+06     468.326E+03    -13.9997E-03     27.3528E-03    -13.3531E-03     14.9729E-03    -13.9530E-03     27.0793E-03    -13.2670E-03     14.9767E-03
            1921     4.44116E-03     28.0840E-03    -8.76097E+06    -59.9974E+06    -3.20791E+06     375.618E+03    -13.6912E-03     26.9460E-03    -13.2548E-03     12.0424E-03    -13.6437E-03     26.6637E-03    -13.1711E-03     12.0455E-03
            1922     3.55317E-03     28.0732E-03    -9.98015E+06    -57.9847E+06    -5.97701E+06     384.248E+03    -13.4309E-03     26.5932E-03    -13.1623E-03     9.38993E-03    -13.3883E-03     26.3266E-03    -13.0936E-03     9.39356E-03
            1923     2.66507E-03     28.0649E-03    -11.0773E+06    -60.5040E+06    -8.29780E+06     459.212E+03    -13.2461E-03     26.3420E-03    -13.0959E-03     6.90837E-03    -13.2018E-03     26.0677E-03    -13.0336E-03     6.91335E-03
            1924     1.77677E-03     28.0590E-03    -12.1021E+06    -61.4042E+06    -10.5259E+06     417.290E+03    -13.1120E-03     26.1553E-03    -13.0433E-03     4.58709E-03    -13.0682E-03     25.8811E-03    -12.9893E-03     4.59186E-03
            1925     888.416E-06     28.0555E-03    -12.7680E+06    -60.0617E+06    -12.4884E+06     266.724E+03    -13.0304E-03     26.0284E-03    -12.9980E-03     2.47168E-03    -12.9890E-03     25.7648E-03    -12.9548E-03     2.47480E-03
            1926     16.8403E-03     27.8116E-03    -3.73173E+06     146.404E+06     45.9632E+06     549.720E+03    -28.6956E-03     44.0814E-03    -15.3858E-03     230.568E-03    -34.0693E-03     49.8283E-03    -15.3628E-03     234.217E-03
            1927     15.9554E-03     27.6307E-03    -5.17070E+06     84.7654E+06    -9.75441E+06     789.913E+03    -23.6472E-03     38.6475E-03    -15.0003E-03     153.741E-03    -25.2330E-03     40.5441E-03    -15.1645E-03     154.120E-03
            1928     15.0734E-03     27.5211E-03    -5.20614E+06     26.3435E+06    -12.9575E+06     410.757E+03    -20.3892E-03     35.2608E-03    -14.8716E-03     90.0656E-03    -20.6671E-03     35.6513E-03    -14.9670E-03     90.0234E-03
            1929     14.1886E-03     27.4593E-03    -5.49725E+06    -15.6610E+06    -12.9027E+06     596.207E+03    -18.7942E-03     33.5276E-03    -14.7333E-03     59.2223E-03    -18.8494E-03     33.5451E-03    -14.7672E-03     59.1820E-03
            1930     13.3047E-03     27.4094E-03    -5.11686E+06    -34.9796E+06    -11.3351E+06     1.41670E+06    -18.2152E-03     32.7888E-03    -14.5736E-03     53.8133E-03    -18.2124E-03     32.6765E-03    -14.5721E-03     53.7938E-03
            1931     12.4201E-03     27.3567E-03    -3.73424E+06    -35.2366E+06    -1.26187E+06     1.58817E+06    -17.7466E-03     32.1761E-03    -14.4295E-03     49.9332E-03    -17.7357E-03     32.0305E-03    -14.3793E-03     49.9260E-03
            1932     11.5352E-03     27.3130E-03    -3.30579E+06    -40.9601E+06    -2.79848E+06     1.03010E+06    -17.2421E-03     31.4768E-03    -14.2347E-03     42.6074E-03    -17.2083E-03     31.2940E-03    -14.1845E-03     42.6010E-03
            1933     10.6500E-03     27.2741E-03    -3.68889E+06    -53.2946E+06    -4.98870E+06     1.07169E+06    -16.7469E-03     30.7939E-03    -14.0470E-03     37.7964E-03    -16.6887E-03     30.5479E-03    -13.9894E-03     37.7962E-03
            1934     9.76432E-03     27.2392E-03    -3.92139E+06    -55.7172E+06    -1.24415E+06     1.43066E+06    -16.1987E-03     30.0779E-03    -13.8792E-03     33.2980E-03    -16.1405E-03     29.8116E-03    -13.7990E-03     33.3065E-03
            1935     8.87835E-03     27.2086E-03    -4.40162E+06    -55.5250E+06    -671.511E+03     1.34084E+06    -15.6711E-03     29.3712E-03    -13.7001E-03     28.9567E-03    -15.6146E-03     29.1039E-03    -13.6166E-03     28.9670E-03
            1936     7.99184E-03     27.1820E-03    -5.19892E+06    -56.3690E+06    -284.250E+03     916.708E+03    -15.1487E-03     28.6813E-03    -13.5326E-03     24.8559E-03    -15.0944E-03     28.4092E-03    -13.4447E-03     24.8626E-03
            1937     7.10502E-03     27.1591E-03    -5.79009E+06    -56.7369E+06    -222.205E+03     536.557E+03    -14.6505E-03     28.0272E-03    -13.3767E-03     21.0502E-03    -14.5980E-03     27.7534E-03    -13.2872E-03     21.0533E-03
            1938     6.21774E-03     27.1398E-03    -6.51397E+06    -56.5245E+06    -785.485E+03     221.106E+03    -14.1946E-03     27.4288E-03    -13.2342E-03     17.5790E-03    -14.1448E-03     27.1575E-03    -13.1467E-03     17.5789E-03
            1939     5.33017E-03     27.1236E-03    -7.44185E+06    -57.6603E+06    -1.81001E+06     233.608E+03    -13.8008E-03     26.9111E-03    -13.1103E-03     14.4383E-03    -13.7522E-03     26.6367E-03    -13.0250E-03     14.4391E-03
            1940     4.44224E-03     27.1104E-03    -8.40539E+06    -59.9130E+06    -3.25339E+06     549.941E+03    -13.4734E-03     26.4782E-03    -13.0048E-03     11.5945E-03    -13.4241E-03     26.1959E-03    -12.9220E-03     11.5999E-03
            1941     3.55411E-03     27.0999E-03    -9.58201E+06    -57.9164E+06    -5.93813E+06     629.396E+03    -13.1973E-03     26.1041E-03    -12.9068E-03     9.03184E-03    -13.1528E-03     25.8372E-03    -12.8386E-03     9.03870E-03
            1942     2.66573E-03     27.0919E-03    -10.7405E+06    -60.3244E+06     -8.1678E+06     663.866E+03    -12.9965E-03     25.8331E-03    -12.8366E-03     6.64786E-03    -12.9510E-03     25.5590E-03    -12.7744E-03     6.65553E-03
            1943     1.77726E-03     27.0862E-03    -11.7067E+06    -60.9474E+06    -10.4002E+06     639.255E+03    -12.8546E-03     25.6356E-03    -12.7810E-03     4.41081E-03    -12.8097E-03     25.3630E-03    -12.7277E-03     4.41847E-03
            1944     888.642E-06     27.0828E-03    -12.3643E+06    -59.3774E+06    -12.1891E+06     449.392E+03    -12.7627E-03     25.5036E-03    -12.7409E-03     2.36286E-03    -12.7207E-03     25.2424E-03    -12.6978E-03     2.36835E-03
            1945     16.8390E-03     26.8313E-03    -3.94921E+06     146.178E+06     46.6123E+06     593.251E+03    -29.3015E-03     44.6683E-03    -15.3668E-03     228.584E-03    -34.5944E-03     50.3309E-03    -15.3399E-03     232.151E-03
            1946     15.9578E-03     26.6481E-03    -4.97005E+06     85.0107E+06    -9.12218E+06     940.630E+03    -24.1525E-03     39.0939E-03    -14.9414E-03     152.803E-03    -25.7212E-03     40.9733E-03    -15.1031E-03     153.165E-03
            1947     15.0739E-03     26.5417E-03    -4.32340E+06     26.1665E+06    -12.5157E+06     1.19833E+06    -20.4113E-03     35.2016E-03    -14.7903E-03     89.2882E-03    -20.6793E-03     35.5835E-03    -14.8846E-03     89.2549E-03
            1948     14.1901E-03     26.4797E-03    -4.26965E+06    -15.6704E+06    -12.3413E+06     1.12567E+06    -18.8444E-03     33.4874E-03    -14.6430E-03     58.2197E-03    -18.8925E-03     33.5005E-03    -14.6758E-03     58.1864E-03
            1949     13.3061E-03     26.4300E-03    -3.75798E+06    -35.0260E+06    -12.0920E+06     356.755E+03    -18.5226E-03     32.9794E-03    -14.4568E-03     52.7967E-03    -18.5112E-03     32.8654E-03    -14.4610E-03     52.7630E-03
            1950     12.4219E-03     26.3784E-03    -3.00958E+06    -35.5852E+06    -2.17983E+06     533.539E+03    -17.9670E-03     32.2523E-03    -14.2853E-03     49.0767E-03    -17.9501E-03     32.1047E-03    -14.2402E-03     49.0559E-03
            1951     11.5371E-03     26.3352E-03    -2.97876E+06    -40.7295E+06    -2.63562E+06     1.45894E+06    -17.2735E-03     31.3478E-03    -14.0743E-03     41.8170E-03    -17.2381E-03     31.1649E-03    -14.0241E-03     41.8165E-03
            1952     10.6519E-03     26.2969E-03    -3.18744E+06    -53.2108E+06    -4.91644E+06     1.49452E+06    -16.7598E-03     30.6295E-03    -13.8697E-03     36.9521E-03    -16.6991E-03     30.3828E-03    -13.8125E-03     36.9576E-03
            1953     9.76630E-03     26.2627E-03    -3.52361E+06    -55.8831E+06    -1.49065E+06     1.51838E+06    -16.1740E-03     29.8582E-03    -13.6842E-03     32.4678E-03    -16.1130E-03     29.5906E-03    -13.6055E-03     32.4777E-03
            1954     8.88013E-03     26.2327E-03    -3.92238E+06    -55.0349E+06    -736.948E+03     1.65864E+06    -15.5956E-03     29.0851E-03    -13.4895E-03     28.1417E-03    -15.5371E-03     28.8195E-03    -13.4077E-03     28.1563E-03
            1955     7.99369E-03     26.2067E-03    -4.46858E+06    -55.4609E+06     448.107E+03     1.11130E+06    -15.0383E-03     28.3494E-03    -13.3111E-03     24.0657E-03    -14.9826E-03     28.0797E-03    -13.2220E-03     24.0750E-03
            1956     7.10666E-03     26.1845E-03    -5.22243E+06    -56.3209E+06     343.225E+03     474.896E+03    -14.5037E-03     27.6464E-03    -13.1427E-03     20.3295E-03    -14.4498E-03     27.3730E-03    -13.0518E-03     20.3320E-03
            1957     6.21933E-03     26.1657E-03    -6.01012E+06    -56.3274E+06    -602.174E+03     339.822E+03    -14.0127E-03     27.0006E-03    -12.9879E-03     16.9388E-03    -13.9609E-03     26.7293E-03    -12.9006E-03     16.9404E-03
            1958     5.33150E-03     26.1501E-03    -7.00149E+06    -57.8326E+06    -1.92410E+06     382.795E+03    -13.5888E-03     26.4434E-03    -12.8546E-03     13.8902E-03    -13.5376E-03     26.1676E-03    -12.7702E-03     13.8930E-03
            1959     4.44344E-03     26.1372E-03    -8.12680E+06    -60.1560E+06    -3.50478E+06     650.797E+03    -13.2434E-03     25.9853E-03    -12.7419E-03     11.1371E-03    -13.1920E-03     25.7016E-03    -12.6604E-03     11.1439E-03
            1960     3.55504E-03     26.1271E-03    -9.19162E+06    -57.7392E+06    -5.99106E+06     997.200E+03    -12.9490E-03     25.5875E-03    -12.6385E-03     8.66184E-03    -12.9027E-03     25.3209E-03    -12.5714E-03     8.67351E-03
            1961     2.66648E-03     26.1193E-03    -10.3562E+06    -59.9612E+06    -7.96347E+06     984.850E+03    -12.7355E-03     25.3008E-03    -12.5653E-03     6.36811E-03    -12.6889E-03     25.0277E-03    -12.5032E-03     6.37996E-03
            1962     1.77772E-03     26.1139E-03    -11.3485E+06    -60.3199E+06    -9.82907E+06     769.624E+03    -12.5858E-03     25.0938E-03    -12.5080E-03     4.22579E-03    -12.5409E-03     24.8230E-03    -12.4532E-03     4.23517E-03
            1963     888.910E-06     26.1105E-03    -11.7679E+06    -58.4979E+06    -11.4055E+06     397.921E+03    -12.4882E-03     24.9540E-03    -12.4658E-03     2.25615E-03    -12.4456E-03     24.6952E-03    -12.4209E-03     2.26100E-03
            1964     16.8411E-03     25.8466E-03    -4.17317E+06     145.633E+06     46.8781E+06     131.475E+03    -29.9473E-03     45.2880E-03    -15.3407E-03     226.797E-03    -35.1710E-03     50.8780E-03    -15.3114E-03     230.252E-03
            1965     15.9581E-03     25.6681E-03    -5.16179E+06     84.3528E+06    -9.24950E+06     936.312E+03    -24.4808E-03     39.3591E-03    -14.8783E-03     151.165E-03    -26.0197E-03     41.2060E-03    -15.0394E-03     151.503E-03
            1966     15.0752E-03     25.5605E-03    -4.44136E+06     25.8380E+06    -13.0969E+06     1.67644E+06    -20.6172E-03     35.3177E-03    -14.7005E-03     88.1518E-03    -20.8783E-03     35.6928E-03    -14.7970E-03     88.1229E-03
            1967     14.1919E-03     25.5005E-03    -3.70241E+06    -14.3359E+06    -12.4999E+06     946.745E+03    -19.1000E-03     33.6300E-03    -14.5300E-03     57.4044E-03    -19.1454E-03     33.6476E-03    -14.5663E-03     57.3683E-03
            1968     13.3079E-03     25.4506E-03    -2.96168E+06    -34.1351E+06    -12.3216E+06     345.032E+03    -18.6414E-03     32.9642E-03    -14.3229E-03     52.1164E-03    -18.6260E-03     32.8529E-03    -14.3307E-03     52.0828E-03
            1969     12.4238E-03     25.3998E-03    -3.28458E+06    -36.7783E+06    -2.94729E+06     731.535E+03    -18.0757E-03     32.2101E-03    -14.1344E-03     48.0738E-03    -18.0567E-03     32.0574E-03    -14.0911E-03     48.0558E-03
            1970     11.5390E-03     25.3576E-03    -3.66321E+06    -41.0804E+06    -3.00914E+06     1.49766E+06    -17.3457E-03     31.2504E-03    -13.9048E-03     40.9594E-03    -17.3122E-03     31.0669E-03    -13.8549E-03     40.9597E-03
            1971     10.6539E-03     25.3197E-03    -3.63326E+06    -52.7747E+06    -5.12467E+06     1.71943E+06    -16.7618E-03     30.4426E-03    -13.6808E-03     36.0863E-03    -16.7033E-03     30.1987E-03    -13.6246E-03     36.0950E-03
            1972     9.76825E-03     25.2865E-03    -3.86541E+06    -56.1426E+06    -1.78509E+06     1.83890E+06    -16.1410E-03     29.6195E-03    -13.4785E-03     31.5675E-03    -16.0807E-03     29.3514E-03    -13.4004E-03     31.5818E-03
            1973     8.88220E-03     25.2571E-03    -4.25324E+06    -54.2985E+06    -1.78195E+06     1.63129E+06    -15.5018E-03     28.7650E-03    -13.2631E-03     27.3090E-03    -15.4444E-03     28.5049E-03    -13.1871E-03     27.3235E-03
            1974     7.99551E-03     25.2318E-03    -4.30071E+06    -54.5062E+06    -219.704E+03     930.887E+03    -14.9036E-03     27.9762E-03    -13.0726E-03     23.2733E-03    -14.8474E-03     27.7119E-03    -12.9884E-03     23.2805E-03
            1975     7.10848E-03     25.2102E-03    -4.72623E+06    -56.0714E+06     547.372E+03     664.121E+03    -14.3389E-03     27.2366E-03    -12.8977E-03     19.5862E-03    -14.2830E-03     26.9633E-03    -12.8068E-03     19.5912E-03
            1976     6.22086E-03     25.1921E-03    -5.76209E+06    -56.1764E+06    -572.582E+03     594.018E+03    -13.8170E-03     26.5496E-03    -12.7326E-03     16.2774E-03    -13.7642E-03     26.2786E-03    -12.6457E-03     16.2824E-03
            1977     5.33295E-03     25.1769E-03    -6.85046E+06    -57.9330E+06    -1.82388E+06     668.380E+03    -13.3720E-03     25.9635E-03    -12.5914E-03     13.3232E-03    -13.3201E-03     25.6868E-03    -12.5066E-03     13.3298E-03
            1978     4.44462E-03     25.1646E-03    -7.95858E+06    -60.3351E+06    -3.54042E+06     906.338E+03    -13.0020E-03     25.4728E-03    -12.4708E-03     10.6685E-03    -12.9494E-03     25.1881E-03    -12.3895E-03     10.6786E-03
            1979     3.55605E-03     25.1548E-03    -8.96653E+06    -57.7253E+06    -5.94326E+06     1.16519E+06    -12.6940E-03     25.0556E-03    -12.3615E-03     8.28262E-03    -12.6467E-03     24.7887E-03    -12.2946E-03     8.29652E-03
            1980     2.66722E-03     25.1473E-03    -9.76147E+06    -59.2252E+06    -7.28841E+06     1.22329E+06    -12.4698E-03     24.7541E-03    -12.2843E-03     6.08712E-03    -12.4222E-03     24.4828E-03    -12.2207E-03     6.10210E-03
            1981     1.77826E-03     25.1420E-03    -10.5951E+06    -59.4168E+06    -8.78346E+06     677.477E+03    -12.3020E-03     24.5273E-03    -12.2252E-03     4.03027E-03    -12.2562E-03     24.2583E-03    -12.1676E-03     4.03849E-03
            1982     889.134E-06     25.1388E-03    -11.0948E+06    -57.8217E+06    -10.6804E+06     230.793E+03    -12.2042E-03     24.3850E-03    -12.1807E-03     2.18057E-03    -12.1603E-03     24.1275E-03    -12.1342E-03     2.18328E-03
            1983     16.8401E-03     24.8626E-03    -3.69883E+06     145.603E+06     47.2701E+06     350.597E+03    -30.4077E-03     45.7188E-03    -15.3111E-03     225.172E-03    -35.5482E-03     51.2260E-03    -15.2805E-03     228.529E-03
            1984     15.9598E-03     24.6861E-03    -5.45917E+06     83.5347E+06    -9.85516E+06     825.853E+03    -24.9762E-03     39.7876E-03    -14.8114E-03     149.112E-03    -26.4753E-03     41.5926E-03    -14.9739E-03     149.418E-03
            1985     15.0771E-03     24.5804E-03    -4.60940E+06     25.7166E+06    -13.8192E+06     1.14386E+06    -20.8989E-03     35.4991E-03    -14.6002E-03     87.0278E-03    -21.1546E-03     35.8699E-03    -14.6999E-03     86.9893E-03
            1986     14.1932E-03     24.5205E-03    -3.48584E+06    -13.1901E+06    -11.9807E+06     959.200E+03    -19.2353E-03     33.6477E-03    -14.4124E-03     56.7035E-03    -19.2801E-03     33.6680E-03    -14.4481E-03     56.6676E-03
            1987     13.3098E-03     24.4715E-03    -3.67056E+06    -34.0385E+06    -12.6080E+06     868.753E+03    -18.8042E-03     32.9890E-03    -14.1849E-03     51.3233E-03    -18.7912E-03     32.8787E-03    -14.1932E-03     51.2965E-03
            1988     12.4257E-03     24.4214E-03    -3.54750E+06    -37.4873E+06    -3.44935E+06     1.12506E+06    -18.1591E-03     32.1348E-03    -13.9757E-03     47.0999E-03    -18.1388E-03     31.9789E-03    -13.9335E-03     47.0874E-03
            1989     11.5411E-03     24.3799E-03    -3.61780E+06    -41.4720E+06    -3.30482E+06     1.55652E+06    -17.4268E-03     31.1530E-03    -13.7261E-03     39.9719E-03    -17.3917E-03     30.9674E-03    -13.6773E-03     39.9732E-03
            1990     10.6560E-03     24.3430E-03    -3.78890E+06    -52.5840E+06    -5.33564E+06     1.84521E+06    -16.7646E-03     30.2469E-03    -13.4823E-03     35.1614E-03    -16.7065E-03     30.0042E-03    -13.4273E-03     35.1721E-03
            1991     9.77041E-03     24.3103E-03    -3.83997E+06    -56.2189E+06    -1.95125E+06     1.97324E+06    -16.0785E-03     29.3424E-03    -13.2638E-03     30.6490E-03    -16.0175E-03     29.0738E-03    -13.1865E-03     30.6653E-03
            1992     8.88417E-03     24.2819E-03    -3.83557E+06    -53.1031E+06    -2.44134E+06     1.49490E+06    -15.3996E-03     28.4288E-03    -13.0292E-03     26.4356E-03    -15.3407E-03     28.1749E-03    -12.9589E-03     26.4485E-03
            1993     7.99750E-03     24.2572E-03    -4.07299E+06    -53.8607E+06    -1.33173E+06     773.644E+03    -14.7548E-03     27.5800E-03    -12.8252E-03     22.4672E-03    -14.6967E-03     27.3201E-03    -12.7478E-03     22.4726E-03
            1994     7.11021E-03     24.2364E-03    -4.61147E+06    -56.2362E+06     500.231E+03     786.417E+03    -14.1624E-03     26.8087E-03    -12.6463E-03     18.8149E-03    -14.1056E-03     26.5345E-03    -12.5556E-03     18.8216E-03
            1995     6.22255E-03     24.2189E-03    -5.41659E+06    -55.8900E+06    -163.460E+03     978.978E+03    -13.6137E-03     26.0867E-03    -12.4730E-03     15.5922E-03    -13.5602E-03     25.8160E-03    -12.3849E-03     15.6023E-03
            1996     5.33436E-03     24.2043E-03    -6.60336E+06    -58.0717E+06    -1.54709E+06     1.04449E+06    -13.1458E-03     25.4694E-03    -12.3236E-03     12.7429E-03    -13.0928E-03     25.1913E-03    -12.2376E-03     12.7544E-03
            1997     4.44588E-03     24.1925E-03    -7.88497E+06    -60.2147E+06    -2.92932E+06     1.19918E+06    -12.7585E-03     24.9557E-03    -12.1971E-03     10.1892E-03    -12.7066E-03     24.6705E-03    -12.1130E-03     10.2032E-03
            1998     3.55705E-03     24.1831E-03    -9.05154E+06    -57.7169E+06    -5.49224E+06     1.32722E+06    -12.4339E-03     24.5145E-03    -12.0806E-03     7.90356E-03    -12.3876E-03     24.2471E-03    -12.0113E-03     7.91961E-03
            1999     2.66801E-03     24.1758E-03    -10.0319E+06    -58.2143E+06    -7.65575E+06     1.19330E+06    -12.1913E-03     24.1840E-03    -11.9926E-03     5.80399E-03    -12.1461E-03     23.9186E-03    -11.9320E-03     5.81863E-03
            2000     1.77877E-03     24.1708E-03    -10.6280E+06    -58.3419E+06    -9.31245E+06     489.652E+03    -12.0154E-03     23.9436E-03    -11.9282E-03     3.83449E-03    -11.9705E-03     23.6808E-03    -11.8747E-03     3.84032E-03
            2001     889.417E-06     24.1677E-03    -11.0055E+06    -57.5586E+06    -10.6881E+06     207.160E+03    -11.9148E-03     23.7947E-03    -11.8799E-03     2.08870E-03    -11.8708E-03     23.5385E-03    -11.8339E-03     2.09111E-03
            2002     16.8419E-03     23.8787E-03    -3.59491E+06     145.034E+06     47.1007E+06     670.689E+03    -30.9524E-03     46.2328E-03    -15.2804E-03     223.646E-03    -36.0155E-03     51.6614E-03    -15.2500E-03     226.910E-03
            2003     15.9602E-03     23.7031E-03    -4.73172E+06     83.5492E+06    -9.32514E+06     913.527E+03    -25.3972E-03     40.1456E-03    -14.7484E-03     146.966E-03    -26.8498E-03     41.9051E-03    -14.9093E-03     147.244E-03
            2004     15.0783E-03     23.6002E-03    -4.53723E+06     25.8898E+06    -13.8963E+06     786.003E+03    -21.2295E-03     35.7334E-03    -14.5038E-03     85.7041E-03    -21.4791E-03     36.0990E-03    -14.6043E-03     85.6582E-03
            2005     14.1953E-03     23.5406E-03    -4.19605E+06    -13.2562E+06    -12.3846E+06     991.620E+03    -19.4701E-03     33.7600E-03    -14.2899E-03     56.0349E-03    -19.5159E-03     33.7798E-03    -14.3265E-03     55.9992E-03
            2006     13.3116E-03     23.4922E-03    -3.28159E+06    -33.9817E+06    -12.4861E+06     1.12710E+06    -18.9443E-03     32.9856E-03    -14.0413E-03     50.4073E-03    -18.9285E-03     32.8737E-03    -14.0497E-03     50.3841E-03
            2007     12.4278E-03     23.4430E-03    -3.12467E+06    -37.8955E+06    -3.49860E+06     1.32144E+06    -18.2666E-03     32.0780E-03    -13.8115E-03     46.1169E-03    -18.2427E-03     31.9187E-03    -13.7695E-03     46.1073E-03
            2008     11.5432E-03     23.4023E-03    -3.35009E+06    -41.7267E+06    -3.37701E+06     1.71194E+06    -17.4726E-03     31.0145E-03    -13.5419E-03     39.0087E-03    -17.4352E-03     30.8269E-03    -13.4935E-03     39.0124E-03
            2009     10.6582E-03     23.3663E-03    -3.28066E+06    -52.5206E+06    -5.32371E+06     1.96970E+06    -16.7692E-03     30.0483E-03    -13.2790E-03     34.1918E-03    -16.7084E-03     29.8048E-03    -13.2248E-03     34.2044E-03
            2010     9.77251E-03     23.3346E-03    -3.09730E+06    -55.7692E+06    -1.92272E+06     1.73316E+06    -16.0136E-03     29.0566E-03    -13.0430E-03     29.7062E-03    -15.9494E-03     28.7890E-03    -12.9672E-03     29.7197E-03
            2011     8.88631E-03     23.3068E-03    -2.92067E+06    -52.2845E+06    -2.30273E+06     1.36837E+06    -15.2828E-03     28.0772E-03    -12.7944E-03     25.5179E-03    -15.2206E-03     27.8257E-03    -12.7259E-03     25.5295E-03
            2012     7.99942E-03     23.2832E-03    -3.26098E+06    -53.3955E+06    -1.35956E+06     1.19804E+06    -14.6029E-03     27.1813E-03    -12.5784E-03     21.6111E-03    -14.5412E-03     26.9225E-03    -12.5031E-03     21.6222E-03
            2013     7.11208E-03     23.2629E-03    -4.19248E+06    -56.3217E+06     299.381E+03     1.07615E+06    -13.9717E-03     26.3620E-03    -12.3903E-03     18.0375E-03    -13.9124E-03     26.0870E-03    -12.3011E-03     18.0481E-03
            2014     6.22415E-03     23.2462E-03    -5.25218E+06    -55.9021E+06     256.555E+03     1.25153E+06    -13.4026E-03     25.6146E-03    -12.2120E-03     14.9070E-03    -13.3487E-03     25.3429E-03    -12.1220E-03     14.9207E-03
            2015     5.33584E-03     23.2322E-03    -6.31236E+06    -57.8988E+06    -860.057E+03     1.43536E+06    -12.9177E-03     24.9733E-03    -12.0556E-03     12.1555E-03    -12.8644E-03     24.6946E-03    -11.9668E-03     12.1722E-03
            2016     4.44710E-03     23.2209E-03    -7.54595E+06    -60.0376E+06    -2.21316E+06     1.47449E+06    -12.5112E-03     24.4333E-03    -11.9221E-03     9.70333E-03    -12.4589E-03     24.1475E-03    -11.8352E-03     9.72097E-03
            2017     3.55808E-03     23.2118E-03    -8.89594E+06    -57.5047E+06    -4.78351E+06     1.63767E+06    -12.1704E-03     23.9700E-03    -11.7996E-03     7.52147E-03    -12.1247E-03     23.7025E-03    -11.7273E-03     7.54159E-03
            2018     2.66878E-03     23.2049E-03    -10.0163E+06    -56.9013E+06    -7.86141E+06     1.28119E+06    -11.9099E-03     23.6112E-03    -11.7013E-03     5.51912E-03    -11.8661E-03     23.3527E-03    -11.6436E-03     5.53494E-03
            2019     1.77930E-03     23.2001E-03    -10.7565E+06    -57.3472E+06    -9.94728E+06     457.215E+03    -11.7318E-03     23.3631E-03    -11.6313E-03     3.65266E-03    -11.6881E-03     23.1064E-03    -11.5822E-03     3.65810E-03
            2020     889.696E-06     23.1972E-03    -11.1789E+06    -57.4710E+06    -10.8566E+06     145.734E+03    -11.6249E-03     23.2029E-03    -11.5780E-03     1.98158E-03    -11.5817E-03     22.9476E-03    -11.5327E-03     1.98321E-03
            2021     16.8412E-03     22.8926E-03    -3.71540E+06     144.190E+06     46.9221E+06     458.877E+03    -31.5586E-03     46.8125E-03    -15.2540E-03     222.089E-03    -36.5527E-03     52.1693E-03    -15.2231E-03     225.246E-03
            2022     15.9620E-03     22.7209E-03    -4.97302E+06     83.5927E+06    -9.64605E+06     1.03001E+06    -25.7853E-03     40.4702E-03    -14.6849E-03     144.537E-03    -27.1887E-03     42.1808E-03    -14.8472E-03     144.784E-03
            2023     15.0797E-03     22.6189E-03    -4.60280E+06     26.4312E+06    -14.1667E+06     1.06001E+06    -21.5713E-03     35.9799E-03    -14.4086E-03     84.1603E-03    -21.8148E-03     36.3419E-03    -14.5110E-03     84.1153E-03
            2024     14.1969E-03     22.5608E-03    -4.03812E+06    -13.2285E+06    -12.6111E+06     764.637E+03    -19.7408E-03     33.9086E-03    -14.1677E-03     55.1775E-03    -19.7839E-03     33.9269E-03    -14.2057E-03     55.1385E-03
            2025     13.3137E-03     22.5128E-03    -3.49553E+06    -34.1778E+06    -12.9897E+06     980.881E+03    -19.1029E-03     32.9980E-03    -13.8951E-03     49.6716E-03    -19.0860E-03     32.8851E-03    -13.9055E-03     49.6468E-03
            2026     12.4298E-03     22.4647E-03    -3.03867E+06    -38.2683E+06    -3.95562E+06     1.48874E+06    -18.3827E-03     32.0266E-03    -13.6439E-03     45.0838E-03    -18.3564E-03     31.8652E-03    -13.6038E-03     45.0767E-03
            2027     11.5454E-03     22.4249E-03    -2.94277E+06    -41.9125E+06    -3.45376E+06     1.82253E+06    -17.5157E-03     30.8709E-03    -13.3553E-03     38.0061E-03    -17.4753E-03     30.6814E-03    -13.3075E-03     38.0116E-03
            2028     10.6603E-03     22.3898E-03    -2.79351E+06    -52.3480E+06    -5.22168E+06     1.89159E+06    -16.7635E-03     29.8378E-03    -13.0743E-03     33.1637E-03    -16.7003E-03     29.5940E-03    -13.0205E-03     33.1756E-03
            2029     9.77478E-03     22.3590E-03    -2.71822E+06    -55.0369E+06    -1.85522E+06     1.66389E+06    -15.9505E-03     28.7713E-03    -12.8207E-03     28.6966E-03    -15.8853E-03     28.5065E-03    -12.7463E-03     28.7096E-03
            2030     8.88835E-03     22.3323E-03    -2.91178E+06    -51.8488E+06    -2.58281E+06     1.29290E+06    -15.1586E-03     27.7161E-03    -12.5575E-03     24.5879E-03    -15.0965E-03     27.4670E-03    -12.4910E-03     24.5987E-03
            2031     8.00145E-03     22.3093E-03    -2.88691E+06    -53.4034E+06    -1.42309E+06     1.37827E+06    -14.4328E-03     26.7647E-03    -12.3319E-03     20.7281E-03    -14.3691E-03     26.5053E-03    -12.2574E-03     20.7417E-03
            2032     7.11386E-03     22.2901E-03    -3.36312E+06    -56.1285E+06     499.635E+03     1.69239E+06    -13.7706E-03     25.9067E-03    -12.1361E-03     17.2569E-03    -13.7076E-03     25.6311E-03    -12.0473E-03     17.2757E-03
            2033     6.22581E-03     22.2738E-03    -4.50092E+06    -55.8228E+06     879.208E+03     1.65476E+06    -13.1885E-03     25.1417E-03    -11.9532E-03     14.2257E-03    -13.1319E-03     24.8684E-03    -11.8613E-03     14.2448E-03
            2034     5.33727E-03     22.2606E-03    -5.72538E+06    -57.6621E+06    -76.7921E+03     1.68969E+06    -12.6882E-03     24.4790E-03    -11.7908E-03     11.5702E-03    -12.6335E-03     24.1995E-03    -11.6992E-03     11.5903E-03
            2035     4.44835E-03     22.2497E-03    -7.03599E+06    -59.7917E+06    -1.79293E+06     1.83794E+06    -12.2621E-03     23.9118E-03    -11.6497E-03     9.22802E-03    -12.2082E-03     23.6258E-03    -11.5618E-03     9.25042E-03
            2036     3.55907E-03     22.2411E-03    -8.27673E+06    -57.0349E+06    -4.21659E+06     1.81790E+06    -11.9050E-03     23.4285E-03    -11.5236E-03     7.15108E-03    -11.8577E-03     23.1616E-03    -11.4499E-03     7.17358E-03
            2037     2.66953E-03     22.2346E-03    -9.26001E+06    -55.5376E+06    -6.84571E+06     1.46107E+06    -11.6381E-03     23.0611E-03    -11.4230E-03     5.24593E-03    -11.5940E-03     22.8069E-03    -11.3633E-03     5.26412E-03
            2038     1.77980E-03     22.2300E-03    -10.1210E+06     -56.261E+06    -8.98624E+06     721.474E+03    -11.4508E-03     22.8023E-03    -11.3515E-03     3.47029E-03    -11.4068E-03     22.5487E-03    -11.3002E-03     3.47917E-03
            2039     889.937E-06     22.2272E-03    -10.7920E+06    -57.1965E+06    -10.4235E+06     76.8320E+03    -11.3370E-03     22.6402E-03    -11.3032E-03     1.87602E-03    -11.2928E-03     22.3851E-03    -11.2568E-03     1.87678E-03
            2040     16.8426E-03     21.9062E-03    -3.74804E+06     143.659E+06     47.0110E+06     575.307E+03    -32.0674E-03     47.2949E-03    -15.2276E-03     220.267E-03    -36.9887E-03     52.5766E-03    -15.1954E-03     223.319E-03
            2041     15.9623E-03     21.7377E-03    -4.95837E+06     83.1953E+06    -9.52779E+06     996.257E+03    -26.1341E-03     40.7602E-03    -14.6260E-03     141.888E-03    -27.4812E-03     42.4126E-03    -14.7871E-03     142.105E-03
            2042     15.0813E-03     21.6376E-03    -4.67022E+06     26.9014E+06    -14.1258E+06     1.04097E+06    -21.9041E-03     36.2223E-03    -14.3182E-03     82.6766E-03    -22.1427E-03     36.5808E-03    -14.4211E-03     82.6284E-03
            2043     14.1987E-03     21.5808E-03    -4.18410E+06    -12.8082E+06    -12.8030E+06     812.324E+03    -20.0001E-03     34.0499E-03    -14.0498E-03     54.1660E-03    -20.0421E-03     34.0687E-03    -14.0892E-03     54.1273E-03
            2044     13.3154E-03     21.5335E-03    -3.37238E+06    -34.6000E+06    -13.5109E+06     767.707E+03    -19.3289E-03     33.0799E-03    -13.7509E-03     48.7923E-03    -19.3091E-03     32.9644E-03    -13.7634E-03     48.7648E-03
            2045     12.4320E-03     21.4862E-03    -2.85107E+06    -38.8363E+06    -4.19471E+06     1.33964E+06    -18.5080E-03     31.9851E-03    -13.4771E-03     43.8801E-03    -18.4787E-03     31.8200E-03    -13.4376E-03     43.8715E-03
            2046     11.5475E-03     21.4477E-03    -2.66282E+06    -41.9029E+06    -3.55780E+06     1.82217E+06    -17.5579E-03     30.7253E-03    -13.1675E-03     36.9294E-03    -17.5155E-03     30.5351E-03    -13.1206E-03     36.9354E-03
            2047     10.6626E-03     21.4134E-03    -2.48893E+06    -52.0706E+06    -5.20115E+06     1.88402E+06    -16.7346E-03     29.6038E-03    -12.8692E-03     32.0801E-03    -16.6699E-03     29.3606E-03    -12.8161E-03     32.0924E-03
            2048     9.77684E-03     21.3839E-03    -2.55910E+06    -54.5857E+06    -1.58456E+06     1.82905E+06    -15.8694E-03     28.4713E-03    -12.6019E-03     27.6523E-03    -15.8042E-03     28.2079E-03    -12.5270E-03     27.6677E-03
            2049     8.89051E-03     21.3579E-03    -2.79910E+06    -51.1803E+06    -2.40049E+06     1.47396E+06    -15.0281E-03     27.3534E-03    -12.3253E-03     23.6187E-03    -14.9665E-03     27.1072E-03    -12.2591E-03     23.6321E-03
            2050     8.00337E-03     21.3361E-03    -3.29581E+06    -53.8646E+06    -1.79468E+06     1.47929E+06    -14.2494E-03     26.3394E-03    -12.0900E-03     19.8490E-03    -14.1865E-03     26.0788E-03    -12.0161E-03     19.8640E-03
            2051     7.11566E-03     21.3174E-03    -3.70477E+06    -55.9664E+06    -314.713E+03     1.87253E+06    -13.5646E-03     25.4487E-03    -11.8841E-03     16.4935E-03    -13.5023E-03     25.1755E-03    -11.7991E-03     16.5147E-03
            2052     6.22740E-03     21.3021E-03    -4.11795E+06    -55.4300E+06     375.759E+03     1.90972E+06    -12.9633E-03     24.6594E-03    -11.6961E-03     13.5654E-03    -12.9046E-03     24.3882E-03    -11.6078E-03     13.5878E-03
            2053     5.33865E-03     21.2893E-03    -5.13925E+06    -57.7335E+06     74.2229E+03     2.15658E+06    -12.4518E-03     23.9852E-03    -11.5333E-03     11.0084E-03    -12.3943E-03     23.7042E-03    -11.4418E-03     11.0346E-03
            2054     4.44951E-03     21.2791E-03    -6.64689E+06    -59.2022E+06    -1.40362E+06     2.31834E+06    -12.0176E-03     23.4068E-03    -11.3892E-03     8.76539E-03    -11.9631E-03     23.1226E-03    -11.3007E-03     8.79407E-03
            2055     3.56001E-03     21.2709E-03    -8.07454E+06    -56.2044E+06    -3.90070E+06     1.96306E+06    -11.6504E-03     22.9097E-03    -11.2594E-03     6.78904E-03    -11.6037E-03     22.6462E-03    -11.1857E-03     6.81347E-03
            2056     2.67025E-03     21.2647E-03    -9.06578E+06    -54.3188E+06    -6.48401E+06     1.42939E+06    -11.3718E-03     22.5286E-03    -11.1568E-03     4.97976E-03    -11.3290E-03     22.2796E-03    -11.0973E-03     4.99758E-03
            2057     1.78029E-03     21.2604E-03    -9.71245E+06    -55.1667E+06    -8.53227E+06     901.996E+03    -11.1817E-03     22.2678E-03    -11.0861E-03     3.28703E-03    -11.1380E-03     22.0184E-03    -11.0346E-03     3.29827E-03
            2058     890.167E-06     21.2577E-03    -10.2711E+06    -56.5025E+06    -10.2149E+06     458.769E+03    -11.0739E-03     22.1111E-03    -11.0372E-03     1.76331E-03    -11.0285E-03     21.8584E-03    -10.9915E-03     1.76901E-03
            2059     16.8424E-03     20.9191E-03    -3.84375E+06     143.218E+06     47.3593E+06     539.282E+03    -32.5420E-03     47.7485E-03    -15.2065E-03     218.635E-03    -37.3847E-03     52.9488E-03    -15.1718E-03     221.584E-03
            2060     15.9638E-03     20.7547E-03    -4.63564E+06      82.926E+06    -9.06383E+06     983.130E+03    -26.5601E-03     41.1323E-03    -14.5722E-03     139.342E-03    -27.8560E-03     42.7325E-03    -14.7311E-03     139.532E-03
            2061     15.0823E-03     20.6555E-03    -4.19599E+06     27.2464E+06    -13.9141E+06     1.14705E+06    -22.3178E-03     36.5457E-03    -14.2278E-03     80.5781E-03    -22.5462E-03     36.8963E-03    -14.3308E-03     80.5277E-03
            2062     14.2001E-03     20.6010E-03    -3.95097E+06    -12.2422E+06    -12.7510E+06     718.553E+03    -20.2704E-03     34.1987E-03    -13.9283E-03     52.8351E-03    -20.3097E-03     34.2175E-03    -13.9686E-03     52.7951E-03
            2063     13.3176E-03     20.5535E-03    -3.31018E+06    -35.0610E+06    -13.9491E+06     646.080E+03    -19.5027E-03     33.1068E-03    -13.6041E-03     47.6767E-03    -19.4800E-03     32.9884E-03    -13.6182E-03     47.6480E-03
            2064     12.4340E-03     20.5083E-03    -2.69661E+06    -39.4819E+06    -4.46380E+06     1.18436E+06    -18.5921E-03     31.9021E-03    -13.3100E-03     42.6431E-03    -18.5598E-03     31.7331E-03    -13.2712E-03     42.6331E-03
            2065     11.5498E-03     20.4703E-03    -2.47511E+06    -41.9747E+06    -3.70006E+06     1.70472E+06    -17.5878E-03     30.5692E-03    -12.9813E-03     35.7919E-03    -17.5436E-03     30.3780E-03    -12.9354E-03     35.7968E-03
            2066     10.6647E-03     20.4375E-03    -2.27900E+06    -51.9334E+06    -5.20055E+06     1.93904E+06    -16.6849E-03     29.3524E-03    -12.6675E-03     30.9649E-03    -16.6190E-03     29.1092E-03    -12.6149E-03     30.9783E-03
            2067     9.77902E-03     20.4087E-03    -2.20922E+06    -54.2814E+06    -1.24345E+06     1.94192E+06    -15.7694E-03     28.1581E-03    -12.3887E-03     26.5869E-03    -15.7033E-03     27.8951E-03    -12.3130E-03     26.6040E-03
            2068     8.89247E-03     20.3841E-03    -2.59521E+06    -50.7674E+06    -2.01325E+06     1.94036E+06    -14.8779E-03     26.9802E-03    -12.1023E-03     22.6154E-03    -14.8163E-03     26.7350E-03    -12.0350E-03     22.6350E-03
            2069     8.00524E-03     20.3630E-03    -3.13811E+06    -53.8752E+06    -1.58951E+06     1.92237E+06    -14.0753E-03     25.9341E-03    -11.8588E-03     18.9562E-03    -14.0118E-03     25.6728E-03    -11.7841E-03     18.9772E-03
            2070     7.11737E-03     20.3454E-03    -3.53345E+06    -55.6617E+06    -1.10758E+06     1.72374E+06    -13.3540E-03     24.9958E-03    -11.6418E-03     15.7287E-03    -13.2901E-03     24.7249E-03    -11.5615E-03     15.7481E-03
            2071     6.22889E-03     20.3307E-03    -3.96713E+06    -55.5139E+06    -887.352E+03     1.99626E+06    -12.7329E-03     24.1822E-03    -11.4492E-03     12.9252E-03    -12.6715E-03     23.9121E-03    -11.3674E-03     12.9489E-03
            2072     5.33995E-03     20.3187E-03    -4.85876E+06    -57.9180E+06    -378.507E+03     2.70276E+06    -12.2185E-03     23.5074E-03    -11.2889E-03     10.4556E-03    -12.1585E-03     23.2257E-03    -11.1998E-03     10.4889E-03
            2073     4.45059E-03     20.3089E-03    -6.12989E+06    -58.2197E+06    -979.019E+03     2.79673E+06    -11.7831E-03     22.9284E-03    -11.1453E-03     8.30979E-03    -11.7281E-03     22.6478E-03    -11.0569E-03     8.34471E-03
            2074     3.56091E-03     20.3012E-03    -7.41905E+06    -54.9439E+06    -3.07979E+06     2.14470E+06    -11.4146E-03     22.4289E-03    -11.0143E-03     6.42426E-03    -11.3676E-03     22.1695E-03    -10.9393E-03     6.45110E-03
            2075     2.67092E-03     20.2954E-03    -8.43179E+06    -53.1822E+06    -6.29273E+06     1.43066E+06    -11.1211E-03     22.0292E-03    -10.9081E-03     4.71184E-03    -11.0770E-03     21.7847E-03    -10.8502E-03     4.72972E-03
            2076     1.78070E-03     20.2913E-03    -9.19470E+06    -54.3673E+06    -8.72431E+06     1.17234E+06    -10.9331E-03     21.7711E-03    -10.8380E-03     3.12515E-03    -10.8876E-03     21.5253E-03    -10.7895E-03     3.13991E-03
            2077     890.404E-06     20.2888E-03    -9.80052E+06    -55.0997E+06    -9.68662E+06     936.142E+03    -10.8413E-03     21.6226E-03    -10.7813E-03     1.65798E-03    -10.7963E-03     21.3755E-03    -10.7356E-03     1.66986E-03
            2078     16.8431E-03     19.9335E-03    -3.87130E+06     142.502E+06     47.2270E+06     519.954E+03    -33.0080E-03     48.1926E-03    -15.1846E-03     216.485E-03    -37.7363E-03     53.2761E-03    -15.1495E-03     219.320E-03
            2079     15.9638E-03     19.7689E-03    -5.15265E+06     82.6868E+06    -9.46251E+06     1.17145E+06    -27.1141E-03     41.6259E-03    -14.5118E-03     136.516E-03    -28.3643E-03     43.1788E-03    -14.6715E-03     136.679E-03
            2080     15.0844E-03     19.6745E-03     -4.7233E+06     28.0056E+06    -14.3266E+06     1.03868E+06    -22.7717E-03     36.8973E-03    -14.1256E-03     78.0510E-03    -22.9933E-03     37.2431E-03    -14.2310E-03     77.9963E-03
            2081     14.2023E-03     19.6199E-03    -3.84033E+06    -11.6107E+06    -12.8432E+06     547.057E+03    -20.4379E-03     34.2352E-03    -13.7973E-03     51.4079E-03    -20.4747E-03     34.2544E-03    -13.8391E-03     51.3660E-03
            2082     13.3194E-03     19.5747E-03    -3.00790E+06    -35.5026E+06    -14.3792E+06     582.389E+03    -19.5603E-03     33.0151E-03    -13.4548E-03     46.6067E-03    -19.5335E-03     32.8932E-03    -13.4708E-03     46.5778E-03
            2083     12.4360E-03     19.5296E-03    -2.47621E+06    -40.2445E+06    -4.87950E+06     1.04725E+06    -18.6545E-03     31.7995E-03    -13.1450E-03     41.3950E-03    -18.6186E-03     31.6261E-03    -13.1074E-03     41.3837E-03
            2084     11.5519E-03     19.4936E-03    -2.28121E+06    -42.2464E+06    -4.00070E+06     1.68250E+06    -17.5796E-03     30.3797E-03    -12.8000E-03     34.5692E-03    -17.5331E-03     30.1867E-03    -12.7555E-03     34.5744E-03
            2085     10.6668E-03     19.4614E-03    -2.12664E+06    -51.8628E+06    -5.52199E+06     1.97441E+06    -16.6291E-03     29.1011E-03    -12.4720E-03     29.8556E-03    -16.5618E-03     28.8581E-03    -12.4213E-03     29.8699E-03
            2086     9.78102E-03     19.4342E-03    -2.13525E+06    -54.0635E+06    -1.06449E+06     2.03344E+06    -15.6592E-03     27.8434E-03    -12.1842E-03     25.4726E-03    -15.5930E-03     27.5808E-03    -12.1080E-03     25.4912E-03
            2087     8.89437E-03     19.4104E-03    -2.07483E+06    -50.5412E+06    -1.29959E+06     2.04185E+06    -14.7270E-03     26.6182E-03    -11.8912E-03     21.5946E-03    -14.6640E-03     26.3722E-03    -11.8214E-03     21.6158E-03
            2088     8.00703E-03     19.3905E-03    -1.85233E+06    -53.5377E+06    -673.446E+03     1.98524E+06    -13.8957E-03     25.5371E-03    -11.6414E-03     18.0370E-03    -13.8274E-03     25.2742E-03    -11.5645E-03     18.0590E-03
            2089     7.11895E-03     19.3737E-03    -2.18470E+06    -55.3313E+06    -560.552E+03     2.05960E+06    -13.1509E-03     24.5697E-03    -11.4188E-03     14.9415E-03    -13.0815E-03     24.2977E-03    -11.3382E-03     14.9654E-03
            2090     6.23030E-03     19.3598E-03    -3.11764E+06    -56.0482E+06    -1.06230E+06     2.51852E+06    -12.5173E-03     23.7400E-03    -11.2227E-03     12.2591E-03    -12.4505E-03     23.4662E-03    -11.1422E-03     12.2897E-03
            2091     5.34114E-03     19.3484E-03    -4.07224E+06    -57.8359E+06    -706.513E+03     3.09679E+06    -11.9954E-03     23.0555E-03    -11.0601E-03     9.89753E-03    -11.9312E-03     22.7735E-03    -10.9738E-03     9.93602E-03
            2092     4.45161E-03     19.3392E-03    -4.84980E+06    -56.9830E+06    -634.981E+03     2.90752E+06    -11.5567E-03     22.4743E-03    -10.9176E-03     7.85747E-03    -11.4976E-03     22.1975E-03    -10.8311E-03     7.89389E-03
            2093     3.56169E-03     19.3319E-03    -5.58544E+06    -53.4754E+06    -2.22100E+06     2.20173E+06    -11.1870E-03     21.9764E-03    -10.7893E-03     6.06919E-03    -11.1343E-03     21.7204E-03    -10.7148E-03     6.09682E-03
            2094     2.67152E-03     19.3265E-03    -6.52468E+06    -52.3371E+06    -4.82933E+06     1.82646E+06    -10.9072E-03     21.5942E-03    -10.6871E-03     4.44432E-03    -10.8570E-03     21.3491E-03    -10.6259E-03     4.46734E-03
            2095     1.78111E-03     19.3226E-03    -7.57553E+06    -53.4271E+06    -6.90211E+06     1.80120E+06    -10.7127E-03     21.3306E-03    -10.6179E-03     2.95003E-03    -10.6631E-03     21.0845E-03    -10.5640E-03     2.97292E-03
            2096     890.577E-06     19.3203E-03    -8.32749E+06    -52.9701E+06    -8.19012E+06     1.16799E+06    -10.6002E-03     21.1754E-03    -10.5751E-03     1.57541E-03    -10.5531E-03     20.9346E-03    -10.5272E-03     1.59029E-03
            2097     16.8433E-03     18.9451E-03    -3.93493E+06     141.875E+06     47.5747E+06     675.137E+03    -33.7027E-03     48.8341E-03    -15.1313E-03     212.788E-03    -38.2639E-03     53.7471E-03    -15.0935E-03     215.443E-03
            2098     15.9660E-03     18.7847E-03    -5.03584E+06     82.6098E+06    -9.06103E+06     964.887E+03    -27.1062E-03     41.5299E-03    -14.4237E-03     133.234E-03    -28.3063E-03     43.0318E-03    -14.5815E-03     133.381E-03
            2099     15.0855E-03     18.6910E-03    -4.59426E+06     28.4529E+06    -14.4369E+06     854.475E+03    -22.8022E-03     36.8222E-03    -14.0200E-03     75.5508E-03    -23.0133E-03     37.1599E-03    -14.1268E-03     75.4935E-03
            2100     14.2042E-03     18.6405E-03     -4.0897E+06    -11.0117E+06    -12.9594E+06     455.198E+03    -20.5954E-03     34.2711E-03    -13.6757E-03     50.2764E-03    -20.6317E-03     34.2914E-03    -13.7186E-03     50.2337E-03
            2101     13.3213E-03     18.5948E-03    -3.21716E+06    -35.6708E+06    -14.8541E+06     472.486E+03    -19.7295E-03     33.0414E-03    -13.3118E-03     45.6340E-03    -19.7016E-03     32.9185E-03    -13.3297E-03     45.6040E-03
            2102     12.4382E-03     18.5517E-03    -2.78226E+06    -40.9420E+06    -5.41178E+06     1.01667E+06    -18.6650E-03     31.6497E-03    -12.9847E-03     39.9979E-03    -18.6278E-03     31.4730E-03    -12.9483E-03     39.9869E-03
            2103     11.5538E-03     18.5166E-03    -2.46575E+06    -42.5071E+06    -3.93302E+06     1.45529E+06    -17.5324E-03     30.1617E-03    -12.6293E-03     33.3752E-03    -17.4859E-03     29.9670E-03    -12.5838E-03     33.3781E-03
            2104     10.6688E-03     18.4859E-03    -1.75022E+06    -51.8744E+06    -5.19641E+06     1.75804E+06    -16.5701E-03     28.8601E-03    -12.2900E-03     28.6770E-03    -16.5010E-03     28.6157E-03    -12.2382E-03     28.6888E-03
            2105     9.78291E-03     18.4596E-03    -1.18160E+06    -53.8704E+06    -210.525E+03     1.90805E+06    -15.5506E-03     27.5442E-03    -11.9936E-03     24.3275E-03    -15.4809E-03     27.2797E-03    -11.9148E-03     24.3448E-03
            2106     8.89621E-03     18.4372E-03    -1.03985E+06    -50.2507E+06    -721.207E+03     1.84359E+06    -14.5772E-03     26.2689E-03    -11.6918E-03     20.5549E-03    -14.5101E-03     26.0219E-03    -11.6210E-03     20.5737E-03
            2107     8.00865E-03     18.4182E-03    -1.27950E+06    -53.5380E+06    -620.077E+03     2.06089E+06    -13.7131E-03     25.1492E-03    -11.4360E-03     17.1158E-03    -13.6420E-03     24.8853E-03    -11.3597E-03     17.1389E-03
            2108     7.12043E-03     18.4025E-03    -1.86384E+06    -55.5121E+06    -130.152E+03     2.68410E+06    -12.9629E-03     24.1758E-03    -11.2128E-03     14.1290E-03    -12.8922E-03     23.9017E-03    -11.1303E-03     14.1611E-03
            2109     6.23161E-03     18.3893E-03    -2.68347E+06    -56.2217E+06    -790.423E+03     3.28449E+06    -12.3179E-03     23.3312E-03    -11.0133E-03     11.5668E-03    -12.2491E-03     23.0555E-03    -10.9318E-03     11.6073E-03
            2110     5.34229E-03     18.3786E-03    -3.35422E+06    -57.1919E+06    -1.18879E+06     3.27931E+06    -11.7808E-03     22.6256E-03    -10.8448E-03     9.33448E-03    -11.7131E-03     22.3464E-03    -10.7629E-03     9.37542E-03
            2111     4.45252E-03     18.3699E-03    -3.67942E+06    -55.5485E+06    -1.22364E+06     2.70185E+06    -11.3355E-03     22.0373E-03    -10.7018E-03     7.39758E-03    -11.2717E-03     21.7668E-03    -10.6221E-03     7.43143E-03
            2112     3.56243E-03     18.3632E-03    -4.11286E+06    -52.4554E+06    -1.98317E+06     2.24515E+06    -10.9761E-03     21.5566E-03    -10.5805E-03     5.69072E-03    -10.9178E-03     21.3032E-03    -10.5084E-03     5.71896E-03
            2113     2.67202E-03     18.3579E-03    -4.82571E+06    -51.6524E+06    -3.06766E+06     2.25694E+06    -10.7097E-03     21.1962E-03    -10.4865E-03     4.15639E-03    -10.6546E-03     20.9494E-03    -10.4199E-03     4.18501E-03
            2114     1.78151E-03     18.3544E-03     -5.5214E+06    -51.9526E+06    -4.13842E+06     2.06369E+06    -10.5143E-03     20.9328E-03    -10.4185E-03     2.75277E-03    -10.4606E-03     20.6871E-03    -10.3559E-03     2.77907E-03
            2115     890.774E-06     18.3521E-03    -5.87570E+06    -50.4143E+06    -5.72698E+06     1.47048E+06    -10.3894E-03     20.7661E-03    -10.3767E-03     1.49329E-03    -10.3373E-03     20.5310E-03    -10.3237E-03     1.51210E-03
            2116     16.8473E-03     17.9595E-03    -3.47536E+06     141.784E+06     48.6463E+06     514.443E+03    -34.6635E-03     49.7418E-03    -15.0783E-03     209.469E-03    -39.0487E-03     54.4771E-03    -15.0356E-03     211.920E-03
            2117     15.9674E-03     17.7993E-03    -4.23898E+06     82.4881E+06    -8.43127E+06     766.762E+03    -27.0479E-03     41.3792E-03    -14.3313E-03     130.892E-03    -28.2005E-03     42.8342E-03    -14.4869E-03     131.015E-03
            2118     15.0875E-03     17.7096E-03    -3.84470E+06     28.6849E+06    -14.2496E+06     1.08591E+06    -22.6043E-03     36.5261E-03    -13.9217E-03     73.5971E-03    -22.8012E-03     36.8526E-03    -14.0290E-03     73.5442E-03
            2119     14.2050E-03     17.6596E-03    -3.65715E+06    -10.1654E+06    -12.6308E+06     586.864E+03    -20.8500E-03     34.4164E-03    -13.5664E-03     48.9229E-03    -20.8835E-03     34.4375E-03    -13.6095E-03     48.8819E-03
            2120     13.3233E-03     17.6152E-03    -3.41533E+06    -36.2650E+06    -15.5409E+06     520.218E+03    -19.8818E-03     33.0596E-03    -13.1778E-03     44.2853E-03    -19.8516E-03     32.9337E-03    -13.1980E-03     44.2564E-03
            2121     12.4399E-03     17.5738E-03    -2.83913E+06    -41.4177E+06    -6.31045E+06     1.09470E+06    -18.6463E-03     31.4798E-03    -12.8335E-03     38.7169E-03    -18.6063E-03     31.3010E-03    -12.8008E-03     38.7078E-03
            2122     11.5557E-03     17.5399E-03    -2.78462E+06    -42.5570E+06    -4.51126E+06     1.41162E+06    -17.5127E-03     29.9807E-03    -12.4680E-03     32.2202E-03    -17.4663E-03     29.7865E-03    -12.4248E-03     32.2230E-03
            2123     10.6707E-03     17.5105E-03    -2.46689E+06    -51.5831E+06    -6.55762E+06     1.15004E+06    -16.4957E-03     28.6097E-03    -12.1140E-03     27.4868E-03    -16.4283E-03     28.3695E-03    -12.0684E-03     27.4912E-03
            2124     9.78470E-03     17.4855E-03    -1.53691E+06    -54.0081E+06    -1.29722E+06     1.10461E+06    -15.4488E-03     27.2591E-03    -11.8103E-03     23.1898E-03    -15.3789E-03     26.9958E-03    -11.7362E-03     23.1970E-03
            2125     8.89782E-03     17.4643E-03    -1.02960E+06    -50.5281E+06    -582.173E+03     1.83256E+06    -14.4440E-03     25.9510E-03    -11.5070E-03     19.4459E-03    -14.3766E-03     25.7022E-03    -11.4352E-03     19.4648E-03
            2126     8.01017E-03     17.4464E-03    -1.25544E+06    -53.6734E+06    -405.097E+03     2.46677E+06    -13.5584E-03     24.8042E-03    -11.2457E-03     16.1211E-03    -13.4872E-03     24.5392E-03    -11.1681E-03     16.1495E-03
            2127     7.12182E-03     17.4315E-03    -1.77999E+06    -56.1185E+06     245.556E+03     3.14822E+06    -12.7907E-03     23.8103E-03    -11.0196E-03     13.2497E-03    -12.7191E-03     23.5325E-03    -10.9345E-03     13.2880E-03
            2128     6.23283E-03     17.4192E-03    -2.24563E+06    -55.8786E+06    -743.757E+03     3.70789E+06    -12.1324E-03     22.9460E-03    -10.8136E-03     10.8153E-03    -12.0618E-03     22.6713E-03    -10.7331E-03     10.8614E-03
            2129     5.34334E-03     17.4091E-03    -2.56962E+06    -55.9659E+06    -1.67137E+06     3.39281E+06    -11.5837E-03     22.2230E-03    -10.6393E-03     8.70930E-03    -11.5132E-03     21.9495E-03    -10.5628E-03     8.75181E-03
            2130     4.45339E-03     17.4011E-03    -2.91602E+06    -54.1589E+06    -1.91839E+06     2.67869E+06    -11.1385E-03     21.6331E-03    -10.4946E-03     6.88003E-03    -11.0719E-03     21.3694E-03    -10.4214E-03     6.91366E-03
            2131     3.56311E-03     17.3946E-03    -3.33006E+06    -51.8263E+06    -1.62223E+06     2.32955E+06    -10.7840E-03     21.1622E-03    -10.3782E-03     5.25197E-03    -10.7232E-03     20.9103E-03    -10.3064E-03     5.28135E-03
            2132     2.67260E-03     17.3899E-03    -3.72575E+06    -50.6703E+06    -1.89060E+06     2.17917E+06    -10.5040E-03     20.7911E-03    -10.2871E-03     3.82456E-03    -10.4465E-03     20.5459E-03    -10.2176E-03     3.85221E-03
            2133     1.78180E-03     17.3864E-03    -3.90469E+06    -50.2511E+06    -2.58900E+06     1.63312E+06    -10.3189E-03     20.5379E-03    -10.2190E-03     2.53517E-03    -10.2618E-03     20.2961E-03    -10.1535E-03     2.55593E-03
            2134     890.951E-06     17.3845E-03    -3.93414E+06    -48.1751E+06    -3.06429E+06     1.08183E+06    -10.2170E-03     20.3690E-03    -10.1520E-03     1.37822E-03    -10.1623E-03     20.1384E-03    -10.0918E-03     1.39201E-03
            2135     16.8441E-03     16.9680E-03    -3.46866E+06     140.657E+06     47.9993E+06     272.866E+03    -35.1450E-03     50.2181E-03    -15.0731E-03     206.361E-03    -39.3821E-03     54.8032E-03    -15.0320E-03     208.685E-03
            2136     15.9692E-03     16.8157E-03    -4.22347E+06     81.9724E+06    -9.25823E+06     889.771E+03    -27.8240E-03     42.1035E-03    -14.2794E-03     127.531E-03    -28.9156E-03     43.4981E-03    -14.4385E-03     127.611E-03
            2137     15.0877E-03     16.7275E-03    -4.42395E+06     29.7487E+06    -14.4663E+06     1.27753E+06    -22.9175E-03     36.7475E-03    -13.8301E-03     71.6329E-03    -23.1095E-03     37.0715E-03    -13.9391E-03     71.5811E-03
            2138     14.2075E-03     16.6785E-03    -4.40319E+06    -9.69921E+06    -13.0021E+06     637.088E+03    -20.9052E-03     34.3600E-03    -13.4548E-03     47.4471E-03    -20.9396E-03     34.3822E-03    -13.4994E-03     47.4076E-03
            2139     13.3247E-03     16.6359E-03    -3.12095E+06    -36.6088E+06    -15.7739E+06     419.951E+03    -19.8542E-03     32.9106E-03    -13.0564E-03     42.9181E-03    -19.8201E-03     32.7812E-03    -13.0776E-03     42.8889E-03
            2140     12.4415E-03     16.5959E-03    -2.25578E+06    -42.0865E+06    -6.56868E+06     962.651E+03    -18.7127E-03     31.4128E-03    -12.7002E-03     37.3814E-03    -18.6674E-03     31.2293E-03    -12.6687E-03     37.3713E-03
            2141     11.5574E-03     16.5633E-03    -1.66811E+06    -42.4009E+06    -3.61886E+06     1.39401E+06    -17.5308E-03     29.8546E-03    -12.3237E-03     30.8591E-03    -17.4798E-03     29.6577E-03    -12.2779E-03     30.8623E-03
            2142     10.6722E-03     16.5353E-03    -1.32260E+06    -50.7656E+06    -5.41142E+06     1.02257E+06    -16.4509E-03     28.4086E-03    -11.9577E-03     26.1357E-03    -16.3802E-03     28.1687E-03    -11.9092E-03     26.1390E-03
            2143     9.78625E-03     16.5116E-03    -1.49798E+06    -54.3254E+06    -696.939E+03     759.946E+03    -15.3801E-03     27.0239E-03    -11.6438E-03     21.8342E-03    -15.3102E-03     26.7579E-03    -11.5663E-03     21.8373E-03
            2144     8.89940E-03     16.4917E-03    -1.35652E+06    -51.3559E+06     196.340E+03     1.28107E+06    -14.3518E-03     25.6841E-03    -11.3323E-03     18.1484E-03    -14.2858E-03     25.4304E-03    -11.2549E-03     18.1604E-03
            2145     8.01166E-03     16.4748E-03    -742.870E+03    -54.2564E+06     211.219E+03     2.38792E+06    -13.4367E-03     24.4961E-03    -11.0594E-03     14.9413E-03    -13.3629E-03     24.2264E-03    -10.9786E-03     14.9689E-03
            2146     7.12316E-03     16.4610E-03    -620.889E+03    -56.5459E+06     831.515E+03     3.34833E+06    -12.6417E-03     23.4665E-03    -10.8248E-03     12.2040E-03    -12.5645E-03     23.1840E-03    -10.7378E-03     12.2450E-03
            2147     6.23406E-03     16.4494E-03    -822.806E+03    -55.5084E+06     312.674E+03     3.82014E+06    -11.9656E-03     22.5796E-03    -10.6140E-03     9.89314E-03    -11.8900E-03     22.3031E-03    -10.5308E-03     9.94083E-03
            2148     5.34438E-03     16.4401E-03    -1.13809E+06    -54.5209E+06    -429.414E+03     3.66332E+06    -11.4059E-03     21.8400E-03    -10.4340E-03     7.91390E-03    -11.3321E-03     21.5698E-03    -10.3555E-03     7.95999E-03
            2149     4.45430E-03     16.4325E-03    -1.52881E+06    -52.7350E+06    -713.097E+03     2.89862E+06    -10.9496E-03     21.2341E-03    -10.2845E-03     6.22672E-03    -10.8799E-03     20.9738E-03    -10.2094E-03     6.26326E-03
            2150     3.56389E-03     16.4266E-03    -1.75374E+06    -50.9527E+06    -523.823E+03     2.21820E+06    -10.5830E-03     20.7476E-03    -10.1645E-03     4.73502E-03    -10.5172E-03     20.4962E-03    -10.0907E-03     4.76302E-03
            2151     2.67313E-03     16.4221E-03    -1.74489E+06    -49.4728E+06    -349.569E+03     1.71181E+06    -10.3012E-03     20.3725E-03    -10.0713E-03     3.42706E-03    -10.2377E-03     20.1282E-03    -9.99879E-03     3.44872E-03
            2152     1.78222E-03     16.4191E-03    -1.82617E+06    -48.7235E+06    -682.657E+03     1.13800E+06    -10.1055E-03     20.1074E-03    -10.0020E-03     2.27996E-03    -10.0430E-03     19.8675E-03    -9.93207E-03     2.29436E-03
            2153     891.174E-06     16.4170E-03    -1.98837E+06    -46.7547E+06    -1.58072E+06     327.494E+03    -9.98157E-03     19.9328E-03    -9.95122E-03     1.23255E-03    -9.92134E-03     19.7043E-03    -9.88844E-03     1.23663E-03
            2154     16.8454E-03     15.9766E-03    -3.49931E+06     139.768E+06     47.8530E+06     411.138E+03    -35.3012E-03     50.3797E-03    -15.0784E-03     202.904E-03    -39.4262E-03     54.8497E-03    -15.0368E-03     205.131E-03
            2155     15.9680E-03     15.8296E-03    -5.45636E+06     81.6199E+06    -10.5164E+06     1.04237E+06    -28.3685E-03     42.6164E-03    -14.2479E-03     122.444E-03    -29.3812E-03     43.9302E-03    -14.4110E-03     122.491E-03
            2156     15.0909E-03     15.7450E-03    -5.26657E+06     30.1792E+06    -15.9127E+06     1.28109E+06    -23.3620E-03     37.1169E-03    -13.7549E-03     69.7123E-03    -23.5499E-03     37.4395E-03    -13.8706E-03     69.6586E-03
            2157     14.2082E-03     15.6981E-03    -4.35617E+06    -8.83224E+06    -12.9488E+06     587.856E+03    -21.0298E-03     34.3904E-03    -13.3606E-03     46.2803E-03    -21.0626E-03     34.4140E-03    -13.4062E-03     46.2411E-03
            2158     13.3261E-03     15.6565E-03    -3.77064E+06    -36.4235E+06    -16.2759E+06     285.124E+03    -19.9681E-03     32.9135E-03    -12.9454E-03     41.5851E-03    -19.9350E-03     32.7850E-03    -12.9685E-03     41.5551E-03
            2159     12.4431E-03     15.6179E-03    -2.99427E+06    -42.5871E+06    -8.03860E+06     302.604E+03    -18.8398E-03     31.4068E-03    -12.5670E-03     35.7504E-03    -18.7944E-03     31.2229E-03    -12.5411E-03     35.7323E-03
            2160     11.5590E-03     15.5869E-03    -1.81338E+06    -42.4682E+06    -4.02684E+06     460.281E+03    -17.5886E-03     29.7640E-03    -12.1754E-03     29.2273E-03    -17.5369E-03     29.5669E-03    -12.1314E-03     29.2191E-03
            2161     10.6740E-03     15.5602E-03    -733.289E+03    -50.6122E+06    -4.88345E+06     932.382E+03    -16.4778E-03     28.2730E-03    -11.7952E-03     24.4909E-03    -16.4047E-03     28.0318E-03    -11.7452E-03     24.4934E-03
            2162     9.78802E-03     15.5379E-03    -260.332E+03    -53.9546E+06     162.352E+03     894.674E+03    -15.3698E-03     26.8344E-03    -11.4646E-03     20.1664E-03    -15.2952E-03     26.5669E-03    -11.3852E-03     20.1716E-03
            2163     8.90107E-03     15.5192E-03    -448.892E+03    -52.2320E+06     1.22768E+06     1.01451E+06    -14.3010E-03     25.4411E-03    -11.1401E-03     16.5202E-03    -14.2306E-03     25.1801E-03    -11.0576E-03     16.5290E-03
            2164     8.01327E-03     15.5036E-03    -809.269E+03    -55.3897E+06     76.8338E+03     2.11139E+06    -13.3428E-03     24.1910E-03    -10.8482E-03     13.4261E-03    -13.2673E-03     23.9158E-03    -10.7663E-03     13.4504E-03
            2165     7.12471E-03     15.4907E-03    -769.869E+03    -56.8581E+06     429.266E+03     3.15703E+06    -12.5022E-03     23.1004E-03    -10.5982E-03     10.8459E-03    -12.4246E-03     22.8170E-03    -10.5125E-03     10.8846E-03
            2166     6.23544E-03     15.4801E-03    -591.474E+03    -55.1654E+06     995.153E+03     3.64142E+06    -11.7936E-03     22.1740E-03    -10.3805E-03     8.70680E-03    -11.7182E-03     21.8979E-03    -10.2946E-03     8.75232E-03
            2167     5.34568E-03     15.4713E-03    -327.750E+03    -53.2244E+06     1.66516E+06     3.46349E+06    -11.2041E-03     21.4003E-03    -10.1962E-03     6.90089E-03    -11.1311E-03     21.1324E-03    -10.1102E-03     6.94452E-03
            2168     4.45540E-03     15.4644E-03    -50.0682E+03    -51.1759E+06     1.30794E+06     2.76336E+06    -10.7152E-03     20.7544E-03    -10.0392E-03     5.40251E-03    -10.6432E-03     20.4968E-03    -9.95839E-03     5.43740E-03
            2169     3.56473E-03     15.4589E-03     89.7921E+03    -49.7073E+06     884.454E+03     1.91896E+06    -10.3406E-03     20.2540E-03    -9.91343E-03     4.10355E-03    -10.2694E-03     20.0041E-03    -9.83706E-03     4.12776E-03
            2170     2.67383E-03     15.4549E-03     151.514E+03    -48.4014E+06     791.923E+03     1.31992E+06    -10.0657E-03     19.8810E-03    -9.81537E-03     2.96179E-03    -9.99591E-03     19.6377E-03    -9.74145E-03     2.97843E-03
            2171     1.78269E-03     15.4519E-03     246.607E+03    -47.4538E+06     718.061E+03     735.604E+03    -9.85036E-03     19.5948E-03    -9.74439E-03     1.96043E-03    -9.78137E-03     19.3561E-03    -9.67235E-03     1.96967E-03
            2172     891.327E-06     15.4503E-03     396.458E+03    -46.0186E+06     305.268E+03     270.150E+03    -9.72908E-03     19.4270E-03    -9.69787E-03     1.06125E-03    -9.66073E-03     19.1960E-03    -9.63019E-03     1.06461E-03
            2173     16.8447E-03     14.9841E-03    -3.96524E+06     138.976E+06     48.4475E+06     719.739E+03    -35.4821E-03     50.5579E-03    -15.0758E-03     200.349E-03    -39.4968E-03     54.9116E-03    -15.0294E-03     202.466E-03
            2174     15.9704E-03     14.8442E-03    -5.51241E+06     81.1792E+06    -9.69504E+06     1.47102E+06    -28.5005E-03     42.7282E-03    -14.2277E-03     118.598E-03    -29.4458E-03     43.9705E-03    -14.3859E-03     118.633E-03
            2175     15.0890E-03     14.7616E-03    -4.69223E+06     30.8970E+06    -15.7293E+06     1.14342E+06    -23.8743E-03     37.5742E-03    -13.6999E-03     66.3202E-03    -24.0514E-03     37.8901E-03    -13.8165E-03     66.2615E-03
            2176     14.2097E-03     14.7174E-03    -3.80773E+06     -7.6918E+06    -12.7155E+06     687.097E+03    -21.2875E-03     34.5609E-03    -13.2734E-03     44.1394E-03    -21.3163E-03     34.5858E-03    -13.3203E-03     44.1018E-03
            2177     13.3276E-03     14.6769E-03    -3.59381E+06    -36.1732E+06    -16.6746E+06     306.462E+03    -20.2548E-03     33.0854E-03    -12.8306E-03     39.9529E-03    -20.2192E-03     32.9570E-03    -12.8563E-03     39.9234E-03
            2178     12.4448E-03     14.6400E-03    -2.79822E+06    -42.3095E+06    -9.43153E+06    -242.046E+03    -19.0292E-03     31.4492E-03    -12.4200E-03     33.7352E-03    -18.9800E-03     31.2673E-03    -12.4018E-03     33.7107E-03
            2179     11.5609E-03     14.6104E-03    -2.50303E+06    -43.2706E+06    -5.76335E+06     40.1950E+03    -17.7235E-03     29.7277E-03    -12.0043E-03     27.3084E-03    -17.6709E-03     29.5294E-03    -11.9667E-03     27.2953E-03
            2180     10.6759E-03     14.5853E-03    -2.31168E+06    -50.6535E+06    -6.84899E+06     457.660E+03    -16.5866E-03     28.1835E-03    -11.5969E-03     22.4996E-03    -16.5181E-03     27.9469E-03    -11.5543E-03     22.4965E-03
            2181     9.79005E-03     14.5643E-03    -1.50204E+06    -53.5567E+06    -1.42844E+06     267.368E+03    -15.4155E-03     26.6558E-03    -11.2403E-03     18.1619E-03    -15.3451E-03     26.3941E-03    -11.1676E-03     18.1593E-03
            2182     8.90319E-03     14.5470E-03    -1.06840E+06    -53.5607E+06     1.56251E+06     1.11146E+06    -14.2851E-03     25.1869E-03    -10.9017E-03     14.5270E-03    -14.2161E-03     24.9194E-03    -10.8147E-03     14.5373E-03
            2183     8.01539E-03     14.5326E-03    -1.35443E+06    -56.1162E+06     870.353E+03     2.29032E+06    -13.2548E-03     23.8430E-03    -10.5882E-03     11.5796E-03    -13.1820E-03     23.5637E-03    -10.5005E-03     11.6064E-03
            2184     7.12671E-03     14.5209E-03    -1.72530E+06    -57.1533E+06     1.35856E+06     2.81508E+06    -12.3432E-03     22.6625E-03    -10.3193E-03     9.20167E-03    -12.2713E-03     22.3776E-03    -10.2271E-03     9.23610E-03
            2185     6.23734E-03     14.5110E-03    -1.49822E+06    -54.5164E+06     1.29544E+06     2.88078E+06    -11.5608E-03     21.6432E-03    -10.0824E-03     7.31879E-03    -11.4913E-03     21.3711E-03    -9.99470E-03     7.35465E-03
            2186     5.34731E-03     14.5032E-03    -891.167E+03    -52.2069E+06     1.83595E+06     2.49521E+06    -10.9266E-03     20.8140E-03    -9.88742E-03     5.75872E-03    -10.8581E-03     20.5517E-03    -9.80125E-03     5.78998E-03
            2187     4.45680E-03     14.4968E-03    -360.736E+03    -49.9104E+06     1.53551E+06     2.07627E+06    -10.4176E-03     20.1418E-03    -9.72421E-03     4.46187E-03    -10.3493E-03     19.8906E-03    -9.64363E-03     4.48799E-03
            2188     3.56588E-03     14.4918E-03    -63.0063E+03    -48.5153E+06     776.001E+03     1.57969E+06    -10.0271E-03     19.6203E-03    -9.59315E-03     3.37886E-03    -9.95823E-03     19.3767E-03    -9.51883E-03     3.39877E-03
            2189     2.67465E-03     14.4880E-03     127.910E+03    -47.4180E+06     319.893E+03     993.687E+03    -9.74392E-03     19.2363E-03    -9.49240E-03     2.41794E-03    -9.67501E-03     18.9986E-03    -9.42223E-03     2.43044E-03
            2190     1.78322E-03     14.4855E-03     378.097E+03    -46.5060E+06     176.827E+03     442.744E+03    -9.54301E-03     18.9600E-03    -9.41697E-03     1.56914E-03    -9.47394E-03     18.7266E-03    -9.34920E-03     1.57465E-03
            2191     891.682E-06     14.4838E-03     664.135E+03    -45.6607E+06     683.087E+03     169.733E+03    -9.45082E-03     18.7737E-03    -9.32283E-03     860.575E-06    -9.38221E-03     18.5435E-03    -9.25417E-03     862.653E-06
            2192     16.8464E-03     13.9969E-03    -3.83973E+06     138.689E+06     49.6345E+06     667.450E+03    -36.1753E-03     51.2288E-03    -15.0535E-03     195.253E-03    -39.9968E-03     55.3855E-03    -15.0009E-03     197.201E-03
            2193     15.9672E-03     13.8549E-03    -5.44394E+06     80.6797E+06    -9.21363E+06     846.714E+03    -28.4292E-03     42.5965E-03    -14.1674E-03     113.072E-03    -29.3073E-03     43.7687E-03    -14.3226E-03     113.077E-03
            2194     15.0934E-03     13.7785E-03    -4.65804E+06     30.9712E+06    -16.4494E+06     1.30882E+06    -23.6961E-03     37.3212E-03    -13.6251E-03     62.6018E-03    -23.8572E-03     37.6235E-03    -13.7455E-03     62.5470E-03
            2195     14.2108E-03     13.7370E-03    -3.74797E+06    -6.90160E+06    -13.3639E+06     1.11206E+06    -21.7428E-03     34.9221E-03    -13.1794E-03     42.8422E-03    -21.7693E-03     34.9496E-03    -13.2307E-03     42.8099E-03
            2196     13.3292E-03     13.6967E-03    -3.29270E+06    -35.3049E+06    -16.8336E+06     197.151E+03    -20.7690E-03     33.4671E-03    -12.6981E-03     37.8921E-03    -20.7312E-03     33.3412E-03    -12.7264E-03     37.8612E-03
            2197     12.4470E-03     13.6622E-03    -2.58992E+06    -42.3322E+06    -9.62833E+06    -86.8689E+03    -19.3170E-03     31.5656E-03    -12.2486E-03     31.3066E-03    -19.2651E-03     31.3823E-03    -12.2316E-03     31.2848E-03
            2198     11.5631E-03     13.6339E-03    -2.53690E+06    -44.1244E+06    -5.12316E+06     347.437E+03    -17.9843E-03     29.7861E-03    -11.8018E-03     24.9684E-03    -17.9308E-03     29.5819E-03    -11.7597E-03     24.9598E-03
            2199     10.6785E-03     13.6104E-03    -2.14715E+06    -49.8720E+06    -5.54291E+06     142.513E+03    -16.7577E-03     28.1152E-03    -11.3575E-03     20.0355E-03    -16.6909E-03     27.8799E-03    -11.3097E-03     20.0288E-03
            2200     9.79276E-03     13.5909E-03    -1.96175E+06    -53.7128E+06    -881.496E+03    -193.767E+03    -15.4912E-03     26.4547E-03    -10.9636E-03     15.7475E-03    -15.4233E-03     26.1919E-03    -10.8873E-03     15.7393E-03
            2201     8.90597E-03     13.5750E-03    -2.22223E+06    -55.4670E+06     2.49155E+06     890.258E+03    -14.2581E-03     24.8559E-03    -10.5978E-03     12.2193E-03    -14.1933E-03     24.5791E-03    -10.5017E-03     12.2270E-03
            2202     8.01809E-03     13.5621E-03    -2.46686E+06    -56.5114E+06     2.35380E+06     2.21615E+06    -13.1327E-03     23.3888E-03    -10.2561E-03     9.49423E-03    -13.0670E-03     23.1069E-03    -10.1588E-03     9.52027E-03
            2203     7.12935E-03     13.5514E-03    -2.54063E+06    -56.8355E+06     2.62217E+06     2.36779E+06    -12.1286E-03     22.0895E-03    -9.96092E-03     7.35252E-03    -12.0630E-03     21.8055E-03    -9.86171E-03     7.38135E-03
            2204     6.23969E-03     13.5428E-03    -2.56259E+06    -53.7460E+06     1.34890E+06     1.98544E+06    -11.2638E-03     20.9640E-03    -9.70021E-03     5.74089E-03    -11.2008E-03     20.6972E-03    -9.61182E-03     5.76534E-03
            2205     5.34936E-03     13.5355E-03    -2.47175E+06    -51.3529E+06     345.700E+03     1.56949E+06    -10.5742E-03     20.0608E-03    -9.48660E-03     4.43316E-03    -10.5126E-03     19.8072E-03    -9.40682E-03     4.45260E-03
            2206     4.45853E-03     13.5299E-03    -2.27327E+06    -49.2167E+06    -94.2688E+03     1.25304E+06    -10.0394E-03     19.3547E-03    -9.31537E-03     3.36352E-03    -9.97927E-03     19.1121E-03    -9.24118E-03     3.37912E-03
            2207     3.56729E-03     13.5253E-03    -1.94797E+06    -47.6722E+06    -750.541E+03     1.01665E+06    -9.62308E-03     18.8023E-03    -9.17925E-03     2.52319E-03    -9.56264E-03     18.5679E-03    -9.11106E-03     2.53591E-03
            2208     2.67573E-03     13.5220E-03    -1.66643E+06    -46.6171E+06    -1.25899E+06     645.059E+03    -9.32333E-03     18.4002E-03    -9.07684E-03     1.79086E-03    -9.26226E-03     18.1713E-03    -9.01312E-03     1.79892E-03
            2209     1.78396E-03     13.5196E-03    -1.52604E+06    -45.8649E+06    -1.45400E+06     315.358E+03    -9.13236E-03     18.1321E-03    -8.99977E-03     1.15418E-03    -9.07138E-03     17.9071E-03    -8.93832E-03     1.15808E-03
            2210     892.053E-06     13.5182E-03    -1.51068E+06    -45.4983E+06    -1.60765E+06     33.9029E+03    -9.01724E-03     17.9310E-03    -8.91380E-03     615.720E-06    -8.95641E-03     17.7082E-03    -8.85367E-03     616.067E-06
            2211     16.8463E-03     13.0033E-03    -3.33129E+06     138.202E+06     50.0959E+06     277.801E+03    -37.1474E-03     52.1678E-03    -15.0204E-03     191.390E-03    -40.8133E-03     56.1676E-03    -14.9655E-03     193.141E-03
            2212     15.9760E-03     12.8694E-03    -3.81934E+06     80.2044E+06    -8.04096E+06     1.42877E+06    -28.2757E-03     42.3776E-03    -14.1019E-03     108.978E-03    -29.0810E-03     43.4779E-03    -14.2529E-03     108.969E-03
            2213     15.0903E-03     12.7971E-03    -4.44756E+06     31.1466E+06    -15.7872E+06     2.06655E+06    -23.7364E-03     37.2863E-03    -13.5499E-03     60.9400E-03    -23.8877E-03     37.5781E-03    -13.6675E-03     60.8979E-03
            2214     14.2116E-03     12.7538E-03    -4.45388E+06    -5.68614E+06    -12.8483E+06     1.07538E+06    -22.6118E-03     35.6780E-03    -13.0662E-03     40.2578E-03    -22.6421E-03     35.7096E-03    -13.1157E-03     40.2234E-03
            2215     13.3318E-03     12.7169E-03    -4.52055E+06    -34.5818E+06    -16.6130E+06     405.179E+03    -21.2681E-03     33.7964E-03    -12.5283E-03     34.8801E-03    -21.2356E-03     33.6734E-03    -12.5547E-03     34.8522E-03
            2216     12.4494E-03     12.6839E-03    -4.57498E+06    -42.6721E+06    -10.1517E+06     271.981E+03    -19.7673E-03     31.7950E-03    -12.0277E-03     28.5793E-03    -19.7229E-03     31.6124E-03    -12.0100E-03     28.5626E-03
            2217     11.5664E-03     12.6573E-03    -4.02286E+06    -43.9555E+06    -5.62979E+06    -10.9121E+03    -18.3381E-03     29.8664E-03    -11.5283E-03     22.1891E-03    -18.2908E-03     29.6652E-03    -11.4868E-03     22.1764E-03
            2218     10.6819E-03     12.6356E-03    -3.01365E+06    -49.1612E+06    -5.73690E+06    -613.476E+03    -16.9375E-03     27.9735E-03    -11.0360E-03     17.2527E-03    -16.8753E-03     27.7429E-03    -10.9891E-03     17.2367E-03
            2219     9.79637E-03     12.6176E-03    -2.42984E+06    -54.5862E+06    -300.404E+03    -153.362E+03    -15.5231E-03     26.1297E-03    -10.6066E-03     13.0287E-03    -15.4569E-03     25.8621E-03    -10.5255E-03     13.0214E-03
            2220     8.90949E-03     12.6036E-03    -3.17810E+06    -57.0459E+06     3.51508E+06     1.12759E+06    -14.1652E-03     24.3749E-03    -10.2096E-03     9.71328E-03    -14.1042E-03     24.0899E-03    -10.1047E-03     9.72428E-03
            2221     8.02159E-03     12.5919E-03    -4.08738E+06    -56.7663E+06     2.43867E+06     1.86762E+06    -12.9301E-03     22.7627E-03    -9.83260E-03     7.24895E-03    -12.8721E-03     22.4816E-03    -9.73217E-03     7.27070E-03
            2222     7.13257E-03     12.5827E-03    -4.55045E+06    -56.0820E+06     1.35667E+06     1.79380E+06    -11.8377E-03     21.3428E-03    -9.50510E-03     5.40723E-03    -11.7813E-03     21.0672E-03    -9.41040E-03     5.42881E-03
            2223     6.24270E-03     12.5750E-03    -4.68356E+06    -53.0051E+06    -7.40680E+03     1.26264E+06    -10.9189E-03     20.1417E-03    -9.22276E-03     4.08514E-03    -10.8656E-03     19.8836E-03    -9.13915E-03     4.10038E-03
            2224     5.35209E-03     12.5688E-03    -4.56922E+06    -50.7090E+06    -1.32950E+06     825.948E+03    -10.1665E-03     19.1559E-03    -8.98939E-03     3.04711E-03    -10.1140E-03     18.9110E-03    -8.91589E-03     3.05705E-03
            2225     4.46084E-03     12.5637E-03    -4.39051E+06    -48.8017E+06    -2.13929E+06     536.100E+03    -9.57459E-03     18.3782E-03    -8.80363E-03     2.23376E-03    -9.52272E-03     18.1437E-03    -8.73719E-03     2.24018E-03
            2226     3.56917E-03     12.5599E-03    -4.26083E+06    -47.2510E+06    -2.70984E+06     345.930E+03    -9.12712E-03     17.7869E-03    -8.65974E-03     1.61736E-03    -9.07600E-03     17.5607E-03    -8.59860E-03     1.62148E-03
            2227     2.67712E-03     12.5568E-03    -4.08542E+06    -46.1974E+06    -3.23331E+06     243.974E+03    -8.79909E-03     17.3525E-03    -8.55346E-03     1.13835E-03    -8.74786E-03     17.1322E-03    -8.49671E-03     1.14126E-03
            2228     1.78487E-03     12.5547E-03    -3.99468E+06    -45.5627E+06    -3.65031E+06     159.268E+03    -8.58712E-03     17.0682E-03    -8.48112E-03     726.821E-06    -8.53575E-03     16.8515E-03    -8.42751E-03     728.732E-06
            2229     892.461E-06     12.5534E-03    -4.04624E+06    -45.2599E+06    -3.86677E+06     60.1520E+03    -8.48220E-03     16.9037E-03    -8.42154E-03     311.793E-06    -8.43113E-03     16.6890E-03    -8.36938E-03     312.494E-06
            2230     16.8471E-03     12.0042E-03    -3.67799E+06     135.583E+06     47.0029E+06     530.345E+03    -36.8553E-03     51.8592E-03    -15.0039E-03     186.750E-03    -40.3473E-03     55.6837E-03    -14.9602E-03     188.354E-03
            2231     15.9681E-03     11.8869E-03    -5.05575E+06     80.2462E+06    -9.79151E+06     2.12913E+06    -28.9133E-03     42.9793E-03    -14.0660E-03     103.836E-03    -29.6580E-03     44.0196E-03    -14.2240E-03     103.821E-03
            2232     15.0948E-03     11.8111E-03    -5.98376E+06     33.5086E+06    -15.2063E+06     2.19703E+06    -25.2423E-03     38.6899E-03    -13.4476E-03     58.0442E-03    -25.4015E-03     38.9910E-03    -13.5636E-03     57.9960E-03
            2233     14.2160E-03     11.7719E-03    -6.11286E+06    -5.56382E+06    -13.3672E+06     1.09171E+06    -23.1541E-03     36.0421E-03    -12.8880E-03     37.2805E-03    -23.1880E-03     36.0734E-03    -12.9379E-03     37.2468E-03
            2234     13.3342E-03     11.7364E-03    -5.22008E+06    -33.8624E+06    -16.2537E+06     1.02625E+06    -21.8716E-03     34.1700E-03    -12.2985E-03     31.9591E-03    -21.8420E-03     34.0490E-03    -12.3231E-03     31.9396E-03
            2235     12.4534E-03     11.7052E-03    -4.85311E+06    -42.0660E+06    -9.46187E+06     600.192E+03    -20.3422E-03     32.0792E-03    -11.7370E-03     25.3057E-03    -20.2998E-03     31.8978E-03    -11.7163E-03     25.2937E-03
            2236     11.5703E-03     11.6809E-03    -4.90293E+06    -42.9205E+06    -5.97935E+06    -377.430E+03    -18.6510E-03     29.8240E-03    -11.1730E-03     19.0319E-03    -18.6083E-03     29.6290E-03    -11.1335E-03     19.0151E-03
            2237     10.6864E-03     11.6607E-03    -5.00265E+06    -48.9980E+06    -6.39138E+06    -959.406E+03    -17.0186E-03     27.6521E-03    -10.6335E-03     14.2323E-03    -16.9652E-03     27.4256E-03    -10.5871E-03     14.2123E-03
            2238     9.80073E-03     11.6451E-03    -5.46856E+06    -56.1642E+06    -1.81486E+06    -141.128E+03    -15.4182E-03     25.5839E-03    -10.1657E-03     10.3086E-03    -15.3625E-03     25.3147E-03    -10.0854E-03     10.3018E-03
            2239     8.91387E-03     11.6324E-03    -5.71157E+06    -57.9796E+06     2.05145E+06     1.01683E+06    -13.9446E-03     23.6819E-03    -9.73727E-03     7.32885E-03    -13.8926E-03     23.3979E-03    -9.63466E-03     7.33867E-03
            2240     8.02566E-03     11.6227E-03    -5.96585E+06    -56.8295E+06     1.42519E+06     1.53614E+06    -12.6124E-03     21.9485E-03    -9.33605E-03     5.19634E-03    -12.5622E-03     21.6712E-03    -9.23787E-03     5.21397E-03
            2241     7.13640E-03     11.6146E-03    -6.36620E+06    -55.2365E+06     293.062E+03     1.29991E+06    -11.4675E-03     20.4538E-03    -8.98631E-03     3.72117E-03    -11.4198E-03     20.1866E-03    -8.89552E-03     3.73648E-03
            2242     6.24617E-03     11.6083E-03    -6.71747E+06    -52.1930E+06    -1.12272E+06     593.423E+03    -10.5082E-03     19.1926E-03    -8.68442E-03     2.71032E-03    -10.4645E-03     18.9431E-03    -8.60461E-03     2.71698E-03
            2243     5.35515E-03     11.6029E-03    -6.85969E+06    -50.2823E+06    -3.04306E+06     64.3226E+03    -9.71500E-03     18.1448E-03    -8.42975E-03     1.94107E-03    -9.67203E-03     17.9078E-03    -8.36211E-03     1.94120E-03
            2244     4.46351E-03     11.5988E-03    -6.82886E+06    -48.6079E+06    -4.29222E+06    -116.734E+03    -9.07333E-03     17.2981E-03    -8.22480E-03     1.35697E-03    -9.03080E-03     17.0712E-03    -8.16588E-03     1.35497E-03
            2245     3.57133E-03     11.5953E-03    -6.76454E+06    -47.1459E+06    -5.11482E+06    -170.453E+03    -8.58077E-03     16.6464E-03    -8.06568E-03     927.897E-06    -8.53884E-03     16.4279E-03    -8.01308E-03     925.355E-06
            2246     2.67882E-03     11.5928E-03    -6.81552E+06    -46.1700E+06    -5.83087E+06    -148.906E+03    -8.22193E-03     16.1697E-03    -7.94775E-03     615.163E-06    -8.18062E-03     15.9572E-03    -7.90008E-03     613.010E-06
            2247     1.78597E-03     11.5909E-03    -6.83163E+06    -45.5368E+06    -6.42746E+06    -50.0842E+03    -7.97709E-03     15.8461E-03    -7.86901E-03     355.923E-06    -7.93592E-03     15.6376E-03    -7.82521E-03     355.134E-06
            2248     893.014E-06     11.5899E-03    -6.80260E+06    -45.1778E+06    -6.70580E+06    -60.5202E+03    -7.88005E-03     15.6776E-03    -7.79750E-03     118.658E-06    -7.83877E-03     15.4714E-03    -7.75566E-03     117.798E-06
            2249     16.8470E-03     11.0197E-03    -4.75922E+06     133.950E+06     47.7043E+06     1.80074E+06    -37.3643E-03     52.3679E-03    -15.0035E-03     181.080E-03    -40.6134E-03     55.9376E-03    -14.9523E-03     182.541E-03
            2250     15.9742E-03     10.8944E-03    -7.78083E+06     80.2780E+06    -7.59131E+06     2.30982E+06    -30.3643E-03     44.3658E-03    -14.0015E-03     98.6871E-03    -31.0675E-03     45.3486E-03    -14.1446E-03     98.6406E-03
            2251     15.0967E-03     10.8272E-03    -6.97874E+06     34.4870E+06    -14.1833E+06     1.69567E+06    -26.2194E-03     39.5076E-03    -13.2883E-03     53.3628E-03    -26.3759E-03     39.8033E-03    -13.3991E-03     53.3037E-03
            2252     14.2167E-03     10.7894E-03    -6.01309E+06     -5.2749E+06    -12.2452E+06     1.58208E+06    -23.8597E-03     36.5200E-03    -12.6603E-03     34.8578E-03    -23.8918E-03     36.5476E-03    -12.7051E-03     34.8309E-03
            2253     13.3389E-03     10.7548E-03    -5.84661E+06    -33.1726E+06    -15.5068E+06     1.38640E+06    -22.7509E-03     34.7487E-03    -11.9978E-03     28.3837E-03    -22.7246E-03     34.6291E-03    -12.0188E-03     28.3685E-03
            2254     12.4578E-03     10.7268E-03    -5.61727E+06    -41.1336E+06    -8.52315E+06     676.604E+03    -20.7866E-03     32.1516E-03    -11.3650E-03     21.6248E-03    -20.7494E-03     31.9734E-03    -11.3399E-03     21.6143E-03
            2255     11.5757E-03     10.7040E-03    -5.60696E+06    -41.7090E+06    -4.37694E+06    -146.893E+03    -18.7506E-03     29.5016E-03    -10.7510E-03     15.7499E-03    -18.7148E-03     29.3107E-03    -10.7043E-03     15.7367E-03
            2256     10.6914E-03     10.6867E-03    -6.35747E+06    -49.2768E+06    -4.61222E+06    -308.895E+03    -16.8568E-03     27.0368E-03    -10.1799E-03     11.3116E-03    -16.8120E-03     26.8079E-03    -10.1223E-03     11.3004E-03
            2257     9.80572E-03     10.6728E-03    -7.01953E+06    -56.9083E+06    -1.38986E+06    -147.039E+03    -15.1037E-03     24.7876E-03    -9.68385E-03     7.89053E-03    -15.0551E-03     24.5161E-03    -9.59810E-03     7.88397E-03
            2258     8.91845E-03     10.6624E-03    -7.42720E+06    -58.8578E+06     1.36935E+06     282.101E+03    -13.5288E-03     22.7655E-03    -9.23668E-03     5.37512E-03    -13.4830E-03     22.4805E-03    -9.13372E-03     5.37564E-03
            2259     8.02993E-03     10.6540E-03    -7.70522E+06    -56.9902E+06     1.10377E+06     905.800E+03    -12.1613E-03     20.9889E-03    -8.82753E-03     3.66419E-03    -12.1191E-03     20.7138E-03    -8.72820E-03     3.67377E-03
            2260     7.14023E-03     10.6477E-03    -7.99728E+06    -54.2807E+06    -389.634E+03     696.550E+03    -11.0103E-03     19.4763E-03    -8.46596E-03     2.58627E-03    -10.9712E-03     19.2172E-03    -8.37761E-03     2.59381E-03
            2261     6.24960E-03     10.6423E-03    -8.33385E+06    -51.5019E+06    -2.17846E+06     23.3768E+03    -10.0488E-03     18.2016E-03    -8.15278E-03     1.84000E-03    -10.0127E-03     17.9594E-03    -8.07691E-03     1.83929E-03
            2262     5.35819E-03     10.6382E-03    -8.78282E+06    -49.9880E+06    -4.69754E+06    -384.994E+03    -9.24497E-03     17.1293E-03    -7.88434E-03     1.29529E-03    -9.20964E-03     16.8990E-03    -7.82261E-03     1.28959E-03
            2263     4.46611E-03     10.6346E-03    -9.16523E+06    -48.5943E+06    -6.43748E+06    -603.298E+03    -8.58986E-03     16.2536E-03    -7.66373E-03     899.737E-06    -8.55592E-03     16.0333E-03    -7.61217E-03     891.427E-06
            2264     3.57351E-03     10.6320E-03    -9.37257E+06    -47.3377E+06    -7.63073E+06    -557.295E+03    -8.07212E-03     15.5589E-03    -7.48683E-03     603.356E-06    -8.03930E-03     15.3469E-03    -7.44275E-03     595.786E-06
            2265     2.68044E-03     10.6298E-03    -9.51574E+06    -46.4037E+06    -8.55640E+06    -360.693E+03    -7.68163E-03     15.0313E-03    -7.34970E-03     373.613E-06    -7.64953E-03     14.8255E-03    -7.31140E-03     368.694E-06
            2266     1.78719E-03     10.6284E-03    -9.69025E+06    -45.7314E+06    -9.26799E+06    -211.253E+03    -7.39834E-03     14.6496E-03    -7.25125E-03     197.038E-06    -7.36705E-03     14.4484E-03    -7.21723E-03     194.142E-06
            2267     893.628E-06     10.6274E-03    -9.72934E+06    -45.2534E+06    -9.69479E+06    -94.9466E+03    -7.23925E-03     14.4214E-03    -7.18210E-03     83.2137E-06    -7.20816E-03     14.2234E-03    -7.15085E-03     81.8960E-06
            2268     16.8462E-03     10.0258E-03    -4.13517E+06     133.161E+06     50.0231E+06     2.99116E+06    -39.3258E-03     54.2926E-03    -14.9668E-03     174.600E-03    -42.3290E-03     57.6091E-03    -14.9038E-03     175.855E-03
            2269     15.9743E-03     9.90268E-03    -5.80879E+06     80.1658E+06    -3.60099E+06     2.63432E+06    -31.5889E-03     45.4529E-03    -13.8640E-03     93.6163E-03    -32.2343E-03     46.3731E-03    -13.9898E-03     93.5365E-03
            2270     15.0997E-03     9.84374E-03    -5.83369E+06     35.0534E+06    -10.5866E+06     1.73215E+06    -27.0517E-03     40.1235E-03    -13.0718E-03     48.2958E-03    -27.1965E-03     40.4029E-03    -13.1671E-03     48.2352E-03
            2271     14.2233E-03     9.80443E-03    -7.09227E+06    -5.13488E+06    -10.3548E+06     2.34564E+06    -24.9641E-03     37.3221E-03    -12.3580E-03     31.2727E-03    -25.0019E-03     37.3467E-03    -12.3921E-03     31.2543E-03
            2272     13.3438E-03     9.77370E-03    -6.71225E+06    -32.1964E+06    -12.9190E+06     1.71408E+06    -23.2045E-03     34.8259E-03    -11.6214E-03     24.3959E-03    -23.1855E-03     34.7064E-03    -11.6296E-03     24.3858E-03
            2273     12.4639E-03     9.74754E-03    -6.91430E+06    -39.9434E+06    -6.59976E+06     725.719E+03    -20.8755E-03     31.8106E-03    -10.9350E-03     17.9879E-03    -20.8483E-03     31.6363E-03    -10.9001E-03     17.9790E-03
            2274     11.5812E-03     9.72842E-03    -7.33986E+06    -41.0788E+06    -2.46802E+06    -7.20614E+03    -18.4835E-03     28.7763E-03    -10.2929E-03     12.7844E-03    -18.4596E-03     28.5878E-03    -10.2350E-03     12.7738E-03
            2275     10.6969E-03     9.71290E-03    -7.26774E+06    -49.2422E+06    -2.30397E+06    -370.359E+03    -16.3876E-03     26.1007E-03    -9.71314E-03     8.92446E-03    -16.3505E-03     25.8698E-03    -9.64272E-03     8.91303E-03
            2276     9.81061E-03     9.70179E-03    -7.35573E+06    -57.2000E+06     -25.697E+03    -246.954E+03    -14.5173E-03     23.7327E-03    -9.21536E-03     6.09649E-03    -14.4718E-03     23.4582E-03    -9.12188E-03     6.08893E-03
            2277     8.92283E-03     9.69294E-03    -8.27325E+06    -59.3749E+06     1.27568E+06     121.388E+03    -12.9107E-03     21.6848E-03    -8.77409E-03     4.13584E-03    -12.8682E-03     21.3985E-03    -8.66962E-03     4.13445E-03
            2278     8.03371E-03     9.68669E-03    -9.16616E+06    -57.0818E+06     481.837E+03     153.243E+03    -11.5757E-03     19.9530E-03    -8.37734E-03     2.88365E-03    -11.5397E-03     19.6805E-03    -8.27888E-03     2.88357E-03
            2279     7.14352E-03     9.68145E-03    -9.44711E+06    -53.5206E+06    -1.20791E+06    -159.658E+03    -10.4814E-03     18.5077E-03    -8.02630E-03     2.17480E-03    -10.4495E-03     18.2558E-03    -7.94104E-03     2.17128E-03
            2280     6.25245E-03     9.67751E-03    -9.78167E+06    -51.2504E+06    -3.48671E+06    -444.894E+03    -9.56872E-03     17.2891E-03    -7.72037E-03     1.66207E-03    -9.53836E-03     17.0522E-03    -7.64931E-03     1.65526E-03
            2281     5.36061E-03     9.67417E-03    -10.3266E+06    -49.8155E+06    -6.06878E+06    -584.422E+03    -8.80198E-03     16.2587E-03    -7.45676E-03     1.29961E-03    -8.77265E-03     16.0335E-03    -7.39989E-03     1.29128E-03
            2282     4.46813E-03     9.67166E-03    -10.9152E+06    -48.6511E+06    -8.12574E+06    -720.370E+03    -8.17754E-03     15.4126E-03    -7.23507E-03     1.02159E-03    -8.14983E-03     15.1970E-03    -7.18933E-03     1.01171E-03
            2283     3.57515E-03     9.66949E-03    -11.4852E+06    -47.6835E+06    -9.63348E+06    -683.275E+03    -7.67375E-03     14.7253E-03    -7.05150E-03     774.082E-06    -7.64810E-03     14.5175E-03    -7.01387E-03     764.838E-06
            2284     2.68182E-03     9.66803E-03    -11.8916E+06    -46.8054E+06    -10.8203E+06    -487.488E+03    -7.26683E-03     14.1706E-03    -6.90381E-03     555.829E-06    -7.24274E-03     13.9696E-03    -6.87280E-03     549.236E-06
            2285     1.78802E-03     9.66680E-03    -12.0651E+06    -46.0262E+06    -11.6260E+06    -319.804E+03    -6.95912E-03     13.7546E-03    -6.79552E-03     340.993E-06    -6.93586E-03     13.5589E-03    -6.76942E-03     336.669E-06
            2286     894.100E-06     9.66628E-03    -12.2164E+06    -45.4427E+06    -11.9799E+06    -118.037E+03    -6.79307E-03     13.5014E-03    -6.70835E-03     204.041E-06    -6.77081E-03     13.3094E-03    -6.68464E-03     202.412E-06
            2287     16.8509E-03     9.02766E-03    -2.77776E+06     132.313E+06     53.0993E+06     2.45479E+06    -41.3750E-03     56.2454E-03    -14.8704E-03     166.943E-03    -44.1325E-03     59.3094E-03    -14.7928E-03     167.910E-03
            2288     15.9798E-03     8.91496E-03    -4.26989E+06     80.3810E+06    -916.271E+03     3.23199E+06    -32.6276E-03     46.2821E-03    -13.6544E-03     86.8441E-03    -33.2074E-03     47.1351E-03    -13.7694E-03     86.7444E-03
            2289     15.1045E-03     8.85470E-03    -5.65181E+06     35.3206E+06    -8.31331E+06     3.27991E+06    -28.1485E-03     40.9243E-03    -12.7758E-03     43.8011E-03    -28.2851E-03     41.1906E-03    -12.8604E-03     43.7586E-03
            2290     14.2280E-03     8.82171E-03    -6.33932E+06    -3.75092E+06    -8.30573E+06     2.94619E+06    -25.6245E-03     37.6053E-03    -11.9807E-03     27.8845E-03    -25.6604E-03     37.6297E-03    -12.0076E-03     27.8745E-03
            2291     13.3503E-03     8.79124E-03    -7.04068E+06    -31.1788E+06    -11.0911E+06     2.33457E+06    -23.1914E-03     34.3874E-03    -11.1960E-03     21.1116E-03    -23.1760E-03     34.2688E-03    -11.1961E-03     21.1117E-03
            2292     12.4696E-03     8.77003E-03    -7.58491E+06    -38.4404E+06    -3.98209E+06     1.31686E+06    -20.4663E-03     30.9618E-03    -10.4955E-03     14.7809E-03    -20.4474E-03     30.7912E-03    -10.4486E-03     14.7812E-03
            2293     11.5867E-03     8.75284E-03    -8.24233E+06    -39.8380E+06     88.5831E+03    -262.953E+03    -17.8106E-03     27.6694E-03    -9.85883E-03     10.4759E-03    -17.7963E-03     27.4843E-03    -9.78867E-03     10.4630E-03
            2294     10.7016E-03     8.74082E-03    -8.53555E+06    -49.1528E+06    -387.015E+03    -1.10656E+06    -15.5655E-03     24.8676E-03    -9.30208E-03     7.35826E-03    -15.5375E-03     24.6360E-03    -9.22037E-03     7.33789E-03
            2295     9.81458E-03     8.73147E-03    -8.92438E+06    -58.1367E+06     473.611E+03    -495.515E+03    -13.6764E-03     22.5120E-03    -8.83559E-03     5.20471E-03    -13.6381E-03     22.2343E-03    -8.73598E-03     5.19425E-03
            2296     8.92607E-03     8.72505E-03    -9.57207E+06    -59.4305E+06     907.329E+03     97.9981E+03    -12.1280E-03     20.5585E-03    -8.43045E-03     3.81159E-03    -12.0915E-03     20.2744E-03    -8.32586E-03     3.81004E-03
            2297     8.03627E-03     8.72000E-03    -10.1973E+06    -56.4157E+06    -535.989E+03    -491.316E+03    -10.8975E-03     18.9692E-03    -8.07164E-03     3.00323E-03    -10.8662E-03     18.7029E-03    -7.97773E-03     2.99487E-03
            2298     7.14554E-03     8.71636E-03    -10.6302E+06    -53.4227E+06    -2.67848E+06    -1.02460E+06    -9.90556E-03     17.6654E-03    -7.75986E-03     2.59899E-03    -9.87755E-03     17.4178E-03    -7.68038E-03     2.58429E-03
            2299     6.25397E-03     8.71326E-03    -10.9879E+06    -51.4003E+06    -4.97102E+06    -893.029E+03    -9.09698E-03     16.5885E-03    -7.49154E-03     2.28544E-03    -9.07031E-03     16.3548E-03    -7.42594E-03     2.27282E-03
            2300     5.36176E-03     8.71110E-03    -11.4897E+06    -49.8820E+06    -7.07013E+06    -757.243E+03    -8.43680E-03     15.6989E-03    -7.26211E-03     2.03576E-03    -8.41175E-03     15.4765E-03    -7.20847E-03     2.02517E-03
            2301     4.46900E-03     8.70913E-03    -12.0700E+06    -48.8056E+06    -9.05228E+06    -694.909E+03    -7.89174E-03     14.9587E-03    -7.06698E-03     1.80298E-03    -7.86825E-03     14.7454E-03    -7.02397E-03     1.79340E-03
            2302     3.57581E-03     8.70782E-03    -12.6548E+06    -47.9942E+06    -10.6405E+06    -628.687E+03    -7.44599E-03     14.3512E-03    -6.90520E-03     1.52501E-03    -7.42428E-03     14.1450E-03    -6.87046E-03     1.51645E-03
            2303     2.68216E-03     8.70666E-03    -13.0941E+06    -47.1295E+06    -11.8198E+06    -584.117E+03    -7.08756E-03     13.8639E-03    -6.77632E-03     1.20158E-03    -7.06757E-03     13.6644E-03    -6.74809E-03     1.19373E-03
            2304     1.78835E-03     8.70605E-03    -13.3518E+06    -46.4089E+06    -12.7208E+06    -492.753E+03    -6.82501E-03     13.5059E-03    -6.68092E-03     827.695E-06    -6.80603E-03     13.3117E-03    -6.65787E-03     821.138E-06
            2305     894.177E-06     8.70555E-03    -13.5139E+06    -45.9758E+06    -13.0935E+06    -270.862E+03    -6.68901E-03     13.2807E-03    -6.59168E-03     498.804E-06    -6.67084E-03     13.0895E-03    -6.57089E-03     495.200E-06
            2306     16.8516E-03     8.03041E-03    -3.79954E+06     130.185E+06     55.5194E+06     1.70609E+06    -43.4293E-03     58.2097E-03    -14.7805E-03     160.821E-03    -45.9459E-03     61.0148E-03    -14.6861E-03     161.525E-03
            2307     15.9828E-03     7.92215E-03    -5.42362E+06     80.1123E+06     3.06310E+06     4.02294E+06    -34.7805E-03     48.2158E-03    -13.4353E-03     81.5786E-03    -35.3205E-03     49.0126E-03    -13.5283E-03     81.4551E-03
            2308     15.1105E-03     7.86874E-03    -5.73137E+06     35.8911E+06    -7.83042E+06     4.50481E+06    -29.0763E-03     41.5030E-03    -12.4267E-03     39.0423E-03    -29.2024E-03     41.7594E-03    -12.5096E-03     39.0161E-03
            2309     14.2345E-03     7.83621E-03    -6.19307E+06    -2.60800E+06    -7.21223E+06     4.05513E+06    -25.5401E-03     37.1226E-03    -11.5825E-03     24.4509E-03    -25.5748E-03     37.1472E-03    -11.6058E-03     24.4589E-03
            2310     13.3560E-03     7.81127E-03    -7.90414E+06    -29.4888E+06    -8.63497E+06     3.31260E+06    -22.7370E-03     33.5312E-03    -10.7942E-03     17.9096E-03    -22.7303E-03     33.4170E-03    -10.7831E-03     17.9250E-03
            2311     12.4749E-03     7.79222E-03    -8.66230E+06    -36.3855E+06    -1.25908E+06     1.47866E+06    -19.5091E-03     29.6230E-03    -10.1139E-03     12.3136E-03    -19.5016E-03     29.4595E-03    -10.0549E-03     12.3181E-03
            2312     11.5911E-03     7.77950E-03    -9.18394E+06    -37.9879E+06     3.27751E+06    -489.149E+03    -16.6885E-03     26.2165E-03    -9.52803E-03     9.04560E-03    -16.6859E-03     26.0371E-03    -9.44324E-03     9.03086E-03
            2313     10.7048E-03     7.76936E-03    -10.1550E+06    -49.1342E+06     2.27236E+06    -1.42887E+06    -14.4243E-03     23.4611E-03    -9.03675E-03     6.81697E-03    -14.4083E-03     23.2280E-03    -8.93942E-03     6.79305E-03
            2314     9.81692E-03     7.76293E-03    -10.8308E+06    -59.2603E+06     1.75874E+06    -1.11881E+06    -12.6379E-03     21.2760E-03    -8.63811E-03     5.37012E-03    -12.6094E-03     20.9936E-03    -8.52768E-03     5.35193E-03
            2315     8.92743E-03     7.75779E-03    -10.8442E+06    -59.2326E+06     826.573E+03    -941.389E+03    -11.2474E-03     19.5451E-03    -8.29774E-03     4.56295E-03    -11.2174E-03     19.2640E-03    -8.19199E-03     4.54815E-03
            2316     8.03698E-03     7.75451E-03    -10.7170E+06    -55.7488E+06    -1.33376E+06    -1.27860E+06    -10.1948E-03     18.2010E-03    -8.00625E-03     4.11646E-03    -10.1659E-03     17.9401E-03    -7.91654E-03     4.09801E-03
            2317     7.14560E-03     7.75170E-03    -11.1360E+06    -53.6128E+06    -4.08041E+06    -1.50661E+06    -9.37329E-03     17.1353E-03    -7.76206E-03     3.87370E-03    -9.34554E-03     16.8896E-03    -7.68857E-03     3.85281E-03
            2318     6.25360E-03     7.74981E-03    -11.6480E+06    -51.8624E+06    -6.23316E+06    -1.38643E+06    -8.72608E-03     16.2867E-03    -7.56058E-03     3.64837E-03    -8.70023E-03     16.0534E-03    -7.49966E-03     3.62940E-03
            2319     5.36108E-03     7.74812E-03    -11.9121E+06    -50.2479E+06    -7.57301E+06    -1.07838E+06    -8.22400E-03     15.6190E-03    -7.39501E-03     3.37474E-03    -8.19983E-03     15.3961E-03    -7.34274E-03     3.36001E-03
            2320     4.46816E-03     7.74703E-03    -12.2188E+06    -49.0680E+06    -8.91787E+06    -877.207E+03    -7.81306E-03     15.0712E-03    -7.25813E-03     3.04183E-03    -7.79014E-03     14.8566E-03    -7.21385E-03     3.02992E-03
            2321     3.57486E-03     7.74601E-03    -12.4151E+06    -48.2132E+06    -10.1438E+06    -879.801E+03    -7.48761E-03     14.6370E-03    -7.14938E-03     2.61882E-03    -7.46511E-03     14.4287E-03    -7.11219E-03     2.60704E-03
            2322     2.68142E-03     7.74545E-03    -12.4674E+06    -47.4403E+06    -11.0176E+06    -857.092E+03    -7.25059E-03     14.3184E-03    -7.06785E-03     2.07787E-03    -7.22819E-03     14.1153E-03    -7.03607E-03     2.06653E-03
            2323     1.78762E-03     7.74496E-03    -12.5894E+06    -46.9659E+06    -11.7539E+06    -714.873E+03    -7.09853E-03     14.1060E-03    -7.00751E-03     1.46475E-03    -7.07634E-03     13.9065E-03    -6.97992E-03     1.45535E-03
            2324     893.940E-06     7.74475E-03    -12.5793E+06    -46.7744E+06    -12.2872E+06    -537.185E+03    -6.99766E-03     13.9590E-03    -6.96134E-03     808.083E-06    -6.97485E-03     13.7613E-03    -6.93672E-03     801.051E-06
            2325     16.8523E-03     7.03115E-03    -4.57299E+06     127.286E+06     53.5126E+06     1.99944E+06    -46.0215E-03     60.6920E-03    -14.6705E-03     152.228E-03    -48.2697E-03     63.2214E-03    -14.5809E-03     152.677E-03
            2326     15.9870E-03     6.92522E-03    -6.35069E+06     78.4111E+06     1.09892E+06     3.74394E+06    -36.7327E-03     49.9078E-03    -13.1751E-03     72.8234E-03    -37.2064E-03     50.6349E-03    -13.2741E-03     72.6642E-03
            2327     15.1167E-03     6.88178E-03    -7.43916E+06     36.0678E+06    -9.33683E+06     5.65053E+06    -29.4314E-03     41.5075E-03    -12.0761E-03     33.1481E-03    -29.5516E-03     41.7569E-03    -12.1643E-03     33.1411E-03
            2328     14.2396E-03     6.85313E-03    -9.87553E+06    -1.63508E+06    -7.37203E+06     6.22451E+06    -24.9589E-03     36.1809E-03    -11.2220E-03     21.9082E-03    -25.0102E-03     36.2130E-03    -11.2422E-03     21.9488E-03
            2329     13.3608E-03     6.83076E-03    -10.7065E+06    -26.0466E+06    -5.85552E+06     3.87276E+06    -21.4987E-03     31.9765E-03    -10.4778E-03     15.1699E-03    -21.5134E-03     31.8779E-03    -10.4538E-03     15.1962E-03
            2330     12.4785E-03     6.81735E-03    -10.9850E+06    -33.6606E+06     1.47985E+06     759.663E+03    -17.9614E-03     27.8328E-03    -9.87140E-03     10.8288E-03    -17.9729E-03     27.6817E-03    -9.79926E-03     10.8262E-03
            2331     11.5930E-03     6.80668E-03    -11.1412E+06    -36.3599E+06     6.69367E+06    -1.19039E+06    -15.1199E-03     24.5082E-03    -9.38834E-03     8.86453E-03    -15.1344E-03     24.3348E-03    -9.28599E-03     8.84190E-03
            2332     10.7057E-03     6.80011E-03    -11.6108E+06    -49.1341E+06     5.12834E+06    -1.86426E+06    -13.0526E-03     22.0564E-03    -9.00382E-03     7.55995E-03    -13.0480E-03     21.8214E-03    -8.89010E-03     7.53105E-03
            2333     9.81640E-03     6.79495E-03    -12.1048E+06    -59.5345E+06     1.93410E+06    -2.19247E+06    -11.5242E-03     20.2235E-03    -8.69930E-03     6.78994E-03    -11.5020E-03     19.9414E-03    -8.58576E-03     6.75827E-03
            2334     8.92617E-03     6.79189E-03    -11.9687E+06    -59.0651E+06    -816.618E+03    -2.61775E+06    -10.4172E-03     18.8682E-03    -8.45109E-03     6.37665E-03    -10.3907E-03     18.5920E-03    -8.35217E-03     6.34045E-03
            2335     8.03487E-03     6.78922E-03    -11.5513E+06    -56.0926E+06    -2.78397E+06    -2.54529E+06    -9.63174E-03     17.8870E-03    -8.25527E-03     6.06054E-03    -9.60449E-03     17.6277E-03    -8.17111E-03     6.02589E-03
            2336     7.14316E-03     6.78764E-03    -11.2650E+06    -54.0161E+06    -4.74955E+06    -2.08294E+06    -9.05147E-03     17.1520E-03    -8.10051E-03     5.72722E-03    -9.02284E-03     16.9054E-03    -8.02960E-03     5.69898E-03
            2337     6.25088E-03     6.78614E-03    -11.3301E+06    -52.3000E+06    -6.19399E+06    -1.91445E+06    -8.61241E-03     16.5938E-03    -7.98135E-03     5.40424E-03    -8.58442E-03     16.3578E-03    -7.92006E-03     5.37853E-03
            2338     5.35834E-03     6.78516E-03    -11.3466E+06    -50.7907E+06    -6.98400E+06    -1.83280E+06    -8.29380E-03     16.1856E-03    -7.89177E-03     4.92421E-03    -8.26688E-03     15.9583E-03    -7.83659E-03     4.89981E-03
            2339     4.46552E-03     6.78429E-03    -10.9876E+06    -49.4600E+06    -7.53578E+06    -1.67976E+06    -8.05824E-03     15.8831E-03    -7.82487E-03     4.34926E-03    -8.03062E-03     15.6627E-03    -7.77490E-03     4.32704E-03
            2340     3.57258E-03     6.78374E-03    -10.6164E+06    -48.5608E+06    -8.23154E+06    -1.57309E+06    -7.89385E-03     15.6710E-03    -7.77715E-03     3.66590E-03    -7.86464E-03     15.4555E-03    -7.73250E-03     3.64522E-03
            2341     2.67940E-03     6.78324E-03    -10.4065E+06    -48.0451E+06    -8.85910E+06    -1.43894E+06    -7.79946E-03     15.5449E-03    -7.74548E-03     2.86302E-03    -7.76902E-03     15.3326E-03    -7.70502E-03     2.84419E-03
            2342     1.78639E-03     6.78297E-03    -10.1824E+06    -47.8515E+06    -9.45197E+06    -1.08618E+06    -7.74913E-03     15.4725E-03    -7.72336E-03     1.97343E-03    -7.71699E-03     15.2617E-03    -7.68647E-03     1.95925E-03
            2343     893.107E-06     6.78276E-03    -10.0537E+06    -47.8342E+06    -9.97521E+06    -746.828E+03    -7.70365E-03     15.4249E-03    -7.72129E-03     1.04900E-03    -7.67004E-03     15.2149E-03    -7.68723E-03     1.03927E-03
            2344     16.8566E-03     6.02450E-03    -4.42822E+06     125.194E+06     54.3496E+06     2.43194E+06    -49.6952E-03     64.1859E-03    -14.4907E-03     141.189E-03    -51.6861E-03     66.4491E-03    -14.3940E-03     141.317E-03
            2345     15.9938E-03     5.92999E-03    -6.82937E+06     74.6126E+06     1.88013E+06     5.74303E+06    -36.8264E-03     49.6921E-03    -12.8657E-03     61.1410E-03    -37.2138E-03     50.3160E-03    -12.9546E-03     61.0036E-03
            2346     15.1202E-03     5.89518E-03    -10.0482E+06     35.3550E+06    -6.93211E+06     8.75225E+06    -28.1612E-03     39.9380E-03    -11.7768E-03     27.1112E-03    -28.2851E-03     40.1722E-03    -11.8481E-03     27.1562E-03
            2347     14.2443E-03     5.86999E-03    -13.6701E+06     2.44320E+06    -4.30435E+06     7.91919E+06    -23.4436E-03     34.4263E-03    -10.9827E-03     19.2014E-03    -23.5217E-03     34.4773E-03    -10.9880E-03     19.2697E-03
            2348     13.3635E-03     5.85345E-03    -15.6451E+06    -21.4312E+06    -3.46008E+06     3.69961E+06    -19.3113E-03     29.6507E-03    -10.3393E-03     13.8963E-03    -19.3596E-03     29.5775E-03    -10.3029E-03     13.9251E-03
            2349     12.4790E-03     5.84338E-03    -15.4844E+06    -29.5448E+06     4.26705E+06    -1.10162E+06    -15.8335E-03     25.7084E-03    -9.87485E-03     11.1779E-03    -15.8772E-03     25.5800E-03    -9.78822E-03     11.1536E-03
            2350     11.5920E-03     5.83651E-03    -14.5125E+06    -35.7691E+06     9.27025E+06    -3.53309E+06    -13.3428E-03     22.8833E-03    -9.54051E-03     10.5723E-03    -13.3787E-03     22.7139E-03    -9.42125E-03     10.5207E-03
            2351     10.7027E-03     5.83145E-03    -13.7638E+06    -49.7024E+06     7.04812E+06    -3.39353E+06    -11.7397E-03     21.0298E-03    -9.29016E-03     9.80381E-03    -11.7478E-03     20.7923E-03    -9.16289E-03     9.75587E-03
            2352     9.81267E-03     5.82834E-03    -13.4213E+06    -58.9313E+06     2.06765E+06    -3.70002E+06    -10.6452E-03     19.7413E-03    -9.09614E-03     9.20665E-03    -10.6306E-03     19.4639E-03    -8.98089E-03     9.15597E-03
            2353     8.92145E-03     5.82596E-03    -12.9673E+06    -59.1838E+06    -1.68178E+06    -4.43382E+06    -9.91166E-03     18.8621E-03    -8.95048E-03     8.80942E-03    -9.88877E-03     18.5880E-03    -8.85427E-03     8.75008E-03
            2354     8.03006E-03     5.82423E-03    -12.1454E+06    -57.1238E+06    -3.92945E+06    -4.27165E+06    -9.44018E-03     18.2873E-03    -8.84713E-03     8.28357E-03    -9.41275E-03     18.0254E-03    -8.76634E-03     8.22684E-03
            2355     7.13811E-03     5.82298E-03    -11.1782E+06    -55.0204E+06    -4.79343E+06    -3.57922E+06    -9.11930E-03     17.8972E-03    -8.77795E-03     7.68160E-03    -9.08872E-03     17.6455E-03    -8.70593E-03     7.63422E-03
            2356     6.24608E-03     5.82199E-03    -10.1440E+06    -52.7624E+06    -4.67994E+06    -3.10646E+06    -8.90894E-03     17.6430E-03    -8.73408E-03     7.04349E-03    -8.87655E-03     17.4008E-03    -8.66626E-03     7.00252E-03
            2357     5.35382E-03     5.82115E-03    -9.29818E+06    -51.2745E+06    -5.06177E+06    -3.10701E+06    -8.76931E-03     17.4747E-03    -8.70538E-03     6.23665E-03    -8.73424E-03     17.2392E-03    -8.64286E-03     6.19590E-03
            2358     4.46152E-03     5.82053E-03    -8.59248E+06    -50.2327E+06    -5.44808E+06    -3.00837E+06    -8.69538E-03     17.3853E-03    -8.68996E-03     5.35036E-03    -8.65770E-03     17.1546E-03    -8.63191E-03     5.31107E-03
            2359     3.56914E-03     5.82000E-03    -7.95044E+06    -49.4126E+06    -5.62057E+06    -2.62299E+06    -8.66832E-03     17.3521E-03    -8.68377E-03     4.38327E-03    -8.62835E-03     17.1247E-03    -8.62869E-03     4.34909E-03
            2360     2.67692E-03     5.81959E-03    -7.47666E+06    -49.1505E+06    -6.21996E+06    -2.17614E+06    -8.66188E-03     17.3429E-03    -8.68102E-03     3.35175E-03    -8.61903E-03     17.1170E-03    -8.63001E-03     3.32343E-03
            2361     1.78450E-03     5.81926E-03    -7.17330E+06    -49.2319E+06    -6.88364E+06    -1.54675E+06    -8.66201E-03     17.3457E-03    -8.68373E-03     2.27709E-03    -8.61655E-03     17.1199E-03    -8.63636E-03     2.25698E-03
            2362     892.336E-06     5.81914E-03    -6.95433E+06    -49.1290E+06    -6.92320E+06    -840.403E+03    -8.68357E-03     17.3753E-03    -8.69170E-03     1.21793E-03    -8.63701E-03     17.1498E-03    -8.64500E-03     1.20700E-03
            2363     16.8627E-03     5.01123E-03    -5.14135E+06     121.251E+06     59.2120E+06     3.64061E+06    -52.4377E-03     66.7754E-03    -14.3378E-03     128.024E-03    -54.1253E-03     68.7061E-03    -14.2101E-03     127.856E-03
            2364     15.9997E-03     4.93940E-03    -10.0522E+06     70.8218E+06     12.3701E+06     10.0276E+06    -35.5493E-03     48.2242E-03    -12.6750E-03     51.3275E-03    -35.8829E-03     48.7392E-03    -12.7012E-03     51.2750E-03
            2365     15.1256E-03     4.90891E-03    -15.0004E+06     34.6087E+06    -988.343E+03     12.9290E+06    -25.7660E-03     37.4094E-03    -11.6434E-03     24.4662E-03    -25.9134E-03     37.6298E-03    -11.6768E-03     24.5799E-03
            2366     14.2454E-03     4.89050E-03    -18.7843E+06     8.00379E+06    -1.24996E+06     10.1964E+06    -20.3524E-03     31.3349E-03    -10.9825E-03     19.0715E-03    -20.4661E-03     31.4142E-03    -10.9731E-03     19.1777E-03
            2367     13.3617E-03     4.87803E-03    -19.9594E+06    -12.5715E+06     1.48116E+06     2.11818E+06    -16.4363E-03     26.9721E-03    -10.5358E-03     15.6216E-03    -16.5253E-03     26.9415E-03    -10.4812E-03     15.6349E-03
            2368     12.4749E-03     4.87219E-03    -18.3047E+06    -25.4638E+06     7.42416E+06    -4.92483E+06    -13.7089E-03     23.9628E-03    -10.2538E-03     14.1399E-03    -13.7770E-03     23.8540E-03    -10.1532E-03     14.0686E-03
            2369     11.5855E-03     4.86724E-03    -16.9539E+06    -36.7475E+06     10.7285E+06    -6.36240E+06    -12.0559E-03     22.1292E-03    -10.0733E-03     13.8507E-03    -12.1046E-03     21.9562E-03    -9.94179E-03     13.7636E-03
            2370     10.6958E-03     4.86373E-03    -16.5811E+06    -50.4400E+06     7.53003E+06    -5.95173E+06    -11.0175E-03     20.9598E-03    -9.94226E-03     12.8035E-03    -11.0393E-03     20.7218E-03    -9.80743E-03     12.7233E-03
            2371     9.80492E-03     4.86152E-03    -15.3758E+06    -58.4301E+06     2.19598E+06    -6.44529E+06    -10.3847E-03     20.2284E-03    -9.84370E-03     11.9151E-03    -10.3807E-03     19.9560E-03    -9.72570E-03     11.8295E-03
            2372     8.91398E-03     4.85975E-03    -13.5223E+06    -59.5668E+06    -1.68231E+06    -7.03428E+06    -10.0291E-03     19.8050E-03    -9.77595E-03     11.1134E-03    -10.0084E-03     19.5297E-03    -9.67838E-03     11.0209E-03
            2373     8.02253E-03     4.85831E-03    -11.6650E+06    -58.6258E+06    -4.63161E+06    -6.68698E+06    -9.81768E-03     19.5498E-03    -9.73211E-03     10.1040E-03    -9.78462E-03     19.2806E-03    -9.65334E-03     10.0164E-03
            2374     7.13115E-03     4.85732E-03    -9.69835E+06    -56.3568E+06    -4.42075E+06    -5.98284E+06    -9.71380E-03     19.4302E-03    -9.71643E-03     9.08197E-03    -9.67441E-03     19.1691E-03    -9.64275E-03     9.00375E-03
            2375     6.23965E-03     4.85634E-03    -7.70493E+06    -53.7936E+06    -3.37026E+06    -5.45940E+06    -9.66706E-03     19.3802E-03    -9.71311E-03     8.03020E-03    -9.62287E-03     19.1274E-03    -9.64079E-03     7.95900E-03
            2376     5.34823E-03     4.85563E-03    -6.02045E+06    -52.3837E+06    -3.24145E+06    -4.76350E+06    -9.65488E-03     19.3676E-03    -9.71271E-03     6.90116E-03    -9.60445E-03     19.1191E-03    -9.64423E-03     6.83912E-03
            2377     4.45676E-03     4.85496E-03    -5.12790E+06    -51.3923E+06    -3.04624E+06    -4.17064E+06    -9.66405E-03     19.3813E-03    -9.71725E-03     5.76263E-03    -9.61085E-03     19.1362E-03    -9.65052E-03     5.70839E-03
            2378     3.56543E-03     4.85442E-03    -4.64473E+06    -50.8693E+06    -3.17361E+06    -3.66401E+06    -9.68063E-03     19.4030E-03    -9.72233E-03     4.63050E-03    -9.62557E-03     19.1599E-03    -9.65770E-03     4.58291E-03
            2379     2.67396E-03     4.85395E-03    -4.34847E+06    -50.8925E+06    -3.67691E+06    -2.79400E+06    -9.69722E-03     19.4243E-03    -9.72705E-03     3.48460E-03    -9.63989E-03     19.1814E-03    -9.66533E-03     3.44833E-03
            2380     1.78270E-03     4.85367E-03    -4.13368E+06    -51.0292E+06    -4.11183E+06    -1.86655E+06    -9.71131E-03     19.4455E-03    -9.73423E-03     2.33062E-03    -9.65207E-03     19.2023E-03    -9.67480E-03     2.30640E-03
            2381     891.206E-06     4.85343E-03    -4.07480E+06    -50.9287E+06    -3.95815E+06    -1.02134E+06    -9.74372E-03     19.4796E-03    -9.73591E-03     1.29084E-03    -9.68442E-03     19.2367E-03    -9.67594E-03     1.27759E-03
            2382     16.8645E-03     4.00411E-03    -5.88648E+06     114.700E+06     63.1027E+06     6.46249E+06    -52.6875E-03     67.0269E-03    -14.3394E-03     109.839E-03    -53.9662E-03     68.5128E-03    -14.1816E-03     109.528E-03
            2383     15.9985E-03     3.94550E-03    -13.9578E+06     64.7541E+06     23.7454E+06     12.8573E+06    -32.4700E-03     45.2380E-03    -12.7680E-03     42.9853E-03    -32.7697E-03     45.6507E-03    -12.7230E-03     43.0174E-03
            2384     15.1229E-03     3.92793E-03    -18.4309E+06     35.1632E+06     9.54862E+06     17.1397E+06    -22.2178E-03     34.1256E-03    -11.9078E-03     24.9573E-03    -22.3919E-03     34.3320E-03    -11.8843E-03     25.1413E-03
            2385     14.2397E-03     3.91360E-03    -20.9747E+06     19.9923E+06     6.34516E+06     10.4521E+06    -17.0025E-03     28.4396E-03    -11.4371E-03     22.7637E-03    -17.1537E-03     28.5692E-03    -11.4039E-03     22.8813E-03
            2386     13.3528E-03     3.90582E-03    -19.0881E+06    -829.726E+03     6.37774E+06    -2.51382E+06    -14.2117E-03     25.3935E-03    -11.1819E-03     19.6919E-03    -14.3195E-03     25.4123E-03    -11.1211E-03     19.6494E-03
            2387     12.4638E-03     3.90177E-03    -16.5872E+06    -24.2022E+06     8.25045E+06    -8.64146E+06    -12.7745E-03     23.8224E-03    -11.0478E-03     17.9059E-03    -12.8366E-03     23.7157E-03    -10.9474E-03     17.7884E-03
            2388     11.5749E-03     3.89789E-03    -16.0056E+06    -38.0856E+06     9.19960E+06    -8.67071E+06    -11.8868E-03     22.8484E-03    -10.9617E-03     16.6976E-03    -11.9263E-03     22.6692E-03    -10.8372E-03     16.5817E-03
            2389     10.6847E-03     3.89549E-03    -15.0711E+06    -50.5806E+06     5.68222E+06    -9.27356E+06    -11.2808E-03     22.1766E-03    -10.8958E-03     15.0527E-03    -11.2919E-03     21.9381E-03    -10.7722E-03     14.9303E-03
            2390     9.79458E-03     3.89363E-03    -12.8920E+06    -58.4255E+06     642.947E+03    -10.3008E+06    -11.0189E-03     21.8623E-03    -10.8434E-03     13.6468E-03    -11.0001E-03     21.5884E-03    -10.7368E-03     13.5120E-03
            2391     8.90408E-03     3.89201E-03    -10.5632E+06    -61.0021E+06    -3.37244E+06    -10.1691E+06    -10.8919E-03     21.6950E-03    -10.8031E-03     12.1759E-03    -10.8518E-03     21.4105E-03    -10.7162E-03     12.0433E-03
            2392     8.01376E-03     3.89082E-03    -8.39284E+06    -60.3194E+06    -5.69594E+06    -9.43212E+06    -10.8099E-03     21.5858E-03    -10.7760E-03     10.7286E-03    -10.7564E-03     21.3048E-03    -10.7048E-03     10.6057E-03
            2393     7.12327E-03     3.88969E-03    -6.01985E+06    -58.0475E+06    -5.14352E+06    -8.83201E+06    -10.7847E-03     21.5507E-03    -10.7660E-03     9.35793E-03    -10.7234E-03     21.2768E-03    -10.6988E-03     9.24311E-03
            2394     6.23288E-03     3.88881E-03    -3.93361E+06    -55.9380E+06    -3.76867E+06    -7.71008E+06    -10.7748E-03     21.5378E-03    -10.7630E-03     8.03638E-03    -10.7081E-03     21.2693E-03    -10.6950E-03     7.93623E-03
            2395     5.34242E-03     3.88798E-03    -2.56053E+06    -54.5292E+06    -2.67131E+06    -6.31495E+06    -10.7757E-03     21.5370E-03    -10.7612E-03     6.76660E-03    -10.7057E-03     21.2719E-03    -10.6918E-03     6.68460E-03
            2396     4.45207E-03     3.88732E-03    -1.52331E+06    -53.2149E+06    -1.31166E+06    -5.08060E+06    -10.7735E-03     21.5347E-03    -10.7612E-03     5.56075E-03    -10.7021E-03     21.2727E-03    -10.6884E-03     5.49481E-03
            2397     3.56160E-03     3.88675E-03    -1.27066E+06    -52.8852E+06    -1.21292E+06    -3.94587E+06    -10.7640E-03     21.5220E-03    -10.7580E-03     4.40603E-03    -10.6920E-03     21.2611E-03    -10.6855E-03     4.35483E-03
            2398     2.67127E-03     3.88629E-03    -1.44829E+06    -52.9694E+06    -1.42158E+06    -2.93812E+06    -10.7582E-03     21.5136E-03    -10.7555E-03     3.28432E-03    -10.6866E-03     21.2529E-03    -10.6837E-03     3.24621E-03
            2399     1.78078E-03     3.88594E-03    -1.61305E+06    -53.0612E+06    -1.45217E+06    -1.97015E+06    -10.7632E-03     21.5148E-03    -10.7517E-03     2.19328E-03    -10.6922E-03     21.2539E-03    -10.6797E-03     2.16773E-03
            2400     890.532E-06     3.88576E-03    -1.55978E+06    -53.0202E+06    -1.76070E+06    -1.04523E+06    -10.7346E-03     21.4946E-03    -10.7600E-03     1.20544E-03    -10.6629E-03     21.2344E-03    -10.6896E-03     1.19188E-03
            2401     16.8627E-03     2.99438E-03    -4.07921E+06     105.711E+06     62.0325E+06     9.72257E+06    -48.8444E-03     63.4557E-03    -14.6113E-03     89.1979E-03    -49.7027E-03     64.4995E-03    -14.4485E-03     88.9533E-03
            2402     15.9946E-03     2.95972E-03    -11.9715E+06     60.1234E+06     31.4291E+06     16.2395E+06    -27.4451E-03     40.7474E-03    -13.3023E-03     38.1921E-03    -27.6965E-03     41.0802E-03    -13.2150E-03     38.3159E-03
            2403     15.1110E-03     2.94874E-03    -15.1139E+06     40.8665E+06     23.3656E+06     16.8679E+06    -18.8325E-03     31.5512E-03    -12.7188E-03     28.6769E-03    -19.0136E-03     31.7562E-03    -12.6393E-03     28.8708E-03
            2404     14.2250E-03     2.93969E-03    -11.1887E+06     35.8998E+06     17.6681E+06     5.54817E+06    -15.7944E-03     28.1897E-03    -12.3952E-03     26.3826E-03    -15.9342E-03     28.3659E-03    -12.3427E-03     26.4418E-03
            2405     13.3370E-03     2.93354E-03    -9.06387E+06     8.41043E+06     7.32903E+06    -5.30174E+06    -14.1605E-03     26.3599E-03    -12.1994E-03     22.2472E-03    -14.2316E-03     26.4073E-03    -12.1618E-03     22.1717E-03
            2406     12.4496E-03     2.93009E-03    -10.4591E+06    -23.9547E+06     2.04492E+06    -9.72955E+06    -13.4623E-03     25.5621E-03    -12.0998E-03     19.3430E-03    -13.4844E-03     25.4560E-03    -12.0397E-03     19.2129E-03
            2407     11.5609E-03     2.92719E-03    -10.1328E+06    -38.6063E+06    -629.872E+03    -11.4058E+06    -12.8977E-03     24.9149E-03    -12.0172E-03     17.1537E-03    -12.8925E-03     24.7383E-03    -11.9497E-03     17.0035E-03
            2408     10.6722E-03     2.92537E-03    -7.96108E+06    -50.6912E+06    -4.91266E+06    -12.3398E+06    -12.5641E-03     24.5092E-03    -11.9451E-03     15.0734E-03    -12.5239E-03     24.2748E-03    -11.8846E-03     14.9121E-03
            2409     9.78314E-03     2.92345E-03    -6.43809E+06    -59.2296E+06    -9.20331E+06    -12.7167E+06    -12.4179E-03     24.2995E-03    -11.8816E-03     13.1608E-03    -12.3513E-03     24.0263E-03    -11.8324E-03     12.9951E-03
            2410     8.89426E-03     2.92215E-03    -5.13464E+06    -63.4242E+06    -10.7071E+06    -12.1487E+06    -12.2701E-03     24.1029E-03    -11.8328E-03     11.3691E-03    -12.1886E-03     23.8089E-03    -11.7869E-03     11.2111E-03
            2411     8.00502E-03     2.92092E-03    -3.58848E+06    -62.1925E+06    -11.0028E+06    -11.2056E+06    -12.1544E-03     23.9424E-03    -11.7880E-03     9.81386E-03    -12.0664E-03     23.6527E-03    -11.7476E-03     9.66835E-03
            2412     7.11585E-03     2.91993E-03    -2.34237E+06     -60.504E+06    -9.98332E+06    -10.1770E+06    -12.0591E-03     23.8129E-03    -11.7538E-03     8.39492E-03    -11.9687E-03     23.5283E-03    -11.7126E-03     8.26289E-03
            2413     6.22652E-03     2.91901E-03    -1.70256E+06    -59.2337E+06    -7.60305E+06    -8.34897E+06    -11.9742E-03     23.7055E-03    -11.7313E-03     7.08987E-03    -11.8859E-03     23.4228E-03    -11.6810E-03     6.98158E-03
            2414     5.33721E-03     2.91827E-03    -1.34661E+06    -56.9318E+06    -5.40732E+06    -6.67745E+06    -11.8929E-03     23.6028E-03    -11.7099E-03     5.89843E-03    -11.8094E-03     23.3280E-03    -11.6524E-03     5.81183E-03
            2415     4.44773E-03     2.91761E-03    -1.26962E+06    -55.9920E+06    -3.57797E+06    -5.27202E+06    -11.8234E-03     23.5156E-03    -11.6922E-03     4.79204E-03    -11.7434E-03     23.2427E-03    -11.6271E-03     4.72368E-03
            2416     3.55833E-03     2.91710E-03    -1.25533E+06    -55.2659E+06    -2.22842E+06    -3.64631E+06    -11.7614E-03     23.4372E-03    -11.6758E-03     3.75951E-03    -11.6843E-03     23.1659E-03    -11.6050E-03     3.71221E-03
            2417     2.66874E-03     2.91667E-03    -1.48665E+06    -54.9310E+06    -2.40126E+06    -2.47287E+06    -11.7093E-03     23.3660E-03    -11.6568E-03     2.79360E-03    -11.6336E-03     23.0970E-03    -11.5870E-03     2.76152E-03
            2418     1.77925E-03     2.91636E-03    -1.87085E+06    -54.9424E+06    -2.50779E+06    -1.65580E+06    -11.6715E-03     23.3141E-03    -11.6426E-03     1.87748E-03    -11.5976E-03     23.0457E-03    -11.5728E-03     1.85600E-03
            2419     889.539E-06     2.91614E-03    -1.92264E+06    -55.0031E+06    -2.22728E+06    -827.672E+03    -11.6396E-03     23.2777E-03    -11.6381E-03     993.731E-06    -11.5661E-03     23.0088E-03    -11.5666E-03     982.968E-06
            2420     16.8499E-03     1.99042E-03    -2.28253E+06     93.2835E+06     57.2721E+06     13.4998E+06    -40.2428E-03     55.5932E-03    -15.3504E-03     72.8084E-03    -40.7922E-03     56.3035E-03    -15.1960E-03     72.7551E-03
            2421     15.9726E-03     1.97926E-03    -5.72895E+06     60.9501E+06     42.0572E+06     17.9396E+06    -24.7474E-03     39.1564E-03    -14.4091E-03     36.4396E-03    -24.9572E-03     39.4407E-03    -14.2788E-03     36.6213E-03
            2422     15.0894E-03     1.97041E-03    -2.96368E+06     53.6713E+06     36.3039E+06     8.06406E+06    -19.4928E-03     33.4162E-03    -13.9234E-03     28.6898E-03    -19.6459E-03     33.6438E-03    -13.8154E-03     28.7765E-03
            2423     14.2057E-03     1.96300E-03     2.39483E+06     44.5773E+06     19.0466E+06    -517.054E+03    -17.1438E-03     30.6995E-03    -13.5557E-03     24.6371E-03    -17.2275E-03     30.8945E-03    -13.5286E-03     24.6218E-03
            2424     13.3210E-03     1.95914E-03     1.98206E+06     13.2397E+06    -996.827E+03    -3.59179E+06    -16.0427E-03     29.3368E-03    -13.2941E-03     19.9301E-03    -16.0521E-03     29.4029E-03    -13.3211E-03     19.8789E-03
            2425     12.4343E-03     1.95574E-03     360.457E+03    -20.5781E+06    -11.1036E+06    -8.67773E+06    -15.2129E-03     28.3433E-03    -13.1304E-03     16.7425E-03    -15.1660E-03     28.2567E-03    -13.1566E-03     16.6272E-03
            2426     11.5478E-03     1.95420E-03     58.2813E+03    -38.7385E+06    -17.2527E+06    -12.1221E+06    -14.7300E-03     27.7203E-03    -12.9903E-03     14.1732E-03    -14.6490E-03     27.5519E-03    -13.0205E-03     14.0146E-03
            2427     10.6606E-03     1.95217E-03    -210.132E+03    -51.8619E+06    -22.1334E+06    -12.3233E+06    -14.3351E-03     27.2009E-03    -12.8658E-03     12.0916E-03    -14.2292E-03     26.9742E-03    -12.9009E-03     11.9310E-03
            2428     9.77348E-03     1.95093E-03    -532.034E+03    -60.8283E+06    -24.3172E+06    -11.7262E+06    -13.9819E-03     26.7452E-03    -12.7633E-03     10.2935E-03    -13.8613E-03     26.4772E-03    -12.7959E-03     10.1410E-03
            2429     8.88565E-03     1.94974E-03    -971.669E+03    -65.5671E+06    -22.7940E+06    -11.2179E+06    -13.6963E-03     26.3817E-03    -12.6854E-03     8.79373E-03    -13.5732E-03     26.0884E-03    -12.7029E-03     8.64809E-03
            2430     7.99789E-03     1.94884E-03    -1.24368E+06    -64.5961E+06    -20.5777E+06    -10.3556E+06    -13.4422E-03     26.0541E-03    -12.6119E-03     7.47494E-03    -13.3250E-03     25.7628E-03    -12.6193E-03     7.34063E-03
            2431     7.10972E-03     1.94797E-03    -1.65639E+06    -63.6876E+06    -17.8146E+06    -8.65293E+06    -13.2106E-03     25.7610E-03    -12.5504E-03     6.31965E-03    -13.1008E-03     25.4708E-03    -12.5447E-03     6.20746E-03
            2432     6.22148E-03     1.94729E-03    -2.24362E+06    -62.3904E+06    -14.1235E+06    -6.89814E+06    -13.0085E-03     25.5103E-03    -12.5017E-03     5.28668E-03    -12.9088E-03     25.2220E-03    -12.4786E-03     5.19726E-03
            2433     5.33296E-03     1.94666E-03    -2.78900E+06    -59.4312E+06    -11.1956E+06    -5.40786E+06    -12.8291E-03     25.2842E-03    -12.4551E-03     4.35791E-03    -12.7407E-03     25.0073E-03    -12.4208E-03     4.28780E-03
            2434     4.44442E-03     1.94617E-03    -3.27875E+06    -58.5432E+06    -8.66916E+06    -4.13801E+06    -12.6789E-03     25.0963E-03    -12.4175E-03     3.51112E-03    -12.5978E-03     24.8209E-03    -12.3712E-03     3.45748E-03
            2435     3.55562E-03     1.94575E-03    -3.70166E+06    -57.6707E+06    -6.76582E+06    -2.95190E+06    -12.5529E-03     24.9378E-03    -12.3849E-03     2.74017E-03    -12.4780E-03     24.6646E-03    -12.3297E-03     2.70189E-03
            2436     2.66687E-03     1.94544E-03    -3.86259E+06    -56.6669E+06    -5.79197E+06    -1.76468E+06    -12.4527E-03     24.8084E-03    -12.3557E-03     2.02660E-03    -12.3814E-03     24.5391E-03    -12.2969E-03     2.00370E-03
            2437     1.77790E-03     1.94519E-03    -3.86321E+06    -56.3821E+06    -5.22670E+06    -989.748E+03    -12.3755E-03     24.7118E-03    -12.3363E-03     1.35392E-03    -12.3055E-03     24.4431E-03    -12.2751E-03     1.34106E-03
            2438     889.023E-06     1.94506E-03    -4.15460E+06    -56.4307E+06    -4.42494E+06    -400.788E+03    -12.3387E-03     24.6683E-03    -12.3296E-03     729.764E-06    -12.2710E-03     24.3987E-03    -12.2639E-03     724.536E-06
            2439     16.8240E-03     1.00541E-03     276.462E+03     86.8992E+06     60.4862E+06     12.5842E+06    -40.5563E-03     57.1822E-03    -16.6259E-03     55.9462E-03    -40.9232E-03     57.6842E-03    -16.4498E-03     55.9221E-03
            2440     15.9470E-03     987.188E-06     5.18857E+06     68.4993E+06     51.3976E+06     8.14243E+06    -26.9070E-03     42.5682E-03    -15.6612E-03     26.1258E-03    -27.0675E-03     42.8411E-03    -15.5111E-03     26.2025E-03
            2441     15.0735E-03     989.889E-06     11.2818E+06     61.9079E+06     34.1043E+06    -496.794E+03    -23.0534E-03     38.0694E-03    -15.0160E-03     19.1936E-03    -23.1389E-03     38.3157E-03    -14.9516E-03     19.1775E-03
            2442     14.1904E-03     982.908E-06     11.6972E+06     45.4560E+06     7.58826E+06    -667.834E+03    -20.1458E-03     34.6363E-03    -14.4905E-03     16.4453E-03    -20.1653E-03     34.8366E-03    -14.5355E-03     16.4320E-03
            2443     13.3072E-03     980.750E-06     11.4130E+06     16.4425E+06    -12.8894E+06    -2.16621E+06    -18.2923E-03     32.4133E-03    -14.1210E-03     11.7674E-03    -18.2409E-03     32.4981E-03    -14.2258E-03     11.7369E-03
            2444     12.4235E-03     979.212E-06     11.4462E+06    -16.2525E+06    -24.7251E+06    -5.55054E+06    -17.1446E-03     31.0107E-03    -13.8661E-03     9.62051E-03    -17.0282E-03     30.9489E-03    -13.9828E-03     9.54723E-03
            2445     11.5383E-03     977.620E-06     8.94205E+06    -38.7206E+06    -32.7118E+06    -7.63158E+06    -16.3688E-03     30.0281E-03    -13.6593E-03     7.91131E-03    -16.2207E-03     29.8691E-03    -13.7797E-03     7.81161E-03
            2446     10.6531E-03     976.899E-06     6.02402E+06    -53.3889E+06    -35.8918E+06    -7.88232E+06    -15.7303E-03     29.2230E-03    -13.4927E-03     6.68664E-03    -15.5708E-03     28.9994E-03    -13.6035E-03     6.58405E-03
            2447     9.76662E-03     976.085E-06     3.60383E+06    -62.7217E+06    -35.1825E+06     -7.1548E+06    -15.1791E-03     28.5387E-03    -13.3596E-03     5.66962E-03    -15.0192E-03     28.2709E-03    -13.4498E-03     5.57667E-03
            2448     8.88017E-03     975.435E-06     1.32171E+06    -66.7125E+06    -32.1156E+06    -6.67458E+06    -14.7333E-03     27.9823E-03    -13.2490E-03     4.77375E-03    -14.5834E-03     27.6934E-03    -13.3148E-03     4.68713E-03
            2449     7.99306E-03     974.881E-06    -1.02001E+06    -66.8807E+06    -27.8567E+06    -6.22375E+06    -14.3386E-03     27.4927E-03    -13.1541E-03     4.02567E-03    -14.2063E-03     27.2001E-03    -13.1949E-03     3.94498E-03
            2450     7.10580E-03     974.455E-06    -2.88966E+06    -66.5371E+06    -23.5079E+06    -4.99961E+06    -13.9980E-03     27.0701E-03    -13.0721E-03     3.38934E-03    -13.8819E-03     26.7757E-03    -13.0890E-03     3.32453E-03
            2451     6.21812E-03     974.024E-06    -4.20232E+06    -64.4567E+06    -19.9772E+06    -3.82864E+06    -13.7007E-03     26.6966E-03    -12.9959E-03     2.82084E-03    -13.5993E-03     26.4093E-03    -12.9962E-03     2.77121E-03
            2452     5.33032E-03     973.703E-06    -5.01693E+06    -61.4205E+06    -17.1201E+06    -3.03903E+06    -13.4456E-03     26.3727E-03    -12.9271E-03     2.31665E-03    -13.3568E-03     26.0976E-03    -12.9163E-03     2.27727E-03
            2453     4.44219E-03     973.406E-06    -5.44191E+06    -60.2724E+06    -13.7797E+06    -2.19963E+06    -13.2353E-03     26.1106E-03    -12.8753E-03     1.86040E-03    -13.1551E-03     25.8371E-03    -12.8489E-03     1.83188E-03
            2454     3.55403E-03     973.209E-06    -5.73789E+06    -59.2198E+06    -11.0514E+06    -1.54462E+06    -13.0654E-03     25.8977E-03    -12.8323E-03     1.44832E-03    -12.9922E-03     25.6259E-03    -12.7934E-03     1.42830E-03
            2455     2.66558E-03     973.014E-06    -5.80529E+06    -58.0769E+06    -8.52689E+06    -1.01907E+06    -12.9311E-03     25.7305E-03    -12.7994E-03     1.06481E-03    -12.8635E-03     25.4609E-03    -12.7494E-03     1.05159E-03
            2456     1.77716E-03     972.906E-06    -5.62554E+06    -57.3349E+06    -6.69314E+06    -353.989E+03    -12.8350E-03     25.6099E-03    -12.7749E-03     698.312E-06    -12.7703E-03     25.3411E-03    -12.7171E-03     693.706E-06
            2457     888.531E-06     972.800E-06    -5.63577E+06    -56.9353E+06    -5.92925E+06    -76.2894E+03    -12.7772E-03     25.5318E-03    -12.7546E-03     370.941E-06    -12.7140E-03     25.2641E-03    -12.6935E-03     369.972E-06


