********************************************************************************
Field Output Report, written Tue May 28 21:27:56 2024

Source 1
---------

   ODB: G:/Abaqus_calc_2019/1740/Vel_10/odb/zeides_2a_24_red_150_cal_0_vel_10_fric_025.odb
   Step: Step-1
   Frame: Increment   6081907: Step Time =   0.8007

Loc 1 : Nodal values from source 1

Output sorted by column "Nodal Label".

Field Output reported at nodes for region: DIE_2A_24_D0_36-1.Region_1
   Computation algorithm: EXTRAPOLATE_COMPUTE_AVERAGE
   Averaged at nodes
   Averaging regions: ODB_REGIONS

      Node Label     COORD.COOR1     COORD.COOR2
                          @Loc 1          @Loc 1
-------------------------------------------------
               1     21.4163E-03     122.094E-03


Field Output reported at nodes for region: DIE_2A_24_D0_36-1.Region_2
   Computation algorithm: EXTRAPOLATE_COMPUTE_AVERAGE
   Averaged at nodes
   Averaging regions: ODB_REGIONS

      Node Label     COORD.COOR1     COORD.COOR2
                          @Loc 1          @Loc 1
-------------------------------------------------
               1     21.4163E-03     122.094E-03


Field Output reported at nodes for part: WIRE-1
   Computation algorithm: EXTRAPOLATE_COMPUTE_AVERAGE
   Averaged at nodes
   Averaging regions: ODB_REGIONS

      Node Label     COORD.COOR1     COORD.COOR2           S.S11           S.S22           S.S33           S.S12         PE.PE11         PE.PE22         PE.PE33         PE.PE12         LE.LE11         LE.LE22         LE.LE33         LE.LE12
                          @Loc 1          @Loc 1          @Loc 1          @Loc 1          @Loc 1          @Loc 1          @Loc 1          @Loc 1          @Loc 1          @Loc 1          @Loc 1          @Loc 1          @Loc 1          @Loc 1
-------------------------------------------------------------------------------------------------------------------------------------------------------------------------------------------------------------------------------------------------
               1     66.9068E-09     56.2449E-03    -3.67067E+06    -48.8994E+06    -3.61233E+06    -72.8146E+03    -14.3463E-03     28.6929E-03    -14.3467E-03     1.95245E-03    -14.2884E-03     28.4592E-03    -14.2885E-03     1.95125E-03
               2     17.7429E-03     57.1401E-03    -201.919E+03     164.445E+06     53.2694E+06     211.846E+03    -15.0596E-03     29.5178E-03    -14.4582E-03     139.824E-03    -17.7560E-03     32.6429E-03    -14.4300E-03     143.020E-03
               3     17.5520E-03     113.800E-03     15.3204E+06    -16.6598E+06     15.3639E+06     8.52373E+06     10.9075E-03     10.1020E-03    -21.0095E-03     1.27008E-03     10.9653E-03     9.95351E-03    -20.9307E-03     1.38002E-03
               4    -590.878E-09     112.761E-03     9.70158E+06     1.00075E+06     9.35910E+06    -577.273E+03    -17.4782E-03     35.3064E-03    -17.8283E-03    -275.060E-06    -17.4448E-03     35.2838E-03    -17.7970E-03    -282.392E-06
               5     7.94294E-09    -159.595E-18    -12.3812E+06    -48.8627E+06    -12.5531E+06    -452.471E+03    -12.4233E-03     24.8569E-03    -12.4336E-03     138.640E-06    -12.3957E-03     24.6490E-03    -12.4075E-03     132.938E-06
               6     17.6837E-03    -159.595E-18     4.79629E+06     113.763E+06     65.4969E+06     5.68463E+06    -44.5041E-03     61.0462E-03    -16.5421E-03     37.6623E-03    -44.8482E-03     61.6246E-03    -16.3865E-03     37.4739E-03
               7     887.209E-06     56.2465E-03    -3.41302E+06    -48.9723E+06    -3.30792E+06     180.499E+03    -14.3522E-03     28.7007E-03    -14.3485E-03     3.25343E-03    -14.2934E-03     28.4656E-03    -14.2891E-03     3.25534E-03
               8     1.77448E-03     56.2508E-03    -3.26088E+06    -48.4902E+06    -2.25913E+06     177.895E+03    -14.3553E-03     28.7084E-03    -14.3531E-03     6.02516E-03    -14.2981E-03     28.4740E-03    -14.2894E-03     6.02669E-03
               9     2.66166E-03     56.2576E-03    -3.04834E+06    -48.2245E+06    -1.28092E+06    -97.2304E+03    -14.3553E-03     28.7106E-03    -14.3553E-03     9.02107E-03    -14.2989E-03     28.4759E-03    -14.2874E-03     9.01864E-03
              10     3.54896E-03     56.2676E-03    -2.29016E+06    -48.0705E+06     685.512E+03    -28.2649E+03    -14.3788E-03     28.7407E-03    -14.3619E-03     12.1245E-03    -14.3218E-03     28.5029E-03    -14.2855E-03     12.1225E-03
              11     4.43617E-03     56.2802E-03    -1.31987E+06    -48.6962E+06     2.63441E+06    -307.196E+03    -14.4207E-03     28.7929E-03    -14.3722E-03     15.3581E-03    -14.3609E-03     28.5479E-03    -14.2865E-03     15.3520E-03
              12     5.32336E-03     56.2961E-03    -157.012E+03    -48.3378E+06     3.13120E+06    -46.4379E+03    -14.4577E-03     28.8326E-03    -14.3749E-03     18.7805E-03    -14.3936E-03     28.5872E-03    -14.2889E-03     18.7772E-03
              13     6.21064E-03     56.3151E-03     722.230E+03    -48.3374E+06     3.97268E+06     263.991E+03    -14.5269E-03     28.9084E-03    -14.3816E-03     22.4189E-03    -14.4600E-03     28.6610E-03    -14.2927E-03     22.4189E-03
              14     7.09776E-03     56.3377E-03     901.197E+03    -48.9152E+06     3.75890E+06    -587.965E+03    -14.6148E-03     29.0027E-03    -14.3879E-03     26.3160E-03    -14.5464E-03     28.7530E-03    -14.2995E-03     26.3041E-03
              15     7.98494E-03     56.3640E-03     1.13427E+06    -48.7088E+06     2.76935E+06    -887.248E+03    -14.6973E-03     29.0883E-03    -14.3910E-03     30.5057E-03    -14.6274E-03     28.8415E-03    -14.3081E-03     30.4887E-03
              16     8.87200E-03     56.3945E-03     1.38769E+06    -47.3885E+06     1.91653E+06    -563.079E+03    -14.7955E-03     29.1890E-03    -14.3935E-03     34.9201E-03    -14.7263E-03     28.9509E-03    -14.3172E-03     34.9057E-03
              17     9.75923E-03     56.4288E-03     528.204E+03    -46.5959E+06     2.23038E+06    -1.12038E+06    -14.8957E-03     29.3004E-03    -14.4046E-03     39.5227E-03    -14.8345E-03     29.0691E-03    -14.3267E-03     39.4985E-03
              18     10.6462E-03     56.4679E-03    -839.556E+03    -47.7705E+06    -1.92882E+06    -1.10228E+06    -15.0143E-03     29.4114E-03    -14.3971E-03     44.2244E-03    -14.9555E-03     29.1856E-03    -14.3363E-03     44.1971E-03
              19     11.5334E-03     56.5110E-03    -1.03156E+06    -40.6519E+06    -3.64938E+06     1.13573E+06    -15.1512E-03     29.5396E-03    -14.3884E-03     49.3023E-03    -15.1071E-03     29.3581E-03    -14.3462E-03     49.2992E-03
              20     12.4203E-03     56.5596E-03          125.75    -30.7895E+06    -948.256E+03     1.71622E+06    -15.3638E-03     29.7600E-03    -14.3962E-03     57.1343E-03    -15.3445E-03     29.6342E-03    -14.3563E-03     57.1322E-03
              21     13.3076E-03     56.6174E-03     718.095E+03    -30.2420E+06    -10.3366E+06    -236.772E+03    -15.7084E-03     30.0708E-03    -14.3624E-03     63.1221E-03    -15.6929E-03     29.9804E-03    -14.3712E-03     63.0871E-03
              22     14.1939E-03     56.6775E-03     855.835E+03    -12.8285E+06    -12.8153E+06    -867.818E+03    -15.8418E-03     30.1857E-03    -14.3439E-03     67.7301E-03    -15.8780E-03     30.2165E-03    -14.3906E-03     67.6841E-03
              23     15.0811E-03     56.7442E-03     79.9954E+03     35.9452E+06    -8.68897E+06    -546.046E+03    -16.8181E-03     31.1341E-03    -14.3160E-03     91.6666E-03    -17.0786E-03     31.5477E-03    -14.4117E-03     91.6451E-03
              24     15.9663E-03     56.8486E-03    -2.77997E+06     60.0573E+06    -24.0224E+06    -788.589E+03    -19.5908E-03     33.8301E-03    -14.2393E-03     143.785E-03    -20.7814E-03     35.2936E-03    -14.4424E-03     144.152E-03
              25     16.8553E-03     57.0129E-03    -2.48902E+06     109.723E+06     8.00382E+06    -406.142E+03    -18.1898E-03     32.5201E-03    -14.3303E-03     157.758E-03    -20.5140E-03     35.2018E-03    -14.4458E-03     159.723E-03
              26     17.7433E-03     58.1187E-03    -2.02227E+06     163.272E+06     55.1217E+06    -572.865E+03    -16.7867E-03     31.2054E-03    -14.4187E-03     137.875E-03    -19.4622E-03     34.2935E-03    -14.3769E-03     140.949E-03
              27     17.7429E-03     59.0950E-03    -993.570E+03     162.116E+06     48.5158E+06    -639.487E+03    -16.9732E-03     31.3552E-03    -14.3820E-03     138.611E-03    -19.6509E-03     34.4642E-03    -14.3730E-03     141.688E-03
              28     17.7433E-03     60.0718E-03    -1.83726E+06     160.736E+06     45.1416E+06    -746.292E+03    -16.8548E-03     31.2423E-03    -14.3875E-03     138.248E-03    -19.5291E-03     34.3497E-03    -14.3922E-03     141.338E-03
              29     17.7418E-03     61.0473E-03     1.15294E+06     161.068E+06     41.9749E+06     725.601E+03    -16.6819E-03     31.0563E-03    -14.3744E-03     138.316E-03    -19.3344E-03     34.1629E-03    -14.3997E-03     141.433E-03
              30     17.7443E-03     62.0232E-03    -2.31914E+06     159.709E+06     49.7603E+06     645.092E+03    -17.1107E-03     31.5493E-03    -14.4386E-03     137.346E-03    -19.7934E-03     34.6463E-03    -14.4180E-03     140.449E-03
              31     17.7386E-03     63.0019E-03    -6.45482E+06     159.208E+06      55.629E+06     789.248E+03    -15.5944E-03     30.1219E-03    -14.5275E-03     134.578E-03    -18.2886E-03     33.1971E-03    -14.4709E-03     137.711E-03
              32     17.7461E-03     63.9673E-03     1.76436E+06     162.308E+06     42.0032E+06     239.137E+03    -14.9733E-03     29.3438E-03    -14.3704E-03     138.487E-03    -17.6560E-03     32.4874E-03    -14.3983E-03     141.679E-03
              33     17.7434E-03     64.9570E-03    -92.1732E+03     162.865E+06     49.6277E+06    -1.47313E+06    -17.6674E-03     31.9975E-03    -14.3301E-03     144.845E-03    -20.4784E-03     35.2429E-03    -14.3180E-03     147.979E-03
              34     17.7427E-03     65.9360E-03    -935.099E+03     162.662E+06     50.4685E+06     14.5067E+03    -16.1191E-03     30.5443E-03    -14.4252E-03     145.556E-03    -18.9519E-03     33.8055E-03    -14.4074E-03     148.784E-03
              35     17.7435E-03     66.8956E-03    -2.12468E+06     160.535E+06     48.5741E+06    -1.46568E+06    -15.5273E-03     29.9600E-03    -14.4327E-03     140.202E-03    -18.2364E-03     33.0909E-03    -14.4195E-03     143.374E-03
              36     17.7423E-03     67.8792E-03     691.828E+03     157.416E+06     37.7546E+06    -1.05217E+06    -17.5310E-03     31.8481E-03    -14.3170E-03     136.909E-03    -20.1338E-03     34.9026E-03    -14.3575E-03     139.917E-03
              37     17.7443E-03     68.8547E-03    -10.0782E+06     144.263E+06     29.8178E+06    -9.81861E+06    -17.2691E-03     31.6007E-03    -14.3316E-03     137.934E-03    -19.9311E-03     34.6526E-03    -14.3771E-03     140.878E-03
              38     17.7406E-03     69.8310E-03     11.2698E+06     129.361E+06     30.9093E+06    -4.95189E+06    -16.6012E-03     30.9381E-03    -14.3369E-03     137.916E-03    -19.1369E-03     33.8834E-03    -14.3863E-03     140.975E-03
              39     17.7467E-03     70.8053E-03    -436.952E+03     129.529E+06     24.8609E+06     6.15530E+06    -18.9526E-03     33.3516E-03    -14.3989E-03     136.007E-03    -21.5667E-03     36.3515E-03    -14.4618E-03     139.158E-03
              40     17.7284E-03     71.7931E-03    -22.0446E+06     141.534E+06     29.7930E+06     9.39108E+06    -15.2647E-03     29.8889E-03    -14.6242E-03     132.868E-03    -17.9765E-03     32.9389E-03    -14.6485E-03     136.101E-03
              41     17.7520E-03     72.7426E-03     12.6381E+06     159.477E+06     37.1391E+06     6.44962E+06    -8.60196E-03     23.0380E-03    -14.4361E-03     135.878E-03    -11.1173E-03     26.0584E-03    -14.4999E-03     139.246E-03
              42     17.7459E-03     73.7260E-03     5.32469E+06     164.348E+06     50.5635E+06    -4.50252E+06    -17.1795E-03     31.3719E-03    -14.1923E-03     143.450E-03    -19.9620E-03     34.6123E-03    -14.1855E-03     146.543E-03
              43     17.7416E-03     74.7299E-03    -4.54359E+06     161.484E+06     54.3426E+06    -549.691E+03    -20.6619E-03     35.0024E-03    -14.3405E-03     151.780E-03    -23.7096E-03     38.4511E-03    -14.2963E-03     154.932E-03
              44     17.7432E-03     75.6813E-03    -1.15478E+06     162.716E+06     50.4786E+06     1.32541E+06    -14.7355E-03     29.2121E-03    -14.4766E-03     147.012E-03    -17.5821E-03     32.4862E-03    -14.4585E-03     150.325E-03
              45     17.7433E-03     76.6553E-03    -854.680E+03     162.191E+06     49.1212E+06    -419.332E+03    -16.0219E-03     30.4200E-03    -14.3981E-03     137.747E-03    -18.6616E-03     33.4900E-03    -14.3865E-03     140.827E-03
              46     17.7433E-03     77.6360E-03    -1.42427E+06     161.248E+06     48.5048E+06    -237.718E+03    -17.9070E-03     32.2604E-03    -14.3534E-03     137.732E-03    -20.5555E-03     35.3356E-03    -14.3426E-03     140.722E-03
              47     17.7429E-03     78.6114E-03    -1.01974E+06     161.310E+06     47.2989E+06    -4.68181E+03    -17.2169E-03     31.5922E-03    -14.3753E-03     137.164E-03    -19.8587E-03     34.6658E-03    -14.3712E-03     140.217E-03
              48     17.7429E-03     79.5874E-03    -1.50795E+06     161.349E+06     48.4528E+06     79.1474E+03    -16.6954E-03     31.0939E-03    -14.3985E-03     137.755E-03    -19.3526E-03     34.1780E-03    -14.3880E-03     140.842E-03
              49     17.7430E-03     80.5654E-03    -1.16942E+06     161.587E+06     47.5300E+06     136.230E+03    -16.8686E-03     31.2525E-03    -14.3838E-03     139.264E-03    -19.5543E-03     34.3698E-03    -14.3788E-03     142.356E-03
              50     17.7432E-03     81.5411E-03    -1.51939E+06     161.491E+06     47.8967E+06    -133.697E+03    -17.0564E-03     31.4424E-03    -14.3859E-03     138.852E-03    -19.7419E-03     34.5568E-03    -14.3784E-03     141.939E-03
              51     17.7424E-03     82.5175E-03    -1.46976E+06     161.153E+06     46.7403E+06     290.011E+03    -16.8097E-03     31.1952E-03    -14.3854E-03     137.599E-03    -19.4750E-03     34.2917E-03    -14.3832E-03     140.697E-03
              52     17.7439E-03     83.4918E-03     693.355E+03     161.954E+06     45.3612E+06     405.699E+03    -15.9012E-03     30.2734E-03    -14.3722E-03     137.909E-03    -18.5442E-03     33.3622E-03    -14.3812E-03     141.022E-03
              53     17.7436E-03     84.4707E-03    -1.38010E+06     160.204E+06     44.0242E+06    -903.018E+03    -16.2909E-03     30.6474E-03    -14.3566E-03     141.053E-03    -19.0093E-03     33.8020E-03    -14.3668E-03     144.182E-03
              54     17.7433E-03     85.4458E-03    -2.33952E+06     158.361E+06     42.6903E+06    -893.380E+03    -17.3117E-03     31.6516E-03    -14.3398E-03     140.351E-03    -20.0272E-03     34.7971E-03    -14.3526E-03     143.440E-03
              55     17.7433E-03     86.4213E-03    -961.596E+03     158.884E+06     43.3970E+06    -239.685E+03    -17.0459E-03     31.3925E-03    -14.3466E-03     137.790E-03    -19.6896E-03     34.4709E-03    -14.3586E-03     140.857E-03
              56     17.7434E-03     87.3972E-03    -1.28448E+06     158.358E+06     40.4439E+06    -146.593E+03    -16.6360E-03     30.9715E-03    -14.3355E-03     137.281E-03    -19.2641E-03     34.0399E-03    -14.3610E-03     140.364E-03
              57     17.7436E-03     88.3735E-03    -767.370E+03     157.871E+06     39.4627E+06    -139.029E+03    -16.5147E-03     30.8394E-03    -14.3246E-03     137.604E-03    -19.1461E-03     33.9140E-03    -14.3551E-03     140.699E-03
              58     17.7437E-03     89.3499E-03    -1.17998E+06     157.374E+06     37.9428E+06    -271.118E+03    -16.7560E-03     31.0639E-03    -14.3080E-03     138.504E-03    -19.4141E-03     34.1665E-03    -14.3447E-03     141.612E-03
              59     17.7437E-03     90.3266E-03    -800.136E+03     156.496E+06     36.8655E+06    -346.241E+03    -16.8883E-03     31.1811E-03    -14.2928E-03     138.155E-03    -19.5402E-03     34.2788E-03    -14.3343E-03     141.257E-03
              60     17.7441E-03     91.3016E-03    -954.210E+03     155.597E+06     35.5731E+06    -350.747E+03    -16.8296E-03     31.1052E-03    -14.2755E-03     137.654E-03    -19.4695E-03     34.1908E-03    -14.3219E-03     140.755E-03
              61     17.7442E-03     92.2786E-03    -1.29970E+06     154.055E+06     34.7572E+06    -909.674E+03    -16.8915E-03     31.1441E-03    -14.2527E-03     137.581E-03    -19.5282E-03     34.2223E-03    -14.3004E-03     140.666E-03
              62     17.7449E-03     93.2546E-03    -597.586E+03     151.958E+06     37.0201E+06    -890.779E+03    -17.1736E-03     31.4122E-03    -14.2386E-03     138.016E-03    -19.8170E-03     34.4855E-03    -14.2729E-03     141.097E-03
              63     17.7448E-03     94.2320E-03    -1.60947E+06     149.749E+06     38.2785E+06    -1.10139E+06    -17.7158E-03     31.9401E-03    -14.2243E-03     138.124E-03    -20.3732E-03     35.0124E-03    -14.2477E-03     141.189E-03
              64     17.7451E-03     95.2093E-03     393.988E+03     149.054E+06     39.2621E+06     314.517E+03    -17.5772E-03     31.7877E-03    -14.2105E-03     137.803E-03    -20.2148E-03     34.8420E-03    -14.2309E-03     140.878E-03
              65     17.7460E-03     96.1848E-03    -2.33392E+06     149.194E+06     39.8012E+06     15.6654E+03    -17.7534E-03     31.9374E-03    -14.1840E-03     137.555E-03    -20.3925E-03     34.9825E-03    -14.1980E-03     140.608E-03
              66     17.7458E-03     97.1630E-03    -2.57913E+06     145.599E+06     40.2020E+06    -2.55178E+06    -18.4972E-03     32.6440E-03    -14.1468E-03     135.976E-03    -21.1207E-03     35.6587E-03    -14.1532E-03     138.952E-03
              67     17.7469E-03     98.1387E-03     2.13430E+06     141.606E+06     43.6495E+06    -1.51726E+06    -18.1748E-03     32.3133E-03    -14.1385E-03     135.261E-03    -20.7543E-03     35.2765E-03    -14.1287E-03     138.223E-03
              68     17.7472E-03     99.1194E-03    -2.65171E+06     136.058E+06     41.9724E+06    -2.83575E+06    -19.7052E-03     33.8009E-03    -14.0957E-03     139.304E-03    -22.3754E-03     36.8230E-03    -14.0792E-03     142.218E-03
              69     17.7467E-03     100.100E-03    -2.87787E+06     129.955E+06     41.3454E+06    -2.64499E+06    -21.3956E-03     35.4392E-03    -14.0436E-03     139.359E-03    -24.0550E-03     38.4299E-03    -14.0212E-03     142.172E-03
              70     17.7485E-03     101.079E-03    -2.09902E+06     124.485E+06     44.9685E+06    -3.17956E+06    -20.1144E-03     34.1561E-03    -14.0417E-03     137.196E-03    -22.6909E-03     37.0367E-03    -13.9944E-03     139.974E-03
              71     17.7493E-03     102.055E-03     277.570E+03     115.214E+06     48.6212E+06    -4.85790E+06    -20.3234E-03     34.3071E-03    -13.9837E-03     137.172E-03    -22.8546E-03     37.1073E-03    -13.9080E-03     139.863E-03
              72     17.7515E-03     103.037E-03    -3.94146E+06     101.021E+06     48.7006E+06    -7.46159E+06    -22.1544E-03     36.0265E-03    -13.8721E-03     137.349E-03    -24.6618E-03     38.7374E-03    -13.7694E-03     139.833E-03
              73     17.7527E-03     104.020E-03    -286.209E+03     82.7320E+06     49.9631E+06    -9.20702E+06    -23.4051E-03     37.1614E-03    -13.7563E-03     139.453E-03    -25.8726E-03     39.7767E-03    -13.6260E-03     141.779E-03
              74     17.7562E-03     105.002E-03     681.456E+03     64.4340E+06     37.0614E+06    -8.58402E+06    -25.2188E-03     38.7743E-03    -13.5555E-03     141.249E-03    -27.6287E-03     41.3079E-03    -13.4646E-03     143.407E-03
              75     17.7564E-03     105.988E-03    -4.27313E+06     42.5349E+06     25.1089E+06    -10.4981E+06    -27.1349E-03     40.4976E-03    -13.3627E-03     143.101E-03    -29.5105E-03     42.9363E-03    -13.2927E-03     145.016E-03
              76     17.7613E-03     106.973E-03    -115.472E+03     17.7909E+06     18.6239E+06    -11.0866E+06    -29.9656E-03     43.1378E-03    -13.1721E-03     149.158E-03    -32.3045E-03     45.4861E-03    -13.1046E-03     150.802E-03
              77     17.7602E-03     107.972E-03    -5.24390E+06    -12.9972E+06     32.8458E+06    -15.7540E+06    -33.4962E-03     46.6445E-03    -13.1483E-03     158.704E-03    -35.8874E-03     48.8766E-03    -12.9576E-03     159.970E-03
              78     17.7628E-03     108.963E-03    -5.59634E+06    -60.9128E+06     49.0498E+06    -24.2093E+06    -36.5764E-03     49.8629E-03    -13.2864E-03     164.869E-03    -38.8886E-03     51.7971E-03    -12.9447E-03     165.687E-03
              79     17.7553E-03     109.960E-03     20.4121E+06    -85.7505E+06     32.4011E+06    -942.376E+03    -38.7565E-03     52.1745E-03    -13.4180E-03     171.896E-03    -40.6783E-03     53.7722E-03    -13.1612E-03     172.668E-03
              80     17.7507E-03     110.965E-03      938.43E+03    -51.8316E+06    -7.92898E+06     27.1680E+06    -28.4306E-03     42.2488E-03    -13.8182E-03     175.436E-03    -29.7982E-03     43.4618E-03    -13.7840E-03     176.332E-03
              81     17.7436E-03     111.920E-03    -23.6460E+06    -12.5480E+06    -22.5504E+06     10.1614E+06    -1.94496E-03     16.9044E-03    -14.9594E-03     149.127E-03    -2.53597E-03     17.4397E-03    -15.0197E-03     149.533E-03
              82     17.7209E-03     112.839E-03     5.68396E+06    -9.79067E+06     5.80357E+06     597.146E+03     12.3267E-03     6.08092E-03    -18.4076E-03     62.9401E-03     12.3114E-03     6.05008E-03    -18.3727E-03     62.9807E-03
              83     16.6797E-03     113.651E-03    -1.86746E+06     19.3273E+06     31.8743E+06     2.16176E+06     7.57291E-03     14.0087E-03    -21.5816E-03     14.3811E-03     7.48132E-03     14.0542E-03    -21.4476E-03     14.4088E-03
              84     15.7759E-03     113.531E-03    -20.5498E+06    -7.55487E+06     28.7242E+06     1.97095E+06    -8.70348E-03     31.0013E-03    -22.2978E-03     23.5028E-03    -8.83980E-03     30.9518E-03    -22.1135E-03     23.5216E-03
              85     14.9125E-03     113.397E-03    -20.9685E+06     1.41138E+06     15.5752E+06    -3.15306E+06    -19.8515E-03     42.0854E-03    -22.2340E-03     13.5178E-03    -19.9901E-03     42.0948E-03    -22.1277E-03     13.4667E-03
              86     14.0450E-03     113.290E-03    -17.5214E+06     1.53352E+06     10.4326E+06    -8.99044E+06    -18.6579E-03     40.6827E-03    -22.0247E-03     6.41055E-03    -18.7684E-03     40.6965E-03    -21.9494E-03     6.28727E-03
              87     13.1699E-03     113.209E-03    -15.6065E+06    -9.28438E+06     16.0565E+06    -1.56831E+06    -21.5413E-03     43.4559E-03    -21.9146E-03     3.65069E-03    -21.6321E-03     43.4068E-03    -21.7982E-03     3.62293E-03
              88     12.2980E-03     113.135E-03    -15.6923E+06     7.27881E+06     21.3279E+06    -3.29221E+06    -24.9926E-03     46.5761E-03    -21.5834E-03     1.09963E-03    -25.1153E-03     46.6023E-03    -21.4646E-03     1.04845E-03
              89     11.4281E-03     113.071E-03    -13.8058E+06    -6.13000E+06     19.8416E+06    -4.60530E+06    -26.2325E-03     47.3149E-03    -21.0824E-03     7.77172E-06    -26.3238E-03     47.2736E-03    -20.9543E-03    -60.1210E-06
              90     10.5571E-03     113.015E-03    -11.5712E+06     1.98013E+06     23.3503E+06    -3.20712E+06    -25.7652E-03     46.2756E-03    -20.5104E-03    -311.456E-06    -25.8617E-03     46.2669E-03    -20.3798E-03    -360.156E-06
              91     9.68470E-03     112.968E-03    -10.5094E+06    -2.44242E+06     22.9742E+06    -3.19462E+06    -24.4790E-03     44.4380E-03    -19.9591E-03    -371.872E-06    -24.5628E-03     44.4064E-03    -19.8254E-03    -419.040E-06
              92     8.80972E-03     112.926E-03    -8.45746E+06     2.71452E+06     26.3848E+06    -4.42912E+06    -23.0771E-03     42.5484E-03    -19.4712E-03    -239.265E-06    -23.1628E-03     42.5349E-03    -19.3310E-03    -301.054E-06
              93     7.93314E-03     112.892E-03    -4.34861E+06    -2.54469E+06     25.4571E+06    -5.12026E+06    -21.8240E-03     40.8655E-03    -19.0415E-03    -100.362E-06    -21.8799E-03     40.8213E-03    -18.9042E-03    -170.064E-06
              94     7.05476E-03     112.863E-03    -606.373E+03    -154.697E+03     24.9173E+06    -3.44422E+06    -20.6956E-03     39.3671E-03    -18.6714E-03     39.1662E-06    -20.7354E-03     39.3303E-03    -18.5458E-03    -8.08483E-06
              95     6.17520E-03     112.838E-03     1.68084E+06    -878.134E+03     21.7644E+06    -2.90200E+06    -19.7444E-03     38.1075E-03    -18.3630E-03     136.631E-06    -19.7670E-03     38.0685E-03    -18.2554E-03     97.0033E-06
              96     5.29445E-03     112.817E-03     3.53831E+06    -72.1629E+03     18.6165E+06    -2.48741E+06    -19.0054E-03     37.1218E-03    -18.1163E-03     164.585E-06    -19.0152E-03     37.0887E-03    -18.0283E-03     130.790E-06
              97     4.41301E-03     112.800E-03     5.21664E+06    -599.526E+03     15.7922E+06    -2.21511E+06    -18.4602E-03     36.3888E-03    -17.9286E-03     145.655E-06    -18.4566E-03     36.3548E-03    -17.8563E-03     115.757E-06
              98     3.53082E-03     112.786E-03     6.85284E+06    -265.175E+03     13.4922E+06    -1.90339E+06    -18.0760E-03     35.8654E-03    -17.7893E-03     88.9888E-06    -18.0614E-03     35.8341E-03    -17.7314E-03     63.4322E-06
              99     2.64843E-03     112.775E-03     8.13934E+06    -806.901E+03     11.4293E+06    -1.31298E+06    -17.8302E-03     35.5218E-03    -17.6916E-03     22.9731E-06    -17.8053E-03     35.4889E-03    -17.6451E-03     5.31394E-06
             100     1.76557E-03     112.768E-03     8.88614E+06    -151.709E+03     10.4981E+06    -948.296E+03    -17.6456E-03     35.2862E-03    -17.6406E-03    -25.7936E-06    -17.6166E-03     35.2569E-03    -17.6008E-03    -38.4933E-06
             101     882.749E-06     112.763E-03     9.45928E+06    -573.818E+03     9.34039E+06    -848.150E+03    -17.5144E-03     35.2422E-03    -17.7279E-03    -163.677E-06    -17.4801E-03     35.2119E-03    -17.6941E-03    -174.735E-06
             102     282.224E-09     111.779E-03     7.15343E+06    -1.49822E+06     6.90203E+06    -751.869E+03    -16.0696E-03     32.2765E-03    -16.2069E-03     317.059E-06    -16.0417E-03     32.2487E-03    -16.1806E-03     307.345E-06
             103    -215.444E-09     110.802E-03     4.29201E+06    -4.13228E+06     4.53825E+06    -623.518E+03    -13.6389E-03     27.2357E-03    -13.5968E-03     934.313E-06    -13.6179E-03     27.2023E-03    -13.5743E-03     926.096E-06
             104     227.043E-09     109.830E-03     445.197E+03    -7.77673E+06     880.232E+03    -1.49752E+06    -11.9292E-03     23.8201E-03    -11.8909E-03     1.09388E-03    -11.9169E-03     23.7794E-03    -11.8758E-03     1.07436E-03
             105    -165.374E-09     108.860E-03    -7.90388E+06    -13.5406E+06    -7.78417E+06    -1.92256E+06    -10.7913E-03     21.5084E-03    -10.7171E-03     1.38173E-03    -10.7999E-03     21.4636E-03    -10.7249E-03     1.35675E-03
             106     236.616E-09     107.893E-03    -19.6385E+06    -19.9670E+06    -19.4279E+06    -2.11154E+06    -10.0685E-03     20.1063E-03    -10.0379E-03     1.65014E-03    -10.1094E-03     20.0633E-03    -10.0776E-03     1.62275E-03
             107    -252.253E-09     106.925E-03    -33.8048E+06    -27.2550E+06    -33.8521E+06    -2.28700E+06    -9.71201E-03     19.4413E-03    -9.72930E-03     1.82457E-03    -9.79232E-03     19.4033E-03    -9.81003E-03     1.79497E-03
             108     234.879E-09     105.959E-03    -49.4523E+06    -35.8207E+06    -48.8197E+06    -2.99015E+06    -9.70061E-03     19.3929E-03    -9.69227E-03     1.95040E-03    -9.82505E-03     19.3564E-03    -9.81273E-03     1.91175E-03
             109    -197.193E-09     104.992E-03    -62.9239E+06    -44.4309E+06    -63.9043E+06    -2.19179E+06    -9.90832E-03     19.7813E-03    -9.87300E-03     2.06448E-03    -10.0658E-03     19.7432E-03    -10.0369E-03     2.03615E-03
             110     209.171E-09     104.024E-03    -63.7167E+06    -49.6685E+06    -63.2500E+06    -1.21020E+06    -10.2714E-03     20.5031E-03    -10.2318E-03     2.13166E-03    -10.4261E-03     20.4390E-03    -10.3836E-03     2.11602E-03
             111    -147.399E-09     103.056E-03    -48.4470E+06    -53.0047E+06    -49.2181E+06    -724.116E+03    -10.7490E-03     21.4717E-03    -10.7227E-03     2.14616E-03    -10.8430E-03     21.3485E-03    -10.8217E-03     2.13677E-03
             112     121.489E-09     102.087E-03    -33.9214E+06    -50.8234E+06    -34.8128E+06     2.05090E+06    -11.2594E-03     22.5168E-03    -11.2574E-03     2.12194E-03    -11.3048E-03     22.3625E-03    -11.3086E-03     2.14836E-03
             113    -104.441E-09     101.117E-03    -25.4402E+06    -42.1288E+06    -25.3356E+06     3.22199E+06    -11.7574E-03     23.5002E-03    -11.7427E-03     2.07702E-03    -11.7867E-03     23.3633E-03    -11.7714E-03     2.11854E-03
             114     112.681E-09     100.145E-03    -22.9719E+06    -32.2330E+06    -22.7347E+06     2.73354E+06    -12.2131E-03     24.3842E-03    -12.1711E-03     2.06965E-03    -12.2482E-03     24.2894E-03    -12.2047E-03     2.10483E-03
             115    -45.6294E-09     99.1734E-03    -18.3824E+06    -24.4325E+06    -18.3049E+06     2.08884E+06    -12.6181E-03     25.2224E-03    -12.6043E-03     2.07990E-03    -12.6480E-03     25.1536E-03    -12.6337E-03     2.10675E-03
             116     1.93005E-09     98.2004E-03    -13.6080E+06    -16.8959E+06    -13.9727E+06     2.54265E+06    -12.9667E-03     25.9514E-03    -12.9846E-03     2.03927E-03    -12.9899E-03     25.9070E-03    -13.0102E-03     2.07196E-03
             117     3.74585E-09     97.2271E-03    -12.8166E+06    -11.1648E+06    -11.5357E+06     882.848E+03    -13.2659E-03     26.5541E-03    -13.2882E-03     1.97467E-03    -13.2970E-03     26.5338E-03    -13.3111E-03     1.98593E-03
             118    -36.2765E-09     96.2530E-03    -9.70287E+06    -11.1025E+06    -9.93590E+06    -861.196E+03    -13.5275E-03     27.0924E-03    -13.5649E-03     1.93037E-03    -13.5454E-03     27.0655E-03    -13.5844E-03     1.91910E-03
             119    -2.14911E-09     95.2784E-03    -7.38875E+06    -12.6809E+06    -7.60338E+06    -205.246E+03    -13.7752E-03     27.5559E-03    -13.7806E-03     1.93529E-03    -13.7827E-03     27.5144E-03    -13.7896E-03     1.93247E-03
             120     26.7080E-09     94.3034E-03    -4.55287E+06    -11.8275E+06    -4.95438E+06     724.963E+03    -13.9682E-03     27.9065E-03    -13.9383E-03     1.98411E-03    -13.9666E-03     27.8613E-03    -13.9393E-03     1.99328E-03
             121    -4.58639E-09     93.3282E-03    -1.64440E+06    -11.0643E+06    -730.096E+03    -232.742E+03    -14.1001E-03     28.1738E-03    -14.0737E-03     2.01800E-03    -14.0911E-03     28.1220E-03    -14.0589E-03     2.01478E-03
             122     37.8897E-09     92.3528E-03    -1.11996E+06    -13.9738E+06    -1.29361E+06    -1.51615E+06    -14.1843E-03     28.3321E-03    -14.1479E-03     2.02424E-03    -14.1676E-03     28.2659E-03    -14.1324E-03     2.00444E-03
             123    -10.5565E-09     91.3773E-03    -1.85391E+06    -17.2474E+06    -2.21910E+06    -468.538E+03    -14.2406E-03     28.4477E-03    -14.2071E-03     2.00870E-03    -14.2216E-03     28.3675E-03    -14.1905E-03     2.00242E-03
             124     36.6482E-09     90.4017E-03    -76.2588E+03    -18.8608E+06     310.316E+03    -505.794E+03    -14.2978E-03     28.5852E-03    -14.2875E-03     1.98124E-03    -14.2712E-03     28.4908E-03    -14.2585E-03     1.97447E-03
             125    -42.0422E-09     89.4260E-03     834.765E+03    -20.2309E+06     247.004E+03    -274.834E+03    -14.3273E-03     28.6722E-03    -14.3449E-03     1.95997E-03    -14.2941E-03     28.5696E-03    -14.3155E-03     1.95618E-03
             126     7.64898E-09     88.4501E-03    -123.100E+03    -21.2159E+06     490.804E+03    -320.000E+03    -14.3575E-03     28.7289E-03    -14.3714E-03     1.96397E-03    -14.3280E-03     28.6225E-03    -14.3381E-03     1.95960E-03
             127     7.10342E-09     87.4743E-03    -1.04763E+06    -24.2542E+06    -992.386E+03    -1.50951E+06    -14.3848E-03     28.7676E-03    -14.3828E-03     1.96871E-03    -14.3533E-03     28.6494E-03    -14.3511E-03     1.94898E-03
             128    -19.5516E-09     86.4985E-03    -1.07962E+06    -27.6543E+06    -1.71885E+06    -571.118E+03    -14.4085E-03     28.8069E-03    -14.3984E-03     1.96240E-03    -14.3712E-03     28.6728E-03    -14.3653E-03     1.95478E-03
             129     40.6337E-09     85.5226E-03    -2.70729E+06    -28.6211E+06    -2.43391E+06    -70.8154E+03    -14.4183E-03     28.8268E-03    -14.4086E-03     1.95164E-03    -14.3867E-03     28.6913E-03    -14.3753E-03     1.95048E-03
             130    -43.2539E-09     84.5468E-03    -4.65779E+06    -29.5160E+06    -4.69498E+06    -399.115E+03    -14.4305E-03     28.8543E-03    -14.4238E-03     1.96952E-03    -14.4041E-03     28.7204E-03    -14.3977E-03     1.96412E-03
             131     55.3764E-09     83.5707E-03    -5.04923E+06    -31.1996E+06    -4.85905E+06    -635.969E+03    -14.4654E-03     28.9245E-03    -14.4591E-03     1.99553E-03    -14.4383E-03     28.7830E-03    -14.4309E-03     1.98707E-03
             132    -56.1594E-09     82.5949E-03    -5.30593E+06    -33.6004E+06    -5.39671E+06    -826.634E+03    -14.5039E-03     28.9963E-03    -14.4923E-03     1.99949E-03    -14.4738E-03     28.8440E-03    -14.4629E-03     1.98857E-03
             133     74.5206E-09     81.6187E-03    -6.03040E+06    -35.4975E+06    -6.28596E+06    -352.889E+03    -14.5400E-03     29.0709E-03    -14.5309E-03     2.00988E-03    -14.5095E-03     28.9114E-03    -14.5021E-03     2.00507E-03
             134    -81.6253E-09     80.6427E-03    -6.25211E+06    -35.9056E+06    -6.23571E+06     65.7983E+03    -14.5531E-03     29.1264E-03    -14.5733E-03     2.01748E-03    -14.5231E-03     28.9651E-03    -14.5433E-03     2.01810E-03
             135     51.0354E-09     79.6663E-03    -6.13286E+06    -36.2704E+06    -5.89866E+06    -289.306E+03    -14.5845E-03     29.1677E-03    -14.5832E-03     2.01365E-03    -14.5539E-03     29.0040E-03    -14.5512E-03     2.00968E-03
             136    -17.4444E-09     78.6903E-03    -5.54580E+06    -37.6957E+06    -5.70844E+06    -497.688E+03    -14.6024E-03     29.1741E-03    -14.5717E-03     1.99784E-03    -14.5671E-03     29.0021E-03    -14.5376E-03     1.99115E-03
             137     34.4840E-09     77.7140E-03    -5.69860E+06    -38.7807E+06    -5.69433E+06    -158.425E+03    -14.5875E-03     29.1501E-03    -14.5626E-03     2.00523E-03    -14.5514E-03     28.9729E-03    -14.5266E-03     2.00293E-03
             138    -9.44059E-09     76.7380E-03    -5.34400E+06    -39.7190E+06    -5.16889E+06    -489.936E+03    -14.5837E-03     29.1227E-03    -14.5389E-03     1.97814E-03    -14.5453E-03     28.9395E-03    -14.4994E-03     1.97157E-03
             139     63.9265E-09     75.7618E-03    -4.74653E+06    -41.1893E+06    -4.97290E+06    -407.743E+03    -14.5478E-03     29.0718E-03    -14.5240E-03     1.97077E-03    -14.5045E-03     28.8801E-03    -14.4822E-03     1.96524E-03
             140    -80.7464E-09     74.7859E-03    -5.61107E+06    -41.9258E+06    -5.64113E+06     2.52971E+03    -14.4915E-03     29.0243E-03    -14.5328E-03     1.97412E-03    -14.4504E-03     28.8311E-03    -14.4921E-03     1.97389E-03
             141     21.8390E-09     73.8098E-03    -5.50218E+06    -42.5389E+06    -5.34579E+06    -349.327E+03    -14.4980E-03     29.0230E-03    -14.5250E-03     1.98625E-03    -14.4560E-03     28.8262E-03    -14.4820E-03     1.98148E-03
             142    -10.9327E-09     72.8339E-03    -5.40366E+06    -43.6568E+06    -5.70353E+06    -331.299E+03    -14.4892E-03     29.0098E-03    -14.5206E-03     1.98565E-03    -14.4446E-03     28.8078E-03    -14.4780E-03     1.98111E-03
             143    -61.0160E-09     71.8578E-03    -6.40432E+06    -44.4299E+06    -6.10356E+06    -137.304E+03    -14.5039E-03     29.0055E-03    -14.5017E-03     1.96660E-03    -14.4625E-03     28.8017E-03    -14.4585E-03     1.96458E-03
             144     138.314E-09     70.8819E-03    -6.30625E+06    -45.4841E+06    -6.43740E+06    -462.316E+03    -14.5439E-03     29.0045E-03    -14.4606E-03     1.97459E-03    -14.5001E-03     28.7957E-03    -14.4177E-03     1.96838E-03
             145    -71.1362E-09     69.9058E-03    -5.63737E+06    -45.9019E+06    -5.94744E+06     273.228E+03    -14.4953E-03     28.9619E-03    -14.4665E-03     1.97849E-03    -14.4482E-03     28.7493E-03    -14.4215E-03     1.98177E-03
             146     49.5475E-09     68.9300E-03    -3.71937E+06    -45.3644E+06    -3.19703E+06    -40.9284E+03    -14.4571E-03     28.9615E-03    -14.5044E-03     1.97921E-03    -14.4051E-03     28.7448E-03    -14.4492E-03     1.97844E-03
             147    -107.983E-09     67.9540E-03    -1.58414E+06    -46.3924E+06    -1.75038E+06    -642.233E+03    -14.4877E-03     28.9713E-03    -14.4836E-03     1.95220E-03    -14.4257E-03     28.7444E-03    -14.4228E-03     1.94366E-03
             148     169.889E-09     66.9781E-03    -2.99178E+06    -48.0580E+06    -3.00215E+06    -398.028E+03    -14.4966E-03     28.9316E-03    -14.4351E-03     1.95841E-03    -14.4374E-03     28.7002E-03    -14.3761E-03     1.95302E-03
             149    -124.736E-09     66.0023E-03    -1.99941E+06    -48.0765E+06    -2.43134E+06     433.187E+03    -14.4611E-03     28.9081E-03    -14.4471E-03     1.96572E-03    -14.3978E-03     28.6744E-03    -14.3866E-03     1.97106E-03
             150     97.6243E-09     65.0263E-03    -1.60891E+06    -46.8374E+06    -982.923E+03     199.817E+03    -14.4554E-03     28.9222E-03    -14.4668E-03     1.94217E-03    -14.3940E-03     28.6919E-03    -14.4015E-03     1.94450E-03
             151    -85.4169E-09     64.0507E-03    -3.04761E+06    -47.5079E+06    -3.33110E+06    -517.612E+03    -14.4728E-03     28.9143E-03    -14.4415E-03     1.94515E-03    -14.4142E-03     28.6862E-03    -14.3849E-03     1.93822E-03
             152     123.467E-09     63.0745E-03    -4.15559E+06    -48.4289E+06    -4.11908E+06    -91.4201E+03    -14.4494E-03     28.8647E-03    -14.4152E-03     1.96877E-03    -14.3939E-03     28.6347E-03    -14.3596E-03     1.96734E-03
             153    -102.328E-09     62.0991E-03    -5.93918E+06    -49.4455E+06    -5.68588E+06    -523.215E+03    -14.3996E-03     28.8051E-03    -14.4056E-03     1.94976E-03    -14.3492E-03     28.5749E-03    -14.3537E-03     1.94275E-03
             154     71.5751E-09     61.1230E-03    -6.18445E+06    -50.3268E+06    -6.70306E+06    -1.15347E+03    -14.3946E-03     28.7756E-03    -14.3810E-03     1.91635E-03    -14.3428E-03     28.5429E-03    -14.3326E-03     1.91611E-03
             155    -24.3755E-09     60.1476E-03    -4.78654E+06    -49.5454E+06    -4.65941E+06     489.519E+03    -14.3664E-03     28.7384E-03    -14.3720E-03     1.89228E-03    -14.3116E-03     28.5045E-03    -14.3165E-03     1.89838E-03
             156    -33.0668E-09     59.1717E-03    -3.64637E+06    -48.4709E+06    -3.54632E+06     133.560E+03    -14.3462E-03     28.7240E-03    -14.3778E-03     1.87132E-03    -14.2889E-03     28.4923E-03    -14.3200E-03     1.87281E-03
             157     33.6827E-09     58.1962E-03    -2.93367E+06    -48.5236E+06    -2.90856E+06    -139.604E+03    -14.3593E-03     28.7300E-03    -14.3706E-03     1.90824E-03    -14.2993E-03     28.4960E-03    -14.3106E-03     1.90620E-03
             158    -55.9063E-09     57.2202E-03    -3.56799E+06    -48.7380E+06    -3.65183E+06    -39.2787E+03    -14.3486E-03     28.7018E-03    -14.3533E-03     1.94211E-03    -14.2903E-03     28.4688E-03    -14.2957E-03     1.94136E-03
             159    -79.8311E-09     55.2689E-03    -3.04262E+06    -49.1922E+06    -3.12835E+06    -35.7678E+03    -14.3411E-03     28.6925E-03    -14.3514E-03     1.96770E-03    -14.2803E-03     28.4556E-03    -14.2913E-03     1.96697E-03
             160     71.5350E-09     54.2936E-03    -5.04805E+06    -49.3854E+06    -4.94838E+06    -81.0277E+03    -14.3309E-03     28.6420E-03    -14.3112E-03     1.95137E-03    -14.2772E-03     28.4098E-03    -14.2570E-03     1.95007E-03
             161    -29.0357E-09     53.3177E-03    -4.05170E+06    -48.7933E+06    -4.41452E+06     454.797E+03    -14.3197E-03     28.5903E-03    -14.2706E-03     1.93066E-03    -14.2627E-03     28.3588E-03    -14.2160E-03     1.93628E-03
             162     67.7443E-09     52.3425E-03    -4.19745E+06    -47.9199E+06    -3.56165E+06     -21.152E+03    -14.2865E-03     28.5458E-03    -14.2593E-03     1.90239E-03    -14.2328E-03     28.3177E-03    -14.2016E-03     1.90187E-03
             163    -52.7580E-09     51.3667E-03    -4.10848E+06    -48.2446E+06    -4.64597E+06    -166.124E+03    -14.2426E-03     28.4705E-03    -14.2279E-03     1.87283E-03    -14.1863E-03     28.2421E-03    -14.1753E-03     1.87045E-03
             164     55.7862E-09     50.3916E-03    -2.87394E+06    -47.2923E+06    -2.75398E+06     679.354E+03    -14.2011E-03     28.4332E-03    -14.2322E-03     1.85925E-03    -14.1428E-03     28.2051E-03    -14.1732E-03     1.86780E-03
             165    -114.453E-09     49.4160E-03    -1.91300E+06    -47.0081E+06    -1.34933E+06    -476.449E+03    -14.1840E-03     28.4060E-03    -14.2220E-03     1.83674E-03    -14.1234E-03     28.1759E-03    -14.1578E-03     1.83036E-03
             166     110.514E-09     48.4408E-03    -2.25706E+06    -48.4627E+06    -2.94127E+06    -398.140E+03    -14.1524E-03     28.2962E-03    -14.1439E-03     1.84576E-03    -14.0890E-03     28.0616E-03    -14.0850E-03     1.84038E-03
             167    -101.023E-09     47.4656E-03    -3.62939E+06    -48.7319E+06    -3.30302E+06     181.049E+03    -14.1086E-03     28.2028E-03    -14.0942E-03     1.81650E-03    -14.0512E-03     27.9693E-03    -14.0348E-03     1.81861E-03
             168     119.116E-09     46.4905E-03    -3.06121E+06    -49.1987E+06    -3.02166E+06    -471.163E+03    -14.0849E-03     28.1261E-03    -14.0411E-03     1.76212E-03    -14.0244E-03     27.8891E-03    -13.9805E-03     1.75581E-03
             169    -60.5703E-09     45.5154E-03    -2.53204E+06    -49.5932E+06    -3.01162E+06     295.473E+03    -14.0205E-03     28.0128E-03    -13.9922E-03     1.83914E-03    -13.9568E-03     27.7730E-03    -13.9317E-03     1.84271E-03
             170     45.0063E-09     44.5404E-03    -2.93656E+06    -48.4066E+06    -2.43457E+06     315.562E+03    -13.9357E-03     27.9200E-03    -13.9843E-03     1.87749E-03    -13.8766E-03     27.6859E-03    -13.9220E-03     1.88133E-03
             171    -111.678E-09     43.5657E-03    -3.10169E+06    -48.8647E+06    -3.13965E+06    -590.152E+03    -13.8701E-03     27.7992E-03    -13.9290E-03     1.78639E-03    -13.8101E-03     27.5641E-03    -13.8694E-03     1.77855E-03
             172     71.7158E-09     42.5909E-03    -3.19928E+06    -49.7656E+06    -3.55628E+06     44.9853E+03    -13.8186E-03     27.6370E-03    -13.8184E-03     1.72014E-03    -13.7572E-03     27.3982E-03    -13.7594E-03     1.72051E-03
             173    -37.1022E-09     41.6165E-03    -3.00648E+06    -49.3115E+06    -2.77808E+06     271.759E+03    -13.7551E-03     27.5064E-03    -13.7513E-03     1.72506E-03    -13.6945E-03     27.2685E-03    -13.6893E-03     1.72836E-03
             174     10.3292E-09     40.6420E-03    -3.30637E+06    -49.3034E+06    -3.25391E+06    -242.780E+03    -13.6829E-03     27.3642E-03    -13.6813E-03     1.69628E-03    -13.6231E-03     27.1274E-03    -13.6213E-03     1.69294E-03
             175     18.4230E-09     39.6677E-03    -3.39742E+06    -49.8773E+06    -3.51412E+06    -119.035E+03    -13.6079E-03     27.1689E-03    -13.5610E-03     1.65119E-03    -13.5474E-03     26.9297E-03    -13.5013E-03     1.64945E-03
             176     33.4876E-09     38.6938E-03    -2.87323E+06    -49.5301E+06    -3.02391E+06     305.186E+03    -13.4873E-03     26.9726E-03    -13.4853E-03     1.63680E-03    -13.4253E-03     26.7337E-03    -13.4244E-03     1.64055E-03
             177    -85.0613E-09     37.7198E-03    -2.11269E+06    -48.5274E+06    -1.93402E+06     198.593E+03    -13.3742E-03     26.7683E-03    -13.3941E-03     1.61206E-03    -13.3114E-03     26.5317E-03    -13.3304E-03     1.61443E-03
             178     101.842E-09     36.7462E-03    -2.47302E+06    -48.7540E+06    -2.35676E+06    -266.771E+03    -13.2676E-03     26.5191E-03    -13.2515E-03     1.61420E-03    -13.2057E-03     26.2825E-03    -13.1890E-03     1.61056E-03
             179    -90.1681E-09     35.7727E-03    -3.37669E+06    -49.2388E+06    -3.67805E+06     76.3728E+03    -13.1356E-03     26.2314E-03    -13.0958E-03     1.56946E-03    -13.0757E-03     25.9957E-03    -13.0379E-03     1.57025E-03
             180     144.483E-09     34.7997E-03    -3.19764E+06    -48.4897E+06    -3.02038E+06     341.402E+03    -12.9924E-03     25.9283E-03    -12.9360E-03     1.52514E-03    -12.9335E-03     25.6951E-03    -12.8761E-03     1.52935E-03
             181    -97.8074E-09     33.8270E-03    -3.08112E+06    -48.0013E+06    -3.00560E+06    -62.8369E+03    -12.8349E-03     25.6246E-03    -12.7897E-03     1.51541E-03    -12.7763E-03     25.3936E-03    -12.7307E-03     1.51441E-03
             182     131.142E-09     32.8543E-03    -4.01962E+06    -48.2284E+06    -3.98578E+06    -181.892E+03    -12.6661E-03     25.2696E-03    -12.6035E-03     1.50796E-03    -12.6103E-03     25.0402E-03    -12.5477E-03     1.50544E-03
             183    -54.0654E-09     31.8823E-03    -3.89906E+06    -48.5543E+06    -4.02045E+06    -5.23989E+03    -12.4617E-03     24.8672E-03    -12.4055E-03     1.49014E-03    -12.4048E-03     24.6361E-03    -12.3495E-03     1.48990E-03
             184     74.2570E-09     30.9105E-03    -3.29441E+06    -48.4440E+06    -3.22817E+06     56.1659E+03    -12.2519E-03     24.4693E-03    -12.2174E-03     1.45361E-03    -12.1933E-03     24.2367E-03    -12.1585E-03     1.45416E-03
             185    -33.4510E-09     29.9393E-03    -3.69963E+06    -48.2860E+06    -3.81673E+06     74.2679E+03    -12.0211E-03     24.0219E-03    -12.0008E-03     1.40472E-03    -11.9639E-03     23.7915E-03    -11.9445E-03     1.40552E-03
             186     26.2706E-09     28.9684E-03    -2.66501E+06    -47.6618E+06    -2.71041E+06     372.863E+03    -11.7712E-03     23.5503E-03    -11.7791E-03     1.33977E-03    -11.7114E-03     23.3200E-03    -11.7197E-03     1.34442E-03
             187    -34.6049E-09     27.9980E-03    -2.50041E+06    -46.7405E+06    -2.32251E+06     93.8436E+03    -11.5412E-03     23.0597E-03    -11.5185E-03     1.26407E-03    -11.4824E-03     22.8332E-03    -11.4587E-03     1.26513E-03
             188     84.3692E-09     27.0281E-03    -2.81042E+06    -46.6019E+06    -2.90153E+06     22.9529E+03    -11.3188E-03     22.5337E-03    -11.2148E-03     1.26769E-03    -11.2610E-03     22.3091E-03    -11.1577E-03     1.26785E-03
             189     49.0071E-09     26.0587E-03    -1.82492E+06    -46.6674E+06    -1.62628E+06    -73.1042E+03    -11.0498E-03     21.9680E-03    -10.9182E-03     1.25489E-03    -10.9888E-03     21.7399E-03    -10.8560E-03     1.25382E-03
             190     53.3638E-09     25.0899E-03    -1.89828E+06    -46.5695E+06    -2.18620E+06     209.097E+03    -10.7211E-03     21.3402E-03    -10.6191E-03     1.16180E-03    -10.6598E-03     21.1134E-03    -10.5597E-03     1.16437E-03
             191     21.9159E-09     24.1218E-03    -1.35104E+06    -45.8303E+06    -1.05751E+06     278.204E+03    -10.3994E-03     20.7578E-03    -10.3584E-03     1.08943E-03    -10.3381E-03     20.5324E-03    -10.2953E-03     1.09290E-03
             192    -21.5232E-09     23.1542E-03    -1.06633E+06    -45.5497E+06    -1.13739E+06    -197.552E+03    -10.1158E-03     20.2020E-03    -10.0862E-03     967.181E-06    -10.0533E-03     19.9777E-03    -10.0243E-03     964.526E-06
             193     72.4195E-09     22.1871E-03    -2.44570E+06    -44.9475E+06    -2.81995E+06     477.781E+03    -9.84349E-03     19.6219E-03    -9.77836E-03     925.257E-06    -9.78633E-03     19.4049E-03    -9.72374E-03     931.321E-06
             194    -12.1204E-09     21.2204E-03    -1.16908E+06    -42.9420E+06    -997.250E+03     742.308E+03    -9.57331E-03     19.0913E-03    -9.51798E-03     930.919E-06    -9.51530E-03     18.8799E-03    -9.45900E-03     940.399E-06
             195     51.8274E-09     20.2544E-03    -469.463E+03    -41.1325E+06    -425.753E+03     444.180E+03    -9.35800E-03     18.6286E-03    -9.27056E-03     891.093E-06    -9.29995E-03     18.4244E-03    -9.21236E-03     896.731E-06
             196     64.3288E-09     19.2887E-03     922.986E+03    -39.1045E+06     699.238E+03     791.243E+03    -9.13285E-03     18.2250E-03    -9.09218E-03     862.361E-06    -9.07240E-03     18.0274E-03    -9.03332E-03     872.482E-06
             197    -111.140E-09     18.3235E-03     2.52541E+06    -36.7329E+06     2.81110E+06     575.124E+03    -8.94007E-03     17.8632E-03    -8.92315E-03     729.296E-06    -8.87810E-03     17.6720E-03    -8.85950E-03     736.640E-06
             198     190.919E-09     17.3585E-03     3.29312E+06    -35.9434E+06     3.46574E+06    -98.9991E+03    -8.79476E-03     17.5137E-03    -8.71890E-03     697.026E-06    -8.73104E-03     17.3244E-03    -8.65423E-03     695.677E-06
             199    -133.833E-09     16.3938E-03     3.66683E+06    -36.5308E+06     3.60373E+06    -266.533E+03    -8.61136E-03     17.1498E-03    -8.53841E-03     658.396E-06    -8.54511E-03     16.9568E-03    -8.47274E-03     654.887E-06
             200     205.725E-09     15.4296E-03     2.22548E+06    -37.3691E+06     2.13600E+06    -89.5083E+03    -8.41750E-03     16.7115E-03    -8.29401E-03     585.859E-06    -8.35511E-03     16.5185E-03    -8.23237E-03     584.640E-06
             201    -58.6303E-09     14.4656E-03     250.629E+03    -37.6171E+06     244.746E+03    -58.3291E+03    -8.12420E-03     16.1381E-03    -8.01393E-03     467.105E-06    -8.06859E-03     15.9495E-03    -7.95853E-03     466.292E-06
             202     107.978E-09     13.5028E-03    -2.64713E+06    -38.1855E+06    -2.64940E+06    -276.896E+03    -7.81611E-03     15.4268E-03    -7.61067E-03     173.813E-06    -7.76997E-03     15.2437E-03    -7.56471E-03     170.200E-06
             203     209.432E-09     12.5401E-03    -5.89366E+06    -39.0461E+06    -5.92467E+06    -240.852E+03    -7.42436E-03     14.5147E-03    -7.09038E-03     33.0535E-06    -7.38847E-03     14.3368E-03    -7.05484E-03     29.9113E-06
             204     69.4459E-09     11.5789E-03    -8.74882E+06    -39.6033E+06    -8.64464E+06    -177.107E+03    -6.85595E-03     13.4612E-03    -6.60529E-03     7.68674E-06    -6.82958E-03     13.2886E-03    -6.57841E-03     5.35486E-06
             205     100.822E-09     10.6182E-03    -10.9881E+06    -39.9554E+06    -11.1187E+06    -64.5154E+03    -6.35907E-03     12.4996E-03    -6.14057E-03     17.1509E-06    -6.33979E-03     12.3321E-03    -6.12229E-03     16.2644E-06
             206     118.052E-09     9.65887E-03    -12.5006E+06    -40.1475E+06    -12.2254E+06    -21.4723E+03    -6.11239E-03     11.9860E-03    -5.87358E-03     148.999E-06    -6.09878E-03     11.8213E-03    -5.85837E-03     148.667E-06
             207     93.2560E-09     8.69932E-03    -12.1000E+06    -40.3847E+06    -11.9599E+06    -214.593E+03    -6.21221E-03     12.2490E-03    -6.03681E-03     304.079E-06    -6.19664E-03     12.0822E-03    -6.02051E-03     301.256E-06
             208     10.5716E-09     7.73938E-03    -10.7963E+06    -41.1621E+06    -10.6589E+06    -293.683E+03    -6.68564E-03     13.2704E-03    -6.58477E-03     452.963E-06    -6.66433E-03     13.0959E-03    -6.56272E-03     449.123E-06
             209     67.3753E-09     6.77776E-03    -8.71022E+06    -42.3946E+06    -8.54268E+06    -360.238E+03    -7.46892E-03     14.8585E-03    -7.38954E-03     647.956E-06    -7.43847E-03     14.6717E-03    -7.35815E-03     643.263E-06
             210    -1.71022E-09     5.81468E-03    -5.55426E+06    -43.5219E+06    -5.68894E+06    -293.095E+03    -8.40771E-03     16.7720E-03    -8.36427E-03     756.347E-06    -8.36399E-03     16.5708E-03    -8.32155E-03     752.519E-06
             211     11.9223E-09     4.84954E-03    -2.44342E+06    -44.4758E+06    -2.47231E+06    -176.703E+03    -9.41389E-03     18.8112E-03    -9.39731E-03     761.027E-06    -9.35788E-03     18.5961E-03    -9.34163E-03     758.706E-06
             212     6.93667E-09     3.88252E-03     836.129E+03    -45.1099E+06     817.488E+03    -223.855E+03    -10.3937E-03     20.7808E-03    -10.3871E-03     684.919E-06    -10.3251E-03     20.5531E-03    -10.3188E-03     681.993E-06
             213    -14.5212E-09     2.91365E-03    -886.843E+03    -46.0203E+06    -894.472E+03    -290.331E+03    -11.2380E-03     22.4749E-03    -11.2369E-03     562.067E-06    -11.1742E-03     22.2476E-03    -11.1733E-03     558.268E-06
             214     23.6409E-09     1.94332E-03    -6.26086E+06    -46.9917E+06    -6.35881E+06    -338.815E+03    -11.8909E-03     23.7729E-03    -11.8819E-03     402.897E-06    -11.8445E-03     23.5565E-03    -11.8365E-03     398.476E-06
             215    -18.4756E-09     971.909E-06    -10.5248E+06    -48.2170E+06    -10.5683E+06    -416.232E+03    -12.2902E-03     24.5826E-03    -12.2925E-03     223.531E-06    -12.2571E-03     24.3724E-03    -12.2601E-03     218.213E-06
             216     888.826E-06    -159.595E-18    -12.1913E+06    -48.9786E+06    -12.7120E+06    -480.488E+03    -12.4478E-03     24.8844E-03    -12.4365E-03     195.914E-06    -12.4191E-03     24.6757E-03    -12.4114E-03     189.778E-06
             217     1.77767E-03    -159.595E-18    -11.7896E+06    -48.9180E+06     -13.054E+06    -529.859E+03    -12.5108E-03     24.9617E-03    -12.4509E-03     344.407E-06    -12.4799E-03     24.7531E-03    -12.4282E-03     337.555E-06
             218     2.66637E-03    -159.595E-18    -11.6726E+06    -50.0668E+06    -13.2885E+06    -258.814E+03    -12.6108E-03     25.0944E-03    -12.4836E-03     516.353E-06    -12.5772E-03     24.8802E-03    -12.4605E-03     512.984E-06
             219     3.55502E-03    -159.595E-18    -11.7223E+06    -52.1754E+06    -14.2293E+06    -293.101E+03    -12.7479E-03     25.2750E-03    -12.5271E-03     705.768E-06    -12.7103E-03     25.0518E-03    -12.5056E-03     701.942E-06
             220     4.44346E-03    -159.595E-18    -11.4428E+06    -53.5551E+06    -16.1535E+06    -792.888E+03    -12.9132E-03     25.4886E-03    -12.5754E-03     919.061E-06    -12.8693E-03     25.2608E-03    -12.5619E-03     908.773E-06
             221     5.33183E-03    -159.595E-18    -10.9555E+06    -55.2306E+06    -18.5591E+06    -921.765E+03    -13.1050E-03     25.7362E-03    -12.6312E-03     1.13627E-03    -13.0527E-03     25.5028E-03    -12.6281E-03     1.12431E-03
             222     6.21992E-03    -159.595E-18    -10.3159E+06    -57.3806E+06    -21.4181E+06    -1.31386E+06    -13.3238E-03     26.0182E-03    -12.6944E-03     1.36970E-03    -13.2611E-03     25.7773E-03    -12.7033E-03     1.35264E-03
             223     7.10792E-03    -159.595E-18    -9.07219E+06    -59.0520E+06    -25.1344E+06    -1.93205E+06    -13.5688E-03     26.3291E-03    -12.7603E-03     1.65094E-03    -13.4921E-03     26.0835E-03    -12.7872E-03     1.62588E-03
             224     7.99551E-03    -159.595E-18    -7.57491E+06    -60.7761E+06    -30.3042E+06    -2.20551E+06    -13.8358E-03     26.6626E-03    -12.8268E-03     1.93537E-03    -13.7416E-03     26.4137E-03    -12.8792E-03     1.90673E-03
             225     8.88314E-03    -159.595E-18    -5.78430E+06    -62.2614E+06    -35.4697E+06    -2.70230E+06    -14.1414E-03     27.0423E-03    -12.9009E-03     2.28199E-03    -14.0286E-03     26.7908E-03    -12.9796E-03     2.24689E-03
             226     9.77008E-03    -159.595E-18    -3.03793E+06    -60.5917E+06    -40.0571E+06    -3.68289E+06    -14.5074E-03     27.4899E-03    -12.9825E-03     2.77725E-03    -14.3766E-03     27.2494E-03    -13.0905E-03     2.72945E-03
             227     10.6570E-03    -159.595E-18     758.100E+03    -56.1768E+06    -44.1161E+06    -4.41075E+06    -14.9437E-03     28.0183E-03    -13.0746E-03     3.25492E-03    -14.7945E-03     27.8003E-03    -13.2148E-03     3.19760E-03
             228     11.5433E-03    -159.595E-18     4.73376E+06    -49.2171E+06    -46.8176E+06    -4.03636E+06    -15.4898E-03     28.6766E-03    -13.1869E-03     3.90383E-03    -15.3269E-03     28.4916E-03    -13.3564E-03     3.85123E-03
             229     12.4289E-03    -159.595E-18     8.73730E+06    -34.0647E+06    -41.1628E+06    -4.56599E+06    -16.1938E-03     29.5469E-03    -13.3531E-03     4.80453E-03    -16.0411E-03     29.4237E-03    -13.5222E-03     4.74492E-03
             230     13.3140E-03    -159.595E-18     11.1079E+06    -7.78434E+06    -29.7261E+06    -1.31920E+06    -17.1674E-03     30.7372E-03    -13.5698E-03     6.10191E-03    -17.0576E-03     30.7254E-03    -13.7232E-03     6.08373E-03
             231     14.1971E-03    -159.595E-18     10.3085E+06     27.6025E+06    -16.5206E+06    -89.5301E+03    -19.0348E-03     32.8878E-03    -13.8530E-03     8.48845E-03    -18.9995E-03     33.0351E-03    -13.9906E-03     8.48494E-03
             232     15.0786E-03    -159.595E-18     10.8863E+06     58.5713E+06     5.95531E+06    -2.39652E+06    -21.4314E-03     35.7159E-03    -14.2846E-03     8.36391E-03    -21.4707E-03     35.9847E-03    -14.3555E-03     8.32963E-03
             233     15.9604E-03    -159.595E-18     8.58442E+06     79.8960E+06     30.6469E+06     1.91106E+06    -26.8114E-03     41.7324E-03    -14.9209E-03     18.1821E-03    -26.9318E-03     42.0770E-03    -14.8960E-03     18.1946E-03
             234     16.8177E-03    -159.595E-18     4.77946E+06     101.849E+06     53.3945E+06     5.56831E+06    -37.7940E-03     53.7135E-03    -15.9196E-03     33.6666E-03    -38.0522E-03     54.1961E-03    -15.8072E-03     33.5971E-03
             235     17.7063E-03     1.01510E-03     954.817E+03     116.622E+06     58.1305E+06     6.17897E+06    -44.2687E-03     60.1984E-03    -15.9297E-03     45.6799E-03    -44.6983E-03     60.8812E-03    -15.8095E-03     45.5083E-03
             236     17.7245E-03     2.04802E-03    -1.94239E+06     127.179E+06     53.7701E+06     6.84115E+06    -42.2755E-03     57.2207E-03    -14.9452E-03     72.0104E-03    -42.9043E-03     58.1416E-03    -14.8579E-03     71.8728E-03
             237     17.7362E-03     3.05622E-03    -2.59379E+06     138.163E+06     64.2144E+06     4.75347E+06    -41.3518E-03     55.6952E-03    -14.3434E-03     89.7542E-03    -42.1925E-03     56.8321E-03    -14.2189E-03     89.6109E-03
             238     17.7412E-03     4.06219E-03    -536.074E+03     142.941E+06     74.2725E+06     914.837E+03    -40.5052E-03     54.4865E-03    -13.9813E-03     91.1431E-03    -41.5063E-03     55.7779E-03    -13.8164E-03     91.0391E-03
             239     17.7487E-03     5.06026E-03    -651.059E+03     142.692E+06     78.9101E+06     211.107E+03    -38.8022E-03     52.6405E-03    -13.8383E-03     90.1455E-03    -39.9158E-03     54.0298E-03    -13.6497E-03     90.1909E-03
             240     17.7429E-03     6.06365E-03    -2.39537E+06     144.812E+06     75.6478E+06     2.92872E+06    -36.1123E-03     49.9388E-03    -13.8265E-03     91.2220E-03    -37.3078E-03     51.4206E-03    -13.6547E-03     91.4666E-03
             241     17.7513E-03     7.05482E-03    -2.02356E+06     148.832E+06     71.2995E+06     1.34268E+06    -34.1823E-03     47.9508E-03    -13.7684E-03     100.275E-03    -35.5127E-03     49.5963E-03    -13.6248E-03     100.653E-03
             242     17.7463E-03     8.05925E-03    -4.85338E+06     148.987E+06     71.3458E+06    -653.865E+03    -35.7502E-03     49.5018E-03    -13.7516E-03     106.308E-03    -37.2191E-03     51.2769E-03    -13.6039E-03     106.736E-03
             243     17.7469E-03     9.05654E-03    -3.44949E+06     151.710E+06     70.3082E+06     1.51794E+06    -32.9467E-03     46.7950E-03    -13.8483E-03     109.887E-03    -34.4767E-03     48.6474E-03    -13.7117E-03     110.505E-03
             244     17.7484E-03     10.0396E-03    -1.20400E+06     154.607E+06     70.7810E+06     949.772E+03    -30.0077E-03     43.8820E-03    -13.8743E-03     110.801E-03    -31.5743E-03     45.7879E-03    -13.7428E-03     111.574E-03
             245     17.7479E-03     11.0339E-03    -2.25097E+06     154.405E+06     69.0806E+06    -726.173E+03    -31.3831E-03     45.2211E-03    -13.8381E-03     111.535E-03    -33.0221E-03     47.2004E-03    -13.7133E-03     112.331E-03
             246     17.7470E-03     12.0274E-03    -3.59183E+06     154.104E+06     68.5763E+06     -7.5565E+03    -32.2095E-03     46.0664E-03    -13.8569E-03     118.135E-03    -33.9825E-03     48.1754E-03    -13.7323E-03     119.032E-03
             247     17.7470E-03     13.0237E-03    -2.29607E+06     155.876E+06     68.9430E+06     1.33921E+06    -30.5145E-03     44.4118E-03    -13.8973E-03     121.961E-03    -32.3591E-03     46.6017E-03    -13.7752E-03     123.018E-03
             248     17.7482E-03     14.0072E-03    -521.504E+03     157.704E+06     67.6220E+06     508.128E+03    -28.7430E-03     42.6519E-03    -13.9089E-03     122.146E-03    -30.6164E-03     44.8871E-03    -13.7987E-03     123.320E-03
             249     17.7472E-03     14.9965E-03    -1.19104E+06     157.326E+06     66.3711E+06    -342.615E+03    -29.8975E-03     43.7863E-03    -13.8888E-03     122.449E-03    -31.8205E-03     46.0714E-03    -13.7833E-03     123.651E-03
             250     17.7470E-03     15.9889E-03    -1.53268E+06     156.730E+06     62.1175E+06     337.024E+03    -30.1237E-03     44.0177E-03    -13.8940E-03     123.842E-03    -32.1062E-03     46.3712E-03    -13.8084E-03     125.130E-03
             251     17.7464E-03     16.9769E-03    -1.32694E+06     157.004E+06     59.7117E+06     476.696E+03    -29.1216E-03     43.0509E-03    -13.9293E-03     126.265E-03    -31.1757E-03     45.4845E-03    -13.8564E-03     127.688E-03
             252     17.7464E-03     17.9656E-03    -1.20571E+06     157.702E+06     60.4724E+06     269.926E+03    -28.5892E-03     42.5511E-03    -13.9619E-03     127.044E-03    -30.6934E-03     45.0355E-03    -13.8865E-03     128.568E-03
             253     17.7459E-03     18.9534E-03    -1.28062E+06     157.946E+06     59.4126E+06    -45.5806E+03    -28.0346E-03     42.0286E-03    -13.9940E-03     127.978E-03    -30.1885E-03     44.5664E-03    -13.9241E-03     129.599E-03
             254     17.7454E-03     19.9404E-03    -1.62218E+06     157.849E+06     58.1055E+06    -61.3769E+03    -27.5470E-03     41.5731E-03    -14.0261E-03     128.929E-03    -29.7459E-03     44.1582E-03    -13.9621E-03     130.649E-03
             255     17.7452E-03     20.9276E-03    -1.74771E+06     158.111E+06     57.7255E+06     295.958E+03    -26.6563E-03     40.7193E-03    -14.0630E-03     130.244E-03    -28.9040E-03     43.3547E-03    -14.0011E-03     132.076E-03
             256     17.7450E-03     21.9134E-03    -1.63067E+06     158.791E+06     57.5902E+06     231.861E+03    -25.8688E-03     39.9627E-03    -14.0939E-03     131.865E-03    -28.1691E-03     42.6539E-03    -14.0338E-03     133.803E-03
             257     17.7448E-03     22.8981E-03    -1.35635E+06     159.228E+06     56.5612E+06     172.412E+03    -25.2339E-03     39.3477E-03    -14.1138E-03     132.696E-03    -27.5708E-03     42.0810E-03    -14.0599E-03     134.725E-03
             258     17.7447E-03     23.8830E-03    -1.35785E+06     159.163E+06     54.3463E+06    -35.0844E+03    -24.4081E-03     38.5392E-03    -14.1311E-03     133.532E-03    -26.7770E-03     41.3107E-03    -14.0882E-03     135.651E-03
             259     17.7446E-03     24.8655E-03    -1.32150E+06     159.173E+06     52.6163E+06    -44.2671E+03    -23.8074E-03     37.9562E-03    -14.1488E-03     133.558E-03    -26.1952E-03     40.7518E-03    -14.1146E-03     135.759E-03
             260     17.7442E-03     25.8483E-03    -1.28299E+06     159.299E+06     51.4399E+06     89.9139E+03    -23.4066E-03     37.5746E-03    -14.1680E-03     133.633E-03    -25.8181E-03     40.3979E-03    -14.1399E-03     135.907E-03
             261     17.7441E-03     26.8313E-03    -1.34994E+06     159.488E+06     50.9558E+06     133.017E+03    -22.7675E-03     36.9597E-03    -14.1922E-03     134.230E-03    -25.2079E-03     39.8137E-03    -14.1667E-03     136.581E-03
             262     17.7439E-03     27.8128E-03    -1.36878E+06     159.782E+06     50.8419E+06     158.391E+03    -22.0472E-03     36.2640E-03    -14.2169E-03     134.742E-03    -24.5118E-03     39.1436E-03    -14.1924E-03     137.172E-03
             263     17.7438E-03     28.7940E-03    -1.39570E+06     160.047E+06     50.6279E+06     156.040E+03    -21.5633E-03     35.7982E-03    -14.2349E-03     135.183E-03    -24.0512E-03     38.7024E-03    -14.2118E-03     137.675E-03
             264     17.7437E-03     29.7747E-03    -1.36002E+06     160.416E+06     50.6673E+06     140.028E+03    -21.1225E-03     35.3742E-03    -14.2517E-03     135.640E-03    -23.6328E-03     38.3021E-03    -14.2289E-03     138.189E-03
             265     17.7436E-03     30.7554E-03     -1.2027E+06     160.848E+06     50.9899E+06     150.865E+03    -20.6201E-03     34.8900E-03    -14.2699E-03     136.236E-03    -23.1512E-03     37.8400E-03    -14.2465E-03     138.845E-03
             266     17.7436E-03     31.7350E-03    -1.30969E+06     161.000E+06     51.0292E+06     109.143E+03    -20.1762E-03     34.4614E-03    -14.2852E-03     136.629E-03    -22.7248E-03     37.4290E-03    -14.2616E-03     139.288E-03
             267     17.7435E-03     32.7145E-03    -1.39597E+06     161.231E+06     51.2502E+06     79.3496E+03    -19.9133E-03     34.2102E-03    -14.2969E-03     136.922E-03    -22.4794E-03     37.1951E-03    -14.2724E-03     139.624E-03
             268     17.7435E-03     33.6936E-03    -1.25911E+06     161.498E+06     51.2929E+06     167.405E+03    -19.5491E-03     33.8577E-03    -14.3086E-03     136.935E-03    -22.1239E-03     36.8526E-03    -14.2845E-03     139.678E-03
             269     17.7434E-03     34.6723E-03    -1.50363E+06     161.547E+06     51.5851E+06     74.2963E+03    -19.1160E-03     33.4390E-03    -14.3230E-03     137.199E-03    -21.7039E-03     36.4455E-03    -14.2972E-03     139.982E-03
             270     17.7435E-03     35.6506E-03    -1.30488E+06     161.702E+06     51.1625E+06     37.5601E+03    -19.0252E-03     33.3520E-03    -14.3268E-03     137.256E-03    -21.6228E-03     36.3706E-03    -14.3036E-03     140.067E-03
             271     17.7431E-03     36.6291E-03    -1.33935E+06     161.868E+06     51.5195E+06     58.0415E+03    -18.8470E-03     33.1853E-03    -14.3384E-03     137.146E-03    -21.4512E-03     36.2101E-03    -14.3136E-03     139.982E-03
             272     17.7434E-03     37.6073E-03    -1.43434E+06     161.937E+06     51.5954E+06     105.254E+03    -18.4293E-03     32.7794E-03    -14.3501E-03     137.659E-03    -21.0460E-03     35.8162E-03    -14.3249E-03     140.532E-03
             273     17.7433E-03     38.5850E-03    -1.61142E+06     162.006E+06     53.0578E+06    -41.4910E+03    -18.2713E-03     32.6350E-03    -14.3637E-03     137.915E-03    -20.8998E-03     35.6790E-03    -14.3310E-03     140.812E-03
             274     17.7431E-03     39.5628E-03    -737.111E+03     162.474E+06      52.152E+06     440.320E+03    -18.1376E-03     32.4995E-03    -14.3618E-03     138.132E-03    -20.7674E-03     35.5521E-03    -14.3356E-03     141.055E-03
             275     17.7435E-03     40.5403E-03    -5.75096E+06     158.309E+06     50.8981E+06    -3.24282E+06    -17.9042E-03     32.2779E-03    -14.3737E-03     137.495E-03    -20.5532E-03     35.3209E-03    -14.3404E-03     140.394E-03
             276     17.7428E-03     41.5161E-03     4.34374E+06     152.268E+06     38.1873E+06    -2.93653E+06    -17.0571E-03     31.3534E-03    -14.2964E-03     137.723E-03    -19.6215E-03     34.3631E-03    -14.3325E-03     140.654E-03
             277     17.7460E-03     42.4939E-03     4.14624E+06     153.561E+06     45.4478E+06     3.22650E+06    -18.3301E-03     32.6825E-03    -14.3525E-03     139.465E-03    -20.9705E-03     35.7510E-03    -14.3539E-03     142.483E-03
             278     17.7367E-03     43.4772E-03    -10.9928E+06     151.445E+06     47.2038E+06     6.79140E+06    -16.9255E-03     31.3783E-03    -14.4528E-03     135.896E-03    -19.6187E-03     34.4334E-03    -14.4205E-03     138.976E-03
             279     17.7494E-03     44.4339E-03    -855.148E+03     157.233E+06     37.9795E+06     289.002E+03    -15.0041E-03     29.3014E-03    -14.2972E-03     132.709E-03    -17.5694E-03     32.3125E-03    -14.3341E-03     135.772E-03
             280     17.7424E-03     45.4238E-03     1.61491E+06     164.750E+06     53.2346E+06    -4.04815E+06    -19.1772E-03     33.4422E-03    -14.2650E-03     136.870E-03    -21.8575E-03     36.5601E-03    -14.2401E-03     139.814E-03
             281     17.7431E-03     46.4135E-03    -2.25409E+06     162.889E+06     54.6029E+06     200.008E+03    -17.9255E-03     32.3335E-03    -14.4079E-03     144.098E-03    -20.7481E-03     35.5688E-03    -14.3678E-03     147.203E-03
             282     17.7429E-03     47.3725E-03    -287.642E+03     163.508E+06     51.6516E+06     38.5245E+03    -15.6645E-03     30.1024E-03    -14.4378E-03     142.317E-03    -18.4019E-03     33.2697E-03    -14.4162E-03     145.476E-03
             283     17.7433E-03     48.3543E-03    -1.83981E+06     162.558E+06     54.0526E+06    -167.360E+03    -17.8260E-03     32.2165E-03    -14.3905E-03     137.462E-03    -20.4750E-03     35.2793E-03    -14.3533E-03     140.441E-03
             284     17.7427E-03     49.3312E-03    -1.18928E+06     162.093E+06     50.2953E+06    -250.660E+03    -17.6205E-03     31.9990E-03    -14.3785E-03     138.121E-03    -20.2782E-03     35.0821E-03    -14.3604E-03     141.126E-03
             285     17.7434E-03     50.3074E-03    -1.65445E+06     161.314E+06      47.837E+06    -441.986E+03    -17.0499E-03     31.4387E-03    -14.3888E-03     138.177E-03    -19.7137E-03     34.5306E-03    -14.3812E-03     141.229E-03
             286     17.7422E-03     51.2843E-03     593.750E+03     162.424E+06     46.4973E+06     1.18943E+06    -17.2290E-03     31.6078E-03    -14.3788E-03     138.639E-03    -19.8910E-03     34.7136E-03    -14.3827E-03     141.709E-03
             287     17.7436E-03     52.2613E-03      215.91E+03     163.104E+06     49.5631E+06     207.480E+03    -17.1435E-03     31.5454E-03    -14.4018E-03     137.611E-03    -19.8108E-03     34.6486E-03    -14.3908E-03     140.677E-03
             288     17.7414E-03     53.2360E-03    -2.51912E+06     162.886E+06     54.8673E+06     82.6522E+03    -16.0310E-03     30.4756E-03    -14.4446E-03     136.341E-03    -18.6977E-03     33.5525E-03    -14.4028E-03     139.430E-03
             289     17.7453E-03     54.2112E-03    -1.80290E+06     162.770E+06     51.1573E+06    -989.446E+03    -17.2495E-03     31.6276E-03    -14.3781E-03     140.314E-03    -19.9958E-03     34.7972E-03    -14.3557E-03     143.414E-03
             290     17.7412E-03     55.1956E-03    -3.29342E+06     161.709E+06     51.5590E+06    -855.688E+03    -19.2033E-03     33.5766E-03    -14.3733E-03     142.511E-03    -22.0052E-03     36.7917E-03    -14.3452E-03     145.569E-03
             291     17.7429E-03     56.1722E-03    -1.63595E+06     163.221E+06     52.7632E+06     1.74757E+06    -16.3102E-03     30.7685E-03    -14.4583E-03     141.585E-03    -19.0545E-03     33.9338E-03    -14.4288E-03     144.761E-03
             292     887.253E-06     57.2223E-03    -3.35443E+06    -49.0527E+06    -3.26932E+06    -143.913E+03    -14.3542E-03     28.7083E-03    -14.3541E-03     3.25462E-03    -14.2951E-03     28.4728E-03    -14.2944E-03     3.25235E-03
             293     1.77444E-03     57.2264E-03    -2.53749E+06    -48.6892E+06    -1.60105E+06     86.7683E+03    -14.3637E-03     28.7232E-03    -14.3595E-03     6.03280E-03    -14.3035E-03     28.4858E-03    -14.2933E-03     6.03314E-03
             294     2.66170E-03     57.2335E-03    -1.73515E+06    -47.9299E+06     706.816E+03     132.403E+03    -14.3794E-03     28.7489E-03    -14.3696E-03     9.03034E-03    -14.3197E-03     28.5109E-03    -14.2940E-03     9.03086E-03
             295     3.54889E-03     57.2431E-03    -1.00971E+06    -48.1004E+06     2.46069E+06    -174.542E+03    -14.4007E-03     28.7796E-03    -14.3790E-03     12.1376E-03    -14.3398E-03     28.5373E-03    -14.2954E-03     12.1337E-03
             296     4.43613E-03     57.2560E-03    -362.221E+03    -48.2919E+06     3.39554E+06    -170.516E+03    -14.4311E-03     28.8157E-03    -14.3847E-03     15.3662E-03    -14.3682E-03     28.5703E-03    -14.2971E-03     15.3619E-03
             297     5.32334E-03     57.2717E-03    -49.2536E+03    -48.7278E+06     3.13540E+06    -349.638E+03    -14.4751E-03     28.8611E-03    -14.3861E-03     18.7928E-03    -14.4099E-03     28.6137E-03    -14.2997E-03     18.7856E-03
             298     6.21053E-03     57.2909E-03     877.452E+03    -48.2311E+06     2.65734E+06    -405.303E+03    -14.5369E-03     28.9224E-03    -14.3855E-03     22.4647E-03    -14.4675E-03     28.6772E-03    -14.3036E-03     22.4561E-03
             299     7.09772E-03     57.3135E-03     1.75111E+06    -48.1048E+06     3.39112E+06    -351.705E+03    -14.6290E-03     29.0233E-03    -14.3943E-03     26.3593E-03    -14.5570E-03     28.7769E-03    -14.3101E-03     26.3505E-03
             300     7.98481E-03     57.3399E-03     1.24843E+06    -49.0688E+06     3.40687E+06    -303.501E+03    -14.7113E-03     29.1165E-03    -14.4052E-03     30.5334E-03    -14.6412E-03     28.8668E-03    -14.3189E-03     30.5239E-03
             301     8.87204E-03     57.3702E-03     425.396E+03    -47.3698E+06     2.31160E+06    -191.341E+03    -14.8012E-03     29.2089E-03    -14.4077E-03     34.9718E-03    -14.7373E-03     28.9717E-03    -14.3280E-03     34.9621E-03
             302     9.75902E-03     57.4049E-03     262.467E+03    -46.0468E+06     3.59075E+06    -41.7805E+03    -14.9195E-03     29.3421E-03    -14.4225E-03     39.5284E-03    -14.8624E-03     29.1120E-03    -14.3382E-03     39.5182E-03
             303     10.6462E-03     57.4436E-03    -659.498E+03    -48.7426E+06     188.010E+03     542.341E+03    -15.0597E-03     29.4821E-03    -14.4224E-03     44.1953E-03    -15.0017E-03     29.2482E-03    -14.3498E-03     44.1891E-03
             304     11.5331E-03     57.4871E-03    -1.51406E+06    -42.0797E+06    -4.54868E+06     477.920E+03    -15.1749E-03     29.5767E-03    -14.4018E-03     49.3705E-03    -15.1298E-03     29.3901E-03    -14.3614E-03     49.3588E-03
             305     12.4202E-03     57.5355E-03     241.465E+03    -28.7696E+06    -2.11564E+06    -1.00204E+06    -15.4458E-03     29.8504E-03    -14.4046E-03     57.4024E-03    -15.4268E-03     29.7362E-03    -14.3738E-03     57.3651E-03
             306     13.3069E-03     57.5937E-03     2.18401E+06    -29.6747E+06    -10.3127E+06    -1.45095E+06    -15.7577E-03     30.1369E-03    -14.3793E-03     63.6332E-03    -15.7361E-03     30.0477E-03    -14.3910E-03     63.5823E-03
             307     14.1939E-03     57.6540E-03     1.31387E+06    -13.5779E+06    -13.9553E+06    -667.425E+03    -15.6990E-03     30.0519E-03    -14.3530E-03     68.2438E-03    -15.7299E-03     30.0798E-03    -14.4050E-03     68.2009E-03
             308     15.0808E-03     57.7198E-03     79.9911E+03     35.5619E+06    -9.23872E+06    -104.817E+03    -16.4099E-03     30.7183E-03    -14.3084E-03     93.1646E-03    -16.6745E-03     31.1363E-03    -14.4063E-03     93.1532E-03
             309     15.9692E-03     57.8261E-03     263.677E+03     60.3789E+06    -22.9707E+06     399.807E+03    -18.6115E-03     32.8052E-03    -14.1937E-03     144.245E-03    -19.7775E-03     34.2531E-03    -14.3965E-03     144.654E-03
             310     16.8559E-03     57.9865E-03    -742.056E+03     110.377E+06     10.1912E+06    -3.38790E+03    -18.3783E-03     32.6533E-03    -14.2751E-03     155.943E-03    -20.6652E-03     35.2999E-03    -14.3831E-03     157.882E-03
             311     887.199E-06     58.1978E-03    -2.92360E+06    -48.7051E+06    -2.67243E+06    -201.257E+03    -14.3582E-03     28.7252E-03    -14.3669E-03     3.24109E-03    -14.2983E-03     28.4899E-03    -14.3054E-03     3.23808E-03
             312     1.77446E-03     58.2022E-03    -2.62211E+06    -48.8845E+06    -1.40901E+06    -279.020E+03    -14.3702E-03     28.7382E-03    -14.3680E-03     6.03828E-03    -14.3105E-03     28.4997E-03    -14.3004E-03     6.03390E-03
             313     2.66167E-03     58.2090E-03    -1.72780E+06    -48.1214E+06     445.699E+03     59.5762E+03    -14.3944E-03     28.7710E-03    -14.3766E-03     9.03276E-03    -14.3341E-03     28.5324E-03    -14.3021E-03     9.03233E-03
             314     3.54886E-03     58.2190E-03    -1.02335E+06    -47.6911E+06     2.37199E+06     81.5751E+03    -14.4145E-03     28.8022E-03    -14.3876E-03     12.1469E-03    -14.3542E-03     28.5621E-03    -14.3052E-03     12.1463E-03
             315     4.43606E-03     58.2315E-03    -389.997E+03    -48.4863E+06     3.49753E+06    -63.8399E+03    -14.4424E-03     28.8383E-03    -14.3959E-03     15.3849E-03    -14.3796E-03     28.5918E-03    -14.3075E-03     15.3820E-03
             316     5.32329E-03     58.2476E-03     411.249E+03    -48.1312E+06     3.85714E+06    -205.373E+03    -14.4945E-03     28.8937E-03    -14.3992E-03     18.8112E-03    -14.4289E-03     28.6476E-03    -14.3108E-03     18.8058E-03
             317     6.21044E-03     58.2665E-03     686.002E+03    -47.8626E+06     2.77888E+06    -930.945E+03    -14.5548E-03     28.9529E-03    -14.3981E-03     22.4900E-03    -14.4870E-03     28.7096E-03    -14.3158E-03     22.4745E-03
             318     7.09763E-03     58.2893E-03     939.850E+03    -48.7395E+06     2.94843E+06    -564.321E+03    -14.6268E-03     29.0330E-03    -14.4062E-03     26.3966E-03    -14.5573E-03     28.7852E-03    -14.3221E-03     26.3850E-03
             319     7.98480E-03     58.3156E-03     1.35782E+06    -49.6437E+06     5.21557E+06     569.537E+03    -14.7319E-03     29.1587E-03    -14.4268E-03     30.5115E-03    -14.6631E-03     28.9033E-03    -14.3307E-03     30.5133E-03
             320     8.87181E-03     58.3461E-03     1.52428E+06    -46.7746E+06     4.62227E+06     361.188E+03    -14.8235E-03     29.2531E-03    -14.4296E-03     34.9546E-03    -14.7585E-03     29.0140E-03    -14.3408E-03     34.9520E-03
             321     9.75900E-03     58.3807E-03     1.59603E+06    -46.5627E+06     4.22654E+06     198.062E+03    -14.9318E-03     29.3692E-03    -14.4374E-03     39.5605E-03    -14.8681E-03     29.1337E-03    -14.3511E-03     39.5533E-03
             322     10.6459E-03     58.4197E-03     2.24983E+06    -49.8889E+06     1.20042E+06     1.10909E+06    -15.0703E-03     29.5070E-03    -14.4367E-03     44.2657E-03    -14.9977E-03     29.2618E-03    -14.3616E-03     44.2667E-03
             323     11.5330E-03     58.4630E-03     3.12658E+06    -39.7246E+06    -2.85406E+06    -140.651E+03    -15.1652E-03     29.5748E-03    -14.4097E-03     49.5155E-03    -15.1028E-03     29.3908E-03    -14.3709E-03     49.4959E-03
             324     12.4201E-03     58.5114E-03     2.33037E+06    -27.7509E+06    -1.97416E+06    -1.71025E+06    -15.4045E-03     29.8108E-03    -14.4063E-03     57.8251E-03    -15.3769E-03     29.6986E-03    -14.3793E-03     57.7787E-03
             325     13.3070E-03     58.5702E-03     691.910E+03    -29.6875E+06    -10.8753E+06    -2.15709E+06    -15.5620E-03     29.9373E-03    -14.3753E-03     63.9117E-03    -15.5468E-03     29.8507E-03    -14.3876E-03     63.8523E-03
             326     14.1942E-03     58.6294E-03     1.37600E+06    -14.7448E+06    -14.2805E+06    -1.72705E+06    -15.4508E-03     29.7866E-03    -14.3357E-03     68.2943E-03    -15.4791E-03     29.8088E-03    -14.3877E-03     68.2387E-03
             327     15.0820E-03     58.6961E-03     1.59116E+06     33.6758E+06    -8.89137E+06     488.626E+03    -16.2160E-03     30.4973E-03    -14.2813E-03     93.0219E-03    -16.4705E-03     30.9028E-03    -14.3769E-03     93.0204E-03
             328     15.9688E-03     58.8011E-03    -1.76033E+06     61.6618E+06    -22.4597E+06     969.209E+03    -18.7102E-03     32.8792E-03    -14.1690E-03     143.247E-03    -19.8802E-03     34.3270E-03    -14.3682E-03     143.655E-03
             329     16.8565E-03     58.9635E-03    -2.54596E+06     110.971E+06     6.80946E+06    -176.525E+03    -18.6750E-03     32.9217E-03    -14.2467E-03     155.570E-03    -20.9680E-03     35.5799E-03    -14.3699E-03     157.497E-03
             330     887.220E-06     59.1736E-03    -3.56997E+06    -48.5387E+06    -3.13305E+06     65.4571E+03    -14.3626E-03     28.7366E-03    -14.3740E-03     3.23346E-03    -14.3055E-03     28.5037E-03    -14.3141E-03     3.23390E-03
             331     1.77443E-03     59.1777E-03    -3.28443E+06    -48.6854E+06    -1.85574E+06    -78.6289E+03    -14.3857E-03     28.7621E-03    -14.3764E-03     6.05661E-03    -14.3289E-03     28.5262E-03    -14.3103E-03     6.05481E-03
             332     2.66160E-03     59.1849E-03    -2.80208E+06    -48.4821E+06    -725.648E+03    -126.908E+03    -14.3948E-03     28.7785E-03    -14.3837E-03     9.04747E-03    -14.3376E-03     28.5414E-03    -14.3130E-03     9.04464E-03
             333     3.54885E-03     59.1945E-03    -1.90278E+06    -47.6676E+06     1.17453E+06     132.127E+03    -14.4148E-03     28.8066E-03    -14.3918E-03     12.1624E-03    -14.3572E-03     28.5696E-03    -14.3140E-03     12.1625E-03
             334     4.43605E-03     59.2075E-03    -850.895E+03    -48.0745E+06     3.57879E+06    -165.495E+03    -14.4642E-03     28.8702E-03    -14.4060E-03     15.4082E-03    -14.4044E-03     28.6263E-03    -14.3171E-03     15.4039E-03
             335     5.32319E-03     59.2231E-03     189.377E+03    -47.9462E+06     4.46672E+06    -508.290E+03    -14.5138E-03     28.9281E-03    -14.4143E-03     18.8387E-03    -14.4505E-03     28.6823E-03    -14.3227E-03     18.8294E-03
             336     6.21040E-03     59.2425E-03     509.118E+03    -47.4904E+06     4.77233E+06    -132.378E+03    -14.5694E-03     28.9903E-03    -14.4209E-03     22.4915E-03    -14.5059E-03     28.7462E-03    -14.3289E-03     22.4863E-03
             337     7.09750E-03     59.2649E-03    -188.693E+03    -49.4726E+06     3.50396E+06    -22.8819E+03    -14.6422E-03     29.0678E-03    -14.4256E-03     26.4079E-03    -14.5781E-03     28.8172E-03    -14.3361E-03     26.4033E-03
             338     7.98463E-03     59.2916E-03     254.912E+03    -50.0219E+06     2.19325E+06    -157.760E+03    -14.7303E-03     29.1575E-03    -14.4273E-03     30.5961E-03    -14.6620E-03     28.9063E-03    -14.3441E-03     30.5885E-03
             339     8.87173E-03     59.3219E-03     1.50797E+06    -46.5136E+06     2.44678E+06     59.9353E+03    -14.8165E-03     29.2463E-03    -14.4298E-03     35.0386E-03    -14.7487E-03     29.0116E-03    -14.3523E-03     35.0321E-03
             340     9.75878E-03     59.3567E-03     1.57741E+06    -47.4418E+06     2.80473E+06     728.179E+03    -14.9000E-03     29.3398E-03    -14.4398E-03     39.6953E-03    -14.8331E-03     29.1019E-03    -14.3593E-03     39.6950E-03
             341     10.6459E-03     59.3956E-03     1.51852E+06    -49.2760E+06    -663.721E+03    -49.4476E+03    -15.0233E-03     29.4548E-03    -14.4315E-03     44.4155E-03    -14.9525E-03     29.2164E-03    -14.3656E-03     44.4017E-03
             342     11.5331E-03     59.4389E-03     2.12423E+06    -37.7862E+06    -3.40363E+06    -1.31658E+06    -15.1321E-03     29.5383E-03    -14.4062E-03     49.6327E-03    -15.0768E-03     29.3662E-03    -14.3715E-03     49.5979E-03
             343     12.4201E-03     59.4875E-03     2.78294E+06    -27.8550E+06    -1.45443E+06    -1.28777E+06    -15.2961E-03     29.7001E-03    -14.4040E-03     57.9347E-03    -15.2667E-03     29.5860E-03    -14.3749E-03     57.8939E-03
             344     13.3075E-03     59.5460E-03     2.14596E+06    -29.0964E+06    -9.58511E+06    -1.02830E+06    -15.4272E-03     29.7936E-03    -14.3665E-03     63.6913E-03    -15.4071E-03     29.7057E-03    -14.3753E-03     63.6469E-03
             345     14.1946E-03     59.6052E-03    -1.04474E+06    -14.6303E+06    -14.1445E+06    -1.88163E+06    -15.4707E-03     29.7961E-03    -14.3254E-03     67.8519E-03    -15.5114E-03     29.8222E-03    -14.3734E-03     67.7943E-03
             346     15.0817E-03     59.6715E-03    -1.65022E+06     29.8643E+06    -10.7884E+06    -921.087E+03    -16.4166E-03     30.6929E-03    -14.2764E-03     92.6869E-03    -16.6785E-03     31.0863E-03    -14.3712E-03     92.6654E-03
             347     15.9692E-03     59.7778E-03     687.608E+03     62.0729E+06    -22.0077E+06     1.56415E+06    -18.9881E-03     33.1636E-03    -14.1755E-03     143.177E-03    -20.1533E-03     34.6155E-03    -14.3766E-03     143.588E-03
             348     16.8552E-03     59.9391E-03    -214.507E+03     113.226E+06     6.55035E+06     676.069E+03    -18.7546E-03     33.0108E-03    -14.2562E-03     155.460E-03    -21.0453E-03     35.6838E-03    -14.3874E-03     157.403E-03
             349     887.233E-06     60.1491E-03    -4.78097E+06    -48.9589E+06    -4.35951E+06     463.490E+03    -14.3766E-03     28.7504E-03    -14.3738E-03     3.24895E-03    -14.3232E-03     28.5190E-03    -14.3177E-03     3.25453E-03
             350     1.77438E-03     60.1536E-03    -4.55537E+06    -48.3950E+06    -3.16120E+06     214.106E+03    -14.3872E-03     28.7683E-03    -14.3811E-03     6.06373E-03    -14.3353E-03     28.5376E-03    -14.3201E-03     6.06571E-03
             351     2.66164E-03     60.1604E-03    -3.72428E+06    -48.2712E+06    -793.069E+03    -162.573E+03    -14.4010E-03     28.7946E-03    -14.3936E-03     9.05789E-03    -14.3486E-03     28.5600E-03    -14.3222E-03     9.05460E-03
             352     3.54879E-03     60.1704E-03    -2.42309E+06    -47.8927E+06     1.62064E+06    -329.424E+03    -14.4312E-03     28.8369E-03    -14.4057E-03     12.1793E-03    -14.3765E-03     28.5988E-03    -14.3246E-03     12.1734E-03
             353     4.43599E-03     60.1830E-03    -1.20125E+06    -47.5688E+06     3.20523E+06    -273.636E+03    -14.4757E-03     28.8914E-03    -14.4157E-03     15.4315E-03    -14.4178E-03     28.6511E-03    -14.3290E-03     15.4258E-03
             354     5.32315E-03     60.1991E-03    -484.053E+03    -47.6439E+06     4.50321E+06    -538.688E+03    -14.5297E-03     28.9572E-03    -14.4275E-03     18.8575E-03    -14.4703E-03     28.7139E-03    -14.3352E-03     18.8478E-03
             355     6.21027E-03     60.2181E-03     309.293E+03    -48.8078E+06     4.48894E+06     152.560E+03    -14.5837E-03     29.0185E-03    -14.4348E-03     22.5165E-03    -14.5190E-03     28.7686E-03    -14.3420E-03     22.5150E-03
             356     7.09744E-03     60.2411E-03     1.14652E+06    -48.9133E+06     3.50239E+06     655.382E+03    -14.6474E-03     29.0824E-03    -14.4351E-03     26.4519E-03    -14.5774E-03     28.8327E-03    -14.3483E-03     26.4560E-03
             357     7.98454E-03     60.2672E-03     1.12404E+06    -49.0987E+06     2.21072E+06    -618.296E+03    -14.7120E-03     29.1463E-03    -14.4343E-03     30.6707E-03    -14.6408E-03     28.8984E-03    -14.3537E-03     30.6572E-03
             358     8.87172E-03     60.2980E-03     1.01911E+06    -47.7304E+06     2.01684E+06    -444.634E+03    -14.7861E-03     29.2221E-03    -14.4361E-03     35.1075E-03    -14.7183E-03     28.9827E-03    -14.3582E-03     35.0946E-03
             359     9.75888E-03     60.3323E-03     1.86544E+06    -48.0447E+06     3.30042E+06     435.792E+03    -14.8822E-03     29.3280E-03    -14.4458E-03     39.6828E-03    -14.8137E-03     29.0860E-03    -14.3624E-03     39.6788E-03
             360     10.6460E-03     60.3715E-03     2.38113E+06    -47.2235E+06     677.687E+03    -233.606E+03    -15.0107E-03     29.4462E-03    -14.4355E-03     44.4067E-03    -14.9405E-03     29.2149E-03    -14.3671E-03     44.3905E-03
             361     11.5330E-03     60.4148E-03     1.81344E+06    -36.7017E+06    -2.22595E+06    -1.73681E+06    -15.1205E-03     29.5322E-03    -14.4117E-03     49.5481E-03    -15.0700E-03     29.3643E-03    -14.3723E-03     49.5079E-03
             362     12.4203E-03     60.4634E-03     1.10653E+06    -28.8685E+06    -1.05197E+06    -1.60466E+06    -15.2805E-03     29.6909E-03    -14.4104E-03     57.7131E-03    -15.2586E-03     29.5735E-03    -14.3754E-03     57.6683E-03
             363     13.3073E-03     60.5219E-03     104.779E+03    -29.7895E+06    -7.83096E+06    -155.943E+03    -15.4767E-03     29.8586E-03    -14.3820E-03     63.3358E-03    -15.4683E-03     29.7676E-03    -14.3781E-03     63.3023E-03
             364     14.1945E-03     60.5810E-03    -637.963E+03    -12.6424E+06    -10.6659E+06    -180.732E+03    -15.6223E-03     29.9717E-03    -14.3494E-03     67.4567E-03    -15.6690E-03     30.0022E-03    -14.3835E-03     67.4203E-03
             365     15.0815E-03     60.6477E-03    -2.34353E+06     28.7220E+06    -10.1175E+06    -1.57407E+06    -16.5006E-03     30.8003E-03    -14.2997E-03     92.5421E-03    -16.7658E-03     31.1886E-03    -14.3886E-03     92.5115E-03
             366     15.9682E-03     60.7536E-03    -4.06316E+06     59.3406E+06    -23.6684E+06    -1.38147E+06    -18.9458E-03     33.1416E-03    -14.1957E-03     143.559E-03    -20.1341E-03     34.5947E-03    -14.3942E-03     143.935E-03
             367     16.8557E-03     60.9164E-03    -1.49412E+06     114.311E+06     4.55267E+06     233.334E+03    -18.6363E-03     32.8945E-03    -14.2582E-03     155.865E-03    -20.9359E-03     35.5814E-03    -14.3990E-03     157.809E-03
             368     887.152E-06     61.1250E-03    -5.91094E+06    -49.5482E+06    -6.06093E+06     168.638E+03    -14.3870E-03     28.7698E-03    -14.3827E-03     3.25699E-03    -14.3359E-03     28.5395E-03    -14.3326E-03     3.25876E-03
             369     1.77442E-03     61.1291E-03    -5.10229E+06    -48.1659E+06    -3.69898E+06     171.482E+03    -14.3909E-03     28.7820E-03    -14.3911E-03     6.06477E-03    -14.3413E-03     28.5540E-03    -14.3324E-03     6.06621E-03
             370     2.66155E-03     61.1363E-03    -4.01403E+06    -47.6792E+06    -721.858E+03    -297.908E+03    -14.4193E-03     28.8250E-03    -14.4057E-03     9.06579E-03    -14.3694E-03     28.5936E-03    -14.3343E-03     9.06075E-03
             371     3.54877E-03     61.1460E-03    -2.73748E+06    -47.6289E+06     1.81782E+06    -689.336E+03    -14.4504E-03     28.8716E-03    -14.4212E-03     12.1904E-03    -14.3979E-03     28.6350E-03    -14.3390E-03     12.1799E-03
             372     4.43590E-03     61.1590E-03    -1.36346E+06    -47.7195E+06     2.97574E+06    -636.738E+03    -14.4829E-03     28.9125E-03    -14.4296E-03     15.4508E-03    -14.4253E-03     28.6720E-03    -14.3435E-03     15.4404E-03
             373     5.32308E-03     61.1748E-03    -406.042E+03    -47.4507E+06     3.53065E+06    -265.475E+03    -14.5285E-03     28.9633E-03    -14.4348E-03     18.8899E-03    -14.4675E-03     28.7222E-03    -14.3478E-03     18.8837E-03
             374     6.21022E-03     61.1941E-03     355.940E+03    -49.5045E+06     3.64856E+06    -393.480E+03    -14.5912E-03     29.0336E-03    -14.4423E-03     22.5513E-03    -14.5240E-03     28.7813E-03    -14.3528E-03     22.5428E-03
             375     7.09735E-03     61.2166E-03     1.58335E+06    -49.1282E+06     3.82280E+06    -150.864E+03    -14.6412E-03     29.0868E-03    -14.4456E-03     26.4834E-03    -14.5692E-03     28.8349E-03    -14.3575E-03     26.4771E-03
             376     7.98454E-03     61.2434E-03     2.23075E+06    -47.7598E+06     5.52829E+06     72.2477E+03    -14.7098E-03     29.1648E-03    -14.4551E-03     30.6531E-03    -14.6398E-03     28.9172E-03    -14.3614E-03     30.6485E-03
             377     8.87163E-03     61.2735E-03     2.28868E+06    -48.4538E+06     4.47400E+06    -553.844E+03    -14.8012E-03     29.2562E-03    -14.4550E-03     35.0540E-03    -14.7296E-03     29.0078E-03    -14.3657E-03     35.0396E-03
             378     9.75877E-03     61.3085E-03     2.95771E+06    -48.1417E+06     4.45061E+06    -652.396E+03    -14.9114E-03     29.3701E-03    -14.4587E-03     39.6191E-03    -14.8390E-03     29.1244E-03    -14.3709E-03     39.6009E-03
             379     10.6458E-03     61.3471E-03     4.09894E+06    -46.2402E+06     2.22698E+06    -881.990E+03    -15.0303E-03     29.4793E-03    -14.4490E-03     44.3056E-03    -14.9552E-03     29.2481E-03    -14.3768E-03     44.2809E-03
             380     11.5331E-03     61.3910E-03     3.65972E+06    -36.3244E+06    -99.7809E+03    -366.004E+03    -15.1602E-03     29.5903E-03    -14.4301E-03     49.4199E-03    -15.1042E-03     29.4187E-03    -14.3833E-03     49.3972E-03
             381     12.4199E-03     61.4391E-03     1.34989E+06    -29.4923E+06    -401.000E+03    -51.0657E+03    -15.3419E-03     29.7701E-03    -14.4282E-03     57.4358E-03    -15.3190E-03     29.6485E-03    -14.3894E-03     57.4108E-03
             382     13.3072E-03     61.4980E-03     768.375E+03    -30.0127E+06    -8.69114E+06    -583.883E+03    -15.6051E-03     30.0014E-03    -14.3963E-03     63.3854E-03    -15.5922E-03     29.9099E-03    -14.3974E-03     63.3461E-03
             383     14.1938E-03     61.5571E-03     742.536E+03    -12.5663E+06    -10.1599E+06    -324.137E+03    -15.7597E-03     30.1356E-03    -14.3760E-03     67.3889E-03    -15.8008E-03     30.1643E-03    -14.4096E-03     67.3501E-03
             384     15.0809E-03     61.6238E-03     1.70213E+06     29.3466E+06    -7.45653E+06     295.621E+03    -16.4602E-03     30.7938E-03    -14.3336E-03     92.2985E-03    -16.7111E-03     31.1765E-03    -14.4159E-03     92.2923E-03
             385     15.9685E-03     61.7295E-03    -46.5398E+03     60.2769E+06    -16.8208E+06    -1.11982E+06    -18.7543E-03     32.9957E-03    -14.2414E-03     143.779E-03    -19.9356E-03     34.4396E-03    -14.4128E-03     144.164E-03
             386     16.8551E-03     61.8925E-03    -2.86695E+06     113.185E+06     12.7473E+06    -1.14918E+06    -18.7238E-03     33.0418E-03    -14.3180E-03     155.522E-03    -21.0435E-03     35.7161E-03    -14.4142E-03     157.447E-03
             387     887.217E-06     62.1006E-03    -5.46235E+06    -49.3727E+06    -5.10318E+06    -489.209E+03    -14.4061E-03     28.8129E-03    -14.4068E-03     3.26600E-03    -14.3544E-03     28.5815E-03    -14.3528E-03     3.25926E-03
             388     1.77433E-03     62.1050E-03    -4.45094E+06    -48.1519E+06    -3.37323E+06    -356.990E+03    -14.4154E-03     28.8270E-03    -14.4116E-03     6.06762E-03    -14.3630E-03     28.5976E-03    -14.3522E-03     6.06222E-03
             389     2.66156E-03     62.1119E-03    -3.40243E+06    -47.0541E+06    -858.986E+03    -405.277E+03    -14.4350E-03     28.8575E-03    -14.4225E-03     9.08028E-03    -14.3827E-03     28.6285E-03    -14.3536E-03     9.07384E-03
             390     3.54866E-03     62.1220E-03    -2.49505E+06    -47.1281E+06     1.42757E+06    -748.326E+03    -14.4598E-03     28.8951E-03    -14.4353E-03     12.1986E-03    -14.4063E-03     28.6613E-03    -14.3562E-03     12.1873E-03
             391     4.43586E-03     62.1347E-03    -1.60792E+06    -47.6495E+06     2.44845E+06    -961.622E+03    -14.4853E-03     28.9273E-03    -14.4421E-03     15.4668E-03    -14.4282E-03     28.6883E-03    -14.3584E-03     15.4523E-03
             392     5.32300E-03     62.1507E-03    -332.848E+03    -47.8421E+06     3.09538E+06    -796.658E+03    -14.5232E-03     28.9683E-03    -14.4452E-03     18.9186E-03    -14.4607E-03     28.7258E-03    -14.3598E-03     18.9055E-03
             393     6.21019E-03     62.1698E-03     594.779E+03    -49.1633E+06     4.16360E+06    -506.295E+03    -14.5845E-03     29.0379E-03    -14.4534E-03     22.5737E-03    -14.5173E-03     28.7862E-03    -14.3622E-03     22.5637E-03
             394     7.09729E-03     62.1927E-03     504.541E+03    -49.7302E+06     3.91138E+06    -398.983E+03    -14.6528E-03     29.1099E-03    -14.4571E-03     26.4881E-03    -14.5854E-03     28.8564E-03    -14.3662E-03     26.4786E-03
             395     7.98443E-03     62.2189E-03     831.898E+03    -47.7962E+06     3.98590E+06    -51.1655E+03    -14.7242E-03     29.1833E-03    -14.4590E-03     30.6798E-03    -14.6589E-03     28.9397E-03    -14.3710E-03     30.6736E-03
             396     8.87153E-03     62.2498E-03     954.411E+03    -47.6643E+06     3.46020E+06    -78.4693E+03    -14.8326E-03     29.2947E-03    -14.4622E-03     35.0537E-03    -14.7674E-03     29.0537E-03    -14.3771E-03     35.0454E-03
             397     9.75860E-03     62.2840E-03     659.442E+03    -47.4704E+06     2.70901E+06    -1.22377E+06    -14.9291E-03     29.3947E-03    -14.4657E-03     39.6579E-03    -14.8666E-03     29.1583E-03    -14.3843E-03     39.6323E-03
             398     10.6457E-03     62.3236E-03     640.439E+03    -45.9211E+06    -46.4542E+03    -1.73980E+06    -15.0586E-03     29.5158E-03    -14.4573E-03     44.3465E-03    -14.9980E-03     29.2946E-03    -14.3919E-03     44.3107E-03
             399     11.5326E-03     62.3664E-03     1.03286E+06    -38.8369E+06    -2.69842E+06    -175.592E+03    -15.1848E-03     29.6261E-03    -14.4413E-03     49.4815E-03    -15.1345E-03     29.4494E-03    -14.3999E-03     49.4613E-03
             400     12.4198E-03     62.4158E-03     1.96870E+06    -28.2529E+06    -861.547E+03     685.267E+03    -15.4422E-03     29.8853E-03    -14.4431E-03     57.4818E-03    -15.4176E-03     29.7698E-03    -14.4093E-03     57.4660E-03
             401     13.3067E-03     62.4731E-03     1.32245E+06    -29.1986E+06    -8.97840E+06    -777.336E+03    -15.6015E-03     30.0161E-03    -14.4146E-03     63.4600E-03    -15.5867E-03     29.9283E-03    -14.4190E-03     63.4182E-03
             402     14.1937E-03     62.5345E-03     629.889E+03    -13.9386E+06    -12.1080E+06    -307.959E+03    -15.6703E-03     30.0553E-03    -14.3850E-03     67.8880E-03    -15.7071E-03     30.0800E-03    -14.4263E-03     67.8498E-03
             403     15.0804E-03     62.5987E-03     1.15230E+06     30.5757E+06    -9.21393E+06    -1.06727E+06    -16.5900E-03     30.9297E-03    -14.3397E-03     92.5815E-03    -16.8440E-03     31.3230E-03    -14.4317E-03     92.5576E-03
             404     15.9676E-03     62.7061E-03     3.43923E+06     60.4936E+06    -22.8656E+06    -837.246E+03    -19.4920E-03     33.7361E-03    -14.2441E-03     143.563E-03    -20.6560E-03     35.1933E-03    -14.4511E-03     143.940E-03
             405     16.8554E-03     62.8681E-03    -459.656E+03     112.712E+06     11.1573E+06     1.21139E+06    -18.6032E-03     32.9657E-03    -14.3624E-03     154.023E-03    -20.9068E-03     35.6354E-03    -14.4694E-03     155.981E-03
             406     887.119E-06     63.0766E-03    -4.02598E+06    -48.4476E+06    -3.47621E+06    -471.280E+03    -14.4449E-03     28.8721E-03    -14.4273E-03     3.27383E-03    -14.3897E-03     28.6409E-03    -14.3685E-03     3.26733E-03
             407     1.77432E-03     63.0807E-03    -3.60174E+06    -48.0185E+06    -2.56481E+06    -707.468E+03    -14.4416E-03     28.8809E-03    -14.4393E-03     6.07570E-03    -14.3863E-03     28.6498E-03    -14.3773E-03     6.06578E-03
             408     2.66143E-03     63.0879E-03    -3.03671E+06    -46.9014E+06    -1.25557E+06    -491.551E+03    -14.4422E-03     28.8837E-03    -14.4416E-03     9.09693E-03    -14.3877E-03     28.6556E-03    -14.3754E-03     9.08939E-03
             409     3.54865E-03     63.0977E-03    -2.41584E+06    -46.5016E+06     786.181E+03    -590.281E+03    -14.4552E-03     28.9026E-03    -14.4474E-03     12.2151E-03    -14.4013E-03     28.6728E-03    -14.3725E-03     12.2058E-03
             410     4.43577E-03     63.1106E-03    -1.69650E+06    -47.1597E+06     2.31687E+06    -1.01913E+06    -14.4895E-03     28.9432E-03    -14.4537E-03     15.4890E-03    -14.4334E-03     28.7069E-03    -14.3712E-03     15.4737E-03
             411     5.32297E-03     63.1264E-03    -891.066E+03    -47.6863E+06     3.50222E+06    -1.40313E+06    -14.5252E-03     28.9845E-03    -14.4593E-03     18.9332E-03    -14.4663E-03     28.7430E-03    -14.3714E-03     18.9124E-03
             412     6.21008E-03     63.1458E-03     201.953E+03    -49.8793E+06     3.48751E+06     -895.71E+03    -14.5798E-03     29.0414E-03    -14.4616E-03     22.5940E-03    -14.5126E-03     28.7878E-03    -14.3722E-03     22.5790E-03
             413     7.09728E-03     63.1684E-03     1.10617E+06    -49.9574E+06     3.00057E+06    -12.5561E+03    -14.6666E-03     29.1276E-03    -14.4609E-03     26.5149E-03    -14.5946E-03     28.8734E-03    -14.3751E-03     26.5103E-03
             414     7.98433E-03     63.1950E-03     679.467E+03    -48.3618E+06     3.16319E+06     372.059E+03    -14.7561E-03     29.2221E-03    -14.4660E-03     30.7082E-03    -14.6896E-03     28.9772E-03    -14.3810E-03     30.7074E-03
             415     8.87147E-03     63.2254E-03     118.738E+03    -47.3367E+06     2.87313E+06     582.332E+03    -14.8483E-03     29.3198E-03    -14.4715E-03     35.0963E-03    -14.7869E-03     29.0824E-03    -14.3886E-03     35.0965E-03
             416     9.75845E-03     63.2604E-03    -293.207E+03    -45.1274E+06     2.94389E+06    -639.395E+03    -14.9554E-03     29.4331E-03    -14.4777E-03     39.6656E-03    -14.9015E-03     29.2094E-03    -14.3971E-03     39.6475E-03
             417     10.6456E-03     63.2990E-03    -879.157E+03    -46.5150E+06    -421.573E+03    -1.47205E+06    -15.0799E-03     29.5527E-03    -14.4728E-03     44.3980E-03    -15.0255E-03     29.3313E-03    -14.4062E-03     44.3657E-03
             418     11.5326E-03     63.3431E-03    -925.268E+03    -39.8729E+06    -3.99053E+06    -1.31513E+06    -15.2046E-03     29.6589E-03    -14.4544E-03     49.5248E-03    -15.1608E-03     29.4819E-03    -14.4152E-03     49.4898E-03
             419     12.4197E-03     63.3908E-03     233.364E+03    -28.5871E+06    -2.01480E+06    -1.04160E+06    -15.4556E-03     29.9113E-03    -14.4558E-03     57.7746E-03    -15.4374E-03     29.7984E-03    -14.4247E-03     57.7365E-03
             420     13.3062E-03     63.4509E-03     500.463E+03    -28.3610E+06    -8.05621E+06     37.9394E+03    -15.5762E-03     30.0096E-03    -14.4335E-03     63.3713E-03    -15.5681E-03     29.9260E-03    -14.4333E-03     63.3399E-03
             421     14.1940E-03     63.5079E-03    -502.765E+03    -14.1234E+06    -12.7434E+06    -1.06178E+06    -15.5154E-03     29.9075E-03    -14.3921E-03     67.8595E-03    -15.5561E-03     29.9332E-03    -14.4346E-03     67.8122E-03
             422     15.0812E-03     63.5777E-03    -1.28830E+06     33.1047E+06    -9.71430E+06    -3.11468E+06    -17.0348E-03     31.3881E-03    -14.3533E-03     92.8359E-03    -17.3072E-03     31.8016E-03    -14.4480E-03     92.7822E-03
             423     15.9676E-03     63.6801E-03    -8.40884E+06     59.4309E+06    -27.9697E+06    -1.19013E+06    -19.1074E-03     33.3615E-03    -14.2541E-03     144.610E-03    -20.3153E-03     34.8316E-03    -14.4679E-03     144.996E-03
             424     16.8494E-03     63.8500E-03    -6.55267E+06     108.651E+06    -2.02875E+06     714.063E+03    -17.3231E-03     31.6003E-03    -14.2771E-03     157.146E-03    -19.6442E-03     34.2898E-03    -14.4353E-03     159.149E-03
             425     887.161E-06     64.0523E-03    -3.01703E+06    -47.5545E+06    -2.98137E+06    -461.459E+03    -14.4628E-03     28.9117E-03    -14.4488E-03     3.27823E-03    -14.4046E-03     28.6827E-03    -14.3904E-03     3.27186E-03
             426     1.77424E-03     64.0567E-03    -2.95793E+06    -47.6694E+06    -2.15638E+06    -506.160E+03    -14.4545E-03     28.9113E-03    -14.4567E-03     6.10035E-03    -14.3971E-03     28.6804E-03    -14.3941E-03     6.09303E-03
             427     2.66143E-03     64.0636E-03    -2.72514E+06    -47.0308E+06    -1.04631E+06    -405.911E+03    -14.4521E-03     28.9088E-03    -14.4567E-03     9.11603E-03    -14.3962E-03     28.6792E-03    -14.3897E-03     9.10959E-03
             428     3.54856E-03     64.0736E-03    -2.18784E+06    -45.9625E+06     1.01954E+06    -449.282E+03    -14.4609E-03     28.9208E-03    -14.4599E-03     12.2373E-03    -14.4069E-03     28.6930E-03    -14.3850E-03     12.2299E-03
             429     4.43577E-03     64.0863E-03    -1.48872E+06    -46.4090E+06     2.81963E+06    -901.101E+03    -14.4934E-03     28.9592E-03    -14.4658E-03     15.5032E-03    -14.4381E-03     28.7257E-03    -14.3822E-03     15.4894E-03
             430     5.32286E-03     64.1024E-03    -1.00174E+06    -47.1746E+06     3.42238E+06    -1.23295E+06    -14.5350E-03     29.0037E-03    -14.4687E-03     18.9444E-03    -14.4773E-03     28.7650E-03    -14.3818E-03     18.9258E-03
             431     6.21007E-03     64.1215E-03    -478.129E+03    -50.2080E+06     2.93263E+06    -1.50701E+06    -14.6009E-03     29.0725E-03    -14.4716E-03     22.6061E-03    -14.5358E-03     28.8190E-03    -14.3834E-03     22.5832E-03
             432     7.09714E-03     64.1444E-03     978.159E+03    -50.7080E+06     2.80301E+06    -1.20640E+06    -14.6840E-03     29.1576E-03    -14.4736E-03     26.5325E-03    -14.6112E-03     28.9001E-03    -14.3875E-03     26.5126E-03
             433     7.98432E-03     64.1708E-03     3.04633E+06    -49.6862E+06     4.55653E+06     331.655E+03    -14.7791E-03     29.2631E-03    -14.4840E-03     30.6973E-03    -14.7008E-03     29.0061E-03    -14.3936E-03     30.6959E-03
             434     8.87126E-03     64.2016E-03     3.72334E+06    -47.2798E+06     4.96298E+06     1.12724E+06    -14.8756E-03     29.3647E-03    -14.4891E-03     35.0947E-03    -14.7993E-03     29.1194E-03    -14.4011E-03     35.1019E-03
             435     9.75847E-03     64.2360E-03     2.98047E+06    -43.6414E+06     5.35073E+06     862.657E+03    -14.9815E-03     29.4769E-03    -14.4954E-03     39.6985E-03    -14.9169E-03     29.2524E-03    -14.4097E-03     39.6997E-03
             436     10.6453E-03     64.2755E-03     1.25515E+06    -45.9738E+06     1.43052E+06     51.8026E+03    -15.1018E-03     29.5927E-03    -14.4909E-03     44.3817E-03    -15.0402E-03     29.3682E-03    -14.4189E-03     44.3689E-03
             437     11.5325E-03     64.3184E-03    -327.532E+03    -39.1657E+06    -3.66623E+06    -1.06646E+06    -15.1974E-03     29.6634E-03    -14.4660E-03     49.6235E-03    -15.1521E-03     29.4885E-03    -14.4271E-03     49.5918E-03
             438     12.4191E-03     64.3680E-03    -1.68857E+06    -28.6984E+06    -3.49429E+06    -1.68010E+06    -15.3191E-03     29.7764E-03    -14.4573E-03     57.9425E-03    -15.3080E-03     29.6676E-03    -14.4307E-03     57.8966E-03
             439     13.3070E-03     64.4255E-03    -1.05485E+06    -29.5534E+06    -9.77984E+06    -1.35748E+06    -15.5933E-03     30.0235E-03    -14.4302E-03     63.6750E-03    -15.5888E-03     29.9387E-03    -14.4347E-03     63.6256E-03
             440     14.1928E-03     64.4859E-03    -697.032E+03    -11.9304E+06    -11.9557E+06    -1.08964E+06    -15.9367E-03     30.3445E-03    -14.4078E-03     67.7972E-03    -15.9842E-03     30.3819E-03    -14.4493E-03     67.7477E-03
             441     15.0805E-03     64.5507E-03    -4.47475E+06     33.2472E+06    -10.5739E+06    -819.548E+03    -16.9846E-03     31.3619E-03    -14.3772E-03     93.9141E-03    -17.2725E-03     31.7825E-03    -14.4718E-03     93.8904E-03
             442     15.9646E-03     64.6632E-03    -1.54883E+06     56.6904E+06    -20.9732E+06     97.1226E+03    -17.1785E-03     31.4336E-03    -14.2552E-03     142.078E-03    -18.2931E-03     32.8046E-03    -14.4400E-03     142.502E-03
             443     16.8646E-03     64.8131E-03     1.84416E+06     108.973E+06     10.5953E+06    -559.090E+03    -17.0708E-03     31.3203E-03    -14.2495E-03     156.392E-03    -19.3578E-03     33.9701E-03    -14.3572E-03     158.380E-03
             444     887.094E-06     65.0283E-03    -1.83134E+06    -47.1508E+06    -1.45350E+06     16.7325E+03    -14.4604E-03     28.9238E-03    -14.4633E-03     3.28435E-03    -14.3991E-03     28.6929E-03    -14.3996E-03     3.28415E-03
             445     1.77429E-03     65.0324E-03    -2.04492E+06    -47.4356E+06    -1.21463E+06    -109.583E+03    -14.4626E-03     28.9248E-03    -14.4623E-03     6.10643E-03    -14.4023E-03     28.6924E-03    -14.3966E-03     6.10423E-03
             446     2.66140E-03     65.0395E-03    -1.72842E+06    -46.9073E+06     242.049E+03    -249.975E+03    -14.4710E-03     28.9374E-03    -14.4664E-03     9.12499E-03    -14.4121E-03     28.7052E-03    -14.3947E-03     9.12056E-03
             447     3.54857E-03     65.0493E-03    -1.16032E+06    -45.8636E+06     2.08915E+06    -231.146E+03    -14.4845E-03     28.9564E-03    -14.4719E-03     12.2514E-03    -14.4271E-03     28.7260E-03    -14.3933E-03     12.2468E-03
             448     4.43566E-03     65.0623E-03    -796.890E+03    -45.5516E+06     3.36943E+06    -471.500E+03    -14.5048E-03     28.9808E-03    -14.4760E-03     15.5096E-03    -14.4481E-03     28.7498E-03    -14.3920E-03     15.5014E-03
             449     5.32289E-03     65.0781E-03    -367.905E+03    -46.8168E+06     4.07926E+06    -896.142E+03    -14.5599E-03     29.0412E-03    -14.4814E-03     18.9476E-03    -14.5005E-03     28.8025E-03    -14.3926E-03     18.9333E-03
             450     6.20993E-03     65.0975E-03    -97.9541E+03    -49.4464E+06     4.13782E+06    -1.27214E+06    -14.6398E-03     29.1294E-03    -14.4896E-03     22.6058E-03    -14.5757E-03     28.8774E-03    -14.3971E-03     22.5859E-03
             451     7.09706E-03     65.1202E-03    -221.352E+03    -50.6544E+06     2.69573E+06    -1.95635E+06    -14.7017E-03     29.1924E-03    -14.4907E-03     26.5496E-03    -14.6349E-03     28.9372E-03    -14.4035E-03     26.5200E-03
             452     7.98404E-03     65.1470E-03     575.819E+03    -51.4646E+06     1.74655E+06    -1.66637E+06    -14.7678E-03     29.2592E-03    -14.4914E-03     30.7569E-03    -14.6952E-03     29.0009E-03    -14.4089E-03     30.7298E-03
             453     8.87129E-03     65.1773E-03     2.80608E+06    -48.3586E+06     2.77666E+06     45.4547E+03    -14.8648E-03     29.3587E-03    -14.4939E-03     35.1777E-03    -14.7884E-03     29.1125E-03    -14.4140E-03     35.1710E-03
             454     9.75811E-03     65.2124E-03     4.24123E+06    -43.9783E+06     5.28061E+06     1.37375E+06    -14.9693E-03     29.4731E-03    -14.5039E-03     39.7871E-03    -14.8978E-03     29.2452E-03    -14.4198E-03     39.7950E-03
             455     10.6455E-03     65.2511E-03     4.30378E+06    -45.1934E+06     2.88770E+06     1.70011E+06    -15.0913E-03     29.5913E-03    -14.5001E-03     44.4513E-03    -15.0177E-03     29.3642E-03    -14.4263E-03     44.4599E-03
             456     11.5321E-03     65.2950E-03     2.82221E+06     -37.385E+06    -2.10382E+06     504.764E+03    -15.1437E-03     29.6138E-03    -14.4700E-03     49.7043E-03    -15.0874E-03     29.4409E-03    -14.4304E-03     49.6930E-03
             457     12.4198E-03     65.3430E-03     1.90465E+06    -27.8336E+06    -2.53456E+06    -1.00101E+06    -15.2937E-03     29.7486E-03    -14.4549E-03     57.9140E-03    -15.2672E-03     29.6375E-03    -14.4300E-03     57.8769E-03
             458     13.3063E-03     65.4024E-03     369.321E+03    -29.7686E+06    -11.2593E+06    -1.70668E+06    -15.5963E-03     30.0148E-03    -14.4186E-03     63.8377E-03    -15.5820E-03     29.9288E-03    -14.4322E-03     63.7840E-03
             459     14.1943E-03     65.4614E-03    -457.559E+03    -12.3766E+06    -13.7273E+06    -1.13353E+06    -16.1456E-03     30.5473E-03    -14.4017E-03     68.7980E-03    -16.1904E-03     30.5863E-03    -14.4517E-03     68.7471E-03
             460     15.0785E-03     65.5301E-03     340.500E+03     32.1020E+06    -10.3689E+06     1.20518E+06    -16.2411E-03     30.5997E-03    -14.3586E-03     93.9511E-03    -16.4942E-03     30.9980E-03    -14.4575E-03     93.9589E-03
             461     15.9708E-03     65.6342E-03    -141.877E+03     56.1353E+06    -24.4113E+06    -1.54061E+06    -18.1291E-03     32.3604E-03    -14.2312E-03     139.707E-03    -19.2223E-03     33.7230E-03    -14.4345E-03     140.064E-03
             462     16.8500E-03     65.7874E-03    -545.906E+03     109.066E+06     7.79250E+06    -2.74942E+06    -18.2263E-03     32.5225E-03    -14.2962E-03     155.090E-03    -20.5323E-03     35.1913E-03    -14.4146E-03     157.034E-03
             463     887.192E-06     66.0041E-03    -1.73868E+06    -47.3667E+06    -1.38800E+06     371.453E+03    -14.4634E-03     28.9180E-03    -14.4547E-03     3.28943E-03    -14.4013E-03     28.6858E-03    -14.3904E-03     3.29380E-03
             464     1.77425E-03     66.0084E-03    -952.647E+03    -47.0957E+06     623.311E+03     7.27692E+03    -14.4773E-03     28.9464E-03    -14.4691E-03     6.09485E-03    -14.4148E-03     28.7115E-03    -14.3963E-03     6.09414E-03
             465     2.66143E-03     66.0153E-03    -80.1736E+03    -46.7129E+06     1.96045E+06    -223.340E+03    -14.4911E-03     28.9681E-03    -14.4770E-03     9.11768E-03    -14.4268E-03     28.7319E-03    -14.3993E-03     9.11358E-03
             466     3.54850E-03     66.0253E-03     744.679E+03    -45.9267E+06     3.35154E+06    -212.684E+03    -14.5066E-03     28.9893E-03    -14.4827E-03     12.2480E-03    -14.4414E-03     28.7540E-03    -14.4004E-03     12.2436E-03
             467     4.43571E-03     66.0381E-03     1.51712E+06    -45.2956E+06     5.11181E+06    -51.5802E+03    -14.5453E-03     29.0366E-03    -14.4912E-03     15.5118E-03    -14.4799E-03     28.8009E-03    -14.4022E-03     15.5090E-03
             468     5.32273E-03     66.0542E-03     1.85732E+06    -46.1119E+06     6.56775E+06    -385.954E+03    -14.5983E-03     29.1017E-03    -14.5034E-03     18.9503E-03    -14.5324E-03     28.8597E-03    -14.4064E-03     18.9425E-03
             469     6.20988E-03     66.0733E-03     2.01027E+06    -49.1272E+06     5.70453E+06    -669.387E+03    -14.6563E-03     29.1652E-03    -14.5089E-03     22.6243E-03    -14.5844E-03     28.9094E-03    -14.4120E-03     22.6121E-03
             470     7.09688E-03     66.0963E-03     1.45922E+06    -49.7264E+06     3.88802E+06    -775.358E+03    -14.7087E-03     29.2153E-03    -14.5066E-03     26.5708E-03    -14.6366E-03     28.9605E-03    -14.4172E-03     26.5564E-03
             471     7.98411E-03     66.1226E-03     144.280E+03    -51.3517E+06     2.01280E+06    -1.64957E+06    -14.7577E-03     29.2627E-03    -14.5050E-03     30.8038E-03    -14.6879E-03     29.0053E-03    -14.4207E-03     30.7769E-03
             472     8.87100E-03     66.1535E-03    -479.179E+03    -50.0535E+06    -1.00233E+06    -1.67681E+06    -14.8197E-03     29.3103E-03    -14.4906E-03     35.2982E-03    -14.7517E-03     29.0658E-03    -14.4223E-03     35.2693E-03
             473     9.75839E-03     66.1881E-03     991.303E+03    -45.2827E+06     693.632E+03    -336.696E+03    -14.9187E-03     29.4099E-03    -14.4913E-03     39.9466E-03    -14.8548E-03     29.1868E-03    -14.4236E-03     39.9325E-03
             474     10.6451E-03     66.2276E-03     3.14846E+06    -45.6813E+06     1.18681E+06     629.966E+03    -15.0305E-03     29.5235E-03    -14.4930E-03     44.5468E-03    -14.9595E-03     29.2981E-03    -14.4254E-03     44.5417E-03
             475     11.5327E-03     66.2704E-03     4.61521E+06    -36.1506E+06    -591.385E+03     1.00336E+06    -15.1489E-03     29.6188E-03    -14.4699E-03     49.6998E-03    -15.0877E-03     29.4474E-03    -14.4272E-03     49.6948E-03
             476     12.4192E-03     66.3197E-03     3.59233E+06    -26.4072E+06    -423.102E+03     97.3910E+03    -15.3499E-03     29.8097E-03    -14.4598E-03     57.8774E-03    -15.3201E-03     29.7001E-03    -14.4288E-03     57.8544E-03
             477     13.3069E-03     66.3777E-03     1.87557E+06    -29.8791E+06    -9.63060E+06    -169.126E+03    -15.6284E-03     30.0545E-03    -14.4261E-03     64.0139E-03    -15.6092E-03     29.9638E-03    -14.4336E-03     63.9797E-03
             478     14.1928E-03     66.4384E-03    -1.30527E+06    -13.6045E+06    -14.0040E+06     245.191E+03    -15.5375E-03     29.9241E-03    -14.3866E-03     69.1243E-03    -15.5830E-03     29.9573E-03    -14.4350E-03     69.0935E-03
             479     15.0821E-03     66.5060E-03    -2.55603E+06     33.5568E+06    -10.4371E+06    -2.21423E+06    -15.9659E-03     30.2866E-03    -14.3207E-03     92.5794E-03    -16.2310E-03     30.6921E-03    -14.4179E-03     92.5422E-03
             480     15.9671E-03     66.6073E-03    -496.848E+03     58.1598E+06    -23.7600E+06    -2.09678E+06    -19.2011E-03     33.4125E-03    -14.2114E-03     143.008E-03    -20.3638E-03     34.8489E-03    -14.4138E-03     143.351E-03
             481     16.8550E-03     66.7743E-03    -1.27285E+06     107.392E+06     6.06329E+06    -744.878E+03    -18.6483E-03     32.9465E-03    -14.2982E-03     157.215E-03    -20.9574E-03     35.6150E-03    -14.4218E-03     159.164E-03
             482     887.083E-06     66.9800E-03    -2.29811E+06    -47.2643E+06    -2.22005E+06    -451.800E+03    -14.4840E-03     28.9357E-03    -14.4517E-03     3.28554E-03    -14.4238E-03     28.7060E-03    -14.3909E-03     3.27928E-03
             483     1.77430E-03     66.9842E-03    -1.11579E+06    -46.7592E+06     11.0642E+03    -406.816E+03    -14.4807E-03     28.9565E-03    -14.4757E-03     6.09882E-03    -14.4186E-03     28.7243E-03    -14.4063E-03     6.09277E-03
             484     2.66133E-03     66.9913E-03    -154.008E+03    -46.5786E+06     1.88330E+06    -390.986E+03    -14.5005E-03     28.9856E-03    -14.4851E-03     9.11747E-03    -14.4366E-03     28.7503E-03    -14.4079E-03     9.11120E-03
             485     3.54854E-03     67.0011E-03     784.799E+03    -45.7713E+06     3.63917E+06    -485.072E+03    -14.5301E-03     29.0245E-03    -14.4944E-03     12.2516E-03    -14.4654E-03     28.7895E-03    -14.4109E-03     12.2436E-03
             486     4.43556E-03     67.0141E-03     1.64563E+06    -45.9765E+06     5.01850E+06    -50.2754E+03    -14.5699E-03     29.0746E-03    -14.5047E-03     15.5237E-03    -14.5028E-03     28.8355E-03    -14.4153E-03     15.5209E-03
             487     5.32272E-03     67.0301E-03     2.19330E+06    -45.3456E+06     6.02974E+06     173.743E+03    -14.6032E-03     29.1155E-03    -14.5124E-03     18.9880E-03    -14.5359E-03     28.8776E-03    -14.4197E-03     18.9874E-03
             488     6.20972E-03     67.0494E-03     2.48352E+06    -48.8728E+06     5.90362E+06    -372.300E+03    -14.6497E-03     29.1695E-03    -14.5198E-03     22.6571E-03    -14.5761E-03     28.9140E-03    -14.4230E-03     22.6488E-03
             489     7.09695E-03     67.0721E-03     2.94320E+06    -49.9525E+06     4.04415E+06    -112.084E+03    -14.7014E-03     29.2151E-03    -14.5136E-03     26.6046E-03    -14.6217E-03     28.9568E-03    -14.4253E-03     26.5988E-03
             490     7.98385E-03     67.0989E-03     2.62867E+06    -50.0824E+06     3.37494E+06    -37.1219E+03    -14.7518E-03     29.2636E-03    -14.5119E-03     30.8013E-03    -14.6733E-03     29.0069E-03    -14.4262E-03     30.7952E-03
             491     8.87124E-03     67.1291E-03     1.72443E+06    -49.5178E+06     337.046E+03    -1.35668E+06    -14.8045E-03     29.3008E-03    -14.4963E-03     35.3133E-03    -14.7282E-03     29.0539E-03    -14.4253E-03     35.2886E-03
             492     9.75806E-03     67.1644E-03     1.47423E+06    -46.2502E+06    -1.23288E+06    -2.09260E+06    -14.8638E-03     29.3450E-03    -14.4812E-03     40.0114E-03    -14.7933E-03     29.1191E-03    -14.4225E-03     39.9748E-03
             493     10.6457E-03     67.2032E-03     2.25117E+06    -46.6337E+06    -1.23471E+06    -1.26534E+06    -15.0065E-03     29.4853E-03    -14.4788E-03     44.5997E-03    -14.9350E-03     29.2599E-03    -14.4206E-03     44.5702E-03
             494     11.5322E-03     67.2469E-03     2.79687E+06    -37.1852E+06    -2.48892E+06    -93.0821E+03    -15.1352E-03     29.5940E-03    -14.4588E-03     49.7917E-03    -15.0788E-03     29.4228E-03    -14.4214E-03     49.7727E-03
             495     12.4198E-03     67.2953E-03     2.59243E+06    -26.2471E+06    -457.023E+03     1.61109E+06    -15.3246E-03     29.7788E-03    -14.4542E-03     58.0344E-03    -15.3001E-03     29.6716E-03    -14.4222E-03     58.0309E-03
             496     13.3062E-03     67.3541E-03     377.615E+03    -29.5944E+06    -9.44317E+06     1.42040E+06    -15.4963E-03     29.9135E-03    -14.4173E-03     64.4180E-03    -15.4856E-03     29.8265E-03    -14.4221E-03     64.4046E-03
             497     14.1942E-03     67.4144E-03     166.013E+03    -13.2870E+06    -13.2555E+06     413.867E+03    -15.2266E-03     29.5900E-03    -14.3634E-03     68.6500E-03    -15.2649E-03     29.6202E-03    -14.4107E-03     68.6226E-03
             498     15.0812E-03     67.4798E-03    -1.73598E+06     36.7727E+06    -9.48671E+06     105.373E+03    -15.9771E-03     30.2646E-03    -14.2875E-03     92.7328E-03    -16.2493E-03     30.6887E-03    -14.3857E-03     92.7262E-03
             499     15.9694E-03     67.5867E-03    -7.02421E+06     58.9740E+06    -26.2659E+06    -3.89076E+06    -18.4012E-03     32.5564E-03    -14.1552E-03     143.717E-03    -19.5975E-03     34.0133E-03    -14.3619E-03     144.074E-03
             500     16.8582E-03     67.7455E-03    -3.85308E+06     105.170E+06    -1.08430E+06    -4.08077E+06    -18.6644E-03     32.8666E-03    -14.2023E-03     155.353E-03    -20.9335E-03     35.4986E-03    -14.3546E-03     157.210E-03
             501     887.151E-06     67.9559E-03    -2.04093E+06    -46.3101E+06    -2.02057E+06    -672.618E+03    -14.4853E-03     28.9679E-03    -14.4826E-03     3.28929E-03    -14.4254E-03     28.7423E-03    -14.4226E-03     3.28018E-03
             502     1.77417E-03     67.9602E-03    -2.22880E+06    -46.5715E+06    -1.38747E+06    -707.424E+03    -14.4842E-03     28.9691E-03    -14.4849E-03     6.10807E-03    -14.4259E-03     28.7415E-03    -14.4210E-03     6.09814E-03
             503     2.66142E-03     67.9672E-03    -1.44551E+06    -46.2668E+06     644.970E+03    -720.887E+03    -14.5084E-03     29.0016E-03    -14.4932E-03     9.13385E-03    -14.4496E-03     28.7716E-03    -14.4208E-03     9.12332E-03
             504     3.54839E-03     67.9772E-03    -659.731E+03    -45.9082E+06     2.73612E+06    -480.465E+03    -14.5415E-03     29.0470E-03    -14.5055E-03     12.2732E-03    -14.4825E-03     28.8147E-03    -14.4243E-03     12.2653E-03
             505     4.43557E-03     67.9900E-03     66.8328E+03    -46.4208E+06     3.48786E+06    -232.627E+03    -14.5598E-03     29.0718E-03    -14.5120E-03     15.5526E-03    -14.4977E-03     28.8350E-03    -14.4274E-03     15.5474E-03
             506     5.32260E-03     68.0061E-03     1.03974E+06    -45.3907E+06     3.75646E+06    -21.6008E+03    -14.5820E-03     29.0928E-03    -14.5108E-03     19.0273E-03    -14.5171E-03     28.8596E-03    -14.4277E-03     19.0243E-03
             507     6.20983E-03     68.0253E-03     1.96303E+06    -47.7714E+06     5.02858E+06    -433.202E+03    -14.6394E-03     29.1588E-03    -14.5194E-03     22.6987E-03    -14.5687E-03     28.9109E-03    -14.4279E-03     22.6896E-03
             508     7.09674E-03     68.0481E-03     2.77516E+06    -50.7896E+06     3.62247E+06    -813.243E+03    -14.6965E-03     29.2129E-03    -14.5164E-03     26.6211E-03    -14.6159E-03     28.9513E-03    -14.4287E-03     26.6062E-03
             509     7.98413E-03     68.0746E-03     4.24365E+06    -49.6727E+06     2.98079E+06    -452.868E+03    -14.7522E-03     29.2614E-03    -14.5092E-03     30.8123E-03    -14.6657E-03     29.0050E-03    -14.4284E-03     30.8008E-03
             510     8.87091E-03     68.1053E-03     5.32449E+06    -47.6510E+06     3.58076E+06    -1.15906E+06    -14.8017E-03     29.3073E-03    -14.5056E-03     35.2608E-03    -14.7148E-03     29.0598E-03    -14.4264E-03     35.2385E-03
             511     9.75846E-03     68.1399E-03     4.74888E+06    -46.4269E+06     2.01780E+06    -1.58638E+06    -14.8530E-03     29.3453E-03    -14.4924E-03     39.9600E-03    -14.7705E-03     29.1091E-03    -14.4219E-03     39.9299E-03
             512     10.6452E-03     68.1793E-03     3.22935E+06    -47.3114E+06    -565.230E+03    -1.33340E+06    -14.9754E-03     29.4542E-03    -14.4787E-03     44.6452E-03    -14.8991E-03     29.2230E-03    -14.4176E-03     44.6149E-03
             513     11.5328E-03     68.2226E-03     2.84366E+06    -38.1488E+06    -1.17090E+06    -907.656E+03    -15.0742E-03     29.5345E-03    -14.4603E-03     49.7567E-03    -15.0181E-03     29.3564E-03    -14.4149E-03     49.7271E-03
             514     12.4195E-03     68.2713E-03     3.67908E+06    -29.4937E+06     225.753E+03     1.13502E+06    -15.2487E-03     29.6983E-03    -14.4496E-03     58.0293E-03    -15.2151E-03     29.5724E-03    -14.4111E-03     58.0198E-03
             515     13.3073E-03     68.3301E-03     4.89328E+06    -27.6189E+06    -6.30420E+06     2.24188E+06    -15.3266E-03     29.7312E-03    -14.4046E-03     64.0916E-03    -15.3002E-03     29.6424E-03    -14.4032E-03     64.0894E-03
             516     14.1942E-03     68.3896E-03     2.82567E+06    -12.4280E+06    -11.3334E+06     809.593E+03    -15.2755E-03     29.6218E-03    -14.3463E-03     68.1392E-03    -15.3040E-03     29.6491E-03    -14.3890E-03     68.1169E-03
             517     15.0819E-03     68.4561E-03     1.04927E+06     33.9937E+06    -9.30615E+06     2.78084E+06    -16.0144E-03     30.2850E-03    -14.2706E-03     92.4654E-03    -16.2692E-03     30.6912E-03    -14.3679E-03     92.4949E-03
             518     15.9699E-03     68.5606E-03    -929.832E+03     68.0066E+06    -21.0856E+06     1.09419E+06    -18.6702E-03     32.8223E-03    -14.1521E-03     142.676E-03    -19.8439E-03     34.2953E-03    -14.3548E-03     143.086E-03
             519     16.8549E-03     68.7232E-03    -7.09820E+06     106.040E+06    -1.77452E+06    -6.72328E+06    -18.9409E-03     33.1541E-03    -14.2132E-03     154.963E-03    -21.2317E-03     35.8013E-03    -14.3655E-03     156.798E-03
             520     887.061E-06     68.9318E-03    -3.47470E+06    -45.7274E+06    -2.74366E+06    -44.4198E+03    -14.4752E-03     28.9720E-03    -14.4968E-03     3.30632E-03    -14.4223E-03     28.7525E-03    -14.4392E-03     3.30533E-03
             521     1.77427E-03     68.9361E-03    -3.13201E+06    -45.9590E+06    -1.53691E+06    -389.158E+03    -14.5052E-03     29.0004E-03    -14.4951E-03     6.12054E-03    -14.4521E-03     28.7774E-03    -14.4316E-03     6.11472E-03
             522     2.66123E-03     68.9431E-03    -2.82735E+06    -45.9999E+06    -355.903E+03    -692.819E+03    -14.5166E-03     29.0209E-03    -14.5043E-03     9.15641E-03    -14.4637E-03     28.7957E-03    -14.4353E-03     9.14626E-03
             523     3.54845E-03     68.9531E-03    -1.94820E+06    -46.0669E+06     1.24982E+06    -607.533E+03    -14.5241E-03     29.0355E-03    -14.5114E-03     12.3000E-03    -14.4691E-03     28.8064E-03    -14.4356E-03     12.2905E-03
             524     4.43547E-03     68.9660E-03    -671.552E+03    -46.2485E+06     2.66382E+06    -674.288E+03    -14.5477E-03     29.0629E-03    -14.5153E-03     15.5752E-03    -14.4883E-03     28.8293E-03    -14.4339E-03     15.5644E-03
             525     5.32267E-03     68.9820E-03     510.758E+03    -45.6033E+06     3.24610E+06    -717.820E+03    -14.5743E-03     29.0878E-03    -14.5134E-03     19.0450E-03    -14.5111E-03     28.8550E-03    -14.4318E-03     19.0330E-03
             526     6.20968E-03     69.0013E-03     1.46846E+06    -46.8303E+06     4.05066E+06    -889.720E+03    -14.6213E-03     29.1372E-03    -14.5159E-03     22.7255E-03    -14.5530E-03     28.8961E-03    -14.4298E-03     22.7105E-03
             527     7.09697E-03     69.0241E-03     2.51999E+06    -50.0777E+06     4.41626E+06    -1.76834E+06    -14.7025E-03     29.2234E-03    -14.5209E-03     26.6287E-03    -14.6253E-03     28.9646E-03    -14.4299E-03     26.6014E-03
             528     7.98377E-03     69.0506E-03     4.03798E+06    -49.5726E+06     3.90829E+06    -2.65168E+06    -14.7577E-03     29.2738E-03    -14.5161E-03     30.8242E-03    -14.6737E-03     29.0168E-03    -14.4305E-03     30.7843E-03
             529     8.87126E-03     69.0812E-03     5.64723E+06    -47.2094E+06     5.45698E+06    -2.16141E+06    -14.8120E-03     29.3289E-03    -14.5169E-03     35.2112E-03    -14.7269E-03     29.0804E-03    -14.4293E-03     35.1760E-03
             530     9.75802E-03     69.1158E-03     6.38242E+06    -47.3841E+06     5.60015E+06    -997.766E+03    -14.8694E-03     29.3826E-03    -14.5133E-03     39.8213E-03    -14.7826E-03     29.1341E-03    -14.4258E-03     39.7987E-03
             531     10.6456E-03     69.1552E-03     6.28956E+06    -46.9302E+06     1.67023E+06    -522.621E+03    -14.9543E-03     29.4423E-03    -14.4879E-03     44.5688E-03    -14.8665E-03     29.2053E-03    -14.4207E-03     44.5489E-03
             532     11.5324E-03     69.1985E-03     5.26081E+06    -38.6304E+06     577.558E+03    -630.505E+03    -15.0617E-03     29.5288E-03    -14.4671E-03     49.5880E-03    -14.9954E-03     29.3423E-03    -14.4158E-03     49.5620E-03
             533     12.4200E-03     69.2472E-03     5.65844E+06    -31.0450E+06     1.95517E+06    -894.695E+03    -15.2209E-03     29.6776E-03    -14.4567E-03     57.7823E-03    -15.1776E-03     29.5386E-03    -14.4102E-03     57.7466E-03
             534     13.3067E-03     69.3057E-03     7.22625E+06    -29.0266E+06    -3.52779E+06     437.798E+03    -15.3491E-03     29.7654E-03    -14.4162E-03     63.6263E-03    -15.3128E-03     29.6618E-03    -14.4023E-03     63.6008E-03
             535     14.1945E-03     69.3655E-03     8.81719E+06    -10.9829E+06    -4.63629E+06     1.65277E+06    -15.3028E-03     29.6728E-03    -14.3700E-03     67.4790E-03    -15.3128E-03     29.6885E-03    -14.3900E-03     67.4674E-03
             536     15.0819E-03     69.4313E-03     8.85556E+06     28.2870E+06    -5.17995E+06     3.34102E+06    -16.2735E-03     30.5701E-03    -14.2966E-03     92.1549E-03    -16.4870E-03     30.9304E-03    -14.3763E-03     92.1891E-03
             537     15.9682E-03     69.5373E-03     7.84208E+06     75.1286E+06    -14.4072E+06     3.73563E+06    -19.0449E-03     33.2296E-03    -14.1847E-03     143.485E-03    -20.2093E-03     34.7304E-03    -14.3771E-03     143.923E-03
             538     16.8565E-03     69.7000E-03     9.72235E+06     114.385E+06     6.27709E+06    -1.36720E+06    -18.6979E-03     32.9343E-03    -14.2364E-03     155.790E-03    -20.9430E-03     35.6017E-03    -14.3849E-03     157.717E-03
             539     887.163E-06     69.9077E-03    -5.27466E+06    -45.6368E+06    -4.73626E+06     48.1958E+03    -14.4980E-03     28.9785E-03    -14.4805E-03     3.31061E-03    -14.4513E-03     28.7650E-03    -14.4304E-03     3.31081E-03
             540     1.77414E-03     69.9120E-03    -4.56095E+06    -45.5324E+06    -3.05397E+06    -92.4206E+03    -14.5066E-03     29.0051E-03    -14.4985E-03     6.13684E-03    -14.4590E-03     28.7886E-03    -14.4411E-03     6.13486E-03
             541     2.66132E-03     69.9192E-03    -3.92682E+06    -45.5420E+06    -1.40005E+06    -304.750E+03    -14.5114E-03     29.0189E-03    -14.5075E-03     9.17490E-03    -14.4631E-03     28.7990E-03    -14.4427E-03     9.16977E-03
             542     3.54833E-03     69.9290E-03    -2.99686E+06    -45.3477E+06     408.881E+03    -1.12380E+06    -14.5154E-03     29.0281E-03    -14.5127E-03     12.3235E-03    -14.4655E-03     28.8054E-03    -14.4406E-03     12.3073E-03
             543     4.43556E-03     69.9420E-03    -1.42799E+06    -45.8877E+06     2.14464E+06    -1.59583E+06    -14.5414E-03     29.0580E-03    -14.5166E-03     15.5966E-03    -14.4856E-03     28.8280E-03    -14.4373E-03     15.5738E-03
             544     5.32256E-03     69.9579E-03    -37.0214E+03    -45.7656E+06     3.41072E+06    -1.33958E+06    -14.5759E-03     29.0940E-03    -14.5181E-03     19.0449E-03    -14.5154E-03     28.8610E-03    -14.4347E-03     19.0249E-03
             545     6.20981E-03     69.9772E-03     841.871E+03    -46.2112E+06     3.97144E+06    -1.32288E+06    -14.6217E-03     29.1402E-03    -14.5185E-03     22.7238E-03    -14.5573E-03     28.9033E-03    -14.4329E-03     22.7033E-03
             546     7.09674E-03     70.0000E-03     1.51985E+06    -48.0899E+06     4.23033E+06    -2.48504E+06    -14.6927E-03     29.2140E-03    -14.5214E-03     26.6333E-03    -14.6231E-03     28.9669E-03    -14.4327E-03     26.5969E-03
             547     7.98409E-03     70.0266E-03     1.84994E+06    -48.6515E+06     4.17331E+06    -3.62228E+06    -14.7716E-03     29.2947E-03    -14.5231E-03     30.7934E-03    -14.7003E-03     29.0452E-03    -14.4344E-03     30.7409E-03
             548     8.87085E-03     70.0570E-03     1.77761E+06    -48.8496E+06     3.54527E+06    -2.88014E+06    -14.8382E-03     29.3603E-03    -14.5221E-03     35.1757E-03    -14.7674E-03     29.1121E-03    -14.4362E-03     35.1312E-03
             549     9.75827E-03     70.0920E-03     2.52402E+06    -47.5254E+06     4.32457E+06    -2.09972E+06    -14.9136E-03     29.4373E-03    -14.5237E-03     39.7144E-03    -14.8442E-03     29.1956E-03    -14.4368E-03     39.6774E-03
             550     10.6451E-03     70.1307E-03     4.04546E+06    -47.7755E+06     935.157E+03    -1.59364E+06    -15.0145E-03     29.5191E-03    -14.5046E-03     44.3710E-03    -14.9357E-03     29.2823E-03    -14.4365E-03     44.3371E-03
             551     11.5326E-03     70.1748E-03     5.13424E+06    -38.7114E+06     676.371E+03    -522.084E+03    -15.1341E-03     29.6225E-03    -14.4884E-03     49.3048E-03    -15.0685E-03     29.4358E-03    -14.4363E-03     49.2799E-03
             552     12.4194E-03     70.2227E-03     4.63340E+06    -29.6537E+06     1.86520E+06    -1.55422E+06    -15.2951E-03     29.7764E-03    -14.4813E-03     57.1894E-03    -15.2592E-03     29.6462E-03    -14.4357E-03     57.1447E-03
             553     13.3070E-03     70.2820E-03     4.66336E+06    -31.2048E+06    -6.14635E+06    -1.94007E+06    -15.4943E-03     29.9371E-03    -14.4428E-03     63.0932E-03    -15.4641E-03     29.8305E-03    -14.4350E-03     63.0363E-03
             554     14.1937E-03     70.3409E-03     6.21553E+06    -10.8568E+06    -5.21921E+06    -1.54347E+06    -15.5795E-03     29.9962E-03    -14.4167E-03     66.5133E-03    -15.6027E-03     30.0181E-03    -14.4361E-03     66.4589E-03
             555     15.0811E-03     70.4073E-03     12.5408E+06     23.5536E+06    -1.54583E+06    -329.934E+03    -16.4533E-03     30.8288E-03    -14.3755E-03     91.1244E-03    -16.6505E-03     31.1586E-03    -14.4356E-03     91.1091E-03
             556     15.9693E-03     70.5133E-03     15.2619E+06     74.7677E+06    -4.20897E+06     3.02731E+06    -18.5378E-03     32.8129E-03    -14.2751E-03     142.666E-03    -19.6829E-03     34.2898E-03    -14.4267E-03     143.104E-03
             557     16.8545E-03     70.6767E-03     5.89701E+06     120.527E+06     9.90833E+06     5.31860E+06    -19.3402E-03     33.6470E-03    -14.3067E-03     154.211E-03    -21.6332E-03     36.3599E-03    -14.4405E-03     156.209E-03
             558     887.023E-06     70.8837E-03    -6.10949E+06    -45.4756E+06    -5.83240E+06    -249.540E+03    -14.5175E-03     28.9984E-03    -14.4809E-03     3.31669E-03    -14.4736E-03     28.7884E-03    -14.4352E-03     3.31305E-03
             559     1.77421E-03     70.8880E-03    -5.44523E+06    -45.3166E+06    -4.34727E+06    -258.856E+03    -14.4922E-03     28.9937E-03    -14.5015E-03     6.14548E-03    -14.4475E-03     28.7814E-03    -14.4497E-03     6.14136E-03
             560     2.66125E-03     70.8950E-03    -4.15362E+06    -44.8677E+06    -2.05584E+06    -667.307E+03    -14.5025E-03     29.0080E-03    -14.5054E-03     9.17631E-03    -14.4554E-03     28.7928E-03    -14.4446E-03     9.16650E-03
             561     3.54844E-03     70.9051E-03    -2.98494E+06    -43.9826E+06     305.086E+03    -1.30695E+06    -14.5214E-03     29.0327E-03    -14.5113E-03     12.3251E-03    -14.4733E-03     28.8170E-03    -14.4417E-03     12.3066E-03
             562     4.43543E-03     70.9178E-03    -2.37783E+06    -45.2073E+06     1.97402E+06    -2.03083E+06    -14.5453E-03     29.0640E-03    -14.5188E-03     15.6032E-03    -14.4949E-03     28.8390E-03    -14.4399E-03     15.5748E-03
             563     5.32266E-03     70.9339E-03    -1.32002E+06    -45.9613E+06     3.01554E+06    -2.03962E+06    -14.5859E-03     29.1084E-03    -14.5226E-03     19.0448E-03    -14.5309E-03     28.8769E-03    -14.4389E-03     19.0157E-03
             564     6.20962E-03     70.9531E-03     163.406E+03    -45.5943E+06     3.93984E+06    -2.00205E+06    -14.6391E-03     29.1639E-03    -14.5248E-03     22.7149E-03    -14.5789E-03     28.9310E-03    -14.4392E-03     22.6855E-03
             565     7.09688E-03     70.9761E-03     1.13360E+06    -46.1016E+06     4.60879E+06    -2.72148E+06    -14.7055E-03     29.2345E-03    -14.5290E-03     26.6042E-03    -14.6413E-03     28.9973E-03    -14.4408E-03     26.5646E-03
             566     7.98375E-03     71.0025E-03     715.784E+03    -48.6959E+06     4.23223E+06    -2.58922E+06    -14.8001E-03     29.3353E-03    -14.5352E-03     30.7218E-03    -14.7345E-03     29.0871E-03    -14.4445E-03     30.6826E-03
             567     8.87105E-03     71.0333E-03    -108.316E+03    -49.0194E+06     2.56552E+06    -2.45268E+06    -14.9130E-03     29.4482E-03    -14.5352E-03     35.0551E-03    -14.8500E-03     29.2034E-03    -14.4512E-03     35.0159E-03
             568     9.75785E-03     71.0676E-03    -344.321E+03    -47.4295E+06     2.30455E+06    -2.76063E+06    -15.0269E-03     29.5678E-03    -14.5409E-03     39.5603E-03    -14.9692E-03     29.3338E-03    -14.4601E-03     39.5145E-03
             569     10.6450E-03     71.1073E-03    -561.024E+03    -48.1492E+06    -774.991E+03    -2.64052E+06    -15.1711E-03     29.7086E-03    -14.5375E-03     44.1392E-03    -15.1125E-03     29.4793E-03    -14.4707E-03     44.0913E-03
             570     11.5317E-03     71.1501E-03    -163.736E+03    -40.0299E+06    -2.89745E+06    -2.07323E+06    -15.3098E-03     29.8363E-03    -14.5265E-03     49.0841E-03    -15.2639E-03     29.6561E-03    -14.4827E-03     49.0387E-03
             571     12.4188E-03     71.1998E-03     696.301E+03    -27.6864E+06    -106.917E+03    -1.47659E+06    -15.6069E-03     30.1437E-03    -14.5368E-03     56.6925E-03    -15.5914E-03     30.0326E-03    -14.4982E-03     56.6477E-03
             572     13.3054E-03     71.2567E-03     634.288E+03    -31.0267E+06    -9.15646E+06    -3.19556E+06    -15.7291E-03     30.2417E-03    -14.5127E-03     62.2327E-03    -15.7156E-03     30.1470E-03    -14.5144E-03     62.1584E-03
             573     14.1925E-03     71.3186E-03    -39.7707E+03    -11.1114E+06    -11.2345E+06    -3.12567E+06    -15.9200E-03     30.4109E-03    -14.4908E-03     66.2085E-03    -15.9666E-03     30.4505E-03    -14.5308E-03     66.1323E-03
             574     15.0787E-03     71.3821E-03    -2.48288E+06     24.5364E+06    -12.2186E+06    -5.08827E+06    -16.8098E-03     31.2665E-03    -14.4567E-03     90.2514E-03    -17.0718E-03     31.6422E-03    -14.5497E-03     90.1729E-03
             575     15.9648E-03     71.4901E-03    -827.812E+03     65.0975E+06    -22.1748E+06    -1.32640E+06    -19.9218E-03     34.3100E-03    -14.3882E-03     140.225E-03    -21.1267E-03     35.8072E-03    -14.5923E-03     140.580E-03
             576     16.8561E-03     71.6497E-03    -9.51425E+06     119.585E+06     3.24438E+06     7.77225E+06    -18.8619E-03     33.3556E-03    -14.4936E-03     151.201E-03    -21.2205E-03     36.0955E-03    -14.6370E-03     153.223E-03
             577     887.116E-06     71.8597E-03    -5.94832E+06    -44.9234E+06    -5.41770E+06    -395.865E+03    -14.5029E-03     29.0073E-03    -14.5044E-03     3.31092E-03    -14.4596E-03     28.7993E-03    -14.4578E-03     3.30538E-03
             578     1.77414E-03     71.8639E-03    -5.01116E+06    -44.8722E+06    -3.78780E+06    -677.558E+03    -14.5000E-03     29.0079E-03    -14.5079E-03     6.13948E-03    -14.4546E-03     28.7964E-03    -14.4545E-03     6.12994E-03
             579     2.66130E-03     71.8711E-03    -4.25567E+06    -43.9138E+06    -2.16871E+06    -1.09964E+06    -14.5025E-03     29.0110E-03    -14.5085E-03     9.16688E-03    -14.4571E-03     28.8009E-03    -14.4495E-03     9.15147E-03
             580     3.54833E-03     71.8809E-03    -3.43848E+06    -43.1512E+06    -384.353E+03    -1.44681E+06    -14.5194E-03     29.0307E-03    -14.5113E-03     12.3122E-03    -14.4737E-03     28.8208E-03    -14.4457E-03     12.2919E-03
             581     4.43554E-03     71.8939E-03    -2.56229E+06    -44.1518E+06     1.96243E+06    -1.71907E+06    -14.5616E-03     29.0840E-03    -14.5224E-03     15.5869E-03    -14.5137E-03     28.8646E-03    -14.4448E-03     15.5625E-03
             582     5.32249E-03     71.9098E-03    -2.03203E+06    -45.5834E+06     2.71784E+06    -2.27945E+06    -14.6101E-03     29.1397E-03    -14.5295E-03     19.0332E-03    -14.5588E-03     28.9115E-03    -14.4469E-03     19.0010E-03
             583     6.20970E-03     71.9293E-03    -1.35607E+06    -44.7478E+06     2.30048E+06    -2.75400E+06    -14.6633E-03     29.1920E-03    -14.5287E-03     22.7051E-03    -14.6096E-03     28.9680E-03    -14.4503E-03     22.6660E-03
             584     7.09660E-03     71.9520E-03    -1.01104E+06    -45.7376E+06     2.63387E+06    -2.48024E+06    -14.7493E-03     29.2859E-03    -14.5366E-03     26.5851E-03    -14.6935E-03     29.0565E-03    -14.4556E-03     26.5485E-03
             585     7.98381E-03     71.9787E-03    -727.336E+03    -49.1838E+06     3.83064E+06    -1.86281E+06    -14.8738E-03     29.4304E-03    -14.5565E-03     30.6674E-03    -14.8142E-03     29.1825E-03    -14.4650E-03     30.6375E-03
             586     8.87059E-03     72.0091E-03    -201.953E+03    -47.9665E+06     2.56547E+06    -2.05309E+06    -15.0227E-03     29.5846E-03    -14.5619E-03     34.9894E-03    -14.9617E-03     29.3452E-03    -14.4793E-03     34.9552E-03
             587     9.75754E-03     72.0443E-03    -243.197E+03    -47.2643E+06     1.19044E+06    -2.35437E+06    -15.1711E-03     29.7431E-03    -14.5721E-03     39.4827E-03    -15.1116E-03     29.5115E-03    -14.4972E-03     39.4419E-03
             588     10.6443E-03     72.0828E-03    -821.905E+03    -48.2695E+06    -2.48513E+06    -2.03285E+06    -15.3343E-03     29.9106E-03    -14.5763E-03     44.1318E-03    -15.2745E-03     29.6837E-03    -14.5175E-03     44.0915E-03
             589     11.5311E-03     72.1273E-03    -1.75424E+06    -39.5198E+06    -6.30531E+06    -2.56316E+06    -15.5291E-03     30.0980E-03    -14.5689E-03     49.2009E-03    -15.4872E-03     29.9279E-03    -14.5405E-03     49.1488E-03
             590     12.4177E-03     72.1750E-03    -1.20753E+06    -28.1882E+06    -4.17934E+06    -2.98643E+06    -15.8672E-03     30.4574E-03    -14.5903E-03     57.2465E-03    -15.8547E-03     30.3528E-03    -14.5685E-03     57.1819E-03
             591     13.3037E-03     72.2354E-03    -1.24899E+06    -28.5862E+06    -11.1189E+06    -2.86363E+06    -16.0009E-03     30.5859E-03    -14.5850E-03     62.5044E-03    -15.9981E-03     30.5094E-03    -14.5973E-03     62.4338E-03
             592     14.1909E-03     72.2917E-03    -2.81980E+06    -14.0052E+06    -16.0442E+06    -2.65957E+06    -15.8921E-03     30.4516E-03    -14.5594E-03     67.4243E-03    -15.9408E-03     30.4870E-03    -14.6152E-03     67.3549E-03
             593     15.0770E-03     72.3633E-03    -7.48189E+06     32.4978E+06    -15.2033E+06    -3.98379E+06    -17.6798E-03     32.2184E-03    -14.5386E-03     91.8849E-03    -17.9802E-03     32.6517E-03    -14.6508E-03     91.8156E-03
             594     15.9645E-03     72.4618E-03    -21.1029E+06     57.4779E+06    -33.8151E+06    -2.08176E+06    -20.0204E-03     34.5039E-03    -14.4835E-03     144.942E-03    -21.2928E-03     36.0028E-03    -14.7053E-03     145.306E-03
             595     16.8360E-03     72.6392E-03    -8.95194E+06     107.021E+06    -6.33098E+06     4.05474E+06    -14.5833E-03     29.0238E-03    -14.4405E-03     157.216E-03    -16.8636E-03     31.6708E-03    -14.6144E-03     159.303E-03
             596     887.063E-06     72.8356E-03    -5.25723E+06    -43.9899E+06    -4.86526E+06    -519.709E+03    -14.5008E-03     29.0176E-03    -14.5167E-03     3.31095E-03    -14.4563E-03     28.8124E-03    -14.4697E-03     3.30381E-03
             597     1.77418E-03     72.8400E-03    -4.77143E+06    -44.2058E+06    -3.34465E+06    -851.608E+03    -14.5108E-03     29.0253E-03    -14.5145E-03     6.12584E-03    -14.4658E-03     28.8161E-03    -14.4602E-03     6.11405E-03
             598     2.66121E-03     72.8470E-03    -4.05260E+06    -43.0894E+06    -1.78706E+06    -1.04849E+06    -14.5137E-03     29.0305E-03    -14.5167E-03     9.16245E-03    -14.4691E-03     28.8236E-03    -14.4573E-03     9.14769E-03
             599     3.54838E-03     72.8570E-03    -3.33733E+06    -42.3044E+06    -31.3320E+03    -1.51620E+06    -14.5359E-03     29.0571E-03    -14.5212E-03     12.3045E-03    -14.4914E-03     28.8507E-03    -14.4552E-03     12.2832E-03
             600     4.43538E-03     72.8698E-03    -2.41022E+06    -43.5607E+06     1.42066E+06    -1.81679E+06    -14.5774E-03     29.1070E-03    -14.5295E-03     15.5795E-03    -14.5289E-03     28.8911E-03    -14.4558E-03     15.5538E-03
             601     5.32254E-03     72.8860E-03    -1.46441E+06    -44.4726E+06     2.46152E+06    -2.09354E+06    -14.6376E-03     29.1760E-03    -14.5383E-03     19.0295E-03    -14.5848E-03     28.9529E-03    -14.4594E-03     18.9996E-03
             602     6.20947E-03     72.9051E-03    -1.61287E+06    -44.4337E+06     2.04952E+06    -2.17360E+06    -14.7109E-03     29.2542E-03    -14.5433E-03     22.7018E-03    -14.6586E-03     29.0325E-03    -14.4663E-03     22.6701E-03
             603     7.09662E-03     72.9282E-03    -2.15272E+06    -45.9859E+06     1.36500E+06    -1.83160E+06    -14.8155E-03     29.3691E-03    -14.5536E-03     26.5919E-03    -14.7633E-03     29.1420E-03    -14.4770E-03     26.5637E-03
             604     7.98339E-03     72.9546E-03    -1.89022E+06    -48.8383E+06     1.93428E+06    -2.09242E+06    -14.9509E-03     29.5264E-03    -14.5755E-03     30.7349E-03    -14.8949E-03     29.2847E-03    -14.4923E-03     30.7020E-03
             605     8.87033E-03     72.9857E-03    -1.22752E+06    -47.2972E+06     804.726E+03    -2.43134E+06    -15.0852E-03     29.6706E-03    -14.5854E-03     35.1420E-03    -15.0278E-03     29.4386E-03    -14.5110E-03     35.1028E-03
             606     9.75715E-03     73.0201E-03    -658.751E+03    -47.3089E+06    -104.591E+03    -2.23347E+06    -15.2440E-03     29.8451E-03    -14.6011E-03     39.7224E-03    -15.1847E-03     29.6158E-03    -14.5321E-03     39.6832E-03
             607     10.6438E-03     73.0600E-03    -340.080E+03    -48.3969E+06    -3.48438E+06    -2.00607E+06    -15.4116E-03     30.0199E-03    -14.6083E-03     44.4590E-03    -15.3478E-03     29.7931E-03    -14.5550E-03     44.4191E-03
             608     11.5306E-03     73.1029E-03     114.927E+03    -37.9921E+06    -6.74703E+06    -2.50801E+06    -15.5368E-03     30.1352E-03    -14.5984E-03     49.8169E-03    -15.4870E-03     29.9705E-03    -14.5772E-03     49.7657E-03
             609     12.4169E-03     73.1531E-03    -778.928E+03    -27.9367E+06    -5.71978E+06    -3.35906E+06    -15.6621E-03     30.2688E-03    -14.6067E-03     58.2371E-03    -15.6450E-03     30.1664E-03    -14.5937E-03     58.1687E-03
             610     13.3045E-03     73.2103E-03    -1.94210E+06    -29.3522E+06    -12.1545E+06    -2.23938E+06    -15.8775E-03     30.4690E-03    -14.5916E-03     63.9941E-03    -15.8750E-03     30.3908E-03    -14.6070E-03     63.9325E-03
             611     14.1898E-03     73.2709E-03    -4.34881E+06    -14.0298E+06    -15.9419E+06    -1.45181E+06    -16.0484E-03     30.6178E-03    -14.5693E-03     68.6723E-03    -16.1056E-03     30.6560E-03    -14.6224E-03     68.6180E-03
             612     15.0790E-03     73.3351E-03    -7.03781E+06     31.9773E+06    -13.2490E+06     1.13567E+06    -17.2346E-03     31.7738E-03    -14.5392E-03     96.0672E-03    -17.5355E-03     32.2016E-03    -14.6417E-03     96.0674E-03
             613     15.9582E-03     73.4508E-03    -2.81974E+06     54.2539E+06    -21.2741E+06     3.50207E+06    -14.8732E-03     29.2268E-03    -14.3536E-03     145.151E-03    -15.9392E-03     30.5364E-03    -14.5346E-03     145.657E-03
             614     16.8725E-03     73.5956E-03     3.46640E+06     106.558E+06     10.7680E+06    -959.872E+03    -14.2680E-03     28.4633E-03    -14.1953E-03     157.341E-03    -16.4841E-03     31.0393E-03    -14.3010E-03     159.362E-03
             615     887.073E-06     73.8117E-03    -5.35811E+06    -43.1091E+06    -4.82391E+06    -423.258E+03    -14.5051E-03     29.0256E-03    -14.5205E-03     3.31179E-03    -14.4623E-03     28.8249E-03    -14.4744E-03     3.30589E-03
             616     1.77413E-03     73.8159E-03    -4.85026E+06    -43.3337E+06    -3.27211E+06    -769.975E+03    -14.5189E-03     29.0388E-03    -14.5200E-03     6.12695E-03    -14.4756E-03     28.8340E-03    -14.4665E-03     6.11621E-03
             617     2.66125E-03     73.8230E-03    -3.85601E+06    -42.3262E+06    -1.42154E+06    -1.27921E+06    -14.5383E-03     29.0652E-03    -14.5269E-03     9.16398E-03    -14.4943E-03     28.8614E-03    -14.4670E-03     9.14623E-03
             618     3.54826E-03     73.8329E-03    -2.80406E+06    -41.5112E+06     310.854E+03    -1.47631E+06    -14.5619E-03     29.0967E-03    -14.5347E-03     12.3057E-03    -14.5165E-03     28.8930E-03    -14.4689E-03     12.2850E-03
             619     4.43537E-03     73.8459E-03    -2.26303E+06    -42.8772E+06     1.40245E+06    -1.78362E+06    -14.5998E-03     29.1438E-03    -14.5441E-03     15.5834E-03    -14.5514E-03     28.9311E-03    -14.4716E-03     15.5582E-03
             620     5.32238E-03     73.8618E-03    -1.87101E+06    -43.7757E+06     1.98470E+06    -2.06270E+06    -14.6634E-03     29.2163E-03    -14.5529E-03     19.0471E-03    -14.6129E-03     28.9980E-03    -14.4768E-03     19.0176E-03
             621     6.20946E-03     73.8815E-03    -1.12287E+06    -44.8156E+06     2.40233E+06    -1.59506E+06    -14.7611E-03     29.3262E-03    -14.5651E-03     22.7224E-03    -14.7063E-03     29.1014E-03    -14.4865E-03     22.6982E-03
             622     7.09629E-03     73.9041E-03    -510.120E+03    -45.6573E+06     1.62174E+06    -1.44468E+06    -14.8654E-03     29.4407E-03    -14.5753E-03     26.6733E-03    -14.8057E-03     29.2124E-03    -14.5002E-03     26.6501E-03
             623     7.98328E-03     73.9313E-03    -241.610E+03    -47.5680E+06     1.47412E+06    -2.22726E+06    -14.9654E-03     29.5577E-03    -14.5923E-03     30.8867E-03    -14.9022E-03     29.3206E-03    -14.5156E-03     30.8521E-03
             624     8.87016E-03     73.9615E-03    -153.149E+03    -47.3030E+06     540.503E+03    -2.52330E+06    -15.0716E-03     29.6742E-03    -14.6027E-03     35.3689E-03    -15.0084E-03     29.4410E-03    -14.5311E-03     35.3287E-03
             625     9.75691E-03     73.9971E-03    -163.225E+03    -47.0677E+06    -266.137E+03    -2.51356E+06    -15.1912E-03     29.8049E-03    -14.6137E-03     40.0729E-03    -15.1294E-03     29.5762E-03    -14.5465E-03     40.0303E-03
             626     10.6439E-03     74.0357E-03     315.422E+03    -48.2302E+06    -3.70808E+06    -2.76656E+06    -15.3062E-03     29.9178E-03    -14.6117E-03     44.9536E-03    -15.2388E-03     29.6911E-03    -14.5607E-03     44.9042E-03
             627     11.5304E-03     74.0803E-03     121.264E+03    -36.9693E+06    -6.80694E+06     -3.0442E+06    -15.2887E-03     29.8761E-03    -14.5873E-03     50.4042E-03    -15.2399E-03     29.7162E-03    -14.5679E-03     50.3468E-03
             628     12.4181E-03     74.1281E-03    -96.6914E+03    -27.9365E+06    -5.05436E+06    -2.60368E+06    -15.2889E-03     29.8662E-03    -14.5773E-03     58.7141E-03    -15.2688E-03     29.7613E-03    -14.5619E-03     58.6563E-03
             629     13.3045E-03     74.1880E-03    -958.132E+03    -31.1235E+06    -11.6153E+06    -1.76950E+06    -15.3644E-03     29.8992E-03    -14.5348E-03     64.6739E-03    -15.3539E-03     29.8085E-03    -14.5464E-03     64.6201E-03
             630     14.1933E-03     74.2457E-03    -1.40508E+06    -14.2819E+06    -13.9590E+06     465.041E+03    -16.0651E-03     30.5644E-03    -14.4993E-03     70.4472E-03    -16.1132E-03     30.5972E-03    -14.5463E-03     70.4169E-03
             631     15.0757E-03     74.3157E-03    -705.977E+03     26.8486E+06    -13.9338E+06     2.71939E+06    -15.0918E-03     29.4910E-03    -14.3992E-03     95.7283E-03    -15.3326E-03     29.8648E-03    -14.5067E-03     95.7630E-03
             632     15.9757E-03     74.4191E-03     4.71600E+06     54.7926E+06    -24.0425E+06    -1.31385E+06    -14.9962E-03     29.1571E-03    -14.1609E-03     135.275E-03    -15.9506E-03     30.3927E-03    -14.3674E-03     135.643E-03
             633     16.8561E-03     74.5571E-03     2.86587E+06     111.244E+06     12.5090E+06    -3.02924E+06    -18.6116E-03     32.7951E-03    -14.1835E-03     153.247E-03    -20.9009E-03     35.4542E-03    -14.2864E-03     155.154E-03
             634     887.079E-06     74.7876E-03    -5.32544E+06    -42.3210E+06    -4.91575E+06    -320.246E+03    -14.5100E-03     29.0375E-03    -14.5275E-03     3.30591E-03    -14.4681E-03     28.8409E-03    -14.4830E-03     3.30133E-03
             635     1.77416E-03     74.7920E-03    -4.59805E+06    -42.3439E+06    -3.31247E+06    -876.758E+03    -14.5406E-03     29.0687E-03    -14.5281E-03     6.12720E-03    -14.4975E-03     28.8685E-03    -14.4766E-03     6.11507E-03
             636     2.66116E-03     74.7990E-03    -3.94474E+06    -41.3037E+06    -1.89169E+06    -1.36705E+06    -14.5596E-03     29.0972E-03    -14.5376E-03     9.16801E-03    -14.5168E-03     28.8993E-03    -14.4815E-03     9.14912E-03
             637     3.54824E-03     74.8091E-03    -3.19203E+06    -40.9553E+06    -304.855E+03    -1.73167E+06    -14.5841E-03     29.1322E-03    -14.5481E-03     12.3128E-03    -14.5405E-03     28.9328E-03    -14.4856E-03     12.2888E-03
             638     4.43527E-03     74.8219E-03    -2.06675E+06    -42.2669E+06     1.72415E+06    -1.73324E+06    -14.6349E-03     29.1986E-03    -14.5637E-03     15.5942E-03    -14.5869E-03     28.9883E-03    -14.4908E-03     15.5696E-03
             639     5.32228E-03     74.8381E-03    -1.33955E+06    -43.2759E+06     2.59761E+06    -1.81207E+06    -14.6989E-03     29.2752E-03    -14.5763E-03     19.0659E-03    -14.6473E-03     29.0577E-03    -14.4987E-03     19.0396E-03
             640     6.20923E-03     74.8574E-03    -777.853E+03    -44.9676E+06     1.74982E+06    -2.01531E+06    -14.7691E-03     29.3523E-03    -14.5832E-03     22.7913E-03    -14.7114E-03     29.1272E-03    -14.5081E-03     22.7617E-03
             641     7.09623E-03     74.8807E-03     131.562E+03    -45.2256E+06     954.631E+03    -1.98664E+06    -14.8429E-03     29.4309E-03    -14.5880E-03     26.7895E-03    -14.7797E-03     29.2049E-03    -14.5178E-03     26.7594E-03
             642     7.98316E-03     74.9071E-03     658.191E+03    -46.5046E+06     1.96460E+06    -2.14826E+06    -14.9193E-03     29.5226E-03    -14.6033E-03     31.0407E-03    -14.8539E-03     29.2887E-03    -14.5270E-03     31.0073E-03
             643     8.87002E-03     74.9383E-03     914.254E+03    -46.9294E+06     1.21513E+06    -2.67094E+06    -14.9856E-03     29.5926E-03    -14.6070E-03     35.5511E-03    -14.9185E-03     29.3586E-03    -14.5342E-03     35.5092E-03
             644     9.75719E-03     74.9727E-03     1.31476E+06    -46.9112E+06     403.806E+03    -2.67197E+06    -15.0417E-03     29.6477E-03    -14.6060E-03     40.3089E-03    -14.9735E-03     29.4165E-03    -14.5379E-03     40.2645E-03
             645     10.6440E-03     75.0128E-03     688.342E+03    -47.5100E+06    -3.15016E+06    -2.82245E+06    -15.0619E-03     29.6499E-03    -14.5880E-03     45.1248E-03    -14.9943E-03     29.4252E-03    -14.5359E-03     45.0751E-03
             646     11.5316E-03     75.0554E-03     426.163E+03    -36.1271E+06    -5.98265E+06    -3.39397E+06    -15.0710E-03     29.6199E-03    -14.5488E-03     50.4640E-03    -15.0230E-03     29.4624E-03    -14.5270E-03     50.4025E-03
             647     12.4181E-03     75.1052E-03     566.704E+03    -29.0912E+06    -4.67105E+06    -3.13003E+06    -15.0600E-03     29.5861E-03    -14.5261E-03     58.4225E-03    -15.0349E-03     29.4733E-03    -14.5081E-03     58.3586E-03
             648     13.3066E-03     75.1622E-03     684.700E+03    -32.1817E+06    -10.8640E+06    -1.55186E+06    -15.1588E-03     29.6320E-03    -14.4732E-03     64.3016E-03    -15.1396E-03     29.5325E-03    -14.4819E-03     64.2509E-03
             649     14.1928E-03     75.2229E-03     699.831E+03    -17.6931E+06    -14.1917E+06    -333.026E+03    -15.0896E-03     29.4925E-03    -14.4029E-03     70.4543E-03    -15.1197E-03     29.5033E-03    -14.4492E-03     70.4174E-03
             650     15.0837E-03     75.2920E-03     2.65745E+06     29.8292E+06    -10.7604E+06    -2.12030E+06    -15.0001E-03     29.2896E-03    -14.2895E-03     90.6465E-03    -15.2167E-03     29.6528E-03    -14.3904E-03     90.6144E-03
             651     15.9676E-03     75.3845E-03     761.028E+03     57.1094E+06    -23.9888E+06    -2.56594E+06    -19.6703E-03     33.8513E-03    -14.1810E-03     136.758E-03    -20.7579E-03     35.2142E-03    -14.3849E-03     137.031E-03
             652     16.8501E-03     75.5536E-03    -2.37731E+06     107.235E+06     6.13915E+06     56.6359E+03    -19.4828E-03     33.8002E-03    -14.3174E-03     157.478E-03    -21.8165E-03     36.4887E-03    -14.4387E-03     159.422E-03
             653     887.049E-06     75.7637E-03    -4.66368E+06    -41.4622E+06    -4.57108E+06    -510.335E+03    -14.5496E-03     29.0828E-03    -14.5332E-03     3.30507E-03    -14.5062E-03     28.8890E-03    -14.4891E-03     3.29804E-03
             654     1.77408E-03     75.7680E-03    -4.52282E+06    -41.3874E+06    -3.61229E+06    -821.445E+03    -14.5563E-03     29.1023E-03    -14.5460E-03     6.13004E-03    -14.5137E-03     28.9072E-03    -14.4975E-03     6.11862E-03
             655     2.66114E-03     75.7752E-03    -4.13821E+06    -40.2552E+06    -2.34661E+06    -1.28720E+06    -14.5740E-03     29.1273E-03    -14.5533E-03     9.17242E-03    -14.5330E-03     28.9356E-03    -14.5007E-03     9.15456E-03
             656     3.54817E-03     75.7850E-03    -3.51430E+06    -40.1007E+06    -238.282E+03    -1.76928E+06    -14.6107E-03     29.1783E-03    -14.5676E-03     12.3285E-03    -14.5701E-03     28.9835E-03    -14.5055E-03     12.3039E-03
             657     4.43515E-03     75.7981E-03    -2.77960E+06    -41.9158E+06     1.02339E+06    -2.04455E+06    -14.6592E-03     29.2416E-03    -14.5824E-03     15.6269E-03    -14.6143E-03     29.0350E-03    -14.5125E-03     15.5983E-03
             658     5.32216E-03     75.8141E-03    -1.66998E+06    -42.8049E+06     1.54582E+06    -2.03387E+06    -14.7020E-03     29.2937E-03    -14.5916E-03     19.1281E-03    -14.6513E-03     29.0805E-03    -14.5194E-03     19.0991E-03
             659     6.20912E-03     75.8338E-03    -887.479E+03    -44.3123E+06     1.42585E+06    -2.26624E+06    -14.7400E-03     29.3369E-03    -14.5969E-03     22.8619E-03    -14.6834E-03     29.1157E-03    -14.5242E-03     22.8291E-03
             660     7.09617E-03     75.8565E-03    -672.041E+03    -45.0626E+06     542.981E+03    -2.46206E+06    -14.7794E-03     29.3748E-03    -14.5954E-03     26.8778E-03    -14.7198E-03     29.1513E-03    -14.5264E-03     26.8416E-03
             661     7.98313E-03     75.8837E-03    -86.0108E+03    -45.7969E+06     1.52417E+06    -2.61625E+06    -14.8222E-03     29.4223E-03    -14.6001E-03     31.1340E-03    -14.7608E-03     29.1936E-03    -14.5259E-03     31.0946E-03
             662     8.87032E-03     75.9140E-03     776.650E+03    -45.8132E+06     1.37284E+06    -3.23510E+06    -14.8704E-03     29.4654E-03    -14.5950E-03     35.6414E-03    -14.8058E-03     29.2369E-03    -14.5229E-03     35.5924E-03
             663     9.75715E-03     75.9495E-03     1.29020E+06    -47.4824E+06     482.309E+03    -3.19636E+06    -14.8740E-03     29.4582E-03    -14.5842E-03     40.3010E-03    -14.8051E-03     29.2239E-03    -14.5148E-03     40.2501E-03
             664     10.6447E-03     75.9880E-03     1.84524E+06    -46.7586E+06    -2.72590E+06    -2.67132E+06    -14.9021E-03     29.4545E-03    -14.5524E-03     45.0328E-03    -14.8303E-03     29.2312E-03    -14.5009E-03     44.9853E-03
             665     11.5315E-03     76.0321E-03     1.09808E+06    -35.2708E+06    -5.97388E+06    -3.21757E+06    -14.9326E-03     29.4354E-03    -14.5029E-03     50.3055E-03    -14.8823E-03     29.2812E-03    -14.4832E-03     50.2465E-03
             666     12.4195E-03     76.0803E-03     150.689E+03    -29.2967E+06    -4.97439E+06    -3.41653E+06    -15.0029E-03     29.4812E-03    -14.4783E-03     58.0108E-03    -14.9789E-03     29.3682E-03    -14.4609E-03     57.9433E-03
             667     13.3060E-03     76.1384E-03     420.296E+03    -34.3297E+06    -12.5534E+06    -2.78186E+06    -15.2232E-03     29.6480E-03    -14.4247E-03     64.2657E-03    -15.2006E-03     29.5413E-03    -14.4383E-03     64.1989E-03
             668     14.1942E-03     76.1984E-03     1.15001E+06    -17.3647E+06    -14.4207E+06    -2.57006E+06    -14.7655E-03     29.1196E-03    -14.3541E-03     68.4865E-03    -14.7892E-03     29.1276E-03    -14.4027E-03     68.4224E-03
             669     15.0817E-03     76.2639E-03    -428.314E+03     31.1354E+06    -11.1280E+06    -1.88955E+06    -15.9455E-03     30.2113E-03    -14.2658E-03     90.2892E-03    -16.1864E-03     30.5936E-03    -14.3660E-03     90.2530E-03
             670     15.9689E-03     76.3679E-03    -2.32944E+06     55.3712E+06    -25.8999E+06    -611.357E+03    -19.4344E-03     33.6013E-03    -14.1669E-03     142.303E-03    -20.5929E-03     35.0231E-03    -14.3733E-03     142.660E-03
             671     16.8570E-03     76.5279E-03    -1.41187E+06     106.973E+06     5.78169E+06    -194.629E+03    -18.5883E-03     32.8532E-03    -14.2649E-03     156.536E-03    -20.8629E-03     35.4857E-03    -14.3891E-03     158.440E-03
             672     887.025E-06     76.7397E-03    -5.12257E+06    -40.4370E+06    -4.84334E+06    -630.721E+03    -14.5759E-03     29.1283E-03    -14.5523E-03     3.31629E-03    -14.5359E-03     28.9406E-03    -14.5105E-03     3.30771E-03
             673     1.77405E-03     76.7441E-03    -4.40852E+06    -40.5218E+06    -3.49035E+06    -941.578E+03    -14.5731E-03     29.1423E-03    -14.5692E-03     6.14498E-03    -14.5314E-03     28.9512E-03    -14.5215E-03     6.13201E-03
             674     2.66108E-03     76.7512E-03    -3.72973E+06    -39.4673E+06    -1.68285E+06    -1.14488E+06    -14.5946E-03     29.1716E-03    -14.5770E-03     9.19190E-03    -14.5537E-03     28.9823E-03    -14.5228E-03     9.17588E-03
             675     3.54806E-03     76.7613E-03    -3.31018E+06    -39.1853E+06     230.068E+03    -1.42337E+06    -14.6234E-03     29.2126E-03    -14.5892E-03     12.3602E-03    -14.5838E-03     29.0214E-03    -14.5264E-03     12.3401E-03
             676     4.43510E-03     76.7742E-03    -2.72134E+06    -40.9951E+06     1.20304E+06    -2.02251E+06    -14.6542E-03     29.2539E-03    -14.5997E-03     15.6770E-03    -14.6106E-03     29.0516E-03    -14.5303E-03     15.6487E-03
             677     5.32204E-03     76.7905E-03    -2.07315E+06    -42.2970E+06     1.11464E+06    -2.54425E+06    -14.6753E-03     29.2771E-03    -14.6018E-03     19.1855E-03    -14.6267E-03     29.0677E-03    -14.5319E-03     19.1499E-03
             678     6.20915E-03     76.8097E-03    -1.29233E+06    -43.7548E+06     849.033E+03    -2.56145E+06    -14.7034E-03     29.3036E-03    -14.6002E-03     22.9126E-03    -14.6488E-03     29.0865E-03    -14.5306E-03     22.8761E-03
             679     7.09609E-03     76.8329E-03    -475.090E+03    -44.4751E+06     881.571E+03    -2.78904E+06    -14.7175E-03     29.3131E-03    -14.5955E-03     26.9044E-03    -14.6583E-03     29.0917E-03    -14.5259E-03     26.8641E-03
             680     7.98331E-03     76.8594E-03     455.403E+03    -44.6501E+06     1.21173E+06    -3.59288E+06    -14.7309E-03     29.3181E-03    -14.5872E-03     31.1569E-03    -14.6681E-03     29.0948E-03    -14.5170E-03     31.1051E-03
             681     8.87027E-03     76.8905E-03     1.01403E+06    -45.5125E+06     712.669E+03    -3.64230E+06    -14.7565E-03     29.3290E-03    -14.5725E-03     35.6143E-03    -14.6901E-03     29.1026E-03    -14.5045E-03     35.5601E-03
             682     9.75776E-03     76.9249E-03     1.15178E+06    -47.1925E+06     749.122E+03    -3.57138E+06    -14.7715E-03     29.3303E-03    -14.5588E-03     40.1633E-03    -14.7041E-03     29.0973E-03    -14.4883E-03     40.1077E-03
             683     10.6447E-03     76.9643E-03     1.67516E+06    -46.7036E+06    -2.92854E+06    -3.94694E+06    -14.8336E-03     29.3541E-03    -14.5204E-03     44.9444E-03    -14.7624E-03     29.1315E-03    -14.4698E-03     44.8805E-03
             684     11.5325E-03     77.0075E-03     2.45496E+06    -35.2021E+06    -4.14165E+06    -2.97749E+06    -14.8455E-03     29.3210E-03    -14.4755E-03     50.0251E-03    -14.7910E-03     29.1623E-03    -14.4487E-03     49.9694E-03
             685     12.4193E-03     77.0562E-03     1.77435E+06    -29.0198E+06    -2.83953E+06    -2.57481E+06    -14.9866E-03     29.4371E-03    -14.4505E-03     57.7954E-03    -14.9580E-03     29.3201E-03    -14.4252E-03     57.7388E-03
             686     13.3074E-03     77.1138E-03     194.468E+03    -34.0334E+06    -12.3872E+06    -3.47758E+06    -15.1851E-03     29.5756E-03    -14.3905E-03     64.2099E-03    -15.1637E-03     29.4700E-03    -14.4034E-03     64.1345E-03
             687     14.1940E-03     77.1743E-03    -945.874E+03    -17.5383E+06    -15.2311E+06    -3.00914E+06    -15.1934E-03     29.5267E-03    -14.3332E-03     68.0482E-03    -15.2264E-03     29.5381E-03    -14.3826E-03     67.9771E-03
             688     15.0819E-03     77.2388E-03    -727.880E+03     28.8808E+06    -12.0288E+06    -1.83939E+06    -15.8441E-03     30.0987E-03    -14.2546E-03     91.7542E-03    -16.0906E-03     30.4801E-03    -14.3556E-03     91.7236E-03
             689     15.9699E-03     77.3442E-03    -605.065E+03     54.9024E+06    -25.7823E+06    -1.11940E+06    -18.2483E-03     32.3689E-03    -14.1205E-03     141.889E-03    -19.3726E-03     33.7606E-03    -14.3282E-03     142.272E-03
             690     16.8574E-03     77.5021E-03    -1.40123E+06     107.265E+06     5.40594E+06    -536.357E+03    -18.9479E-03     33.1511E-03    -14.2032E-03     154.335E-03    -21.1936E-03     35.7570E-03    -14.3297E-03     156.213E-03
             691     887.001E-06     77.7160E-03    -5.49186E+06    -39.1376E+06    -5.09319E+06    -644.360E+03    -14.5879E-03     29.1609E-03    -14.5730E-03     3.33220E-03    -14.5512E-03     28.9806E-03    -14.5337E-03     3.32345E-03
             692     1.77403E-03     77.7202E-03    -4.92667E+06    -39.5162E+06    -3.63082E+06    -1.25361E+06    -14.5934E-03     29.1814E-03    -14.5880E-03     6.16251E-03    -14.5555E-03     28.9962E-03    -14.5417E-03     6.14552E-03
             693     2.66099E-03     77.7274E-03    -4.03533E+06    -39.1410E+06    -2.11769E+06    -1.23635E+06    -14.6027E-03     29.1970E-03    -14.5943E-03     9.22861E-03    -14.5632E-03     29.0103E-03    -14.5423E-03     9.21143E-03
             694     3.54804E-03     77.7374E-03    -3.04663E+06    -38.3736E+06    -154.555E+03    -1.29052E+06    -14.6122E-03     29.2124E-03    -14.6002E-03     12.4082E-03    -14.5719E-03     29.0254E-03    -14.5409E-03     12.3898E-03
             695     4.43500E-03     77.7505E-03    -2.23597E+06    -39.6914E+06     1.79469E+06    -1.92905E+06    -14.6286E-03     29.2364E-03    -14.6078E-03     15.7210E-03    -14.5853E-03     29.0391E-03    -14.5380E-03     15.6939E-03
             696     5.32211E-03     77.7665E-03    -1.39806E+06    -41.2309E+06     2.36736E+06    -2.71810E+06    -14.6494E-03     29.2570E-03    -14.6076E-03     19.2197E-03    -14.6008E-03     29.0502E-03    -14.5340E-03     19.1819E-03
             697     6.20906E-03     77.7860E-03    -422.469E+03    -43.2309E+06     1.33261E+06    -3.31300E+06    -14.6610E-03     29.2583E-03    -14.5973E-03     22.9423E-03    -14.6034E-03     29.0419E-03    -14.5273E-03     22.8961E-03
             698     7.09627E-03     77.8088E-03     644.699E+03    -43.5507E+06     1.17263E+06    -3.61749E+06    -14.6661E-03     29.2509E-03    -14.5848E-03     26.9202E-03    -14.6030E-03     29.0321E-03    -14.5167E-03     26.8692E-03
             699     7.98327E-03     77.8357E-03     740.853E+03    -43.7939E+06     1.44848E+06    -3.68266E+06    -14.6750E-03     29.2473E-03    -14.5723E-03     31.1393E-03    -14.6123E-03     29.0276E-03    -14.5027E-03     31.0863E-03
             700     8.87069E-03     77.8661E-03     460.422E+03    -45.3077E+06     559.510E+03    -3.81092E+06    -14.6823E-03     29.2354E-03    -14.5531E-03     35.5092E-03    -14.6187E-03     29.0110E-03    -14.4853E-03     35.4529E-03
             701     9.75769E-03     77.9011E-03     1.00309E+06    -46.3382E+06     1.03433E+06    -4.17021E+06    -14.7267E-03     29.2635E-03    -14.5368E-03     40.0343E-03    -14.6617E-03     29.0346E-03    -14.4659E-03     39.9709E-03
             702     10.6453E-03     77.9398E-03     1.27382E+06    -45.9639E+06    -2.33820E+06    -4.63988E+06    -14.7970E-03     29.2964E-03    -14.4994E-03     44.7863E-03    -14.7297E-03     29.0773E-03    -14.4463E-03     44.7135E-03
             703     11.5321E-03     77.9836E-03     1.29908E+06    -36.7874E+06    -4.53599E+06    -4.14982E+06    -14.8159E-03     29.2698E-03    -14.4539E-03     49.7939E-03    -14.7642E-03     29.1053E-03    -14.4251E-03     49.7231E-03
             704     12.4202E-03     78.0315E-03     1.88175E+06    -29.5492E+06    -1.49971E+06    -2.26226E+06    -15.0034E-03     29.4394E-03    -14.4360E-03     57.6229E-03    -14.9756E-03     29.3177E-03    -14.4034E-03     57.5702E-03
             705     13.3069E-03     78.0899E-03     509.966E+03    -32.3807E+06    -9.35082E+06    -1.81579E+06    -15.1486E-03     29.5313E-03    -14.3827E-03     63.6725E-03    -15.1318E-03     29.4286E-03    -14.3833E-03     63.6186E-03
             706     14.1952E-03     78.1493E-03    -976.761E+03    -17.6393E+06    -14.3759E+06    -3.33938E+06    -15.1398E-03     29.4568E-03    -14.3170E-03     67.8260E-03    -15.1742E-03     29.4668E-03    -14.3619E-03     67.7508E-03
             707     15.0820E-03     78.2153E-03    -659.055E+03     27.4691E+06    -12.4720E+06    -3.45292E+06    -15.9862E-03     30.2244E-03    -14.2382E-03     91.4105E-03    -16.2298E-03     30.5994E-03    -14.3395E-03     91.3589E-03
             708     15.9701E-03     78.3178E-03    -1.19306E+06     53.5075E+06    -26.0649E+06    -1.76258E+06    -18.8788E-03     33.0072E-03    -14.1284E-03     141.763E-03    -20.0091E-03     34.3987E-03    -14.3346E-03     142.117E-03
             709     16.8562E-03     78.4811E-03    -1.34796E+06     106.673E+06     4.79731E+06    -382.122E+03    -19.0920E-03     33.3191E-03    -14.2271E-03     154.528E-03    -21.3405E-03     35.9275E-03    -14.3558E-03     156.417E-03
             710     887.014E-06     78.6920E-03    -5.54195E+06     -37.916E+06    -5.19563E+06    -563.161E+03    -14.5992E-03     29.1816E-03    -14.5824E-03     3.34570E-03    -14.5644E-03     29.0077E-03    -14.5454E-03     3.33800E-03
             711     1.77396E-03     78.6965E-03    -5.33525E+06    -38.2817E+06    -3.70562E+06    -1.03692E+06    -14.5958E-03     29.1933E-03    -14.5975E-03     6.19315E-03    -14.5616E-03     29.0151E-03    -14.5528E-03     6.17897E-03
             712     2.66100E-03     78.7035E-03    -4.61510E+06    -38.5311E+06    -2.53345E+06    -1.62591E+06    -14.5937E-03     29.1935E-03    -14.5998E-03     9.26558E-03    -14.5574E-03     29.0113E-03    -14.5499E-03     9.24338E-03
             713     3.54798E-03     78.7136E-03    -3.47868E+06    -37.8117E+06    -1.08511E+06    -1.78052E+06    -14.5878E-03     29.1853E-03    -14.5975E-03     12.4499E-03    -14.5491E-03     29.0031E-03    -14.5431E-03     12.4252E-03
             714     4.43510E-03     78.7265E-03    -2.25122E+06    -38.3695E+06     1.45724E+06    -2.12590E+06    -14.5974E-03     29.1980E-03    -14.6006E-03     15.7610E-03    -14.5555E-03     29.0077E-03    -14.5344E-03     15.7314E-03
             715     5.32206E-03     78.7427E-03    -1.30811E+06    -39.8982E+06     2.68597E+06    -2.90731E+06    -14.6079E-03     29.2062E-03    -14.5983E-03     19.2506E-03    -14.5612E-03     29.0054E-03    -14.5251E-03     19.2103E-03
             716     6.20925E-03     78.7620E-03    -702.345E+03    -41.8269E+06     1.75741E+06    -3.82846E+06    -14.6158E-03     29.2002E-03    -14.5843E-03     22.9518E-03    -14.5623E-03     28.9906E-03    -14.5139E-03     22.8989E-03
             717     7.09628E-03     78.7849E-03    -109.797E+03    -42.8028E+06     1.27547E+06    -4.49183E+06    -14.6282E-03     29.1971E-03    -14.5689E-03     26.9169E-03    -14.5701E-03     28.9830E-03    -14.5003E-03     26.8546E-03
             718     7.98361E-03     78.8115E-03     989.173E+03    -44.1116E+06     2.38286E+06    -3.87956E+06    -14.6426E-03     29.2015E-03    -14.5589E-03     31.0786E-03    -14.5795E-03     28.9784E-03    -14.4845E-03     31.0230E-03
             719     8.87058E-03     78.8421E-03     1.28306E+06    -44.4645E+06     1.51320E+06    -3.47282E+06    -14.6652E-03     29.2018E-03    -14.5366E-03     35.4229E-03    -14.6001E-03     28.9791E-03    -14.4665E-03     35.3709E-03
             720     9.75815E-03     78.8766E-03     629.342E+03    -45.0025E+06     306.805E+03    -4.36097E+06    -14.7141E-03     29.2275E-03    -14.5134E-03     39.9834E-03    -14.6518E-03     29.0069E-03    -14.4476E-03     39.9176E-03
             721     10.6451E-03     78.9158E-03     215.563E+03    -45.5396E+06    -3.13133E+06    -4.68809E+06    -14.7784E-03     29.2572E-03    -14.4788E-03     44.6675E-03    -14.7159E-03     29.0428E-03    -14.4287E-03     44.5941E-03
             722     11.5329E-03     78.9589E-03    -655.502E+03    -37.5531E+06    -5.80710E+06    -4.14298E+06    -14.8474E-03     29.2838E-03    -14.4364E-03     49.6525E-03    -14.8027E-03     29.1202E-03    -14.4100E-03     49.5817E-03
             723     12.4197E-03     79.0074E-03    -1.12307E+06    -31.3436E+06    -4.25287E+06    -3.31785E+06    -15.0611E-03     29.4801E-03    -14.4190E-03     57.5950E-03    -15.0418E-03     29.3579E-03    -14.3932E-03     57.5285E-03
             724     13.3075E-03     79.0655E-03     1.03869E+06    -31.2841E+06    -10.0725E+06    -2.85760E+06    -15.2544E-03     29.6277E-03    -14.3732E-03     63.4200E-03    -15.2358E-03     29.5308E-03    -14.3797E-03     63.3524E-03
             725     14.1942E-03     79.1246E-03     1.67677E+06    -16.2125E+06    -13.9805E+06    -3.44526E+06    -15.1444E-03     29.4582E-03    -14.3138E-03     67.2184E-03    -15.1674E-03     29.4702E-03    -14.3626E-03     67.1419E-03
             726     15.0828E-03     79.1905E-03     456.898E+03     26.1106E+06    -13.1777E+06    -3.52209E+06    -16.2953E-03     30.5400E-03    -14.2447E-03     91.3656E-03    -16.5319E-03     30.9091E-03    -14.3491E-03     91.3098E-03
             727     15.9687E-03     79.2949E-03    -383.873E+03     51.7540E+06    -26.4355E+06    -1.94156E+06    -19.2537E-03     33.4081E-03    -14.1543E-03     142.433E-03    -20.3910E-03     34.8044E-03    -14.3610E-03     142.786E-03
             728     16.8551E-03     79.4574E-03    -1.43825E+06     105.710E+06     5.13798E+06    -384.813E+03    -18.8115E-03     33.0676E-03    -14.2561E-03     155.200E-03    -21.0769E-03     35.6883E-03    -14.3816E-03     157.111E-03
             729     886.964E-06     79.6683E-03    -5.83491E+06    -37.0414E+06    -5.28965E+06    -400.323E+03    -14.5838E-03     29.1697E-03    -14.5859E-03     3.36290E-03    -14.5516E-03     29.0007E-03    -14.5502E-03     3.35732E-03
             730     1.77403E-03     79.6726E-03    -5.12456E+06    -37.1034E+06    -3.51071E+06    -827.238E+03    -14.5799E-03     29.1702E-03    -14.5903E-03     6.21871E-03    -14.5467E-03     28.9973E-03    -14.5466E-03     6.20725E-03
             731     2.66098E-03     79.6798E-03    -4.37785E+06    -37.0898E+06    -1.79715E+06    -1.67902E+06    -14.5765E-03     29.1682E-03    -14.5916E-03     9.28931E-03    -14.5422E-03     28.9918E-03    -14.5405E-03     9.26644E-03
             732     3.54808E-03     79.6896E-03    -3.58037E+06    -37.2621E+06    -612.529E+03    -2.22429E+06    -14.5682E-03     29.1562E-03    -14.5880E-03     12.4694E-03    -14.5314E-03     28.9762E-03    -14.5319E-03     12.4391E-03
             733     4.43507E-03     79.7027E-03    -2.88328E+06    -37.4640E+06     559.058E+03    -2.29874E+06    -14.5544E-03     29.1356E-03    -14.5812E-03     15.7806E-03    -14.5158E-03     28.9521E-03    -14.5199E-03     15.7487E-03
             734     5.32227E-03     79.7187E-03    -2.29470E+06    -38.2507E+06     1.82887E+06    -2.94083E+06    -14.5557E-03     29.1295E-03    -14.5737E-03     19.2602E-03    -14.5151E-03     28.9396E-03    -14.5058E-03     19.2195E-03
             735     6.20931E-03     79.7381E-03    -1.78333E+06    -40.3347E+06     1.91655E+06    -3.84303E+06    -14.5831E-03     29.1459E-03    -14.5628E-03     22.9460E-03    -14.5374E-03     28.9451E-03    -14.4921E-03     22.8929E-03
             736     7.09654E-03     79.7608E-03    -1.74916E+06    -41.6451E+06     735.446E+03    -4.48181E+06    -14.5973E-03     29.1423E-03    -14.5450E-03     26.8879E-03    -14.5483E-03     28.9371E-03    -14.4784E-03     26.8257E-03
             737     7.98356E-03     79.7875E-03    -1.54317E+06    -44.2188E+06    -164.106E+03    -4.98931E+06    -14.6077E-03     29.1356E-03    -14.5279E-03     31.0655E-03    -14.5534E-03     28.9193E-03    -14.4624E-03     30.9956E-03
             738     8.87107E-03     79.8178E-03     36.3955E+03    -44.5145E+06    -631.135E+03    -4.40682E+06    -14.6611E-03     29.1675E-03    -14.5065E-03     35.4315E-03    -14.5991E-03     28.9495E-03    -14.4452E-03     35.3675E-03
             739     9.75800E-03     79.8526E-03     913.310E+03    -43.8498E+06     459.305E+03    -3.81661E+06    -14.7255E-03     29.2188E-03    -14.4933E-03     39.9466E-03    -14.6638E-03     29.0033E-03    -14.4287E-03     39.8877E-03
             740     10.6457E-03     79.8913E-03     71.8770E+03    -45.0058E+06    -2.90174E+06    -4.19639E+06    -14.8058E-03     29.2697E-03    -14.4639E-03     44.5773E-03    -14.7451E-03     29.0579E-03    -14.4132E-03     44.5101E-03
             741     11.5324E-03     79.9348E-03    -185.402E+03    -38.0221E+06    -6.49143E+06    -4.08384E+06    -14.8979E-03     29.3195E-03    -14.4216E-03     49.6265E-03    -14.8491E-03     29.1540E-03    -14.3987E-03     49.5564E-03
             742     12.4203E-03     79.9830E-03     884.715E+03    -30.5003E+06    -4.98012E+06    -4.75474E+06    -15.1144E-03     29.5183E-03    -14.4039E-03     57.6707E-03    -15.0854E-03     29.3986E-03    -14.3859E-03     57.5857E-03
             743     13.3071E-03     80.0412E-03     1.40957E+06    -31.4796E+06    -12.7311E+06    -5.46140E+06    -15.3636E-03     29.7211E-03    -14.3576E-03     63.5352E-03    -15.3390E-03     29.6267E-03    -14.3776E-03     63.4338E-03
             744     14.1946E-03     80.1006E-03     1.72035E+06    -16.5769E+06    -15.7522E+06    -4.06731E+06    -15.4429E-03     29.7586E-03    -14.3157E-03     67.1243E-03    -15.4631E-03     29.7717E-03    -14.3729E-03     67.0387E-03
             745     15.0813E-03     80.1652E-03     819.281E+03     26.0413E+06    -13.4827E+06    -2.70486E+06    -16.4543E-03     30.7189E-03    -14.2646E-03     92.2079E-03    -16.6931E-03     31.0922E-03    -14.3710E-03     92.1627E-03
             746     15.9689E-03     80.2729E-03    -1.22663E+06     49.3255E+06    -27.8456E+06    -1.84724E+06    -18.8908E-03     33.0562E-03    -14.1654E-03     143.011E-03    -20.0258E-03     34.4428E-03    -14.3744E-03     143.380E-03
             747     16.8563E-03     80.4320E-03    -1.44745E+06     104.584E+06     4.16723E+06    -546.090E+03    -18.5959E-03     32.8454E-03    -14.2495E-03     155.529E-03    -20.8688E-03     35.4723E-03    -14.3782E-03     157.455E-03
             748     887.050E-06     80.6444E-03    -5.89427E+06    -36.2326E+06    -5.21619E+06    -327.541E+03    -14.5558E-03     29.1269E-03    -14.5712E-03     3.36710E-03    -14.5251E-03     28.9620E-03    -14.5361E-03     3.36246E-03
             749     1.77400E-03     80.6488E-03    -5.11358E+06    -36.0948E+06    -3.41799E+06    -876.919E+03    -14.5525E-03     29.1204E-03    -14.5679E-03     6.22315E-03    -14.5208E-03     28.9523E-03    -14.5252E-03     6.21105E-03
             750     2.66112E-03     80.6558E-03    -4.41721E+06    -35.6131E+06    -1.71429E+06    -1.38148E+06    -14.5464E-03     29.1132E-03    -14.5667E-03     9.29385E-03    -14.5145E-03     28.9441E-03    -14.5172E-03     9.27482E-03
             751     3.54810E-03     80.6659E-03    -3.85736E+06    -36.1530E+06    -311.726E+03    -2.13138E+06    -14.5376E-03     29.1016E-03    -14.5640E-03     12.4718E-03    -14.5043E-03     28.9272E-03    -14.5075E-03     12.4427E-03
             752     4.43526E-03     80.6787E-03    -2.95467E+06    -36.9262E+06     587.032E+03    -2.48975E+06    -14.5224E-03     29.0778E-03    -14.5554E-03     15.7732E-03    -14.4849E-03     28.8971E-03    -14.4946E-03     15.7389E-03
             753     5.32233E-03     80.6947E-03    -2.13144E+06    -36.7318E+06     1.70385E+06    -2.82015E+06    -14.5234E-03     29.0679E-03    -14.5445E-03     19.2514E-03    -14.4840E-03     28.8855E-03    -14.4796E-03     19.2123E-03
             754     6.20956E-03     80.7140E-03    -1.79116E+06    -38.9071E+06     1.67994E+06    -3.59293E+06    -14.5500E-03     29.0826E-03    -14.5326E-03     22.9321E-03    -14.5061E-03     28.8893E-03    -14.4652E-03     22.8823E-03
             755     7.09662E-03     80.7368E-03    -1.48554E+06    -40.4546E+06     682.118E+03    -4.23116E+06    -14.5731E-03     29.0887E-03    -14.5156E-03     26.8481E-03    -14.5245E-03     28.8892E-03    -14.4514E-03     26.7892E-03
             756     7.98403E-03     80.7632E-03    -1.40461E+06    -42.7471E+06     135.712E+03    -5.05313E+06    -14.6080E-03     29.1099E-03    -14.5019E-03     31.0031E-03    -14.5557E-03     28.9004E-03    -14.4372E-03     30.9324E-03
             757     8.87100E-03     80.7937E-03    -1.73441E+06    -44.9106E+06    -1.65901E+06    -5.57797E+06    -14.6563E-03     29.1385E-03    -14.4822E-03     35.3896E-03    -14.6011E-03     28.9225E-03    -14.4228E-03     35.3104E-03
             758     9.75855E-03     80.8283E-03    -711.226E+03    -43.9145E+06    -889.425E+03    -4.92036E+06    -14.7307E-03     29.2000E-03    -14.4693E-03     39.9331E-03    -14.6750E-03     28.9885E-03    -14.4091E-03     39.8600E-03
             759     10.6454E-03     80.8672E-03     982.527E+03    -44.4059E+06    -2.83178E+06    -4.40537E+06    -14.8470E-03     29.2931E-03    -14.4461E-03     44.5739E-03    -14.7828E-03     29.0830E-03    -14.3973E-03     44.5040E-03
             760     11.5331E-03     80.9104E-03     1.72251E+06    -37.1693E+06    -6.30449E+06    -5.20154E+06    -14.9411E-03     29.3477E-03    -14.4067E-03     49.6470E-03    -14.8843E-03     29.1834E-03    -14.3868E-03     49.5624E-03
             761     12.4200E-03     80.9587E-03     2.08898E+06    -28.8697E+06    -4.71716E+06    -6.11915E+06    -15.1655E-03     29.5584E-03    -14.3929E-03     57.7594E-03    -15.1333E-03     29.4449E-03    -14.3777E-03     57.6565E-03
             762     13.3075E-03     81.0172E-03     1.81537E+06    -31.7103E+06    -12.1076E+06    -5.87805E+06    -15.3528E-03     29.7067E-03    -14.3539E-03     63.5672E-03    -15.3265E-03     29.6094E-03    -14.3711E-03     63.4605E-03
             763     14.1944E-03     81.0761E-03     555.952E+03    -18.6929E+06    -15.8774E+06    -4.53348E+06    -15.5692E-03     29.8859E-03    -14.3168E-03     67.5941E-03    -15.5931E-03     29.8915E-03    -14.3698E-03     67.5019E-03
             764     15.0816E-03     81.1421E-03    -107.259E+03     25.0826E+06    -13.4908E+06    -2.69815E+06    -16.4759E-03     30.7439E-03    -14.2680E-03     92.7688E-03    -16.7198E-03     31.1155E-03    -14.3716E-03     92.7246E-03
             765     15.9688E-03     81.2476E-03    -747.777E+03     48.4888E+06    -27.4434E+06    -1.60982E+06    -18.7749E-03     32.9398E-03    -14.1649E-03     143.289E-03    -19.9088E-03     34.3228E-03    -14.3714E-03     143.661E-03
             766     16.8557E-03     81.4090E-03    -1.58587E+06     103.106E+06     4.27813E+06    -796.403E+03    -18.7212E-03     32.9700E-03    -14.2488E-03     155.550E-03    -20.9932E-03     35.5900E-03    -14.3746E-03     157.469E-03
             767     886.996E-06     81.6206E-03    -5.83265E+06    -35.3164E+06    -5.60989E+06    -513.881E+03    -14.5307E-03     29.0627E-03    -14.5321E-03     3.36073E-03    -14.5005E-03     28.9028E-03    -14.5004E-03     3.35368E-03
             768     1.77413E-03     81.6248E-03    -5.24613E+06    -35.0828E+06    -3.94465E+06     -923.27E+03    -14.5189E-03     29.0523E-03    -14.5334E-03     6.21748E-03    -14.4886E-03     28.8903E-03    -14.4946E-03     6.20478E-03
             769     2.66112E-03     81.6320E-03    -4.45311E+06    -34.7030E+06    -2.24773E+06    -1.26383E+06    -14.5075E-03     29.0382E-03    -14.5308E-03     9.28401E-03    -14.4763E-03     28.8746E-03    -14.4852E-03     9.26650E-03
             770     3.54831E-03     81.6418E-03    -3.64491E+06    -34.5214E+06    -297.848E+03    -1.92734E+06    -14.4986E-03     29.0265E-03    -14.5278E-03     12.4502E-03    -14.4666E-03     28.8598E-03    -14.4740E-03     12.4237E-03
             771     4.43536E-03     81.6547E-03    -2.72936E+06    -35.9178E+06     930.505E+03    -2.90108E+06    -14.5059E-03     29.0288E-03    -14.5230E-03     15.7479E-03    -14.4692E-03     28.8523E-03    -14.4623E-03     15.7083E-03
             772     5.32255E-03     81.6706E-03    -1.59324E+06    -36.0059E+06     1.42063E+06    -3.12959E+06    -14.5055E-03     29.0169E-03    -14.5114E-03     19.2293E-03    -14.4640E-03     28.8378E-03    -14.4498E-03     19.1862E-03
             773     6.20967E-03     81.6899E-03    -850.171E+03    -37.4455E+06     1.65281E+06    -3.38354E+06    -14.5218E-03     29.0218E-03    -14.4999E-03     22.8935E-03    -14.4752E-03     28.8344E-03    -14.4361E-03     22.8464E-03
             774     7.09699E-03     81.7126E-03    -497.926E+03    -39.0142E+06     1.53626E+06    -4.33893E+06    -14.5685E-03     29.0571E-03    -14.4886E-03     26.7916E-03    -14.5182E-03     28.8621E-03    -14.4236E-03     26.7313E-03
             775     7.98397E-03     81.7391E-03    -301.192E+03    -41.7332E+06     1.64405E+06    -4.67686E+06    -14.6181E-03     29.1000E-03    -14.4819E-03     30.9376E-03    -14.5639E-03     28.8918E-03    -14.4127E-03     30.8717E-03
             776     8.87141E-03     81.7694E-03    -468.534E+03    -43.6946E+06     173.980E+03    -5.09810E+06    -14.6632E-03     29.1297E-03    -14.4665E-03     35.3254E-03    -14.6061E-03     28.9153E-03    -14.4016E-03     35.2525E-03
             777     9.75841E-03     81.8040E-03    -450.253E+03    -43.3057E+06    -1.54197E+06    -6.44016E+06    -14.7305E-03     29.1762E-03    -14.4457E-03     39.9498E-03    -14.6734E-03     28.9683E-03    -14.3900E-03     39.8571E-03
             778     10.6460E-03     81.8430E-03     857.167E+03    -44.4680E+06    -4.07279E+06    -6.62200E+06    -14.8625E-03     29.2857E-03    -14.4232E-03     44.6022E-03    -14.7970E-03     29.0771E-03    -14.3803E-03     44.5037E-03
             779     11.5328E-03     81.8861E-03     1.92164E+06    -36.0687E+06    -5.31053E+06    -6.04893E+06    -15.0014E-03     29.3984E-03    -14.3969E-03     49.6594E-03    -14.9468E-03     29.2379E-03    -14.3740E-03     49.5637E-03
             780     12.4204E-03     81.9346E-03     1.41985E+06    -27.8797E+06    -4.02361E+06    -6.28079E+06    -15.1917E-03     29.5792E-03    -14.3874E-03     57.7880E-03    -15.1654E-03     29.4706E-03    -14.3692E-03     57.6830E-03
             781     13.3073E-03     81.9928E-03     682.138E+03    -32.3044E+06    -12.1601E+06    -6.07154E+06    -15.3637E-03     29.7136E-03    -14.3500E-03     63.4528E-03    -15.3421E-03     29.6151E-03    -14.3649E-03     63.3436E-03
             782     14.1949E-03     82.0519E-03     476.433E+03    -20.1539E+06    -15.6146E+06    -4.95270E+06    -15.5543E-03     29.8688E-03    -14.3145E-03     67.7183E-03    -15.5771E-03     29.8670E-03    -14.3640E-03     67.6209E-03
             783     15.0819E-03     82.1183E-03     803.078E+03     23.3978E+06    -13.0700E+06    -3.87153E+06    -16.3869E-03     30.6501E-03    -14.2632E-03     92.3572E-03    -16.6227E-03     31.0097E-03    -14.3636E-03     92.2979E-03
             784     15.9692E-03     82.2233E-03     380.752E+03     47.0744E+06    -26.9822E+06    -1.82734E+06    -18.9875E-03     33.1503E-03    -14.1628E-03     143.563E-03    -20.1243E-03     34.5337E-03    -14.3665E-03     143.926E-03
             785     16.8561E-03     82.3859E-03    -856.736E+03     102.479E+06     4.13510E+06     39.8360E+03    -18.8592E-03     33.1095E-03    -14.2503E-03     155.847E-03    -21.1294E-03     35.7284E-03    -14.3770E-03     157.774E-03
             786     887.115E-06     82.5966E-03    -5.12161E+06    -34.1375E+06    -5.05598E+06    -833.407E+03    -14.4996E-03     28.9949E-03    -14.4953E-03     3.34284E-03    -14.4684E-03     28.8391E-03    -14.4636E-03     3.33166E-03
             787     1.77412E-03     82.6009E-03    -4.72974E+06    -34.1355E+06    -4.10763E+06    -1.05017E+06    -14.4850E-03     28.9809E-03    -14.4959E-03     6.19437E-03    -14.4533E-03     28.8231E-03    -14.4600E-03     6.18003E-03
             788     2.66131E-03     82.6079E-03    -3.98843E+06    -33.6709E+06    -2.40911E+06    -1.58352E+06    -14.4728E-03     28.9657E-03    -14.4929E-03     9.25115E-03    -14.4405E-03     28.8068E-03    -14.4504E-03     9.22951E-03
             789     3.54836E-03     82.6178E-03    -2.96919E+06    -33.2126E+06    -309.370E+03    -2.09525E+06    -14.4704E-03     28.9609E-03    -14.4905E-03     12.4117E-03    -14.4369E-03     28.7999E-03    -14.4396E-03     12.3830E-03
             790     4.43557E-03     82.6307E-03    -2.26582E+06    -34.1344E+06     1.22867E+06    -2.89251E+06    -14.4816E-03     28.9700E-03    -14.4884E-03     15.7078E-03    -14.4457E-03     28.8013E-03    -14.4295E-03     15.6683E-03
             791     5.32266E-03     82.6466E-03    -1.60549E+06    -35.3451E+06     1.95667E+06    -3.69511E+06    -14.4931E-03     28.9761E-03    -14.4830E-03     19.1722E-03    -14.4535E-03     28.7996E-03    -14.4196E-03     19.1218E-03
             792     6.20994E-03     82.6658E-03    -538.386E+03    -36.5526E+06     2.00706E+06    -3.80507E+06    -14.5133E-03     28.9862E-03    -14.4729E-03     22.8393E-03    -14.4670E-03     28.8024E-03    -14.4091E-03     22.7868E-03
             793     7.09699E-03     82.6885E-03    -40.2107E+03    -37.3390E+06     1.64573E+06    -4.18633E+06    -14.5521E-03     29.0131E-03    -14.4610E-03     26.7554E-03    -14.5021E-03     28.8256E-03    -14.3985E-03     26.6970E-03
             794     7.98439E-03     82.7149E-03     176.143E+03    -41.1572E+06     1.71580E+06    -4.79373E+06    -14.6096E-03     29.0666E-03    -14.4570E-03     30.8995E-03    -14.5539E-03     28.8605E-03    -14.3890E-03     30.8321E-03
             795     8.87141E-03     82.7453E-03     995.520E+03    -42.0833E+06     1.09601E+06    -5.36388E+06    -14.6789E-03     29.1243E-03    -14.4454E-03     35.2927E-03    -14.6182E-03     28.9145E-03    -14.3804E-03     35.2163E-03
             796     9.75887E-03     82.7798E-03     1.50145E+06    -40.8092E+06     693.252E+03    -6.69430E+06    -14.7541E-03     29.1869E-03    -14.4327E-03     39.9018E-03    -14.6942E-03     28.9854E-03    -14.3723E-03     39.8059E-03
             797     10.6458E-03     82.8186E-03     911.250E+03    -44.4741E+06    -3.77738E+06    -7.57365E+06    -14.8741E-03     29.2839E-03    -14.4098E-03     44.5873E-03    -14.8087E-03     29.0748E-03    -14.3655E-03     44.4766E-03
             798     11.5334E-03     82.8621E-03     715.440E+03    -36.1476E+06    -6.33304E+06    -7.11858E+06    -15.0247E-03     29.4062E-03    -14.3815E-03     49.7362E-03    -14.9745E-03     29.2486E-03    -14.3618E-03     49.6267E-03
             799     12.4202E-03     82.9103E-03     1.18422E+06    -27.4765E+06    -3.94538E+06    -6.33411E+06    -15.2413E-03     29.6204E-03    -14.3791E-03     57.7541E-03    -15.2169E-03     29.5140E-03    -14.3607E-03     57.6484E-03
             800     13.3077E-03     82.9687E-03     870.602E+03    -32.4106E+06    -11.9812E+06    -6.12381E+06    -15.4309E-03     29.7777E-03    -14.3468E-03     63.4301E-03    -15.4087E-03     29.6783E-03    -14.3609E-03     63.3200E-03
             801     14.1943E-03     83.0276E-03    -267.414E+03    -21.1036E+06    -16.4130E+06    -5.57255E+06    -15.4838E-03     29.7929E-03    -14.3091E-03     67.9438E-03    -15.5072E-03     29.7880E-03    -14.3601E-03     67.8388E-03
             802     15.0816E-03     83.0945E-03    -1.66927E+06     22.8333E+06    -14.1826E+06    -4.31519E+06    -16.7409E-03     31.0071E-03    -14.2662E-03     92.5313E-03    -16.9891E-03     31.3716E-03    -14.3678E-03     92.4637E-03
             803     15.9691E-03     83.1985E-03    -3.32456E+06     44.7561E+06    -27.9968E+06    -2.69155E+06    -19.2189E-03     33.4083E-03    -14.1895E-03     142.665E-03    -20.3694E-03     34.7871E-03    -14.3895E-03     143.020E-03
             804     16.8553E-03     83.3638E-03    -1.83200E+06     99.9500E+06     2.44825E+06    -612.956E+03    -18.1727E-03     32.4344E-03    -14.2617E-03     155.091E-03    -20.4330E-03     35.0359E-03    -14.3917E-03     157.022E-03
             805     887.064E-06     83.5726E-03    -4.76850E+06    -32.5060E+06    -4.38720E+06    -983.943E+03    -14.4631E-03     28.9258E-03    -14.4627E-03     3.32929E-03    -14.4334E-03     28.7767E-03    -14.4306E-03     3.31617E-03
             806     1.77425E-03     83.5768E-03    -4.09206E+06    -33.1908E+06    -3.42744E+06    -1.38386E+06    -14.4566E-03     28.9206E-03    -14.4640E-03     6.16358E-03    -14.4241E-03     28.7656E-03    -14.4271E-03     6.14493E-03
             807     2.66132E-03     83.5839E-03    -3.45376E+06    -32.2652E+06    -2.05372E+06    -1.86761E+06    -14.4490E-03     28.9101E-03    -14.4611E-03     9.21009E-03    -14.4167E-03     28.7569E-03    -14.4195E-03     9.18478E-03
             808     3.54853E-03     83.5937E-03    -2.59053E+06    -31.9691E+06    -238.864E+03    -2.61490E+06    -14.4479E-03     28.9076E-03    -14.4597E-03     12.3677E-03    -14.4144E-03     28.7522E-03    -14.4108E-03     12.3323E-03
             809     4.43564E-03     83.6066E-03    -1.36512E+06    -32.7144E+06     1.85687E+06    -3.07012E+06    -14.4593E-03     28.9200E-03    -14.4607E-03     15.6536E-03    -14.4219E-03     28.7562E-03    -14.4020E-03     15.6118E-03
             810     5.32288E-03     83.6225E-03    -531.337E+03    -33.8482E+06     3.19964E+06    -3.71717E+06    -14.4818E-03     28.9414E-03    -14.4595E-03     19.1072E-03    -14.4408E-03     28.7690E-03    -14.3937E-03     19.0565E-03
             811     6.20995E-03     83.6416E-03    -8.71731E+03    -35.8590E+06     2.66109E+06    -4.39451E+06    -14.5070E-03     28.9579E-03    -14.4508E-03     22.7902E-03    -14.4600E-03     28.7758E-03    -14.3855E-03     22.7300E-03
             812     7.09732E-03     83.6643E-03     1.06830E+06    -36.1005E+06     2.45619E+06    -4.68440E+06    -14.5373E-03     28.9769E-03    -14.4396E-03     26.7115E-03    -14.4848E-03     28.7929E-03    -14.3765E-03     26.6467E-03
             813     7.98438E-03     83.6907E-03     2.04909E+06    -40.0443E+06     3.33065E+06    -5.12934E+06    -14.6058E-03     29.0456E-03    -14.4398E-03     30.8388E-03    -14.5447E-03     28.8400E-03    -14.3680E-03     30.7671E-03
             814     8.87177E-03     83.7210E-03     2.32617E+06    -40.4899E+06     2.22408E+06    -5.94541E+06    -14.6917E-03     29.1198E-03    -14.4281E-03     35.2543E-03    -14.6283E-03     28.9144E-03    -14.3616E-03     35.1704E-03
             815     9.75877E-03     83.7556E-03     2.27359E+06    -38.9643E+06     1.99839E+06    -6.59575E+06    -14.7793E-03     29.1994E-03    -14.4201E-03     39.8630E-03    -14.7200E-03     29.0041E-03    -14.3569E-03     39.7683E-03
             816     10.6462E-03     83.7945E-03     2.04450E+06    -43.3207E+06    -1.86105E+06    -7.18689E+06    -14.9035E-03     29.3078E-03    -14.4043E-03     44.5532E-03    -14.8369E-03     29.1001E-03    -14.3537E-03     44.4475E-03
             817     11.5332E-03     83.8376E-03     1.42749E+06    -36.1428E+06    -6.25959E+06    -7.50772E+06    -15.0276E-03     29.3987E-03    -14.3711E-03     49.7588E-03    -14.9739E-03     29.2400E-03    -14.3521E-03     49.6444E-03
             818     12.4206E-03     83.8865E-03     1.19263E+06    -27.5277E+06    -4.04369E+06    -7.17986E+06    -15.2967E-03     29.6681E-03    -14.3714E-03     57.8012E-03    -15.2720E-03     29.5616E-03    -14.3534E-03     57.6844E-03
             819     13.3074E-03     83.9443E-03     1.06749E+06    -32.6687E+06    -11.0258E+06    -6.22776E+06    -15.5105E-03     29.8600E-03    -14.3494E-03     63.3361E-03    -15.4886E-03     29.7578E-03    -14.3587E-03     63.2243E-03
             820     14.1950E-03     84.0038E-03    -47.1242E+03    -21.6186E+06    -15.7234E+06    -5.33617E+06    -15.6314E-03     29.9498E-03    -14.3185E-03     67.5159E-03    -15.6540E-03     29.9411E-03    -14.3657E-03     67.4131E-03
             821     15.0827E-03     84.0695E-03    -1.54246E+06     21.6851E+06    -14.0341E+06    -4.27409E+06    -16.9146E-03     31.1967E-03    -14.2821E-03     93.2707E-03    -17.1634E-03     31.5577E-03    -14.3815E-03     93.2028E-03
             822     15.9663E-03     84.1788E-03    -1.36798E+06     42.7814E+06    -27.4918E+06    -2.50096E+06    -18.8917E-03     33.0905E-03    -14.1988E-03     143.229E-03    -20.0256E-03     34.4511E-03    -14.3963E-03     143.600E-03
             823     16.8550E-03     84.3343E-03    -891.188E+03     98.6977E+06     2.58971E+06    -1.26826E+06    -18.0005E-03     32.2544E-03    -14.2539E-03     156.177E-03    -20.2818E-03     34.8755E-03    -14.3828E-03     158.131E-03
             824     887.167E-06     84.5485E-03    -4.44174E+06    -30.5592E+06    -3.84489E+06    -929.508E+03    -14.4334E-03     28.8642E-03    -14.4308E-03     3.31064E-03    -14.4057E-03     28.7236E-03    -14.3993E-03     3.29822E-03
             825     1.77424E-03     84.5528E-03    -3.71077E+06    -31.7569E+06    -2.52898E+06    -1.81781E+06    -14.4359E-03     28.8743E-03    -14.4384E-03     6.13920E-03    -14.4048E-03     28.7246E-03    -14.3996E-03     6.11494E-03
             826     2.66144E-03     84.5598E-03    -2.48274E+06    -30.8060E+06    -1.11634E+06    -2.42824E+06    -14.4335E-03     28.8715E-03    -14.4381E-03     9.17973E-03    -14.3997E-03     28.7229E-03    -14.3954E-03     9.14718E-03
             827     3.54855E-03     84.5696E-03    -1.37405E+06    -30.3971E+06     974.713E+03    -3.05712E+06    -14.4359E-03     28.8758E-03    -14.4399E-03     12.3291E-03    -14.4004E-03     28.7247E-03    -14.3889E-03     12.2879E-03
             828     4.43577E-03     84.5824E-03    -444.286E+03    -31.6120E+06     2.36211E+06    -3.64501E+06    -14.4446E-03     28.8843E-03    -14.4398E-03     15.6068E-03    -14.4048E-03     28.7239E-03    -14.3815E-03     15.5576E-03
             829     5.32290E-03     84.5983E-03     659.288E+03    -32.4508E+06     3.39281E+06    -3.99200E+06    -14.4602E-03     28.8965E-03    -14.4363E-03     19.0651E-03    -14.4155E-03     28.7291E-03    -14.3732E-03     19.0108E-03
             830     6.21022E-03     84.6175E-03     1.54215E+06    -34.4316E+06     4.07740E+06    -4.60738E+06    -14.4972E-03     28.9305E-03    -14.4333E-03     22.7373E-03    -14.4466E-03     28.7513E-03    -14.3652E-03     22.6744E-03
             831     7.09728E-03     84.6401E-03     1.69804E+06    -35.2643E+06     3.17599E+06    -5.15122E+06    -14.5342E-03     28.9565E-03    -14.4223E-03     26.6684E-03    -14.4808E-03     28.7747E-03    -14.3578E-03     26.5976E-03
             832     7.98467E-03     84.6665E-03     1.86223E+06    -38.6519E+06     3.26903E+06    -5.56021E+06    -14.5978E-03     29.0184E-03    -14.4206E-03     30.8256E-03    -14.5396E-03     28.8201E-03    -14.3509E-03     30.7484E-03
             833     8.87173E-03     84.6968E-03     2.25008E+06    -39.1027E+06     2.23116E+06    -6.10101E+06    -14.6861E-03     29.0965E-03    -14.4104E-03     35.2508E-03    -14.6250E-03     28.8981E-03    -14.3458E-03     35.1649E-03
             834     9.75912E-03     84.7315E-03     2.23136E+06    -37.9655E+06     1.88808E+06    -6.42562E+06    -14.7862E-03     29.1902E-03    -14.4040E-03     39.8695E-03    -14.7284E-03     29.0001E-03    -14.3427E-03     39.7770E-03
             835     10.6461E-03     84.7702E-03     1.76304E+06    -41.7960E+06    -1.20104E+06    -6.94140E+06    -14.9305E-03     29.3249E-03    -14.3944E-03     44.5705E-03    -14.8685E-03     29.1243E-03    -14.3423E-03     44.4678E-03
             836     11.5334E-03     84.8137E-03     1.59410E+06    -34.9408E+06    -6.09825E+06    -7.88147E+06    -15.0472E-03     29.4085E-03    -14.3614E-03     49.7940E-03    -14.9946E-03     29.2553E-03    -14.3435E-03     49.6748E-03
             837     12.4205E-03     84.8619E-03     1.86953E+06    -28.0270E+06    -4.64474E+06    -7.82970E+06    -15.2814E-03     29.6415E-03    -14.3601E-03     58.0048E-03    -15.2517E-03     29.5324E-03    -14.3454E-03     57.8798E-03
             838     13.3077E-03     84.9210E-03     1.59764E+06    -33.6162E+06    -10.8521E+06    -6.44006E+06    -15.6013E-03     29.9463E-03    -14.3451E-03     63.5211E-03    -15.5757E-03     29.8385E-03    -14.3529E-03     63.4063E-03
             839     14.1942E-03     84.9789E-03     1.39922E+06    -21.8537E+06    -15.0093E+06    -5.27791E+06    -15.8896E-03     30.2140E-03    -14.3244E-03     68.1637E-03    -15.9076E-03     30.2029E-03    -14.3697E-03     68.0606E-03
             840     15.0797E-03     85.0472E-03     1.37265E+06     19.7576E+06    -13.1973E+06    -4.39400E+06    -16.2749E-03     30.5510E-03    -14.2761E-03     94.0089E-03    -16.5047E-03     30.8941E-03    -14.3727E-03     93.9446E-03
             841     15.9711E-03     85.1525E-03     951.398E+03     41.2680E+06    -27.8994E+06    -2.82301E+06    -18.3736E-03     32.5263E-03    -14.1527E-03     143.477E-03    -19.4847E-03     33.8681E-03    -14.3534E-03     143.841E-03
             842     16.8578E-03     85.3125E-03    -824.251E+03     97.8673E+06     1.00109E+06    -1.32593E+06    -18.7826E-03     32.9940E-03    -14.2114E-03     155.975E-03    -21.0548E-03     35.6079E-03    -14.3471E-03     157.899E-03
             843     887.131E-06     85.5244E-03    -2.59367E+06    -28.8188E+06    -2.06322E+06    -629.587E+03    -14.4178E-03     28.8308E-03    -14.4130E-03     3.29408E-03    -14.3859E-03     28.6935E-03    -14.3778E-03     3.28553E-03
             844     1.77432E-03     85.5287E-03    -2.14780E+06    -29.3754E+06    -847.634E+03    -1.99667E+06    -14.4196E-03     28.8405E-03    -14.4209E-03     6.12129E-03    -14.3865E-03     28.6980E-03    -14.3795E-03     6.09472E-03
             845     2.66144E-03     85.5356E-03    -1.50325E+06    -29.2788E+06     65.0802E+03    -3.00207E+06    -14.4224E-03     28.8442E-03    -14.4218E-03     9.15821E-03    -14.3877E-03     28.7001E-03    -14.3768E-03     9.11826E-03
             846     3.54865E-03     85.5455E-03    -663.561E+03    -28.8442E+06     1.43968E+06    -3.46012E+06    -14.4213E-03     28.8430E-03    -14.4217E-03     12.3035E-03    -14.3851E-03     28.6979E-03    -14.3718E-03     12.2572E-03
             847     4.43579E-03     85.5582E-03     294.438E+03    -30.1219E+06     3.09446E+06    -4.07216E+06    -14.4278E-03     28.8511E-03    -14.4233E-03     15.5785E-03    -14.3876E-03     28.6960E-03    -14.3645E-03     15.5238E-03
             848     5.32307E-03     85.5741E-03     1.18119E+06    -31.3333E+06     3.83139E+06    -4.61777E+06    -14.4421E-03     28.8612E-03    -14.4191E-03     19.0346E-03    -14.3970E-03     28.6979E-03    -14.3562E-03     18.9723E-03
             849     6.21020E-03     85.5932E-03     1.70256E+06    -33.3142E+06     3.71086E+06    -4.67641E+06    -14.4731E-03     28.8851E-03    -14.4121E-03     22.7110E-03    -14.4227E-03     28.7118E-03    -14.3477E-03     22.6473E-03
             850     7.09755E-03     85.6159E-03     1.79088E+06    -34.1900E+06     3.16530E+06    -4.82059E+06    -14.5251E-03     28.9283E-03    -14.4032E-03     26.6443E-03    -14.4728E-03     28.7518E-03    -14.3404E-03     26.5779E-03
             851     7.98466E-03     85.6422E-03     1.74672E+06    -37.0700E+06     3.39754E+06    -5.62643E+06    -14.5941E-03     28.9973E-03    -14.4032E-03     30.8207E-03    -14.5390E-03     28.8069E-03    -14.3350E-03     30.7426E-03
             852     8.87201E-03     85.6727E-03     1.81084E+06    -37.9504E+06     2.37807E+06    -6.33417E+06    -14.6759E-03     29.0714E-03    -14.3955E-03     35.2477E-03    -14.6189E-03     28.8792E-03    -14.3312E-03     35.1589E-03
             853     9.75910E-03     85.7070E-03     2.07219E+06    -37.3062E+06     2.25115E+06    -6.45015E+06    -14.7831E-03     29.1745E-03    -14.3914E-03     39.8918E-03    -14.7276E-03     28.9874E-03    -14.3291E-03     39.7990E-03
             854     10.6464E-03     85.7462E-03     2.51936E+06    -39.9500E+06    -267.473E+03    -7.11640E+06    -14.9213E-03     29.3036E-03    -14.3823E-03     44.6131E-03    -14.8595E-03     29.1097E-03    -14.3294E-03     44.5083E-03
             855     11.5334E-03     85.7892E-03     2.70484E+06    -32.9839E+06    -5.00225E+06    -8.50657E+06    -15.0425E-03     29.3923E-03    -14.3498E-03     49.8836E-03    -14.9888E-03     29.2456E-03    -14.3309E-03     49.7563E-03
             856     12.4207E-03     85.8382E-03     2.31874E+06    -29.0997E+06    -4.78552E+06    -8.21408E+06    -15.2254E-03     29.5714E-03    -14.3460E-03     58.1523E-03    -15.1916E-03     29.4564E-03    -14.3311E-03     58.0225E-03
             857     13.3080E-03     85.8962E-03     1.92115E+06    -34.8060E+06    -11.0357E+06    -6.58129E+06    -15.5050E-03     29.8311E-03    -14.3262E-03     63.9937E-03    -15.4757E-03     29.7171E-03    -14.3337E-03     63.8774E-03
             858     14.1949E-03     85.9562E-03     1.23225E+06    -22.0794E+06    -15.0563E+06    -5.75833E+06    -15.6459E-03     29.9407E-03    -14.2949E-03     68.8290E-03    -15.6643E-03     29.9288E-03    -14.3399E-03     68.7207E-03
             859     15.0835E-03     86.0223E-03     1.08542E+06     19.2119E+06    -12.9094E+06    -4.93857E+06    -16.2134E-03     30.4556E-03    -14.2423E-03     93.2144E-03    -16.4406E-03     30.7924E-03    -14.3363E-03     93.1427E-03
             860     15.9690E-03     86.1268E-03    -429.692E+03     38.6819E+06    -28.8657E+06    -3.38365E+06    -18.8884E-03     33.0210E-03    -14.1326E-03     143.277E-03    -20.0134E-03     34.3654E-03    -14.3324E-03     143.617E-03
             861     16.8553E-03     86.2904E-03    -1.65265E+06     95.4792E+06     -35.066E+03    -1.37379E+06    -19.0180E-03     33.2287E-03    -14.2107E-03     155.548E-03    -21.2716E-03     35.8155E-03    -14.3470E-03     157.440E-03
             862     887.171E-06     86.5003E-03    -969.670E+03    -27.1445E+06    -1.47072E+06    -945.013E+03    -14.4044E-03     28.8028E-03    -14.3985E-03     3.29479E-03    -14.3677E-03     28.6707E-03    -14.3650E-03     3.28218E-03
             863     1.77432E-03     86.5045E-03    -846.977E+03    -26.9567E+06     116.475E+03    -1.78315E+06    -14.4034E-03     28.8078E-03    -14.4044E-03     6.11322E-03    -14.3687E-03     28.6741E-03    -14.3635E-03     6.08942E-03
             864     2.66151E-03     86.5115E-03    -605.564E+03    -27.2466E+06     1.52860E+06    -2.86893E+06    -14.4076E-03     28.8164E-03    -14.4088E-03     9.14244E-03    -14.3734E-03     28.6789E-03    -14.3608E-03     9.10421E-03
             865     3.54866E-03     86.5213E-03     34.8838E+03    -27.1957E+06     2.60930E+06    -3.83841E+06    -14.4044E-03     28.8127E-03    -14.4084E-03     12.2804E-03    -14.3688E-03     28.6732E-03    -14.3559E-03     12.2292E-03
             866     4.43592E-03     86.5341E-03     771.076E+03    -28.7196E+06     3.80540E+06    -4.26122E+06    -14.4073E-03     28.8152E-03    -14.4079E-03     15.5487E-03    -14.3677E-03     28.6654E-03    -14.3484E-03     15.4916E-03
             867     5.32307E-03     86.5499E-03     1.07886E+06    -29.9985E+06     3.85401E+06    -4.60686E+06    -14.4203E-03     28.8210E-03    -14.4007E-03     19.0129E-03    -14.3777E-03     28.6645E-03    -14.3395E-03     18.9508E-03
             868     6.21040E-03     86.5690E-03     1.48633E+06    -32.6347E+06     3.58618E+06    -4.91110E+06    -14.4578E-03     28.8519E-03    -14.3941E-03     22.6963E-03    -14.4093E-03     28.6824E-03    -14.3310E-03     22.6296E-03
             869     7.09757E-03     86.5916E-03     2.41766E+06    -33.0328E+06     3.84021E+06    -5.15549E+06    -14.5157E-03     28.9037E-03    -14.3879E-03     26.6363E-03    -14.4629E-03     28.7310E-03    -14.3243E-03     26.5656E-03
             870     7.98488E-03     86.6181E-03     3.19982E+06    -35.4771E+06     4.77791E+06    -5.64906E+06    -14.5878E-03     28.9782E-03    -14.3904E-03     30.8029E-03    -14.5297E-03     28.7916E-03    -14.3197E-03     30.7245E-03
             871     8.87202E-03     86.6482E-03     3.22231E+06    -36.9410E+06      3.6981E+06    -6.05375E+06    -14.6691E-03     29.0528E-03    -14.3838E-03     35.2631E-03    -14.6083E-03     28.8617E-03    -14.3164E-03     35.1779E-03
             872     9.75932E-03     86.6830E-03     3.13752E+06    -36.1067E+06     2.99614E+06    -6.74728E+06    -14.7590E-03     29.1357E-03    -14.3767E-03     39.9559E-03    -14.7010E-03     28.9520E-03    -14.3140E-03     39.8594E-03
             873     10.6465E-03     86.7217E-03     3.55104E+06    -37.8624E+06     227.269E+03    -7.93308E+06    -14.8835E-03     29.2471E-03    -14.3635E-03     44.7054E-03    -14.8203E-03     29.0614E-03    -14.3127E-03     44.5902E-03
             874     11.5337E-03     86.7653E-03     3.09062E+06    -31.8813E+06    -3.02123E+06    -8.22091E+06    -15.0040E-03     29.3430E-03    -14.3390E-03     49.9536E-03    -14.9528E-03     29.1984E-03    -14.3124E-03     49.8301E-03
             875     12.4210E-03     86.8135E-03     1.72743E+06       -29.7E+06    -3.20838E+06    -7.60838E+06    -15.1920E-03     29.5281E-03    -14.3361E-03     58.1296E-03    -15.1624E-03     29.4085E-03    -14.3116E-03     58.0077E-03
             876     13.3081E-03     86.8724E-03     927.487E+03    -35.4232E+06    -11.5566E+06    -7.33514E+06    -15.4390E-03     29.7436E-03    -14.3046E-03     64.0079E-03    -15.4130E-03     29.6287E-03    -14.3124E-03     63.8822E-03
             877     14.1957E-03     86.9314E-03     1.03845E+06    -22.3872E+06    -14.8772E+06    -6.77634E+06    -15.5723E-03     29.8455E-03    -14.2732E-03     68.0053E-03    -15.5902E-03     29.8308E-03    -14.3167E-03     67.8842E-03
             878     15.0817E-03     86.9983E-03     776.987E+03     18.1793E+06    -12.7929E+06    -5.49071E+06    -16.5571E-03     30.7894E-03    -14.2323E-03     92.3516E-03    -16.7845E-03     31.1212E-03    -14.3238E-03     92.2695E-03
             879     15.9698E-03     87.1034E-03    -691.295E+03     35.9676E+06    -28.8580E+06    -3.38690E+06    -19.2533E-03     33.3976E-03    -14.1443E-03     143.958E-03    -20.3904E-03     34.7436E-03    -14.3398E-03     144.300E-03
             880     16.8568E-03     87.2672E-03    -1.46430E+06     93.6996E+06    -1.08839E+06    -1.07185E+06    -18.8122E-03     33.0292E-03    -14.2170E-03     155.972E-03    -21.0683E-03     35.6159E-03    -14.3562E-03     157.881E-03
             881     887.173E-06     87.4761E-03    -886.434E+03    -24.8643E+06    -934.266E+03    -1.61699E+06    -14.3869E-03     28.7705E-03    -14.3836E-03     3.29460E-03    -14.3539E-03     28.6489E-03    -14.3509E-03     3.27332E-03
             882     1.77436E-03     87.4804E-03    -285.084E+03    -25.3020E+06     325.661E+03    -1.90421E+06    -14.3850E-03     28.7724E-03    -14.3874E-03     6.10774E-03    -14.3502E-03     28.6459E-03    -14.3487E-03     6.08238E-03
             883     2.66154E-03     87.4873E-03     493.258E+03    -24.9013E+06     2.65768E+06    -2.68848E+06    -14.3834E-03     28.7758E-03    -14.3924E-03     9.13564E-03    -14.3488E-03     28.6468E-03    -14.3437E-03     9.09975E-03
             884     3.54876E-03     87.4972E-03     1.03970E+06    -25.2814E+06     4.24727E+06    -3.70704E+06    -14.3851E-03     28.7791E-03    -14.3939E-03     12.2677E-03    -14.3497E-03     28.6453E-03    -14.3376E-03     12.2182E-03
             885     4.43592E-03     87.5098E-03     1.58640E+06    -27.4836E+06     4.61782E+06    -4.31072E+06    -14.3901E-03     28.7807E-03    -14.3906E-03     15.5365E-03    -14.3495E-03     28.6347E-03    -14.3299E-03     15.4788E-03
             886     5.32326E-03     87.5256E-03     2.42400E+06    -28.7352E+06     5.24142E+06    -4.60893E+06    -14.4113E-03     28.7973E-03    -14.3859E-03     18.9961E-03    -14.3659E-03     28.6432E-03    -14.3216E-03     18.9339E-03
             887     6.21044E-03     87.5447E-03     3.03714E+06    -31.4393E+06     5.32496E+06    -5.07957E+06    -14.4578E-03     28.8402E-03    -14.3824E-03     22.6826E-03    -14.4058E-03     28.6719E-03    -14.3146E-03     22.6137E-03
             888     7.09771E-03     87.5674E-03     3.38507E+06    -31.6897E+06     4.36007E+06    -5.80013E+06    -14.4966E-03     28.8680E-03    -14.3713E-03     26.6521E-03    -14.4416E-03     28.6998E-03    -14.3085E-03     26.5731E-03
             889     7.98494E-03     87.5937E-03     3.89250E+06    -34.5214E+06     4.55891E+06    -6.07414E+06    -14.5571E-03     28.9269E-03    -14.3698E-03     30.8430E-03    -14.4965E-03     28.7443E-03    -14.3026E-03     30.7593E-03
             890     8.87223E-03     87.6241E-03     4.47699E+06    -36.0654E+06     4.19080E+06    -6.09341E+06    -14.6433E-03     29.0078E-03    -14.3645E-03     35.3277E-03    -14.5782E-03     28.8184E-03    -14.2977E-03     35.2421E-03
             891     9.75946E-03     87.6585E-03     4.71082E+06    -34.1853E+06     4.50733E+06    -6.77333E+06    -14.7256E-03     29.0847E-03    -14.3591E-03     40.0205E-03    -14.6646E-03     28.9060E-03    -14.2939E-03     39.9237E-03
             892     10.6468E-03     87.6977E-03     3.72101E+06    -36.2760E+06     1.55290E+06    -7.50197E+06    -14.8551E-03     29.2016E-03    -14.3465E-03     44.7607E-03    -14.7952E-03     29.0216E-03    -14.2915E-03     44.6511E-03
             893     11.5340E-03     87.7407E-03     2.19584E+06    -32.0102E+06    -1.47729E+06    -7.18106E+06    -14.9905E-03     29.3179E-03    -14.3274E-03     49.9481E-03    -14.9458E-03     29.1717E-03    -14.2916E-03     49.8381E-03
             894     12.4211E-03     87.7896E-03     1.79865E+06    -28.6831E+06    -1.45679E+06    -7.47370E+06    -15.2331E-03     29.5584E-03    -14.3253E-03     58.0556E-03    -15.2072E-03     29.4413E-03    -14.2936E-03     57.9354E-03
             895     13.3085E-03     87.8476E-03     1.97429E+06    -34.9708E+06    -11.0823E+06    -8.07034E+06    -15.5850E-03     29.8793E-03    -14.2942E-03     64.0645E-03    -15.5554E-03     29.7646E-03    -14.3018E-03     63.9290E-03
             896     14.1949E-03     87.9081E-03     974.748E+03    -23.8150E+06    -15.4045E+06    -7.07648E+06    -15.7538E-03     30.0266E-03    -14.2727E-03     68.0398E-03    -15.7691E-03     30.0055E-03    -14.3167E-03     67.9142E-03
             897     15.0828E-03     87.9736E-03    -132.002E+03     17.3011E+06    -13.0586E+06    -5.55605E+06    -16.6881E-03     30.9302E-03    -14.2421E-03     92.7532E-03    -16.9209E-03     31.2619E-03    -14.3323E-03     92.6699E-03
             898     15.9690E-03     88.0801E-03    -719.084E+03     33.3373E+06    -28.9803E+06    -3.70040E+06    -19.1315E-03     33.2873E-03    -14.1558E-03     143.947E-03    -20.2630E-03     34.6186E-03    -14.3480E-03     144.295E-03
             899     16.8554E-03     88.2428E-03    -963.298E+03     91.3731E+06    -1.80265E+06    -1.33986E+06    -18.5802E-03     32.7957E-03    -14.2156E-03     155.662E-03    -20.8287E-03     35.3705E-03    -14.3557E-03     157.584E-03
             900     887.186E-06     88.4520E-03    -183.889E+03    -22.3198E+06     722.826E+03    -1.04145E+06    -14.3628E-03     28.7342E-03    -14.3713E-03     3.29280E-03    -14.3324E-03     28.6219E-03    -14.3351E-03     3.27895E-03
             901     1.77437E-03     88.4562E-03    -2.24758E+03    -23.5178E+06     1.05620E+06    -2.16751E+06    -14.3634E-03     28.7327E-03    -14.3693E-03     6.10571E-03    -14.3309E-03     28.6136E-03    -14.3299E-03     6.07697E-03
             902     2.66161E-03     88.4632E-03     491.757E+03    -23.0901E+06     1.80151E+06    -2.74268E+06    -14.3498E-03     28.7145E-03    -14.3647E-03     9.13054E-03    -14.3166E-03     28.5959E-03    -14.3229E-03     9.09398E-03
             903     3.54881E-03     88.4729E-03     1.03857E+06    -23.2595E+06     3.84354E+06    -3.42674E+06    -14.3491E-03     28.7142E-03    -14.3651E-03     12.2686E-03    -14.3160E-03     28.5911E-03    -14.3136E-03     12.2228E-03
             904     4.43611E-03     88.4856E-03     1.75925E+06    -25.8340E+06     5.65973E+06    -4.37686E+06    -14.3783E-03     28.7477E-03    -14.3695E-03     15.5418E-03    -14.3407E-03     28.6082E-03    -14.3063E-03     15.4832E-03
             905     5.32327E-03     88.5013E-03     2.52812E+06    -27.6276E+06     6.08201E+06    -4.93034E+06    -14.4031E-03     28.7705E-03    -14.3674E-03     19.0110E-03    -14.3599E-03     28.6206E-03    -14.3006E-03     18.9447E-03
             906     6.21058E-03     88.5205E-03     3.19983E+06    -30.0490E+06     5.42831E+06    -5.22786E+06    -14.4263E-03     28.7865E-03    -14.3602E-03     22.7176E-03    -14.3757E-03     28.6248E-03    -14.2941E-03     22.6468E-03
             907     7.09783E-03     88.5430E-03     3.27835E+06    -30.2381E+06     4.32177E+06    -5.64429E+06    -14.4567E-03     28.8038E-03    -14.3471E-03     26.7027E-03    -14.4043E-03     28.6431E-03    -14.2864E-03     26.6257E-03
             908     7.98516E-03     88.5694E-03     3.16601E+06    -33.2677E+06     4.46922E+06    -6.43208E+06    -14.5151E-03     28.8598E-03    -14.3447E-03     30.9179E-03    -14.4598E-03     28.6847E-03    -14.2787E-03     30.8296E-03
             909     8.87245E-03     88.5996E-03     3.87820E+06    -35.1842E+06     4.10718E+06    -7.05486E+06    -14.5985E-03     28.9367E-03    -14.3382E-03     35.4121E-03    -14.5376E-03     28.7527E-03    -14.2722E-03     35.3141E-03
             910     9.75974E-03     88.6344E-03     4.51112E+06    -33.2073E+06     4.88165E+06    -6.81925E+06    -14.6929E-03     29.0262E-03    -14.3333E-03     40.1042E-03    -14.6348E-03     28.8521E-03    -14.2673E-03     40.0070E-03
             911     10.6470E-03     88.6731E-03     3.99746E+06    -35.9711E+06     2.71760E+06    -5.97786E+06    -14.8430E-03     29.1683E-03    -14.3252E-03     44.8652E-03    -14.7838E-03     28.9877E-03    -14.2653E-03     44.7753E-03
             912     11.5342E-03     88.7168E-03     3.05735E+06    -30.9983E+06    -383.980E+03    -6.36362E+06    -15.0050E-03     29.3108E-03    -14.3057E-03     50.0749E-03    -14.9591E-03     29.1667E-03    -14.2671E-03     49.9755E-03
             913     12.4215E-03     88.7650E-03     2.88256E+06    -26.1501E+06    -221.357E+03    -8.16782E+06    -15.3267E-03     29.6336E-03    -14.3069E-03     58.3009E-03    -15.3011E-03     29.5260E-03    -14.2742E-03     58.1715E-03
             914     13.3082E-03     88.8241E-03     2.31115E+06    -35.4907E+06    -10.8163E+06    -8.18947E+06    -15.6520E-03     29.9345E-03    -14.2825E-03     64.3912E-03    -15.6204E-03     29.8165E-03    -14.2885E-03     64.2539E-03
             915     14.1957E-03     88.8837E-03     1.18032E+06    -24.9072E+06    -15.4913E+06    -6.69195E+06    -15.8136E-03     30.0779E-03    -14.2643E-03     68.3339E-03    -15.8265E-03     30.0515E-03    -14.3073E-03     68.2132E-03
             916     15.0818E-03     88.9500E-03     445.313E+03     16.6160E+06    -12.3806E+06    -5.68975E+06    -16.7726E-03     31.0126E-03    -14.2400E-03     93.2620E-03    -17.0053E-03     31.3417E-03    -14.3266E-03     93.1773E-03
             917     15.9690E-03     89.0565E-03    -517.853E+03     30.2051E+06    -29.4000E+06    -4.18804E+06    -19.0452E-03     33.1962E-03    -14.1510E-03     144.412E-03    -20.1706E-03     34.5122E-03    -14.3410E-03     144.760E-03
             918     16.8568E-03     89.2185E-03    -1.14596E+06     89.0698E+06    -3.14998E+06    -1.66195E+06    -18.6012E-03     32.8034E-03    -14.2022E-03     156.213E-03    -20.8569E-03     35.3803E-03    -14.3454E-03     158.144E-03
             919     887.226E-06     89.4277E-03     939.821E+03    -20.5276E+06     1.10931E+06    -602.068E+03    -14.3314E-03     28.6741E-03    -14.3427E-03     3.29313E-03    -14.2985E-03     28.5685E-03    -14.3087E-03     3.28496E-03
             920     1.77444E-03     89.4320E-03     900.072E+03    -21.2719E+06     2.20180E+06    -1.58363E+06    -14.3316E-03     28.6716E-03    -14.3400E-03     6.10592E-03    -14.2995E-03     28.5608E-03    -14.2995E-03     6.08472E-03
             921     2.66165E-03     89.4389E-03     910.968E+03    -21.4470E+06     2.49571E+06    -2.64410E+06    -14.3206E-03     28.6555E-03    -14.3349E-03     9.12862E-03    -14.2887E-03     28.5434E-03    -14.2926E-03     9.09334E-03
             922     3.54897E-03     89.4486E-03     1.36782E+06    -21.4977E+06     4.16303E+06    -3.32311E+06    -14.3213E-03     28.6555E-03    -14.3341E-03     12.2762E-03    -14.2896E-03     28.5402E-03    -14.2841E-03     12.2317E-03
             923     4.43618E-03     89.4613E-03     1.90551E+06    -23.7914E+06     6.22141E+06    -4.16648E+06    -14.3461E-03     28.6860E-03    -14.3399E-03     15.5637E-03    -14.3115E-03     28.5557E-03    -14.2771E-03     15.5079E-03
             924     5.32348E-03     89.4771E-03     2.50153E+06    -26.2548E+06     6.64818E+06    -5.01330E+06    -14.3645E-03     28.7031E-03    -14.3386E-03     19.0443E-03    -14.3242E-03     28.5592E-03    -14.2709E-03     18.9770E-03
             925     6.21075E-03     89.4961E-03     3.07426E+06    -28.9026E+06     5.89911E+06    -5.42239E+06    -14.3819E-03     28.7119E-03    -14.3301E-03     22.7639E-03    -14.3342E-03     28.5554E-03    -14.2631E-03     22.6907E-03
             926     7.09810E-03     89.5187E-03     3.81404E+06    -28.9554E+06     5.42857E+06    -5.75840E+06    -14.4129E-03     28.7303E-03    -14.3175E-03     26.7590E-03    -14.3612E-03     28.5737E-03    -14.2539E-03     26.6807E-03
             927     7.98541E-03     89.5449E-03     4.31264E+06    -31.5245E+06     5.75389E+06    -6.33142E+06    -14.4721E-03     28.7851E-03    -14.3130E-03     30.9972E-03    -14.4154E-03     28.6152E-03    -14.2448E-03     30.9103E-03
             928     8.87271E-03     89.5754E-03     3.46025E+06    -34.1704E+06     3.80781E+06    -6.80219E+06    -14.5427E-03     28.8431E-03    -14.3003E-03     35.5166E-03    -14.4849E-03     28.6652E-03    -14.2368E-03     35.4220E-03
             929     9.76010E-03     89.6098E-03     2.41695E+06    -33.1332E+06     3.13346E+06    -6.63882E+06    -14.6402E-03     28.9307E-03    -14.2906E-03     40.2886E-03    -14.5901E-03     28.7625E-03    -14.2304E-03     40.1938E-03
             930     10.6474E-03     89.6490E-03     3.03584E+06    -35.9454E+06     1.98198E+06    -6.44857E+06    -14.8166E-03     29.1024E-03    -14.2858E-03     45.1020E-03    -14.7611E-03     28.9244E-03    -14.2282E-03     45.0062E-03
             931     11.5347E-03     89.6922E-03     4.47680E+06    -29.1510E+06     798.529E+03    -6.82874E+06    -15.0219E-03     29.2937E-03    -14.2718E-03     50.3523E-03    -14.9732E-03     29.1551E-03    -14.2321E-03     50.2469E-03
             932     12.4217E-03     89.7413E-03     4.10031E+06    -24.0300E+06     2.01587E+06    -7.50176E+06    -15.3546E-03     29.6361E-03    -14.2815E-03     58.6940E-03    -15.3294E-03     29.5343E-03    -14.2425E-03     58.5732E-03
             933     13.3090E-03     89.7998E-03     2.28375E+06    -35.9885E+06    -9.51372E+06    -7.39269E+06    -15.6507E-03     29.9111E-03    -14.2604E-03     64.6546E-03    -15.6205E-03     29.7889E-03    -14.2591E-03     64.5276E-03
             934     14.1955E-03     89.8599E-03     998.359E+03    -25.6701E+06    -15.4428E+06    -6.71033E+06    -15.8110E-03     30.0484E-03    -14.2374E-03     68.8745E-03    -15.8243E-03     30.0190E-03    -14.2789E-03     68.7536E-03
             935     15.0829E-03     89.9264E-03     658.870E+03     15.8318E+06    -11.5796E+06    -6.29842E+06    -16.6794E-03     30.8936E-03    -14.2141E-03     93.7988E-03    -16.9119E-03     31.2181E-03    -14.2959E-03     93.7075E-03
             936     15.9700E-03     90.0323E-03     114.841E+03     27.5861E+06    -29.3074E+06    -4.45441E+06    -19.1598E-03     33.2847E-03    -14.1248E-03     144.502E-03    -20.2787E-03     34.5868E-03    -14.3115E-03     144.841E-03
             937     16.8565E-03     90.1945E-03    -669.200E+03     86.5568E+06    -4.26474E+06    -1.58112E+06    -18.8788E-03     33.0601E-03    -14.1813E-03     156.091E-03    -21.1262E-03     35.6248E-03    -14.3272E-03     158.014E-03
             938     887.233E-06     90.4035E-03     33.9646E+03    -19.2286E+06     228.244E+03    -713.961E+03    -14.2908E-03     28.5787E-03    -14.2879E-03     3.30048E-03    -14.2630E-03     28.4822E-03    -14.2589E-03     3.29086E-03
             939     1.77451E-03     90.4077E-03     648.040E+03    -19.2864E+06     1.43886E+06    -1.41652E+06    -14.2820E-03     28.5723E-03    -14.2903E-03     6.10656E-03    -14.2530E-03     28.4729E-03    -14.2561E-03     6.08753E-03
             940     2.66182E-03     90.4146E-03     1.55866E+06    -19.3942E+06     4.20965E+06    -2.46298E+06    -14.2914E-03     28.5893E-03    -14.2978E-03     9.14079E-03    -14.2618E-03     28.4841E-03    -14.2509E-03     9.10787E-03
             941     3.54903E-03     90.4243E-03     2.36816E+06    -20.1578E+06     6.26648E+06    -3.17255E+06    -14.2957E-03     28.5992E-03    -14.3035E-03     12.2972E-03    -14.2640E-03     28.4861E-03    -14.2464E-03     12.2547E-03
             942     4.43637E-03     90.4370E-03     3.25744E+06    -21.5574E+06     7.39038E+06    -4.01025E+06    -14.2902E-03     28.5926E-03    -14.3023E-03     15.5974E-03    -14.2538E-03     28.4698E-03    -14.2389E-03     15.5436E-03
             943     5.32368E-03     90.4527E-03     4.06338E+06    -24.6846E+06     8.36995E+06    -4.94166E+06    -14.3067E-03     28.6076E-03    -14.3009E-03     19.0787E-03    -14.2634E-03     28.4668E-03    -14.2291E-03     19.0124E-03
             944     6.21103E-03     90.4717E-03     4.63854E+06    -27.6983E+06     7.61883E+06    -5.44528E+06    -14.3332E-03     28.6238E-03    -14.2906E-03     22.8100E-03    -14.2819E-03     28.4686E-03    -14.2191E-03     22.7365E-03
             945     7.09837E-03     90.4941E-03     4.65173E+06    -27.7160E+06     5.66364E+06    -5.85975E+06    -14.3536E-03     28.6235E-03    -14.2699E-03     26.8532E-03    -14.2998E-03     28.4714E-03    -14.2081E-03     26.7737E-03
             946     7.98576E-03     90.5206E-03     4.23370E+06    -30.4302E+06     5.42840E+06    -5.98537E+06    -14.4008E-03     28.6626E-03    -14.2618E-03     31.1272E-03    -14.3456E-03     28.4987E-03    -14.1967E-03     31.0449E-03
             947     8.87322E-03     90.5507E-03     3.94881E+06    -33.5623E+06     4.95628E+06    -5.67973E+06    -14.4798E-03     28.7341E-03    -14.2543E-03     35.6430E-03    -14.4220E-03     28.5568E-03    -14.1866E-03     35.5631E-03
             948     9.76057E-03     90.5855E-03     3.67367E+06    -32.1194E+06     4.30247E+06    -6.08724E+06    -14.5820E-03     28.8236E-03    -14.2416E-03     40.4845E-03    -14.5288E-03     28.6568E-03    -14.1788E-03     40.3969E-03
             949     10.6480E-03     90.6244E-03     3.54930E+06    -34.4530E+06     2.49997E+06    -7.44550E+06    -14.7750E-03     29.0085E-03    -14.2335E-03     45.3978E-03    -14.7198E-03     28.8364E-03    -14.1762E-03     45.2893E-03
             950     11.5351E-03     90.6682E-03     3.27863E+06    -28.8698E+06     501.800E+03    -7.56078E+06    -15.0068E-03     29.2279E-03    -14.2211E-03     50.7242E-03    -14.9641E-03     29.0929E-03    -14.1814E-03     50.6095E-03
             951     12.4225E-03     90.7168E-03     3.11095E+06    -23.4546E+06     2.66062E+06    -6.67863E+06    -15.3117E-03     29.5476E-03    -14.2360E-03     59.0763E-03    -15.2931E-03     29.4492E-03    -14.1932E-03     58.9663E-03
             952     13.3093E-03     90.7761E-03     2.79611E+06    -35.7012E+06    -8.15929E+06    -6.64334E+06    -15.6385E-03     29.8561E-03    -14.2176E-03     64.9927E-03    -15.6082E-03     29.7327E-03    -14.2107E-03     64.8755E-03
             953     14.1967E-03     90.8355E-03     1.85485E+06    -25.3970E+06    -14.8920E+06    -6.93156E+06    -15.7959E-03     29.9874E-03    -14.1915E-03     69.2014E-03    -15.8062E-03     29.9574E-03    -14.2318E-03     69.0779E-03
             954     15.0834E-03     90.9026E-03     1.16572E+06     15.4296E+06    -10.2477E+06    -6.64189E+06    -16.7731E-03     30.9512E-03    -14.1781E-03     93.8261E-03    -17.0042E-03     31.2710E-03    -14.2534E-03     93.7296E-03
             955     15.9704E-03     91.0082E-03    -28.2660E+03     24.5727E+06    -28.6373E+06    -4.68598E+06    -19.4688E-03     33.5720E-03    -14.1032E-03     144.630E-03    -20.5902E-03     34.8636E-03    -14.2820E-03     144.960E-03
             956     16.8568E-03     91.1720E-03    -984.723E+03     83.7986E+06    -5.00455E+06    -1.68905E+06    -19.0261E-03     33.1917E-03    -14.1657E-03     156.098E-03    -21.2705E-03     35.7446E-03    -14.3108E-03     158.014E-03
             957     887.321E-06     91.3791E-03    -1.16822E+06    -17.3372E+06    -800.582E+03    -1.13533E+06    -14.2373E-03     28.4583E-03    -14.2210E-03     3.31215E-03    -14.2168E-03     28.3745E-03    -14.1982E-03     3.29710E-03
             958     1.77461E-03     91.3833E-03     131.264E+03    -17.5101E+06     1.76521E+06    -2.02976E+06    -14.2338E-03     28.4726E-03    -14.2388E-03     6.11044E-03    -14.2104E-03     28.3823E-03    -14.2047E-03     6.08352E-03
             959     2.66191E-03     91.3902E-03     1.26980E+06    -17.6754E+06     4.19752E+06    -2.47750E+06    -14.2343E-03     28.4803E-03    -14.2460E-03     9.16379E-03    -14.2086E-03     28.3841E-03    -14.2012E-03     9.13071E-03
             960     3.54925E-03     91.3999E-03     2.52297E+06    -18.4554E+06     6.88261E+06    -3.26084E+06    -14.2319E-03     28.4843E-03    -14.2523E-03     12.3270E-03    -14.2028E-03     28.3786E-03    -14.1948E-03     12.2834E-03
             961     4.43657E-03     91.4125E-03     3.56725E+06    -19.8527E+06     8.38988E+06    -3.93880E+06    -14.2249E-03     28.4756E-03    -14.2507E-03     15.6369E-03    -14.1908E-03     28.3594E-03    -14.1851E-03     15.5841E-03
             962     5.32398E-03     91.4283E-03     4.19156E+06    -22.7012E+06     8.71686E+06    -4.78954E+06    -14.2266E-03     28.4696E-03    -14.2431E-03     19.1380E-03    -14.1860E-03     28.3381E-03    -14.1726E-03     19.0738E-03
             963     6.21139E-03     91.4471E-03     5.09587E+06    -26.1046E+06     7.81353E+06    -5.91099E+06    -14.2450E-03     28.4733E-03    -14.2283E-03     22.8960E-03    -14.1939E-03     28.3250E-03    -14.1588E-03     22.8166E-03
             964     7.09884E-03     91.4697E-03     5.56984E+06    -27.7246E+06     6.43399E+06    -5.36517E+06    -14.2690E-03     28.4775E-03    -14.2085E-03     26.9546E-03    -14.2117E-03     28.3229E-03    -14.1442E-03     26.8815E-03
             965     7.98635E-03     91.4958E-03     5.01172E+06    -29.1519E+06     6.42549E+06    -5.08106E+06    -14.3135E-03     28.5105E-03    -14.1970E-03     31.2712E-03    -14.2577E-03     28.3503E-03    -14.1299E-03     31.2007E-03
             966     8.87374E-03     91.5263E-03     4.86791E+06    -33.1558E+06     6.22487E+06    -5.71828E+06    -14.4008E-03     28.5906E-03    -14.1898E-03     35.8384E-03    -14.3408E-03     28.4122E-03    -14.1177E-03     35.7581E-03
             967     9.76127E-03     91.5607E-03     5.16076E+06    -30.7844E+06     5.93283E+06    -5.78881E+06    -14.5162E-03     28.6918E-03    -14.1757E-03     40.7555E-03    -14.4597E-03     28.5272E-03    -14.1089E-03     40.6720E-03
             968     10.6486E-03     91.6001E-03     4.14790E+06    -32.3849E+06     3.92619E+06    -6.41521E+06    -14.7024E-03     28.8686E-03    -14.1662E-03     45.7504E-03    -14.6492E-03     28.7038E-03    -14.1057E-03     45.6555E-03
             969     11.5361E-03     91.6435E-03     2.66093E+06    -28.8982E+06     794.905E+03    -6.89542E+06    -14.9472E-03     29.0999E-03    -14.1527E-03     51.1705E-03    -14.9078E-03     28.9651E-03    -14.1107E-03     51.0646E-03
             970     12.4231E-03     91.6928E-03     2.40519E+06    -22.9139E+06     2.55722E+06    -7.16301E+06    -15.2998E-03     29.4666E-03    -14.1668E-03     59.5072E-03    -15.2854E-03     29.3720E-03    -14.1243E-03     59.3911E-03
             971     13.3106E-03     91.7516E-03     3.02501E+06    -35.3560E+06    -8.04253E+06    -7.27563E+06    -15.6803E-03     29.8337E-03    -14.1534E-03     65.2947E-03    -15.6496E-03     29.7115E-03    -14.1467E-03     65.1694E-03
             972     14.1971E-03     91.8119E-03     2.68560E+06    -24.8019E+06    -14.4754E+06    -6.90467E+06    -15.9380E-03     30.0746E-03    -14.1366E-03     69.3601E-03    -15.9459E-03     30.0460E-03    -14.1769E-03     69.2367E-03
             973     15.0842E-03     91.8783E-03     1.13485E+06     14.6873E+06    -8.99012E+06    -6.13010E+06    -17.0490E-03     31.1943E-03    -14.1453E-03     94.1766E-03    -17.2831E-03     31.5107E-03    -14.2132E-03     94.0852E-03
             974     15.9706E-03     91.9854E-03    -633.912E+03     21.9026E+06    -27.9998E+06    -4.40142E+06    -19.5983E-03     33.6822E-03    -14.0839E-03     144.826E-03    -20.7230E-03     34.9636E-03    -14.2547E-03     145.162E-03
             975     16.8574E-03     92.1477E-03    -1.44645E+06     81.1317E+06    -5.42020E+06    -2.10337E+06    -19.0191E-03     33.1650E-03    -14.1458E-03     155.930E-03    -21.2621E-03     35.7065E-03    -14.2885E-03     157.840E-03
             976     887.347E-06     92.3546E-03    -759.298E+03    -14.5299E+06    -120.993E+03    -1.80716E+06    -14.1761E-03     28.3377E-03    -14.1616E-03     3.32427E-03    -14.1586E-03     28.2664E-03    -14.1401E-03     3.30056E-03
             977     1.77470E-03     92.3588E-03     53.8676E+03    -15.8756E+06     2.10566E+06    -2.19981E+06    -14.1665E-03     28.3454E-03    -14.1789E-03     6.13074E-03    -14.1464E-03     28.2630E-03    -14.1454E-03     6.10165E-03
             978     2.66207E-03     92.3657E-03     917.794E+03    -16.3451E+06     3.54694E+06    -2.51375E+06    -14.1502E-03     28.3280E-03    -14.1778E-03     9.19249E-03    -14.1272E-03     28.2399E-03    -14.1377E-03     9.15899E-03
             979     3.54948E-03     92.3754E-03     1.41213E+06    -16.6210E+06     5.24393E+06    -3.03727E+06    -14.1313E-03     28.3047E-03    -14.1734E-03     12.3678E-03    -14.1080E-03     28.2122E-03    -14.1251E-03     12.3271E-03
             980     4.43692E-03     92.3880E-03     1.76255E+06    -18.6924E+06     6.98052E+06    -3.51448E+06    -14.1258E-03     28.2958E-03    -14.1701E-03     15.6932E-03    -14.1004E-03     28.1901E-03    -14.1106E-03     15.6459E-03
             981     5.32437E-03     92.4036E-03     2.40178E+06    -20.0494E+06     7.43545E+06    -4.67938E+06    -14.1140E-03     28.2713E-03    -14.1572E-03     19.2261E-03    -14.0844E-03     28.1574E-03    -14.0945E-03     19.1634E-03
             982     6.21189E-03     92.4225E-03     2.54268E+06    -24.4068E+06     6.55052E+06    -5.86827E+06    -14.1213E-03     28.2622E-03    -14.1409E-03     23.0053E-03    -14.0836E-03     28.1279E-03    -14.0765E-03     22.9267E-03
             983     7.09944E-03     92.4448E-03     2.75591E+06    -28.6077E+06     4.86384E+06    -5.54372E+06    -14.1444E-03     28.2642E-03    -14.1198E-03     27.0877E-03    -14.0976E-03     28.1115E-03    -14.0580E-03     27.0125E-03
             984     7.98696E-03     92.4712E-03     3.65996E+06    -27.8433E+06     4.33252E+06    -5.05953E+06    -14.1832E-03     28.2796E-03    -14.0964E-03     31.4915E-03    -14.1329E-03     28.1309E-03    -14.0397E-03     31.4216E-03
             985     8.87466E-03     92.5014E-03     3.64589E+06    -32.1402E+06     5.19558E+06    -5.39507E+06    -14.2915E-03     28.3834E-03    -14.0919E-03     36.1161E-03    -14.2375E-03     28.2132E-03    -14.0246E-03     36.0402E-03
             986     9.76213E-03     92.5360E-03     3.01249E+06    -30.3733E+06     5.87947E+06    -5.52630E+06    -14.4202E-03     28.5044E-03    -14.0842E-03     41.0859E-03    -14.3749E-03     28.3449E-03    -14.0151E-03     41.0060E-03
             987     10.6498E-03     92.5752E-03     3.07075E+06    -30.9612E+06     5.07202E+06    -5.52565E+06    -14.6169E-03     28.6951E-03    -14.0782E-03     46.1332E-03    -14.5727E-03     28.5371E-03    -14.0124E-03     46.0500E-03
             988     11.5370E-03     92.6191E-03     3.26151E+06    -27.6554E+06     2.38183E+06    -6.40584E+06    -14.8869E-03     28.9527E-03    -14.0658E-03     51.6051E-03    -14.8485E-03     28.8208E-03    -14.0186E-03     51.5058E-03
             989     12.4246E-03     92.6683E-03     3.57455E+06    -21.2708E+06     3.94577E+06    -7.65554E+06    -15.3224E-03     29.4041E-03    -14.0817E-03     60.0170E-03    -15.3066E-03     29.3140E-03    -14.0363E-03     59.8947E-03
             990     13.3111E-03     92.7277E-03     3.41420E+06    -34.9777E+06    -7.25665E+06    -8.16361E+06    -15.8402E-03     29.9192E-03    -14.0790E-03     65.7483E-03    -15.8095E-03     29.7975E-03    -14.0695E-03     65.6113E-03
             991     14.1983E-03     92.7876E-03     3.06541E+06    -25.6587E+06    -13.6098E+06    -7.11000E+06    -16.1516E-03     30.2316E-03    -14.0800E-03     69.7541E-03    -16.1584E-03     30.1977E-03    -14.1153E-03     69.6273E-03
             992     15.0846E-03     92.8551E-03     2.40144E+06     13.7886E+06    -6.95186E+06    -5.25756E+06    -17.2115E-03     31.3181E-03    -14.1066E-03     94.7732E-03    -17.4427E-03     31.6269E-03    -14.1648E-03     94.6925E-03
             993     15.9713E-03     92.9619E-03     774.691E+03     19.9609E+06    -27.1890E+06    -3.68132E+06    -19.6910E-03     33.7394E-03    -14.0484E-03     145.186E-03    -20.8082E-03     35.0091E-03    -14.2144E-03     145.533E-03
             994     16.8575E-03     93.1243E-03    -317.127E+03     78.8040E+06    -4.41567E+06    -1.91471E+06    -19.1933E-03     33.3134E-03    -14.1202E-03     156.119E-03    -21.4337E-03     35.8453E-03    -14.2561E-03     158.031E-03
             995     887.406E-06     93.3300E-03    -1.76503E+06    -11.8943E+06    -520.377E+03    -910.380E+03    -14.0845E-03     28.1650E-03    -14.0805E-03     3.33927E-03    -14.0753E-03     28.1089E-03    -14.0633E-03     3.32716E-03
             996     1.77484E-03     93.3342E-03    -1.64450E+06    -14.1536E+06     -77.455E+03    -1.93198E+06    -14.0602E-03     28.1444E-03    -14.0842E-03     6.16410E-03    -14.0478E-03     28.0761E-03    -14.0616E-03     6.13850E-03
             997     2.66231E-03     93.3410E-03    -1.18017E+06    -15.1410E+06     1.06701E+06    -2.35449E+06    -14.0360E-03     28.1126E-03    -14.0766E-03     9.23048E-03    -14.0216E-03     28.0372E-03    -14.0476E-03     9.19908E-03
             998     3.54980E-03     93.3507E-03    -851.299E+03    -15.6927E+06     2.80449E+06    -2.28927E+06    -14.0067E-03     28.0746E-03    -14.0679E-03     12.4233E-03    -13.9925E-03     27.9935E-03    -14.0299E-03     12.3924E-03
             999     4.43735E-03     93.3632E-03    -546.088E+03    -17.0251E+06     4.32712E+06    -2.89884E+06    -13.9824E-03     28.0390E-03    -14.0566E-03     15.7713E-03    -13.9671E-03     27.9488E-03    -14.0095E-03     15.7321E-03
            1000     5.32494E-03     93.3788E-03    -641.154E+03    -17.9058E+06     5.50343E+06    -3.86459E+06    -13.9669E-03     28.0093E-03    -14.0423E-03     19.3249E-03    -13.9528E-03     27.9133E-03    -13.9879E-03     19.2728E-03
            1001     6.21258E-03     93.3976E-03    -936.026E+03    -22.5392E+06     5.47152E+06    -4.82668E+06    -13.9707E-03     27.9982E-03    -14.0275E-03     23.1335E-03    -13.9515E-03     27.8798E-03    -13.9661E-03     23.0684E-03
            1002     7.10020E-03     93.4200E-03    -719.669E+03    -27.9528E+06     3.38767E+06    -5.93345E+06    -13.9855E-03     27.9880E-03    -14.0025E-03     27.2576E-03    -13.9548E-03     27.8457E-03    -13.9440E-03     27.1776E-03
            1003     7.98803E-03     93.4460E-03    -214.671E+03    -27.7126E+06     2.17922E+06    -5.82145E+06    -14.0256E-03     27.9992E-03    -13.9737E-03     31.7327E-03    -13.9916E-03     27.8598E-03    -13.9223E-03     31.6531E-03
            1004     8.87565E-03     93.4765E-03     597.390E+03    -31.2846E+06     4.13068E+06    -5.28447E+06    -14.1473E-03     28.1174E-03    -13.9701E-03     36.4187E-03    -14.1082E-03     27.9573E-03    -13.9049E-03     36.3445E-03
            1005     9.76336E-03     93.5110E-03     1.44953E+06    -29.8294E+06     5.80867E+06    -5.40219E+06    -14.3039E-03     28.2690E-03    -13.9651E-03     41.4423E-03    -14.2669E-03     28.1145E-03    -13.8949E-03     41.3644E-03
            1006     10.6509E-03     93.5505E-03     2.10727E+06    -29.8546E+06     5.45332E+06    -5.93822E+06    -14.5346E-03     28.4958E-03    -13.9612E-03     46.6091E-03    -14.4972E-03     28.3441E-03    -13.8937E-03     46.5209E-03
            1007     11.5385E-03     93.5943E-03     2.69120E+06    -25.8601E+06     3.68567E+06    -6.70176E+06    -14.8522E-03     28.8083E-03    -13.9561E-03     52.1479E-03    -14.8211E-03     28.6842E-03    -13.9041E-03     52.0450E-03
            1008     12.4255E-03     93.6439E-03     2.88685E+06    -19.4222E+06     5.28841E+06    -7.83188E+06    -15.3068E-03     29.2847E-03    -13.9779E-03     60.6880E-03    -15.2990E-03     29.2029E-03    -13.9275E-03     60.5636E-03
            1009     13.3130E-03     93.7037E-03     2.53834E+06    -34.8274E+06    -6.42341E+06    -8.07568E+06    -15.9188E-03     29.9023E-03    -13.9835E-03     66.6117E-03    -15.8941E-03     29.7816E-03    -13.9688E-03     66.4759E-03
            1010     14.1989E-03     93.7641E-03     1.65549E+06    -26.6228E+06    -13.1859E+06    -7.45193E+06    -16.4509E-03     30.4522E-03    -14.0013E-03     70.6150E-03    -16.4653E-03     30.4163E-03    -14.0310E-03     70.4830E-03
            1011     15.0859E-03     93.8313E-03     2.05984E+06     11.8010E+06    -6.24799E+06    -5.77103E+06    -17.4785E-03     31.5283E-03    -14.0498E-03     95.1823E-03    -17.7111E-03     31.8283E-03    -14.1012E-03     95.0940E-03
            1012     15.9723E-03     93.9389E-03     1.30436E+06     18.0255E+06    -26.1544E+06    -3.02098E+06    -19.8099E-03     33.8159E-03    -14.0060E-03     145.095E-03    -20.9216E-03     35.0720E-03    -14.1648E-03     145.447E-03
            1013     16.8590E-03     94.1007E-03    -1.02911E+06     77.5068E+06    -3.42299E+06    -1.45134E+06    -19.5243E-03     33.6173E-03    -14.0930E-03     156.075E-03    -21.7710E-03     36.1454E-03    -14.2210E-03     157.983E-03
            1014     887.528E-06     94.3052E-03    -4.60166E+06    -10.6427E+06    -4.39822E+06     73.2620E+03    -13.9459E-03     27.8867E-03    -13.9409E-03     3.33759E-03    -13.9470E-03     27.8467E-03    -13.9408E-03     3.33821E-03
            1015     1.77506E-03     94.3094E-03    -4.65707E+06    -11.9511E+06    -3.02811E+06    -1.28553E+06    -13.9172E-03     27.8617E-03    -13.9444E-03     6.20064E-03    -13.9188E-03     27.8131E-03    -13.9355E-03     6.18343E-03
            1016     2.66263E-03     94.3161E-03    -4.60308E+06    -14.5106E+06    -1.51201E+06    -1.75699E+06    -13.8919E-03     27.8323E-03    -13.9404E-03     9.28244E-03    -13.8918E-03     27.7687E-03    -13.9202E-03     9.25882E-03
            1017     3.55027E-03     94.3257E-03    -3.76512E+06    -14.6381E+06     431.590E+03    -2.14432E+06    -13.8527E-03     27.7821E-03    -13.9294E-03     12.4918E-03    -13.8512E-03     27.7139E-03    -13.9005E-03     12.4628E-03
            1018     4.43793E-03     94.3382E-03    -2.44141E+06    -15.6350E+06     2.94843E+06    -2.69030E+06    -13.8180E-03     27.7353E-03    -13.9173E-03     15.8571E-03    -13.8122E-03     27.6568E-03    -13.8764E-03     15.8207E-03
            1019     5.32569E-03     94.3537E-03    -1.48426E+06    -16.8455E+06     5.19683E+06    -2.80508E+06    -13.7953E-03     27.6979E-03    -13.9026E-03     19.4302E-03    -13.7864E-03     27.6089E-03    -13.8501E-03     19.3920E-03
            1020     6.21343E-03     94.3725E-03    -971.976E+03    -20.0979E+06     6.28539E+06    -3.88852E+06    -13.7950E-03     27.6807E-03    -13.8857E-03     23.2687E-03    -13.7807E-03     27.5734E-03    -13.8237E-03     23.2159E-03
            1021     7.10132E-03     94.3946E-03    -1.14852E+06    -26.3368E+06     5.87296E+06    -5.10525E+06    -13.8285E-03     27.6968E-03    -13.8683E-03     27.4172E-03    -13.8059E-03     27.5595E-03    -13.7991E-03     27.3480E-03
            1022     7.98904E-03     94.4208E-03    -1.58406E+06    -27.5208E+06     4.01675E+06    -5.50066E+06    -13.8652E-03     27.7040E-03    -13.8388E-03     31.9501E-03    -13.8410E-03     27.5648E-03    -13.7765E-03     31.8749E-03
            1023     8.87701E-03     94.4511E-03    -1.46061E+06    -30.5052E+06     2.91932E+06    -5.79071E+06    -13.9611E-03     27.7790E-03    -13.8179E-03     36.7798E-03    -13.9315E-03     27.6274E-03    -13.7569E-03     36.6994E-03
            1024     9.76477E-03     94.4859E-03    -670.739E+03    -29.1163E+06     4.21124E+06    -5.96400E+06    -14.1502E-03     27.9595E-03    -13.8093E-03     41.9228E-03    -14.1224E-03     27.8137E-03    -13.7450E-03     41.8380E-03
            1025     10.6526E-03     94.5253E-03     279.724E+03    -28.3794E+06     5.44288E+06    -6.48206E+06    -14.4362E-03     28.2498E-03    -13.8136E-03     47.2002E-03    -14.4099E-03     28.1080E-03    -13.7456E-03     47.1053E-03
            1026     11.5400E-03     94.5696E-03     942.937E+03    -24.7100E+06     4.76481E+06    -7.10003E+06    -14.8096E-03     28.6294E-03    -13.8198E-03     52.8495E-03    -14.7904E-03     28.5120E-03    -13.7616E-03     52.7418E-03
            1027     12.4275E-03     94.6194E-03     809.576E+03    -17.9728E+06     6.80469E+06    -7.27571E+06    -15.3201E-03     29.1726E-03    -13.8525E-03     61.3932E-03    -15.3271E-03     29.0989E-03    -13.7936E-03     61.2762E-03
            1028     13.3143E-03     94.6794E-03     209.915E+03    -34.0658E+06    -5.64157E+06    -8.10115E+06    -15.9782E-03     29.8448E-03    -13.8665E-03     67.3368E-03    -15.9676E-03     29.7303E-03    -13.8456E-03     67.2007E-03
            1029     14.2015E-03     94.7406E-03    -848.692E+03    -27.5159E+06    -13.1579E+06    -7.70632E+06    -16.6579E-03     30.5560E-03    -13.8982E-03     71.4858E-03    -16.6845E-03     30.5201E-03    -13.9228E-03     71.3499E-03
            1030     15.0866E-03     94.8087E-03    -2.26860E+06     10.6629E+06    -6.44311E+06    -6.53027E+06    -17.9028E-03     31.8755E-03    -13.9727E-03     95.7353E-03    -18.1576E-03     32.1788E-03    -14.0171E-03     95.6349E-03
            1031     15.9728E-03     94.9149E-03    -1.32639E+06     14.9930E+06    -26.3769E+06    -4.49628E+06    -20.4120E-03     34.3742E-03    -13.9623E-03     145.177E-03    -21.5402E-03     35.6275E-03    -14.1140E-03     145.499E-03
            1032     16.8586E-03     95.0779E-03     307.888E+03     75.0976E+06    -2.97245E+06    -1.11287E+06    -19.7970E-03     33.8691E-03    -14.0721E-03     155.929E-03    -22.0354E-03     36.3838E-03    -14.1963E-03     157.827E-03
            1033     887.658E-06     95.2801E-03    -7.36121E+06    -10.3168E+06    -7.59657E+06    -162.717E+03    -13.7546E-03     27.5226E-03    -13.7680E-03     3.32860E-03    -13.7654E-03     27.4928E-03    -13.7804E-03     3.32620E-03
            1034     1.77539E-03     95.2842E-03    -7.27802E+06    -10.3597E+06    -5.32179E+06    -431.211E+03    -13.7346E-03     27.4981E-03    -13.7635E-03     6.23757E-03    -13.7483E-03     27.4647E-03    -13.7645E-03     6.23143E-03
            1035     2.66310E-03     95.2910E-03    -6.57854E+06    -13.8151E+06    -1.96969E+06    -1.06624E+06    -13.7193E-03     27.4896E-03    -13.7703E-03     9.33370E-03    -13.7294E-03     27.4330E-03    -13.7505E-03     9.31907E-03
            1036     3.55084E-03     95.3005E-03    -5.86458E+06    -13.1581E+06     85.4157E+03    -1.74811E+06    -13.6734E-03     27.4335E-03    -13.7601E-03     12.5620E-03    -13.6839E-03     27.3763E-03    -13.7321E-03     12.5382E-03
            1037     4.43870E-03     95.3128E-03    -5.29981E+06    -14.6695E+06     2.05788E+06    -2.43661E+06    -13.6279E-03     27.3745E-03    -13.7466E-03     15.9448E-03    -13.6364E-03     27.3062E-03    -13.7074E-03     15.9118E-03
            1038     5.32655E-03     95.3283E-03    -4.24587E+06    -16.3697E+06     3.55246E+06    -2.63375E+06    -13.5868E-03     27.3126E-03    -13.7258E-03     19.5497E-03    -13.5900E-03     27.2323E-03    -13.6782E-03     19.5138E-03
            1039     6.21459E-03     95.3469E-03    -3.81344E+06    -18.3576E+06     5.08192E+06    -2.67759E+06    -13.5817E-03     27.2872E-03    -13.7055E-03     23.4260E-03    -13.5823E-03     27.1944E-03    -13.6479E-03     23.3891E-03
            1040     7.10248E-03     95.3692E-03    -4.01130E+06    -24.5626E+06     5.68399E+06    -3.62461E+06    -13.6230E-03     27.3135E-03    -13.6906E-03     27.6297E-03    -13.6168E-03     27.1895E-03    -13.6207E-03     27.5799E-03
            1041     7.99056E-03     95.3952E-03    -4.00187E+06    -26.4099E+06     4.11273E+06    -4.67363E+06    -13.6612E-03     27.3224E-03    -13.6612E-03     32.2279E-03    -13.6507E-03     27.1920E-03    -13.5965E-03     32.1637E-03
            1042     8.87854E-03     95.4255E-03    -3.99096E+06    -29.1548E+06     2.54943E+06    -5.51006E+06    -13.7629E-03     27.3994E-03    -13.6365E-03     37.1698E-03    -13.7472E-03     27.2586E-03    -13.5756E-03     37.0934E-03
            1043     9.76664E-03     95.4603E-03    -3.43180E+06    -27.7468E+06     3.39957E+06    -6.70455E+06    -13.9687E-03     27.5944E-03    -13.6256E-03     42.4447E-03    -13.9554E-03     27.4605E-03    -13.5634E-03     42.3508E-03
            1044     10.6544E-03     95.5001E-03    -1.95604E+06    -27.1804E+06     5.53854E+06    -7.43489E+06    -14.3127E-03     27.9491E-03    -13.6364E-03     47.8506E-03    -14.2994E-03     27.8163E-03    -13.5665E-03     47.7439E-03
            1045     11.5422E-03     95.5445E-03    -878.415E+03    -24.2385E+06     6.28556E+06    -7.25565E+06    -14.7797E-03     28.4373E-03    -13.6576E-03     53.5884E-03    -14.7724E-03     28.3226E-03    -13.5898E-03     53.4790E-03
            1046     12.4293E-03     95.5948E-03     260.443E+03    -17.0232E+06     8.86825E+06    -7.30061E+06    -15.4053E-03     29.1091E-03    -13.7038E-03     62.1695E-03    -15.4195E-03     29.0381E-03    -13.6351E-03     62.0522E-03
            1047     13.3164E-03     95.6553E-03     745.797E+03    -32.6234E+06    -3.16201E+06    -7.79055E+06    -16.2121E-03     29.9493E-03    -13.7371E-03     68.2234E-03    -16.2052E-03     29.8383E-03    -13.7067E-03     68.0908E-03
            1048     14.2021E-03     95.7170E-03    -396.891E+03    -28.7444E+06    -10.5634E+06    -7.23181E+06    -16.8647E-03     30.6589E-03    -13.7942E-03     72.2252E-03    -16.8919E-03     30.6132E-03    -13.8047E-03     72.0949E-03
            1049     15.0892E-03     95.7858E-03    -1.25625E+06     11.4577E+06    -3.79017E+06    -6.33322E+06    -18.2153E-03     32.1010E-03    -13.8858E-03     96.3034E-03    -18.4711E-03     32.4041E-03    -13.9195E-03     96.2034E-03
            1050     15.9741E-03     95.8929E-03    -2.63366E+06     11.9611E+06    -26.2994E+06    -5.73923E+06    -20.9676E-03     34.8662E-03    -13.8987E-03     145.886E-03    -22.1068E-03     36.1149E-03    -14.0437E-03     146.183E-03
            1051     16.8588E-03     96.0555E-03    -3.10269E+06     70.3845E+06    -4.22689E+06    -2.64830E+06    -20.1748E-03     34.2089E-03    -14.0341E-03     156.204E-03    -22.4230E-03     36.7082E-03    -14.1528E-03     158.067E-03
            1052     887.869E-06     96.2546E-03    -9.73322E+06    -10.4031E+06    -8.97591E+06    -133.831E+03    -13.5287E-03     27.0846E-03    -13.5559E-03     3.34115E-03    -13.5492E-03     27.0598E-03    -13.5716E-03     3.33915E-03
            1053     1.77575E-03     96.2587E-03    -9.50274E+06    -10.3163E+06    -6.51764E+06     544.519E+03    -13.5169E-03     27.0659E-03    -13.5490E-03     6.27147E-03    -13.5401E-03     27.0376E-03    -13.5529E-03     6.27798E-03
            1054     2.66365E-03     96.2654E-03    -9.06842E+06    -12.5452E+06    -3.30738E+06    -66.2241E+03    -13.4925E-03     27.0464E-03    -13.5539E-03     9.38538E-03    -13.5149E-03     27.0017E-03    -13.5391E-03     9.38374E-03
            1055     3.55162E-03     96.2748E-03    -8.53921E+06    -12.7411E+06    -530.929E+03    -374.263E+03    -13.4522E-03     27.0009E-03    -13.5487E-03     12.6402E-03    -13.4758E-03     26.9505E-03    -13.5205E-03     12.6343E-03
            1056     4.43958E-03     96.2872E-03    -8.29345E+06    -13.0095E+06     1.35279E+06    -1.02058E+06    -13.4006E-03     26.9344E-03    -13.5337E-03     16.0499E-03    -13.4255E-03     26.8797E-03    -13.4961E-03     16.0353E-03
            1057     5.32773E-03     96.3024E-03    -8.12013E+06    -15.9518E+06     2.65937E+06    -1.92747E+06    -13.3617E-03     26.8770E-03    -13.5154E-03     19.6806E-03    -13.3835E-03     26.8057E-03    -13.4672E-03     19.6540E-03
            1058     6.21581E-03     96.3211E-03    -7.39081E+06    -18.3277E+06     3.36298E+06    -1.57488E+06    -13.3362E-03     26.8260E-03    -13.4899E-03     23.6056E-03    -13.3522E-03     26.7410E-03    -13.4358E-03     23.5831E-03
            1059     7.10409E-03     96.3432E-03    -6.84215E+06    -22.0165E+06     3.76166E+06    -2.35036E+06    -13.3543E-03     26.8196E-03    -13.4652E-03     27.8757E-03    -13.3632E-03     26.7150E-03    -13.4046E-03     27.8426E-03
            1060     7.99227E-03     96.3692E-03    -6.82161E+06    -25.3909E+06     4.00559E+06    -3.60716E+06    -13.4318E-03     26.8764E-03    -13.4446E-03     32.5248E-03    -13.4367E-03     26.7553E-03    -13.3778E-03     32.4746E-03
            1061     8.88056E-03     96.3994E-03    -6.67054E+06    -26.8534E+06     3.82302E+06    -4.83388E+06    -13.5659E-03     26.9922E-03    -13.4263E-03     37.5682E-03    -13.5686E-03     26.8648E-03    -13.3586E-03     37.5009E-03
            1062     9.76860E-03     96.4344E-03    -6.54952E+06    -25.5596E+06     3.48599E+06    -6.59105E+06    -13.7833E-03     27.1969E-03    -13.4135E-03     42.9955E-03    -13.7887E-03     27.0781E-03    -13.3496E-03     42.9035E-03
            1063     10.6568E-03     96.4743E-03    -6.85877E+06    -26.1044E+06     4.36052E+06    -7.51130E+06    -14.1777E-03     27.6048E-03    -13.4272E-03     48.5864E-03    -14.1884E-03     27.4859E-03    -13.3576E-03     48.4791E-03
            1064     11.5443E-03     96.5194E-03    -5.53582E+06    -22.9893E+06     5.28070E+06    -8.63752E+06    -14.7473E-03     28.2057E-03    -13.4584E-03     54.4728E-03    -14.7636E-03     28.1054E-03    -13.3907E-03     54.3459E-03
            1065     12.4317E-03     96.5701E-03    -2.86112E+06    -16.6332E+06      8.4851E+06    -9.01075E+06    -15.5005E-03     29.0230E-03    -13.5225E-03     63.1709E-03    -15.5305E-03     28.9592E-03    -13.4518E-03     63.0315E-03
            1066     13.3183E-03     96.6312E-03    -1.84624E+06    -33.2460E+06    -2.77993E+06     -7.4007E+06    -16.4522E-03     30.0344E-03    -13.5822E-03     69.4274E-03    -16.4587E-03     29.9244E-03    -13.5453E-03     69.2994E-03
            1067     14.2048E-03     96.6940E-03    -1.70226E+06    -27.9164E+06    -10.5607E+06    -7.09153E+06    -17.3181E-03     30.9812E-03    -13.6631E-03     73.2624E-03    -17.3545E-03     30.9431E-03    -13.6730E-03     73.1324E-03
            1068     15.0895E-03     96.7626E-03    -532.739E+03     10.8318E+06    -4.10507E+06    -7.59130E+06    -18.5206E-03     32.3012E-03    -13.7806E-03     96.9736E-03    -18.7738E-03     32.6029E-03    -13.8161E-03     96.8553E-03
            1069     15.9754E-03     96.8713E-03    -531.280E+03     9.13021E+06    -25.2553E+06    -5.03048E+06    -21.1707E-03     34.9900E-03    -13.8192E-03     146.287E-03    -22.2935E-03     36.2165E-03    -13.9580E-03     146.588E-03
            1070     16.8614E-03     97.0328E-03    -1.99737E+06     68.4849E+06    -2.96159E+06    -2.66876E+06    -20.7371E-03     34.7168E-03    -13.9797E-03     155.520E-03    -22.9679E-03     37.1923E-03    -14.0909E-03     157.357E-03
            1071     888.103E-06     97.2287E-03    -12.4521E+06    -11.5592E+06    -10.7825E+06     1.06457E+06    -13.2708E-03     26.5582E-03    -13.2874E-03     3.37487E-03    -13.3006E-03     26.5342E-03    -13.3065E-03     3.38837E-03
            1072     1.77618E-03     97.2328E-03    -11.9768E+06    -11.6293E+06    -8.47730E+06     1.78137E+06    -13.2551E-03     26.5435E-03    -13.2884E-03     6.31056E-03    -13.2859E-03     26.5150E-03    -13.2965E-03     6.33309E-03
            1073     2.66435E-03     97.2394E-03    -11.7985E+06    -11.9020E+06    -5.27668E+06     1.88454E+06    -13.2170E-03     26.5071E-03    -13.2901E-03     9.45171E-03    -13.2512E-03     26.4725E-03    -13.2821E-03     9.47534E-03
            1074     3.55250E-03     97.2488E-03    -11.4335E+06    -12.7605E+06    -2.21000E+06     1.26327E+06    -13.1776E-03     26.4634E-03    -13.2858E-03     12.7301E-03    -13.2132E-03     26.4196E-03    -13.2618E-03     12.7454E-03
            1075     4.44080E-03     97.2609E-03    -10.9078E+06    -12.2360E+06     1.08840E+06     1.13086E+06    -13.1366E-03     26.4132E-03    -13.2765E-03     16.1686E-03    -13.1753E-03     26.3665E-03    -13.2375E-03     16.1819E-03
            1076     5.32902E-03     97.2762E-03    -11.2178E+06    -15.0326E+06     2.99854E+06     605.907E+03    -13.1043E-03     26.3680E-03    -13.2637E-03     19.8309E-03    -13.1434E-03     26.3052E-03    -13.2106E-03     19.8371E-03
            1077     6.21743E-03     97.2946E-03    -11.6127E+06    -18.1834E+06     2.31486E+06    -380.570E+03    -13.0656E-03     26.3010E-03    -13.2354E-03     23.7955E-03    -13.1013E-03     26.2242E-03    -13.1806E-03     23.7887E-03
            1078     7.10586E-03     97.3167E-03    -11.2689E+06    -20.0690E+06     2.02277E+06    -1.18206E+06    -13.0726E-03     26.2773E-03    -13.2047E-03     28.1298E-03    -13.1038E-03     26.1914E-03    -13.1492E-03     28.1121E-03
            1079     7.99439E-03     97.3427E-03    -10.2814E+06    -23.3563E+06     3.15600E+06    -2.95163E+06    -13.1722E-03     26.3593E-03    -13.1871E-03     32.8618E-03    -13.1960E-03     26.2544E-03    -13.1225E-03     32.8205E-03
            1080     8.88270E-03     97.3731E-03    -8.80167E+06    -24.6958E+06     4.11693E+06    -4.69096E+06    -13.3406E-03     26.5152E-03    -13.1746E-03     38.0164E-03    -13.3574E-03     26.4011E-03    -13.1055E-03     37.9513E-03
            1081     9.77117E-03     97.4081E-03    -8.61662E+06    -24.3526E+06     4.16186E+06    -4.89428E+06    -13.6169E-03     26.7874E-03    -13.1705E-03     43.5710E-03    -13.6351E-03     26.6765E-03    -13.1019E-03     43.5012E-03
            1082     10.6592E-03     97.4484E-03    -8.81737E+06    -23.2074E+06     4.59653E+06    -6.54755E+06    -14.0542E-03     27.2418E-03    -13.1876E-03     49.3958E-03    -14.0791E-03     27.1397E-03    -13.1182E-03     49.3014E-03
            1083     11.5471E-03     97.4939E-03    -8.14941E+06    -19.5563E+06     4.82610E+06    -9.86707E+06    -14.6965E-03     27.9232E-03    -13.2266E-03     55.5354E-03    -14.7301E-03     27.8443E-03    -13.1623E-03     55.3930E-03
            1084     12.4343E-03     97.5452E-03    -7.51237E+06    -17.9610E+06     6.40463E+06    -9.93296E+06    -15.6066E-03     28.9161E-03    -13.3094E-03     64.3672E-03    -15.6552E-03     28.8556E-03    -13.2405E-03     64.2159E-03
            1085     13.3211E-03     97.6073E-03    -6.24242E+06    -34.0815E+06    -4.66509E+06    -8.57082E+06    -16.6688E-03     30.0610E-03    -13.3922E-03     70.7776E-03    -16.6939E-03     29.9565E-03    -13.3571E-03     70.6341E-03
            1086     14.2065E-03     97.6708E-03    -4.24955E+06    -26.0832E+06    -11.6748E+06    -9.07034E+06    -17.5461E-03     31.0399E-03    -13.4938E-03     74.8735E-03    -17.5973E-03     31.0172E-03    -13.5082E-03     74.7174E-03
            1087     15.0919E-03     97.7412E-03    -2.95313E+06     9.91778E+06    -5.04265E+06    -9.10541E+06    -19.4099E-03     33.0650E-03    -13.6551E-03     98.3536E-03    -19.6793E-03     33.3738E-03    -13.6904E-03     98.2101E-03
            1088     15.9772E-03     97.8475E-03    -2.20253E+06     6.24980E+06    -26.8012E+06    -6.71506E+06    -22.1719E-03     35.9241E-03    -13.7522E-03     145.606E-03    -23.2963E-03     37.1406E-03    -13.8921E-03     145.869E-03
            1089     16.8606E-03     98.0132E-03     192.387E+03     65.3408E+06    -2.74729E+06    -3.11578E+06    -20.7950E-03     34.7478E-03    -13.9527E-03     153.988E-03    -22.9944E-03     37.1877E-03    -14.0615E-03     155.794E-03
            1090     888.350E-06     98.2023E-03    -14.2929E+06    -14.7990E+06    -13.6006E+06     2.70475E+06    -12.9585E-03     25.9346E-03    -12.9761E-03     3.41193E-03    -12.9888E-03     25.9012E-03    -13.0019E-03     3.44663E-03
            1091     1.77676E-03     98.2062E-03    -15.0363E+06    -14.2679E+06    -11.3453E+06     3.65477E+06    -12.9380E-03     25.9118E-03    -12.9737E-03     6.34918E-03    -12.9761E-03     25.8787E-03    -12.9879E-03     6.39595E-03
            1092     2.66513E-03     98.2129E-03    -15.1597E+06    -12.8289E+06    -7.68789E+06     4.35196E+06    -12.8975E-03     25.8730E-03    -12.9755E-03     9.52197E-03    -12.9436E-03     25.8420E-03    -12.9733E-03     9.57753E-03
            1093     3.55365E-03     98.2221E-03    -15.1882E+06    -12.4156E+06    -3.86032E+06     3.70185E+06    -12.8593E-03     25.8339E-03    -12.9746E-03     12.8226E-03    -12.9118E-03     25.7996E-03    -12.9539E-03     12.8696E-03
            1094     4.44208E-03     98.2343E-03    -15.1497E+06    -13.4630E+06    -498.017E+03     3.70518E+06    -12.8203E-03     25.7904E-03    -12.9700E-03     16.2955E-03    -12.8761E-03     25.7460E-03    -12.9310E-03     16.3423E-03
            1095     5.33072E-03     98.2494E-03    -14.7830E+06    -14.0126E+06     1.87662E+06     3.55251E+06    -12.7854E-03     25.7415E-03    -12.9561E-03     19.9914E-03    -12.8421E-03     25.6905E-03    -12.9050E-03     20.0359E-03
            1096     6.21930E-03     98.2678E-03    -14.5728E+06    -16.8854E+06     3.03334E+06     2.03655E+06    -12.7894E-03     25.7284E-03    -12.9390E-03     24.0019E-03    -12.8428E-03     25.6613E-03    -12.8782E-03     24.0264E-03
            1097     7.10798E-03     98.2897E-03    -14.3426E+06    -18.5042E+06     2.51761E+06     183.234E+03    -12.8113E-03     25.7243E-03    -12.9131E-03     28.4008E-03    -12.8608E-03     25.6499E-03    -12.8528E-03     28.4009E-03
            1098     7.99663E-03     98.3158E-03    -13.5427E+06    -19.5679E+06     1.96638E+06    -2.61011E+06    -12.8843E-03     25.7725E-03    -12.8882E-03     33.2401E-03    -12.9280E-03     25.6929E-03    -12.8303E-03     33.2035E-03
            1099     8.88541E-03     98.3461E-03    -12.8366E+06    -23.6663E+06     2.47620E+06    -4.39344E+06    -13.0966E-03     25.9790E-03    -12.8824E-03     38.5075E-03    -13.1325E-03     25.8781E-03    -12.8171E-03     38.4466E-03
            1100     9.77381E-03     98.3815E-03    -11.0164E+06    -23.8647E+06     3.69081E+06    -4.68505E+06    -13.4343E-03     26.3239E-03    -12.8897E-03     44.2281E-03    -13.4644E-03     26.2195E-03    -12.8206E-03     44.1614E-03
            1101     10.6622E-03     98.4220E-03    -8.14069E+06    -18.2363E+06     5.90046E+06    -7.13897E+06    -13.9275E-03     26.8419E-03    -12.9144E-03     50.3092E-03    -13.9579E-03     26.7616E-03    -12.8467E-03     50.2077E-03
            1102     11.5500E-03     98.4681E-03    -7.13094E+06    -17.5955E+06     6.52638E+06    -8.73283E+06    -14.6622E-03     27.6342E-03    -12.9720E-03     56.6659E-03    -14.6958E-03     27.5612E-03    -12.9035E-03     56.5386E-03
            1103     12.4374E-03     98.5204E-03    -7.42789E+06     -17.602E+06     7.53434E+06    -9.15799E+06    -15.7032E-03     28.7767E-03    -13.0736E-03     65.7397E-03    -15.7537E-03     28.7166E-03    -12.9996E-03     65.5986E-03
            1104     13.3238E-03     98.5832E-03    -6.22182E+06    -33.0081E+06    -5.06279E+06    -10.7810E+06    -16.8837E-03     30.0546E-03    -13.1709E-03     72.3291E-03    -16.9104E-03     29.9567E-03    -13.1393E-03     72.1568E-03
            1105     14.2097E-03     98.6481E-03    -4.40707E+06    -24.7462E+06    -11.0424E+06    -11.5367E+06    -17.9969E-03     31.3057E-03    -13.3088E-03     75.9878E-03    -18.0534E-03     31.2907E-03    -13.3217E-03     75.7983E-03
            1106     15.0955E-03     98.7179E-03    -2.26926E+06     9.45381E+06    -3.70276E+06    -10.5671E+06    -20.2537E-03     33.7734E-03    -13.5197E-03     100.079E-03    -20.5266E-03     34.0826E-03    -13.5487E-03     99.9113E-03
            1107     15.9757E-03     98.8314E-03    -1.51316E+06     2.66852E+06    -29.5247E+06    -7.99219E+06    -22.6665E-03     36.3079E-03    -13.6414E-03     146.841E-03    -23.7766E-03     37.5077E-03    -13.7907E-03     147.082E-03
            1108     16.8608E-03     98.9864E-03    -2.44913E+06     61.3567E+06    -6.13249E+06    -4.69586E+06    -21.5367E-03     35.4138E-03    -13.8771E-03     155.847E-03    -23.7711E-03     37.8752E-03    -13.9932E-03     157.616E-03
            1109     888.701E-06     99.1750E-03    -18.6028E+06    -21.2018E+06    -17.5729E+06     4.04255E+06    -12.5984E-03     25.2013E-03    -12.6029E-03     3.44544E-03    -12.6351E-03     25.1478E-03    -12.6330E-03     3.49744E-03
            1110     1.77737E-03     99.1791E-03    -19.0012E+06    -18.2325E+06    -14.6515E+06     6.19269E+06    -12.5680E-03     25.1754E-03    -12.6074E-03     6.38613E-03    -12.6153E-03     25.1331E-03    -12.6267E-03     6.46572E-03
            1111     2.66615E-03     99.1855E-03    -18.7948E+06    -15.2797E+06    -10.1916E+06     6.84937E+06    -12.5337E-03     25.1455E-03    -12.6118E-03     9.59096E-03    -12.5908E-03     25.1112E-03    -12.6133E-03     9.67885E-03
            1112     3.55486E-03     99.1949E-03    -18.4145E+06    -12.9657E+06    -5.44484E+06     6.93801E+06    -12.4959E-03     25.1101E-03    -12.6141E-03     12.9263E-03    -12.5614E-03     25.0799E-03    -12.5959E-03     13.0151E-03
            1113     4.44373E-03     99.2069E-03    -17.6767E+06    -14.6755E+06    -1.34632E+06     6.28563E+06    -12.4687E-03     25.0841E-03    -12.6153E-03     16.4341E-03    -12.5341E-03     25.0385E-03    -12.5752E-03     16.5143E-03
            1114     5.33255E-03     99.2220E-03    -16.3579E+06    -13.8707E+06     2.11407E+06     5.67618E+06    -12.4540E-03     25.0611E-03    -12.6071E-03     20.1673E-03    -12.5191E-03     25.0128E-03    -12.5527E-03     20.2393E-03
            1115     6.22152E-03     99.2403E-03    -15.3631E+06    -15.6057E+06     3.98182E+06     4.64020E+06    -12.4832E-03     25.0795E-03    -12.5963E-03     24.2216E-03    -12.5438E-03     25.0186E-03    -12.5315E-03     24.2800E-03
            1116     7.11035E-03     99.2623E-03    -14.9157E+06    -15.6697E+06     4.02935E+06     2.16118E+06    -12.5283E-03     25.1060E-03    -12.5777E-03     28.6846E-03    -12.5869E-03     25.0443E-03    -12.5132E-03     28.7105E-03
            1117     7.99936E-03     99.2881E-03    -15.0655E+06    -15.8913E+06     3.05683E+06    -918.957E+03    -12.6268E-03     25.1861E-03    -12.5593E-03     33.6205E-03    -12.6849E-03     25.1255E-03    -12.4992E-03     33.6060E-03
            1118     8.88818E-03     99.3188E-03    -15.0644E+06    -22.2084E+06     2.04552E+06    -3.14306E+06    -12.8527E-03     25.4115E-03    -12.5588E-03     39.0267E-03    -12.9010E-03     25.3216E-03    -12.4946E-03     38.9823E-03
            1119     9.77695E-03     99.3542E-03    -13.4139E+06    -20.4032E+06     2.82442E+06    -6.52909E+06    -13.2111E-03     25.7806E-03    -12.5695E-03     44.9722E-03    -13.2567E-03     25.6980E-03    -12.5063E-03     44.8822E-03
            1120     10.6654E-03     99.3952E-03    -11.0028E+06    -15.7456E+06     4.92049E+06    -8.44404E+06    -13.7789E-03     26.3850E-03    -12.6061E-03     51.3239E-03    -13.8256E-03     26.3225E-03    -12.5427E-03     51.2060E-03
            1121     11.5534E-03     99.4422E-03    -9.52669E+06    -17.4488E+06     5.96577E+06    -7.89508E+06    -14.6230E-03     27.3062E-03    -12.6832E-03     57.9279E-03    -14.6678E-03     27.2380E-03    -12.6143E-03     57.8118E-03
            1122     12.4407E-03     99.4951E-03    -7.82573E+06    -14.5501E+06     8.46164E+06    -9.19718E+06    -15.7547E-03     28.5584E-03    -12.8037E-03     67.2801E-03    -15.8132E-03     28.5129E-03    -12.7289E-03     67.1387E-03
            1123     13.3273E-03     99.5595E-03    -6.42720E+06    -29.4501E+06    -3.96382E+06    -12.3245E+06    -17.2162E-03     30.1444E-03    -12.9282E-03     73.9518E-03    -17.2516E-03     30.0640E-03    -12.8960E-03     73.7589E-03
            1124     14.2125E-03     99.6247E-03    -4.70010E+06    -23.7118E+06    -11.2712E+06    -14.1535E+06    -18.8577E-03     31.9691E-03    -13.1114E-03     77.9385E-03    -18.9211E-03     31.9643E-03    -13.1265E-03     77.7118E-03
            1125     15.0946E-03     99.6984E-03    -2.52284E+06     7.13997E+06    -4.92754E+06    -13.1081E+06    -20.4355E-03     33.7960E-03    -13.3605E-03     101.691E-03    -20.7049E-03     34.0961E-03    -13.3918E-03     101.490E-03
            1126     15.9827E-03     99.8088E-03    -1.07868E+06    -1.24485E+06    -30.2788E+06    -9.86472E+06    -22.7565E-03     36.2572E-03    -13.5007E-03     146.299E-03    -23.8304E-03     37.4106E-03    -13.6487E-03     146.492E-03
            1127     16.8670E-03     99.9673E-03    -1.59761E+06     57.3781E+06    -6.38174E+06    -5.15463E+06    -22.8569E-03     36.6409E-03    -13.7840E-03     154.896E-03    -25.0556E-03     39.0562E-03    -13.8968E-03     156.582E-03
            1128     889.028E-06     100.147E-03    -22.4402E+06    -30.2947E+06    -20.9714E+06     4.95115E+06    -12.1964E-03     24.3813E-03    -12.1850E-03     3.46740E-03    -12.2342E-03     24.2929E-03    -12.2133E-03     3.53115E-03
            1129     1.77815E-03     100.151E-03    -21.4922E+06    -24.2135E+06    -17.0078E+06     8.20625E+06    -12.1619E-03     24.3604E-03    -12.1985E-03     6.43683E-03    -12.2096E-03     24.2952E-03    -12.2173E-03     6.54246E-03
            1130     2.66718E-03     100.158E-03    -21.0312E+06    -18.8790E+06    -12.1746E+06     9.55776E+06    -12.1280E-03     24.3306E-03    -12.2026E-03     9.66344E-03    -12.1882E-03     24.2844E-03    -12.2056E-03     9.78637E-03
            1131     3.55637E-03     100.167E-03    -20.3070E+06    -15.0241E+06    -6.61507E+06     9.79933E+06    -12.0917E-03     24.2995E-03    -12.2078E-03     13.0276E-03    -12.1619E-03     24.2635E-03    -12.1897E-03     13.1535E-03
            1132     4.44549E-03     100.179E-03    -19.3947E+06    -15.0005E+06    -1.79428E+06     8.93260E+06    -12.0904E-03     24.3040E-03    -12.2137E-03     16.5765E-03    -12.1632E-03     24.2599E-03    -12.1728E-03     16.6910E-03
            1133     5.33471E-03     100.194E-03    -18.6356E+06    -14.6176E+06     1.74389E+06     7.96208E+06    -12.1082E-03     24.3233E-03    -12.2150E-03     20.3619E-03    -12.1831E-03     24.2750E-03    -12.1581E-03     20.4636E-03
            1134     6.22385E-03     100.212E-03    -17.4281E+06    -14.3094E+06     3.18749E+06     6.51941E+06    -12.1358E-03     24.3428E-03    -12.2070E-03     24.4511E-03    -12.2073E-03     24.2924E-03    -12.1450E-03     24.5338E-03
            1135     7.11316E-03     100.234E-03    -15.9940E+06    -12.6698E+06      4.2345E+06     3.93702E+06    -12.2112E-03     24.4083E-03    -12.1971E-03     28.9728E-03    -12.2797E-03     24.3628E-03    -12.1344E-03     29.0218E-03
            1136     8.00228E-03     100.260E-03    -15.2129E+06    -13.2688E+06     4.57298E+06     1.55135E+06    -12.3666E-03     24.5614E-03    -12.1948E-03     33.9993E-03    -12.4313E-03     24.5117E-03    -12.1306E-03     34.0169E-03
            1137     8.89137E-03     100.291E-03    -14.6329E+06    -18.2637E+06     3.65825E+06    -2.00283E+06    -12.6128E-03     24.8165E-03    -12.2037E-03     39.5578E-03    -12.6670E-03     24.7433E-03    -12.1377E-03     39.5285E-03
            1138     9.78036E-03     100.327E-03    -14.2090E+06    -14.9935E+06     3.82830E+06    -6.31487E+06    -12.9920E-03     25.2142E-03    -12.2222E-03     45.7214E-03    -13.0506E-03     25.1581E-03    -12.1607E-03     45.6347E-03
            1139     10.6689E-03     100.368E-03    -13.9223E+06    -15.1122E+06     4.06480E+06    -8.54682E+06    -13.6169E-03     25.8886E-03    -12.2718E-03     52.3276E-03    -13.6776E-03     25.8345E-03    -12.2093E-03     52.2089E-03
            1140     11.5572E-03     100.416E-03    -12.0146E+06    -16.9558E+06     5.02794E+06    -8.81754E+06    -14.5564E-03     26.9198E-03    -12.3633E-03     59.3163E-03    -14.6129E-03     26.8588E-03    -12.2962E-03     59.1888E-03
            1141     12.4444E-03     100.470E-03    -9.23968E+06    -10.3364E+06     9.14765E+06    -10.7257E+06    -15.8651E-03     28.3717E-03    -12.5066E-03     68.8980E-03    -15.9379E-03     28.3484E-03    -12.4325E-03     68.7370E-03
            1142     13.3309E-03     100.535E-03    -6.57143E+06    -25.2708E+06    -1.70391E+06    -13.7760E+06    -17.6197E-03     30.2897E-03    -12.6700E-03     76.1034E-03    -17.6663E-03     30.2283E-03    -12.6324E-03     75.8909E-03
            1143     14.2152E-03     100.604E-03    -5.65513E+06    -21.9059E+06    -10.3814E+06    -15.8085E+06    -19.2795E-03     32.1676E-03    -12.8881E-03     80.4905E-03    -19.3539E-03     32.1743E-03    -12.9001E-03     80.2409E-03
            1144     15.1006E-03     100.677E-03    -4.85368E+06     5.88873E+06    -5.13659E+06    -15.9427E+06    -21.3691E-03     34.5566E-03    -13.1875E-03     102.511E-03    -21.6481E-03     34.8542E-03    -13.2147E-03     102.265E-03
            1145     15.9809E-03     100.787E-03    -3.44510E+06    -6.51481E+06    -30.8732E+06    -12.3048E+06    -24.4602E-03     37.8741E-03    -13.4139E-03     145.785E-03    -25.5323E-03     39.0004E-03    -13.5538E-03     145.897E-03
            1146     16.8613E-03     100.948E-03    -2.70365E+06     50.5518E+06    -5.74740E+06    -6.36808E+06    -23.1168E-03     36.8798E-03    -13.7629E-03     153.681E-03    -25.2703E-03     39.2197E-03    -13.8611E-03     155.294E-03
            1147     889.497E-06     101.118E-03    -24.8729E+06    -40.1327E+06    -24.3214E+06     5.01732E+06    -11.7466E-03     23.4915E-03    -11.7449E-03     3.49966E-03    -11.7775E-03     23.3623E-03    -11.7722E-03     3.56430E-03
            1148     1.77889E-03     101.122E-03    -23.8531E+06    -32.7100E+06    -20.9394E+06     9.05382E+06    -11.7161E-03     23.4611E-03    -11.7450E-03     6.49597E-03    -11.7576E-03     23.3625E-03    -11.7677E-03     6.61259E-03
            1149     2.66846E-03     101.129E-03    -23.2165E+06     -24.471E+06    -15.0680E+06     12.3217E+06    -11.6837E-03     23.4335E-03    -11.7497E-03     9.72618E-03    -11.7425E-03     23.3667E-03    -11.7559E-03     9.88485E-03
            1150     3.55791E-03     101.138E-03    -22.7982E+06    -17.3203E+06    -8.44826E+06     12.6363E+06    -11.6598E-03     23.4190E-03    -11.7591E-03     13.1159E-03    -11.7366E-03     23.3777E-03    -11.7432E-03     13.2785E-03
            1151     4.44752E-03     101.150E-03    -21.7319E+06    -16.0242E+06    -3.36960E+06     11.6437E+06    -11.6833E-03     23.4540E-03    -11.7707E-03     16.7221E-03    -11.7640E-03     23.4105E-03    -11.7328E-03     16.8717E-03
            1152     5.33698E-03     101.165E-03    -19.9543E+06    -14.7421E+06     867.007E+03     10.1296E+06    -11.7271E-03     23.5083E-03    -11.7812E-03     20.5488E-03    -11.8070E-03     23.4625E-03    -11.7266E-03     20.6787E-03
            1153     6.22658E-03     101.183E-03    -17.7071E+06    -12.6168E+06     3.47603E+06     7.59368E+06    -11.7920E-03     23.5770E-03    -11.7850E-03     24.6800E-03    -11.8677E-03     23.5350E-03    -11.7236E-03     24.7769E-03
            1154     7.11600E-03     101.205E-03    -16.0825E+06    -10.9844E+06     4.45411E+06     5.52413E+06    -11.8954E-03     23.6814E-03    -11.7861E-03     29.2582E-03    -11.9670E-03     23.6440E-03    -11.7245E-03     29.3279E-03
            1155     8.00553E-03     101.231E-03    -15.1278E+06    -10.7266E+06     4.78914E+06     3.24075E+06    -12.0642E-03     23.8575E-03    -11.7933E-03     34.3573E-03    -12.1324E-03     23.8200E-03    -11.7318E-03     34.3970E-03
            1156     8.89489E-03     101.262E-03    -14.2088E+06    -12.6424E+06     5.40852E+06    -827.494E+03    -12.3602E-03     24.1770E-03    -11.8168E-03     40.0708E-03    -12.4227E-03     24.1285E-03    -11.7508E-03     40.0570E-03
            1157     9.78396E-03     101.298E-03    -13.3404E+06    -10.5648E+06     6.26813E+06    -4.95656E+06    -12.7911E-03     24.6449E-03    -11.8538E-03     46.4414E-03    -12.8552E-03     24.6059E-03    -11.7878E-03     46.3726E-03
            1158     10.6729E-03     101.340E-03    -12.7113E+06    -13.1258E+06     5.81430E+06    -7.26644E+06    -13.4683E-03     25.3861E-03    -11.9178E-03     53.3369E-03    -13.5281E-03     25.3373E-03    -11.8513E-03     53.2352E-03
            1159     11.5610E-03     101.389E-03    -11.6855E+06    -14.1410E+06     5.90910E+06    -10.0775E+06    -14.4885E-03     26.5102E-03    -12.0217E-03     60.7574E-03    -14.5485E-03     26.4613E-03    -11.9547E-03     60.6143E-03
            1160     12.4486E-03     101.444E-03    -8.80694E+06    -6.58852E+06     10.4177E+06    -12.6412E+06    -15.9822E-03     28.1698E-03    -12.1876E-03     70.8442E-03    -16.0602E-03     28.1629E-03    -12.1132E-03     70.6587E-03
            1161     13.3344E-03     101.511E-03    -7.25056E+06    -22.0093E+06     617.687E+03    -14.6315E+06    -17.9040E-03     30.2922E-03    -12.3882E-03     78.5894E-03    -17.9630E-03     30.2456E-03    -12.3427E-03     78.3655E-03
            1162     14.2197E-03     101.581E-03    -6.72104E+06    -18.3828E+06    -8.00286E+06    -16.7914E+06    -19.7942E-03     32.4388E-03    -12.6447E-03     82.5245E-03    -19.8835E-03     32.4624E-03    -12.6483E-03     82.2604E-03
            1163     15.1015E-03     101.657E-03    -5.61201E+06     5.54624E+06    -3.80220E+06    -17.0714E+06    -22.6093E-03     35.6130E-03    -13.0038E-03     104.854E-03    -22.8998E-03     35.9145E-03    -13.0227E-03     104.583E-03
            1164     15.9835E-03     101.771E-03    -4.92180E+06    -11.9994E+06    -31.3465E+06    -14.7024E+06    -25.5077E-03     38.8025E-03    -13.2948E-03     148.387E-03    -26.5757E-03     39.9014E-03    -13.4270E-03     148.447E-03
            1165     16.8662E-03     101.929E-03    -2.09476E+06     43.1874E+06    -4.63147E+06    -8.78321E+06    -23.3885E-03     37.0738E-03    -13.6853E-03     154.580E-03    -25.5084E-03     39.3530E-03    -13.7681E-03     156.116E-03
            1166     889.824E-06     102.088E-03    -32.9672E+06    -48.3673E+06    -33.5208E+06     3.42952E+06    -11.2521E-03     22.5064E-03    -11.2543E-03     3.54302E-03    -11.2982E-03     22.3610E-03    -11.3039E-03     3.58720E-03
            1167     1.77983E-03     102.092E-03    -29.9509E+06    -42.2564E+06    -28.4066E+06     7.45986E+06    -11.2366E-03     22.4931E-03    -11.2565E-03     6.54695E-03    -11.2839E-03     22.3664E-03    -11.2939E-03     6.64306E-03
            1168     2.66967E-03     102.099E-03    -25.4643E+06    -32.2852E+06    -19.9479E+06     11.8650E+06    -11.2164E-03     22.4824E-03    -11.2660E-03     9.78290E-03    -11.2680E-03     22.3868E-03    -11.2820E-03     9.93575E-03
            1169     3.55969E-03     102.108E-03    -21.7264E+06    -21.0051E+06    -10.4486E+06     14.3478E+06    -11.2149E-03     22.4954E-03    -11.2805E-03     13.2055E-03    -11.2780E-03     22.4371E-03    -11.2708E-03     13.3903E-03
            1170     4.44954E-03     102.120E-03    -19.7262E+06    -17.2859E+06    -3.41038E+06     13.8444E+06    -11.2672E-03     22.5696E-03    -11.3024E-03     16.8628E-03    -11.3359E-03     22.5168E-03    -11.2658E-03     17.0410E-03
            1171     5.33951E-03     102.135E-03    -18.0403E+06    -14.2777E+06     1.42057E+06     11.6849E+06    -11.3411E-03     22.6636E-03    -11.3225E-03     20.7203E-03    -11.4129E-03     22.6165E-03    -11.2685E-03     20.8704E-03
            1172     6.22932E-03     102.154E-03    -17.0103E+06    -11.1766E+06     4.27138E+06     9.46712E+06    -11.4419E-03     22.7816E-03    -11.3397E-03     24.8821E-03    -11.5173E-03     22.7445E-03    -11.2774E-03     25.0033E-03
            1173     7.11916E-03     102.176E-03    -16.1427E+06    -9.68467E+06     5.05020E+06     7.08875E+06    -11.5786E-03     22.9335E-03    -11.3549E-03     29.4970E-03    -11.6532E-03     22.9018E-03    -11.2922E-03     29.5872E-03
            1174     8.00889E-03     102.202E-03    -14.4508E+06    -7.58328E+06     5.99242E+06     4.10284E+06    -11.7735E-03     23.1491E-03    -11.3756E-03     34.6694E-03    -11.8445E-03     23.1244E-03    -11.3137E-03     34.7205E-03
            1175     8.89849E-03     102.233E-03    -12.4460E+06    -7.11923E+06     7.36671E+06    -193.474E+03    -12.0818E-03     23.4926E-03    -11.4108E-03     40.5183E-03    -12.1462E-03     23.4661E-03    -11.3455E-03     40.5130E-03
            1176     9.78794E-03     102.270E-03    -11.3383E+06    -7.28391E+06     8.47393E+06    -3.52064E+06    -12.5620E-03     24.0265E-03    -11.4645E-03     47.1071E-03    -12.6237E-03     23.9976E-03    -11.3951E-03     47.0573E-03
            1177     10.6768E-03     102.312E-03    -10.9720E+06    -10.0827E+06     8.39393E+06    -5.96536E+06    -13.3012E-03     24.8465E-03    -11.5453E-03     54.3620E-03    -13.3601E-03     24.8063E-03    -11.4728E-03     54.2777E-03
            1178     11.5654E-03     102.361E-03    -10.1007E+06    -8.23466E+06     8.81809E+06    -9.99526E+06    -14.3848E-03     26.0476E-03    -11.6628E-03     62.3136E-03    -14.4492E-03     26.0213E-03    -11.5921E-03     62.1722E-03
            1179     12.4526E-03     102.418E-03    -9.35473E+06    -3.86932E+06     11.2228E+06    -13.5277E+06    -15.9900E-03     27.8342E-03    -11.8442E-03     73.0243E-03    -16.0755E-03     27.8402E-03    -11.7689E-03     72.8280E-03
            1180     13.3393E-03     102.487E-03    -8.00441E+06    -19.2023E+06     3.43871E+06    -14.7895E+06    -18.1668E-03     30.2478E-03    -12.0810E-03     81.3108E-03    -18.2379E-03     30.2124E-03    -12.0243E-03     81.0847E-03
            1181     14.2227E-03     102.560E-03    -7.40630E+06    -13.4960E+06    -4.35415E+06    -17.3359E+06    -20.4134E-03     32.7923E-03    -12.3789E-03     85.6103E-03    -20.5207E-03     32.8380E-03    -12.3703E-03     85.3368E-03
            1182     15.1060E-03     102.638E-03    -5.89446E+06     4.85672E+06    -2.01792E+06    -18.8496E+06    -23.2114E-03     35.9911E-03    -12.7797E-03     108.281E-03    -23.5102E-03     36.2921E-03    -12.7883E-03     107.982E-03
            1183     15.9869E-03     102.753E-03    -4.12932E+06    -14.9798E+06    -28.2107E+06    -16.8567E+06    -25.6718E-03     38.7796E-03    -13.1078E-03     148.722E-03    -26.6875E-03     39.8092E-03    -13.2211E-03     148.731E-03
            1184     16.8684E-03     102.909E-03    -4.14336E+06     34.8906E+06    -3.11948E+06    -11.5571E+06    -24.2602E-03     37.8005E-03    -13.5402E-03     153.190E-03    -26.3164E-03     39.9748E-03    -13.6004E-03     154.583E-03
            1185     890.382E-06     103.058E-03    -46.6087E+06    -52.3648E+06    -46.3865E+06     290.317E+03    -10.7482E-03     21.4857E-03    -10.7375E-03     3.56805E-03    -10.8380E-03     21.3588E-03    -10.8259E-03     3.57173E-03
            1186     1.78058E-03     103.062E-03    -41.1664E+06    -48.7567E+06     -40.094E+06     2.22671E+06    -10.7438E-03     21.4997E-03    -10.7559E-03     6.57953E-03    -10.8208E-03     21.3738E-03    -10.8260E-03     6.60814E-03
            1187     2.67102E-03     103.068E-03    -32.8519E+06    -39.7132E+06    -30.8216E+06     5.35931E+06    -10.7386E-03     21.5050E-03    -10.7664E-03     9.82540E-03    -10.8006E-03     21.3988E-03    -10.8153E-03     9.89435E-03
            1188     3.56134E-03     103.077E-03    -23.8758E+06    -28.3626E+06    -18.0259E+06     10.4194E+06    -10.7576E-03     21.5470E-03    -10.7894E-03     13.2344E-03    -10.8098E-03     21.4660E-03    -10.8038E-03     13.3685E-03
            1189     4.45179E-03     103.090E-03    -17.6649E+06    -19.9039E+06    -6.41909E+06     13.9083E+06    -10.8244E-03     21.6460E-03    -10.8216E-03     16.8720E-03    -10.8747E-03     21.5815E-03    -10.7992E-03     17.0511E-03
            1190     5.34199E-03     103.105E-03    -15.3407E+06    -14.2790E+06     1.12608E+06     13.4886E+06    -10.9359E-03     21.7905E-03    -10.8546E-03     20.7815E-03    -10.9938E-03     21.7399E-03    -10.8060E-03     20.9549E-03
            1191     6.23225E-03     103.123E-03    -13.6710E+06    -10.1797E+06     5.86703E+06     11.2653E+06    -11.0840E-03     21.9721E-03    -10.8881E-03     24.9972E-03    -11.1464E-03     21.9328E-03    -10.8242E-03     25.1417E-03
            1192     7.12232E-03     103.146E-03    -11.6919E+06    -7.57763E+06     8.31288E+06     8.37599E+06    -11.2806E-03     22.2026E-03    -10.9220E-03     29.6584E-03    -11.3407E-03     22.1702E-03    -10.8525E-03     29.7653E-03
            1193     8.01232E-03     103.172E-03    -10.2395E+06    -4.23345E+06     9.61009E+06     4.89062E+06    -11.5105E-03     22.4694E-03    -10.9589E-03     34.8892E-03    -11.5705E-03     22.4501E-03    -10.8898E-03     34.9507E-03
            1194     8.90218E-03     103.203E-03    -9.50960E+06    -1.93785E+06     10.0830E+06     816.534E+03    -11.8038E-03     22.8067E-03    -11.0029E-03     40.8360E-03    -11.8648E-03     22.7978E-03    -10.9359E-03     40.8441E-03
            1195     9.79180E-03     103.240E-03    -9.02121E+06    -5.35713E+06     10.2046E+06    -1.99910E+06    -12.2945E-03     23.3629E-03    -11.0684E-03     47.6506E-03    -12.3497E-03     23.3375E-03    -10.9966E-03     47.6209E-03
            1196     10.6812E-03     103.283E-03    -7.87543E+06    -5.06790E+06     11.8500E+06    -5.13582E+06    -13.0544E-03     24.2164E-03    -11.1620E-03     55.2916E-03    -13.1096E-03     24.1913E-03    -11.0840E-03     55.2187E-03
            1197     11.5696E-03     103.334E-03    -6.70481E+06    -2.92221E+06     13.0043E+06    -9.32293E+06    -14.1963E-03     25.4885E-03    -11.2922E-03     63.8104E-03    -14.2567E-03     25.4771E-03    -11.2132E-03     63.6785E-03
            1198     12.4576E-03     103.392E-03    -6.85518E+06    -1.07230E+06     14.4720E+06    -11.2638E+06    -15.9742E-03     27.4627E-03    -11.4885E-03     75.1715E-03    -16.0553E-03     27.4737E-03    -11.4046E-03     75.0051E-03
            1199     13.3433E-03     103.463E-03    -7.36306E+06    -14.2121E+06     8.25119E+06    -15.1233E+06    -18.2595E-03     30.0121E-03    -11.7527E-03     84.2411E-03    -18.3408E-03     29.9931E-03    -11.6801E-03     84.0114E-03
            1200     14.2282E-03     103.539E-03    -4.77960E+06    -9.37149E+06     1.35426E+06    -18.8414E+06    -20.7145E-03     32.7933E-03    -12.0788E-03     89.0063E-03    -20.8237E-03     32.8484E-03    -12.0515E-03     88.7124E-03
            1201     15.1097E-03     103.618E-03    -3.85068E+06     5.34562E+06     2.65775E+06    -19.0135E+06    -23.8536E-03     36.3712E-03    -12.5176E-03     111.122E-03    -24.1490E-03     36.6642E-03    -12.5064E-03     110.815E-03
            1202     15.9906E-03     103.736E-03    -5.00413E+06    -16.2053E+06    -23.6901E+06    -18.4329E+06    -26.4842E-03     39.3857E-03    -12.9015E-03     148.969E-03    -27.4534E-03     40.3484E-03    -12.9892E-03     148.910E-03
            1203     16.8719E-03     103.889E-03    -2.48957E+06     25.7736E+06    -207.013E+03    -13.5675E+06    -25.3164E-03     38.7082E-03    -13.3918E-03     153.352E-03    -27.3032E-03     40.7782E-03    -13.4266E-03     154.609E-03
            1204     890.628E-06     104.026E-03    -61.9188E+06    -50.4668E+06    -61.2643E+06    -2.48614E+06    -10.2661E-03     20.5152E-03    -10.2491E-03     3.55696E-03    -10.4137E-03     20.4416E-03    -10.3924E-03     3.52483E-03
            1205     1.78146E-03     104.030E-03    -57.1388E+06    -48.5527E+06    -56.4244E+06    -4.31497E+06    -10.2636E-03     20.5329E-03    -10.2693E-03     6.57164E-03    -10.3970E-03     20.4548E-03    -10.3982E-03     6.51586E-03
            1206     2.67210E-03     104.036E-03    -49.5673E+06    -42.9548E+06    -47.9726E+06    -4.09949E+06    -10.2816E-03     20.5679E-03    -10.2863E-03     9.81781E-03    -10.3977E-03     20.4946E-03    -10.3920E-03     9.76473E-03
            1207     3.56291E-03     104.046E-03    -38.3333E+06    -36.0171E+06    -35.2332E+06    -395.266E+03    -10.3204E-03     20.6382E-03    -10.3178E-03     13.1899E-03    -10.4088E-03     20.5649E-03    -10.3862E-03     13.1845E-03
            1208     4.45359E-03     104.058E-03    -24.8069E+06    -26.5374E+06    -20.1662E+06     5.78075E+06    -10.3843E-03     20.7401E-03    -10.3558E-03     16.7458E-03    -10.4407E-03     20.6727E-03    -10.3822E-03     16.8200E-03
            1209     5.34443E-03     104.073E-03    -13.8023E+06    -17.3052E+06    -5.37843E+06     10.7698E+06    -10.5036E-03     20.9066E-03    -10.4030E-03     20.6096E-03    -10.5399E-03     20.8480E-03    -10.3848E-03     20.7480E-03
            1210     6.23496E-03     104.092E-03    -8.68784E+06    -9.67811E+06     5.79878E+06     11.5126E+06    -10.7022E-03     21.1595E-03    -10.4572E-03     24.8758E-03    -10.7403E-03     21.1155E-03    -10.4016E-03     25.0237E-03
            1211     7.12543E-03     104.115E-03    -6.57104E+06    -5.35508E+06     11.4673E+06     9.11899E+06    -10.9610E-03     21.4717E-03    -10.5107E-03     29.5998E-03    -11.0032E-03     21.4383E-03    -10.4361E-03     29.7164E-03
            1212     8.01565E-03     104.141E-03    -4.71755E+06    -811.209E+03     13.9165E+06     5.75692E+06    -11.2233E-03     21.7849E-03    -10.5616E-03     34.8672E-03    -11.2668E-03     21.7683E-03    -10.4840E-03     34.9400E-03
            1213     8.90576E-03     104.173E-03    -3.88285E+06     1.38758E+06     14.6015E+06     2.95982E+06    -11.5483E-03     22.1665E-03    -10.6182E-03     40.9045E-03    -11.5924E-03     22.1594E-03    -10.5416E-03     40.9406E-03
            1214     9.79570E-03     104.210E-03    -3.50646E+06    -1.65657E+06     14.7395E+06    -693.596E+03    -12.0362E-03     22.7302E-03    -10.6940E-03     47.9272E-03    -12.0754E-03     22.7084E-03    -10.6128E-03     47.9149E-03
            1215     10.6851E-03     104.254E-03    -1.82892E+06     300.644E+03     16.5225E+06    -5.32890E+06    -12.7477E-03     23.5389E-03    -10.7912E-03     55.9068E-03    -12.7866E-03     23.5245E-03    -10.7064E-03     55.8323E-03
            1216     11.5744E-03     104.305E-03    -1.06382E+06    -142.890E+03     17.9510E+06    -7.27947E+06    -13.9619E-03     24.8936E-03    -10.9316E-03     64.9973E-03    -14.0044E-03     24.8798E-03    -10.8401E-03     64.8930E-03
            1217     12.4619E-03     104.365E-03    -1.76234E+06     1.35785E+06     19.2872E+06    -8.41656E+06    -15.8420E-03     26.9785E-03    -11.1365E-03     77.1232E-03    -15.9068E-03     26.9860E-03    -11.0395E-03     76.9948E-03
            1218     13.3487E-03     104.439E-03    -2.08434E+06    -5.08423E+06     15.7986E+06    -13.3502E+06    -18.1678E-03     29.5819E-03    -11.4141E-03     86.8423E-03    -18.2451E-03     29.5880E-03    -11.3247E-03     86.6367E-03
            1219     14.2327E-03     104.516E-03    -3.78004E+06    -5.51384E+06     7.14477E+06    -19.1672E+06    -20.9288E-03     32.6914E-03    -11.7626E-03     92.3557E-03    -21.0459E-03     32.7549E-03    -11.7134E-03     92.0573E-03
            1220     15.1150E-03     104.600E-03    -2.25052E+06     5.03055E+06     7.94559E+06    -19.7811E+06    -24.4230E-03     36.6602E-03    -12.2371E-03     114.030E-03    -24.7117E-03     36.9358E-03    -12.2014E-03     113.707E-03
            1221     15.9949E-03     104.719E-03     567.165E+03    -15.0688E+06    -14.8470E+06    -19.2003E+06    -27.2485E-03     39.9249E-03    -12.6765E-03     149.743E-03    -28.1407E-03     40.8088E-03    -12.7297E-03     149.623E-03
            1222     16.8746E-03     104.872E-03     553.550E+03     14.9175E+06    -2.70103E+06    -14.2320E+06    -26.6623E-03     39.8549E-03    -13.1926E-03     154.034E-03    -28.5530E-03     41.8083E-03    -13.2285E-03     155.149E-03
            1223     891.101E-06     104.993E-03    -62.8451E+06    -43.7340E+06    -63.3237E+06    -4.18071E+06    -9.89681E-03     19.7768E-03    -9.87994E-03     3.47550E-03    -10.0558E-03     19.7411E-03    -10.0420E-03     3.42149E-03
            1224     1.78202E-03     104.997E-03    -61.8160E+06    -42.4468E+06    -60.6077E+06    -7.91983E+06    -9.90050E-03     19.7963E-03    -9.89578E-03     6.45420E-03    -10.0602E-03     19.7616E-03    -10.0476E-03     6.35188E-03
            1225     2.67313E-03     105.004E-03    -58.8812E+06    -40.3339E+06    -55.8542E+06    -10.3358E+06    -9.93403E-03     19.8492E-03    -9.91517E-03     9.66100E-03    -10.0890E-03     19.8139E-03    -10.0506E-03     9.52742E-03
            1226     3.56405E-03     105.013E-03    -52.9687E+06    -37.6820E+06    -49.2621E+06    -10.9170E+06    -9.97836E-03     19.9190E-03    -9.94063E-03     13.0037E-03    -10.1172E-03     19.8789E-03    -10.0555E-03     12.8625E-03
            1227     4.45514E-03     105.026E-03    -42.1786E+06    -32.3469E+06    -39.4610E+06    -8.56256E+06    -10.0325E-03     20.0023E-03    -9.96984E-03     16.5046E-03    -10.1394E-03     19.9591E-03    -10.0591E-03     16.3937E-03
            1228     5.34608E-03     105.041E-03    -26.5791E+06    -24.2551E+06    -24.2049E+06    -2.57202E+06    -10.1303E-03     20.1454E-03    -10.0152E-03     20.2531E-03    -10.1931E-03     20.0980E-03    -10.0625E-03     20.2193E-03
            1229     6.23722E-03     105.060E-03    -11.1739E+06    -13.8363E+06    -4.99591E+06     4.61291E+06    -10.3114E-03     20.3956E-03    -10.0842E-03     24.4089E-03    -10.3403E-03     20.3502E-03    -10.0729E-03     24.4677E-03
            1230     7.12795E-03     105.083E-03    -2.68176E+06    -5.04423E+06     9.44145E+06     8.01039E+06    -10.5710E-03     20.7278E-03    -10.1568E-03     29.0924E-03    -10.5913E-03     20.6933E-03    -10.0984E-03     29.1948E-03
            1231     8.01857E-03     105.110E-03    -958.833E+03     1.37579E+06     16.2291E+06     7.28046E+06    -10.8880E-03     21.1105E-03    -10.2225E-03     34.3990E-03    -10.9191E-03     21.0960E-03    -10.1420E-03     34.4916E-03
            1232     8.90897E-03     105.142E-03    -173.574E+03     4.57028E+06     18.8527E+06     4.12017E+06    -11.2767E-03     21.5674E-03    -10.2908E-03     40.5208E-03    -11.3128E-03     21.5645E-03    -10.2029E-03     40.5720E-03
            1233     9.79902E-03     105.179E-03     1.99050E+06     3.60481E+06     20.0405E+06    -359.858E+03    -11.7523E-03     22.1235E-03    -10.3713E-03     47.6885E-03    -11.7790E-03     22.1120E-03    -10.2792E-03     47.6809E-03
            1234     10.6890E-03     105.224E-03     2.48291E+06     4.80892E+06     21.1188E+06    -4.15520E+06    -12.4536E-03     22.9241E-03    -10.4705E-03     55.9905E-03    -12.4834E-03     22.9185E-03    -10.3755E-03     55.9320E-03
            1235     11.5781E-03     105.276E-03     2.33625E+06     77.0346E+03     21.6217E+06    -5.41027E+06    -13.6722E-03     24.2869E-03    -10.6147E-03     65.7096E-03    -13.7020E-03     24.2626E-03    -10.5101E-03     65.6307E-03
            1236     12.4665E-03     105.338E-03     3.33616E+06     5.16165E+06     24.7912E+06    -6.71948E+06    -15.5253E-03     26.3443E-03    -10.8190E-03     78.5304E-03    -15.5757E-03     26.3530E-03    -10.7073E-03     78.4259E-03
            1237     13.3530E-03     105.413E-03     2.84725E+06     1.96805E+06     23.2553E+06    -10.2747E+06    -18.0144E-03     29.1164E-03    -11.1020E-03     89.0156E-03    -18.0847E-03     29.1365E-03    -10.9927E-03     88.8516E-03
            1238     14.2379E-03     105.495E-03     69.1381E+03     1.25139E+06     15.2304E+06    -14.3266E+06    -21.0238E-03     32.4899E-03    -11.4661E-03     95.3711E-03    -21.1393E-03     32.5661E-03    -11.3918E-03     95.1357E-03
            1239     15.1193E-03     105.581E-03    -3.80859E+06     8.55942E+06     13.8874E+06    -20.1614E+06    -24.5272E-03     36.4857E-03    -11.9585E-03     116.665E-03    -24.8243E-03     36.7594E-03    -11.8959E-03     116.334E-03
            1240     15.9994E-03     105.703E-03    -4.15368E+06    -15.5637E+06    -10.5885E+06    -21.7296E+06    -27.8588E-03     40.2874E-03    -12.4285E-03     150.862E-03    -28.7032E-03     41.0926E-03    -12.4529E-03     150.656E-03
            1241     16.8798E-03     105.854E-03    -3.41094E+06     4.51847E+06    -6.02556E+06    -15.1620E+06    -28.2112E-03     41.1941E-03    -12.9829E-03     155.133E-03    -30.0309E-03     43.0353E-03    -13.0146E-03     156.077E-03
            1242     891.169E-06     105.960E-03    -49.2628E+06    -35.2426E+06    -48.6803E+06    -4.52893E+06    -9.70864E-03     19.4063E-03    -9.69764E-03     3.31173E-03    -9.83322E-03     19.3722E-03    -9.81851E-03     3.25319E-03
            1243     1.78255E-03     105.964E-03    -49.2889E+06    -34.2295E+06    -47.7441E+06    -7.87567E+06    -9.73445E-03     19.4467E-03    -9.71224E-03     6.17969E-03    -9.86206E-03     19.4163E-03    -9.82986E-03     6.07787E-03
            1244     2.67364E-03     105.971E-03    -49.3555E+06    -33.7611E+06    -46.1109E+06    -11.3544E+06    -9.77986E-03     19.5129E-03    -9.73307E-03     9.26174E-03    -9.91087E-03     19.4826E-03    -9.84310E-03     9.11493E-03
            1245     3.56492E-03     105.980E-03    -48.6830E+06    -32.7905E+06    -44.0574E+06    -14.4466E+06    -9.83428E-03     19.5914E-03    -9.75713E-03     12.4829E-03    -9.96636E-03     19.5620E-03    -9.85928E-03     12.2960E-03
            1246     4.45596E-03     105.993E-03    -46.4628E+06    -30.9441E+06    -40.9590E+06    -16.8484E+06    -9.89470E-03     19.6783E-03    -9.78359E-03     15.8790E-03    -10.0229E-03     19.6505E-03    -9.87614E-03     15.6610E-03
            1247     5.34719E-03     106.008E-03    -40.3115E+06    -28.3230E+06    -35.3945E+06    -16.3790E+06    -9.96168E-03     19.7757E-03    -9.81402E-03     19.5387E-03    -10.0711E-03     19.7441E-03    -9.89147E-03     19.3266E-03
            1248     6.23815E-03     106.027E-03    -27.4801E+06    -21.1413E+06     -25.647E+06    -11.5014E+06    -10.0382E-03     19.8835E-03    -9.84530E-03     23.5667E-03    -10.1081E-03     19.8552E-03    -9.90304E-03     23.4175E-03
            1249     7.12946E-03     106.050E-03    -10.4261E+06    -11.3733E+06    -7.78272E+06    -2.76724E+06    -10.2085E-03     20.1162E-03    -9.90763E-03     28.0745E-03    -10.2334E-03     20.0862E-03    -9.91493E-03     28.0378E-03
            1250     8.02046E-03     106.078E-03     2.65858E+06    -742.912E+03     12.7441E+06     4.33487E+06    -10.5366E-03     20.5374E-03    -10.0008E-03     33.2947E-03    -10.5415E-03     20.5121E-03    -9.93982E-03     33.3493E-03
            1251     8.91106E-03     106.110E-03     7.26100E+06     7.87601E+06     23.2853E+06     5.07486E+06    -10.9558E-03     21.0366E-03    -10.0809E-03     39.4236E-03    -10.9659E-03     21.0329E-03    -9.98638E-03     39.4873E-03
            1252     9.80150E-03     106.148E-03     6.53554E+06     8.87266E+06     25.0370E+06     1.21528E+06    -11.4546E-03     21.6119E-03    -10.1573E-03     46.6606E-03    -11.4731E-03     21.6125E-03    -10.0544E-03     46.6738E-03
            1253     10.6915E-03     106.193E-03     6.31561E+06     7.72925E+06     26.0229E+06    -2.09073E+06    -12.1784E-03     22.4345E-03    -10.2561E-03     55.2712E-03    -12.1996E-03     22.4301E-03    -10.1463E-03     55.2401E-03
            1254     11.5811E-03     106.246E-03     7.30731E+06     1.92354E+06     27.1294E+06    -4.46603E+06    -13.3410E-03     23.7384E-03    -10.3974E-03     65.5381E-03    -13.3549E-03     23.7064E-03    -10.2751E-03     65.4728E-03
            1255     12.4696E-03     106.310E-03     8.48533E+06     7.37247E+06     30.6627E+06    -5.97371E+06    -15.1409E-03     25.7328E-03    -10.5919E-03     79.0484E-03    -15.1738E-03     25.7331E-03    -10.4616E-03     78.9559E-03
            1256     13.3570E-03     106.388E-03     8.28275E+06     4.93966E+06     30.7691E+06    -5.94022E+06    -17.6255E-03     28.4932E-03    -10.8677E-03     90.5531E-03    -17.6784E-03     28.5038E-03    -10.7330E-03     90.4481E-03
            1257     14.2414E-03     106.471E-03     4.25293E+06     6.45684E+06     23.3471E+06    -6.82937E+06    -20.7355E-03     31.9560E-03    -11.2205E-03     98.1813E-03    -20.8418E-03     32.0327E-03    -11.1193E-03     98.0453E-03
            1258     15.1238E-03     106.563E-03    -1.13510E+06     20.2957E+06     23.7446E+06    -13.6621E+06    -24.7028E-03     36.4210E-03    -11.7181E-03     118.767E-03    -24.9998E-03     36.7173E-03    -11.6272E-03     118.515E-03
            1259     16.0048E-03     106.684E-03    -5.36882E+06    -10.0616E+06    -2.56332E+06    -23.2435E+06    -27.9410E-03     40.1505E-03    -12.2095E-03     151.277E-03    -28.7121E-03     40.8743E-03    -12.2000E-03     151.006E-03
            1260     16.8816E-03     106.840E-03    -3.63517E+06    -10.5577E+06    -7.34898E+06    -18.8180E+06    -29.4416E-03     42.2229E-03    -12.7812E-03     158.198E-03    -31.1680E-03     43.9204E-03    -12.7974E-03     158.924E-03
            1261     891.388E-06     106.927E-03    -33.9247E+06    -27.0745E+06    -33.4029E+06    -3.91518E+06    -9.73573E-03     19.4688E-03    -9.73309E-03     3.07663E-03    -9.81761E-03     19.4312E-03    -9.81165E-03     3.02595E-03
            1262     1.78248E-03     106.931E-03    -33.8050E+06    -26.5807E+06    -32.3386E+06    -7.06624E+06    -9.78728E-03     19.5362E-03    -9.74896E-03     5.73576E-03    -9.87090E-03     19.4993E-03    -9.82310E-03     5.64429E-03
            1263     2.67383E-03     106.938E-03    -33.4792E+06    -26.0898E+06    -30.4705E+06    -10.3385E+06    -9.85591E-03     19.6357E-03    -9.77976E-03     8.60268E-03    -9.94137E-03     19.5980E-03    -9.84573E-03     8.46883E-03
            1264     3.56485E-03     106.947E-03    -33.1200E+06    -25.5226E+06    -28.2457E+06    -13.8235E+06    -9.94057E-03     19.7581E-03    -9.81750E-03     11.5876E-03    -10.0283E-03     19.7196E-03    -9.87370E-03     11.4086E-03
            1265     4.45605E-03     106.960E-03    -33.1827E+06    -24.8675E+06    -26.4641E+06    -16.7591E+06    -10.0201E-03     19.8762E-03    -9.85604E-03     14.7547E-03    -10.1119E-03     19.8386E-03    -9.90419E-03     14.5376E-03
            1266     5.34692E-03     106.975E-03    -33.5336E+06    -24.6634E+06    -26.0062E+06    -19.7927E+06    -10.0712E-03     19.9577E-03    -9.88649E-03     18.2118E-03    -10.1657E-03     19.9210E-03    -9.93213E-03     17.9554E-03
            1267     6.23813E-03     106.994E-03    -32.2308E+06    -22.5404E+06    -26.8050E+06    -21.4814E+06    -10.0946E-03     19.9926E-03    -9.89805E-03     22.0451E-03    -10.1847E-03     19.9660E-03    -9.95266E-03     21.7668E-03
            1268     7.12910E-03     107.017E-03    -24.7519E+06    -18.8867E+06    -21.1722E+06    -18.7683E+06    -10.1428E-03     20.0652E-03    -9.92239E-03     26.3650E-03    -10.2091E-03     20.0380E-03    -9.96497E-03     26.1215E-03
            1269     8.02030E-03     107.045E-03    -9.05853E+06    -9.07053E+06    -5.59615E+06    -10.4635E+06    -10.2858E-03     20.2583E-03    -9.97251E-03     31.3666E-03    -10.3107E-03     20.2350E-03    -9.97420E-03     31.2302E-03
            1270     8.91142E-03     107.078E-03     7.01018E+06     4.54572E+06     14.5908E+06    -1.08260E+06    -10.6066E-03     20.6545E-03    -10.0479E-03     37.2815E-03    -10.6004E-03     20.6471E-03    -9.99172E-03     37.2659E-03
            1271     9.80210E-03     107.116E-03     15.1975E+06     11.8855E+06     29.2594E+06     2.39816E+06    -11.1454E-03     21.2837E-03    -10.1382E-03     44.5089E-03    -11.1308E-03     21.2804E-03    -10.0312E-03     44.5376E-03
            1272     10.6923E-03     107.162E-03     15.7798E+06     10.4496E+06     33.2852E+06     472.172E+03    -11.9087E-03     22.1394E-03    -10.2306E-03     53.3551E-03    -11.8963E-03     22.1235E-03    -10.1022E-03     53.3579E-03
            1273     11.5821E-03     107.216E-03     14.6027E+06     5.59198E+06     34.3034E+06    -2.48799E+06    -13.0278E-03     23.3837E-03    -10.3559E-03     64.0320E-03    -13.0191E-03     23.3472E-03    -10.2137E-03     63.9938E-03
            1274     12.4711E-03     107.281E-03     14.0233E+06     8.05235E+06     36.9702E+06    -4.15689E+06    -14.7292E-03     25.2621E-03    -10.5329E-03     78.1505E-03    -14.7403E-03     25.2444E-03    -10.3800E-03     78.0843E-03
            1275     13.3585E-03     107.361E-03     14.5384E+06     4.66655E+06     37.4984E+06    -3.61165E+06    -16.9174E-03     27.6964E-03    -10.7790E-03     90.4857E-03    -16.9404E-03     27.6789E-03    -10.6194E-03     90.4155E-03
            1276     14.2448E-03     107.448E-03     16.2469E+06     6.97043E+06     32.0864E+06    -1.98789E+06    -20.1280E-03     31.2213E-03    -11.0933E-03     99.5839E-03    -20.1761E-03     31.2589E-03    -10.9665E-03     99.5153E-03
            1277     15.1275E-03     107.543E-03     13.9250E+06     30.8663E+06     37.4630E+06     -3.3215E+06    -24.1646E-03     35.7275E-03    -11.5628E-03     120.557E-03    -24.3912E-03     36.0045E-03    -11.4405E-03     120.440E-03
            1278     16.0049E-03     107.670E-03     6.31291E+06     6.87036E+06     14.5047E+06    -14.0613E+06    -27.5091E-03     39.5496E-03    -12.0405E-03     151.789E-03    -28.1556E-03     40.2009E-03    -11.9871E-03     151.598E-03
            1279     16.8898E-03     107.818E-03    -1.74937E+06    -22.2586E+06     7.38598E+06    -19.3071E+06    -31.1801E-03     43.8640E-03    -12.6839E-03     162.895E-03    -32.8349E-03     45.4128E-03    -12.6122E-03     163.417E-03
            1280     890.945E-06     107.894E-03    -19.6119E+06    -19.8356E+06    -19.2822E+06    -3.48373E+06    -10.0805E-03     20.1329E-03    -10.0524E-03     2.76590E-03    -10.1218E-03     20.0903E-03    -10.0916E-03     2.72072E-03
            1281     1.78214E-03     107.898E-03    -19.6620E+06    -19.5509E+06    -18.2348E+06     -6.3878E+06    -10.1345E-03     20.2191E-03    -10.0846E-03     5.14062E-03    -10.1781E-03     20.1763E-03    -10.1189E-03     5.05777E-03
            1282     2.67294E-03     107.905E-03    -19.6097E+06    -19.0594E+06    -16.5991E+06    -9.40163E+06    -10.2252E-03     20.3483E-03    -10.1231E-03     7.70203E-03    -10.2717E-03     20.3056E-03    -10.1500E-03     7.58006E-03
            1283     3.56393E-03     107.915E-03    -19.9208E+06    -18.6176E+06    -15.0999E+06    -12.1929E+06    -10.3246E-03     20.4932E-03    -10.1686E-03     10.3666E-03    -10.3755E-03     20.4511E-03    -10.1882E-03     10.2084E-03
            1284     4.45456E-03     107.927E-03    -20.1323E+06    -18.4551E+06    -13.8470E+06    -15.0271E+06    -10.4165E-03     20.6318E-03    -10.2153E-03     13.1941E-03    -10.4706E-03     20.5891E-03    -10.2286E-03     12.9990E-03
            1285     5.34546E-03     107.943E-03    -20.1568E+06    -17.7870E+06    -12.1312E+06    -17.8704E+06    -10.4957E-03     20.7575E-03    -10.2618E-03     16.2641E-03    -10.5536E-03     20.7158E-03    -10.2675E-03     16.0320E-03
            1286     6.23598E-03     107.962E-03    -20.9765E+06    -17.6508E+06    -11.2105E+06    -20.7567E+06    -10.5487E-03     20.8506E-03    -10.3018E-03     19.6936E-03    -10.6124E-03     20.8096E-03    -10.3019E-03     19.4241E-03
            1287     7.12675E-03     107.985E-03    -22.4786E+06    -17.7604E+06    -12.7623E+06    -23.3897E+06    -10.5409E-03     20.8624E-03    -10.3215E-03     23.6820E-03    -10.6098E-03     20.8255E-03    -10.3270E-03     23.3784E-03
            1288     8.01744E-03     108.012E-03    -20.9230E+06    -14.9736E+06    -13.2172E+06    -23.1990E+06    -10.5001E-03     20.8245E-03    -10.3244E-03     28.3449E-03    -10.5649E-03     20.8001E-03    -10.3384E-03     28.0436E-03
            1289     8.90843E-03     108.045E-03    -10.6515E+06    -5.01362E+06    -2.71000E+06    -16.5314E+06    -10.5545E-03     20.9032E-03    -10.3487E-03     33.8841E-03    -10.5978E-03     20.8987E-03    -10.3395E-03     33.6688E-03
            1290     9.79942E-03     108.084E-03     4.80471E+06     7.30922E+06     16.7157E+06    -7.04095E+06    -10.8671E-03     21.2774E-03    -10.4103E-03     40.7783E-03    -10.8795E-03     21.2843E-03    -10.3443E-03     40.6853E-03
            1291     10.6901E-03     108.130E-03     16.4450E+06     10.3447E+06     32.1527E+06    -1.12014E+06    -11.5599E-03     22.0547E-03    -10.4948E-03     49.6015E-03    -11.5416E-03     22.0383E-03    -10.3729E-03     49.5844E-03
            1292     11.5799E-03     108.185E-03     21.0067E+06     9.01824E+06     39.9471E+06    -1.07734E+06    -12.7366E-03     23.3396E-03    -10.6029E-03     60.6562E-03    -12.7072E-03     23.3009E-03    -10.4467E-03     60.6376E-03
            1293     12.4689E-03     108.251E-03     21.5838E+06     7.25582E+06     42.6501E+06    -1.21416E+06    -14.3369E-03     25.0877E-03    -10.7508E-03     74.9570E-03    -14.3126E-03     25.0422E-03    -10.5794E-03     74.9318E-03
            1294     13.3571E-03     108.333E-03     20.6927E+06     6.08774E+06     42.6656E+06    -1.60927E+06    -16.1948E-03     27.1451E-03    -10.9503E-03     87.6770E-03    -16.1873E-03     27.1090E-03    -10.7758E-03     87.6377E-03
            1295     14.2436E-03     108.422E-03     22.8962E+06     8.21393E+06     40.7578E+06    -5.68689E+06    -18.8977E-03     30.1130E-03    -11.2153E-03     98.9344E-03    -18.9104E-03     30.1181E-03    -11.0566E-03     98.8260E-03
            1296     15.1265E-03     108.524E-03     25.4658E+06     19.7825E+06     47.1377E+06     5.93799E+06    -21.9384E-03     33.5330E-03    -11.5946E-03     119.547E-03    -22.0577E-03     33.6763E-03    -11.4245E-03     119.563E-03
            1297     16.0136E-03     108.647E-03     9.93804E+06     33.1183E+06     30.6530E+06     7.21624E+06    -26.8981E-03     38.8774E-03    -11.9793E-03     151.730E-03    -27.4632E-03     39.5067E-03    -11.8885E-03     151.770E-03
            1298     16.8867E-03     108.807E-03    -5.34064E+06    -12.4600E+06     27.7760E+06    -14.6798E+06    -33.5572E-03     46.2695E-03    -12.7124E-03     167.461E-03    -35.1686E-03     47.7377E-03    -12.5477E-03     167.821E-03
            1299     890.570E-06     108.862E-03    -8.00118E+06    -13.4466E+06    -7.49036E+06    -3.07976E+06    -10.8033E-03     21.5508E-03    -10.7475E-03     2.36740E-03    -10.8129E-03     21.5061E-03    -10.7539E-03     2.32736E-03
            1300     1.78080E-03     108.866E-03    -8.14532E+06    -13.2863E+06    -6.77749E+06    -5.50378E+06    -10.8657E-03     21.6640E-03    -10.7983E-03     4.42043E-03    -10.8775E-03     21.6192E-03    -10.8011E-03     4.34882E-03
            1301     2.67128E-03     108.873E-03    -8.57943E+06    -12.9430E+06    -5.76765E+06    -7.99019E+06    -10.9691E-03     21.8134E-03    -10.8443E-03     6.58309E-03    -10.9850E-03     21.7695E-03    -10.8419E-03     6.47909E-03
            1302     3.56137E-03     108.883E-03    -8.87740E+06    -12.7483E+06    -4.52778E+06    -10.4561E+06    -11.0789E-03     21.9766E-03    -10.8978E-03     8.83110E-03    -11.0984E-03     21.9325E-03    -10.8891E-03     8.69496E-03
            1303     4.45167E-03     108.896E-03    -9.43388E+06    -12.2602E+06    -2.97956E+06    -13.0438E+06    -11.2008E-03     22.1575E-03    -10.9566E-03     11.2089E-03    -11.2263E-03     22.1144E-03    -10.9401E-03     11.0390E-03
            1304     5.34153E-03     108.911E-03    -10.5628E+06    -12.1998E+06    -1.86920E+06    -15.3823E+06    -11.3177E-03     22.3350E-03    -11.0173E-03     13.7955E-03    -11.3507E-03     22.2925E-03    -10.9936E-03     13.5951E-03
            1305     6.23161E-03     108.931E-03    -11.8215E+06    -11.6714E+06    -1.11944E+06    -17.5203E+06    -11.3976E-03     22.4714E-03    -11.0738E-03     16.7048E-03    -11.4389E-03     22.4324E-03    -11.0453E-03     16.4764E-03
            1306     7.12142E-03     108.953E-03    -13.2175E+06    -12.1563E+06    -672.326E+03    -19.9290E+06    -11.4266E-03     22.5496E-03    -11.1230E-03     20.0817E-03    -11.4751E-03     22.5098E-03    -11.0895E-03     19.8219E-03
            1307     8.01148E-03     108.981E-03    -15.7028E+06    -12.3364E+06    -1.09052E+06    -22.2874E+06    -11.3865E-03     22.5430E-03    -11.1564E-03     24.1341E-03    -11.4469E-03     22.5068E-03    -11.1212E-03     23.8437E-03
            1308     8.90142E-03     109.013E-03    -18.3851E+06    -9.31908E+06    -2.43209E+06    -23.1224E+06    -11.2890E-03     22.4536E-03    -11.1647E-03     29.0748E-03    -11.3653E-03     22.4386E-03    -11.1366E-03     28.7736E-03
            1309     9.79179E-03     109.052E-03    -15.9003E+06    -1.16770E+06     3.10468E+06    -18.5507E+06    -11.2546E-03     22.4325E-03    -11.1779E-03     35.2520E-03    -11.3387E-03     22.4469E-03    -11.1376E-03     35.0098E-03
            1310     10.6822E-03     109.098E-03    -5.60534E+06     6.18224E+06     19.6254E+06    -12.4324E+06    -11.5694E-03     22.8058E-03    -11.2364E-03     43.3845E-03    -11.6369E-03     22.8184E-03    -11.1392E-03     43.2212E-03
            1311     11.5726E-03     109.154E-03     7.34571E+06     7.22626E+06     35.3551E+06    -7.13086E+06    -12.4902E-03     23.8148E-03    -11.3247E-03     54.1878E-03    -12.5184E-03     23.7922E-03    -11.1690E-03     54.0921E-03
            1312     12.4615E-03     109.222E-03     15.3114E+06     3.85169E+06     41.9246E+06    -2.14125E+06    -13.8411E-03     25.2704E-03    -11.4293E-03     68.2293E-03    -13.8377E-03     25.2135E-03    -11.2475E-03     68.1952E-03
            1313     13.3497E-03     109.304E-03     16.9136E+06     6.64290E+06     44.0932E+06     1.21821E+06    -15.3348E-03     26.8986E-03    -11.5638E-03     81.5192E-03    -15.3394E-03     26.8590E-03    -11.3775E-03     81.5222E-03
            1314     14.2368E-03     109.396E-03     11.0429E+06     16.6492E+06     45.8563E+06    -2.51520E+06    -17.0375E-03     28.7866E-03    -11.7490E-03     93.6172E-03    -17.1092E-03     28.8236E-03    -11.5599E-03     93.5604E-03
            1315     15.1248E-03     109.499E-03     10.1070E+06    -3.76583E+06     42.6980E+06     1.08136E+06    -20.0994E-03     32.1191E-03    -12.0197E-03     112.794E-03    -20.2076E-03     32.1261E-03    -11.8154E-03     112.760E-03
            1316     16.0061E-03     109.625E-03     26.2768E+06     41.7396E+06     40.7424E+06     12.3146E+06    -25.3717E-03     37.6613E-03    -12.2896E-03     146.814E-03    -25.7496E-03     38.1627E-03    -12.1845E-03     146.903E-03
            1317     16.8900E-03     109.795E-03     29.1644E+06     12.7893E+06     37.3749E+06     6.70315E+06    -33.6351E-03     46.5432E-03    -12.9081E-03     170.136E-03    -34.9255E-03     47.8751E-03    -12.7820E-03     170.577E-03
            1318     889.379E-06     109.832E-03     342.597E+03    -8.06350E+06     826.687E+03    -2.42766E+06    -11.9662E-03     23.8835E-03    -11.9173E-03     1.90885E-03    -11.9540E-03     23.8416E-03    -11.9020E-03     1.87715E-03
            1319     1.77896E-03     109.836E-03    -115.260E+03    -8.08106E+06     1.09544E+06    -4.40868E+06    -12.0565E-03     24.0259E-03    -11.9694E-03     3.54393E-03    -12.0471E-03     23.9840E-03    -11.9521E-03     3.48629E-03
            1320     2.66810E-03     109.843E-03    -597.035E+03    -7.92066E+06     1.99031E+06    -6.41620E+06    -12.1712E-03     24.1968E-03    -12.0257E-03     5.22473E-03    -12.1657E-03     24.1552E-03    -12.0034E-03     5.14080E-03
            1321     3.55743E-03     109.853E-03    -1.39845E+06    -7.54937E+06     3.26300E+06    -8.52636E+06    -12.3087E-03     24.4001E-03    -12.0914E-03     6.97815E-03    -12.3098E-03     24.3598E-03    -12.0621E-03     6.86658E-03
            1322     4.44632E-03     109.866E-03    -2.63417E+06    -7.60882E+06     4.28756E+06    -10.2086E+06    -12.4654E-03     24.6302E-03    -12.1648E-03     8.83870E-03    -12.4742E-03     24.5900E-03    -12.1285E-03     8.70498E-03
            1323     5.33536E-03     109.882E-03    -4.06568E+06    -7.04331E+06     5.16098E+06    -12.1497E+06    -12.6255E-03     24.8684E-03    -12.2429E-03     10.8722E-03    -12.6436E-03     24.8319E-03    -12.2010E-03     10.7130E-03
            1324     6.22400E-03     109.901E-03    -5.59957E+06    -7.23826E+06     6.17595E+06    -14.0974E+06    -12.7818E-03     25.1083E-03    -12.3265E-03     13.1361E-03    -12.8090E-03     25.0718E-03    -12.2770E-03     12.9512E-03
            1325     7.11274E-03     109.924E-03    -7.92432E+06    -7.41187E+06     7.13308E+06    -15.4274E+06    -12.9149E-03     25.3264E-03    -12.4115E-03     15.7480E-03    -12.9551E-03     25.2913E-03    -12.3536E-03     15.5454E-03
            1326     8.00117E-03     109.951E-03    -10.9735E+06    -8.06748E+06     7.43342E+06    -16.6458E+06    -13.0003E-03     25.4920E-03    -12.4917E-03     18.8783E-03    -13.0556E-03     25.4579E-03    -12.4270E-03     18.6596E-03
            1327     8.88987E-03     109.984E-03    -14.0490E+06    -6.05968E+06     7.96719E+06    -18.1365E+06    -13.0263E-03     25.5879E-03    -12.5615E-03     22.7553E-03    -13.1011E-03     25.5678E-03    -12.4925E-03     22.5170E-03
            1328     9.77835E-03     110.022E-03    -15.8584E+06    -3.30382E+06     9.60425E+06    -19.8791E+06    -13.0216E-03     25.6449E-03    -12.6233E-03     27.7065E-03    -13.1122E-03     25.6391E-03    -12.5475E-03     27.4455E-03
            1329     10.6672E-03     110.068E-03    -16.5032E+06     1.83936E+06     15.6045E+06    -17.6834E+06    -13.0394E-03     25.7309E-03    -12.6915E-03     34.3819E-03    -13.1498E-03     25.7435E-03    -12.5922E-03     34.1492E-03
            1330     11.5558E-03     110.124E-03    -15.6453E+06     2.80659E+06     22.8346E+06    -13.9144E+06    -13.2163E-03     25.9804E-03    -12.7641E-03     43.6268E-03    -13.3346E-03     25.9865E-03    -12.6313E-03     43.4429E-03
            1331     12.4450E-03     110.192E-03    -10.3278E+06    -2.95659E+06     30.2388E+06    -8.10413E+06    -13.5826E-03     26.4217E-03    -12.8391E-03     56.1871E-03    -13.6777E-03     26.3818E-03    -12.6687E-03     56.0778E-03
            1332     13.3335E-03     110.275E-03    -1.20900E+06     3.38560E+06     40.6691E+06    -3.04659E+06    -14.1414E-03     27.0490E-03    -12.9076E-03     69.2830E-03    -14.2187E-03     27.0160E-03    -12.7074E-03     69.2366E-03
            1333     14.2218E-03     110.368E-03     5.80893E+06     16.0058E+06     46.5667E+06     4.26701E+06    -15.5999E-03     28.5766E-03    -12.9767E-03     81.3662E-03    -15.6804E-03     28.5996E-03    -12.7755E-03     81.4059E-03
            1334     15.1072E-03     110.472E-03     3.33687E+06     489.542E+03     38.4761E+06    -1.23036E+06    -18.7732E-03     31.8883E-03    -13.1151E-03     101.408E-03    -18.8760E-03     31.8932E-03    -12.9282E-03     101.354E-03
            1335     15.9921E-03     110.604E-03     4.47580E+06     25.2369E+06     29.9912E+06    -7.37863E+06    -23.6703E-03     36.9820E-03    -13.3117E-03     135.963E-03    -23.9787E-03     37.3089E-03    -13.2048E-03     135.802E-03
            1336     16.8736E-03     110.771E-03     5.43042E+06     9.69684E+06     11.1985E+06     13.1535E+06    -27.4666E-03     41.0809E-03    -13.6143E-03     166.051E-03    -28.4007E-03     42.0377E-03    -13.5802E-03     166.454E-03
            1337     888.099E-06     110.804E-03     4.03479E+06    -3.99927E+06     4.56766E+06    -1.52384E+06    -13.6974E-03     27.3298E-03    -13.6324E-03     1.42138E-03    -13.6781E-03     27.2973E-03    -13.6096E-03     1.40132E-03
            1338     1.77579E-03     110.809E-03     3.52179E+06    -4.04692E+06     4.88566E+06    -3.12924E+06    -13.8052E-03     27.5056E-03    -13.7003E-03     2.43383E-03    -13.7891E-03     27.4730E-03    -13.6751E-03     2.39262E-03
            1339     2.66373E-03     110.816E-03     2.74537E+06    -3.91333E+06     5.70078E+06    -4.71306E+06    -13.9323E-03     27.7009E-03    -13.7686E-03     3.53462E-03    -13.9214E-03     27.6690E-03    -13.7384E-03     3.47254E-03
            1340     3.55121E-03     110.826E-03     1.67935E+06    -3.90174E+06     6.75276E+06    -5.90580E+06    -14.1031E-03     27.9509E-03    -13.8477E-03     4.70241E-03    -14.0992E-03     27.9191E-03    -13.8108E-03     4.62449E-03
            1341     4.43878E-03     110.839E-03     585.656E+03    -3.82808E+06     8.21893E+06    -7.35121E+06    -14.3077E-03     28.2494E-03    -13.9417E-03     5.95039E-03    -14.3116E-03     28.2176E-03    -13.8959E-03     5.85332E-03
            1342     5.32591E-03     110.855E-03    -637.389E+03    -3.37161E+06     10.2524E+06    -8.61683E+06    -14.5608E-03     28.6129E-03    -14.0521E-03     7.31551E-03    -14.5745E-03     28.5823E-03    -13.9951E-03     7.20156E-03
            1343     6.21299E-03     110.875E-03    -2.57915E+06    -3.45017E+06     12.0635E+06    -9.85208E+06    -14.8741E-03     29.0543E-03    -14.1801E-03     8.80990E-03    -14.9002E-03     29.0235E-03    -14.1111E-03     8.67938E-03
            1344     7.09957E-03     110.898E-03    -4.34673E+06    -4.72746E+06     13.6718E+06    -10.7742E+06    -15.2353E-03     29.5622E-03    -14.3269E-03     10.4887E-03    -15.2710E-03     29.5254E-03    -14.2453E-03     10.3455E-03
            1345     7.98604E-03     110.926E-03    -5.72062E+06    -4.70271E+06     15.9281E+06    -11.5580E+06    -15.6225E-03     30.1142E-03    -14.4917E-03     12.4486E-03    -15.6687E-03     30.0765E-03    -14.3969E-03     12.2946E-03
            1346     8.87187E-03     110.958E-03    -6.80640E+06    -2.29093E+06     18.3702E+06    -13.2227E+06    -16.0000E-03     30.6681E-03    -14.6680E-03     14.8916E-03    -16.0591E-03     30.6407E-03    -14.5630E-03     14.7152E-03
            1347     9.75767E-03     110.997E-03    -9.24084E+06    -210.020E+03     19.7252E+06    -14.2763E+06    -16.3500E-03     31.2019E-03    -14.8519E-03     18.1225E-03    -16.4267E-03     31.1868E-03    -14.7396E-03     17.9316E-03
            1348     10.6428E-03     111.042E-03    -12.8606E+06    -1.72997E+06     18.6696E+06    -12.7700E+06    -16.5506E-03     31.5835E-03    -15.0328E-03     22.5817E-03    -16.6423E-03     31.5679E-03    -14.9183E-03     22.4096E-03
            1349     11.5284E-03     111.098E-03    -16.7914E+06     1.53106E+06     19.4849E+06    -9.85496E+06    -16.4000E-03     31.6002E-03    -15.2002E-03     28.8555E-03    -16.5178E-03     31.6058E-03    -15.0806E-03     28.7209E-03
            1350     12.4140E-03     111.164E-03    -18.8507E+06    -5.47375E+06     20.8424E+06    -10.5524E+06    -15.6067E-03     30.9394E-03    -15.3327E-03     37.3370E-03    -15.7269E-03     30.9112E-03    -15.1932E-03     37.1942E-03
            1351     13.3018E-03     111.246E-03    -15.8042E+06    -697.288E+03     28.3054E+06    -9.79361E+06    -14.3873E-03     29.7782E-03    -15.3909E-03     47.2355E-03    -14.5106E-03     29.7595E-03    -15.2254E-03     47.1030E-03
            1352     14.1898E-03     111.339E-03    -8.65377E+06     1.61318E+06     30.2753E+06    -981.051E+03    -13.8361E-03     29.1861E-03    -15.3500E-03     59.1271E-03    -13.9331E-03     29.1702E-03    -15.1884E-03     59.1061E-03
            1353     15.0770E-03     111.446E-03    -1.06181E+06     16.8960E+06     35.0218E+06     1.15657E+06    -16.0298E-03     31.3506E-03    -15.3208E-03     81.3709E-03    -16.1393E-03     31.4151E-03    -15.1686E-03     81.3639E-03
            1354     15.9621E-03     111.576E-03    -10.0695E+06     18.1162E+06     30.2506E+06     229.608E+03    -21.0055E-03     36.4191E-03    -15.4137E-03     117.162E-03    -21.2507E-03     36.6059E-03    -15.2741E-03     117.110E-03
            1355     16.8406E-03     111.752E-03    -22.8689E+06    -11.7794E+06    -4.05147E+06     6.81278E+06    -12.8941E-03     28.1182E-03    -15.2241E-03     143.322E-03    -13.3483E-03     28.4656E-03    -15.1942E-03     143.508E-03
            1356     885.808E-06     111.781E-03     6.98395E+06    -1.43196E+06     7.26835E+06    -925.436E+03    -16.1190E-03     32.3004E-03    -16.1815E-03     504.749E-06    -16.0927E-03     32.2725E-03    -16.1532E-03     492.556E-06
            1357     1.77171E-03     111.786E-03     6.48104E+06    -1.27927E+06     8.07639E+06    -1.73339E+06    -16.2404E-03     32.4208E-03    -16.1805E-03     889.808E-06    -16.2182E-03     32.3930E-03    -16.1476E-03     866.788E-06
            1358     2.65718E-03     111.793E-03     5.56602E+06    -1.43828E+06     8.88948E+06    -2.47535E+06    -16.3987E-03     32.6420E-03    -16.2433E-03     1.30520E-03    -16.3821E-03     32.6136E-03    -16.2049E-03     1.27227E-03
            1359     3.54276E-03     111.803E-03     4.52790E+06    -1.50379E+06     10.3565E+06    -3.27688E+06    -16.6139E-03     32.9489E-03    -16.3350E-03     1.75961E-03    -16.6045E-03     32.9195E-03    -16.2876E-03     1.71597E-03
            1360     4.42787E-03     111.816E-03     3.29959E+06    -1.16380E+06     12.8111E+06    -4.05612E+06    -16.9258E-03     33.3844E-03    -16.4586E-03     2.24211E-03    -16.9266E-03     33.3549E-03    -16.3977E-03     2.18800E-03
            1361     5.31283E-03     111.833E-03     1.71378E+06    -1.24445E+06     15.3851E+06    -4.70135E+06    -17.3558E-03     33.9735E-03    -16.6177E-03     2.75298E-03    -17.3683E-03     33.9421E-03    -16.5414E-03     2.69005E-03
            1362     6.19717E-03     111.853E-03     182.463E+03    -1.11819E+06     18.3397E+06    -5.10278E+06    -17.9318E-03     34.7503E-03    -16.8185E-03     3.27602E-03    -17.9565E-03     34.7175E-03    -16.7254E-03     3.20733E-03
            1363     7.08104E-03     111.877E-03    -1.51996E+06    -2.13330E+06     21.1727E+06    -6.19338E+06    -18.6684E-03     35.7357E-03    -17.0673E-03     3.80300E-03    -18.7045E-03     35.6962E-03    -16.9561E-03     3.71951E-03
            1364     7.96392E-03     111.905E-03    -2.97197E+06    -2.70340E+06     23.4149E+06    -7.13647E+06    -19.5262E-03     36.8879E-03    -17.3618E-03     4.39504E-03    -19.5721E-03     36.8445E-03    -17.2365E-03     4.29847E-03
            1365     8.84618E-03     111.938E-03    -5.16713E+06     948.287E+03     25.2904E+06    -7.91397E+06    -20.4606E-03     38.1587E-03    -17.6981E-03     5.15950E-03    -20.5259E-03     38.1340E-03    -17.5655E-03     5.05180E-03
            1366     9.72717E-03     111.977E-03    -8.89387E+06    -662.178E+03     23.2090E+06    -6.76364E+06    -21.4422E-03     39.5124E-03    -18.0702E-03     6.25047E-03    -21.5212E-03     39.4880E-03    -17.9403E-03     6.15636E-03
            1367     10.6076E-03     112.024E-03    -12.2636E+06    -498.486E+03     21.3938E+06    -6.57389E+06    -22.2942E-03     40.7714E-03    -18.4772E-03     7.84582E-03    -22.3882E-03     40.7554E-03    -18.3517E-03     7.75288E-03
            1368     11.4866E-03     112.078E-03    -12.9327E+06    -2.63406E+06     20.6934E+06    -4.99699E+06    -22.4940E-03     41.3879E-03    -18.8939E-03     10.2111E-03    -22.5878E-03     41.3632E-03    -18.7679E-03     10.1376E-03
            1369     12.3660E-03     112.144E-03    -13.6140E+06     2.21753E+06     20.9855E+06    -6.11521E+06    -21.2826E-03     40.5248E-03    -19.2422E-03     13.6017E-03    -21.3877E-03     40.5250E-03    -19.1208E-03     13.5140E-03
            1370     13.2460E-03     112.220E-03    -18.2591E+06    -6.45955E+06     17.0181E+06    -6.76521E+06    -18.4051E-03     37.8502E-03    -19.4451E-03     18.5488E-03    -18.5153E-03     37.8197E-03    -19.3242E-03     18.4541E-03
            1371     14.1300E-03     112.311E-03    -20.3681E+06    -2.07043E+06     13.1260E+06    -7.24488E+06    -15.6192E-03     35.0755E-03    -19.4563E-03     25.4109E-03    -15.7415E-03     35.0752E-03    -19.3582E-03     25.3110E-03
            1372     15.0204E-03     112.413E-03    -17.1295E+06     10.6637E+06     22.6000E+06    -2.63597E+06    -17.0258E-03     36.5298E-03    -19.5040E-03     40.7569E-03    -17.1711E-03     36.5796E-03    -19.3817E-03     40.7106E-03
            1373     15.9042E-03     112.555E-03    -5.99172E+06     5.96113E+06     35.0032E+06     10.2630E+06    -13.7945E-03     33.3356E-03    -19.5411E-03     64.3164E-03    -13.9205E-03     33.3593E-03    -19.3661E-03     64.4237E-03
            1374     16.7934E-03     112.718E-03     4.37196E+06     1.70048E+06     22.8985E+06     7.29062E+06     2.06743E-03     16.8783E-03    -18.9457E-03     69.6779E-03     2.00101E-03     16.8957E-03    -18.8400E-03     69.7725E-03
            1375     16.8502E-03     56.0337E-03    -1.60777E+06     111.132E+06     9.44549E+06     209.458E+03    -18.8818E-03     33.1908E-03    -14.3090E-03     155.597E-03    -21.1906E-03     35.8610E-03    -14.4206E-03     157.531E-03
            1376     15.9692E-03     55.8704E-03    -904.854E+03     60.8093E+06    -22.6530E+06    -1.88688E+06    -19.1870E-03     33.3826E-03    -14.1956E-03     140.125E-03    -20.3301E-03     34.8039E-03    -14.3957E-03     140.462E-03
            1377     15.0818E-03     55.7687E-03    -391.988E+03     34.5897E+06    -9.52825E+06    -1.14092E+06    -16.5033E-03     30.7811E-03    -14.2778E-03     91.3900E-03    -16.7599E-03     31.1868E-03    -14.3750E-03     91.3641E-03
            1378     14.1951E-03     55.7008E-03    -999.867E+03    -12.5479E+06    -11.9747E+06     569.715E+03    -15.8483E-03     30.1683E-03    -14.3199E-03     67.8031E-03    -15.8961E-03     30.2027E-03    -14.3602E-03     67.7754E-03
            1379     13.3077E-03     55.6419E-03    -1.85357E+06    -31.1081E+06    -9.61703E+06     787.759E+03    -15.4855E-03     29.8307E-03    -14.3452E-03     63.0278E-03    -15.4819E-03     29.7380E-03    -14.3455E-03     63.0067E-03
            1380     12.4207E-03     55.5835E-03    -629.722E+03    -31.8851E+06    -1.58334E+06     703.526E+03    -15.2691E-03     29.6480E-03    -14.3788E-03     57.3273E-03    -15.2505E-03     29.5185E-03    -14.3396E-03     57.3124E-03
            1381     11.5334E-03     55.5353E-03     2.23837E+06    -38.7988E+06    -2.19073E+06     652.504E+03    -15.1348E-03     29.5099E-03    -14.3751E-03     49.3177E-03    -15.0791E-03     29.3307E-03    -14.3330E-03     49.3084E-03
            1382     10.6465E-03     55.4919E-03     2.56238E+06    -46.1560E+06    -446.470E+03    -336.337E+03    -15.0173E-03     29.4017E-03    -14.3845E-03     44.1906E-03    -14.9460E-03     29.1770E-03    -14.3235E-03     44.1732E-03
            1383     9.75924E-03     55.4532E-03     834.747E+03    -47.3064E+06     2.31808E+06    -1.28115E+06    -14.8805E-03     29.2734E-03    -14.3929E-03     39.4606E-03    -14.8168E-03     29.0380E-03    -14.3140E-03     39.4344E-03
            1384     8.87222E-03     55.4185E-03     407.868E+03    -47.6120E+06     2.11251E+06    -1.16502E+06    -14.7719E-03     29.1559E-03    -14.3839E-03     34.8704E-03    -14.7075E-03     28.9178E-03    -14.3049E-03     34.8482E-03
            1385     7.98504E-03     55.3883E-03     898.106E+03    -48.6267E+06     2.80426E+06    -915.233E+03    -14.6746E-03     29.0544E-03    -14.3799E-03     30.4775E-03    -14.6060E-03     28.8083E-03    -14.2966E-03     30.4602E-03
            1386     7.09786E-03     55.3619E-03     604.118E+03    -49.9141E+06     2.64954E+06    -569.708E+03    -14.5896E-03     28.9639E-03    -14.3743E-03     26.3013E-03    -14.5196E-03     28.7112E-03    -14.2896E-03     26.2896E-03
            1387     6.21063E-03     55.3395E-03     101.478E+03    -49.0417E+06     3.49988E+06     122.029E+03    -14.5213E-03     28.8931E-03    -14.3718E-03     22.3898E-03    -14.4558E-03     28.6437E-03    -14.2833E-03     22.3880E-03
            1388     5.32349E-03     55.3203E-03    -446.389E+03    -47.5823E+06     3.38280E+06     498.753E+03    -14.4518E-03     28.8170E-03    -14.3651E-03     18.7513E-03    -14.3907E-03     28.5755E-03    -14.2786E-03     18.7550E-03
            1389     4.43620E-03     55.3046E-03    -1.41327E+06    -48.6141E+06     2.04662E+06        -471.863    -14.4002E-03     28.7595E-03    -14.3594E-03     15.3449E-03    -14.3401E-03     28.5160E-03    -14.2766E-03     15.3428E-03
            1390     3.54896E-03     55.2918E-03    -2.16815E+06    -48.3976E+06     894.760E+03    -91.6883E+03    -14.3731E-03     28.7272E-03    -14.3541E-03     12.1080E-03    -14.3153E-03     28.4873E-03    -14.2763E-03     12.1052E-03
            1391     2.66176E-03     55.2822E-03    -2.90515E+06    -48.1097E+06    -1.32308E+06     175.584E+03    -14.3508E-03     28.6952E-03    -14.3443E-03     9.01123E-03    -14.2938E-03     28.4609E-03    -14.2770E-03     9.01233E-03
            1392     1.77445E-03     55.2750E-03    -3.72001E+06    -48.5146E+06    -3.01758E+06    -124.795E+03    -14.3374E-03     28.6779E-03    -14.3405E-03     6.01598E-03    -14.2813E-03     28.4452E-03    -14.2799E-03     6.01361E-03
            1393     887.259E-06     55.2710E-03    -3.53486E+06    -48.9025E+06    -3.27320E+06    -156.099E+03    -14.3385E-03     28.6848E-03    -14.3463E-03     3.25291E-03    -14.2804E-03     28.4502E-03    -14.2866E-03     3.25047E-03
            1394     16.8632E-03     55.0554E-03    -895.284E+03     112.491E+06     9.83921E+06    -439.181E+03    -19.2045E-03     33.4188E-03    -14.2143E-03     156.209E-03    -21.5183E-03     36.1003E-03    -14.3269E-03     158.125E-03
            1395     15.9706E-03     54.8986E-03     56.9389E+03     62.4364E+06    -22.0435E+06     105.419E+03    -17.9355E-03     32.0628E-03    -14.1273E-03     142.043E-03    -19.0627E-03     33.4756E-03    -14.3281E-03     142.441E-03
            1396     15.0812E-03     54.7912E-03    -1.56048E+06     32.5159E+06    -10.3744E+06     154.941E+03    -16.3352E-03     30.5888E-03    -14.2536E-03     92.9259E-03    -16.5989E-03     30.9925E-03    -14.3504E-03     92.9186E-03
            1397     14.1949E-03     54.7250E-03    -926.237E+03    -14.1992E+06    -12.8703E+06     1.08232E+06    -15.7378E-03     30.0406E-03    -14.3028E-03     67.6009E-03    -15.7807E-03     30.0671E-03    -14.3452E-03     67.5803E-03
            1398     13.3080E-03     54.6660E-03     61.5028E+03    -29.9406E+06    -9.35950E+06     1.63972E+06    -15.4284E-03     29.7605E-03    -14.3320E-03     63.2141E-03    -15.4173E-03     29.6704E-03    -14.3355E-03     63.2042E-03
            1399     12.4206E-03     54.6079E-03    -462.500E+03    -30.4848E+06    -2.18350E+06    -216.739E+03    -15.2740E-03     29.6394E-03    -14.3653E-03     57.5217E-03    -15.2557E-03     29.5175E-03    -14.3314E-03     57.4950E-03
            1400     11.5337E-03     54.5592E-03    -588.105E+03    -39.3512E+06    -4.51842E+06    -1.10682E+06    -15.1325E-03     29.4916E-03    -14.3592E-03     49.3690E-03    -15.0867E-03     29.3172E-03    -14.3239E-03     49.3370E-03
            1401     10.6465E-03     54.5162E-03     730.007E+03    -45.8062E+06    -1.33237E+06     16.4785E+03    -15.0248E-03     29.3962E-03    -14.3714E-03     44.1948E-03    -14.9619E-03     29.1771E-03    -14.3127E-03     44.1819E-03
            1402     9.75952E-03     54.4772E-03     1.06433E+06    -46.4690E+06     2.93912E+06    -105.357E+03    -14.8720E-03     29.2544E-03    -14.3823E-03     39.4379E-03    -14.8093E-03     29.0219E-03    -14.3018E-03     39.4269E-03
            1403     8.87226E-03     54.4429E-03     250.805E+03    -47.4095E+06     1.38122E+06    -1.33141E+06    -14.7401E-03     29.1089E-03    -14.3689E-03     34.8772E-03    -14.6756E-03     28.8731E-03    -14.2936E-03     34.8528E-03
            1404     7.98509E-03     54.4124E-03    -120.507E+03    -49.4411E+06     1.25924E+06    -1.28038E+06    -14.6516E-03     29.0167E-03    -14.3651E-03     30.4799E-03    -14.5847E-03     28.7702E-03    -14.2870E-03     30.4579E-03
            1405     7.09790E-03     54.3863E-03    -193.220E+03    -50.7278E+06     2.02529E+06    -325.813E+03    -14.5824E-03     28.9466E-03    -14.3642E-03     26.2719E-03    -14.5143E-03     28.6919E-03    -14.2803E-03     26.2635E-03
            1406     6.21074E-03     54.3637E-03    -520.194E+03    -49.3041E+06     2.77079E+06    -71.5422E+03    -14.5060E-03     28.8661E-03    -14.3602E-03     22.3686E-03    -14.4421E-03     28.6174E-03    -14.2741E-03     22.3643E-03
            1407     5.32347E-03     54.3448E-03     -550.56E+03    -47.7924E+06     3.47069E+06     61.1053E+03    -14.4454E-03     28.8021E-03    -14.3568E-03     18.7283E-03    -14.3846E-03     28.5596E-03    -14.2693E-03     18.7264E-03
            1408     4.43628E-03     54.3289E-03    -766.539E+03    -47.9960E+06     2.68171E+06     291.249E+03    -14.3990E-03     28.7494E-03    -14.3504E-03     15.3187E-03    -14.3375E-03     28.5070E-03    -14.2663E-03     15.3203E-03
            1409     3.54900E-03     54.3163E-03    -1.86753E+06    -48.6760E+06     1.19619E+06     65.5590E+03    -14.3656E-03     28.7097E-03    -14.3441E-03     12.0848E-03    -14.3063E-03     28.4675E-03    -14.2648E-03     12.0841E-03
            1410     2.66173E-03     54.3064E-03    -2.64326E+06    -48.0595E+06    -228.961E+03     113.331E+03    -14.3474E-03     28.6832E-03    -14.3358E-03     8.98959E-03    -14.2907E-03     28.4472E-03    -14.2635E-03     8.98989E-03
            1411     1.77455E-03     54.2996E-03    -3.09255E+06    -48.2054E+06    -2.00391E+06     119.090E+03    -14.3289E-03     28.6559E-03    -14.3271E-03     6.00229E-03    -14.2716E-03     28.4224E-03    -14.2627E-03     6.00305E-03
            1412     887.212E-06     54.2952E-03    -4.25705E+06    -49.1487E+06    -4.06374E+06    -88.3076E+03    -14.3250E-03     28.6420E-03    -14.3171E-03     3.24420E-03    -14.2691E-03     28.4085E-03    -14.2600E-03     3.24265E-03
            1413     16.8532E-03     54.0819E-03    -3.47797E+06     112.725E+06     7.12643E+06    -486.454E+03    -18.4568E-03     32.6940E-03    -14.2372E-03     156.908E-03    -20.7791E-03     35.3835E-03    -14.3600E-03     158.851E-03
            1414     15.9676E-03     53.9221E-03    -3.27200E+06     61.8149E+06    -24.5062E+06    -72.6495E+03    -18.8473E-03     33.0033E-03    -14.1559E-03     144.091E-03    -20.0153E-03     34.4501E-03    -14.3633E-03     144.485E-03
            1415     15.0828E-03     53.8154E-03    -710.889E+03     31.4884E+06    -9.82336E+06     263.861E+03    -16.7832E-03     31.0419E-03    -14.2587E-03     93.0030E-03    -17.0454E-03     31.4418E-03    -14.3524E-03     92.9937E-03
            1416     14.1951E-03     53.7490E-03     274.838E+03    -15.4595E+06    -12.4527E+06     1.00065E+06    -15.5257E-03     29.8265E-03    -14.3009E-03     67.4953E-03    -15.5598E-03     29.8429E-03    -14.3411E-03     67.4747E-03
            1417     13.3077E-03     53.6903E-03     1.38484E+06    -29.3597E+06    -8.73377E+06     1.29826E+06    -15.5278E-03     29.8595E-03    -14.3317E-03     63.2195E-03    -15.5120E-03     29.7697E-03    -14.3348E-03     63.2050E-03
            1418     12.4209E-03     53.6318E-03     1.96764E+06    -28.5681E+06     539.355E+03     1.04305E+06    -15.3461E-03     29.7122E-03    -14.3661E-03     57.4152E-03    -15.3225E-03     29.5926E-03    -14.3248E-03     57.4046E-03
            1419     11.5336E-03     53.5836E-03     560.164E+03    -38.8736E+06    -2.63823E+06    -89.5707E+03    -15.1166E-03     29.4739E-03    -14.3573E-03     49.3128E-03    -15.0685E-03     29.2974E-03    -14.3149E-03     49.2940E-03
            1420     10.6466E-03     53.5402E-03    -169.652E+03    -46.3884E+06    -2.32130E+06    -1.18307E+06    -15.0065E-03     29.3668E-03    -14.3602E-03     44.1880E-03    -14.9458E-03     29.1475E-03    -14.3043E-03     44.1597E-03
            1421     9.75944E-03     53.5015E-03     1.44457E+06    -46.0814E+06     2.62428E+06    -1.05214E+06    -14.8710E-03     29.2423E-03    -14.3713E-03     39.4254E-03    -14.8064E-03     29.0117E-03    -14.2935E-03     39.4022E-03
            1422     8.87238E-03     53.4670E-03     2.30979E+06    -47.1539E+06     3.06359E+06    -576.032E+03    -14.7528E-03     29.1173E-03    -14.3646E-03     34.8099E-03    -14.6809E-03     28.8774E-03    -14.2842E-03     34.7953E-03
            1423     7.98516E-03     53.4369E-03     1.00690E+06    -50.2019E+06     2.32663E+06    -328.059E+03    -14.6496E-03     29.0091E-03    -14.3596E-03     30.4099E-03    -14.5775E-03     28.7556E-03    -14.2766E-03     30.4002E-03
            1424     7.09799E-03     53.4105E-03    -203.101E+03    -51.0684E+06     2.48150E+06    -345.807E+03    -14.5686E-03     28.9252E-03    -14.3566E-03     26.2337E-03    -14.5007E-03     28.6681E-03    -14.2699E-03     26.2250E-03
            1425     6.21077E-03     53.3881E-03    -376.356E+03    -49.2537E+06     3.13771E+06    -401.683E+03    -14.4950E-03     28.8465E-03    -14.3515E-03     22.3386E-03    -14.4311E-03     28.5973E-03    -14.2638E-03     22.3300E-03
            1426     5.32356E-03     53.3690E-03    -913.939E+03    -48.2634E+06     2.67497E+06    -216.955E+03    -14.4362E-03     28.7798E-03    -14.3437E-03     18.7020E-03    -14.3753E-03     28.5366E-03    -14.2590E-03     18.6965E-03
            1427     4.43629E-03     53.3533E-03    -1.70756E+06    -48.1317E+06     2.16770E+06     177.603E+03    -14.4008E-03     28.7379E-03    -14.3371E-03     15.2849E-03    -14.3431E-03     28.4970E-03    -14.2540E-03     15.2851E-03
            1428     3.54907E-03     53.3406E-03    -2.19976E+06    -48.2084E+06     1.38158E+06     195.177E+03    -14.3656E-03     28.6940E-03    -14.3284E-03     12.0496E-03    -14.3089E-03     28.4544E-03    -14.2484E-03     12.0505E-03
            1429     2.66183E-03     53.3309E-03    -2.94154E+06    -48.1732E+06    -469.155E+03    -191.073E+03    -14.3274E-03     28.6437E-03    -14.3163E-03     8.95405E-03    -14.2717E-03     28.4080E-03    -14.2446E-03     8.95041E-03
            1430     1.77451E-03     53.3239E-03    -3.64840E+06    -48.3407E+06    -2.05146E+06     121.112E+03    -14.3097E-03     28.6179E-03    -14.3082E-03     5.98921E-03    -14.2550E-03     28.3845E-03    -14.2430E-03     5.99000E-03
            1431     887.322E-06     53.3198E-03    -3.96405E+06    -48.7855E+06    -3.53754E+06     507.402E+03    -14.3150E-03     28.6030E-03    -14.2880E-03     3.23936E-03    -14.2589E-03     28.3701E-03    -14.2292E-03     3.24550E-03
            1432     16.8562E-03     53.1075E-03    -944.156E+03     113.059E+06     11.4446E+06     496.008E+03    -18.5404E-03     32.8369E-03    -14.2965E-03     154.174E-03    -20.8137E-03     35.4750E-03    -14.4018E-03     156.097E-03
            1433     15.9690E-03     52.9436E-03    -250.422E+03     61.5494E+06    -21.4677E+06     372.034E+03    -19.3661E-03     33.5533E-03    -14.1872E-03     142.470E-03    -20.5217E-03     34.9887E-03    -14.3834E-03     142.851E-03
            1434     15.0817E-03     52.8393E-03    -1.84781E+06     31.0556E+06    -10.3534E+06     121.543E+03    -16.6814E-03     30.9449E-03    -14.2635E-03     92.2163E-03    -16.9457E-03     31.3429E-03    -14.3576E-03     92.2061E-03
            1435     14.1947E-03     52.7736E-03    -1.21083E+06    -15.2987E+06    -13.8687E+06    -19.6969E+03    -15.6596E-03     29.9581E-03    -14.2985E-03     67.6654E-03    -15.6998E-03     29.9799E-03    -14.3439E-03     67.6313E-03
            1436     13.3080E-03     52.7139E-03     1.39468E+06    -29.9256E+06    -9.36547E+06    -82.0843E+03    -15.6078E-03     29.9330E-03    -14.3253E-03     63.2177E-03    -15.5901E-03     29.8413E-03    -14.3307E-03     63.1852E-03
            1437     12.4209E-03     52.6561E-03     2.90084E+06    -29.0940E+06     1.48160E+06     1.14572E+06    -15.3817E-03     29.7435E-03    -14.3618E-03     57.2993E-03    -15.3540E-03     29.6185E-03    -14.3164E-03     57.2899E-03
            1438     11.5339E-03     52.6076E-03     3.77465E+06    -36.6544E+06     330.365E+03     987.577E+03    -15.1216E-03     29.4756E-03    -14.3540E-03     49.2526E-03    -15.0649E-03     29.3012E-03    -14.3047E-03     49.2478E-03
            1439     10.6467E-03     52.5645E-03     4.14460E+06    -45.3333E+06     279.968E+03    -948.653E+03    -14.9902E-03     29.3460E-03    -14.3558E-03     44.1136E-03    -14.9132E-03     29.1219E-03    -14.2946E-03     44.0884E-03
            1440     9.75962E-03     52.5256E-03     3.07678E+06    -47.0239E+06     3.07203E+06    -1.40083E+06    -14.8704E-03     29.2341E-03    -14.3637E-03     39.3624E-03    -14.7969E-03     28.9957E-03    -14.2847E-03     39.3347E-03
            1441     8.87243E-03     52.4914E-03     2.02057E+06    -48.2872E+06     3.64665E+06    -116.019E+03    -14.7662E-03     29.1256E-03    -14.3594E-03     34.7394E-03    -14.6949E-03     28.8795E-03    -14.2741E-03     34.7307E-03
            1442     7.98532E-03     52.4611E-03     1.63590E+06    -50.2138E+06     3.74868E+06     736.435E+03    -14.6529E-03     29.0065E-03    -14.3535E-03     30.3425E-03    -14.5797E-03     28.7499E-03    -14.2644E-03     30.3466E-03
            1443     7.09806E-03     52.4350E-03     1.01159E+06    -50.2484E+06     2.85732E+06     108.905E+03    -14.5542E-03     28.8969E-03    -14.3428E-03     26.1924E-03    -14.4819E-03     28.6416E-03    -14.2571E-03     26.1895E-03
            1444     6.21085E-03     52.4124E-03    -53.2175E+03    -49.6617E+06     3.02699E+06    -275.898E+03    -14.4892E-03     28.8275E-03    -14.3383E-03     22.2904E-03    -14.4228E-03     28.5759E-03    -14.2511E-03     22.2835E-03
            1445     5.32361E-03     52.3935E-03    -991.202E+03    -48.5133E+06     2.86092E+06     89.6589E+03    -14.4389E-03     28.7693E-03    -14.3304E-03     18.6517E-03    -14.3783E-03     28.5247E-03    -14.2444E-03     18.6502E-03
            1446     4.43638E-03     52.3777E-03    -1.72350E+06    -48.1501E+06     2.32191E+06    -34.4126E+03    -14.3935E-03     28.7143E-03    -14.3208E-03     15.2382E-03    -14.3362E-03     28.4731E-03    -14.2368E-03     15.2356E-03
            1447     3.54914E-03     52.3650E-03    -2.26564E+06    -47.8715E+06     1.30493E+06    -313.389E+03    -14.3513E-03     28.6599E-03    -14.3086E-03     12.0173E-03    -14.2953E-03     28.4222E-03    -14.2294E-03     12.0117E-03
            1448     2.66188E-03     52.3553E-03    -2.77804E+06    -48.3910E+06    -332.660E+03    -153.846E+03    -14.3151E-03     28.6113E-03    -14.2961E-03     8.93675E-03    -14.2585E-03     28.3740E-03    -14.2236E-03     8.93360E-03
            1449     1.77460E-03     52.3484E-03    -3.60956E+06    -48.6504E+06    -2.16470E+06     9.99833E+03    -14.2902E-03     28.5753E-03    -14.2850E-03     5.97785E-03    -14.2347E-03     28.3405E-03    -14.2201E-03     5.97722E-03
            1450     887.247E-06     52.3441E-03    -4.14363E+06    -48.3584E+06    -3.30996E+06    -35.1838E+03    -14.2848E-03     28.5546E-03    -14.2698E-03     3.21702E-03    -14.2306E-03     28.3237E-03    -14.2102E-03     3.21615E-03
            1451     16.8551E-03     52.1289E-03    -1.81005E+06     112.536E+06      9.5264E+06    -115.620E+03    -18.9556E-03     33.2222E-03    -14.2666E-03     154.856E-03    -21.2351E-03     35.8671E-03    -14.3795E-03     156.760E-03
            1452     15.9695E-03     51.9685E-03    -2.58550E+06     60.6585E+06    -21.0061E+06     951.392E+03    -18.9373E-03     33.1102E-03    -14.1729E-03     142.566E-03    -20.0968E-03     34.5367E-03    -14.3621E-03     142.959E-03
            1453     15.0817E-03     51.8632E-03    -931.724E+03     32.4779E+06    -9.55662E+06     1.31239E+06    -16.4857E-03     30.7453E-03    -14.2596E-03     91.9128E-03    -16.7470E-03     31.1463E-03    -14.3531E-03     91.9191E-03
            1454     14.1951E-03     51.7971E-03    -584.630E+03    -13.8673E+06    -14.0227E+06    -799.649E+03    -15.7773E-03     30.0687E-03    -14.2913E-03     67.2517E-03    -15.8164E-03     30.0971E-03    -14.3405E-03     67.2070E-03
            1455     13.3079E-03     51.7382E-03     -33.634E+03    -31.1028E+06    -11.0260E+06    -1.40038E+06    -15.6144E-03     29.9269E-03    -14.3125E-03     63.1507E-03    -15.5997E-03     29.8336E-03    -14.3225E-03     63.1012E-03
            1456     12.4210E-03     51.6799E-03     2.09843E+06    -30.2711E+06    -506.344E+03    -693.718E+03    -15.3774E-03     29.7230E-03    -14.3455E-03     57.2181E-03    -15.3491E-03     29.5961E-03    -14.3072E-03     57.1850E-03
            1457     11.5339E-03     51.6319E-03     4.40229E+06    -35.9054E+06    -468.855E+03    -140.538E+03    -15.1262E-03     29.4642E-03    -14.3380E-03     49.1765E-03    -15.0662E-03     29.2937E-03    -14.2947E-03     49.1571E-03
            1458     10.6469E-03     51.5886E-03     4.41673E+06    -44.7005E+06     1.14403E+06     533.628E+03    -14.9788E-03     29.3271E-03    -14.3483E-03     44.0858E-03    -14.9026E-03     29.1045E-03    -14.2841E-03     44.0798E-03
            1459     9.75966E-03     51.5500E-03     2.61576E+06    -47.1623E+06     2.71468E+06     596.291E+03    -14.8588E-03     29.2111E-03    -14.3523E-03     39.3215E-03    -14.7869E-03     28.9731E-03    -14.2741E-03     39.3197E-03
            1460     8.87255E-03     51.5155E-03     1.25103E+06    -49.1406E+06     2.95193E+06     275.256E+03    -14.7544E-03     29.1020E-03    -14.3476E-03     34.6961E-03    -14.6847E-03     28.8538E-03    -14.2634E-03     34.6925E-03
            1461     7.98536E-03     51.4855E-03     1.07119E+06    -50.3320E+06     3.48379E+06     434.408E+03    -14.6586E-03     28.9999E-03    -14.3413E-03     30.2935E-03    -14.5876E-03     28.7440E-03    -14.2525E-03     30.2936E-03
            1462     7.09820E-03     51.4592E-03     1.07203E+06    -49.4512E+06     2.72957E+06     577.378E+03    -14.5693E-03     28.8953E-03    -14.3259E-03     26.1375E-03    -14.4978E-03     28.6440E-03    -14.2421E-03     26.1407E-03
            1463     6.21095E-03     51.4369E-03     524.342E+03    -49.7044E+06     3.52241E+06     331.557E+03    -14.4959E-03     28.8172E-03    -14.3214E-03     22.2174E-03    -14.4273E-03     28.5639E-03    -14.2324E-03     22.2183E-03
            1464     5.32373E-03     51.4178E-03    -57.8238E+03    -48.4072E+06     4.34309E+06    -56.2537E+03    -14.4326E-03     28.7475E-03    -14.3149E-03     18.5817E-03    -14.3697E-03     28.4999E-03    -14.2229E-03     18.5783E-03
            1465     4.43651E-03     51.4021E-03    -487.670E+03    -47.9593E+06     3.57530E+06    -219.089E+03    -14.3729E-03     28.6754E-03    -14.3025E-03     15.1840E-03    -14.3114E-03     28.4316E-03    -14.2144E-03     15.1790E-03
            1466     3.54921E-03     51.3894E-03    -1.41777E+06    -47.8003E+06     1.43906E+06    -256.182E+03    -14.3226E-03     28.6098E-03    -14.2872E-03     11.9759E-03    -14.2628E-03     28.3710E-03    -14.2086E-03     11.9710E-03
            1467     2.66191E-03     51.3798E-03    -2.44629E+06    -48.7526E+06     93.2391E+03    -314.541E+03    -14.3026E-03     28.5804E-03    -14.2778E-03     8.91182E-03    -14.2444E-03     28.3402E-03    -14.2031E-03     8.90660E-03
            1468     1.77463E-03     51.3728E-03    -2.97652E+06    -48.7579E+06    -1.07836E+06    -143.834E+03    -14.2833E-03     28.5471E-03    -14.2639E-03     5.95457E-03    -14.2259E-03     28.3093E-03    -14.1943E-03     5.95195E-03
            1469     887.366E-06     51.3687E-03    -3.63453E+06    -48.4026E+06    -3.41164E+06    -75.7799E+03    -14.2556E-03     28.4960E-03    -14.2404E-03     3.18566E-03    -14.1986E-03     28.2643E-03    -14.1820E-03     3.18428E-03
            1470     16.8568E-03     51.1526E-03    -1.26918E+06     112.874E+06     6.42169E+06      637.06E+03    -18.8877E-03     33.1309E-03    -14.2433E-03     154.858E-03    -21.1571E-03     35.7780E-03    -14.3730E-03     156.767E-03
            1471     15.9687E-03     50.9925E-03    -1.72720E+06     59.6819E+06    -24.1003E+06    -42.4718E+03    -19.0186E-03     33.1680E-03    -14.1494E-03     142.110E-03    -20.1634E-03     34.5884E-03    -14.3539E-03     142.488E-03
            1472     15.0824E-03     50.8869E-03     841.606E+03     32.4836E+06    -10.0944E+06     758.841E+03    -16.5760E-03     30.8161E-03    -14.2401E-03     91.9044E-03    -16.8269E-03     31.2146E-03    -14.3389E-03     91.9025E-03
            1473     14.1950E-03     50.8213E-03     1.31346E+06    -11.5535E+06    -12.0790E+06     912.139E+03    -15.6590E-03     29.9403E-03    -14.2813E-03     67.1661E-03    -15.6941E-03     29.9741E-03    -14.3269E-03     67.1439E-03
            1474     13.3083E-03     50.7621E-03     399.029E+03    -30.4826E+06    -10.0712E+06    -1.06600E+06    -15.5966E-03     29.9022E-03    -14.3056E-03     63.0803E-03    -15.5820E-03     29.8100E-03    -14.3123E-03     63.0351E-03
            1475     12.4211E-03     50.7041E-03     272.626E+03    -30.6605E+06    -3.47875E+06    -2.29633E+06    -15.3446E-03     29.6691E-03    -14.3245E-03     57.1744E-03    -15.3203E-03     29.5471E-03    -14.2979E-03     57.1208E-03
            1476     11.5341E-03     50.6559E-03     663.362E+03    -37.7913E+06    -5.24017E+06    -1.07181E+06    -15.1078E-03     29.4214E-03    -14.3136E-03     49.1565E-03    -15.0568E-03     29.2538E-03    -14.2859E-03     49.1252E-03
            1477     10.6469E-03     50.6129E-03     1.52604E+06    -45.7551E+06    -652.484E+03     915.206E+03    -14.9842E-03     29.3193E-03    -14.3352E-03     44.0334E-03    -14.9182E-03     29.0982E-03    -14.2743E-03     44.0323E-03
            1478     9.75983E-03     50.5741E-03     2.41749E+06    -46.3600E+06     2.84598E+06     1.32145E+06    -14.8549E-03     29.1955E-03    -14.3406E-03     39.2656E-03    -14.7853E-03     28.9616E-03    -14.2627E-03     39.2731E-03
            1479     8.87262E-03     50.5399E-03     2.48651E+06    -48.8685E+06     2.85473E+06     845.030E+03    -14.7645E-03     29.0966E-03    -14.3321E-03     34.6141E-03    -14.6889E-03     28.8481E-03    -14.2506E-03     34.6179E-03
            1480     7.98549E-03     50.5097E-03     1.65340E+06    -50.3948E+06     3.84563E+06     645.093E+03    -14.6735E-03     29.0005E-03    -14.3270E-03     30.1919E-03    -14.6000E-03     28.7429E-03    -14.2371E-03     30.1948E-03
            1481     7.09828E-03     50.4837E-03      965.28E+03    -49.2571E+06     4.05056E+06     536.446E+03    -14.5907E-03     28.9033E-03    -14.3126E-03     26.0406E-03    -14.5219E-03     28.6512E-03    -14.2223E-03     26.0433E-03
            1482     6.21115E-03     50.4611E-03     846.589E+03    -49.1822E+06     4.58087E+06     248.967E+03    -14.5025E-03     28.8028E-03    -14.3004E-03     22.1355E-03    -14.4346E-03     28.5501E-03    -14.2074E-03     22.1353E-03
            1483     5.32390E-03     50.4423E-03     478.031E+03    -47.9790E+06     4.21722E+06    -198.668E+03    -14.4042E-03     28.6899E-03    -14.2857E-03     18.5179E-03    -14.3390E-03     28.4438E-03    -14.1957E-03     18.5126E-03
            1484     4.43659E-03     50.4265E-03    -279.374E+03    -48.1403E+06     3.35058E+06    -340.764E+03    -14.3401E-03     28.6154E-03    -14.2752E-03     15.1329E-03    -14.2770E-03     28.3706E-03    -14.1883E-03     15.1264E-03
            1485     3.54930E-03     50.4140E-03    -789.198E+03    -47.8677E+06     2.21116E+06    -173.798E+03    -14.3080E-03     28.5716E-03    -14.2636E-03     11.9253E-03    -14.2460E-03     28.3305E-03    -14.1820E-03     11.9214E-03
            1486     2.66199E-03     50.4042E-03    -1.30777E+06    -48.6663E+06     517.503E+03    -288.685E+03    -14.2797E-03     28.5299E-03    -14.2502E-03     8.85602E-03    -14.2166E-03     28.2879E-03    -14.1752E-03     8.85113E-03
            1487     1.77467E-03     50.3974E-03    -2.18302E+06    -49.3078E+06    -947.916E+03    -301.193E+03    -14.2534E-03     28.4916E-03    -14.2382E-03     5.91771E-03    -14.1915E-03     28.2497E-03    -14.1683E-03     5.91307E-03
            1488     887.332E-06     50.3932E-03    -2.76272E+06    -48.3415E+06    -2.20965E+06     286.598E+03    -14.2233E-03     28.4555E-03    -14.2321E-03     3.16762E-03    -14.1638E-03     28.2211E-03    -14.1691E-03     3.17093E-03
            1489     16.8550E-03     50.1760E-03     27.4539E+03     112.427E+06     6.93511E+06     558.563E+03    -18.9837E-03     33.2240E-03    -14.2403E-03     154.580E-03    -21.2377E-03     35.8571E-03    -14.3687E-03     156.481E-03
            1490     15.9698E-03     50.0159E-03     1.16112E+06     61.0399E+06    -23.7322E+06     815.413E+03    -19.1780E-03     33.3109E-03    -14.1330E-03     141.600E-03    -20.3047E-03     34.7272E-03    -14.3418E-03     141.981E-03
            1491     15.0823E-03     49.9111E-03     939.433E+03     31.3954E+06    -11.1878E+06    -109.369E+03    -16.4820E-03     30.7027E-03    -14.2208E-03     91.6370E-03    -16.7273E-03     31.0953E-03    -14.3236E-03     91.6246E-03
            1492     14.1954E-03     49.8454E-03     3.12408E+06    -11.8057E+06    -11.9010E+06     845.794E+03    -15.6035E-03     29.8718E-03    -14.2684E-03     67.3529E-03    -15.6295E-03     29.9016E-03    -14.3153E-03     67.3302E-03
            1493     13.3082E-03     49.7861E-03     4.18616E+06    -28.1866E+06    -7.36785E+06     1.22408E+06    -15.5791E-03     29.8802E-03    -14.3012E-03     62.9839E-03    -15.5527E-03     29.7900E-03    -14.3032E-03     62.9683E-03
            1494     12.4213E-03     49.7283E-03     1.21718E+06    -30.3950E+06    -1.82138E+06     268.339E+03    -15.3243E-03     29.6473E-03    -14.3230E-03     57.0729E-03    -15.2979E-03     29.5226E-03    -14.2898E-03     57.0525E-03
            1495     11.5340E-03     49.6802E-03    -1.57308E+06    -38.6665E+06    -5.93522E+06    -380.742E+03    -15.1224E-03     29.4281E-03    -14.3057E-03     49.0881E-03    -15.0803E-03     29.2603E-03    -14.2770E-03     49.0657E-03
            1496     10.6472E-03     49.6370E-03    -1.15356E+06    -46.6002E+06    -2.95731E+06    -846.216E+03    -14.9987E-03     29.3157E-03    -14.3170E-03     43.9675E-03    -14.9416E-03     29.0976E-03    -14.2625E-03     43.9436E-03
            1497     9.75988E-03     49.5985E-03     902.843E+03    -46.7297E+06     1.50931E+06    -220.002E+03    -14.8705E-03     29.1921E-03    -14.3216E-03     39.2113E-03    -14.8060E-03     28.9605E-03    -14.2476E-03     39.1989E-03
            1498     8.87282E-03     49.5640E-03     2.06495E+06    -49.1052E+06     2.79497E+06     908.993E+03    -14.7855E-03     29.0994E-03    -14.3139E-03     34.5150E-03    -14.7116E-03     28.8504E-03    -14.2317E-03     34.5196E-03
            1499     7.98566E-03     49.5341E-03     2.12915E+06    -49.8628E+06     5.40182E+06     1.04704E+06    -14.6905E-03     29.0004E-03    -14.3099E-03     30.0693E-03    -14.6177E-03     28.7425E-03    -14.2137E-03     30.0773E-03
            1500     7.09853E-03     49.5079E-03     1.88528E+06    -48.7913E+06     5.36431E+06     410.340E+03    -14.5785E-03     28.8690E-03    -14.2904E-03     25.9355E-03    -14.5077E-03     28.6160E-03    -14.1956E-03     25.9365E-03
            1501     6.21130E-03     49.4856E-03     1.37803E+06    -48.8862E+06     4.71046E+06     96.1997E+03    -14.4768E-03     28.7490E-03    -14.2722E-03     22.0658E-03    -14.4069E-03     28.4968E-03    -14.1798E-03     22.0637E-03
            1502     5.32404E-03     49.4667E-03     618.503E+03    -47.6569E+06     3.90764E+06    -2.18923E+03    -14.3887E-03     28.6433E-03    -14.2547E-03     18.4547E-03    -14.3228E-03     28.3992E-03    -14.1669E-03     18.4520E-03
            1503     4.43674E-03     49.4512E-03    -163.996E+03    -48.1148E+06     3.06615E+06    -258.450E+03    -14.3273E-03     28.5692E-03    -14.2419E-03     15.0721E-03    -14.2632E-03     28.3248E-03    -14.1565E-03     15.0667E-03
            1504     3.54941E-03     49.4384E-03    -880.251E+03    -48.0486E+06     1.80962E+06    -437.254E+03    -14.2795E-03     28.5072E-03    -14.2277E-03     11.8711E-03    -14.2171E-03     28.2659E-03    -14.1477E-03     11.8638E-03
            1505     2.66212E-03     49.4289E-03    -1.39907E+06    -48.7490E+06    -71.9225E+03    -208.609E+03    -14.2420E-03     28.4552E-03    -14.2132E-03     8.81714E-03    -14.1784E-03     28.2137E-03    -14.1408E-03     8.81329E-03
            1506     1.77473E-03     49.4220E-03    -1.79916E+06    -49.5822E+06    -1.34988E+06    -35.0188E+03    -14.2134E-03     28.4187E-03    -14.2053E-03     5.88535E-03    -14.1486E-03     28.1754E-03    -14.1376E-03     5.88414E-03
            1507     887.361E-06     49.4179E-03    -1.97253E+06    -48.4193E+06    -1.70143E+06    -279.736E+03    -14.1927E-03     28.4048E-03    -14.2121E-03     3.13685E-03    -14.1299E-03     28.1681E-03    -14.1475E-03     3.13285E-03
            1508     16.8568E-03     49.1996E-03    -2.75601E+06     111.271E+06     6.83202E+06    -506.114E+03    -19.0802E-03     33.2998E-03    -14.2196E-03     153.694E-03    -21.3283E-03     35.9133E-03    -14.3427E-03     155.560E-03
            1509     15.9695E-03     49.0388E-03    -1.52218E+06     61.0751E+06    -24.1502E+06    -347.566E+03    -18.7096E-03     32.8236E-03    -14.1140E-03     140.846E-03    -19.8354E-03     34.2308E-03    -14.3211E-03     141.218E-03
            1510     15.0828E-03     48.9360E-03     1.51861E+06     32.5406E+06    -10.4041E+06    -548.060E+03    -16.3393E-03     30.5556E-03    -14.2163E-03     91.9762E-03    -16.5850E-03     30.9524E-03    -14.3177E-03     91.9599E-03
            1511     14.1952E-03     48.8690E-03     2.30040E+06    -13.7005E+06    -11.9995E+06    -509.894E+03    -15.6987E-03     29.9661E-03    -14.2675E-03     67.5725E-03    -15.7263E-03     29.9881E-03    -14.3109E-03     67.5317E-03
            1512     13.3086E-03     48.8103E-03     3.37008E+06    -29.5438E+06    -6.06497E+06     2.23212E+06    -15.5668E-03     29.8703E-03    -14.3035E-03     62.9231E-03    -15.5444E-03     29.7726E-03    -14.2959E-03     62.9205E-03
            1513     12.4212E-03     48.7524E-03     3.52439E+06    -28.8542E+06     2.81155E+06     3.43103E+06    -15.3693E-03     29.7006E-03    -14.3313E-03     56.9355E-03    -15.3404E-03     29.5737E-03    -14.2805E-03     56.9558E-03
            1514     11.5345E-03     48.7043E-03     2.74159E+06    -36.6210E+06    -924.122E+03     1.22730E+06    -15.1627E-03     29.4713E-03    -14.3086E-03     48.9539E-03    -15.1092E-03     29.3002E-03    -14.2641E-03     48.9522E-03
            1515     10.6471E-03     48.6614E-03     1.40813E+06    -46.0788E+06    -1.10072E+06    -609.294E+03    -15.0414E-03     29.3463E-03    -14.3049E-03     43.8322E-03    -14.9749E-03     29.1244E-03    -14.2456E-03     43.8113E-03
            1516     9.76020E-03     48.6226E-03    -253.662E+03    -47.9753E+06     1.32803E+06    -712.372E+03    -14.8915E-03     29.1944E-03    -14.3029E-03     39.0859E-03    -14.8307E-03     28.9585E-03    -14.2263E-03     39.0672E-03
            1517     8.87301E-03     48.5885E-03    -196.293E+03    -49.5581E+06     1.63099E+06    -335.335E+03    -14.7857E-03     29.0724E-03    -14.2867E-03     34.4653E-03    -14.7207E-03     28.8260E-03    -14.2064E-03     34.4539E-03
            1518     7.98595E-03     48.5583E-03     1.55400E+06    -49.5845E+06     4.39515E+06    -309.146E+03    -14.6795E-03     28.9566E-03    -14.2771E-03     30.0092E-03    -14.6085E-03     28.7023E-03    -14.1855E-03     29.9998E-03
            1519     7.09874E-03     48.5324E-03     2.53748E+06    -48.8686E+06     4.94492E+06     182.738E+03    -14.5532E-03     28.8113E-03    -14.2581E-03     25.8592E-03    -14.4784E-03     28.5577E-03    -14.1662E-03     25.8573E-03
            1520     6.21147E-03     48.5100E-03     2.16707E+06    -48.6548E+06     4.90874E+06     464.718E+03    -14.4516E-03     28.6937E-03    -14.2421E-03     21.9830E-03    -14.3784E-03     28.4412E-03    -14.1501E-03     21.9856E-03
            1521     5.32419E-03     48.4913E-03     1.42858E+06    -47.4160E+06     5.07332E+06     215.230E+03    -14.3847E-03     28.6117E-03    -14.2270E-03     18.3713E-03    -14.3168E-03     28.3658E-03    -14.1349E-03     18.3714E-03
            1522     4.43692E-03     48.4756E-03     559.966E+03    -47.8738E+06     3.84250E+06     15.7375E+03    -14.3172E-03     28.5248E-03    -14.2076E-03     14.9916E-03    -14.2510E-03     28.2795E-03    -14.1198E-03     14.9897E-03
            1523     3.54959E-03     48.4632E-03    -671.168E+03    -48.1746E+06     1.66659E+06     28.5498E+03    -14.2365E-03     28.4248E-03    -14.1883E-03     11.8090E-03    -14.1726E-03     28.1827E-03    -14.1092E-03     11.8078E-03
            1524     2.66215E-03     48.4535E-03    -1.90874E+06    -48.8857E+06    -233.995E+03    -13.1680E+03    -14.1971E-03     28.3735E-03    -14.1764E-03     8.78411E-03    -14.1356E-03     28.1323E-03    -14.1039E-03     8.78279E-03
            1525     1.77481E-03     48.4467E-03    -2.38944E+06    -49.4312E+06    -1.34185E+06    -260.220E+03    -14.1850E-03     28.3514E-03    -14.1665E-03     5.85114E-03    -14.1233E-03     28.1097E-03    -14.0980E-03     5.84703E-03
            1526     887.399E-06     48.4425E-03    -2.29618E+06    -48.8644E+06    -2.46712E+06    -380.176E+03    -14.1644E-03     28.3158E-03    -14.1514E-03     3.12462E-03    -14.1014E-03     28.0785E-03    -14.0895E-03     3.11932E-03
            1527     16.8575E-03     48.2211E-03    -763.361E+03     111.809E+06     9.99254E+06    -192.964E+03    -18.8893E-03     33.1199E-03    -14.2307E-03     154.071E-03    -21.1330E-03     35.7289E-03    -14.3417E-03     155.936E-03
            1528     15.9706E-03     48.0657E-03    -983.230E+03     60.8293E+06    -23.6074E+06    -365.925E+03    -18.7258E-03     32.8489E-03    -14.1230E-03     141.850E-03    -19.8584E-03     34.2623E-03    -14.3278E-03     142.225E-03
            1529     15.0816E-03     47.9587E-03    -1.71725E+06     33.2018E+06    -10.4349E+06    -703.125E+03    -16.5454E-03     30.7675E-03    -14.2220E-03     91.9504E-03    -16.8072E-03     31.1713E-03    -14.3199E-03     91.9284E-03
            1530     14.1957E-03     47.8935E-03    -1.73351E+06    -15.2918E+06    -12.6876E+06    -270.331E+03    -15.6372E-03     29.9064E-03    -14.2692E-03     67.4390E-03    -15.6812E-03     29.9268E-03    -14.3079E-03     67.4015E-03
            1531     13.3082E-03     47.8342E-03    -1.07921E+06    -32.1639E+06    -8.88782E+06     731.191E+03    -15.6488E-03     29.9433E-03    -14.2945E-03     63.0006E-03    -15.6408E-03     29.8430E-03    -14.2908E-03     62.9784E-03
            1532     12.4217E-03     47.7765E-03     2.17650E+06    -28.1112E+06     1.69788E+06     1.51467E+06    -15.4289E-03     29.7442E-03    -14.3153E-03     56.8604E-03    -15.4060E-03     29.6243E-03    -14.2692E-03     56.8559E-03
            1533     11.5342E-03     47.7285E-03     4.41803E+06    -35.1202E+06     685.400E+03     1.94099E+06    -15.2149E-03     29.5102E-03    -14.2953E-03     48.8847E-03    -15.1575E-03     29.3418E-03    -14.2473E-03     48.8921E-03
            1534     10.6476E-03     47.6854E-03     3.72556E+06    -44.9979E+06     1.29758E+06     1.71421E+06    -15.0844E-03     29.3745E-03    -14.2901E-03     43.6707E-03    -15.0114E-03     29.1512E-03    -14.2238E-03     43.6798E-03
            1535     9.76036E-03     47.6471E-03     2.14401E+06    -47.6375E+06     3.45348E+06     761.820E+03    -14.9148E-03     29.1980E-03    -14.2832E-03     38.9698E-03    -14.8455E-03     28.9572E-03    -14.2000E-03     38.9701E-03
            1536     8.87334E-03     47.6126E-03     1.18689E+06    -48.4464E+06     1.31844E+06    -966.310E+03    -14.7727E-03     29.0253E-03    -14.2526E-03     34.3891E-03    -14.7019E-03     28.7830E-03    -14.1775E-03     34.3696E-03
            1537     7.98612E-03     47.5828E-03     888.108E+03    -50.2840E+06     1.87041E+06    -1.61395E+06    -14.6479E-03     28.8850E-03    -14.2371E-03     29.9515E-03    -14.5755E-03     28.6319E-03    -14.1561E-03     29.9253E-03
            1538     7.09893E-03     47.5567E-03     1.09394E+06    -50.1657E+06     3.99450E+06    -464.664E+03    -14.5459E-03     28.7722E-03    -14.2263E-03     25.7579E-03    -14.4750E-03     28.5155E-03    -14.1352E-03     25.7477E-03
            1539     6.21170E-03     47.5346E-03     1.37069E+06    -48.4665E+06     4.93718E+06     324.076E+03    -14.4443E-03     28.6521E-03    -14.2079E-03     21.8783E-03    -14.3753E-03     28.4017E-03    -14.1149E-03     21.8791E-03
            1540     5.32441E-03     47.5157E-03     1.00870E+06    -47.2668E+06     4.91281E+06     378.897E+03    -14.3487E-03     28.5373E-03    -14.1885E-03     18.2818E-03    -14.2830E-03     28.2930E-03    -14.0969E-03     18.2840E-03
            1541     4.43709E-03     47.5003E-03     104.797E+03    -47.6235E+06     3.79541E+06     341.799E+03    -14.2702E-03     28.4401E-03    -14.1698E-03     14.9133E-03    -14.2066E-03     28.1967E-03    -14.0819E-03     14.9157E-03
            1542     3.54969E-03     47.4878E-03    -620.674E+03    -48.2816E+06     2.63893E+06     279.785E+03    -14.2156E-03     28.3691E-03    -14.1534E-03     11.7522E-03    -14.1528E-03     28.1250E-03    -14.0693E-03     11.7542E-03
            1543     2.66233E-03     47.4783E-03    -1.15727E+06    -48.4875E+06     1.27898E+06     158.170E+03    -14.1695E-03     28.3066E-03    -14.1371E-03     8.72379E-03    -14.1070E-03     28.0641E-03    -14.0587E-03     8.72469E-03
            1544     1.77487E-03     47.4714E-03    -2.13950E+06    -49.3242E+06    -806.261E+03    -233.299E+03    -14.1347E-03     28.2562E-03    -14.1215E-03     5.80759E-03    -14.0728E-03     28.0139E-03    -14.0509E-03     5.80383E-03
            1545     887.485E-06     47.4673E-03    -3.22845E+06    -49.3712E+06    -2.55697E+06    -154.128E+03    -14.1163E-03     28.2210E-03    -14.1047E-03     3.10453E-03    -14.0571E-03     27.9826E-03    -14.0412E-03     3.10215E-03
            1546     16.8552E-03     47.2488E-03    -2.77858E+06     111.426E+06     7.97215E+06    -440.782E+03    -19.0806E-03     33.3664E-03    -14.2857E-03     155.731E-03    -21.3695E-03     36.0180E-03    -14.4034E-03     157.634E-03
            1547     15.9670E-03     47.0858E-03    -2.30773E+06     61.2706E+06    -22.9923E+06    -690.887E+03    -19.9022E-03     34.0551E-03    -14.1529E-03     140.025E-03    -21.0261E-03     35.4551E-03    -14.3534E-03     140.349E-03
            1548     15.0841E-03     46.9840E-03    -151.331E+03     32.1377E+06    -9.57801E+06     299.059E+03    -16.4619E-03     30.6794E-03    -14.2174E-03     91.2969E-03    -16.7099E-03     31.0687E-03    -14.3117E-03     91.2878E-03
            1549     14.1948E-03     46.9175E-03    -670.215E+03    -16.0445E+06    -12.8508E+06     1.11199E+06    -15.7191E-03     29.9777E-03    -14.2586E-03     67.5523E-03    -15.7566E-03     29.9931E-03    -14.2986E-03     67.5324E-03
            1550     13.3089E-03     46.8579E-03    -422.700E+03    -31.0302E+06    -10.0035E+06    -14.0332E+03    -15.6750E-03     29.9480E-03    -14.2730E-03     62.6243E-03    -15.6631E-03     29.8534E-03    -14.2774E-03     62.5926E-03
            1551     12.4214E-03     46.8008E-03    -425.580E+03    -29.1597E+06    -2.00813E+06    -840.878E+03    -15.4148E-03     29.7015E-03    -14.2866E-03     56.7580E-03    -15.3978E-03     29.5852E-03    -14.2538E-03     56.7233E-03
            1552     11.5349E-03     46.7523E-03     751.391E+03    -36.0830E+06    -2.20852E+06     532.456E+03    -15.2376E-03     29.5072E-03    -14.2696E-03     48.8461E-03    -15.1930E-03     29.3435E-03    -14.2294E-03     48.8354E-03
            1553     10.6476E-03     46.7098E-03     2.75004E+06    -44.9848E+06     1.01915E+06     1.89929E+06    -15.1150E-03     29.3826E-03    -14.2676E-03     43.6103E-03    -15.0463E-03     29.1611E-03    -14.2013E-03     43.6218E-03
            1554     9.76075E-03     46.6711E-03     3.82989E+06    -45.5721E+06      4.8391E+06     1.22724E+06    -14.9495E-03     29.2065E-03    -14.2570E-03     38.8484E-03    -14.8768E-03     28.9716E-03    -14.1723E-03     38.8547E-03
            1555     8.87357E-03     46.6372E-03     3.56391E+06    -47.1345E+06     3.31218E+06    -31.2237E+03    -14.7695E-03     28.9950E-03    -14.2256E-03     34.2312E-03    -14.6916E-03     28.7529E-03    -14.1458E-03     34.2238E-03
            1556     7.98639E-03     46.6071E-03     1.91966E+06    -50.6334E+06     2.81020E+06    -387.409E+03    -14.6379E-03     28.8446E-03    -14.2067E-03     29.8101E-03    -14.5612E-03     28.5868E-03    -14.1220E-03     29.7998E-03
            1557     7.09920E-03     46.5813E-03     346.614E+03    -50.8747E+06     3.55437E+06    -728.371E+03    -14.5336E-03     28.7227E-03    -14.1891E-03     25.6376E-03    -14.4648E-03     28.4642E-03    -14.0981E-03     25.6240E-03
            1558     6.21196E-03     46.5591E-03     37.8094E+03    -49.0247E+06     4.12375E+06    -467.768E+03    -14.4198E-03     28.5859E-03    -14.1662E-03     21.7787E-03    -14.3555E-03     28.3358E-03    -14.0745E-03     21.7694E-03
            1559     5.32466E-03     46.5405E-03     74.2807E+03    -47.4000E+06     4.05515E+06     152.084E+03    -14.3013E-03     28.4453E-03    -14.1439E-03     18.1940E-03    -14.2388E-03     28.2030E-03    -14.0550E-03     18.1934E-03
            1560     4.43722E-03     46.5250E-03    -176.135E+03    -47.4123E+06     3.68852E+06     264.641E+03    -14.2278E-03     28.3553E-03    -14.1275E-03     14.8298E-03    -14.1657E-03     28.1135E-03    -14.0401E-03     14.8312E-03
            1561     3.54986E-03     46.5126E-03    -730.325E+03    -48.0188E+06     2.94503E+06    -17.8463E+03    -14.1853E-03     28.2961E-03    -14.1108E-03     11.6821E-03    -14.1239E-03     28.0531E-03    -14.0254E-03     11.6802E-03
            1562     2.66245E-03     46.5030E-03    -1.49231E+06    -48.5477E+06     1.38478E+06    -47.7970E+03    -14.1316E-03     28.2219E-03    -14.0903E-03     8.67564E-03    -14.0708E-03     27.9795E-03    -14.0108E-03     8.67389E-03
            1563     1.77501E-03     46.4963E-03    -2.22016E+06    -49.0963E+06    -1.00073E+06     245.066E+03    -14.0807E-03     28.1523E-03    -14.0716E-03     5.78123E-03    -14.0193E-03     27.9116E-03    -14.0022E-03     5.78365E-03
            1564     887.431E-06     46.4921E-03    -2.81128E+06    -49.5480E+06    -2.67963E+06    -82.7002E+03    -14.0746E-03     28.1274E-03    -14.0528E-03     3.07032E-03    -14.0129E-03     27.8877E-03    -13.9903E-03     3.06887E-03
            1565     16.8504E-03     46.2606E-03     458.530E+03     113.295E+06     11.8379E+06    -1.05484E+06    -19.1475E-03     33.3859E-03    -14.2385E-03     152.235E-03    -21.3976E-03     36.0059E-03    -14.3442E-03     154.110E-03
            1566     15.9738E-03     46.1119E-03     1.36728E+06     59.1360E+06    -22.5330E+06    -334.849E+03    -18.5419E-03     32.6547E-03    -14.1128E-03     136.587E-03    -19.5807E-03     33.9735E-03    -14.3132E-03     136.927E-03
            1567     15.0807E-03     46.0082E-03    -366.953E+03     30.2824E+06    -10.3862E+06     2.36079E+06    -16.5084E-03     30.7142E-03    -14.2058E-03     91.9884E-03    -16.7564E-03     31.0985E-03    -14.3011E-03     92.0073E-03
            1568     14.1965E-03     45.9406E-03    -204.899E+03    -13.2639E+06    -11.2636E+06     1.32159E+06    -15.9382E-03     30.1810E-03    -14.2428E-03     67.0801E-03    -15.9794E-03     30.2070E-03    -14.2796E-03     67.0620E-03
            1569     13.3088E-03     45.8827E-03     428.730E+03    -30.4426E+06    -9.06249E+06     71.9340E+03    -15.5351E-03     29.7874E-03    -14.2524E-03     62.5090E-03    -15.5207E-03     29.6928E-03    -14.2542E-03     62.4789E-03
            1570     12.4221E-03     45.8243E-03     214.164E+03    -29.0057E+06    -1.69911E+06     138.401E+03    -15.3849E-03     29.6531E-03    -14.2682E-03     56.8072E-03    -15.3653E-03     29.5363E-03    -14.2350E-03     56.7853E-03
            1571     11.5347E-03     45.7769E-03    -586.095E+03    -36.9884E+06    -3.14946E+06    -603.184E+03    -15.2605E-03     29.5085E-03    -14.2480E-03     48.7735E-03    -15.2197E-03     29.3435E-03    -14.2093E-03     48.7482E-03
            1572     10.6481E-03     45.7336E-03     992.914E+03    -45.6284E+06    -389.550E+03    -690.069E+03    -15.1545E-03     29.3935E-03    -14.2390E-03     43.4914E-03    -15.0917E-03     29.1734E-03    -14.1762E-03     43.4695E-03
            1573     9.76096E-03     45.6956E-03     3.30773E+06    -45.0465E+06     4.43871E+06     83.1597E+03    -14.9632E-03     29.1877E-03    -14.2245E-03     38.6636E-03    -14.8933E-03     28.9568E-03    -14.1418E-03     38.6552E-03
            1574     8.87389E-03     45.6614E-03     3.38185E+06    -47.3557E+06     4.71176E+06     1.17000E+06    -14.7879E-03     28.9853E-03    -14.1974E-03     34.0412E-03    -14.7127E-03     28.7403E-03    -14.1101E-03     34.0492E-03
            1575     7.98677E-03     45.6317E-03     2.35836E+06    -49.7352E+06     4.25543E+06     1.14362E+06    -14.6317E-03     28.8028E-03    -14.1711E-03     29.6513E-03    -14.5562E-03     28.5468E-03    -14.0812E-03     29.6607E-03
            1576     7.09950E-03     45.6058E-03     1.54446E+06    -49.9090E+06     3.75167E+06    -163.610E+03    -14.4971E-03     28.6408E-03    -14.1438E-03     25.5205E-03    -14.4239E-03     28.3851E-03    -14.0549E-03     25.5142E-03
            1577     6.21224E-03     45.5838E-03     665.446E+03    -49.8532E+06     4.39106E+06    -706.267E+03    -14.3794E-03     28.5037E-03    -14.1243E-03     21.6629E-03    -14.3112E-03     28.2481E-03    -14.0310E-03     21.6505E-03
            1578     5.32484E-03     45.5652E-03     37.5350E+03    -47.7215E+06      4.6799E+06    -364.762E+03    -14.2765E-03     28.3787E-03    -14.1022E-03     18.0925E-03    -14.2145E-03     28.1339E-03    -14.0097E-03     18.0852E-03
            1579     4.43751E-03     45.5498E-03    -375.265E+03    -47.4691E+06     3.90306E+06    -156.579E+03    -14.1971E-03     28.2768E-03    -14.0796E-03     14.7505E-03    -14.1362E-03     28.0347E-03    -13.9908E-03     14.7464E-03
            1580     3.55005E-03     45.5374E-03    -1.03788E+06    -47.7065E+06     2.07795E+06    -72.6332E+03    -14.1225E-03     28.1790E-03    -14.0566E-03     11.6037E-03    -14.0618E-03     27.9392E-03    -13.9755E-03     11.6012E-03
            1581     2.66255E-03     45.5279E-03    -1.82464E+06    -48.8258E+06     243.643E+03    -158.880E+03    -14.0737E-03     28.1127E-03    -14.0390E-03     8.61620E-03    -14.0125E-03     27.8710E-03    -13.9643E-03     8.61303E-03
            1582     1.77503E-03     45.5212E-03    -2.24469E+06    -49.2097E+06    -969.036E+03     28.2348E+03    -14.0446E-03     28.0691E-03    -14.0245E-03     5.73978E-03    -13.9832E-03     27.8278E-03    -13.9547E-03     5.73941E-03
            1583     887.596E-06     45.5171E-03    -2.40819E+06    -49.2326E+06    -2.30903E+06     300.297E+03    -14.0245E-03     28.0287E-03    -14.0041E-03     3.08191E-03    -13.9618E-03     27.7894E-03    -13.9408E-03     3.08539E-03
            1584     16.8696E-03     45.2911E-03     7.37125E+03     110.767E+06     11.3968E+06    -461.027E+03    -17.9081E-03     32.0554E-03    -14.1472E-03     153.196E-03    -20.1066E-03     34.6143E-03    -14.2509E-03     155.073E-03
            1585     15.9657E-03     45.1382E-03    -3.38614E+06     58.2894E+06    -21.2210E+06     3.10041E+06    -17.5979E-03     31.7016E-03    -14.1037E-03     141.086E-03    -18.6796E-03     33.0393E-03    -14.2894E-03     141.510E-03
            1586     15.0844E-03     45.0297E-03    -4.24637E+06     32.9207E+06    -10.0372E+06     1.13425E+06    -17.1002E-03     31.3021E-03    -14.2019E-03     91.6094E-03    -17.3763E-03     31.7090E-03    -14.2936E-03     91.6068E-03
            1587     14.1960E-03     44.9657E-03    -1.79027E+06    -12.6880E+06    -11.5369E+06    -116.776E+03    -15.6415E-03     29.8665E-03    -14.2250E-03     67.0320E-03    -15.6897E-03     29.8967E-03    -14.2617E-03     66.9967E-03
            1588     13.3093E-03     44.9062E-03    -102.113E+03    -30.4419E+06    -8.86690E+06     21.0139E+03    -15.6294E-03     29.8706E-03    -14.2412E-03     62.8053E-03    -15.6184E-03     29.7769E-03    -14.2412E-03     62.7743E-03
            1589     12.4219E-03     44.8491E-03     1.03948E+06    -29.1876E+06    -1.41762E+06     85.0722E+03    -15.5025E-03     29.7501E-03    -14.2476E-03     56.7805E-03    -15.4790E-03     29.6308E-03    -14.2139E-03     56.7576E-03
            1590     11.5353E-03     44.8004E-03     2.24696E+06    -35.5324E+06    -909.202E+03    -311.240E+03    -15.3149E-03     29.5389E-03    -14.2240E-03     48.5551E-03    -15.2653E-03     29.3738E-03    -14.1803E-03     48.5334E-03
            1591     10.6483E-03     44.7581E-03     1.84685E+06    -45.6055E+06     270.812E+03    -1.70875E+06    -15.1415E-03     29.3496E-03    -14.2080E-03     43.2761E-03    -15.0754E-03     29.1273E-03    -14.1432E-03     43.2411E-03
            1592     9.76133E-03     44.7196E-03     1.08949E+06    -47.2982E+06     2.56627E+06    -675.998E+03    -14.9571E-03     29.1432E-03    -14.1860E-03     38.5078E-03    -14.8923E-03     28.9068E-03    -14.1062E-03     38.4896E-03
            1593     8.87429E-03     44.6860E-03     1.26542E+06    -48.2069E+06     4.25961E+06     1.15302E+06    -14.7920E-03     28.9513E-03    -14.1593E-03     33.8635E-03    -14.7254E-03     28.7057E-03    -14.0699E-03     33.8713E-03
            1594     7.98708E-03     44.6561E-03     1.75343E+06    -48.4425E+06     4.80573E+06     1.09020E+06    -14.6136E-03     28.7416E-03    -14.1280E-03     29.4983E-03    -14.5438E-03     28.4921E-03    -14.0363E-03     29.5070E-03
            1595     7.09988E-03     44.6305E-03     1.61200E+06    -48.7181E+06     4.21665E+06     297.451E+03    -14.4583E-03     28.5549E-03    -14.0966E-03     25.3790E-03    -14.3872E-03     28.3043E-03    -14.0072E-03     25.3787E-03
            1596     6.21249E-03     44.6085E-03     837.494E+03    -49.8554E+06     5.20040E+06    -317.408E+03    -14.3400E-03     28.4188E-03    -14.0788E-03     21.5213E-03    -14.2721E-03     28.1618E-03    -13.9817E-03     21.5139E-03
            1597     5.32518E-03     44.5900E-03    -84.0095E+03    -47.9538E+06     5.15138E+06    -593.290E+03    -14.2353E-03     28.2893E-03    -14.0540E-03     17.9799E-03    -14.1743E-03     28.0428E-03    -13.9586E-03     17.9696E-03
            1598     4.43770E-03     44.5746E-03    -867.592E+03    -47.7261E+06     3.49032E+06    -495.926E+03    -14.1434E-03     28.1700E-03    -14.0265E-03     14.6744E-03    -14.0840E-03     27.9279E-03    -13.9386E-03     14.6660E-03
            1599     3.55024E-03     44.5624E-03    -1.34399E+06    -47.8895E+06     1.53436E+06    -271.796E+03    -14.0693E-03     28.0716E-03    -14.0024E-03     11.5397E-03    -14.0090E-03     27.8322E-03    -13.9233E-03     11.5347E-03
            1600     2.66269E-03     44.5529E-03    -1.69698E+06    -48.7468E+06    -139.279E+03    -171.515E+03    -14.0208E-03     28.0058E-03    -13.9850E-03     8.56194E-03    -13.9586E-03     27.7649E-03    -13.9125E-03     8.55862E-03
            1601     1.77517E-03     44.5462E-03    -2.30343E+06    -49.6043E+06    -1.08285E+06    -203.541E+03    -13.9877E-03     27.9627E-03    -13.9749E-03     5.69630E-03    -13.9258E-03     27.7196E-03    -13.9051E-03     5.69296E-03
            1602     887.527E-06     44.5422E-03    -2.82658E+06    -49.0365E+06    -1.93240E+06     63.1463E+03    -13.9548E-03     27.9324E-03    -13.9776E-03     3.07685E-03    -13.8950E-03     27.6942E-03    -13.9121E-03     3.07729E-03
            1603     16.8478E-03     44.3269E-03    -6.33466E+06     110.001E+06    -3.67983E+06     2.00998E+06    -18.2704E-03     32.4415E-03    -14.1711E-03     153.848E-03    -20.4880E-03     35.0381E-03    -14.3398E-03     155.747E-03
            1604     15.9711E-03     44.1544E-03    -6.62351E+06     62.7848E+06    -27.9010E+06     558.024E+03    -19.5663E-03     33.6677E-03    -14.1014E-03     142.390E-03    -20.7125E-03     35.0940E-03    -14.3224E-03     142.744E-03
            1605     15.0831E-03     44.0565E-03    -870.187E+03     33.2534E+06    -9.11062E+06    -1.29195E+06    -16.6654E-03     30.8598E-03    -14.1945E-03     90.8263E-03    -16.9213E-03     31.2572E-03    -14.2870E-03     90.7956E-03
            1606     14.1958E-03     43.9887E-03    -527.096E+03    -13.2469E+06    -11.0087E+06    -19.2778E+03    -15.8293E-03     30.0555E-03    -14.2261E-03     67.4778E-03    -15.8723E-03     30.0815E-03    -14.2612E-03     67.4430E-03
            1607     13.3090E-03     43.9308E-03    -160.586E+03    -29.7282E+06    -7.71616E+06    -305.102E+03    -15.8889E-03     30.1195E-03    -14.2306E-03     62.3996E-03    -15.8811E-03     30.0280E-03    -14.2259E-03     62.3636E-03
            1608     12.4227E-03     43.8724E-03     940.517E+03    -29.1360E+06    -2.16341E+06    -1.25936E+06    -15.6240E-03     29.8372E-03    -14.2132E-03     56.4982E-03    -15.6001E-03     29.7194E-03    -14.1831E-03     56.4577E-03
            1609     11.5357E-03     43.8249E-03     2.41983E+06    -35.2167E+06    -1.84572E+06    -1.38738E+06    -15.3020E-03     29.4830E-03    -14.1810E-03     48.4117E-03    -15.2505E-03     29.3205E-03    -14.1427E-03     48.3763E-03
            1610     10.6487E-03     43.7820E-03     2.86433E+06    -45.8643E+06     1.91526E+06    -214.739E+03    -15.1220E-03     29.2977E-03    -14.1757E-03     43.0760E-03    -15.0527E-03     29.0702E-03    -14.1038E-03     43.0603E-03
            1611     9.76173E-03     43.7441E-03     1.52105E+06    -48.5856E+06     3.39542E+06     163.494E+03    -14.9398E-03     29.0897E-03    -14.1499E-03     38.3143E-03    -14.8721E-03     28.8451E-03    -14.0647E-03     38.3070E-03
            1612     8.87461E-03     43.7102E-03     1.07813E+06    -48.6838E+06     4.57077E+06     28.6136E+03    -14.7725E-03     28.8903E-03    -14.1178E-03     33.7186E-03    -14.7066E-03     28.6421E-03    -14.0259E-03     33.7119E-03
            1613     7.98754E-03     43.6809E-03     1.60768E+06    -48.0441E+06     6.10679E+06     257.515E+03    -14.6015E-03     28.6880E-03    -14.0864E-03     29.3250E-03    -14.5349E-03     28.4388E-03    -13.9886E-03     29.3230E-03
            1614     7.10018E-03     43.6551E-03     1.71251E+06    -48.1878E+06     5.52234E+06     297.327E+03    -14.4364E-03     28.4865E-03    -14.0501E-03     25.2206E-03    -14.3675E-03     28.2365E-03    -13.9551E-03     25.2203E-03
            1615     6.21293E-03     43.6333E-03     1.34885E+06    -49.2088E+06     5.58587E+06    -145.815E+03    -14.2975E-03     28.3213E-03    -14.0238E-03     21.3921E-03    -14.2285E-03     28.0662E-03    -13.9265E-03     21.3869E-03
            1616     5.32542E-03     43.6148E-03     751.000E+03    -47.9195E+06     4.84084E+06    -626.638E+03    -14.1743E-03     28.1700E-03    -13.9957E-03     17.8737E-03    -14.1087E-03     27.9229E-03    -13.9031E-03     17.8631E-03
            1617     4.43797E-03     43.5996E-03     74.7725E+03    -48.1594E+06     3.77807E+06    -571.124E+03    -14.0868E-03     28.0600E-03    -13.9732E-03     14.5776E-03    -14.0225E-03     27.8141E-03    -13.8846E-03     14.5682E-03
            1618     3.55039E-03     43.5874E-03    -868.381E+03    -48.1799E+06     2.26538E+06    -314.643E+03    -14.0240E-03     27.9755E-03    -13.9515E-03     11.4643E-03    -13.9620E-03     27.7328E-03    -13.8690E-03     11.4588E-03
            1619     2.66287E-03     43.5780E-03    -1.87478E+06    -48.8604E+06     371.215E+03    -137.156E+03    -13.9708E-03     27.9021E-03    -13.9313E-03     8.50150E-03    -13.9100E-03     27.6601E-03    -13.8559E-03     8.49864E-03
            1620     1.77521E-03     43.5714E-03    -2.63102E+06    -49.6200E+06    -1.48124E+06    -104.476E+03    -13.9302E-03     27.8450E-03    -13.9149E-03     5.64829E-03    -13.8693E-03     27.6030E-03    -13.8465E-03     5.64623E-03
            1621     887.661E-06     43.5673E-03    -3.01392E+06    -49.3205E+06    -2.90484E+06    -398.206E+03    -13.8932E-03     27.8108E-03    -13.9176E-03     3.01954E-03    -13.8325E-03     27.5729E-03    -13.8562E-03     3.01403E-03
            1622     16.8587E-03     43.3362E-03    -4.02197E+06     114.614E+06     7.70099E+06     2.08998E+06    -19.6741E-03     33.9351E-03    -14.2611E-03     151.195E-03    -21.9316E-03     36.5631E-03    -14.3829E-03     153.057E-03
            1623     15.9710E-03     43.1843E-03     3.00697E+06     63.8788E+06    -22.2389E+06    -2.25191E+06    -19.5385E-03     33.6459E-03    -14.1074E-03     139.372E-03    -20.6373E-03     35.0467E-03    -14.3156E-03     139.688E-03
            1624     15.0817E-03     43.0780E-03     2.34570E+06     29.2032E+06    -7.94376E+06     60.7588E+03    -16.5696E-03     30.7619E-03    -14.1923E-03     91.1326E-03    -16.8050E-03     31.1324E-03    -14.2778E-03     91.1212E-03
            1625     14.1964E-03     43.0134E-03     1.45764E+06    -11.5086E+06    -8.27747E+06     673.519E+03    -16.2421E-03     30.4570E-03    -14.2149E-03     66.4226E-03    -16.2822E-03     30.4854E-03    -14.2417E-03     66.3950E-03
            1626     13.3099E-03     42.9537E-03     1.63876E+06    -29.3126E+06    -6.72869E+06     -586.08E+03    -15.9044E-03     30.1008E-03    -14.1964E-03     62.0688E-03    -15.8892E-03     30.0070E-03    -14.1900E-03     62.0293E-03
            1627     12.4231E-03     42.8970E-03     1.75373E+06    -27.4938E+06    -1.30822E+06    -1.39473E+06    -15.5795E-03     29.7556E-03    -14.1761E-03     56.2716E-03    -15.5549E-03     29.6435E-03    -14.1453E-03     56.2295E-03
            1628     11.5361E-03     42.8487E-03     1.24825E+06    -36.6684E+06    -3.17681E+06    -1.75107E+06    -15.2904E-03     29.4296E-03    -14.1392E-03     48.3213E-03    -15.2406E-03     29.2633E-03    -14.1038E-03     48.2813E-03
            1629     10.6492E-03     42.8065E-03     1.51833E+06    -47.5115E+06     1.27528E+06    -275.033E+03    -15.1244E-03     29.2589E-03    -14.1346E-03     42.9282E-03    -15.0584E-03     29.0260E-03    -14.0615E-03     42.9118E-03
            1630     9.76219E-03     42.7684E-03     2.63174E+06    -47.9117E+06     4.86147E+06     274.291E+03    -14.9227E-03     29.0316E-03    -14.1089E-03     38.1545E-03    -14.8524E-03     28.7865E-03    -14.0190E-03     38.1487E-03
            1631     8.87511E-03     42.7348E-03     3.08465E+06    -48.3435E+06     5.10113E+06    -505.012E+03    -14.7510E-03     28.8199E-03    -14.0689E-03     33.5703E-03    -14.6762E-03     28.5697E-03    -13.9778E-03     33.5568E-03
            1632     7.98784E-03     42.7053E-03     3.21087E+06    -48.6317E+06     6.91297E+06    -609.010E+03    -14.5889E-03     28.6269E-03    -14.0380E-03     29.1549E-03    -14.5146E-03     28.3713E-03    -13.9376E-03     29.1418E-03
            1633     7.10070E-03     42.6800E-03     3.21335E+06    -48.5006E+06     6.81225E+06     147.362E+03    -14.4139E-03     28.4141E-03    -14.0002E-03     25.0639E-03    -14.3388E-03     28.1585E-03    -13.9005E-03     25.0617E-03
            1634     6.21320E-03     42.6582E-03     2.44112E+06    -48.3771E+06     5.72453E+06     223.208E+03    -14.2519E-03     28.2167E-03    -13.9648E-03     21.2695E-03    -14.1789E-03     27.9639E-03    -13.8695E-03     21.2692E-03
            1635     5.32579E-03     42.6399E-03     1.27722E+06    -47.7598E+06     4.52534E+06    -283.538E+03    -14.1286E-03     28.0633E-03    -13.9347E-03     17.7514E-03    -14.0602E-03     27.8167E-03    -13.8446E-03     17.7453E-03
            1636     4.43818E-03     42.6247E-03     20.9988E+03    -48.5985E+06     3.82147E+06    -262.707E+03    -14.0352E-03     27.9490E-03    -13.9139E-03     14.4644E-03    -13.9705E-03     27.7008E-03    -13.8243E-03     14.4591E-03
            1637     3.55066E-03     42.6126E-03    -1.03706E+06    -48.2678E+06     2.15839E+06    -123.245E+03    -13.9648E-03     27.8544E-03    -13.8896E-03     11.3635E-03    -13.9034E-03     27.6117E-03    -13.8073E-03     11.3604E-03
            1638     2.66298E-03     42.6032E-03    -1.74959E+06    -49.0205E+06     567.288E+03    -178.174E+03    -13.9160E-03     27.7847E-03    -13.8687E-03     8.41297E-03    -13.8546E-03     27.5414E-03    -13.7923E-03     8.40959E-03
            1639     1.77541E-03     42.5966E-03    -2.29462E+06    -49.6194E+06    -854.297E+03    -175.162E+03    -13.8777E-03     27.7262E-03    -13.8485E-03     5.59072E-03    -13.8160E-03     27.4827E-03    -13.7775E-03     5.58776E-03
            1640     887.674E-06     42.5926E-03    -2.88172E+06    -49.5833E+06    -2.72225E+06    -30.7512E+03    -13.8394E-03     27.6665E-03    -13.8272E-03     2.96805E-03    -13.7779E-03     27.4268E-03    -13.7647E-03     2.96729E-03
            1641     16.8559E-03     42.3610E-03     3.41606E+06     115.578E+06     14.6739E+06     1.47901E+06    -19.0587E-03     33.2940E-03    -14.2353E-03     152.620E-03    -21.2842E-03     35.8993E-03    -14.3344E-03     154.486E-03
            1642     15.9686E-03     42.2073E-03     515.254E+03     62.6154E+06    -13.6576E+06     66.4254E+03    -19.0817E-03     33.2179E-03    -14.1361E-03     138.974E-03    -20.1904E-03     34.5902E-03    -14.2960E-03     139.335E-03
            1643     15.0846E-03     42.1021E-03    -295.111E+03     27.6751E+06    -8.01104E+06     265.515E+03    -17.2107E-03     31.3796E-03    -14.1689E-03     90.9395E-03    -17.4598E-03     31.7491E-03    -14.2487E-03     90.9261E-03
            1644     14.1971E-03     42.0363E-03     2.16071E+06    -10.4726E+06    -7.35785E+06     290.260E+03    -15.9879E-03     30.1620E-03    -14.1741E-03     66.2801E-03    -16.0256E-03     30.1915E-03    -14.1988E-03     66.2489E-03
            1645     13.3103E-03     41.9783E-03     3.39464E+06    -28.1711E+06    -5.06078E+06    -519.499E+03    -15.8358E-03     30.0014E-03    -14.1656E-03     62.1623E-03    -15.8156E-03     29.9079E-03    -14.1550E-03     62.1240E-03
            1646     12.4234E-03     41.9206E-03     3.91059E+06    -27.2409E+06     737.389E+03    -1.05303E+06    -15.5914E-03     29.7392E-03    -14.1478E-03     56.1967E-03    -15.5592E-03     29.6221E-03    -14.1103E-03     56.1591E-03
            1647     11.5367E-03     41.8732E-03     3.89889E+06    -37.2462E+06    -1.77993E+06    -514.731E+03    -15.3288E-03     29.4328E-03    -14.1040E-03     48.1199E-03    -15.2669E-03     29.2577E-03    -14.0646E-03     48.0959E-03
            1648     10.6496E-03     41.8306E-03     3.16554E+06    -48.7675E+06     704.382E+03    -273.433E+03    -15.1223E-03     29.2102E-03    -14.0879E-03     42.8102E-03    -15.0453E-03     28.9693E-03    -14.0182E-03     42.7940E-03
            1649     9.76267E-03     41.7930E-03     2.48678E+06    -47.3538E+06     4.85216E+06    -239.347E+03    -14.9240E-03     28.9852E-03    -14.0613E-03     37.9958E-03    -14.8552E-03     28.7431E-03    -13.9719E-03     37.9834E-03
            1650     8.87551E-03     41.7593E-03     2.54609E+06    -47.3340E+06     3.52201E+06    -986.960E+03    -14.7261E-03     28.7355E-03    -14.0094E-03     33.4198E-03    -14.6531E-03     28.4933E-03    -13.9268E-03     33.4002E-03
            1651     7.98839E-03     41.7301E-03     2.74327E+06    -49.7528E+06     4.64247E+06    -1.00689E+06    -14.5459E-03     28.5218E-03    -13.9759E-03     29.0104E-03    -14.4689E-03     28.2645E-03    -13.8845E-03     28.9922E-03
            1652     7.10095E-03     41.7048E-03     2.27383E+06    -49.6023E+06     5.48331E+06     218.429E+03    -14.3791E-03     28.3206E-03    -13.9415E-03     24.8945E-03    -14.3052E-03     28.0628E-03    -13.8454E-03     24.8933E-03
            1653     6.21364E-03     41.6833E-03     1.59186E+06    -47.7110E+06     5.36942E+06     694.970E+03    -14.2198E-03     28.1241E-03    -13.9044E-03     21.1016E-03    -14.1514E-03     27.8764E-03    -13.8106E-03     21.1074E-03
            1654     5.32605E-03     41.6650E-03     630.774E+03    -47.3979E+06     4.64422E+06     353.803E+03    -14.0890E-03     27.9610E-03    -13.8720E-03     17.5961E-03    -14.0245E-03     27.7170E-03    -13.7809E-03     17.5981E-03
            1655     4.43857E-03     41.6500E-03    -401.234E+03    -48.6392E+06     3.65690E+06     35.5741E+03    -13.9867E-03     27.8319E-03    -13.8453E-03     14.3329E-03    -13.9239E-03     27.5844E-03    -13.7559E-03     14.3314E-03
            1656     3.55085E-03     41.6378E-03    -1.21183E+06    -48.2223E+06     1.86303E+06    -137.469E+03    -13.9012E-03     27.7176E-03    -13.8164E-03     11.2583E-03    -13.8403E-03     27.4758E-03    -13.7354E-03     11.2551E-03
            1657     2.66325E-03     41.6286E-03    -1.85391E+06    -48.9454E+06     57.7628E+03    -304.715E+03    -13.8439E-03     27.6368E-03    -13.7929E-03     8.33620E-03    -13.7824E-03     27.3948E-03    -13.7189E-03     8.33120E-03
            1658     1.77546E-03     41.6220E-03    -2.48276E+06    -49.9805E+06    -1.14131E+06    -297.417E+03    -13.8002E-03     27.5757E-03    -13.7756E-03     5.53915E-03    -13.7385E-03     27.3311E-03    -13.7052E-03     5.53462E-03
            1659     887.803E-06     41.6180E-03    -2.90319E+06    -49.7115E+06    -2.26841E+06     39.8569E+03    -13.7672E-03     27.5263E-03    -13.7591E-03     2.94580E-03    -13.7063E-03     27.2854E-03    -13.6941E-03     2.94596E-03
            1660     16.8571E-03     41.3875E-03     2.22315E+06     113.468E+06     6.27559E+06     506.671E+03    -18.8992E-03     33.0802E-03    -14.1810E-03     152.246E-03    -21.0814E-03     35.6549E-03    -14.3174E-03     154.081E-03
            1661     15.9710E-03     41.2284E-03     757.182E+03     64.2167E+06    -18.6523E+06     2.78851E+06    -19.4358E-03     33.5216E-03    -14.0857E-03     138.708E-03    -20.5335E-03     34.9040E-03    -14.2732E-03     139.089E-03
            1662     15.0838E-03     41.1260E-03     1.35105E+06     29.2996E+06    -8.58560E+06     96.9245E+03    -17.0453E-03     31.1773E-03    -14.1320E-03     90.5978E-03    -17.2851E-03     31.5508E-03    -14.2193E-03     90.5830E-03
            1663     14.1973E-03     41.0605E-03     1.79257E+06    -11.0242E+06    -9.38150E+06    -611.068E+03    -15.9360E-03     30.0767E-03    -14.1407E-03     66.6642E-03    -15.9713E-03     30.1064E-03    -14.1742E-03     66.6218E-03
            1664     13.3105E-03     41.0020E-03     2.91103E+06    -26.8376E+06    -6.07407E+06    -574.813E+03    -15.8965E-03     30.0295E-03    -14.1330E-03     62.0611E-03    -15.8789E-03     29.9446E-03    -14.1287E-03     62.0221E-03
            1665     12.4239E-03     40.9447E-03     3.26205E+06    -27.9813E+06     196.790E+03    -1.02844E+06    -15.6632E-03     29.7770E-03    -14.1137E-03     56.0302E-03    -15.6322E-03     29.6576E-03    -14.0769E-03     55.9930E-03
            1666     11.5370E-03     40.8973E-03     3.58098E+06    -38.0205E+06    -1.92690E+06    -265.321E+03    -15.3551E-03     29.4199E-03    -14.0648E-03     47.8956E-03    -15.2933E-03     29.2414E-03    -14.0245E-03     47.8749E-03
            1667     10.6502E-03     40.8551E-03     4.21931E+06    -48.9473E+06     420.957E+03     372.736E+03    -15.1406E-03     29.1804E-03    -14.0397E-03     42.6168E-03    -15.0576E-03     28.9374E-03    -13.9728E-03     42.6090E-03
            1668     9.76309E-03     40.8173E-03     4.23650E+06    -46.7141E+06     4.74100E+06     96.1703E+03    -14.9145E-03     28.9221E-03    -14.0076E-03     37.7947E-03    -14.8377E-03     28.6807E-03    -13.9223E-03     37.7867E-03
            1669     8.87606E-03     40.7841E-03     3.33456E+06    -46.5616E+06     4.09013E+06    -531.715E+03    -14.7089E-03     28.6656E-03    -13.9568E-03     33.1863E-03    -14.6339E-03     28.4253E-03    -13.8736E-03     33.1727E-03
            1670     7.98869E-03     40.7549E-03     1.88844E+06    -50.8315E+06     3.04293E+06    -382.913E+03    -14.5148E-03     28.4288E-03    -13.9140E-03     28.7947E-03    -14.4382E-03     28.1697E-03    -13.8278E-03     28.7846E-03
            1671     7.10146E-03     40.7298E-03     1.26285E+06    -50.4238E+06     4.39140E+06     108.146E+03    -14.3476E-03     28.2258E-03    -13.8782E-03     24.6779E-03    -14.2759E-03     27.9669E-03    -13.7850E-03     24.6753E-03
            1672     6.21396E-03     40.7083E-03     1.21657E+06    -47.7009E+06     5.69518E+06     499.065E+03    -14.1911E-03     28.0321E-03    -13.8410E-03     20.9013E-03    -14.1250E-03     27.7845E-03    -13.7451E-03     20.9046E-03
            1673     5.32652E-03     40.6903E-03     903.511E+03    -46.8670E+06     5.39767E+06     524.894E+03    -14.0483E-03     27.8517E-03    -13.8034E-03     17.4204E-03    -13.9843E-03     27.6088E-03    -13.7097E-03     17.4247E-03
            1674     4.43882E-03     40.6752E-03     97.5666E+03    -48.3268E+06     4.55369E+06     181.239E+03    -13.9313E-03     27.7038E-03    -13.7726E-03     14.1879E-03    -13.8677E-03     27.4559E-03    -13.6799E-03     14.1883E-03
            1675     3.55123E-03     40.6633E-03    -1.00069E+06    -48.1273E+06     2.50355E+06    -22.4868E+03    -13.8325E-03     27.5721E-03    -13.7396E-03     11.1464E-03    -13.7716E-03     27.3295E-03    -13.6559E-03     11.1446E-03
            1676     2.66338E-03     40.6540E-03    -2.03469E+06    -48.8138E+06    -339.286E+03    -135.629E+03    -13.7589E-03     27.4695E-03    -13.7106E-03     8.25220E-03    -13.6979E-03     27.2290E-03    -13.6386E-03     8.24940E-03
            1677     1.77568E-03     40.6475E-03    -2.75257E+06    -50.2560E+06    -1.93574E+06    -257.800E+03    -13.7129E-03     27.4081E-03    -13.6952E-03     5.47431E-03    -13.6511E-03     27.1637E-03    -13.6280E-03     5.47030E-03
            1678     887.767E-06     40.6436E-03    -3.17315E+06    -50.0121E+06    -2.88487E+06    -268.275E+03    -13.6892E-03     27.3746E-03    -13.6855E-03     2.90346E-03    -13.6283E-03     27.1335E-03    -13.6228E-03     2.89964E-03
            1679     16.8569E-03     40.4087E-03    -4.19090E+06     108.745E+06     8.83803E+06    -2.04574E+06    -19.5363E-03     33.7367E-03    -14.2004E-03     152.341E-03    -21.7454E-03     36.2914E-03    -14.3078E-03     154.123E-03
            1680     15.9710E-03     40.2528E-03     25.0809E+03     62.5747E+06    -21.3427E+06     1.14837E+06    -19.3466E-03     33.3979E-03    -14.0513E-03     138.950E-03    -20.4331E-03     34.7686E-03    -14.2488E-03     139.305E-03
            1681     15.0842E-03     40.1494E-03     2.40894E+06     33.8047E+06    -8.10730E+06     965.506E+03    -16.8755E-03     30.9842E-03    -14.1087E-03     90.2986E-03    -17.1145E-03     31.3752E-03    -14.2018E-03     90.2958E-03
            1682     14.1975E-03     40.0845E-03     2.76558E+06    -12.5155E+06    -11.4066E+06    -1.04584E+06    -16.1559E-03     30.2662E-03    -14.1103E-03     66.2785E-03    -16.1813E-03     30.2901E-03    -14.1532E-03     66.2297E-03
            1683     13.3111E-03     40.0256E-03     2.87747E+06    -26.8199E+06    -7.62201E+06     86.4175E+03    -15.9705E-03     30.0634E-03    -14.0928E-03     61.7640E-03    -15.9506E-03     29.9805E-03    -14.0962E-03     61.7334E-03
            1684     12.4243E-03     39.9689E-03     1.59272E+06    -27.4808E+06    -1.39244E+06     217.558E+03    -15.6598E-03     29.7293E-03    -14.0695E-03     55.7152E-03    -15.6353E-03     29.6170E-03    -14.0389E-03     55.6942E-03
            1685     11.5375E-03     39.9214E-03     658.252E+03    -38.7390E+06    -4.27336E+06    -392.381E+03    -15.3774E-03     29.3928E-03    -14.0154E-03     47.6500E-03    -15.3257E-03     29.2183E-03    -13.9815E-03     47.6278E-03
            1686     10.6507E-03     39.8795E-03     1.32605E+06    -48.8867E+06    -1.92035E+06    -476.969E+03    -15.1529E-03     29.1357E-03    -13.9828E-03     42.3777E-03    -15.0810E-03     28.9005E-03    -13.9235E-03     42.3590E-03
            1687     9.76369E-03     39.8419E-03     2.92581E+06    -46.3013E+06     2.51271E+06    -727.863E+03    -14.9009E-03     28.8439E-03    -13.9429E-03     37.5959E-03    -14.8279E-03     28.6096E-03    -13.8675E-03     37.5775E-03
            1688     8.87646E-03     39.8087E-03     3.67309E+06    -47.5887E+06     4.59032E+06     405.268E+03    -14.6985E-03     28.5992E-03    -13.9007E-03     32.8850E-03    -14.6210E-03     28.3525E-03    -13.8140E-03     32.8834E-03
            1689     7.98935E-03     39.7798E-03     2.92068E+06    -50.3947E+06     4.50958E+06     898.501E+03    -14.5062E-03     28.3599E-03    -13.8538E-03     28.5046E-03    -14.4271E-03     28.0993E-03    -13.7624E-03     28.5111E-03
            1690     7.10190E-03     39.7548E-03     1.94500E+06    -50.3444E+06     4.67461E+06     6.49569E+03    -14.3149E-03     28.1224E-03    -13.8074E-03     24.4391E-03    -14.2404E-03     27.8624E-03    -13.7139E-03     24.4352E-03
            1691     6.21450E-03     39.7335E-03     1.56291E+06    -48.1412E+06     6.02569E+06    -23.3457E+03    -14.1412E-03     27.9086E-03    -13.7674E-03     20.6848E-03    -14.0732E-03     27.6578E-03    -13.6697E-03     20.6814E-03
            1692     5.32686E-03     39.7155E-03     1.15108E+06    -46.6786E+06     6.02702E+06     310.517E+03    -13.9909E-03     27.7176E-03    -13.7267E-03     17.2298E-03    -13.9268E-03     27.4744E-03    -13.6305E-03     17.2313E-03
            1693     4.43929E-03     39.7007E-03     317.921E+03    -48.0526E+06     5.03038E+06     357.680E+03    -13.8628E-03     27.5544E-03    -13.6915E-03     14.0289E-03    -13.7993E-03     27.3067E-03    -13.5972E-03     14.0316E-03
            1694     3.55143E-03     39.6888E-03    -731.886E+03    -47.9133E+06     2.82430E+06     211.251E+03    -13.7562E-03     27.4114E-03    -13.6552E-03     11.0177E-03    -13.6947E-03     27.1690E-03    -13.5705E-03     11.0190E-03
            1695     2.66371E-03     39.6797E-03    -1.60933E+06    -48.7513E+06     360.809E+03     78.7234E+03    -13.6790E-03     27.3047E-03    -13.6256E-03     8.14671E-03    -13.6170E-03     27.0628E-03    -13.5508E-03     8.14670E-03
            1696     1.77574E-03     39.6732E-03    -2.40985E+06    -50.2312E+06    -1.59908E+06     86.1598E+03    -13.6297E-03     27.2354E-03    -13.6057E-03     5.40196E-03    -13.5667E-03     26.9901E-03    -13.5374E-03     5.40241E-03
            1697     887.957E-06     39.6694E-03    -3.10909E+06    -50.1988E+06    -3.12749E+06    -15.6141E+03    -13.6117E-03     27.1900E-03    -13.5783E-03     2.85415E-03    -13.5498E-03     26.9481E-03    -13.5166E-03     2.85361E-03
            1698     16.8572E-03     39.4314E-03    -2.94872E+06     109.010E+06     8.52036E+06    -1.47815E+06    -19.5613E-03     33.7515E-03    -14.1902E-03     151.851E-03    -21.7537E-03     36.2957E-03    -14.3013E-03     153.626E-03
            1699     15.9710E-03     39.2761E-03    -4.09255E+06      58.933E+06    -24.2399E+06    -2.23028E+06    -19.4116E-03     33.4473E-03    -14.0357E-03     138.108E-03    -20.4990E-03     34.7997E-03    -14.2364E-03     138.415E-03
            1700     15.0845E-03     39.1732E-03    -957.199E+03     35.3459E+06    -10.0006E+06    -532.838E+03    -17.0655E-03     31.1438E-03    -14.0783E-03     90.1232E-03    -17.3196E-03     31.5490E-03    -14.1782E-03     90.0995E-03
            1701     14.1981E-03     39.1078E-03     934.074E+03    -12.2045E+06    -13.1528E+06    -663.737E+03    -16.2111E-03     30.2810E-03    -14.0700E-03     66.0032E-03    -16.2430E-03     30.3111E-03    -14.1194E-03     65.9592E-03
            1702     13.3116E-03     39.0497E-03     1.91682E+06    -29.1869E+06    -9.13524E+06     14.3213E+03    -16.0059E-03     30.0561E-03    -14.0503E-03     61.5289E-03    -15.9848E-03     29.9647E-03    -14.0564E-03     61.4974E-03
            1703     12.4249E-03     38.9928E-03     3.10085E+06    -26.5516E+06     124.574E+03     1.46306E+06    -15.6883E-03     29.7166E-03    -14.0282E-03     55.4188E-03    -15.6596E-03     29.6042E-03    -13.9936E-03     55.4139E-03
            1704     11.5381E-03     38.9457E-03     2.55806E+06    -38.0130E+06    -2.42288E+06     851.290E+03    -15.3930E-03     29.3631E-03    -13.9701E-03     47.3051E-03    -15.3353E-03     29.1866E-03    -13.9308E-03     47.2989E-03
            1705     10.6512E-03     38.9039E-03     1.91952E+06    -47.4026E+06    -830.402E+03    -1.01139E+06    -15.1640E-03     29.0928E-03    -13.9288E-03     42.0547E-03    -15.0927E-03     28.8625E-03    -13.8670E-03     42.0291E-03
            1706     9.76424E-03     38.8665E-03     1.78052E+06    -47.3489E+06     1.76444E+06    -1.50919E+06    -14.9076E-03     28.7868E-03    -13.8792E-03     37.2790E-03    -14.8377E-03     28.5500E-03    -13.8043E-03     37.2505E-03
            1707     8.87719E-03     38.8335E-03     1.83628E+06    -49.6910E+06     2.91287E+06     117.894E+03    -14.6772E-03     28.5056E-03    -13.8283E-03     32.6058E-03    -14.6034E-03     28.2534E-03    -13.7444E-03     32.6006E-03
            1708     7.98984E-03     38.8048E-03     2.40126E+06    -49.4887E+06     5.07908E+06     951.139E+03    -14.4753E-03     28.2560E-03    -13.7806E-03     28.2322E-03    -14.4010E-03     27.9997E-03    -13.6869E-03     28.2394E-03
            1709     7.10255E-03     38.7800E-03     2.45801E+06    -49.4528E+06     5.41592E+06     318.135E+03    -14.2765E-03     28.0043E-03    -13.7278E-03     24.1731E-03    -14.2018E-03     27.7470E-03    -13.6326E-03     24.1733E-03
            1710     6.21499E-03     38.7588E-03     1.69075E+06    -48.4998E+06     5.82784E+06    -148.110E+03    -14.0784E-03     27.7593E-03    -13.6808E-03     20.4484E-03    -14.0090E-03     27.5068E-03    -13.5838E-03     20.4434E-03
            1711     5.32740E-03     38.7410E-03     1.02891E+06    -46.8543E+06     5.72237E+06     50.6615E+03    -13.9129E-03     27.5498E-03    -13.6369E-03     17.0201E-03    -13.8487E-03     27.3063E-03    -13.5418E-03     17.0183E-03
            1712     4.43958E-03     38.7263E-03     548.549E+03    -47.9855E+06     4.74408E+06     209.845E+03    -13.7859E-03     27.3844E-03    -13.5985E-03     13.8400E-03    -13.7208E-03     27.1372E-03    -13.5060E-03     13.8408E-03
            1713     3.55186E-03     38.7146E-03    -34.4448E+03    -47.7538E+06     3.21958E+06     267.322E+03    -13.6737E-03     27.2358E-03    -13.5621E-03     10.8694E-03    -13.6095E-03     26.9927E-03    -13.4768E-03     10.8715E-03
            1714     2.66387E-03     38.7055E-03    -959.799E+03    -48.7010E+06     1.28223E+06     329.227E+03    -13.5939E-03     27.1266E-03    -13.5326E-03     8.03333E-03    -13.5301E-03     26.8827E-03    -13.4542E-03     8.03657E-03
            1715     1.77603E-03     38.6992E-03    -1.94868E+06    -50.1365E+06    -408.899E+03     402.382E+03    -13.5370E-03     27.0478E-03    -13.5108E-03     5.33557E-03    -13.4735E-03     26.8005E-03    -13.4373E-03     5.34011E-03
            1716     887.960E-06     38.6952E-03    -2.63344E+06    -49.7748E+06    -2.33200E+06     399.269E+03    -13.4979E-03     26.9895E-03    -13.4916E-03     2.83166E-03    -13.4354E-03     26.7479E-03    -13.4273E-03     2.83647E-03
            1717     16.8574E-03     38.4538E-03    -1.40135E+06     110.935E+06     9.90957E+06    -19.9229E+03    -19.7022E-03     33.8849E-03    -14.1827E-03     151.249E-03    -21.8795E-03     36.4223E-03    -14.2920E-03     153.025E-03
            1718     15.9715E-03     38.2997E-03    -1.31955E+06     59.6351E+06    -23.6918E+06    -1.29226E+06    -19.5929E-03     33.6058E-03    -14.0129E-03     137.469E-03    -20.6581E-03     34.9467E-03    -14.2159E-03     137.780E-03
            1719     15.0852E-03     38.1964E-03    -1.82365E+06     33.6560E+06    -11.4159E+06    -1.72674E+06    -17.1686E-03     31.2123E-03    -14.0437E-03     89.8351E-03    -17.4209E-03     31.6107E-03    -14.1470E-03     89.7950E-03
            1720     14.1986E-03     38.1318E-03    -1.45181E+06    -11.9770E+06    -13.8850E+06    -460.835E+03    -16.2124E-03     30.2446E-03    -14.0322E-03     65.7836E-03    -16.2549E-03     30.2797E-03    -14.0821E-03     65.7422E-03
            1721     13.3120E-03     38.0734E-03    -694.426E+03    -30.1162E+06    -10.8730E+06    -690.435E+03    -16.0559E-03     30.0600E-03    -14.0041E-03     61.3251E-03    -16.0438E-03     29.9700E-03    -14.0137E-03     61.2845E-03
            1722     12.4256E-03     38.0169E-03     401.210E+03    -28.3334E+06    -2.17770E+06     269.337E+03    -15.7391E-03     29.7119E-03    -13.9728E-03     55.1644E-03    -15.7177E-03     29.5977E-03    -13.9432E-03     55.1441E-03
            1723     11.5388E-03     37.9699E-03     2.27645E+06    -36.1593E+06    -2.34911E+06     1.02360E+06    -15.4145E-03     29.3247E-03    -13.9102E-03     47.0464E-03    -15.3609E-03     29.1576E-03    -13.8728E-03     47.0426E-03
            1724     10.6520E-03     37.9283E-03     2.97783E+06    -45.4983E+06    -261.724E+03    -492.169E+03    -15.1831E-03     29.0453E-03    -13.8622E-03     41.7462E-03    -15.1100E-03     28.8220E-03    -13.8019E-03     41.7274E-03
            1725     9.76503E-03     37.8911E-03     1.92573E+06    -49.0220E+06     1.44006E+06    -341.916E+03    -14.9110E-03     28.7183E-03    -13.8073E-03     36.9309E-03    -14.8374E-03     28.4734E-03    -13.7318E-03     36.9175E-03
            1726     8.87781E-03     37.8585E-03     683.505E+03    -50.2640E+06     1.41051E+06     94.5970E+03    -14.6551E-03     28.3992E-03    -13.7441E-03     32.3158E-03    -14.5840E-03     28.1480E-03    -13.6651E-03     32.3105E-03
            1727     7.99061E-03     37.8298E-03     783.130E+03    -49.3128E+06     3.70074E+06    -317.795E+03    -14.4260E-03     28.1168E-03    -13.6908E-03     27.9661E-03    -14.3580E-03     27.8657E-03    -13.6019E-03     27.9570E-03
            1728     7.10314E-03     37.8053E-03     1.46471E+06    -49.2187E+06     4.91385E+06    -34.5320E+03    -14.2190E-03     27.8552E-03    -13.6363E-03     23.8939E-03    -14.1487E-03     27.6012E-03    -13.5425E-03     23.8896E-03
            1729     6.21563E-03     37.7843E-03     1.44688E+06    -48.2622E+06     5.17729E+06    -12.2564E+03    -14.0160E-03     27.5983E-03    -13.5823E-03     20.1929E-03    -13.9472E-03     27.3483E-03    -13.4886E-03     20.1897E-03
            1730     5.32788E-03     37.7667E-03     833.066E+03    -47.2189E+06     4.92392E+06    -129.661E+03    -13.8337E-03     27.3678E-03    -13.5341E-03     16.7940E-03    -13.7688E-03     27.1240E-03    -13.4422E-03     16.7900E-03
            1731     4.44013E-03     37.7521E-03     137.267E+03     -47.887E+06     4.00244E+06    -10.8864E+03    -13.6916E-03     27.1843E-03    -13.4927E-03     13.6442E-03    -13.6276E-03     26.9392E-03    -13.4035E-03     13.6422E-03
            1732     3.55215E-03     37.7405E-03    -618.088E+03    -48.0380E+06     2.67986E+06     150.514E+03    -13.5753E-03     27.0313E-03    -13.4560E-03     10.7058E-03    -13.5128E-03     26.7883E-03    -13.3720E-03     10.7063E-03
            1733     2.66424E-03     37.7315E-03    -1.24091E+06    -48.5575E+06     951.402E+03     440.778E+03    -13.4851E-03     26.9107E-03    -13.4256E-03     7.92028E-03    -13.4224E-03     26.6685E-03    -13.3486E-03     7.92497E-03
            1734     1.77612E-03     37.7252E-03    -1.80059E+06    -49.8370E+06    -258.810E+03     304.159E+03    -13.4283E-03     26.8349E-03    -13.4066E-03     5.26346E-03    -13.3647E-03     26.5887E-03    -13.3330E-03     5.26674E-03
            1735     888.117E-06     37.7215E-03    -2.10090E+06    -49.2851E+06    -1.32845E+06     143.274E+03    -13.3906E-03     26.7871E-03    -13.3966E-03     2.79015E-03    -13.3277E-03     26.5458E-03    -13.3287E-03     2.79167E-03
            1736     16.8574E-03     37.4762E-03    -2.32158E+06     111.101E+06     9.11411E+06    -444.837E+03    -19.9067E-03     34.0737E-03    -14.1670E-03     150.705E-03    -22.0748E-03     36.6015E-03    -14.2791E-03     152.454E-03
            1737     15.9718E-03     37.3225E-03    -2.15652E+06     61.0446E+06    -23.2781E+06    -659.148E+03    -19.7434E-03     33.7317E-03    -13.9883E-03     136.701E-03    -20.8053E-03     35.0702E-03    -14.1901E-03     137.011E-03
            1738     15.0856E-03     37.2200E-03    -820.716E+03     33.2805E+06    -11.1883E+06    -871.305E+03    -17.1973E-03     31.2069E-03    -14.0096E-03     89.4163E-03    -17.4424E-03     31.5996E-03    -14.1126E-03     89.3868E-03
            1739     14.1991E-03     37.1555E-03    -125.434E+03    -12.8852E+06    -13.5218E+06    -812.320E+03    -16.2789E-03     30.2724E-03    -13.9935E-03     65.5970E-03    -16.3135E-03     30.3000E-03    -14.0422E-03     65.5510E-03
            1740     13.3128E-03     37.0972E-03     431.414E+03    -29.7681E+06    -10.0382E+06     39.6914E+03    -16.1254E-03     30.0842E-03    -13.9588E-03     61.0148E-03    -16.1091E-03     29.9929E-03    -13.9665E-03     60.9835E-03
            1741     12.4262E-03     37.0410E-03     205.513E+03    -29.4532E+06    -3.35715E+06    -332.057E+03    -15.7784E-03     29.6923E-03    -13.9139E-03     54.8478E-03    -15.7543E-03     29.5741E-03    -13.8883E-03     54.8199E-03
            1742     11.5395E-03     36.9942E-03     882.082E+03    -35.6579E+06    -4.78872E+06    -590.791E+03    -15.4573E-03     29.2937E-03    -13.8363E-03     46.7822E-03    -15.4077E-03     29.1345E-03    -13.8099E-03     46.7576E-03
            1743     10.6527E-03     36.9528E-03     1.49192E+06    -45.4481E+06    -1.52545E+06     345.570E+03    -15.2012E-03     28.9875E-03    -13.7862E-03     41.4033E-03    -15.1337E-03     28.7683E-03    -13.7301E-03     41.3955E-03
            1744     9.76572E-03     36.9159E-03     785.509E+03    -49.7861E+06     1.05541E+06     955.728E+03    -14.9160E-03     28.6438E-03    -13.7278E-03     36.5433E-03    -14.8464E-03     28.3972E-03    -13.6515E-03     36.5467E-03
            1745     8.87868E-03     36.8834E-03     547.760E+03    -49.0615E+06     1.09128E+06     292.327E+03    -14.6349E-03     28.2872E-03    -13.6524E-03     31.9693E-03    -14.5657E-03     28.0426E-03    -13.5766E-03     31.9666E-03
            1746     7.99131E-03     36.8551E-03     341.292E+03    -48.9332E+06     2.31680E+06     -817.04E+03    -14.3744E-03     27.9633E-03    -13.5889E-03     27.6519E-03    -14.3071E-03     27.7168E-03    -13.5068E-03     27.6365E-03
            1747     7.10387E-03     36.8307E-03     259.789E+03    -49.8905E+06     3.27191E+06    -1.00175E+06    -14.1482E-03     27.6789E-03    -13.5307E-03     23.6019E-03    -14.0806E-03     27.4257E-03    -13.4424E-03     23.5852E-03
            1748     6.21623E-03     36.8099E-03     531.328E+03    -48.3923E+06     4.58525E+06    -394.397E+03    -13.9410E-03     27.4170E-03    -13.4760E-03     19.9116E-03    -13.8757E-03     27.1685E-03    -13.3837E-03     19.9036E-03
            1749     5.32852E-03     36.7925E-03     223.256E+03    -47.3352E+06     4.38581E+06    -117.417E+03    -13.7478E-03     27.1704E-03    -13.4226E-03     16.5455E-03    -13.6850E-03     26.9276E-03    -13.3324E-03     16.5417E-03
            1750     4.44056E-03     36.7781E-03    -491.604E+03    -47.9553E+06     3.17596E+06    -79.0598E+03    -13.5888E-03     26.9649E-03    -13.3760E-03     13.4452E-03    -13.5267E-03     26.7216E-03    -13.2899E-03     13.4424E-03
            1751     3.55263E-03     36.7666E-03    -1.16093E+06    -48.3017E+06     1.92400E+06     66.0399E+03    -13.4650E-03     26.8024E-03    -13.3374E-03     10.5381E-03    -13.4037E-03     26.5600E-03    -13.2561E-03     10.5376E-03
            1752     2.66448E-03     36.7578E-03    -1.80109E+06    -48.5527E+06     369.284E+03     201.770E+03    -13.3708E-03     26.6763E-03    -13.3055E-03     7.78864E-03    -13.3101E-03     26.4358E-03    -13.2307E-03     7.79028E-03
            1753     1.77639E-03     36.7515E-03    -2.16030E+06    -49.2911E+06    -1.31498E+06     77.6320E+03    -13.3113E-03     26.5922E-03    -13.2810E-03     5.16393E-03    -13.2487E-03     26.3509E-03    -13.2129E-03     5.16430E-03
            1754     888.170E-06     36.7477E-03    -2.36527E+06    -49.3660E+06    -2.30682E+06    -221.642E+03    -13.2796E-03     26.5405E-03    -13.2609E-03     2.74579E-03    -13.2164E-03     26.3005E-03    -13.1974E-03     2.74260E-03
            1755     16.8580E-03     36.4985E-03    -1.44469E+06     111.728E+06     9.95648E+06     226.076E+03    -20.1468E-03     34.2967E-03    -14.1499E-03     149.988E-03    -22.2961E-03     36.8087E-03    -14.2600E-03     151.720E-03
            1756     15.9724E-03     36.3452E-03    -1.57306E+06     61.4140E+06    -22.4490E+06    -351.473E+03    -19.7645E-03     33.7259E-03    -13.9614E-03     135.848E-03    -20.8126E-03     35.0515E-03    -14.1604E-03     136.154E-03
            1757     15.0862E-03     36.2439E-03    -1.23403E+06     33.7352E+06    -10.7358E+06    -976.255E+03    -17.2638E-03     31.2395E-03    -13.9757E-03     89.0265E-03    -17.5102E-03     31.6324E-03    -14.0765E-03     88.9950E-03
            1758     14.1998E-03     36.1789E-03    -472.444E+03    -13.6253E+06    -13.3341E+06    -856.836E+03    -16.3890E-03     30.3401E-03    -13.9511E-03     65.3984E-03    -16.4241E-03     30.3638E-03    -13.9974E-03     65.3514E-03
            1759     13.3134E-03     36.1212E-03     782.616E+03    -30.6104E+06    -9.76122E+06    -298.182E+03    -16.1974E-03     30.1040E-03    -13.9066E-03     60.6362E-03    -16.1781E-03     30.0071E-03    -13.9121E-03     60.6006E-03
            1760     12.4270E-03     36.0650E-03     2.29638E+06    -28.3091E+06    -1.10133E+06    -193.978E+03    -15.8373E-03     29.6944E-03    -13.8571E-03     54.4459E-03    -15.8074E-03     29.5754E-03    -13.8249E-03     54.4198E-03
            1761     11.5404E-03     36.0185E-03     2.18580E+06    -36.3988E+06    -3.38380E+06    -389.187E+03    -15.4915E-03     29.2618E-03    -13.7703E-03     46.3689E-03    -15.4361E-03     29.0948E-03    -13.7376E-03     46.3470E-03
            1762     10.6536E-03     35.9773E-03     1.55236E+06    -47.1575E+06    -735.366E+03     952.362E+03    -15.2219E-03     28.9334E-03    -13.7115E-03     40.9784E-03    -15.1526E-03     28.7044E-03    -13.6491E-03     40.9785E-03
            1763     9.76671E-03     35.9407E-03     1.51606E+06    -48.8716E+06     3.17625E+06     1.33562E+06    -14.9152E-03     28.5611E-03    -13.6460E-03     36.1194E-03    -14.8462E-03     28.3148E-03    -13.5614E-03     36.1278E-03
            1764     8.87949E-03     35.9086E-03     1.60004E+06    -47.5522E+06     2.42661E+06    -73.3818E+03    -14.6114E-03     28.1683E-03    -13.5569E-03     31.5926E-03    -14.5410E-03     27.9277E-03    -13.4781E-03     31.5852E-03
            1765     7.99221E-03     35.8804E-03     1.93214E+06    -48.6064E+06     3.04380E+06    -751.859E+03    -14.3323E-03     27.8161E-03    -13.4838E-03     27.2767E-03    -14.2585E-03     27.5678E-03    -13.4009E-03     27.2622E-03
            1766     7.10465E-03     35.8563E-03     1.32192E+06    -50.2117E+06     3.57451E+06    -775.673E+03    -14.0784E-03     27.4976E-03    -13.4192E-03     23.2582E-03    -14.0054E-03     27.2407E-03    -13.3304E-03     23.2445E-03
            1767     6.21699E-03     35.8357E-03     258.789E+03    -48.9835E+06     3.96912E+06    -723.984E+03    -13.8463E-03     27.2042E-03    -13.3579E-03     19.6109E-03    -13.7805E-03     26.9540E-03    -13.2674E-03     19.5986E-03
            1768     5.32910E-03     35.8185E-03    -121.571E+03    -47.5287E+06     3.88617E+06    -396.464E+03    -13.6497E-03     26.9505E-03    -13.3008E-03     16.2787E-03    -13.5876E-03     26.7080E-03    -13.2123E-03     16.2713E-03
            1769     4.44118E-03     35.8043E-03    -512.428E+03    -48.1785E+06     3.03515E+06    -126.459E+03    -13.4847E-03     26.7360E-03    -13.2513E-03     13.2166E-03    -13.4221E-03     26.4918E-03    -13.1656E-03     13.2132E-03
            1770     3.55302E-03     35.7930E-03    -1.23772E+06    -48.4167E+06     1.47878E+06     64.8063E+03    -13.3493E-03     26.5566E-03    -13.2073E-03     10.3544E-03    -13.2876E-03     26.3144E-03    -13.1279E-03     10.3540E-03
            1771     2.66489E-03     35.7842E-03    -1.89542E+06    -48.5254E+06    -147.979E+03     105.424E+03    -13.2535E-03     26.4242E-03    -13.1707E-03     7.65302E-03    -13.1925E-03     26.1847E-03    -13.0983E-03     7.65343E-03
            1772     1.77662E-03     35.7780E-03    -2.55389E+06    -49.0538E+06    -1.67431E+06     116.599E+03    -13.1817E-03     26.3238E-03    -13.1421E-03     5.07316E-03    -13.1209E-03     26.0847E-03    -13.0756E-03     5.07405E-03
            1773     888.346E-06     35.7744E-03    -3.13486E+06    -49.4150E+06    -3.15934E+06     151.970E+03    -13.1429E-03     26.2553E-03    -13.1124E-03     2.68903E-03    -13.0823E-03     26.0174E-03    -13.0520E-03     2.69067E-03
            1774     16.8583E-03     35.5200E-03    -1.63307E+06     111.515E+06     10.0225E+06     115.318E+03    -20.2951E-03     34.4310E-03    -14.1359E-03     149.554E-03    -22.4313E-03     36.9282E-03    -14.2451E-03     151.265E-03
            1775     15.9728E-03     35.3685E-03    -1.18086E+06     62.1861E+06    -21.7281E+06     122.256E+03    -19.9284E-03     33.8655E-03    -13.9371E-03     135.134E-03    -20.9641E-03     35.1808E-03    -14.1342E-03     135.437E-03
            1776     15.0866E-03     35.2670E-03    -823.983E+03     34.4885E+06    -10.3082E+06    -333.671E+03    -17.4381E-03     31.3748E-03    -13.9367E-03     88.5684E-03    -17.6821E-03     31.7682E-03    -14.0371E-03     88.5437E-03
            1777     14.2006E-03     35.2026E-03    -879.261E+03    -13.8099E+06    -13.6789E+06    -865.770E+03    -16.4810E-03     30.3802E-03    -13.8992E-03     65.0643E-03    -16.5166E-03     30.4033E-03    -13.9463E-03     65.0171E-03
            1778     13.3143E-03     35.1449E-03     8.55967E+03    -31.1354E+06    -10.8176E+06    -1.09028E+06    -16.2664E-03     30.1090E-03    -13.8426E-03     60.3438E-03    -16.2481E-03     30.0116E-03    -13.8515E-03     60.2980E-03
            1779     12.4279E-03     35.0891E-03     470.279E+03    -28.3896E+06    -2.04130E+06    -729.653E+03    -15.8988E-03     29.6833E-03    -13.7846E-03     54.1026E-03    -15.8763E-03     29.5676E-03    -13.7543E-03     54.0697E-03
            1780     11.5413E-03     35.0429E-03     1.10559E+06    -37.1418E+06    -4.22668E+06     125.516E+03    -15.5225E-03     29.2106E-03    -13.6881E-03     46.0258E-03    -15.4700E-03     29.0425E-03    -13.6570E-03     46.0108E-03
            1781     10.6546E-03     35.0019E-03     1.91554E+06    -48.6264E+06    -1.70488E+06     921.475E+03    -15.2381E-03     28.8565E-03    -13.6185E-03     40.6208E-03    -15.1633E-03     28.6209E-03    -13.5593E-03     40.6206E-03
            1782     9.76758E-03     34.9657E-03     2.47888E+06    -47.5521E+06     4.10084E+06     920.492E+03    -14.9108E-03     28.4593E-03    -13.5484E-03     35.7323E-03    -14.8402E-03     28.2167E-03    -13.4626E-03     35.7354E-03
            1783     8.88051E-03     34.9337E-03     2.61945E+06    -46.1486E+06     3.76480E+06    -73.3874E+03    -14.5862E-03     28.0384E-03    -13.4522E-03     31.1647E-03    -14.5146E-03     27.8013E-03    -13.3703E-03     31.1574E-03
            1784     7.99311E-03     34.9060E-03     1.73203E+06    -49.0777E+06     2.94846E+06    -340.162E+03    -14.2766E-03     27.6449E-03    -13.3684E-03     26.8905E-03    -14.2029E-03     27.3946E-03    -13.2850E-03     26.8814E-03
            1785     7.10556E-03     34.8821E-03     1.00562E+06    -49.9468E+06     3.16225E+06    -185.184E+03    -14.0002E-03     27.2947E-03    -13.2945E-03     22.9061E-03    -13.9286E-03     27.0402E-03    -13.2078E-03     22.9001E-03
            1786     6.21776E-03     34.8618E-03     592.841E+03    -49.0769E+06     3.56520E+06    -543.213E+03    -13.7519E-03     26.9791E-03    -13.2272E-03     19.2834E-03    -13.6838E-03     26.7285E-03    -13.1391E-03     19.2736E-03
            1787     5.32985E-03     34.8448E-03    -187.528E+03    -48.0123E+06     3.35661E+06    -512.582E+03    -13.5385E-03     26.7047E-03    -13.1663E-03     15.9888E-03    -13.4752E-03     26.4606E-03    -13.0796E-03     15.9800E-03
            1788     4.44173E-03     34.8308E-03    -1.02163E+06    -48.4947E+06     2.50214E+06    -141.056E+03    -13.3684E-03     26.4813E-03    -13.1129E-03     12.9642E-03    -13.3071E-03     26.2370E-03    -13.0286E-03     12.9606E-03
            1789     3.55358E-03     34.8196E-03    -1.73269E+06    -48.5838E+06     956.908E+03     121.889E+03    -13.2247E-03     26.2886E-03    -13.0639E-03     10.1507E-03    -13.1645E-03     26.0470E-03    -12.9862E-03     10.1510E-03
            1790     2.66524E-03     34.8109E-03    -2.38656E+06    -48.3333E+06    -990.580E+03     164.738E+03    -13.1099E-03     26.1320E-03    -13.0221E-03     7.50688E-03    -13.0504E-03     25.8953E-03    -12.9535E-03     7.50808E-03
            1791     1.77688E-03     34.8049E-03    -2.80718E+06    -49.1416E+06    -1.91786E+06     178.461E+03    -13.0375E-03     26.0328E-03    -12.9953E-03     4.97692E-03    -12.9775E-03     25.7939E-03    -12.9296E-03     4.97862E-03
            1792     888.440E-06     34.8012E-03    -3.08052E+06    -49.0584E+06    -2.55551E+06     289.300E+03    -13.0024E-03     25.9629E-03    -12.9605E-03     2.62995E-03    -12.9429E-03     25.7258E-03    -12.8977E-03     2.63336E-03
            1793     16.8580E-03     34.5416E-03    -1.66846E+06     111.528E+06     10.3819E+06    -105.760E+03    -20.4331E-03     34.5592E-03    -14.1261E-03     148.780E-03    -22.5517E-03     37.0377E-03    -14.2335E-03     150.464E-03
            1794     15.9731E-03     34.3911E-03    -1.34343E+06     62.1763E+06    -21.8869E+06    -33.4439E+03    -20.1505E-03     34.0616E-03    -13.9112E-03     134.121E-03    -21.1723E-03     35.3629E-03    -14.1088E-03     134.411E-03
            1795     15.0877E-03     34.2903E-03    -488.514E+03     34.8030E+06    -10.2995E+06     307.370E+03    -17.6212E-03     31.5159E-03    -13.8947E-03     88.0752E-03    -17.8619E-03     31.9083E-03    -13.9959E-03     88.0573E-03
            1796     14.2013E-03     34.2263E-03    -35.6441E+03    -12.9091E+06    -13.1805E+06    -179.116E+03    -16.5764E-03     30.4225E-03    -13.8460E-03     64.7946E-03    -16.6092E-03     30.4475E-03    -13.8932E-03     64.7561E-03
            1797     13.3151E-03     34.1686E-03    -236.298E+03    -31.3978E+06    -11.4535E+06    -538.556E+03    -16.3452E-03     30.1225E-03    -13.7773E-03     60.1049E-03    -16.3264E-03     30.0246E-03    -13.7887E-03     60.0662E-03
            1798     12.4288E-03     34.1132E-03    -622.384E+03    -28.8247E+06    -3.70990E+06    -428.129E+03    -15.9789E-03     29.6836E-03    -13.7047E-03     53.7180E-03    -15.9584E-03     29.5693E-03    -13.6806E-03     53.6892E-03
            1799     11.5423E-03     34.0672E-03    -672.191E+03    -37.7627E+06    -5.42552E+06    -367.355E+03    -15.5750E-03     29.1750E-03    -13.6000E-03     45.6110E-03    -15.5285E-03     29.0078E-03    -13.5714E-03     45.5897E-03
            1800     10.6555E-03     34.0267E-03     534.203E+03    -49.0001E+06    -3.11409E+06    -213.836E+03    -15.2527E-03     28.7700E-03    -13.5173E-03     40.2137E-03    -15.1821E-03     28.5364E-03    -13.4626E-03     40.1990E-03
            1801     9.76870E-03     33.9905E-03     2.35846E+06    -46.9835E+06     2.60263E+06    -389.220E+03    -14.9064E-03     28.3398E-03    -13.4335E-03     35.3193E-03    -14.8349E-03     28.1024E-03    -13.3558E-03     35.3057E-03
            1802     8.88152E-03     33.9591E-03     2.81278E+06    -46.5418E+06     3.59587E+06     433.035E+03    -14.5545E-03     27.8899E-03    -13.3354E-03     30.6928E-03    -14.4811E-03     27.6508E-03    -13.2540E-03     30.6922E-03
            1803     7.99412E-03     33.9316E-03     1.71798E+06    -48.9580E+06     3.13503E+06     1.09055E+06    -14.2177E-03     27.4620E-03    -13.2443E-03     26.4469E-03    -14.1445E-03     27.2120E-03    -13.1602E-03     26.4564E-03
            1804     7.10646E-03     33.9081E-03     393.052E+03    -49.0228E+06     2.92845E+06     104.596E+03    -13.9197E-03     27.0800E-03    -13.1603E-03     22.5158E-03    -13.8521E-03     26.8313E-03    -13.0751E-03     22.5136E-03
            1805     6.21867E-03     33.8880E-03    -261.216E+03    -49.0657E+06     3.05622E+06    -512.058E+03    -13.6576E-03     26.7433E-03    -13.0857E-03     18.9242E-03    -13.5930E-03     26.4947E-03    -12.9989E-03     18.9148E-03
            1806     5.33061E-03     33.8713E-03    -784.289E+03    -48.4849E+06     2.60841E+06    -266.595E+03    -13.4226E-03     26.4397E-03    -13.0172E-03     15.6664E-03    -13.3605E-03     26.1952E-03    -12.9327E-03     15.6608E-03
            1807     4.44244E-03     33.8575E-03    -1.55214E+06    -48.7325E+06     1.71826E+06    -31.5357E+03    -13.2336E-03     26.1919E-03    -12.9583E-03     12.6905E-03    -13.1735E-03     25.9483E-03    -12.8768E-03     12.6884E-03
            1808     3.55410E-03     33.8464E-03    -2.25358E+06    -48.6698E+06     640.927E+03     20.6128E+03    -13.0816E-03     25.9889E-03    -12.9074E-03     9.92883E-03    -13.0234E-03     25.7481E-03    -12.8303E-03     9.92783E-03
            1809     2.66569E-03     33.8380E-03    -2.62867E+06    -48.2421E+06    -934.458E+03     40.5372E+03    -12.9591E-03     25.8221E-03    -12.8630E-03     7.33422E-03    -12.9010E-03     25.5861E-03    -12.7939E-03     7.33384E-03
            1810     1.77715E-03     33.8320E-03    -2.86182E+06    -49.1465E+06    -2.06918E+06     3.10340E+03    -12.8725E-03     25.7067E-03    -12.8342E-03     4.85875E-03    -12.8126E-03     25.4682E-03    -12.7691E-03     4.85821E-03
            1811     888.616E-06     33.8284E-03    -3.02243E+06    -48.8397E+06    -2.67822E+06    -48.0188E+03    -12.8360E-03     25.6431E-03    -12.8070E-03     2.58031E-03    -12.7764E-03     25.4072E-03    -12.7452E-03     2.57938E-03
            1812     16.8589E-03     33.5631E-03    -1.72063E+06     111.963E+06     10.2935E+06     8.49791E+03    -20.6697E-03     34.7741E-03    -14.1044E-03     147.911E-03    -22.7681E-03     37.2340E-03    -14.2127E-03     149.567E-03
            1813     15.9738E-03     33.4135E-03    -1.59311E+06     61.7651E+06    -22.2746E+06    -192.500E+03    -20.1746E-03     34.0527E-03    -13.8781E-03     133.125E-03    -21.1793E-03     35.3357E-03    -14.0767E-03     133.404E-03
            1814     15.0877E-03     33.3133E-03    -592.247E+03     34.0897E+06    -10.4717E+06     127.637E+03    -17.7239E-03     31.5789E-03    -13.8550E-03     87.5934E-03    -17.9616E-03     31.9658E-03    -13.9559E-03     87.5721E-03
            1815     14.2021E-03     33.2497E-03    -235.720E+03    -12.0370E+06    -11.5137E+06     708.571E+03    -16.7621E-03     30.5627E-03    -13.8007E-03     64.3892E-03    -16.7990E-03     30.5895E-03    -13.8404E-03     64.3615E-03
            1816     13.3160E-03     33.1924E-03     63.9263E+03    -30.8635E+06    -10.1130E+06     176.477E+03    -16.4836E-03     30.1983E-03    -13.7147E-03     59.6496E-03    -16.4655E-03     30.1002E-03    -13.7206E-03     59.6200E-03
            1817     12.4298E-03     33.1371E-03     469.849E+03    -29.2710E+06    -3.58404E+06    -47.2089E+03    -16.0608E-03     29.6837E-03    -13.6229E-03     53.1807E-03    -16.0340E-03     29.5650E-03    -13.5990E-03     53.1568E-03
            1818     11.5434E-03     33.0917E-03     435.620E+03    -37.4683E+06    -4.39815E+06     109.709E+03    -15.6339E-03     29.1432E-03    -13.5093E-03     45.0803E-03    -15.5836E-03     28.9742E-03    -13.4775E-03     45.0653E-03
            1819     10.6568E-03     33.0514E-03     474.819E+03    -47.9502E+06    -3.76056E+06    -1.28997E+06    -15.2719E-03     28.6788E-03    -13.4069E-03     39.7254E-03    -15.2019E-03     28.4512E-03    -13.3569E-03     39.6970E-03
            1820     9.76978E-03     33.0157E-03     829.981E+03    -48.0389E+06    -302.852E+03    -1.36536E+06    -14.8809E-03     28.1876E-03    -13.3067E-03     34.8575E-03    -14.8111E-03     27.9512E-03    -13.2398E-03     34.8315E-03
            1821     8.88263E-03     32.9845E-03     968.379E+03    -48.6249E+06     2.47962E+06     581.457E+03    -14.5227E-03     27.7323E-03    -13.2096E-03     30.1814E-03    -14.4538E-03     27.4870E-03    -13.1281E-03     30.1827E-03
            1822     7.99520E-03     32.9576E-03     1.12386E+06    -48.2974E+06     3.97018E+06     1.51681E+06    -14.1651E-03     27.2770E-03    -13.1119E-03     25.9339E-03    -14.0970E-03     27.0299E-03    -13.0236E-03     25.9489E-03
            1823     7.10753E-03     32.9343E-03     896.241E+03    -47.4860E+06     3.60776E+06     767.664E+03    -13.8321E-03     26.8469E-03    -13.0148E-03     22.0558E-03    -13.7651E-03     26.6041E-03    -12.9292E-03     22.0622E-03
            1824     6.21959E-03     32.9146E-03    -170.174E+03    -48.9117E+06     3.08219E+06    -162.923E+03    -13.5528E-03     26.4846E-03    -12.9318E-03     18.5150E-03    -13.4880E-03     26.2366E-03    -12.8452E-03     18.5102E-03
            1825     5.33149E-03     32.8981E-03    -1.12339E+06    -48.9995E+06     2.65817E+06    -184.983E+03    -13.3019E-03     26.1594E-03    -12.8575E-03     15.3138E-03    -13.2408E-03     25.9127E-03    -12.7715E-03     15.3093E-03
            1826     4.44318E-03     32.8845E-03    -1.73393E+06    -48.6791E+06     1.60070E+06     1.56716E+03    -13.0868E-03     25.8775E-03    -12.7907E-03     12.4042E-03    -13.0275E-03     25.6346E-03    -12.7096E-03     12.4026E-03
            1827     3.55472E-03     32.8736E-03    -2.17402E+06    -48.5002E+06     477.952E+03    -270.226E+03    -12.9239E-03     25.6588E-03    -12.7349E-03     9.69822E-03    -12.8653E-03     25.4190E-03    -12.6591E-03     9.69351E-03
            1828     2.66614E-03     32.8653E-03    -2.54096E+06    -48.5186E+06    -377.328E+03    -307.592E+03    -12.7944E-03     25.4856E-03    -12.6912E-03     7.15412E-03    -12.7363E-03     25.2473E-03    -12.6190E-03     7.14927E-03
            1829     1.77751E-03     32.8594E-03    -3.08549E+06    -49.1315E+06    -1.82426E+06    -42.0382E+03    -12.6937E-03     25.3528E-03    -12.6591E-03     4.74475E-03    -12.6353E-03     25.1143E-03    -12.5925E-03     4.74364E-03
            1830     888.708E-06     32.8559E-03    -3.73724E+06    -48.8751E+06    -3.36371E+06    -81.3043E+03    -12.6602E-03     25.2851E-03    -12.6250E-03     2.53707E-03    -12.6031E-03     25.0512E-03    -12.5655E-03     2.53573E-03
            1831     16.8590E-03     32.5840E-03    -1.49176E+06     112.052E+06     10.3608E+06     122.332E+03    -20.9440E-03     35.0272E-03    -14.0832E-03     147.134E-03    -23.0224E-03     37.4681E-03    -14.1917E-03     148.762E-03
            1832     15.9742E-03     32.4365E-03    -1.15113E+06     61.8883E+06    -22.1767E+06     43.9606E+03    -20.2964E-03     34.1382E-03    -13.8417E-03     132.006E-03    -21.2822E-03     35.4039E-03    -14.0407E-03     132.277E-03
            1833     15.0887E-03     32.3362E-03    -579.676E+03     33.3774E+06    -10.7057E+06     228.512E+03    -17.8349E-03     31.6422E-03    -13.8073E-03     86.9911E-03    -18.0681E-03     32.0229E-03    -13.9084E-03     86.9700E-03
            1834     14.2028E-03     32.2731E-03     293.475E+03    -11.9695E+06    -11.4021E+06     552.978E+03    -16.9642E-03     30.7030E-03    -13.7388E-03     63.8140E-03    -16.9980E-03     30.7284E-03    -13.7789E-03     63.7837E-03
            1835     13.3172E-03     32.2159E-03     1.36190E+06    -29.7303E+06    -9.58670E+06     328.476E+03    -16.6352E-03     30.2706E-03    -13.6354E-03     59.0362E-03    -16.6126E-03     30.1751E-03    -13.6422E-03     59.0084E-03
            1836     12.4310E-03     32.1614E-03     1.84336E+06    -29.9284E+06    -3.70386E+06     139.791E+03    -16.1263E-03     29.6551E-03    -13.5288E-03     52.6527E-03    -16.0910E-03     29.5309E-03    -13.5066E-03     52.6314E-03
            1837     11.5446E-03     32.1159E-03     2.76052E+06    -36.7068E+06    -3.61423E+06    -26.4843E+03    -15.6901E-03     29.0943E-03    -13.4042E-03     44.5501E-03    -15.6301E-03     28.9243E-03    -13.3730E-03     44.5334E-03
            1838     10.6579E-03     32.0763E-03     3.02825E+06    -46.8314E+06    -1.60956E+06    -363.335E+03    -15.2993E-03     28.5946E-03    -13.2953E-03     39.0939E-03    -15.2212E-03     28.3657E-03    -13.2399E-03     39.0776E-03
            1839     9.77105E-03     32.0410E-03     1.23762E+06    -49.5378E+06     188.162E+03    -55.8041E+03    -14.8667E-03     28.0488E-03    -13.1821E-03     34.2474E-03    -14.7933E-03     27.8034E-03    -13.1111E-03     34.2384E-03
            1840     8.88385E-03     32.0102E-03    -31.6532E+03    -49.6577E+06     2.20846E+06     376.457E+03    -14.4799E-03     27.5514E-03    -13.0715E-03     29.6281E-03    -14.4139E-03     27.3027E-03    -12.9884E-03     29.6269E-03
            1841     7.99643E-03     31.9836E-03     281.827E+03    -48.2435E+06     4.27158E+06     482.202E+03    -14.1068E-03     27.0704E-03    -12.9636E-03     25.3888E-03    -14.0434E-03     26.8244E-03    -12.8727E-03     25.3905E-03
            1842     7.10866E-03     31.9607E-03     803.791E+03    -46.7023E+06     3.80858E+06     666.774E+03    -13.7376E-03     26.5911E-03    -12.8534E-03     21.5496E-03    -13.6725E-03     26.3520E-03    -12.7678E-03     21.5548E-03
            1843     6.22066E-03     31.9413E-03     586.560E+03    -48.3299E+06     3.73273E+06     502.644E+03    -13.4249E-03     26.1889E-03    -12.7640E-03     18.0711E-03    -13.3581E-03     25.9417E-03    -12.6761E-03     18.0749E-03
            1844     5.33242E-03     31.9251E-03    -381.698E+03    -49.0458E+06     3.60125E+06     47.3051E+03    -13.1645E-03     25.8502E-03    -12.6857E-03     14.9342E-03    -13.1010E-03     25.6008E-03    -12.5961E-03     14.9327E-03
            1845     4.44398E-03     31.9118E-03    -1.16101E+06    -48.5995E+06     2.53597E+06    -196.049E+03    -12.9392E-03     25.5515E-03    -12.6122E-03     12.0840E-03    -12.8785E-03     25.3068E-03    -12.5274E-03     12.0798E-03
            1846     3.55539E-03     31.9011E-03    -1.76053E+06    -48.1971E+06     634.822E+03    -364.250E+03    -12.7472E-03     25.2948E-03    -12.5476E-03     9.44602E-03    -12.6872E-03     25.0556E-03    -12.4720E-03     9.44014E-03
            1847     2.66666E-03     31.8930E-03    -2.51174E+06    -48.9942E+06    -711.910E+03    -411.997E+03    -12.6030E-03     25.1055E-03    -12.5025E-03     6.96826E-03    -12.5436E-03     24.8653E-03    -12.4314E-03     6.96210E-03
            1848     1.77779E-03     31.8873E-03    -3.15395E+06    -49.3966E+06    -1.72630E+06    -82.5533E+03    -12.5138E-03     24.9846E-03    -12.4708E-03     4.62917E-03    -12.4555E-03     24.7447E-03    -12.4032E-03     4.62757E-03
            1849     888.968E-06     31.8837E-03    -3.64185E+06    -48.7895E+06    -3.22123E+06     80.3504E+03    -12.4717E-03     24.9022E-03    -12.4305E-03     2.48867E-03    -12.4144E-03     24.6683E-03    -12.3706E-03     2.48942E-03
            1850     16.8593E-03     31.6049E-03    -1.74846E+06     112.008E+06     10.4442E+06    -21.3450E+03    -21.1866E-03     35.2515E-03    -14.0649E-03     146.106E-03    -23.2429E-03     37.6690E-03    -14.1725E-03     147.699E-03
            1851     15.9751E-03     31.4585E-03    -1.49599E+06     62.0487E+06    -22.0202E+06     75.1533E+03    -20.5644E-03     34.3688E-03    -13.8045E-03     130.730E-03    -21.5352E-03     35.6185E-03    -14.0024E-03     130.990E-03
            1852     15.0895E-03     31.3596E-03    -424.120E+03     33.1857E+06    -11.0178E+06     286.243E+03    -18.0796E-03     31.8269E-03    -13.7473E-03     86.4567E-03    -18.3089E-03     32.2044E-03    -13.8499E-03     86.4343E-03
            1853     14.2040E-03     31.2959E-03     292.961E+03    -12.1310E+06    -11.7758E+06     256.947E+03    -17.0781E-03     30.7409E-03    -13.6628E-03     63.3101E-03    -17.1101E-03     30.7650E-03    -13.7045E-03     63.2759E-03
            1854     13.3183E-03     31.2398E-03     1.07126E+06    -29.3749E+06    -9.90488E+06     195.316E+03    -16.7222E-03     30.2688E-03    -13.5466E-03     58.4064E-03    -16.7003E-03     30.1751E-03    -13.5551E-03     58.3770E-03
            1855     12.4322E-03     31.1853E-03     1.99752E+06    -29.6880E+06    -3.92123E+06    -81.2805E+03    -16.2263E-03     29.6522E-03    -13.4259E-03     52.0917E-03    -16.1899E-03     29.5289E-03    -13.4054E-03     52.0677E-03
            1856     11.5459E-03     31.1405E-03     2.42744E+06    -36.5370E+06    -4.11777E+06    -273.580E+03    -15.7398E-03     29.0259E-03    -13.2861E-03     43.9632E-03    -15.6808E-03     28.8577E-03    -13.2572E-03     43.9435E-03
            1857     10.6594E-03     31.1011E-03     2.26732E+06    -47.6488E+06    -1.06555E+06     667.146E+03    -15.3255E-03     28.4959E-03    -13.1704E-03     38.4243E-03    -15.2506E-03     28.2630E-03    -13.1099E-03     38.4214E-03
            1858     9.77249E-03     31.0665E-03     2.15963E+06    -49.6780E+06     1.55817E+06     1.43749E+06    -14.8654E-03     27.9092E-03    -13.0438E-03     33.5666E-03    -14.7891E-03     27.6597E-03    -12.9671E-03     33.5770E-03
            1859     8.88525E-03     31.0360E-03     1.83398E+06    -48.8258E+06     2.58319E+06     598.047E+03    -14.4229E-03     27.3365E-03    -12.9136E-03     29.0349E-03    -14.3493E-03     27.0886E-03    -12.8325E-03     29.0367E-03
            1860     7.99773E-03     31.0098E-03     1.34506E+06    -48.3887E+06     5.03106E+06    -94.1000E+03    -14.0233E-03     26.8237E-03    -12.8004E-03     24.8123E-03    -13.9554E-03     26.5742E-03    -12.7071E-03     24.8067E-03
            1861     7.10995E-03     30.9874E-03     940.121E+03    -47.0851E+06     4.56116E+06     226.759E+03    -13.6353E-03     26.3176E-03    -12.6822E-03     21.0182E-03    -13.5701E-03     26.0753E-03    -12.5925E-03     21.0178E-03
            1862     6.22181E-03     30.9684E-03     680.528E+03    -47.9055E+06     3.95841E+06     519.977E+03    -13.2889E-03     25.8693E-03    -12.5803E-03     17.6166E-03    -13.2225E-03     25.6237E-03    -12.4921E-03     17.6208E-03
            1863     5.33342E-03     30.9525E-03     493.453E+03    -48.4182E+06     4.20361E+06     127.391E+03    -13.0086E-03     25.5045E-03    -12.4958E-03     14.5401E-03    -12.9425E-03     25.2560E-03    -12.4053E-03     14.5398E-03
            1864     4.44489E-03     30.9395E-03    -188.438E+03    -48.7128E+06     3.49812E+06    -154.505E+03    -12.7663E-03     25.1863E-03    -12.4200E-03     11.7458E-03    -12.7020E-03     24.9382E-03    -12.3316E-03     11.7423E-03
            1865     3.55612E-03     30.9290E-03    -1.30824E+06    -48.1266E+06     1.17218E+06     10.1440E+03    -12.5547E-03     24.9055E-03    -12.3509E-03     9.18606E-03    -12.4933E-03     24.6653E-03    -12.2733E-03     9.18506E-03
            1866     2.66717E-03     30.9211E-03    -2.40963E+06    -49.0975E+06    -849.650E+03    -40.5985E+03    -12.4110E-03     24.7120E-03    -12.3009E-03     6.78178E-03    -12.3507E-03     24.4713E-03    -12.2305E-03     6.78046E-03
            1867     1.77820E-03     30.9154E-03    -3.23187E+06    -49.6770E+06    -2.25826E+06    -167.178E+03    -12.3149E-03     24.5801E-03    -12.2652E-03     4.50090E-03    -12.2558E-03     24.3397E-03    -12.1998E-03     4.49823E-03
            1868     889.073E-06     30.9120E-03    -3.42607E+06    -48.7733E+06    -3.22015E+06    -59.1185E+03    -12.2615E-03     24.4940E-03    -12.2324E-03     2.42282E-03    -12.2032E-03     24.2599E-03    -12.1728E-03     2.42178E-03
            1869     16.8599E-03     30.6252E-03    -1.58729E+06     112.086E+06     10.7147E+06     72.6031E+03    -21.4720E-03     35.5128E-03    -14.0408E-03     144.947E-03    -23.5021E-03     37.9042E-03    -14.1475E-03     146.506E-03
            1870     15.9754E-03     30.4808E-03    -1.35117E+06     62.1002E+06    -21.8410E+06    -5.06943E+03    -20.8056E-03     34.5657E-03    -13.7601E-03     129.386E-03    -21.7567E-03     35.7958E-03    -13.9574E-03     129.631E-03
            1871     15.0907E-03     30.3819E-03    -481.890E+03     33.0945E+06    -11.1725E+06     212.504E+03    -18.3437E-03     32.0247E-03    -13.6811E-03     85.6776E-03    -18.5703E-03     32.3995E-03    -13.7842E-03     85.6522E-03
            1872     14.2052E-03     30.3194E-03     120.284E+03    -12.1666E+06    -11.8303E+06     333.766E+03    -17.1790E-03     30.7592E-03    -13.5802E-03     62.7173E-03    -17.2104E-03     30.7822E-03    -13.6219E-03     62.6839E-03
            1873     13.3195E-03     30.2632E-03     884.880E+03    -29.1802E+06    -10.0067E+06     70.5113E+03    -16.8169E-03     30.2672E-03    -13.4502E-03     57.8205E-03    -16.7953E-03     30.1741E-03    -13.4592E-03     57.7895E-03
            1874     12.4336E-03     30.2095E-03     1.22994E+06    -29.3290E+06    -4.22997E+06    -137.542E+03    -16.3310E-03     29.6447E-03    -13.3137E-03     51.3826E-03    -16.2981E-03     29.5243E-03    -13.2941E-03     51.3579E-03
            1875     11.5474E-03     30.1650E-03     1.14584E+06    -37.1156E+06    -5.32981E+06     298.147E+03    -15.7867E-03     28.9423E-03    -13.1555E-03     43.3305E-03    -15.7311E-03     28.7744E-03    -13.1300E-03     43.3184E-03
            1876     10.6609E-03     30.1262E-03     1.13653E+06    -48.7392E+06    -2.19838E+06     1.01259E+06    -15.3515E-03     28.3773E-03    -13.0258E-03     37.7612E-03    -15.2788E-03     28.1420E-03    -12.9678E-03     37.7630E-03
            1877     9.77402E-03     30.0919E-03     1.36389E+06    -49.3513E+06     1.44673E+06     1.19521E+06    -14.8544E-03     27.7412E-03    -12.8868E-03     32.8737E-03    -14.7823E-03     27.4945E-03    -12.8099E-03     32.8811E-03
            1878     8.88681E-03     30.0621E-03     1.81104E+06    -47.4355E+06     1.78841E+06     665.021E+03    -14.3555E-03     27.0930E-03    -12.7375E-03     28.3968E-03    -14.2828E-03     26.8531E-03    -12.6624E-03     28.3997E-03
            1879     7.99920E-03     30.0363E-03     1.72423E+06    -48.2768E+06     4.47717E+06     57.8496E+03    -13.9067E-03     26.5240E-03    -12.6173E-03     24.2236E-03    -13.8361E-03     26.2752E-03    -12.5275E-03     24.2201E-03
            1880     7.11124E-03     30.0144E-03     1.22672E+06    -47.6369E+06     5.41611E+06     151.221E+03    -13.5142E-03     26.0133E-03    -12.4990E-03     20.4585E-03    -13.4479E-03     25.7665E-03    -12.4047E-03     20.4572E-03
            1881     6.22304E-03     29.9958E-03     756.737E+03    -47.7502E+06     4.67568E+06     297.750E+03    -13.1539E-03     25.5403E-03    -12.3864E-03     17.1224E-03    -13.0883E-03     25.2943E-03    -12.2949E-03     17.1238E-03
            1882     5.33456E-03     29.9803E-03     38.4964E+03    -47.9045E+06     3.14070E+06     176.201E+03    -12.8229E-03     25.1095E-03    -12.2866E-03     14.1300E-03    -12.7583E-03     24.8658E-03    -12.2015E-03     14.1304E-03
            1883     4.44578E-03     29.9675E-03    -775.255E+03    -48.7932E+06     1.96497E+06     92.5033E+03    -12.5600E-03     24.7672E-03    -12.2073E-03     11.4124E-03    -12.4962E-03     24.5218E-03    -12.1256E-03     11.4122E-03
            1884     3.55682E-03     29.9574E-03    -1.40766E+06    -48.3807E+06     1.11669E+06     274.284E+03    -12.3658E-03     24.5080E-03    -12.1422E-03     8.91691E-03    -12.3045E-03     24.2667E-03    -12.0644E-03     8.91938E-03
            1885     2.66777E-03     29.9495E-03    -2.02194E+06    -48.7116E+06    -332.735E+03     317.437E+03    -12.2137E-03     24.3017E-03    -12.0879E-03     6.57318E-03    -12.1528E-03     24.0616E-03    -12.0160E-03     6.57652E-03
            1886     1.77856E-03     29.9441E-03    -2.74742E+06    -49.6536E+06    -1.96281E+06     72.2364E+03    -12.1020E-03     24.1497E-03    -12.0477E-03     4.36079E-03    -12.0409E-03     23.9083E-03    -11.9815E-03     4.36123E-03
            1887     889.318E-06     29.9407E-03    -3.40360E+06    -48.8669E+06    -3.45149E+06     40.7532E+03    -12.0402E-03     24.0549E-03    -12.0148E-03     2.34902E-03    -11.9813E-03     23.8206E-03    -11.9562E-03     2.34928E-03
            1888     16.8603E-03     29.6456E-03    -1.72593E+06     112.300E+06     10.8856E+06    -14.1078E+03    -21.8898E-03     35.9001E-03    -14.0103E-03     143.613E-03    -23.8917E-03     38.2630E-03    -14.1162E-03     145.127E-03
            1889     15.9767E-03     29.5026E-03    -1.47228E+06     62.1404E+06    -21.7921E+06     11.8534E+03    -21.0474E-03     34.7523E-03    -13.7049E-03     127.970E-03    -21.9771E-03     35.9607E-03    -13.9019E-03     128.200E-03
            1890     15.0916E-03     29.4043E-03    -408.480E+03     32.6777E+06    -11.2826E+06     264.979E+03    -18.4877E-03     32.0954E-03    -13.6077E-03     84.8086E-03    -18.7093E-03     32.4643E-03    -13.7109E-03     84.7824E-03
            1891     14.2064E-03     29.3427E-03     264.972E+03    -11.8313E+06    -11.5229E+06     341.065E+03    -17.3510E-03     30.8426E-03    -13.4916E-03     62.0329E-03    -17.3812E-03     30.8652E-03    -13.5325E-03     61.9994E-03
            1892     13.3209E-03     29.2866E-03     741.355E+03    -28.9113E+06    -10.0815E+06     197.786E+03    -16.9480E-03     30.2908E-03    -13.3429E-03     57.1993E-03    -16.9265E-03     30.1986E-03    -13.3524E-03     57.1700E-03
            1893     12.4352E-03     29.2335E-03     1.10267E+06    -29.4241E+06    -4.40008E+06     211.493E+03    -16.4041E-03     29.5943E-03    -13.1901E-03     50.6071E-03    -16.3708E-03     29.4732E-03    -13.1711E-03     50.5872E-03
            1894     11.5490E-03     29.1897E-03     1.38150E+06    -37.8947E+06    -5.68586E+06     714.771E+03    -15.8496E-03     28.8652E-03    -13.0156E-03     42.6094E-03    -15.7909E-03     28.6933E-03    -12.9911E-03     42.6029E-03
            1895     10.6625E-03     29.1512E-03     1.52890E+06    -49.2132E+06    -2.57704E+06     1.38970E+06    -15.3616E-03     28.2311E-03    -12.8695E-03     37.0216E-03    -15.2855E-03     27.9932E-03    -12.8133E-03     37.0284E-03
            1896     9.77569E-03     29.1177E-03     1.14763E+06    -48.7137E+06     1.93412E+06     1.29814E+06    -14.8226E-03     27.5424E-03    -12.7199E-03     32.1316E-03    -14.7530E-03     27.2984E-03    -12.6412E-03     32.1405E-03
            1897     8.88841E-03     29.0884E-03     806.334E+03    -46.2122E+06     1.74419E+06     292.034E+03    -14.2854E-03     26.8403E-03    -12.5549E-03     27.6877E-03    -14.2193E-03     26.6080E-03    -12.4803E-03     27.6860E-03
            1898     8.00073E-03     29.0632E-03     1.15068E+06    -48.2264E+06     3.50263E+06    -267.161E+03    -13.7947E-03     26.2143E-03    -12.4197E-03     23.5757E-03    -13.7256E-03     25.9680E-03    -12.3339E-03     23.5682E-03
            1899     7.11270E-03     29.0416E-03     1.30821E+06    -48.1085E+06     4.90867E+06     25.7931E+03    -13.3636E-03     25.6585E-03    -12.2949E-03     19.8656E-03    -13.2954E-03     25.4100E-03    -12.2025E-03     19.8628E-03
            1900     6.22437E-03     29.0235E-03     765.707E+03    -47.7685E+06     4.58756E+06     410.520E+03    -12.9787E-03     25.1564E-03    -12.1777E-03     16.6007E-03    -12.9129E-03     24.9104E-03    -12.0866E-03     16.6036E-03
            1901     5.33568E-03     29.0084E-03    -38.8052E+03    -47.7608E+06     2.67160E+06     559.064E+03    -12.6367E-03     24.7073E-03    -12.0706E-03     13.6865E-03    -12.5720E-03     24.4651E-03    -11.9879E-03     13.6919E-03
            1902     4.44674E-03     28.9960E-03    -735.603E+03    -48.4361E+06     1.28539E+06     303.472E+03    -12.3691E-03     24.3534E-03    -11.9843E-03     11.0477E-03    -12.3047E-03     24.1107E-03    -11.9066E-03     11.0502E-03
            1903     3.55764E-03     28.9860E-03    -1.16839E+06    -48.6562E+06     877.590E+03     103.341E+03    -12.1627E-03     24.0792E-03    -11.9164E-03     8.61439E-03    -12.0995E-03     23.8365E-03    -11.8398E-03     8.61470E-03
            1904     2.66837E-03     28.9784E-03    -1.50159E+06    -48.5248E+06    -139.048E+03     368.990E+03    -11.9948E-03     23.8540E-03    -11.8592E-03     6.33910E-03    -11.9318E-03     23.6138E-03    -11.7874E-03     6.34313E-03
            1905     1.77898E-03     28.9730E-03    -2.06104E+06    -49.3877E+06    -1.19628E+06     439.139E+03    -11.8792E-03     23.6974E-03    -11.8181E-03     4.21434E-03    -11.8162E-03     23.4552E-03    -11.7495E-03     4.21954E-03
            1906     889.512E-06     28.9698E-03    -2.55721E+06    -48.5792E+06    -2.31410E+06     352.544E+03    -11.8038E-03     23.5932E-03    -11.7894E-03     2.26438E-03    -11.7427E-03     23.3575E-03    -11.7268E-03     2.26868E-03
            1907     16.8610E-03     28.6650E-03    -1.64021E+06     112.636E+06     11.4886E+06     12.1475E+03    -22.3299E-03     36.3115E-03    -13.9816E-03     142.478E-03    -24.3034E-03     38.6458E-03    -14.0851E-03     143.946E-03
            1908     15.9775E-03     28.5242E-03    -1.37997E+06     62.1348E+06    -21.4713E+06    -51.7781E+03    -21.3924E-03     35.0405E-03    -13.6481E-03     126.472E-03    -22.3003E-03     36.2264E-03    -13.8435E-03     126.683E-03
            1909     15.0929E-03     28.4269E-03    -556.513E+03     32.1308E+06    -11.7403E+06     243.633E+03    -18.6803E-03     32.2058E-03    -13.5255E-03     83.8411E-03    -18.8967E-03     32.5684E-03    -13.6300E-03     83.8128E-03
            1910     14.2078E-03     28.3656E-03     123.839E+03    -11.6186E+06    -11.5408E+06     446.010E+03    -17.5039E-03     30.8967E-03    -13.3929E-03     61.3153E-03    -17.5337E-03     30.9192E-03    -13.4339E-03     61.2829E-03
            1911     13.3226E-03     28.3102E-03     662.094E+03    -28.7998E+06    -10.1057E+06     487.112E+03    -17.0928E-03     30.3191E-03    -13.2263E-03     56.5019E-03    -17.0711E-03     30.2268E-03    -13.2360E-03     56.4764E-03
            1912     12.4368E-03     28.2577E-03     834.098E+03    -29.4718E+06    -4.31533E+06     527.252E+03    -16.5106E-03     29.5665E-03    -13.0559E-03     49.8119E-03    -16.4781E-03     29.4449E-03    -13.0359E-03     49.7962E-03
            1913     11.5508E-03     28.2143E-03     1.08156E+06    -38.5597E+06    -5.62347E+06     811.870E+03    -15.8965E-03     28.7609E-03    -12.8644E-03     41.7610E-03    -15.8380E-03     28.5857E-03    -12.8381E-03     41.7560E-03
            1914     10.6643E-03     28.1766E-03     1.63313E+06    -49.7955E+06    -2.77753E+06     1.47379E+06    -15.3426E-03     28.0438E-03    -12.7012E-03     36.2332E-03    -15.2646E-03     27.8028E-03    -12.6452E-03     36.2415E-03
            1915     9.77744E-03     28.1435E-03     2.18899E+06    -47.5951E+06     3.20432E+06     1.35551E+06    -14.7763E-03     27.3179E-03    -12.5416E-03     31.3344E-03    -14.7048E-03     27.0759E-03    -12.4597E-03     31.3443E-03
            1916     8.89015E-03     28.1150E-03     2.29135E+06    -44.9887E+06     3.62472E+06     370.437E+03    -14.2140E-03     26.5796E-03    -12.3656E-03     26.8887E-03    -14.1449E-03     26.3484E-03    -12.2856E-03     26.8881E-03
            1917     8.00243E-03     28.0903E-03     1.35439E+06    -48.4398E+06     3.12984E+06    -3.04773E+03    -13.6785E-03     25.8896E-03    -12.2111E-03     22.8691E-03    -13.6075E-03     25.6424E-03    -12.1272E-03     22.8651E-03
            1918     7.11427E-03     28.0693E-03     311.938E+03    -48.2558E+06     2.40343E+06     45.5965E+03    -13.1880E-03     25.2571E-03    -12.0691E-03     19.2640E-03    -13.1209E-03     25.0128E-03    -11.9875E-03     19.2616E-03
            1919     6.22569E-03     28.0516E-03     252.704E+03    -47.9959E+06     3.09673E+06     77.4915E+03    -12.7832E-03     24.7345E-03    -11.9513E-03     16.0611E-03    -12.7175E-03     24.4903E-03    -11.8666E-03     16.0599E-03
            1920     5.33686E-03     28.0369E-03     440.402E+03    -48.0283E+06     3.88495E+06     512.228E+03    -12.4609E-03     24.3108E-03    -11.8498E-03     13.2006E-03    -12.3951E-03     24.0647E-03    -11.7614E-03     13.2055E-03
            1921     4.44782E-03     28.0248E-03    -55.0121E+03    -47.8012E+06     2.47733E+06     641.713E+03    -12.1784E-03     23.9312E-03    -11.7528E-03     10.6409E-03    -12.1132E-03     23.6889E-03    -11.6710E-03     10.6478E-03
            1922     3.55851E-03     28.0151E-03    -1.17133E+06    -48.7139E+06     497.906E+03     446.416E+03    -11.9320E-03     23.6049E-03    -11.6729E-03     8.28998E-03    -11.8681E-03     23.3624E-03    -11.5981E-03     8.29477E-03
            1923     2.66901E-03     28.0077E-03    -2.13688E+06    -48.5099E+06    -1.13566E+06     473.778E+03    -11.7514E-03     23.3628E-03    -11.6115E-03     6.10821E-03    -11.6901E-03     23.1251E-03    -11.5437E-03     6.11364E-03
            1924     1.77943E-03     28.0025E-03    -2.43907E+06    -48.9642E+06    -1.61341E+06     341.842E+03    -11.6354E-03     23.2064E-03    -11.5710E-03     4.06625E-03    -11.5743E-03     22.9675E-03    -11.5046E-03     4.07022E-03
            1925     889.729E-06     27.9993E-03    -2.45478E+06    -48.1144E+06    -1.94628E+06     136.527E+03    -11.5647E-03     23.1018E-03    -11.5371E-03     2.17008E-03    -11.5044E-03     22.8677E-03    -11.4735E-03     2.17160E-03
            1926     16.8612E-03     27.6843E-03    -1.73248E+06     112.837E+06     12.0927E+06     19.6496E+03    -22.7218E-03     36.6738E-03    -13.9520E-03     141.085E-03    -24.6640E-03     38.9754E-03    -14.0526E-03     142.507E-03
            1927     15.9784E-03     27.5450E-03    -1.64419E+06     62.1350E+06    -21.2560E+06    -88.4358E+03    -21.7120E-03     35.3026E-03    -13.5906E-03     124.621E-03    -22.5969E-03     36.4640E-03    -13.7846E-03     124.814E-03
            1928     15.0944E-03     27.4494E-03    -820.439E+03     31.6040E+06    -12.0879E+06     237.719E+03    -18.9624E-03     32.4031E-03    -13.4407E-03     82.8178E-03    -19.1748E-03     32.7599E-03    -13.5458E-03     82.7873E-03
            1929     14.2094E-03     27.3886E-03    -100.283E+03    -11.5504E+06    -11.3366E+06     569.010E+03    -17.6928E-03     30.9809E-03    -13.2881E-03     60.6700E-03    -17.7227E-03     31.0024E-03    -13.3279E-03     60.6388E-03
            1930     13.3241E-03     27.3337E-03     427.357E+03    -28.8608E+06    -10.0099E+06     774.283E+03    -17.2690E-03     30.3695E-03    -13.1005E-03     55.7117E-03    -17.2476E-03     30.2762E-03    -13.1093E-03     55.6899E-03
            1931     12.4387E-03     27.2817E-03     526.927E+03    -29.4357E+06    -4.37662E+06     1.02616E+06    -16.6241E-03     29.5323E-03    -12.9082E-03     48.8892E-03    -16.5924E-03     29.4108E-03    -12.8882E-03     48.8802E-03
            1932     11.5527E-03     27.2392E-03     471.747E+03    -38.7506E+06    -5.22318E+06     997.205E+03    -15.9169E-03     28.6185E-03    -12.7017E-03     40.8801E-03    -15.8613E-03     28.4423E-03    -12.6723E-03     40.8778E-03
            1933     10.6663E-03     27.2021E-03     1.41048E+06    -49.6959E+06    -3.26707E+06     539.404E+03    -15.3184E-03     27.8363E-03    -12.5179E-03     35.4016E-03    -15.2407E-03     27.5966E-03    -12.4642E-03     35.3980E-03
            1934     9.77937E-03     27.1697E-03     3.11437E+06    -47.1116E+06     2.47798E+06     239.032E+03    -14.7015E-03     27.0435E-03    -12.3419E-03     30.5520E-03    -14.6249E-03     26.8034E-03    -12.2658E-03     30.5477E-03
            1935     8.89202E-03     27.1417E-03     3.40006E+06    -45.1689E+06     3.90919E+06     1.05013E+06    -14.1138E-03     26.2743E-03    -12.1605E-03     26.0982E-03    -14.0392E-03     26.0400E-03    -12.0804E-03     26.1065E-03
            1936     8.00414E-03     27.1178E-03     2.29661E+06    -47.8560E+06     4.02779E+06     1.29198E+06    -13.5505E-03     25.5480E-03    -11.9974E-03     22.1253E-03    -13.4769E-03     25.3009E-03    -11.9112E-03     22.1382E-03
            1937     7.11584E-03     27.0974E-03     1.41851E+06    -47.7012E+06     3.62141E+06     344.723E+03    -13.0377E-03     24.8843E-03    -11.8466E-03     18.5913E-03    -12.9676E-03     24.6394E-03    -11.7614E-03     18.5929E-03
            1938     6.22718E-03     27.0802E-03     609.118E+03    -48.2305E+06     3.26180E+06     34.5353E+03    -12.6096E-03     24.3257E-03    -11.7162E-03     15.4734E-03    -12.5419E-03     24.0795E-03    -11.6308E-03     15.4717E-03
            1939     5.33819E-03     27.0658E-03    -291.634E+03    -48.4805E+06     3.02777E+06     296.599E+03    -12.2539E-03     23.8572E-03    -11.6033E-03     12.7022E-03    -12.1898E-03     23.6112E-03    -11.5175E-03     12.7044E-03
            1940     4.44892E-03     27.0541E-03    -825.189E+03    -47.7387E+06     1.95445E+06     777.541E+03    -11.9486E-03     23.4498E-03    -11.5011E-03     10.2124E-03    -11.8866E-03     23.2097E-03    -11.4209E-03     10.2212E-03
            1941     3.55942E-03     27.0447E-03    -1.27610E+06    -48.3402E+06     885.208E+03     909.141E+03    -11.6967E-03     23.1156E-03    -11.4189E-03     7.94732E-03    -11.6344E-03     22.8746E-03    -11.3425E-03     7.95814E-03
            1942     2.66972E-03     27.0376E-03    -1.67399E+06    -48.1120E+06    -446.294E+03     521.962E+03    -11.5053E-03     22.8581E-03    -11.3527E-03     5.85815E-03    -11.4434E-03     22.6207E-03    -11.2828E-03     5.86423E-03
            1943     1.77986E-03     27.0325E-03    -2.02458E+06    -48.5201E+06    -1.36842E+06     195.525E+03    -11.3728E-03     22.6803E-03    -11.3075E-03     3.88352E-03    -11.3106E-03     22.4427E-03    -11.2411E-03     3.88562E-03
            1944     889.973E-06     27.0294E-03    -2.53751E+06    -47.9484E+06    -2.23835E+06     39.0193E+03    -11.3195E-03     22.5727E-03    -11.2532E-03     2.09339E-03    -11.2594E-03     22.3400E-03    -11.1912E-03     2.09366E-03
            1945     16.8623E-03     26.7027E-03    -1.74292E+06     113.004E+06     12.4269E+06     168.206E+03    -23.2064E-03     37.1181E-03    -13.9117E-03     139.439E-03    -25.1142E-03     39.3849E-03    -14.0109E-03     140.809E-03
            1946     15.9795E-03     26.5662E-03    -1.61934E+06     62.1531E+06    -21.1749E+06     22.0134E+03    -21.8831E-03     35.4064E-03    -13.5232E-03     122.516E-03    -22.7409E-03     36.5405E-03    -13.7169E-03     122.695E-03
            1947     15.0954E-03     26.4712E-03    -839.675E+03     31.2018E+06    -12.1536E+06     192.397E+03    -19.1578E-03     32.5116E-03    -13.3539E-03     81.6658E-03    -19.3647E-03     32.8616E-03    -13.4586E-03     81.6331E-03
            1948     14.2109E-03     26.4118E-03    -283.082E+03    -11.6031E+06    -11.0915E+06     633.029E+03    -18.0105E-03     31.1893E-03    -13.1788E-03     59.9390E-03    -18.0404E-03     31.2092E-03    -13.2170E-03     59.9079E-03
            1949     13.3261E-03     26.3568E-03     458.892E+03    -29.1144E+06    -10.0622E+06     869.338E+03    -17.4755E-03     30.4390E-03    -12.9635E-03     54.8476E-03    -17.4526E-03     30.3436E-03    -12.9722E-03     54.8270E-03
            1950     12.4407E-03     26.3061E-03     1.11833E+06    -29.8187E+06    -4.70771E+06     1.33176E+06    -16.6847E-03     29.4333E-03    -12.7486E-03     47.9160E-03    -16.6483E-03     29.3087E-03    -12.7305E-03     47.9114E-03
            1951     11.5547E-03     26.2640E-03     1.52278E+06    -38.0591E+06    -4.67367E+06     1.32201E+06    -15.9439E-03     28.4713E-03    -12.5274E-03     40.0131E-03    -15.8845E-03     28.2958E-03    -12.4978E-03     40.0154E-03
            1952     10.6684E-03     26.2278E-03     1.83225E+06    -48.0703E+06    -3.92777E+06    -146.894E+03    -15.2896E-03     27.6111E-03    -12.3215E-03     34.5345E-03    -15.2108E-03     27.3796E-03    -12.2741E-03     34.5224E-03
            1953     9.78136E-03     26.1961E-03     2.03551E+06    -48.0424E+06    -225.002E+03    -582.107E+03    -14.6117E-03     26.7400E-03    -12.1282E-03     29.7477E-03    -14.5350E-03     26.5006E-03    -12.0627E-03     29.7331E-03
            1954     8.89385E-03     26.1688E-03     2.50397E+06    -46.8839E+06     3.27975E+06     1.09048E+06    -13.9968E-03     25.9436E-03    -11.9468E-03     25.2700E-03    -13.9231E-03     25.7029E-03    -11.8661E-03     25.2791E-03
            1955     8.00595E-03     26.1455E-03     3.00230E+06    -46.5173E+06     6.02975E+06     1.55558E+06    -13.4226E-03     25.2014E-03    -11.7787E-03     21.3192E-03    -13.3502E-03     24.9570E-03    -11.6855E-03     21.3356E-03
            1956     7.11758E-03     26.1258E-03     2.52110E+06    -47.1255E+06     5.62487E+06     984.352E+03    -12.8957E-03     24.5118E-03    -11.6161E-03     17.8775E-03    -12.8237E-03     24.2652E-03    -11.5233E-03     17.8874E-03
            1957     6.22876E-03     26.1091E-03     1.32862E+06    -48.1654E+06     3.78980E+06     863.785E+03    -12.4333E-03     23.9012E-03    -11.4679E-03     14.8658E-03    -12.3628E-03     23.6535E-03    -11.3810E-03     14.8749E-03
            1958     5.33958E-03     26.0952E-03     366.983E+03    -48.3280E+06     2.66199E+06     566.061E+03    -12.0334E-03     23.3755E-03    -11.3420E-03     12.1905E-03    -11.9657E-03     23.1298E-03    -11.2592E-03     12.1963E-03
            1959     4.45009E-03     26.0838E-03    -184.466E+03    -48.2187E+06     2.34338E+06     592.036E+03    -11.7089E-03     22.9480E-03    -11.2391E-03     9.77614E-03    -11.6435E-03     22.7040E-03    -11.1572E-03     9.78260E-03
            1960     3.56037E-03     26.0748E-03    -507.900E+03    -47.7230E+06     1.98781E+06     756.311E+03    -11.4571E-03     22.6097E-03    -11.1526E-03     7.59585E-03    -11.3934E-03     22.3691E-03    -11.0728E-03     7.60474E-03
            1961     2.67047E-03     26.0679E-03    -945.578E+03    -47.5778E+06     630.093E+03     458.595E+03    -11.2549E-03     22.3331E-03    -11.0782E-03     5.58458E-03    -11.1916E-03     22.0957E-03    -11.0047E-03     5.58988E-03
            1962     1.78043E-03     26.0630E-03    -1.42409E+06    -48.2236E+06    -770.157E+03     318.771E+03    -11.0980E-03     22.1224E-03    -11.0244E-03     3.69325E-03    -11.0341E-03     21.8845E-03    -10.9562E-03     3.69696E-03
            1963     890.198E-06     26.0600E-03    -1.71468E+06    -47.7235E+06    -1.55820E+06     145.987E+03    -11.0425E-03     22.0033E-03    -10.9607E-03     2.01653E-03    -10.9796E-03     21.7695E-03    -10.8968E-03     2.01820E-03
            1964     16.8630E-03     25.7210E-03    -1.61364E+06     112.901E+06     13.2793E+06     293.463E+03    -23.6721E-03     37.5457E-03    -13.8736E-03     137.816E-03    -25.5437E-03     39.7739E-03    -13.9686E-03     139.133E-03
            1965     15.9809E-03     25.5868E-03    -1.46008E+06     62.2150E+06    -20.6360E+06     122.045E+03    -22.1682E-03     35.6232E-03    -13.4550E-03     120.493E-03    -22.9995E-03     36.7301E-03    -13.6463E-03     120.655E-03
            1966     15.0970E-03     25.4937E-03    -545.300E+03     31.0897E+06    -12.3006E+06     33.5658E+03    -19.4563E-03     32.7129E-03    -13.2566E-03     80.5085E-03    -19.6563E-03     33.0570E-03    -13.3624E-03     80.4715E-03
            1967     14.2126E-03     25.4339E-03     413.156E+03    -11.7451E+06    -11.0747E+06     523.193E+03    -18.2577E-03     31.3144E-03    -13.0567E-03     58.9734E-03    -18.2824E-03     31.3310E-03    -13.0957E-03     58.9405E-03
            1968     13.3280E-03     25.3803E-03     1.40687E+06    -29.3903E+06    -10.1208E+06     783.645E+03    -17.6104E-03     30.4291E-03    -12.8186E-03     53.8403E-03    -17.5811E-03     30.3298E-03    -12.8287E-03     53.8188E-03
            1969     12.4427E-03     25.3303E-03     2.43874E+06    -30.3809E+06    -4.81349E+06     1.06142E+06    -16.7694E-03     29.3534E-03    -12.5840E-03     46.9546E-03    -16.7247E-03     29.2235E-03    -12.5676E-03     46.9468E-03
            1970     11.5569E-03     25.2892E-03     3.69975E+06    -37.1512E+06    -3.78628E+06     990.554E+03    -15.9763E-03     28.3228E-03    -12.3465E-03     39.0829E-03    -15.9081E-03     28.1469E-03    -12.3170E-03     39.0812E-03
            1971     10.6704E-03     25.2537E-03     4.00912E+06    -46.8893E+06    -1.76567E+06     796.323E+03    -15.2710E-03     27.4012E-03    -12.1302E-03     33.5428E-03    -15.1860E-03     27.1690E-03    -12.0768E-03     33.5431E-03
            1972     9.78343E-03     25.2228E-03     2.38463E+06    -48.7849E+06     555.243E+03     891.865E+03    -14.5463E-03     26.4666E-03    -11.9203E-03     28.7717E-03    -14.4677E-03     26.2216E-03    -11.8502E-03     28.7764E-03
            1973     8.89593E-03     25.1962E-03     1.17644E+06    -47.3610E+06     1.90391E+06     477.081E+03    -13.8702E-03     25.5874E-03    -11.7172E-03     24.4183E-03    -13.8004E-03     25.3481E-03    -11.6407E-03     24.4196E-03
            1974     8.00786E-03     25.1736E-03     1.68545E+06    -46.4118E+06     4.64253E+06     531.771E+03    -13.2736E-03     24.8104E-03    -11.5369E-03     20.5335E-03    -13.2058E-03     24.5704E-03    -11.4488E-03     20.5368E-03
            1975     7.11931E-03     25.1545E-03     2.18735E+06    -47.0971E+06     5.16845E+06     1.20577E+06    -12.7313E-03     24.0976E-03    -11.3663E-03     17.1502E-03    -12.6603E-03     23.8522E-03    -11.2753E-03     17.1631E-03
            1976     6.23037E-03     25.1384E-03     2.07059E+06    -47.7833E+06     4.67772E+06     1.27131E+06    -12.2422E-03     23.4542E-03    -11.2120E-03     14.2283E-03    -12.1698E-03     23.2060E-03    -11.1223E-03     14.2428E-03
            1977     5.34102E-03     25.1250E-03     1.49165E+06    -47.7894E+06     4.03724E+06     1.03622E+06    -11.8189E-03     22.8971E-03    -11.0782E-03     11.6443E-03    -11.7483E-03     22.6505E-03    -10.9909E-03     11.6562E-03
            1978     4.45134E-03     25.1141E-03     546.431E+03    -48.2050E+06     3.11037E+06     762.635E+03    -11.4723E-03     22.4374E-03    -10.9651E-03     9.33020E-03    -11.4043E-03     22.1912E-03    -10.8805E-03     9.33892E-03
            1979     3.56139E-03     25.1054E-03    -273.756E+03    -47.3821E+06     1.91784E+06     627.848E+03    -11.1936E-03     22.0617E-03    -10.8681E-03     7.24054E-03    -11.1292E-03     21.8225E-03    -10.7894E-03     7.24782E-03
            1980     2.67125E-03     25.0987E-03    -775.089E+03    -47.1070E+06     277.730E+03     515.918E+03    -10.9767E-03     21.7647E-03    -10.7880E-03     5.31277E-03    -10.9127E-03     21.5300E-03    -10.7172E-03     5.31884E-03
            1981     1.78091E-03     25.0941E-03    -1.22536E+06    -48.0048E+06     -422.88E+03     379.136E+03    -10.8236E-03     21.5551E-03    -10.7316E-03     3.52417E-03    -10.7595E-03     21.3175E-03    -10.6623E-03     3.52869E-03
            1982     890.525E-06     25.0912E-03    -1.69308E+06    -47.2275E+06    -1.39355E+06     303.810E+03    -10.7415E-03     21.4047E-03    -10.6632E-03     1.91474E-03    -10.6794E-03     21.1732E-03    -10.5993E-03     1.91846E-03
            1983     16.8635E-03     24.7383E-03    -1.46847E+06     112.501E+06     14.4107E+06     58.7592E+03    -24.0814E-03     37.9216E-03    -13.8401E-03     135.997E-03    -25.9140E-03     40.1066E-03    -13.9291E-03     137.256E-03
            1984     15.9816E-03     24.6074E-03    -1.00587E+06     62.6237E+06    -19.9853E+06     67.9361E+03    -22.5811E-03     35.9674E-03    -13.3863E-03     118.051E-03    -23.3809E-03     37.0440E-03    -13.5756E-03     118.191E-03
            1985     15.0986E-03     24.5150E-03    -58.7719E+03     31.1548E+06    -12.5143E+06    -59.6375E+03    -19.8103E-03     32.9628E-03    -13.1525E-03     79.4005E-03    -20.0026E-03     33.3019E-03    -13.2602E-03     79.3600E-03
            1986     14.2148E-03     24.4566E-03     829.625E+03    -12.2264E+06    -11.3975E+06     189.206E+03    -18.4471E-03     31.3751E-03    -12.9280E-03     58.1098E-03    -18.4667E-03     31.3874E-03    -12.9685E-03     58.0725E-03
            1987     13.3299E-03     24.4036E-03     1.96952E+06    -29.5283E+06    -10.2487E+06     576.080E+03    -17.7245E-03     30.3948E-03    -12.6703E-03     52.8522E-03    -17.6907E-03     30.2929E-03    -12.6816E-03     52.8285E-03
            1988     12.4448E-03     24.3546E-03     2.92154E+06    -30.5399E+06    -4.92132E+06     618.521E+03    -16.8767E-03     29.2927E-03    -12.4159E-03     45.8782E-03    -16.8285E-03     29.1607E-03    -12.4005E-03     45.8650E-03
            1989     11.5590E-03     24.3144E-03     3.42218E+06    -36.9162E+06    -3.92858E+06     724.932E+03    -16.0184E-03     28.1771E-03    -12.1586E-03     38.0696E-03    -15.9514E-03     28.0025E-03    -12.1297E-03     38.0648E-03
            1990     10.6727E-03     24.2797E-03     3.67810E+06    -47.6528E+06    -1.32846E+06     1.60232E+06    -15.2590E-03     27.1872E-03    -11.9282E-03     32.4928E-03    -15.1748E-03     26.9508E-03    -11.8711E-03     32.5038E-03
            1991     9.78566E-03     24.2497E-03     4.06746E+06    -48.3695E+06     1.96937E+06     2.16872E+06    -14.4788E-03     26.1811E-03    -11.7023E-03     27.7505E-03    -14.3942E-03     25.9336E-03    -11.6282E-03     27.7719E-03
            1992     8.89798E-03     24.2241E-03     3.77466E+06    -45.8594E+06     2.85492E+06     1.13400E+06    -13.7523E-03     25.2330E-03    -11.4807E-03     23.5135E-03    -13.6729E-03     24.9959E-03    -11.4054E-03     23.5235E-03
            1993     8.00981E-03     24.2021E-03     2.76102E+06     -46.885E+06     4.68978E+06     219.852E+03    -13.1155E-03     24.4054E-03    -11.2899E-03     19.7073E-03    -13.0417E-03     24.1613E-03    -11.2025E-03     19.7068E-03
            1994     7.12119E-03     24.1837E-03     2.50529E+06    -47.5779E+06     5.44824E+06     569.384E+03    -12.5467E-03     23.6585E-03    -11.1118E-03     16.4004E-03    -12.4738E-03     23.4099E-03    -11.0192E-03     16.4052E-03
            1995     6.23203E-03     24.1682E-03     2.51855E+06    -47.7406E+06     5.63466E+06     1.20659E+06    -12.0372E-03     22.9878E-03    -10.9506E-03     13.5796E-03    -11.9640E-03     22.7378E-03    -10.8569E-03     13.5933E-03
            1996     5.34250E-03     24.1554E-03     1.83980E+06    -47.4809E+06     5.02867E+06     1.54136E+06    -11.5977E-03     22.4052E-03    -10.8074E-03     11.0919E-03    -11.5273E-03     22.1581E-03    -10.7161E-03     11.1104E-03
            1997     4.45261E-03     24.1449E-03     886.087E+03    -47.4226E+06     3.36676E+06     1.25993E+06    -11.2289E-03     21.9098E-03    -10.6810E-03     8.88090E-03    -11.1607E-03     21.6667E-03    -10.5967E-03     8.89610E-03
            1998     3.56246E-03     24.1365E-03     70.6964E+03    -47.1307E+06     1.80722E+06     808.102E+03    -10.9186E-03     21.4954E-03    -10.5768E-03     6.88109E-03    -10.8526E-03     21.2571E-03    -10.4996E-03     6.89075E-03
            1999     2.67200E-03     24.1301E-03    -583.730E+03    -46.7225E+06     92.5931E+03     760.899E+03    -10.6847E-03     21.1793E-03    -10.4946E-03     5.04425E-03    -10.6200E-03     20.9464E-03    -10.4256E-03     5.05352E-03
            2000     1.78146E-03     24.1256E-03    -1.06313E+06    -47.4974E+06    -747.884E+03     513.515E+03    -10.5331E-03     20.9702E-03    -10.4371E-03     3.35043E-03    -10.4685E-03     20.7354E-03    -10.3705E-03     3.35671E-03
            2001     890.759E-06     24.1229E-03    -1.29939E+06    -46.7419E+06    -934.339E+03     245.182E+03    -10.4360E-03     20.8220E-03    -10.3860E-03     1.81082E-03    -10.3733E-03     20.5916E-03    -10.3210E-03     1.81379E-03
            2002     16.8641E-03     23.7546E-03    -1.98558E+06     112.792E+06     15.0672E+06    -337.177E+03    -24.5565E-03     38.3578E-03    -13.8013E-03     134.234E-03    -26.3554E-03     40.5065E-03    -13.8867E-03     135.431E-03
            2003     15.9835E-03     23.6277E-03    -1.63056E+06     62.8786E+06    -20.5423E+06    -440.377E+03    -22.9517E-03     36.2613E-03    -13.3097E-03     115.547E-03    -23.7228E-03     37.3096E-03    -13.5012E-03     115.662E-03
            2004     15.1001E-03     23.5363E-03    -82.3820E+03     30.6006E+06    -13.0125E+06    -143.915E+03    -20.0931E-03     33.1409E-03    -13.0478E-03     78.0532E-03    -20.2782E-03     33.4721E-03    -13.1571E-03     78.0095E-03
            2005     14.2161E-03     23.4791E-03     820.710E+03    -12.6173E+06    -11.5297E+06     23.9720E+03    -18.6654E-03     31.4659E-03    -12.8005E-03     57.0197E-03    -18.6823E-03     31.4744E-03    -12.8410E-03     56.9801E-03
            2006     13.3320E-03     23.4269E-03     1.66081E+06    -29.6549E+06    -10.4799E+06     165.410E+03    -17.9135E-03     30.4318E-03    -12.5183E-03     51.7354E-03    -17.8794E-03     30.3288E-03    -12.5301E-03     51.7065E-03
            2007     12.4469E-03     23.3790E-03     2.48583E+06    -30.6913E+06    -4.91653E+06     479.613E+03    -16.9749E-03     29.2173E-03    -12.2423E-03     44.6604E-03    -16.9279E-03     29.0843E-03    -12.2260E-03     44.6458E-03
            2008     11.5613E-03     23.3397E-03     2.87936E+06    -37.3262E+06    -3.95277E+06     1.07429E+06    -16.0524E-03     28.0173E-03    -11.9649E-03     36.9138E-03    -15.9870E-03     27.8411E-03    -11.9347E-03     36.9139E-03
            2009     10.6749E-03     23.3060E-03     3.17153E+06    -48.4686E+06    -1.83043E+06     1.62202E+06    -15.2242E-03     26.9390E-03    -11.7148E-03     31.4027E-03    -15.1403E-03     26.6997E-03    -11.6583E-03     31.4143E-03
            2010     9.78786E-03     23.2770E-03     3.56578E+06    -48.0397E+06     1.86106E+06     1.86538E+06    -14.4002E-03     25.8737E-03    -11.4735E-03     26.7117E-03    -14.3183E-03     25.6285E-03    -11.3997E-03     26.7294E-03
            2011     8.90021E-03     23.2521E-03     4.00999E+06    -44.3292E+06     3.57646E+06     1.55745E+06    -13.6238E-03     24.8631E-03    -11.2392E-03     22.5569E-03    -13.5464E-03     24.6322E-03    -11.1629E-03     22.5725E-03
            2012     8.01191E-03     23.2310E-03     4.08273E+06    -46.3037E+06     5.53158E+06     736.264E+03    -12.9377E-03     23.9759E-03    -11.0381E-03     18.8591E-03    -12.8593E-03     23.7315E-03    -10.9492E-03     18.8654E-03
            2013     7.12301E-03     23.2133E-03     3.38927E+06    -48.2336E+06     5.50243E+06     570.231E+03    -12.3407E-03     23.1913E-03    -10.8506E-03     15.6623E-03    -12.2625E-03     22.9379E-03    -10.7581E-03     15.6673E-03
            2014     6.23373E-03     23.1985E-03     2.54728E+06    -48.2943E+06     5.51853E+06     1.30515E+06    -11.8198E-03     22.5020E-03    -10.6823E-03     12.9404E-03    -11.7454E-03     22.2493E-03    -10.5883E-03     12.9554E-03
            2015     5.34397E-03     23.1861E-03     1.95834E+06    -47.2610E+06     5.11300E+06     1.77826E+06    -11.3620E-03     21.8933E-03    -10.5314E-03     10.5484E-03    -11.2913E-03     21.6470E-03    -10.4401E-03     10.5700E-03
            2016     4.45390E-03     23.1761E-03     1.34859E+06    -46.5187E+06     3.62716E+06     1.64348E+06    -10.9701E-03     21.3683E-03    -10.3983E-03     8.43590E-03    -10.9013E-03     21.1287E-03    -10.3146E-03     8.45612E-03
            2017     3.56346E-03     23.1682E-03     295.888E+03    -46.7432E+06     2.33124E+06     1.44769E+06    -10.6495E-03     20.9412E-03    -10.2917E-03     6.52562E-03    -10.5837E-03     20.7038E-03    -10.2127E-03     6.54358E-03
            2018     2.67283E-03     23.1621E-03    -811.731E+03    -46.0841E+06     167.806E+03     1.19860E+06    -10.3995E-03     20.6033E-03    -10.2038E-03     4.78493E-03    -10.3370E-03     20.3738E-03    -10.1349E-03     4.79989E-03
            2019     1.78195E-03     23.1578E-03    -1.21929E+06    -46.5566E+06    -1.31659E+06     643.010E+03    -10.2311E-03     20.3750E-03    -10.1439E-03     3.18176E-03    -10.1678E-03     20.1459E-03    -10.0812E-03     3.18973E-03
            2020     891.009E-06     23.1552E-03    -1.13523E+06    -46.3864E+06    -1.33613E+06     58.0671E+03    -10.1425E-03     20.2470E-03    -10.1045E-03     1.68553E-03    -10.0789E-03     20.0187E-03    -10.0423E-03     1.68611E-03
            2021     16.8652E-03     22.7718E-03    -1.97224E+06     113.568E+06     16.7334E+06    -226.326E+03    -25.0753E-03     38.8381E-03    -13.7628E-03     132.160E-03    -26.8321E-03     40.9426E-03    -13.8410E-03     133.296E-03
            2022     15.9839E-03     22.6465E-03    -2.18155E+06     62.6870E+06    -20.5330E+06    -906.519E+03    -23.2406E-03     36.4746E-03    -13.2340E-03     112.956E-03    -23.9818E-03     37.4902E-03    -13.4244E-03     113.048E-03
            2023     15.1019E-03     22.5580E-03    -905.626E+03     30.0330E+06    -13.5111E+06    -740.841E+03    -20.4597E-03     33.4008E-03    -12.9411E-03     76.4667E-03    -20.6415E-03     33.7253E-03    -13.0509E-03     76.4126E-03
            2024     14.2184E-03     22.5012E-03     396.748E+03    -12.5328E+06    -11.6446E+06    -138.453E+03    -18.9358E-03     31.6005E-03    -12.6647E-03     55.7250E-03    -18.9526E-03     31.6081E-03    -12.7054E-03     55.6830E-03
            2025     13.3341E-03     22.4502E-03     1.24422E+06    -29.9342E+06    -10.7858E+06     2.00958E+03    -18.0749E-03     30.4314E-03    -12.3565E-03     50.4031E-03    -18.0407E-03     30.3267E-03    -12.3688E-03     50.3723E-03
            2026     12.4493E-03     22.4033E-03     1.81922E+06    -31.3236E+06    -5.11555E+06     472.158E+03    -17.0562E-03     29.1157E-03    -12.0594E-03     43.3272E-03    -17.0105E-03     28.9800E-03    -12.0422E-03     43.3129E-03
            2027     11.5637E-03     22.3652E-03     2.26388E+06    -37.8038E+06    -4.00486E+06     1.15722E+06    -16.0416E-03     27.8052E-03    -11.7636E-03     35.6951E-03    -15.9780E-03     27.6271E-03    -11.7321E-03     35.6967E-03
            2028     10.6772E-03     22.3325E-03     2.80831E+06    -48.7206E+06    -1.75432E+06     1.53966E+06    -15.1665E-03     26.6641E-03    -11.4976E-03     30.2564E-03    -15.0840E-03     26.4237E-03    -11.4398E-03     30.2673E-03
            2029     9.79021E-03     22.3045E-03     2.98341E+06    -48.1031E+06     2.00161E+06     1.88637E+06    -14.2913E-03     25.5342E-03    -11.2428E-03     25.6422E-03    -14.2123E-03     25.2892E-03    -11.1674E-03     25.6604E-03
            2030     8.90238E-03     22.2806E-03     2.87653E+06    -42.8771E+06     2.67674E+06     1.25887E+06    -13.4630E-03     24.4535E-03    -10.9906E-03     21.6307E-03    -13.3919E-03     24.2327E-03    -10.9192E-03     21.6427E-03
            2031     8.01391E-03     22.2603E-03     2.92320E+06    -46.0460E+06     3.80224E+06     731.865E+03    -12.7464E-03     23.5245E-03    -10.7781E-03     18.0453E-03    -12.6715E-03     23.2855E-03    -10.6966E-03     18.0517E-03
            2032     7.12493E-03     22.2434E-03     2.50568E+06    -48.7578E+06     4.43776E+06     1.35233E+06    -12.1265E-03     22.7138E-03    -10.5873E-03     14.9379E-03    -12.0504E-03     22.4606E-03    -10.4980E-03     14.9531E-03
            2033     6.23537E-03     22.2292E-03     1.79237E+06    -48.3070E+06     4.61092E+06     1.45588E+06    -11.5827E-03     21.9956E-03    -10.4129E-03     12.3171E-03    -11.5108E-03     21.7452E-03    -10.3224E-03     12.3342E-03
            2034     5.34547E-03     22.2174E-03     1.48445E+06    -47.3709E+06     4.34081E+06     1.57986E+06    -11.1076E-03     21.3659E-03    -10.2583E-03     10.0289E-03    -11.0380E-03     21.1208E-03    -10.1701E-03     10.0481E-03
            2035     4.45509E-03     22.2079E-03     973.184E+03    -45.9850E+06     3.43889E+06     2.01042E+06    -10.7042E-03     20.8286E-03    -10.1243E-03     8.00967E-03    -10.6378E-03     20.5924E-03    -10.0419E-03     8.03468E-03
            2036     3.56448E-03     22.2003E-03     229.403E+03    -46.0856E+06     2.74546E+06     1.90526E+06    -10.3811E-03     20.3990E-03    -10.0179E-03     6.19489E-03    -10.3172E-03     20.1643E-03    -9.93766E-03     6.21880E-03
            2037     2.67355E-03     22.1946E-03    -398.715E+03    -45.0789E+06     1.06118E+06     1.55055E+06    -10.1309E-03     20.0591E-03    -9.92819E-03     4.54739E-03    -10.0691E-03     19.8327E-03    -9.85694E-03     4.56693E-03
            2038     1.78249E-03     22.1906E-03    -1.18726E+06    -45.4608E+06    -837.864E+03     1.07931E+06    -9.95432E-03     19.8174E-03    -9.86312E-03     3.01981E-03    -9.89314E-03     19.5931E-03    -9.79967E-03     3.03344E-03
            2039     891.266E-06     22.1881E-03    -2.05318E+06    -45.6445E+06    -2.16052E+06     640.437E+03    -9.86332E-03     19.6720E-03    -9.80868E-03     1.60171E-03    -9.80420E-03     19.4500E-03    -9.75032E-03     1.60981E-03
            2040     16.8659E-03     21.7871E-03    -2.05301E+06     114.259E+06     18.0473E+06    -178.953E+03    -25.6755E-03     39.3982E-03    -13.7228E-03     129.968E-03    -27.3886E-03     41.4575E-03    -13.7952E-03     131.040E-03
            2041     15.9861E-03     21.6666E-03    -1.86022E+06     63.4746E+06    -19.7378E+06    -950.707E+03    -23.7121E-03     36.8638E-03    -13.1517E-03     110.038E-03    -24.4208E-03     37.8486E-03    -13.3397E-03     110.107E-03
            2042     15.1032E-03     21.5781E-03    -996.234E+03     29.5040E+06    -13.7959E+06    -1.06887E+06    -20.7660E-03     33.5881E-03    -12.8222E-03     74.4954E-03    -20.9399E-03     33.9034E-03    -12.9325E-03     74.4350E-03
            2043     14.2204E-03     21.5237E-03    -264.687E+03    -12.9995E+06    -12.1697E+06    -527.455E+03    -19.1649E-03     31.6828E-03    -12.5179E-03     54.3376E-03    -19.1812E-03     31.6873E-03    -12.5596E-03     54.2906E-03
            2044     13.3364E-03     21.4732E-03     745.999E+03    -30.0918E+06    -11.2763E+06    -56.9471E+03    -18.2168E-03     30.4016E-03    -12.1848E-03     49.0875E-03    -18.1827E-03     30.2961E-03    -12.1986E-03     49.0564E-03
            2045     12.4517E-03     21.4279E-03     1.61650E+06    -32.2066E+06    -5.16722E+06     383.219E+03    -17.0806E-03     28.9511E-03    -11.8705E-03     41.9286E-03    -17.0336E-03     28.8105E-03    -11.8519E-03     41.9138E-03
            2046     11.5660E-03     21.3909E-03     2.18713E+06    -38.4514E+06    -4.29172E+06     1.18659E+06    -16.0053E-03     27.5622E-03    -11.5569E-03     34.4783E-03    -15.9402E-03     27.3809E-03    -11.5258E-03     34.4807E-03
            2047     10.6797E-03     21.3593E-03     2.12349E+06    -48.9548E+06    -2.46339E+06     1.92684E+06    -15.0774E-03     26.3530E-03    -11.2756E-03     29.1209E-03    -14.9966E-03     26.1132E-03    -11.2200E-03     29.1371E-03
            2048     9.79244E-03     21.3324E-03     2.35615E+06    -47.3761E+06     1.43847E+06     1.46065E+06    -14.1483E-03     25.1574E-03    -11.0091E-03     24.5887E-03    -14.0725E-03     24.9176E-03    -10.9366E-03     24.6016E-03
            2049     8.90451E-03     21.3094E-03     3.41291E+06    -41.9843E+06     2.46197E+06     807.508E+03    -13.2916E-03     24.0397E-03    -10.7481E-03     20.6770E-03    -13.2187E-03     23.8228E-03    -10.6798E-03     20.6833E-03
            2050     8.01592E-03     21.2901E-03     3.21450E+06    -46.7758E+06     3.90054E+06     1.37992E+06    -12.5602E-03     23.0926E-03    -10.5324E-03     17.1920E-03    -12.4829E-03     22.8494E-03    -10.4497E-03     17.2068E-03
            2051     7.12670E-03     21.2739E-03     2.31107E+06    -48.7013E+06     4.56475E+06     1.75406E+06    -11.9072E-03     22.2424E-03    -10.3352E-03     14.2195E-03    -11.8322E-03     21.9895E-03    -10.2451E-03     14.2400E-03
            2052     6.23703E-03     21.2604E-03     1.98812E+06    -47.7058E+06     4.17821E+06     1.48105E+06    -11.3329E-03     21.4864E-03    -10.1535E-03     11.7191E-03    -11.2602E-03     21.2393E-03    -10.0663E-03     11.7366E-03
            2053     5.34680E-03     21.2493E-03     1.39848E+06    -47.7942E+06     4.07645E+06     1.64427E+06    -10.8488E-03     20.8498E-03    -10.0010E-03     9.53665E-03    -10.7786E-03     20.6031E-03    -9.91334E-03     9.55669E-03
            2054     4.45628E-03     21.2402E-03     853.717E+03    -45.6718E+06     3.54022E+06     2.02756E+06    -10.4440E-03     20.3119E-03    -9.86794E-03     7.61693E-03    -10.3788E-03     20.0773E-03    -9.78525E-03     7.64223E-03
            2055     3.56537E-03     21.2331E-03     477.402E+03    -45.1610E+06     2.63909E+06     1.89078E+06    -10.1229E-03     19.8821E-03    -9.75923E-03     5.89174E-03    -10.0589E-03     19.6519E-03    -9.68124E-03     5.91551E-03
            2056     2.67425E-03     21.2276E-03    -90.7321E+03    -44.2767E+06     1.62293E+06     1.67926E+06    -9.87796E-03     19.5502E-03    -9.67222E-03     4.32260E-03    -9.81660E-03     19.3266E-03    -9.59977E-03     4.34383E-03
            2057     1.78294E-03     21.2238E-03    -653.453E+03    -44.2645E+06     273.702E+03     1.52987E+06    -9.70241E-03     19.3082E-03    -9.60580E-03     2.86077E-03    -9.64190E-03     19.0874E-03    -9.53930E-03     2.88023E-03
            2058     891.513E-06     21.2215E-03    -1.04403E+06    -44.0809E+06    -589.437E+03     1.03522E+06    -9.60207E-03     19.1511E-03    -9.54908E-03     1.53942E-03    -9.54245E-03     18.9332E-03    -9.48659E-03     1.55262E-03
            2059     16.8665E-03     20.8027E-03    -2.23140E+06     115.242E+06     18.6704E+06    -175.821E+03    -26.3128E-03     39.9834E-03    -13.6706E-03     127.279E-03    -27.9750E-03     41.9927E-03    -13.7411E-03     128.278E-03
            2060     15.9869E-03     20.6843E-03    -2.56239E+06     64.4119E+06    -19.7963E+06    -1.00304E+06    -24.1611E-03     37.2174E-03    -13.0563E-03     106.875E-03    -24.8404E-03     38.1738E-03    -13.2450E-03     106.923E-03
            2061     15.1061E-03     20.5997E-03    -1.87498E+06     28.8526E+06    -14.5179E+06    -1.03429E+06    -21.0487E-03     33.7413E-03    -12.6926E-03     72.5542E-03    -21.2172E-03     34.0478E-03    -12.8044E-03     72.4923E-03
            2062     14.2224E-03     20.5454E-03    -981.004E+03    -13.3996E+06    -12.4488E+06    -648.855E+03    -19.3172E-03     31.6824E-03    -12.3652E-03     52.9568E-03    -19.3336E-03     31.6839E-03    -12.4066E-03     52.9085E-03
            2063     13.3388E-03     20.4967E-03    -189.568E+03    -30.5336E+06    -11.7710E+06    -316.425E+03    -18.2983E-03     30.3093E-03    -12.0110E-03     47.6283E-03    -18.2660E-03     30.2020E-03    -12.0253E-03     47.5945E-03
            2064     12.4541E-03     20.4525E-03     749.219E+03    -32.5751E+06    -5.32208E+06    -53.8337E+03    -17.0761E-03     28.7568E-03    -11.6806E-03     40.5442E-03    -17.0318E-03     28.6149E-03    -11.6611E-03     40.5243E-03
            2065     11.5685E-03     20.4169E-03     1.83316E+06    -39.8541E+06    -4.18537E+06     790.373E+03    -15.9513E-03     27.3061E-03    -11.3548E-03     33.2300E-03    -15.8856E-03     27.1176E-03    -11.3206E-03     33.2278E-03
            2066     10.6819E-03     20.3864E-03     3.13538E+06    -49.2061E+06    -1.50782E+06     1.92972E+06    -14.9630E-03     26.0257E-03    -11.0627E-03     27.9452E-03    -14.8779E-03     25.7814E-03    -11.0034E-03     27.9618E-03
            2067     9.79470E-03     20.3606E-03     3.62075E+06    -45.4855E+06     3.27769E+06     1.22751E+06    -13.9939E-03     24.7825E-03    -10.7885E-03     23.4950E-03    -13.9170E-03     24.5474E-03    -10.7114E-03     23.5051E-03
            2068     8.90661E-03     20.3387E-03     2.85867E+06    -42.6458E+06     2.74847E+06     868.876E+03    -13.1087E-03     23.6280E-03    -10.5193E-03     19.7125E-03    -13.0380E-03     23.4081E-03    -10.4479E-03     19.7198E-03
            2069     8.01783E-03     20.3202E-03     2.74630E+06    -47.2286E+06     3.62709E+06     1.61116E+06    -12.3454E-03     22.6411E-03    -10.2957E-03     16.3794E-03    -12.2693E-03     22.3966E-03    -10.2131E-03     16.3974E-03
            2070     7.12849E-03     20.3049E-03     3.23426E+06    -48.1715E+06     5.03584E+06     1.58129E+06    -11.6734E-03     21.7701E-03    -10.0967E-03     13.5418E-03    -11.5952E-03     21.5178E-03    -10.0063E-03     13.5602E-03
            2071     6.23848E-03     20.2921E-03     2.87785E+06    -47.7302E+06     4.66032E+06     1.83966E+06    -11.0918E-03     21.0075E-03    -9.91572E-03     11.1447E-03    -11.0153E-03     20.7583E-03    -9.82738E-03     11.1670E-03
            2072     5.34813E-03     20.2815E-03     2.08057E+06    -47.5757E+06     4.38673E+06     2.05503E+06    -10.6025E-03     20.3657E-03    -9.76323E-03     9.06095E-03    -10.5297E-03     20.1187E-03    -9.67533E-03     9.08637E-03
            2073     4.45729E-03     20.2730E-03     1.48306E+06    -45.3251E+06     3.68146E+06     1.86332E+06    -10.1967E-03     19.8279E-03    -9.63120E-03     7.24079E-03    -10.1290E-03     19.5939E-03    -9.54922E-03     7.26403E-03
            2074     3.56622E-03     20.2662E-03     1.14123E+06    -44.3252E+06     2.84541E+06     1.79201E+06    -9.88665E-03     19.4103E-03    -9.52364E-03     5.60646E-03    -9.82087E-03     19.1830E-03    -9.44680E-03     5.62900E-03
            2075     2.67488E-03     20.2611E-03     748.272E+03    -43.7171E+06     2.34744E+06     1.71099E+06    -9.64707E-03     19.0865E-03    -9.43947E-03     4.10211E-03    -9.58337E-03     18.8635E-03    -9.36542E-03     4.12378E-03
            2076     1.78336E-03     20.2575E-03     222.424E+03    -42.9392E+06     1.25194E+06     1.57018E+06    -9.46617E-03     18.8399E-03    -9.37372E-03     2.70120E-03    -9.40462E-03     18.6231E-03    -9.30552E-03     2.72120E-03
            2077     891.716E-06     20.2553E-03    -243.670E+03    -42.1574E+06     52.9846E+03     944.969E+03    -9.37616E-03     18.6847E-03    -9.30854E-03     1.45812E-03    -9.31625E-03     18.4743E-03    -9.24679E-03     1.47017E-03
            2078     16.8684E-03     19.8174E-03    -1.86484E+06     115.748E+06     19.1604E+06     25.6323E+03    -26.9781E-03     40.5891E-03    -13.6110E-03     124.787E-03    -28.5872E-03     42.5470E-03    -13.6803E-03     125.716E-03
            2079     15.9892E-03     19.7027E-03    -2.03731E+06     65.0554E+06    -19.7080E+06    -396.019E+03    -24.4675E-03     37.4249E-03    -12.9574E-03     103.639E-03    -25.1099E-03     38.3483E-03    -13.1473E-03     103.675E-03
            2080     15.1070E-03     19.6199E-03    -2.01007E+06     28.9448E+06    -14.6720E+06    -759.577E+03    -21.2899E-03     33.8562E-03    -12.5663E-03     70.5163E-03    -21.4511E-03     34.1556E-03    -12.6787E-03     70.4567E-03
            2081     14.2250E-03     19.5677E-03    -1.58383E+06    -13.4662E+06    -13.3603E+06    -716.038E+03    -19.5108E-03     31.7221E-03    -12.2113E-03     51.6801E-03    -19.5264E-03     31.7231E-03    -12.2563E-03     51.6312E-03
            2082     13.3410E-03     19.5199E-03    -291.045E+03    -31.0456E+06    -12.4403E+06    -746.502E+03    -18.3424E-03     30.1808E-03    -11.8384E-03     46.2126E-03    -18.3072E-03     30.0705E-03    -11.8552E-03     46.1740E-03
            2083     12.4565E-03     19.4775E-03     474.957E+03     -33.135E+06    -5.34689E+06    -95.7640E+03    -17.0646E-03     28.5609E-03    -11.4963E-03     39.1565E-03    -17.0199E-03     28.4158E-03    -11.4757E-03     39.1368E-03
            2084     11.5707E-03     19.4429E-03     285.114E+03    -40.9694E+06    -4.39054E+06     681.909E+03    -15.8815E-03     27.0406E-03    -11.1591E-03     31.9731E-03    -15.8212E-03     26.8486E-03    -11.1220E-03     31.9700E-03
            2085     10.6843E-03     19.4139E-03     1.12404E+06    -48.8046E+06    -2.46313E+06     354.079E+03    -14.8194E-03     25.6714E-03    -10.8520E-03     26.8229E-03    -14.7432E-03     25.4332E-03    -10.7952E-03     26.8196E-03
            2086     9.79678E-03     19.3891E-03     2.96944E+06    -45.2038E+06     3.55547E+06     555.836E+03    -13.8175E-03     24.3936E-03    -10.5761E-03     22.4845E-03    -13.7445E-03     24.1604E-03    -10.4971E-03     22.4863E-03
            2087     8.90858E-03     19.3684E-03     3.81659E+06    -43.3419E+06     4.52548E+06     1.44902E+06    -12.9111E-03     23.2209E-03    -10.3098E-03     18.7584E-03    -12.8370E-03     22.9934E-03    -10.2298E-03     18.7734E-03
            2088     8.01962E-03     19.3508E-03     3.59526E+06    -46.8229E+06     3.44513E+06     1.31768E+06    -12.1152E-03     22.1894E-03    -10.0741E-03     15.6211E-03    -12.0352E-03     21.9459E-03    -9.99424E-03     15.6355E-03
            2089     7.12996E-03     19.3363E-03     3.16154E+06    -48.4341E+06     4.62616E+06     1.56587E+06    -11.4434E-03     21.3208E-03    -9.87735E-03     12.8945E-03    -11.3646E-03     21.0678E-03    -9.78857E-03     12.9128E-03
            2090     6.23988E-03     19.3242E-03     2.76890E+06    -47.8667E+06     4.80518E+06     2.15873E+06    -10.8661E-03     20.5661E-03    -9.69999E-03     10.5892E-03    -10.7901E-03     20.3161E-03    -9.61057E-03     10.6157E-03
            2091     5.34923E-03     19.3143E-03     2.58632E+06    -46.8834E+06     4.49154E+06     2.10740E+06    -10.3792E-03     19.9254E-03    -9.54618E-03     8.60452E-03    -10.3050E-03     19.6809E-03    -9.45950E-03     8.63069E-03
            2092     4.45828E-03     19.3063E-03     2.38842E+06    -44.8029E+06     4.09174E+06     1.88569E+06    -9.97946E-03     19.3958E-03    -9.41635E-03     6.86455E-03    -9.90860E-03     19.1625E-03    -9.33439E-03     6.88814E-03
            2093     3.56695E-03     19.2999E-03     1.98868E+06    -43.7516E+06     3.15627E+06     1.79883E+06    -9.66721E-03     18.9770E-03    -9.30977E-03     5.31364E-03    -9.59847E-03     18.7508E-03    -9.23344E-03     5.33631E-03
            2094     2.67544E-03     19.2950E-03     1.54771E+06    -42.9950E+06     2.75779E+06     1.70926E+06    -9.42735E-03     18.6562E-03    -9.22884E-03     3.88214E-03    -9.36130E-03     18.4350E-03    -9.15496E-03     3.90381E-03
            2095     1.78374E-03     19.2917E-03     1.18305E+06    -41.7631E+06     1.99689E+06     1.51783E+06    -9.25420E-03     18.4217E-03    -9.16747E-03     2.56486E-03    -9.19063E-03     18.2083E-03    -9.09865E-03     2.58420E-03
            2096     891.887E-06     19.2896E-03     975.549E+03    -40.1394E+06     1.00749E+06     1.12148E+06    -9.15973E-03     18.2763E-03    -9.11653E-03     1.39975E-03    -9.09803E-03     18.0728E-03    -9.05470E-03     1.41409E-03
            2097     16.8682E-03     18.8306E-03    -1.97519E+06     116.186E+06     20.0840E+06    -205.612E+03    -27.4115E-03     40.9728E-03    -13.5614E-03     122.184E-03    -28.9721E-03     42.8808E-03    -13.6265E-03     123.045E-03
            2098     15.9903E-03     18.7206E-03    -2.38716E+06     65.2130E+06    -19.4265E+06    -102.228E+03    -24.8250E-03     37.6984E-03    -12.8733E-03     100.405E-03    -25.4356E-03     38.5885E-03    -13.0616E-03     100.428E-03
            2099     15.1098E-03     18.6405E-03    -1.81005E+06     28.8079E+06    -14.5305E+06     111.994E+03    -21.5849E-03     34.0360E-03    -12.4511E-03     68.5674E-03    -21.7376E-03     34.3267E-03    -12.5629E-03     68.5175E-03
            2100     14.2265E-03     18.5894E-03    -1.19420E+06    -12.7607E+06    -12.7848E+06    -649.416E+03    -19.6834E-03     31.7555E-03    -12.0721E-03     50.1138E-03    -19.6963E-03     31.7560E-03    -12.1158E-03     50.0661E-03
            2101     13.3434E-03     18.5434E-03    -757.613E+03    -31.3525E+06     -12.226E+06    -1.04637E+06    -18.4112E-03     30.0916E-03    -11.6805E-03     44.7462E-03    -18.3765E-03     29.9785E-03    -11.6950E-03     44.7045E-03
            2102     12.4585E-03     18.5025E-03    -121.515E+03    -34.4969E+06    -5.46681E+06    -184.860E+03    -17.0548E-03     28.3775E-03    -11.3227E-03     37.7015E-03    -17.0100E-03     28.2257E-03    -11.2999E-03     37.6812E-03
            2103     11.5730E-03     18.4693E-03     1.24438E+06    -40.9241E+06    -3.40360E+06     300.080E+03    -15.7713E-03     26.7476E-03    -10.9763E-03     30.6717E-03    -15.7072E-03     26.5525E-03    -10.9358E-03     30.6641E-03
            2104     10.6862E-03     18.4416E-03     1.62566E+06    -48.1842E+06    -1.72870E+06     139.920E+03    -14.6655E-03     25.3276E-03    -10.6621E-03     25.7045E-03    -14.5886E-03     25.0904E-03    -10.6032E-03     25.6988E-03
            2105     9.79876E-03     18.4180E-03     948.429E+03    -45.5856E+06     1.96417E+06    -313.849E+03    -13.6302E-03     24.0066E-03    -10.3763E-03     21.5051E-03    -13.5643E-03     23.7765E-03    -10.3018E-03     21.4959E-03
            2106     8.91036E-03     18.3984E-03     1.85952E+06    -44.2903E+06     3.60143E+06     65.5975E+03    -12.7030E-03     22.8156E-03    -10.1127E-03     17.8729E-03    -12.6359E-03     22.5875E-03    -10.0332E-03     17.8703E-03
            2107     8.02116E-03     18.3819E-03     3.20036E+06    -46.8462E+06     3.77616E+06     1.30785E+06    -11.9103E-03     21.7899E-03    -9.87954E-03     14.8385E-03    -11.8326E-03     21.5463E-03    -9.79737E-03     14.8529E-03
            2108     7.13142E-03     18.3681E-03     3.37173E+06    -48.7307E+06     4.10018E+06     1.70705E+06    -11.2361E-03     20.9147E-03    -9.67854E-03     12.2260E-03    -11.1550E-03     20.6606E-03    -9.59226E-03     12.2462E-03
            2109     6.24104E-03     18.3568E-03     3.34845E+06    -48.0333E+06     4.79898E+06     2.05415E+06    -10.6635E-03     20.1677E-03    -9.50416E-03     10.0100E-03    -10.5843E-03     19.9160E-03    -9.41538E-03     10.0352E-03
            2110     5.35030E-03     18.3474E-03     3.08016E+06    -45.9731E+06     4.82561E+06     2.11566E+06    -10.1805E-03     19.5319E-03    -9.35143E-03     8.13558E-03    -10.1056E-03     19.2907E-03    -9.26511E-03     8.16192E-03
            2111     4.45911E-03     18.3399E-03     2.69812E+06    -44.4279E+06     4.15354E+06     1.84629E+06    -9.78651E-03     19.0079E-03    -9.22137E-03     6.47982E-03    -9.71472E-03     18.7759E-03    -9.14009E-03     6.50294E-03
            2112     3.56768E-03     18.3339E-03     2.48756E+06    -43.2120E+06     3.06662E+06     1.94398E+06    -9.46465E-03     18.5793E-03    -9.11467E-03     5.01728E-03    -9.39405E-03     18.3553E-03    -9.04029E-03     5.04186E-03
            2113     2.67594E-03     18.3293E-03     2.36169E+06    -41.9938E+06     2.60515E+06     1.67967E+06    -9.22308E-03     18.2597E-03    -9.03659E-03     3.66644E-03    -9.15418E-03     18.0425E-03    -8.96610E-03     3.68776E-03
            2114     1.78403E-03     18.3262E-03     2.38425E+06    -40.6924E+06     3.00295E+06     1.24094E+06    -9.06648E-03     18.0514E-03    -8.98488E-03     2.43072E-03    -8.99991E-03     17.8401E-03    -8.91432E-03     2.44651E-03
            2115     892.068E-06     18.3242E-03     2.46984E+06    -38.3518E+06     3.07999E+06     807.213E+03    -8.97429E-03     17.9181E-03    -8.94383E-03     1.29194E-03    -8.91071E-03     17.7184E-03    -8.87640E-03     1.30223E-03
            2116     16.8702E-03     17.8440E-03    -2.41537E+06     116.682E+06     21.1989E+06     100.088E+03    -27.7485E-03     41.2644E-03    -13.5159E-03     119.348E-03    -29.2581E-03     43.1183E-03    -13.5756E-03     120.150E-03
            2117     15.9914E-03     17.7380E-03    -3.29523E+06     64.7637E+06    -18.6532E+06    -47.3291E+03    -25.0916E-03     37.8924E-03    -12.8007E-03     96.6664E-03    -25.6708E-03     38.7440E-03    -12.9831E-03     96.6761E-03
            2118     15.1104E-03     17.6603E-03    -2.31796E+06     29.1308E+06    -13.8778E+06    -30.0019E+03    -21.8847E-03     34.2326E-03    -12.3478E-03     66.1819E-03    -22.0333E-03     34.5167E-03    -12.4561E-03     66.1286E-03
            2119     14.2290E-03     17.6114E-03    -1.49412E+06    -11.3944E+06    -11.4501E+06    -500.328E+03    -19.8220E-03     31.7685E-03    -11.9465E-03     48.4283E-03    -19.8375E-03     31.7715E-03    -11.9850E-03     48.3831E-03
            2120     13.3451E-03     17.5669E-03    -907.111E+03    -31.9897E+06    -11.1644E+06    -869.663E+03    -18.4707E-03     30.0090E-03    -11.5383E-03     43.1991E-03    -18.4359E-03     29.8899E-03    -11.5465E-03     43.1603E-03
            2121     12.4609E-03     17.5274E-03     49.9247E+03    -34.8798E+06    -5.03143E+06    -966.011E+03    -16.9919E-03     28.1560E-03    -11.1642E-03     36.1760E-03    -16.9453E-03     28.0005E-03    -11.1388E-03     36.1464E-03
            2122     11.5749E-03     17.4962E-03     993.331E+03    -41.4945E+06    -3.24778E+06    -684.593E+03    -15.6355E-03     26.4463E-03    -10.8108E-03     29.4562E-03    -15.5715E-03     26.2480E-03    -10.7683E-03     29.4365E-03
            2123     10.6882E-03     17.4695E-03     2.28965E+06    -48.2320E+06    -1.08467E+06     33.3461E+03    -14.5224E-03     25.0159E-03    -10.4934E-03     24.5906E-03    -14.4427E-03     24.7763E-03    -10.4322E-03     24.5839E-03
            2124     9.80044E-03     17.4474E-03     3.38326E+06    -44.6331E+06     3.66393E+06    -343.782E+03    -13.4701E-03     23.6767E-03    -10.2066E-03     20.4645E-03    -13.3956E-03     23.4452E-03    -10.1285E-03     20.4553E-03
            2125     8.91182E-03     17.4287E-03     2.77870E+06    -45.6651E+06     4.91078E+06    -455.556E+03    -12.5433E-03     22.4882E-03    -9.94494E-03     16.9267E-03    -12.4714E-03     22.2499E-03    -9.85820E-03     16.9174E-03
            2126     8.02263E-03     17.4133E-03     2.21009E+06    -47.8645E+06     4.44314E+06     609.026E+03    -11.7411E-03     21.4500E-03    -9.70889E-03     14.0141E-03    -11.6678E-03     21.2017E-03    -9.62047E-03     14.0196E-03
            2127     7.13262E-03     17.4003E-03     2.62249E+06    -48.7518E+06     3.37569E+06     1.47693E+06    -11.0565E-03     20.5543E-03    -9.49780E-03     11.5225E-03    -10.9780E-03     20.3022E-03    -9.41403E-03     11.5398E-03
            2128     6.24220E-03     17.3897E-03     2.77694E+06    -48.2864E+06     3.53325E+06     1.86995E+06    -10.4775E-03     19.7983E-03    -9.32076E-03     9.40872E-03    -10.3990E-03     19.5479E-03    -9.23711E-03     9.43162E-03
            2129     5.35121E-03     17.3809E-03     2.93903E+06    -45.1867E+06     4.24009E+06     1.96808E+06    -9.99517E-03     19.1652E-03    -9.16999E-03     7.64094E-03    -9.92125E-03     18.9290E-03    -9.08754E-03     7.66544E-03
            2130     4.45993E-03     17.3738E-03     2.94647E+06    -44.0468E+06     4.06622E+06     1.84856E+06    -9.60502E-03     18.6483E-03    -9.04328E-03     6.07188E-03    -9.53240E-03     18.4180E-03    -8.96335E-03     6.09508E-03
            2131     3.56826E-03     17.3683E-03     2.83541E+06    -42.7428E+06     3.66041E+06     1.81160E+06    -9.28774E-03     18.2279E-03    -8.94014E-03     4.68676E-03    -9.21694E-03     18.0048E-03    -8.86398E-03     4.70967E-03
            2132     2.67639E-03     17.3640E-03     2.93900E+06    -40.7698E+06     3.20118E+06     1.57035E+06    -9.04812E-03     17.9085E-03    -8.86034E-03     3.42791E-03    -8.97897E-03     17.6957E-03    -8.78948E-03     3.44785E-03
            2133     1.78437E-03     17.3610E-03     3.07243E+06    -39.4623E+06     3.43399E+06     799.718E+03    -8.89110E-03     17.6982E-03    -8.80709E-03     2.27412E-03    -8.82350E-03     17.4915E-03    -8.73715E-03     2.28423E-03
            2134     892.191E-06     17.3592E-03     3.23335E+06    -37.3995E+06     3.55401E+06     135.970E+03    -8.81249E-03     17.5649E-03    -8.75237E-03     1.21089E-03    -8.74716E-03     17.3681E-03    -8.68506E-03     1.21253E-03
            2135     16.8701E-03     16.8567E-03    -2.17230E+06     116.536E+06     21.6213E+06     491.855E+03    -28.3839E-03     41.8511E-03    -13.4672E-03     116.592E-03    -29.8389E-03     43.6495E-03    -13.5249E-03     117.329E-03
            2136     15.9929E-03     16.7552E-03    -2.35066E+06     65.2971E+06    -17.2075E+06     322.510E+03    -25.4017E-03     38.1206E-03    -12.7189E-03     92.4148E-03    -25.9415E-03     38.9340E-03    -12.8962E-03     92.4107E-03
            2137     15.1130E-03     16.6799E-03    -1.77607E+06     29.6746E+06    -13.3101E+06    -314.613E+03    -21.7998E-03     34.0432E-03    -12.2434E-03     63.6090E-03    -21.9377E-03     34.3188E-03    -12.3504E-03     63.5530E-03
            2138     14.2300E-03     16.6337E-03    -1.23412E+06    -10.9116E+06    -11.3579E+06    -688.393E+03    -19.9264E-03     31.7555E-03    -11.8292E-03     46.9096E-03    -19.9388E-03     31.7579E-03    -11.8683E-03     46.8627E-03
            2139     13.3473E-03     16.5900E-03    -67.5756E+03    -31.5479E+06    -10.6315E+06    -1.05348E+06    -18.5060E-03     29.9140E-03    -11.4080E-03     41.5209E-03    -18.4668E-03     29.7935E-03    -11.4153E-03     41.4806E-03
            2140     12.4624E-03     16.5533E-03     628.352E+03    -35.0473E+06    -4.48071E+06    -1.27428E+06    -16.8743E-03     27.9013E-03    -11.0270E-03     34.7016E-03    -16.8245E-03     27.7424E-03    -10.9995E-03     34.6688E-03
            2141     11.5766E-03     16.5228E-03     934.027E+03    -42.1851E+06    -2.46888E+06    -902.698E+03    -15.5590E-03     26.2306E-03    -10.6716E-03     28.1896E-03    -15.4950E-03     26.0274E-03    -10.6241E-03     28.1675E-03
            2142     10.6897E-03     16.4981E-03     1.78440E+06    -47.7433E+06    -961.073E+03    -1.55322E+06    -14.4090E-03     24.7533E-03    -10.3443E-03     23.4255E-03    -14.3324E-03     24.5164E-03    -10.2825E-03     23.3986E-03
            2143     9.80189E-03     16.4768E-03     3.36394E+06    -45.0891E+06     3.63762E+06    -1.43313E+06    -13.3543E-03     23.4072E-03    -10.0530E-03     19.3806E-03    -13.2791E-03     23.1734E-03    -9.97429E-03     19.3575E-03
            2144     8.91336E-03     16.4595E-03     4.34868E+06    -46.8199E+06     6.43000E+06     47.3496E+03    -12.4290E-03     22.2222E-03    -9.79328E-03     15.8983E-03    -12.3497E-03     21.9736E-03    -9.69955E-03     15.8957E-03
            2145     8.02382E-03     16.4449E-03     3.72697E+06    -48.7766E+06     5.58961E+06     966.202E+03    -11.6145E-03     21.1653E-03    -9.55089E-03     13.0933E-03    -11.5338E-03     20.9086E-03    -9.45762E-03     13.1036E-03
            2146     7.13387E-03     16.4329E-03     2.57093E+06    -49.1247E+06     3.39371E+06     1.60893E+06    -10.9107E-03     20.2428E-03    -9.33215E-03     10.7163E-03    -10.8319E-03     19.9889E-03    -9.24768E-03     10.7354E-03
            2147     6.24317E-03     16.4229E-03     2.26291E+06    -47.8885E+06     3.08701E+06     1.64844E+06    -10.3175E-03     19.4673E-03    -9.14977E-03     8.73578E-03    -10.2414E-03     19.2203E-03    -9.06818E-03     8.75590E-03
            2148     5.35214E-03     16.4147E-03     2.37604E+06    -44.9935E+06     3.59293E+06     1.53157E+06    -9.82687E-03     18.8237E-03    -8.99678E-03     7.06603E-03    -9.75509E-03     18.5902E-03    -8.91702E-03     7.08495E-03
            2149     4.46061E-03     16.4082E-03     2.57455E+06    -43.4163E+06     4.17082E+06     1.54398E+06    -9.43838E-03     18.3098E-03    -8.87139E-03     5.58215E-03    -9.36868E-03     18.0830E-03    -8.79132E-03     5.60146E-03
            2150     3.56889E-03     16.4029E-03     2.77322E+06    -42.2891E+06     4.88406E+06     1.31461E+06    -9.12655E-03     17.8970E-03    -8.77045E-03     4.27364E-03    -9.05849E-03     17.6745E-03    -8.68873E-03     4.29016E-03
            2151     2.67687E-03     16.3990E-03     2.99423E+06    -39.7103E+06     4.42520E+06     1.01139E+06    -8.87989E-03     17.5647E-03    -8.68482E-03     3.13069E-03    -8.81378E-03     17.3554E-03    -8.60945E-03     3.14343E-03
            2152     1.78467E-03     16.3962E-03     3.32347E+06    -38.2630E+06     3.62240E+06     392.064E+03    -8.71032E-03     17.3327E-03    -8.62240E-03     2.08212E-03    -8.64347E-03     17.1313E-03    -8.55363E-03     2.08698E-03
            2153     892.392E-06     16.3945E-03     3.54959E+06    -37.2559E+06     3.45256E+06    -151.715E+03    -8.62800E-03     17.1962E-03    -8.56823E-03     1.11569E-03    -8.56115E-03     16.9999E-03    -8.50209E-03     1.11362E-03
            2154     16.8713E-03     15.8684E-03    -1.66878E+06     116.395E+06     23.6879E+06     188.100E+03    -28.6796E-03     42.0956E-03    -13.4160E-03     112.950E-03    -30.0662E-03     43.8209E-03    -13.4639E-03     113.609E-03
            2155     15.9951E-03     15.7710E-03    -1.52229E+06     65.1175E+06    -16.0534E+06     211.421E+03    -25.2487E-03     37.8963E-03    -12.6476E-03     88.6628E-03    -25.7493E-03     38.6694E-03    -12.8201E-03     88.6497E-03
            2156     15.1136E-03     15.7018E-03    -1.05810E+06     30.4963E+06    -12.3250E+06     100.231E+03    -21.9840E-03     34.1424E-03    -12.1584E-03     61.6439E-03    -22.1138E-03     34.4125E-03    -12.2627E-03     61.5928E-03
            2157     14.2319E-03     15.6540E-03    -528.001E+03    -10.2040E+06    -10.7852E+06    -755.414E+03    -19.9573E-03     31.6846E-03    -11.7273E-03     45.2159E-03    -19.9652E-03     31.6858E-03    -11.7657E-03     45.1691E-03
            2158     13.3485E-03     15.6144E-03    -43.9959E+03    -31.3610E+06    -10.5954E+06    -1.08107E+06    -18.4145E-03     29.7126E-03    -11.2982E-03     39.6769E-03    -18.3736E-03     29.5911E-03    -11.3056E-03     39.6374E-03
            2159     12.4639E-03     15.5784E-03     6.85281E+03    -35.1384E+06    -4.57770E+06    -906.562E+03    -16.8636E-03     27.7748E-03    -10.9113E-03     33.1744E-03    -16.8157E-03     27.6156E-03    -10.8832E-03     33.1471E-03
            2160     11.5781E-03     15.5502E-03     683.655E+03    -41.6090E+06    -2.74975E+06    -1.71829E+06    -15.5373E-03     26.0812E-03    -10.5439E-03     26.7972E-03    -15.4745E-03     25.8811E-03    -10.4983E-03     26.7651E-03
            2161     10.6911E-03     15.5263E-03     1.85260E+06    -47.1780E+06    -863.493E+03    -2.42408E+06    -14.3827E-03     24.5908E-03    -10.2081E-03     22.0663E-03    -14.3065E-03     24.3563E-03    -10.1467E-03     22.0285E-03
            2162     9.80335E-03     15.5067E-03     1.95650E+06    -46.4715E+06     2.10527E+06    -2.17106E+06    -13.2931E-03     23.1969E-03    -9.90384E-03     18.0921E-03    -13.2205E-03     22.9602E-03    -9.82877E-03     18.0597E-03
            2163     8.91449E-03     15.4903E-03     2.08621E+06    -48.8151E+06     4.40619E+06    -767.724E+03    -12.3562E-03     21.9907E-03    -9.63447E-03     14.6932E-03    -12.2823E-03     21.7381E-03    -9.54469E-03     14.6803E-03
            2164     8.02521E-03     15.4769E-03     2.55972E+06    -50.0460E+06     5.22524E+06     1.42564E+06    -11.5270E-03     20.9150E-03    -9.38801E-03     11.9293E-03    -11.4497E-03     20.6540E-03    -9.29303E-03     11.9456E-03
            2165     7.13493E-03     15.4657E-03     2.45563E+06    -48.7722E+06     4.08116E+06     2.05593E+06    -10.7987E-03     19.9601E-03    -9.16145E-03     9.66799E-03    -10.7219E-03     19.7071E-03    -9.07388E-03     9.69301E-03
            2166     6.24430E-03     15.4565E-03     2.09969E+06    -47.2036E+06     4.25543E+06     1.52185E+06    -10.1852E-03     19.1578E-03    -8.97260E-03     7.79903E-03    -10.1126E-03     18.9128E-03    -8.88593E-03     7.81759E-03
            2167     5.35302E-03     15.4489E-03     1.87805E+06    -44.7290E+06     4.35306E+06     1.20213E+06    -9.67136E-03     18.4825E-03    -8.81112E-03     6.25127E-03    -9.60353E-03     18.2499E-03    -8.72722E-03     6.26600E-03
            2168     4.46149E-03     15.4427E-03     1.85779E+06    -42.8345E+06     4.23173E+06     894.860E+03    -9.25730E-03     17.9339E-03    -8.67658E-03     4.91370E-03    -9.19210E-03     17.7109E-03    -8.59601E-03     4.92467E-03
            2169     3.56955E-03     15.4380E-03     2.03093E+06    -41.6377E+06     4.70521E+06     435.932E+03    -8.93631E-03     17.5068E-03    -8.57049E-03     3.76051E-03    -8.87264E-03     17.2889E-03    -8.48953E-03     3.76572E-03
            2170     2.67740E-03     15.4343E-03     2.29426E+06    -39.2332E+06     4.23420E+06     119.192E+03    -8.68949E-03     17.1696E-03    -8.48013E-03     2.75191E-03    -8.62729E-03     16.9640E-03    -8.40540E-03     2.75317E-03
            2171     1.78505E-03     15.4318E-03     2.41294E+06    -37.6403E+06     3.08056E+06     7.01562E+03    -8.50671E-03     16.9169E-03    -8.41019E-03     1.81167E-03    -8.44453E-03     16.7207E-03    -8.34371E-03     1.81158E-03
            2172     892.523E-06     15.4302E-03     2.33858E+06    -37.4496E+06     2.40359E+06    -97.0505E+03    -8.42472E-03     16.7632E-03    -8.33847E-03     964.510E-06    -8.36212E-03     16.5692E-03    -8.27554E-03     963.160E-06
            2173     16.8742E-03     14.8811E-03    -2.01033E+06     116.152E+06     25.6519E+06    -303.215E+03    -28.4904E-03     41.8945E-03    -13.4041E-03     111.026E-03    -29.8264E-03     43.5615E-03    -13.4414E-03     111.633E-03
            2174     15.9937E-03     14.7894E-03    -2.86327E+06     64.8445E+06    -16.5218E+06    -139.761E+03    -25.4704E-03     38.0885E-03    -12.6181E-03     85.9913E-03    -25.9480E-03     38.8342E-03    -12.7906E-03     85.9639E-03
            2175     15.1151E-03     14.7195E-03    -1.64166E+06     31.2460E+06    -12.2015E+06    -288.256E+03    -22.3945E-03     34.4984E-03    -12.1040E-03     59.2809E-03    -22.5205E-03     34.7651E-03    -12.2079E-03     59.2231E-03
            2176     14.2334E-03     14.6774E-03     87.3565E+03     -9.8024E+06    -10.4756E+06    -724.737E+03    -20.0942E-03     31.7435E-03    -11.6493E-03     43.5681E-03    -20.0973E-03     31.7426E-03    -11.6876E-03     43.5225E-03
            2177     13.3495E-03     14.6374E-03     1.06424E+06    -32.0243E+06    -10.2343E+06    -622.061E+03    -18.4703E-03     29.6780E-03    -11.2077E-03     37.8819E-03    -18.4217E-03     29.5493E-03    -11.2140E-03     37.8493E-03
            2178     12.4652E-03     14.6045E-03     1.74752E+06    -34.5426E+06    -3.31403E+06    -751.358E+03    -16.9443E-03     27.7537E-03    -10.8094E-03     31.3487E-03    -16.8896E-03     27.5922E-03    -10.7784E-03     31.3239E-03
            2179     11.5792E-03     14.5771E-03     1.54182E+06    -40.3721E+06    -1.83944E+06    -1.70442E+06    -15.6259E-03     26.0503E-03    -10.4244E-03     25.1543E-03    -15.5615E-03     25.8534E-03    -10.3773E-03     25.1227E-03
            2180     10.6926E-03     14.5551E-03     737.699E+03    -47.3064E+06    -915.239E+03    -2.30204E+06    -14.4495E-03     24.5198E-03    -10.0703E-03     20.3620E-03    -14.3783E-03     24.2860E-03    -10.0073E-03     20.3260E-03
            2181     9.80469E-03     14.5366E-03     511.047E+03    -47.2525E+06     1.83383E+06    -2.12201E+06    -13.3341E-03     23.0809E-03    -9.74684E-03     16.4470E-03    -13.2671E-03     22.8427E-03    -9.66989E-03     16.4154E-03
            2182     8.91621E-03     14.5214E-03     210.867E+03    -51.1366E+06     2.82076E+06    -1.00280E+06    -12.3450E-03     21.7997E-03    -9.45468E-03     13.0937E-03    -12.2747E-03     21.5404E-03    -9.36673E-03     13.0779E-03
            2183     8.02655E-03     14.5090E-03     58.5063E+03    -51.6962E+06     4.46658E+06     533.980E+03    -11.4675E-03     20.6622E-03    -9.19464E-03     10.4589E-03    -11.3992E-03     20.3976E-03    -9.09744E-03     10.4637E-03
            2184     7.13653E-03     14.4987E-03     650.630E+03    -48.4595E+06     5.59796E+06     1.50003E+06    -10.7042E-03     19.6627E-03    -8.95851E-03     8.32619E-03    -10.6390E-03     19.4116E-03    -8.86120E-03     8.34413E-03
            2185     6.24563E-03     14.4903E-03     764.499E+03    -46.3117E+06     5.07382E+06     1.38242E+06    -10.0392E-03     18.7885E-03    -8.74927E-03     6.60853E-03    -9.97574E-03     18.5486E-03    -8.65785E-03     6.62536E-03
            2186     5.35440E-03     14.4833E-03     600.207E+03    -44.1250E+06     4.23823E+06     675.559E+03    -9.47958E-03     18.0513E-03    -8.57171E-03     5.25629E-03    -9.41884E-03     17.8238E-03    -8.48741E-03     5.26429E-03
            2187     4.46255E-03     14.4778E-03     661.246E+03    -42.3413E+06     3.54222E+06     217.096E+03    -9.03304E-03     17.4594E-03    -8.42632E-03     4.10759E-03    -8.97352E-03     17.2416E-03    -8.34817E-03     4.10987E-03
            2188     3.57044E-03     14.4734E-03     540.630E+03    -41.0481E+06     3.00536E+06    -213.165E+03    -8.69534E-03     17.0052E-03    -8.30984E-03     3.11161E-03    -8.63750E-03     16.7948E-03    -8.23608E-03     3.10849E-03
            2189     2.67805E-03     14.4701E-03     208.778E+03    -39.2357E+06     1.96764E+06    -510.846E+03    -8.43848E-03     16.6518E-03    -8.21333E-03     2.24346E-03    -8.38341E-03     16.4525E-03    -8.14690E-03     2.23662E-03
            2190     1.78550E-03     14.4677E-03     95.9363E+03    -37.8165E+06     813.804E+03    -400.306E+03    -8.24990E-03     16.3871E-03    -8.13718E-03     1.46692E-03    -8.19577E-03     16.1967E-03    -8.07841E-03     1.46159E-03
            2191     892.828E-06     14.4664E-03     179.235E+03    -37.7024E+06     296.575E+03    -141.736E+03    -8.14986E-03     16.2096E-03    -8.05975E-03     774.550E-06    -8.09463E-03     16.0205E-03    -8.00385E-03     772.634E-06
            2192     16.8687E-03     13.8939E-03    -2.46326E+06     116.530E+06     25.6575E+06    -353.246E+03    -28.5313E-03     41.9475E-03    -13.4162E-03     108.086E-03    -29.8173E-03     43.5641E-03    -13.4533E-03     108.653E-03
            2193     15.9955E-03     13.8035E-03    -3.15332E+06     64.9287E+06    -16.9688E+06    -1.00567E+06    -26.1065E-03     38.7087E-03    -12.6022E-03     81.2800E-03    -26.5488E-03     39.4197E-03    -12.7766E-03     81.2220E-03
            2194     15.1152E-03     13.7404E-03    -1.25394E+06     30.8262E+06    -11.8029E+06    -1.03883E+06    -22.5450E-03     34.6062E-03    -12.0612E-03     56.1729E-03    -22.6596E-03     34.8601E-03    -12.1631E-03     56.1060E-03
            2195     14.2331E-03     13.6978E-03    -248.756E+03    -9.52927E+06    -9.85469E+06    -1.00699E+06    -20.3884E-03     31.9750E-03    -11.5866E-03     41.0285E-03    -20.3917E-03     31.9723E-03    -11.6217E-03     40.9796E-03
            2196     13.3512E-03     13.6617E-03     635.761E+03    -31.6259E+06    -9.55043E+06    -1.26095E+06    -18.6960E-03     29.8164E-03    -11.1204E-03     35.5183E-03    -18.6495E-03     29.6876E-03    -11.1232E-03     35.4779E-03
            2197     12.4662E-03     13.6297E-03     2.07631E+06    -34.6593E+06    -1.65000E+06    -1.46806E+06    -17.1288E-03     27.8316E-03    -10.7028E-03     29.2736E-03    -17.0739E-03     27.6659E-03    -10.6638E-03     29.2399E-03
            2198     11.5810E-03     13.6043E-03     2.75407E+06    -40.0361E+06     1.65178E+06    -840.697E+03    -15.8321E-03     26.1310E-03    -10.2989E-03     23.0435E-03    -15.7667E-03     25.9285E-03    -10.2366E-03     23.0233E-03
            2199     10.6942E-03     13.5836E-03     2.27822E+06    -46.4574E+06     3.07141E+06    -1.48997E+06    -14.6230E-03     24.5397E-03    -9.91673E-03     18.2535E-03    -14.5509E-03     24.3019E-03    -9.83731E-03     18.2281E-03
            2200     9.80680E-03     13.5665E-03     1.21601E+06    -48.5469E+06     4.47891E+06    -1.64015E+06    -13.4566E-03     23.0170E-03    -9.56046E-03     14.3778E-03    -13.3878E-03     22.7673E-03    -9.46943E-03     14.3526E-03
            2201     8.91804E-03     13.5528E-03    -207.790E+03    -52.8092E+06     4.19750E+06    -223.994E+03    -12.3782E-03     21.6132E-03    -9.23496E-03     11.1564E-03    -12.3094E-03     21.3440E-03    -9.13710E-03     11.1508E-03
            2202     8.02875E-03     13.5414E-03    -1.48636E+06    -52.1744E+06     4.63616E+06     237.265E+03    -11.4151E-03     20.3578E-03    -8.94274E-03     8.70356E-03    -11.3540E-03     20.0928E-03    -8.84175E-03     8.70472E-03
            2203     7.13836E-03     13.5321E-03    -2.04711E+06    -48.8796E+06     4.76567E+06     272.394E+03    -10.5726E-03     19.2533E-03    -8.68064E-03     6.76573E-03    -10.5191E-03     19.0052E-03    -8.58297E-03     6.76793E-03
            2204     6.24757E-03     13.5245E-03    -1.63629E+06    -45.6395E+06     4.09617E+06     415.709E+03    -9.84598E-03     18.2957E-03    -8.44971E-03     5.23624E-03    -9.79405E-03     18.0641E-03    -8.36068E-03     5.24068E-03
            2205     5.35592E-03     13.5184E-03    -1.41934E+06    -43.4820E+06     2.73645E+06     73.4704E+03    -9.24113E-03     17.4943E-03    -8.25316E-03     4.08082E-03    -9.18921E-03     17.2750E-03    -8.17437E-03     4.08112E-03
            2206     4.46399E-03     13.5133E-03    -1.72791E+06    -42.0743E+06     1.56417E+06    -270.023E+03    -8.76357E-03     16.8558E-03    -8.09224E-03     3.10884E-03    -8.71351E-03     16.6457E-03    -8.02090E-03     3.10490E-03
            2207     3.57162E-03     13.5094E-03    -2.14424E+06    -40.7229E+06     294.411E+03    -464.532E+03    -8.38503E-03     16.3454E-03    -7.96039E-03     2.30306E-03    -8.33715E-03     16.1445E-03    -7.89677E-03     2.29674E-03
            2208     2.67899E-03     13.5063E-03    -2.50462E+06    -39.3371E+06    -1.35415E+06    -739.932E+03    -8.09543E-03     15.9497E-03    -7.85424E-03     1.62187E-03    -8.04896E-03     15.7586E-03    -7.80034E-03     1.61210E-03
            2209     1.78611E-03     13.5044E-03    -2.69657E+06    -38.4489E+06    -2.26639E+06    -700.784E+03    -7.89199E-03     15.6701E-03    -7.77807E-03     1.05646E-03    -7.84644E-03     15.4850E-03    -7.72974E-03     1.04729E-03
            2210     893.087E-06     13.5030E-03    -2.68037E+06    -38.2223E+06    -2.56529E+06    -407.672E+03    -7.81431E-03     15.4934E-03    -7.67912E-03     489.304E-06    -7.76849E-03     15.3100E-03    -7.63264E-03     483.972E-06
            2211     16.8737E-03     12.9022E-03    -1.94973E+06     118.462E+06     27.9435E+06    -147.084E+03    -29.2026E-03     42.5814E-03    -13.3788E-03     104.428E-03    -30.4381E-03     44.1497E-03    -13.4080E-03     104.925E-03
            2212     15.9953E-03     12.8208E-03    -1.46110E+06     65.9851E+06    -15.1167E+06    -1.97135E+06    -25.9562E-03     38.4929E-03    -12.5367E-03     75.3303E-03    -26.3522E-03     39.1621E-03    -12.7058E-03     75.2520E-03
            2213     15.1161E-03     12.7586E-03    -1.13288E+06     29.8415E+06    -10.6097E+06    -1.59050E+06    -22.5920E-03     34.5792E-03    -11.9872E-03     52.1551E-03    -22.6979E-03     34.8179E-03    -12.0819E-03     52.0813E-03
            2214     14.2358E-03     12.7195E-03    -832.663E+03    -9.29872E+06    -9.86743E+06    -1.31290E+06    -20.3963E-03     31.8901E-03    -11.4938E-03     38.1142E-03    -20.3998E-03     31.8863E-03    -11.5284E-03     38.0625E-03
            2215     13.3519E-03     12.6851E-03    -128.744E+03    -30.9450E+06    -9.55015E+06    -1.84132E+06    -18.9451E-03     29.9538E-03    -11.0087E-03     33.0504E-03    -18.9017E-03     29.8279E-03    -11.0114E-03     33.0031E-03
            2216     12.4685E-03     12.6551E-03    -449.612E+03    -35.6790E+06    -1.06436E+06    -1.42256E+06    -17.4945E-03     28.0602E-03    -10.5658E-03     26.8632E-03    -17.4506E-03     27.8913E-03    -10.5187E-03     26.8304E-03
            2217     11.5828E-03     12.6313E-03    -773.064E+03    -39.9209E+06     1.34689E+06    -1.34268E+06    -16.1081E-03     26.2263E-03    -10.1182E-03     20.6686E-03    -16.0596E-03     26.0295E-03    -10.0524E-03     20.6423E-03
            2218     10.6968E-03     12.6120E-03     149.899E+03    -45.5246E+06     3.91621E+06    -1.84693E+06    -14.8399E-03     24.5394E-03    -9.69946E-03     15.8856E-03    -14.7807E-03     24.3078E-03    -9.61408E-03     15.8559E-03
            2219     9.80918E-03     12.5967E-03     17.3328E+03    -50.8828E+06     6.18300E+06    -685.350E+03    -13.5722E-03     22.8853E-03    -9.31310E-03     12.0508E-03    -13.5083E-03     22.6229E-03    -9.20843E-03     12.0380E-03
            2220     8.92089E-03     12.5841E-03    -1.32757E+06    -53.5801E+06     5.65672E+06     751.022E+03    -12.3972E-03     21.3465E-03    -8.94929E-03     9.04700E-03    -12.3349E-03     21.0729E-03    -8.84140E-03     9.05406E-03
            2221     8.03128E-03     12.5742E-03    -2.60749E+06    -51.5960E+06     4.58073E+06     578.223E+03    -11.3331E-03     19.9496E-03    -8.61649E-03     6.80439E-03    -11.2782E-03     19.6890E-03    -8.51499E-03     6.81007E-03
            2222     7.14107E-03     12.5659E-03    -3.45831E+06    -48.5112E+06     2.87166E+06    -292.547E+03    -10.3924E-03     18.7124E-03    -8.32004E-03     5.11349E-03    -10.3437E-03     18.4709E-03    -8.23033E-03     5.10852E-03
            2223     6.24983E-03     12.5594E-03    -3.94377E+06    -45.6972E+06     1.90772E+06    -767.273E+03    -9.61488E-03     17.6818E-03    -8.06689E-03     3.79777E-03    -9.57120E-03     17.4563E-03    -7.98537E-03     3.78704E-03
            2224     5.35822E-03     12.5539E-03    -4.11038E+06    -43.4204E+06     952.643E+03    -521.691E+03    -8.96648E-03     16.8166E-03    -7.85009E-03     2.82761E-03    -8.92550E-03     16.6041E-03    -7.77641E-03     2.82030E-03
            2225     4.46591E-03     12.5495E-03    -4.55666E+06    -41.9786E+06    -1.06966E+06    -416.064E+03    -8.42491E-03     16.0893E-03    -7.66435E-03     2.06809E-03    -8.38530E-03     15.8875E-03    -7.60223E-03     2.06231E-03
            2226     3.57325E-03     12.5460E-03    -5.07004E+06    -40.5490E+06    -3.15046E+06    -682.788E+03    -7.99072E-03     15.5035E-03    -7.51281E-03     1.46887E-03    -7.95273E-03     15.3127E-03    -7.46242E-03     1.45977E-03
            2227     2.68019E-03     12.5435E-03    -5.31590E+06    -39.5256E+06    -4.52986E+06    -840.178E+03    -7.66100E-03     15.0597E-03    -7.39870E-03     1.00062E-03    -7.62371E-03     14.8763E-03    -7.35633E-03     989.580E-06
            2228     1.78694E-03     12.5416E-03    -5.51877E+06    -39.1160E+06    -5.23536E+06    -716.088E+03    -7.43740E-03     14.7578E-03    -7.32039E-03     629.818E-06    -7.40069E-03     14.5778E-03    -7.28185E-03     620.458E-06
            2229     893.500E-06     12.5406E-03    -5.78251E+06    -39.0364E+06    -5.73042E+06    -414.432E+03    -7.38661E-03     14.5764E-03    -7.18978E-03     253.945E-06    -7.35053E-03     14.3980E-03    -7.15344E-03     248.536E-06
            2230     16.8738E-03     11.9159E-03    -3.55297E+06     120.705E+06     28.7897E+06    -441.774E+03    -29.9000E-03     43.2157E-03    -13.3157E-03     100.982E-03    -31.0859E-03     44.7344E-03    -13.3416E-03     101.400E-03
            2231     15.9981E-03     11.8355E-03    -3.20181E+06     68.1517E+06    -14.6923E+06    -1.80486E+06    -25.8204E-03     38.2669E-03    -12.4466E-03     71.9045E-03    -26.1985E-03     38.9184E-03    -12.6142E-03     71.8245E-03
            2232     15.1193E-03     11.7784E-03    -2.26839E+06     27.9016E+06    -11.6147E+06    -2.29083E+06    -22.5530E-03     34.4422E-03    -11.8893E-03     49.4596E-03    -22.6525E-03     34.6667E-03    -11.9845E-03     49.3780E-03
            2233     14.2359E-03     11.7414E-03    -1.01674E+06    -9.44488E+06    -8.82279E+06    -1.44093E+06    -20.5953E-03     31.9830E-03    -11.3877E-03     36.2585E-03    -20.5982E-03     31.9744E-03    -11.4166E-03     36.2063E-03
            2234     13.3544E-03     11.7080E-03    -1.43225E+06    -31.2543E+06    -8.04069E+06    -704.594E+03    -19.4481E-03     30.3212E-03    -10.8730E-03     30.5386E-03    -19.4115E-03     30.1919E-03    -10.8659E-03     30.5062E-03
            2235     12.4703E-03     11.6803E-03    -2.40221E+06    -36.1131E+06     419.974E+03    -663.662E+03    -17.9584E-03     28.3413E-03    -10.3830E-03     24.0078E-03    -17.9249E-03     28.1700E-03    -10.3250E-03     23.9850E-03
            2236     11.5860E-03     11.6580E-03    -2.59969E+06    -38.3380E+06     1.97349E+06    -1.99722E+06    -16.4310E-03     26.3108E-03    -9.87975E-03     18.0005E-03    -16.3943E-03     26.1231E-03    -9.81052E-03     17.9660E-03
            2237     10.6996E-03     11.6407E-03    -3.36147E+06    -46.6586E+06     2.83342E+06    -2.19280E+06    -14.9952E-03     24.4112E-03    -9.41601E-03     13.3052E-03    -14.9500E-03     24.1803E-03    -9.32932E-03     13.2712E-03
            2238     9.81261E-03     11.6268E-03    -4.41266E+06    -53.2151E+06     5.31527E+06    -412.764E+03    -13.5926E-03     22.5897E-03    -8.99715E-03     9.67067E-03    -13.5460E-03     22.3232E-03    -8.88701E-03     9.66160E-03
            2239     8.92396E-03     11.6161E-03    -4.70903E+06    -53.6483E+06     4.70961E+06     446.963E+03    -12.3050E-03     20.9019E-03    -8.59698E-03     7.05455E-03    -12.2580E-03     20.6342E-03    -8.48881E-03     7.05785E-03
            2240     8.03459E-03     11.6072E-03    -4.51548E+06    -50.8571E+06     4.00524E+06     139.156E+03    -11.1594E-03     19.3957E-03    -8.23623E-03     5.09024E-03    -11.1143E-03     19.1424E-03    -8.13591E-03     5.09037E-03
            2241     7.14396E-03     11.6005E-03    -4.81121E+06    -47.6743E+06     2.14922E+06    -480.772E+03    -10.1599E-03     18.0745E-03    -7.91455E-03     3.71125E-03    -10.1181E-03     17.8401E-03    -7.82770E-03     3.70392E-03
            2242     6.25274E-03     11.5946E-03    -5.72696E+06    -45.8279E+06     17.1270E+03    -881.514E+03    -9.33233E-03     16.9679E-03    -7.63558E-03     2.66912E-03    -9.29462E-03     16.7471E-03    -7.56074E-03     2.65695E-03
            2243     5.36068E-03     11.5902E-03    -6.91126E+06    -43.8972E+06    -1.88539E+06    -797.182E+03    -8.63127E-03     16.0265E-03    -7.39525E-03     1.90898E-03    -8.59949E-03     15.8198E-03    -7.33100E-03     1.89813E-03
            2244     4.46814E-03     11.5865E-03    -7.45164E+06    -41.8752E+06    -4.15921E+06    -781.967E+03    -8.04004E-03     15.2285E-03    -7.18846E-03     1.35119E-03    -8.01057E-03     15.0360E-03    -7.13773E-03     1.34070E-03
            2245     3.57506E-03     11.5837E-03    -7.52936E+06    -40.5844E+06    -5.90585E+06    -899.363E+03    -7.56557E-03     14.5865E-03    -7.02097E-03     896.317E-06    -7.53582E-03     14.4031E-03    -6.98074E-03     884.427E-06
            2246     2.68164E-03     11.5815E-03    -7.83177E+06    -39.9654E+06    -6.97158E+06    -790.955E+03    -7.20105E-03     14.0943E-03    -6.89326E-03     554.791E-06    -7.17215E-03     13.9159E-03    -6.85881E-03     544.389E-06
            2247     1.78788E-03     11.5800E-03    -8.30257E+06    -39.7598E+06    -8.01323E+06    -487.699E+03    -6.93734E-03     13.7389E-03    -6.80151E-03     308.273E-06    -6.90959E-03     13.5637E-03    -6.77189E-03     301.858E-06
            2248     894.008E-06     11.5790E-03    -8.62418E+06    -39.6522E+06    -8.55618E+06    -250.181E+03    -6.84350E-03     13.5286E-03    -6.68509E-03     110.312E-06    -6.81664E-03     13.3553E-03    -6.65787E-03     107.016E-06
            2249     16.8748E-03     10.9269E-03    -3.27719E+06     121.784E+06     28.7903E+06    -155.859E+03    -29.6171E-03     42.9151E-03    -13.2980E-03     97.3791E-03    -30.7247E-03     44.3601E-03    -13.3259E-03     97.7489E-03
            2250     15.9984E-03     10.8508E-03    -4.14104E+06     68.6915E+06    -14.1577E+06    -1.07750E+06    -26.3328E-03     38.7536E-03    -12.4208E-03     69.5467E-03    -26.6969E-03     39.3881E-03    -12.5852E-03     69.4679E-03
            2251     15.1180E-03     10.7985E-03    -3.84635E+06     27.9121E+06    -10.8340E+06    -2.25783E+06    -23.3632E-03     35.1851E-03    -11.8219E-03     46.3298E-03    -23.4642E-03     35.4032E-03    -11.9110E-03     46.2470E-03
            2252     14.2388E-03     10.7619E-03    -4.32802E+06    -10.2737E+06    -8.66464E+06    -1.36047E+06    -21.4115E-03     32.6732E-03    -11.2617E-03     33.8242E-03    -21.4274E-03     32.6624E-03    -11.2838E-03     33.7726E-03
            2253     13.3564E-03     10.7310E-03    -3.74274E+06    -32.1411E+06    -7.02936E+06    -574.052E+03    -20.1102E-03     30.7989E-03    -10.6887E-03     27.6081E-03    -20.0837E-03     30.6655E-03    -10.6718E-03     27.5775E-03
            2254     12.4741E-03     10.7047E-03    -2.55599E+06    -35.0289E+06     2.73101E+06    -1.02808E+06    -18.4065E-03     28.5493E-03    -10.1427E-03     21.0025E-03    -18.3778E-03     28.3793E-03    -10.0746E-03     20.9755E-03
            2255     11.5892E-03     10.6851E-03    -2.84817E+06    -37.2468E+06     4.17737E+06    -1.87742E+06    -16.6576E-03     26.2492E-03    -9.59160E-03     15.2000E-03    -16.6264E-03     26.0636E-03    -9.51258E-03     15.1674E-03
            2256     10.7037E-03     10.6691E-03    -3.90066E+06    -48.2945E+06     3.60476E+06    -1.41952E+06    -14.9767E-03     24.0667E-03    -9.09005E-03     10.7920E-03    -14.9326E-03     23.8270E-03    -8.99635E-03     10.7684E-03
            2257     9.81608E-03     10.6577E-03    -5.13416E+06    -54.6821E+06     5.73666E+06    -395.502E+03    -13.4124E-03     22.0596E-03    -8.64722E-03     7.61986E-03    -13.3677E-03     21.7860E-03    -8.53180E-03     7.61122E-03
            2258     8.92760E-03     10.6481E-03    -6.07983E+06    -53.1068E+06     4.41136E+06    -401.611E+03    -12.0294E-03     20.2572E-03    -8.22777E-03     5.47880E-03    -11.9895E-03     19.9945E-03    -8.11990E-03     5.47127E-03
            2259     8.03768E-03     10.6412E-03    -6.60346E+06    -50.6113E+06     3.05310E+06    -872.018E+03    -10.8401E-03     18.6962E-03    -7.85609E-03     3.94221E-03    -10.8044E-03     18.4485E-03    -7.75786E-03     3.92936E-03
            2260     7.14700E-03     10.6353E-03    -7.02242E+06    -47.4668E+06     1.37054E+06    -855.990E+03    -9.84263E-03     17.3693E-03    -7.52664E-03     2.89451E-03    -9.81103E-03     17.1403E-03    -7.44077E-03     2.88235E-03
            2261     6.25532E-03     10.6309E-03    -7.82514E+06    -46.0545E+06    -1.43467E+06    -656.244E+03    -8.99503E-03     16.2300E-03    -7.23499E-03     2.10525E-03    -8.96537E-03     16.0133E-03    -7.16404E-03     2.09598E-03
            2262     5.36303E-03     10.6272E-03    -8.60348E+06    -43.9117E+06    -4.16320E+06    -748.628E+03    -8.28052E-03     15.2604E-03    -6.97986E-03     1.50127E-03    -8.25387E-03     15.0594E-03    -6.92452E-03     1.49103E-03
            2263     4.47010E-03     10.6244E-03    -9.24074E+06    -41.8447E+06    -6.52667E+06    -1.09760E+06    -7.67746E-03     14.4392E-03    -6.76171E-03     1.05894E-03    -7.65355E-03     14.2528E-03    -6.72027E-03     1.04436E-03
            2264     3.57671E-03     10.6221E-03    -9.76816E+06    -41.0712E+06    -8.09557E+06    -1.01311E+06    -7.18472E-03     13.7682E-03    -6.58350E-03     706.912E-06    -7.16228E-03     13.5888E-03    -6.55026E-03     693.537E-06
            2265     2.68291E-03     10.6205E-03    -10.2644E+06    -40.5746E+06    -9.26477E+06    -566.129E+03    -6.79537E-03     13.2362E-03    -6.44079E-03     426.083E-06    -6.77444E-03     13.0616E-03    -6.41340E-03     418.565E-06
            2266     1.78884E-03     10.6193E-03    -10.7208E+06    -40.2158E+06    -10.2453E+06    -270.685E+03    -6.49626E-03     12.8307E-03    -6.33449E-03     219.586E-06    -6.47670E-03     12.6601E-03    -6.31185E-03     215.956E-06
            2267     894.431E-06     10.6187E-03    -10.9575E+06    -39.9943E+06    -10.8957E+06    -118.308E+03    -6.36369E-03     12.5795E-03    -6.21583E-03     73.2758E-06    -6.34460E-03     12.4113E-03    -6.19643E-03     71.6714E-06
            2268     16.8731E-03     9.94070E-03    -3.35235E+06     122.315E+06     30.0614E+06     371.503E+03    -29.9789E-03     43.3018E-03    -13.3229E-03     95.1082E-03    -31.0370E-03     44.6952E-03    -13.3451E-03     95.4388E-03
            2269     15.9963E-03     9.86376E-03    -5.40407E+06     70.3991E+06    -12.2554E+06    -1.05613E+06    -27.8213E-03     40.2133E-03    -12.3920E-03     63.5454E-03    -28.1716E-03     40.8303E-03    -12.5476E-03     63.4424E-03
            2270     15.1218E-03     9.81634E-03    -5.70949E+06     27.4841E+06    -10.0891E+06    -1.30278E+06    -24.2341E-03     35.9462E-03    -11.7121E-03     41.0141E-03    -24.3361E-03     36.1549E-03    -11.7941E-03     40.9422E-03
            2271     14.2405E-03     9.78263E-03    -5.41427E+06    -10.9415E+06    -9.08460E+06    -1.16428E+06    -22.2014E-03     33.2825E-03    -11.0811E-03     31.1361E-03    -22.2190E-03     33.2685E-03    -11.1028E-03     31.0867E-03
            2272     13.3604E-03     9.75262E-03    -4.43167E+06    -32.0504E+06    -7.45225E+06    -1.90310E+06    -20.6897E-03     31.1361E-03    -10.4464E-03     24.6515E-03    -20.6646E-03     31.0032E-03    -10.4307E-03     24.6043E-03
            2273     12.4773E-03     9.72982E-03    -3.98469E+06    -35.0186E+06     2.99066E+06    -1.72420E+06    -18.6904E-03     28.5452E-03    -9.85483E-03     18.0874E-03    -18.6684E-03     28.3762E-03    -9.78332E-03     18.0519E-03
            2274     11.5936E-03     9.71146E-03    -4.70849E+06    -36.8947E+06     5.39013E+06    -1.32760E+06    -16.5690E-03     25.8458E-03    -9.27681E-03     12.5842E-03    -16.5489E-03     25.6625E-03    -9.18953E-03     12.5592E-03
            2275     10.7072E-03     9.69889E-03    -5.81087E+06    -49.3597E+06     3.68135E+06    -1.19793E+06    -14.6379E-03     23.3990E-03    -8.76111E-03     8.84267E-03    -14.6018E-03     23.1565E-03    -8.66270E-03     8.82223E-03
            2276     9.81970E-03     9.68856E-03    -6.16972E+06    -55.1807E+06     5.83100E+06    -876.204E+03    -12.9839E-03     21.3038E-03    -8.31990E-03     6.26408E-03    -12.9438E-03     21.0290E-03    -8.20178E-03     6.24944E-03
            2277     8.93051E-03     9.68152E-03    -6.49121E+06    -52.6730E+06     4.28748E+06    -867.697E+03    -11.5577E-03     19.4664E-03    -7.90873E-03     4.57545E-03    -11.5203E-03     19.2066E-03    -7.80150E-03     4.56201E-03
            2278     8.04032E-03     9.67549E-03    -7.37331E+06    -50.4633E+06     1.56883E+06    -1.16257E+06    -10.3961E-03     17.9425E-03    -7.54646E-03     3.47952E-03    -10.3623E-03     17.6989E-03    -7.45476E-03     3.46296E-03
            2279     7.14910E-03     9.67126E-03    -8.56611E+06    -47.9968E+06    -470.828E+03    -1.08940E+06    -9.44916E-03     16.6806E-03    -7.23147E-03     2.70585E-03    -9.42185E-03     16.4539E-03    -7.15181E-03     2.69068E-03
            2280     6.25719E-03     9.66759E-03    -9.32409E+06    -46.2147E+06    -2.68558E+06    -891.189E+03    -8.65120E-03     15.6042E-03    -6.95296E-03     2.11893E-03    -8.62700E-03     15.3906E-03    -6.88586E-03     2.10661E-03
            2281     5.36459E-03     9.66499E-03    -9.80265E+06    -43.8240E+06    -5.17369E+06    -982.222E+03    -7.96661E-03     14.6726E-03    -6.70603E-03     1.64905E-03    -7.94463E-03     14.4753E-03    -6.65414E-03     1.63577E-03
            2282     4.47142E-03     9.66279E-03    -10.4150E+06    -42.0466E+06    -7.74175E+06    -905.934E+03    -7.38400E-03     13.8773E-03    -6.49326E-03     1.27687E-03    -7.36391E-03     13.6934E-03    -6.45590E-03     1.26473E-03
            2283     3.57776E-03     9.66129E-03    -11.2991E+06    -41.6564E+06    -9.74815E+06    -703.442E+03    -6.89891E-03     13.2184E-03    -6.31952E-03     976.445E-06    -6.88088E-03     13.0407E-03    -6.29148E-03     967.044E-06
            2284     2.68370E-03     9.66006E-03    -11.9464E+06    -41.1164E+06    -10.9293E+06    -487.813E+03    -6.51696E-03     12.7004E-03    -6.18344E-03     706.930E-06    -6.50123E-03     12.5280E-03    -6.16114E-03     700.408E-06
            2285     1.78930E-03     9.65941E-03    -12.1705E+06    -40.5433E+06    -11.5956E+06    -258.418E+03    -6.24060E-03     12.3231E-03    -6.08246E-03     452.669E-06    -6.22584E-03     12.1548E-03    -6.06401E-03     449.187E-06
            2286     894.769E-06     9.65892E-03    -12.3652E+06    -40.2163E+06    -12.0444E+06     -93.888E+03    -6.12017E-03     12.0771E-03    -5.95698E-03     241.742E-06    -6.10613E-03     11.9116E-03    -5.94096E-03     240.449E-06
            2287     16.8711E-03     8.94586E-03    -3.68190E+06     124.093E+06     32.6216E+06     781.346E+03    -31.6601E-03     44.9121E-03    -13.2520E-03     89.1974E-03    -32.6694E-03     46.2545E-03    -13.2635E-03     89.4436E-03
            2288     16.0034E-03     8.87633E-03    -3.98706E+06     72.0957E+06    -7.76022E+06     16.5123E+03    -27.8234E-03     40.0913E-03    -12.2679E-03     56.3164E-03    -28.1354E-03     40.6679E-03    -12.4054E-03     56.2203E-03
            2289     15.1227E-03     8.83559E-03    -4.79832E+06     26.7342E+06    -7.19426E+06    -388.208E+03    -24.5682E-03     36.1263E-03    -11.5581E-03     38.0907E-03    -24.6627E-03     36.3197E-03    -11.6258E-03     38.0318E-03
            2290     14.2446E-03     8.80112E-03    -5.48417E+06    -9.66669E+06    -7.11239E+06    -1.33001E+06    -22.9804E-03     33.8529E-03    -10.8725E-03     28.4773E-03    -23.0011E-03     33.8406E-03    -10.8861E-03     28.4254E-03
            2291     13.3634E-03     8.77549E-03    -5.73306E+06    -31.8018E+06    -5.76163E+06    -1.97336E+06    -20.9946E-03     31.1817E-03    -10.1871E-03     21.5629E-03    -20.9773E-03     31.0480E-03    -10.1615E-03     21.5157E-03
            2292     12.4818E-03     8.75354E-03    -6.48961E+06    -35.5116E+06     3.49412E+06    -2.00878E+06    -18.5098E-03     28.0765E-03    -9.56670E-03     15.2347E-03    -18.4995E-03     27.9072E-03    -9.48833E-03     15.1965E-03
            2293     11.5969E-03     8.73979E-03    -6.86968E+06    -37.4066E+06     6.24609E+06    -1.61187E+06    -16.0155E-03     25.0093E-03    -8.99387E-03     10.5215E-03    -16.0064E-03     24.8251E-03    -8.89844E-03     10.4936E-03
            2294     10.7104E-03     8.72841E-03    -7.12383E+06    -49.3110E+06     4.56822E+06    -1.50548E+06    -13.9837E-03     22.4849E-03    -8.50116E-03     7.61878E-03    -13.9554E-03     22.2431E-03    -8.39649E-03     7.59474E-03
            2295     9.82205E-03     8.72109E-03    -7.61818E+06    -55.3922E+06     5.09473E+06    -1.85813E+06    -12.3127E-03     20.4004E-03    -8.08778E-03     5.68217E-03    -12.2784E-03     20.1278E-03    -7.97094E-03     5.65509E-03
            2296     8.93243E-03     8.71503E-03    -8.05130E+06    -53.0717E+06     3.51614E+06    -1.57225E+06    -10.9597E-03     18.6763E-03    -7.71667E-03     4.48813E-03    -10.9284E-03     18.4180E-03    -7.61046E-03     4.46569E-03
            2297     8.04167E-03     8.71099E-03    -8.66600E+06    -50.4541E+06     497.772E+03    -1.16323E+06    -9.89277E-03     17.2841E-03    -7.39135E-03     3.75612E-03    -9.86389E-03     17.0440E-03    -7.30314E-03     3.73958E-03
            2298     7.15007E-03     8.70742E-03    -9.38666E+06    -48.3913E+06    -1.86500E+06    -1.18816E+06    -9.04063E-03     16.1530E-03    -7.11238E-03     3.18488E-03    -9.01485E-03     15.9275E-03    -7.03793E-03     3.16842E-03
            2299     6.25780E-03     8.70506E-03    -10.1063E+06    -46.3295E+06    -4.43663E+06    -1.20263E+06    -8.31487E-03     15.1834E-03    -6.86854E-03     2.73421E-03    -8.29189E-03     14.9730E-03    -6.80889E-03     2.71785E-03
            2300     5.36491E-03     8.70304E-03    -10.8300E+06    -44.0711E+06    -6.82765E+06    -1.11049E+06    -7.70018E-03     14.3601E-03    -6.65990E-03     2.39731E-03    -7.68060E-03     14.1654E-03    -6.61443E-03     2.38236E-03
            2301     4.47154E-03     8.70177E-03    -11.4905E+06    -42.6259E+06    -8.57197E+06    -778.048E+03    -7.19752E-03     13.6862E-03    -6.48863E-03     2.06646E-03    -7.18078E-03     13.5022E-03    -6.45302E-03     2.05596E-03
            2302     3.57771E-03     8.70071E-03    -11.9136E+06    -41.9202E+06    -10.0525E+06    -508.133E+03    -6.79009E-03     13.1420E-03    -6.35189E-03     1.73351E-03    -6.77432E-03     12.9643E-03    -6.32410E-03     1.72662E-03
            2303     2.68354E-03     8.70010E-03    -12.1898E+06    -41.4296E+06    -11.2160E+06    -537.946E+03    -6.48280E-03     12.7324E-03    -6.24965E-03     1.35966E-03    -6.46742E-03     12.5592E-03    -6.22798E-03     1.35249E-03
            2304     1.78916E-03     8.69961E-03    -12.3308E+06    -40.9846E+06    -11.8294E+06    -470.347E+03    -6.28088E-03     12.4612E-03    -6.18031E-03     941.906E-06    -6.26595E-03     12.2913E-03    -6.16215E-03     935.694E-06
            2305     894.573E-06     8.69949E-03    -12.2180E+06    -40.5570E+06    -11.9742E+06    -293.386E+03    -6.20922E-03     12.3042E-03    -6.09501E-03     517.096E-06    -6.19406E-03     12.1366E-03    -6.07836E-03     513.231E-06
            2306     16.8842E-03     7.95270E-03    -2.63262E+06     123.241E+06     35.1285E+06     1.79045E+06    -32.1996E-03     45.3361E-03    -13.1365E-03     85.9842E-03    -33.1490E-03     46.6124E-03    -13.1358E-03     86.1713E-03
            2307     16.0014E-03     7.89485E-03    -2.76998E+06     73.5072E+06    -1.53027E+06     2.77436E+06    -27.5894E-03     39.7379E-03    -12.1485E-03     53.8129E-03    -27.8798E-03     40.2838E-03    -12.2587E-03     53.7589E-03
            2308     15.1259E-03     7.84976E-03    -5.47513E+06     28.9637E+06    -1.13445E+06    -113.567E+03    -25.4882E-03     36.8945E-03    -11.4064E-03     35.1158E-03    -25.5940E-03     37.0873E-03    -11.4461E-03     35.0584E-03
            2309     14.2475E-03     7.82184E-03    -6.45996E+06    -8.52018E+06    -3.78875E+06    -1.42605E+06    -23.3549E-03     34.0098E-03    -10.6549E-03     25.3061E-03    -23.3845E-03     33.9974E-03    -10.6521E-03     25.2539E-03
            2310     13.3680E-03     7.79603E-03    -7.01578E+06    -31.4840E+06    -2.90242E+06    -1.67502E+06    -20.7399E-03     30.6871E-03    -9.94712E-03     18.7792E-03    -20.7325E-03     30.5515E-03    -9.90580E-03     18.7373E-03
            2311     12.4849E-03     7.78017E-03    -7.03076E+06    -35.1950E+06     5.48324E+06    -2.48621E+06    -17.7016E-03     27.0412E-03    -9.33958E-03     12.9663E-03    -17.6967E-03     26.8707E-03    -9.25094E-03     12.9233E-03
            2312     11.5994E-03     7.76760E-03    -7.14215E+06    -38.1993E+06     8.03512E+06    -2.74345E+06    -15.0585E-03     23.8741E-03    -8.81564E-03     9.35644E-03    -15.0520E-03     23.6835E-03    -8.70972E-03     9.31468E-03
            2313     10.7120E-03     7.76004E-03    -7.31466E+06    -49.5047E+06     6.01621E+06    -2.22291E+06    -13.0439E-03     21.4270E-03    -8.38304E-03     7.28750E-03    -13.0184E-03     21.1823E-03    -8.27057E-03     7.25458E-03
            2314     9.82278E-03     7.75370E-03    -8.26313E+06    -55.3526E+06     4.19643E+06    -2.02629E+06    -11.4973E-03     19.5235E-03    -8.02620E-03     6.03568E-03    -11.4651E-03     19.2533E-03    -7.91298E-03     6.00665E-03
            2315     8.93246E-03     7.74991E-03    -9.52910E+06    -53.8080E+06     1.46212E+06    -2.06595E+06    -10.3212E-03     18.0392E-03    -7.71809E-03     5.22732E-03    -10.2933E-03     17.7823E-03    -7.61894E-03     5.19861E-03
            2316     8.04115E-03     7.74653E-03    -9.99452E+06    -50.7694E+06    -610.511E+03    -1.86906E+06    -9.39977E-03     16.8597E-03    -7.45991E-03     4.78808E-03    -9.37551E-03     16.6215E-03    -7.37486E-03     4.76248E-03
            2317     7.14924E-03     7.74432E-03    -10.1926E+06    -48.6934E+06    -2.65755E+06    -1.61533E+06    -8.66177E-03     15.9065E-03    -7.24472E-03     4.36482E-03    -8.63845E-03     15.6819E-03    -7.17262E-03     4.34288E-03
            2318     6.25661E-03     7.74255E-03    -10.6487E+06    -46.6505E+06    -5.68151E+06    -1.37490E+06    -8.05467E-03     15.1175E-03    -7.06284E-03     3.97138E-03    -8.03215E-03     14.9081E-03    -7.00816E-03     3.95282E-03
            2319     5.36352E-03     7.74146E-03    -11.0548E+06    -44.4467E+06    -7.73846E+06    -1.20191E+06    -7.57653E-03     14.4970E-03    -6.92047E-03     3.62874E-03    -7.55621E-03     14.3021E-03    -6.87868E-03     3.61263E-03
            2320     4.46999E-03     7.74053E-03    -11.2330E+06    -43.1738E+06    -8.49793E+06    -1.05692E+06    -7.22340E-03     14.0395E-03    -6.81612E-03     3.19067E-03    -7.20469E-03     13.8523E-03    -6.77971E-03     3.17659E-03
            2321     3.57626E-03     7.74007E-03    -11.1979E+06    -42.1819E+06    -9.11611E+06    -949.091E+03    -6.96526E-03     13.7042E-03    -6.73897E-03     2.69056E-03    -6.94690E-03     13.5228E-03    -6.70715E-03     2.67800E-03
            2322     2.68232E-03     7.73963E-03    -11.0376E+06    -41.7301E+06    -9.86942E+06    -850.434E+03    -6.78955E-03     13.4752E-03    -6.68563E-03     2.12101E-03    -6.76994E-03     13.2968E-03    -6.65847E-03     2.10982E-03
            2323     1.78823E-03     7.73947E-03    -10.9097E+06    -41.5286E+06    -10.5432E+06    -736.594E+03    -6.68927E-03     13.3428E-03    -6.65354E-03     1.47483E-03    -6.66833E-03     13.1663E-03    -6.63022E-03     1.46519E-03
            2324     894.161E-06     7.73925E-03    -10.8416E+06    -41.3042E+06    -10.7331E+06    -484.270E+03    -6.67081E-03     13.2844E-03    -6.61362E-03     796.942E-06    -6.64949E-03     13.1093E-03    -6.59168E-03     790.618E-06
            2325     16.8726E-03     6.96792E-03    -5.86639E+06     120.383E+06     36.7721E+06     1.58096E+06    -32.7681E-03     45.9253E-03    -13.1572E-03     83.0160E-03    -33.6631E-03     47.1206E-03    -13.1394E-03     83.1444E-03
            2326     16.0052E-03     6.90340E-03    -7.50879E+06     74.1901E+06     3.31817E+06     2.01440E+06    -29.8933E-03     41.9912E-03    -12.0978E-03     50.9779E-03    -30.2046E-03     42.5297E-03    -12.1779E-03     50.8942E-03
            2327     15.1300E-03     6.86833E-03    -5.77811E+06     32.5058E+06     3.20812E+06     1.31421E+06    -26.3046E-03     37.5489E-03    -11.2443E-03     31.2580E-03    -26.4175E-03     37.7478E-03    -11.2670E-03     31.2190E-03
            2328     14.2513E-03     6.83930E-03    -6.54437E+06    -7.64461E+06    -391.185E+03    -668.740E+03    -22.8209E-03     33.2908E-03    -10.4699E-03     23.0920E-03    -22.8546E-03     33.2755E-03    -10.4513E-03     23.0531E-03
            2329     13.3702E-03     6.82006E-03    -6.94387E+06    -30.4907E+06     159.786E+03    -2.23941E+06    -19.7053E-03     29.5028E-03    -9.79754E-03     16.6738E-03    -19.7022E-03     29.3666E-03    -9.74246E-03     16.6271E-03
            2330     12.4864E-03     6.80611E-03    -7.13648E+06    -34.4866E+06     7.79413E+06    -3.22209E+06    -16.3869E-03     25.6449E-03    -9.25797E-03     11.8537E-03    -16.3865E-03     25.4743E-03    -9.15865E-03     11.8028E-03
            2331     11.5999E-03     6.79808E-03    -7.94911E+06    -38.8753E+06     10.0294E+06    -3.45329E+06    -13.7678E-03     22.5954E-03    -8.82755E-03     9.51676E-03    -13.7672E-03     22.3995E-03    -8.70951E-03     9.46662E-03
            2332     10.7110E-03     6.79170E-03    -9.19336E+06    -50.6520E+06     6.13132E+06    -2.76815E+06    -11.9932E-03     20.4774E-03    -8.48415E-03     8.25500E-03    -11.9756E-03     20.2296E-03    -8.36671E-03     8.21547E-03
            2333     9.82114E-03     6.78787E-03    -9.81258E+06    -55.3815E+06     3.03137E+06    -2.35242E+06    -10.7178E-03     18.9273E-03    -8.20951E-03     7.39003E-03    -10.6916E-03     18.6609E-03    -8.09982E-03     7.35701E-03
            2334     8.93008E-03     6.78465E-03    -9.94582E+06    -53.8898E+06     353.576E+03    -2.64152E+06    -9.76257E-03     17.7474E-03    -7.98484E-03     6.82866E-03    -9.73509E-03     17.4923E-03    -7.89051E-03     6.79267E-03
            2335     8.03849E-03     6.78276E-03    -10.1145E+06    -51.2376E+06    -1.68872E+06    -2.85105E+06    -9.02656E-03     16.8350E-03    -7.80841E-03     6.43850E-03    -9.00067E-03     16.5962E-03    -7.72789E-03     6.40032E-03
            2336     7.14604E-03     6.78097E-03    -10.0716E+06    -49.4110E+06    -3.52841E+06    -2.50097E+06    -8.44843E-03     16.1232E-03    -7.67480E-03     6.00194E-03    -8.42222E-03     15.8961E-03    -7.60619E-03     5.96865E-03
            2337     6.25334E-03     6.78012E-03    -9.79544E+06    -47.2621E+06    -4.71096E+06    -2.00261E+06    -8.04477E-03     15.6233E-03    -7.57848E-03     5.48362E-03    -8.01852E-03     15.4081E-03    -7.51930E-03     5.45702E-03
            2338     5.36023E-03     6.77927E-03    -9.60152E+06    -44.8384E+06    -5.84503E+06    -1.74014E+06    -7.76294E-03     15.2728E-03    -7.50985E-03     4.95384E-03    -7.73756E-03     15.0711E-03    -7.46014E-03     4.93083E-03
            2339     4.46704E-03     6.77882E-03    -9.35359E+06    -43.5029E+06    -6.93812E+06    -1.76342E+06    -7.58251E-03     15.0477E-03    -7.46521E-03     4.29461E-03    -7.55621E-03     14.8539E-03    -7.42326E-03     4.27145E-03
            2340     3.57365E-03     6.77840E-03    -8.97716E+06    -42.7371E+06    -7.26152E+06    -1.70697E+06    -7.48310E-03     14.9247E-03    -7.44158E-03     3.55429E-03    -7.45554E-03     14.7345E-03    -7.40290E-03     3.53197E-03
            2341     2.68024E-03     6.77822E-03    -8.68750E+06    -42.4031E+06    -7.62281E+06    -1.40780E+06    -7.43711E-03     14.8665E-03    -7.42942E-03     2.75028E-03    -7.40805E-03     14.6782E-03    -7.39345E-03     2.73191E-03
            2342     1.78684E-03     6.77797E-03    -8.53616E+06    -42.3417E+06    -8.12274E+06    -980.272E+03    -7.41795E-03     14.8428E-03    -7.42489E-03     1.89083E-03    -7.38749E-03     14.6553E-03    -7.39173E-03     1.87805E-03
            2343     893.374E-06     6.77793E-03    -8.58108E+06    -42.3280E+06    -8.41342E+06    -548.398E+03    -7.44043E-03     14.8476E-03    -7.40715E-03     1.04808E-03    -7.40970E-03     14.6607E-03    -7.37540E-03     1.04093E-03
            2344     16.8788E-03     5.97217E-03    -1.81585E+06     120.688E+06     42.3749E+06     2.28338E+06    -34.5132E-03     47.6705E-03    -13.1572E-03     75.3546E-03    -35.3096E-03     48.7662E-03    -13.1177E-03     75.4028E-03
            2345     16.0053E-03     5.91344E-03    -4.93048E+06     74.0585E+06     7.16681E+06     1.75928E+06    -30.5575E-03     42.5736E-03    -12.0161E-03     45.0425E-03    -30.8379E-03     43.0791E-03    -12.0805E-03     44.9455E-03
            2346     15.1314E-03     5.88353E-03    -8.12583E+06     33.7260E+06     5.50649E+06     2.32004E+06    -25.9216E-03     37.0634E-03    -11.1418E-03     27.3410E-03    -26.0453E-03     37.2624E-03    -11.1514E-03     27.3192E-03
            2347     14.2527E-03     5.86062E-03    -8.70021E+06    -3.78992E+06     2.60368E+06     318.232E+03    -21.5901E-03     31.9973E-03    -10.4072E-03     21.3111E-03    -21.6425E-03     31.9981E-03    -10.3761E-03     21.2889E-03
            2348     13.3704E-03     5.84355E-03    -9.50103E+06    -29.0068E+06     2.41305E+06    -3.15241E+06    -17.7816E-03     27.6147E-03    -9.83312E-03     15.7672E-03    -17.7958E-03     27.4854E-03    -9.76522E-03     15.7120E-03
            2349     12.4850E-03     5.83502E-03    -9.52585E+06    -33.9918E+06     9.25814E+06    -4.30763E+06    -14.6157E-03     24.0374E-03    -9.42172E-03     12.3402E-03    -14.6299E-03     23.8704E-03    -9.31233E-03     12.2769E-03
            2350     11.5965E-03     5.82889E-03    -10.1053E+06    -40.1203E+06     11.0466E+06    -4.04404E+06    -12.4811E-03     21.5994E-03    -9.11823E-03     11.2729E-03    -12.4910E-03     21.3990E-03    -8.99017E-03     11.2159E-03
            2351     10.7070E-03     5.82476E-03    -10.5038E+06    -51.4530E+06     6.83899E+06    -3.56966E+06    -11.1841E-03     20.0641E-03    -8.88007E-03     10.2658E-03    -11.1729E-03     19.8132E-03    -8.75603E-03     10.2163E-03
            2352     9.81626E-03     5.82182E-03    -10.3975E+06    -55.4431E+06     3.00591E+06    -3.77196E+06    -10.1925E-03     18.8867E-03    -8.69417E-03     9.45660E-03    -10.1691E-03     18.6209E-03    -8.58367E-03     9.40556E-03
            2353     8.92497E-03     5.81990E-03    -9.89463E+06     -53.953E+06    -137.267E+03    -4.00104E+06    -9.48515E-03     18.0387E-03    -8.55360E-03     8.88826E-03    -9.45662E-03     17.7840E-03    -8.46170E-03     8.83494E-03
            2354     8.03294E-03     5.81837E-03    -9.41999E+06    -51.8612E+06    -1.88577E+06    -3.86051E+06    -8.98088E-03     17.4400E-03    -8.45916E-03     8.26138E-03    -8.95033E-03     17.1974E-03    -8.37973E-03     8.21031E-03
            2355     7.14078E-03     5.81747E-03    -8.98019E+06    -50.0702E+06    -3.03665E+06    -3.80993E+06    -8.62974E-03     17.0307E-03    -8.40099E-03     7.60248E-03    -8.59784E-03     16.7980E-03    -8.33055E-03     7.55240E-03
            2356     6.24817E-03     5.81662E-03    -8.07679E+06    -48.3045E+06    -3.25740E+06    -3.52918E+06    -8.43162E-03     16.8035E-03    -8.37191E-03     6.82413E-03    -8.39738E-03     16.5785E-03    -8.30645E-03     6.77790E-03
            2357     5.35563E-03     5.81616E-03    -7.03236E+06    -45.5906E+06    -3.28972E+06    -2.91189E+06    -8.33243E-03     16.6915E-03    -8.35908E-03     6.00192E-03    -8.29683E-03     16.4786E-03    -8.29922E-03     5.96383E-03
            2358     4.46289E-03     5.81566E-03    -6.39574E+06    -43.8995E+06    -4.28458E+06    -2.65523E+06    -8.29528E-03     16.6499E-03    -8.35461E-03     5.10499E-03    -8.25748E-03     16.4459E-03    -8.30311E-03     5.07035E-03
            2359     3.57028E-03     5.81538E-03    -5.96679E+06    -43.7178E+06    -4.94692E+06    -2.45672E+06    -8.30793E-03     16.6678E-03    -8.35987E-03     4.14191E-03    -8.26726E-03     16.4650E-03    -8.31256E-03     4.10993E-03
            2360     2.67768E-03     5.81506E-03    -5.70548E+06    -43.6157E+06    -5.19281E+06    -1.80665E+06    -8.33210E-03     16.7008E-03    -8.36868E-03     3.15030E-03    -8.28991E-03     16.4985E-03    -8.32313E-03     3.12679E-03
            2361     1.78507E-03     5.81492E-03    -5.66950E+06    -43.4616E+06    -5.35621E+06    -1.15696E+06    -8.35610E-03     16.7336E-03    -8.37748E-03     2.14509E-03    -8.31369E-03     16.5322E-03    -8.33302E-03     2.13004E-03
            2362     892.555E-06     5.81473E-03    -5.63508E+06    -43.4874E+06    -5.64610E+06    -601.942E+03    -8.38859E-03     16.7612E-03    -8.37260E-03     1.19532E-03    -8.34547E-03     16.5602E-03    -8.32961E-03     1.18748E-03
            2363     16.8799E-03     4.97855E-03    -1.32312E+06     118.425E+06     45.2005E+06     2.06999E+06    -35.9862E-03     49.1151E-03    -13.1289E-03     72.3889E-03    -36.7161E-03     50.1302E-03    -13.0727E-03     72.3528E-03
            2364     16.0091E-03     4.92520E-03    -2.86877E+06     73.2599E+06     11.3854E+06     5.08964E+06    -29.6487E-03     41.6204E-03    -11.9717E-03     40.5799E-03    -29.8912E-03     42.0804E-03    -12.0168E-03     40.5332E-03
            2365     15.1318E-03     4.89970E-03    -7.41164E+06     35.2142E+06     9.80307E+06     4.75065E+06    -23.7590E-03     34.9387E-03    -11.1797E-03     24.2928E-03    -23.8812E-03     35.1315E-03    -11.1710E-03     24.3121E-03
            2366     14.2517E-03     4.88256E-03    -11.5374E+06     1.77256E+06     6.27578E+06     850.506E+03    -19.2101E-03     29.7903E-03    -10.5802E-03     20.6662E-03    -19.2885E-03     29.8161E-03    -10.5347E-03     20.6561E-03
            2367     13.3667E-03     4.87044E-03    -12.3806E+06    -25.2718E+06     4.33854E+06    -4.14039E+06    -15.4355E-03     25.5997E-03    -10.1642E-03     17.0394E-03    -15.4715E-03     25.4897E-03    -10.0879E-03     16.9749E-03
            2368     12.4785E-03     4.86498E-03    -12.1475E+06    -34.8534E+06     8.76328E+06    -6.36621E+06    -13.0598E-03     22.9654E-03    -9.90560E-03     14.5658E-03    -13.0850E-03     22.7984E-03    -9.79363E-03     14.4775E-03
            2369     11.5894E-03     4.86062E-03    -11.1953E+06    -41.3621E+06     10.1411E+06    -5.77060E+06    -11.7627E-03     21.4826E-03    -9.71992E-03     13.6547E-03    -11.7748E-03     21.2787E-03    -9.59301E-03     13.5761E-03
            2370     10.6992E-03     4.85743E-03    -10.4520E+06    -52.1281E+06     5.84801E+06    -5.41241E+06    -10.8403E-03     20.4120E-03    -9.57168E-03     12.3843E-03    -10.8263E-03     20.1589E-03    -9.45170E-03     12.3116E-03
            2371     9.80850E-03     4.85579E-03    -9.77474E+06    -55.2622E+06     2.72633E+06    -5.59815E+06    -10.1638E-03     19.6300E-03    -9.46612E-03     11.4244E-03    -10.1371E-03     19.3644E-03    -9.35818E-03     11.3501E-03
            2372     8.91707E-03     4.85420E-03    -8.91943E+06    -54.6028E+06    -314.524E+03    -5.90189E+06    -9.71533E-03     19.1085E-03    -9.39319E-03     10.5609E-03    -9.68069E-03     18.8492E-03    -9.30266E-03     10.4832E-03
            2373     8.02559E-03     4.85331E-03    -7.56100E+06    -52.6909E+06    -1.56613E+06    -5.69197E+06    -9.43888E-03     18.7940E-03    -9.35508E-03     9.59697E-03    -9.39829E-03     18.5440E-03    -9.27554E-03     9.52242E-03
            2374     7.13370E-03     4.85243E-03    -6.12265E+06    -50.7688E+06    -1.83228E+06    -5.44805E+06    -9.29448E-03     18.6363E-03    -9.34184E-03     8.62277E-03    -9.24902E-03     18.3941E-03    -9.26851E-03     8.55165E-03
            2375     6.24198E-03     4.85186E-03    -4.98323E+06    -49.3903E+06    -2.16124E+06    -5.33217E+06    -9.23497E-03     18.5778E-03    -9.34280E-03     7.59506E-03    -9.18528E-03     18.3412E-03    -9.27477E-03     7.52564E-03
            2376     5.35005E-03     4.85123E-03    -3.67929E+06    -47.2268E+06    -1.57763E+06    -4.69767E+06    -9.23846E-03     18.5929E-03    -9.35439E-03     6.53032E-03    -9.18620E-03     18.3644E-03    -9.28847E-03     6.46923E-03
            2377     4.45835E-03     4.85083E-03    -2.45358E+06    -45.0451E+06    -1.32655E+06    -3.64244E+06    -9.27317E-03     18.6400E-03    -9.36683E-03     5.43668E-03    -9.21828E-03     18.4202E-03    -9.30459E-03     5.38932E-03
            2378     3.56658E-03     4.85036E-03    -2.06395E+06    -45.1442E+06    -1.83320E+06    -2.78745E+06    -9.31473E-03     18.6943E-03    -9.37957E-03     4.34695E-03    -9.25700E-03     18.4742E-03    -9.32028E-03     4.31071E-03
            2379     2.67489E-03     4.85011E-03    -2.13398E+06    -45.2566E+06    -2.10115E+06    -1.88042E+06    -9.35436E-03     18.7463E-03    -9.39197E-03     3.26961E-03    -9.29641E-03     18.5261E-03    -9.33375E-03     3.24515E-03
            2380     1.78324E-03     4.84980E-03    -2.26044E+06    -44.6641E+06    -2.48034E+06    -1.04933E+06    -9.38482E-03     18.7839E-03    -9.39904E-03     2.21123E-03    -9.32780E-03     18.5674E-03    -9.34340E-03     2.19757E-03
            2381     891.607E-06     4.84968E-03    -2.38158E+06    -44.6081E+06    -2.60107E+06    -470.172E+03    -9.40622E-03     18.8057E-03    -9.39950E-03     1.22316E-03    -9.34962E-03     18.5900E-03    -9.34437E-03     1.21703E-03
            2382     16.8765E-03     3.97828E-03    -5.01755E+06     114.455E+06     43.1709E+06     2.03078E+06    -36.8356E-03     50.1139E-03    -13.2783E-03     69.0048E-03    -37.4942E-03     51.0365E-03    -13.2211E-03     68.8968E-03
            2383     16.0076E-03     3.93807E-03    -9.56635E+06     68.8591E+06     11.2805E+06     6.51016E+06    -28.1330E-03     40.2935E-03    -12.1605E-03     36.7092E-03    -28.3706E-03     40.7099E-03    -12.1901E-03     36.6966E-03
            2384     15.1287E-03     3.92000E-03    -10.5976E+06     39.8889E+06     9.97425E+06     7.69308E+06    -20.5818E-03     32.0770E-03    -11.4952E-03     25.4187E-03    -20.7224E-03     32.2931E-03    -11.4878E-03     25.4877E-03
            2385     14.2437E-03     3.90675E-03    -12.1031E+06     9.19261E+06     6.16816E+06     815.008E+03    -16.5305E-03     27.6152E-03    -11.0847E-03     22.5669E-03    -16.6208E-03     27.6775E-03    -11.0496E-03     22.5619E-03
            2386     13.3566E-03     3.89944E-03    -11.9040E+06    -20.8178E+06     2.89407E+06    -5.97192E+06    -14.0525E-03     24.8826E-03    -10.8301E-03     19.0437E-03    -14.0897E-03     24.7954E-03    -10.7682E-03     18.9580E-03
            2387     12.4680E-03     3.89506E-03    -10.6855E+06    -35.0861E+06     5.23749E+06    -8.77176E+06    -12.6381E-03     23.3150E-03    -10.6769E-03     16.5969E-03    -12.6501E-03     23.1494E-03    -10.5844E-03     16.4786E-03
            2388     11.5788E-03     3.89159E-03    -9.67458E+06    -43.7362E+06     6.20568E+06    -8.25785E+06    -11.7575E-03     22.3262E-03    -10.5687E-03     15.0725E-03    -11.7526E-03     22.1137E-03    -10.4602E-03     14.9624E-03
            2389     10.6889E-03     3.88975E-03    -8.77144E+06    -52.2881E+06     2.65307E+06    -7.51232E+06    -11.1084E-03     21.5901E-03    -10.4817E-03     13.5732E-03    -11.0810E-03     21.3382E-03    -10.3799E-03     13.4738E-03
            2390     9.79832E-03     3.88825E-03    -7.26474E+06    -55.6410E+06     408.323E+03    -8.07611E+06    -10.7382E-03     21.1639E-03    -10.4257E-03     12.3479E-03    -10.6949E-03     20.8960E-03    -10.3325E-03     12.2419E-03
            2391     8.90785E-03     3.88731E-03    -5.32574E+06    -55.4017E+06    -864.588E+03    -8.09426E+06    -10.5109E-03     20.9013E-03    -10.3904E-03     11.1478E-03    -10.4563E-03     20.6335E-03    -10.3066E-03     11.0420E-03
            2392     8.01691E-03     3.88638E-03    -3.61190E+06    -53.9027E+06    -2.24359E+06    -7.92156E+06    -10.3833E-03     20.7515E-03    -10.3682E-03     9.94312E-03    -10.3202E-03     20.4906E-03    -10.2960E-03     9.83993E-03
            2393     7.12623E-03     3.88569E-03    -1.87128E+06    -52.2065E+06    -2.03106E+06    -7.29077E+06    -10.3342E-03     20.6973E-03    -10.3632E-03     8.72597E-03    -10.2651E-03     20.4420E-03    -10.2949E-03     8.63116E-03
            2394     6.23528E-03     3.88500E-03    -632.221E+03    -50.7740E+06    -1.21483E+06    -6.44096E+06    -10.3236E-03     20.6909E-03    -10.3672E-03     7.54328E-03    -10.2516E-03     20.4397E-03    -10.2988E-03     7.45961E-03
            2395     5.34456E-03     3.88443E-03    -209.198E+03    -49.2487E+06    -1.02701E+06    -5.68507E+06    -10.3335E-03     20.7046E-03    -10.3711E-03     6.38572E-03    -10.2617E-03     20.4601E-03    -10.3046E-03     6.31194E-03
            2396     4.45370E-03     3.88383E-03     83.9460E+03    -47.4020E+06    -959.971E+03    -4.35031E+06    -10.3442E-03     20.7189E-03    -10.3747E-03     5.25027E-03    -10.2737E-03     20.4832E-03    -10.3109E-03     5.19381E-03
            2397     3.56296E-03     3.88345E-03     437.163E+03    -47.0292E+06    -252.609E+03    -2.76185E+06    -10.3629E-03     20.7462E-03    -10.3833E-03     4.15465E-03    -10.2922E-03     20.5108E-03    -10.3170E-03     4.11877E-03
            2398     2.67219E-03     3.88303E-03     494.232E+03    -46.8648E+06     76.5276E+03    -1.72905E+06    -10.3809E-03     20.7698E-03    -10.3890E-03     3.09862E-03    -10.3106E-03     20.5347E-03    -10.3214E-03     3.07614E-03
            2399     1.78146E-03     3.88280E-03     551.335E+03    -45.9439E+06     223.346E+03    -923.978E+03    -10.3908E-03     20.7808E-03    -10.3901E-03     2.08206E-03    -10.3217E-03     20.5499E-03    -10.3231E-03     2.07003E-03
            2400     890.728E-06     3.88258E-03     730.281E+03    -45.4427E+06     620.931E+03    -345.432E+03    -10.3941E-03     20.7831E-03    -10.3890E-03     1.13354E-03    -10.3254E-03     20.5540E-03    -10.3211E-03     1.12902E-03
            2401     16.8733E-03     2.97893E-03    -5.23068E+06     109.666E+06     40.9170E+06     6.04760E+06    -35.7816E-03     49.4949E-03    -13.7133E-03     64.6359E-03    -36.3318E-03     50.2984E-03    -13.6602E-03     64.5567E-03
            2402     15.9985E-03     2.95379E-03    -12.1769E+06     67.3467E+06     13.8948E+06     8.45212E+06    -25.4210E-03     38.1618E-03    -12.7408E-03     33.1655E-03    -25.6465E-03     38.5436E-03    -12.7514E-03     33.2043E-03
            2403     15.1158E-03     2.94264E-03    -14.7339E+06     46.0572E+06     7.03398E+06     5.93925E+06    -18.6407E-03     30.8406E-03    -12.1998E-03     26.4532E-03    -18.8033E-03     31.0942E-03    -12.2101E-03     26.5070E-03
            2404     14.2304E-03     2.93302E-03    -11.6265E+06     17.8436E+06    -526.501E+03    -1.45434E+06    -15.7342E-03     27.6200E-03    -11.8858E-03     23.3709E-03    -15.8229E-03     27.7323E-03    -11.8975E-03     23.3403E-03
            2405     13.3432E-03     2.92719E-03    -9.69563E+06    -16.2870E+06    -5.35163E+06    -7.99361E+06    -14.2079E-03     25.9103E-03    -11.7023E-03     19.0839E-03    -14.2276E-03     25.8532E-03    -11.6914E-03     18.9739E-03
            2406     12.4556E-03     2.92395E-03    -8.56271E+06    -35.4579E+06    -5.02563E+06    -10.7232E+06    -13.1521E-03     24.7402E-03    -11.5881E-03     16.6313E-03    -13.1376E-03     24.5839E-03    -11.5494E-03     16.4887E-03
            2407     11.5668E-03     2.92164E-03    -7.38557E+06    -46.2580E+06    -4.07615E+06    -10.2730E+06    -12.4083E-03     23.9215E-03    -11.5132E-03     14.8056E-03    -12.3731E-03     23.7076E-03    -11.4558E-03     14.6702E-03
            2408     10.6773E-03     2.92022E-03    -5.37980E+06    -52.6694E+06    -5.54889E+06    -9.90557E+06    -11.9972E-03     23.4496E-03    -11.4524E-03     13.1740E-03    -11.9402E-03     23.2025E-03    -11.3959E-03     13.0441E-03
            2409     9.78803E-03     2.91906E-03    -3.33491E+06    -56.2457E+06    -7.58464E+06    -10.1552E+06    -11.8106E-03     23.2130E-03    -11.4025E-03     11.7099E-03    -11.7350E-03     22.9479E-03    -11.3540E-03     11.5774E-03
            2410     8.89828E-03     2.91822E-03    -1.80051E+06    -57.1234E+06    -7.57577E+06    -9.78155E+06    -11.6819E-03     23.0506E-03    -11.3687E-03     10.3055E-03    -11.5974E-03     22.7787E-03    -11.3211E-03     10.1781E-03
            2411     8.00878E-03     2.91743E-03    -719.099E+03    -55.4852E+06    -7.64237E+06    -8.76769E+06    -11.5854E-03     22.9231E-03    -11.3377E-03     9.02585E-03    -11.4976E-03     22.6579E-03    -11.2944E-03     8.91189E-03
            2412     7.11892E-03     2.91674E-03    -473.108E+03    -54.4597E+06    -6.96940E+06    -7.75140E+06    -11.5175E-03     22.8343E-03    -11.3167E-03     7.79380E-03    -11.4310E-03     22.5728E-03    -11.2719E-03     7.69315E-03
            2413     6.22927E-03     2.91610E-03    -471.433E+03    -52.9648E+06    -5.36718E+06    -6.36781E+06    -11.4625E-03     22.7649E-03    -11.3024E-03     6.64773E-03    -11.3804E-03     22.5085E-03    -11.2517E-03     6.56508E-03
            2414     5.33940E-03     2.91548E-03    -688.125E+03    -51.2334E+06    -4.75241E+06    -5.06483E+06    -11.4060E-03     22.6913E-03    -11.2853E-03     5.55842E-03    -11.3283E-03     22.4430E-03    -11.2338E-03     5.49270E-03
            2415     4.44961E-03     2.91501E-03    -1.11064E+06    -50.0064E+06    -4.37334E+06    -3.92013E+06    -11.3569E-03     22.6279E-03    -11.2710E-03     4.53386E-03    -11.2836E-03     22.3858E-03    -11.2188E-03     4.48299E-03
            2416     3.55970E-03     2.91450E-03    -1.21570E+06    -49.1221E+06    -3.22876E+06    -2.62465E+06    -11.3213E-03     22.5843E-03    -11.2630E-03     3.56319E-03    -11.2515E-03     22.3451E-03    -11.2061E-03     3.52911E-03
            2417     2.66982E-03     2.91418E-03    -987.914E+03    -48.2541E+06    -1.64844E+06    -1.63050E+06    -11.2926E-03     22.5509E-03    -11.2582E-03     2.64097E-03    -11.2252E-03     22.3134E-03    -11.1951E-03     2.61978E-03
            2418     1.77988E-03     2.91388E-03    -895.874E+03    -47.2028E+06    -824.036E+03    -974.308E+03    -11.2685E-03     22.5194E-03    -11.2509E-03     1.76809E-03    -11.2034E-03     22.2859E-03    -11.1853E-03     1.75542E-03
            2419     889.968E-06     2.91372E-03    -889.806E+03    -46.2291E+06    -803.908E+03    -475.049E+03    -11.2481E-03     22.4894E-03    -11.2413E-03     951.737E-06    -11.1842E-03     22.2608E-03    -11.1770E-03     945.541E-06
            2420     16.8566E-03     1.98293E-03    -3.93117E+06     103.462E+06     41.3815E+06     9.44337E+06    -33.5858E-03     48.0151E-03    -14.4293E-03     52.4349E-03    -34.0155E-03     48.6804E-03    -14.3667E-03     52.4099E-03
            2421     15.9820E-03     1.97098E-03    -5.22101E+06     71.8284E+06     24.5792E+06     9.49909E+06    -22.9911E-03     36.6308E-03    -13.6398E-03     28.2487E-03    -23.1838E-03     36.9892E-03    -13.6135E-03     28.3250E-03
            2422     15.1002E-03     1.96522E-03    -4.03177E+06     54.1661E+06     9.08658E+06     2.98339E+06    -19.4077E-03     32.5457E-03    -13.1380E-03     23.4710E-03    -19.5268E-03     32.8164E-03    -13.1653E-03     23.4915E-03
            2423     14.2158E-03     1.95698E-03    -3.35545E+06     24.3409E+06    -6.58871E+06    -3.52852E+06    -16.7548E-03     29.5478E-03    -12.7930E-03     20.5091E-03    -16.8002E-03     29.6868E-03    -12.8564E-03     20.4550E-03
            2424     13.3303E-03     1.95357E-03    -3.82173E+06    -12.3966E+06    -14.8033E+06    -7.78677E+06    -15.1592E-03     27.7589E-03    -12.5996E-03     16.5281E-03    -15.1402E-03     27.7252E-03    -12.6501E-03     16.4227E-03
            2425     12.4428E-03     1.95115E-03    -4.96663E+06    -35.7131E+06    -19.5065E+06    -10.3214E+06    -14.1875E-03     26.6568E-03    -12.4694E-03     14.2876E-03    -14.1330E-03     26.5144E-03    -12.5079E-03     14.1513E-03
            2426     11.5551E-03     1.94983E-03    -4.72726E+06    -47.7512E+06    -21.9430E+06    -11.1453E+06    -13.6290E-03     25.9996E-03    -12.3706E-03     12.3958E-03    -13.5520E-03     25.7998E-03    -12.4042E-03     12.2500E-03
            2427     10.6671E-03     1.94860E-03    -3.65687E+06    -54.0751E+06    -24.8869E+06    -10.7316E+06    -13.2897E-03     25.5712E-03    -12.2816E-03     10.7615E-03    -13.1937E-03     25.3424E-03    -12.3223E-03     10.6216E-03
            2428     9.77866E-03     1.94771E-03    -2.94104E+06    -57.4736E+06    -24.6852E+06    -9.94262E+06    -13.0662E-03     25.2828E-03    -12.2166E-03     9.28455E-03    -12.9619E-03     25.0356E-03    -12.2524E-03     9.15518E-03
            2429     8.89042E-03     1.94698E-03    -2.96446E+06    -59.4491E+06    -21.2740E+06    -8.96567E+06    -12.8932E-03     25.0663E-03    -12.1731E-03     8.00823E-03    -12.7911E-03     24.8043E-03    -12.1890E-03     7.89172E-03
            2430     8.00171E-03     1.94639E-03    -3.50293E+06    -57.8938E+06    -18.6268E+06    -7.46498E+06    -12.7298E-03     24.8555E-03    -12.1257E-03     6.88698E-03    -12.6364E-03     24.5981E-03    -12.1298E-03     6.79004E-03
            2431     7.11315E-03     1.94580E-03    -4.10437E+06    -56.6492E+06    -16.2486E+06    -6.01930E+06    -12.5771E-03     24.6588E-03    -12.0817E-03     5.88300E-03    -12.4920E-03     24.4051E-03    -12.0748E-03     5.80486E-03
            2432     6.22426E-03     1.94527E-03    -4.85934E+06    -55.2755E+06    -13.9763E+06    -4.92363E+06    -12.4340E-03     24.4756E-03    -12.0416E-03     4.96703E-03    -12.3579E-03     24.2266E-03    -12.0243E-03     4.90314E-03
            2433     5.33538E-03     1.94480E-03    -5.30359E+06    -53.2615E+06    -11.9308E+06    -3.73834E+06    -12.2999E-03     24.3041E-03    -12.0042E-03     4.11600E-03    -12.2319E-03     24.0628E-03    -11.9790E-03     4.06749E-03
            2434     4.44629E-03     1.94437E-03    -5.59813E+06    -51.8752E+06    -9.96190E+06    -2.68051E+06    -12.1843E-03     24.1570E-03    -11.9727E-03     3.33226E-03    -12.1226E-03     23.9202E-03    -11.9392E-03     3.29746E-03
            2435     3.55720E-03     1.94403E-03    -5.97079E+06    -50.7737E+06    -8.53686E+06    -1.94850E+06    -12.0827E-03     24.0277E-03    -11.9451E-03     2.61136E-03    -12.0265E-03     23.7949E-03    -11.9055E-03     2.58606E-03
            2436     2.66794E-03     1.94370E-03    -6.29270E+06    -49.4561E+06    -7.35334E+06    -1.31781E+06    -12.0012E-03     23.9234E-03    -11.9222E-03     1.92839E-03    -11.9503E-03     23.6958E-03    -11.8781E-03     1.91128E-03
            2437     1.77869E-03     1.94350E-03    -6.44423E+06    -48.1417E+06    -6.68033E+06    -948.153E+03    -11.9391E-03     23.8422E-03    -11.9031E-03     1.28476E-03    -11.8918E-03     23.6205E-03    -11.8574E-03     1.27246E-03
            2438     889.334E-06     1.94335E-03    -6.38298E+06    -47.3062E+06    -6.48610E+06    -616.338E+03    -11.9010E-03     23.7891E-03    -11.8880E-03     687.964E-06    -11.8548E-03     23.5713E-03    -11.8426E-03     679.962E-06
            2439     16.8514E-03     1.00251E-03     1.94126E+06     101.561E+06     47.9533E+06     8.02337E+06    -35.2356E-03     50.6131E-03    -15.3775E-03     37.2790E-03    -35.5417E-03     51.1495E-03    -15.2878E-03     37.2397E-03
            2440     15.9641E-03     985.016E-06     4.26212E+06     77.3971E+06     29.9528E+06     5.27492E+06    -24.3341E-03     38.8564E-03    -14.5224E-03     21.3700E-03    -24.4787E-03     39.2037E-03    -14.4910E-03     21.4143E-03
            2441     15.0861E-03     983.792E-06     7.19214E+06     58.4669E+06     8.22126E+06    -323.878E+03    -20.9861E-03     34.9413E-03    -13.9553E-03     14.6212E-03    -21.0492E-03     35.2137E-03    -14.0094E-03     14.6074E-03
            2442     14.2039E-03     979.494E-06     7.82618E+06     27.4288E+06    -12.0331E+06    -1.81664E+06    -18.2614E-03     31.8099E-03    -13.5485E-03     13.3320E-03    -18.2456E-03     31.9541E-03    -13.6598E-03     13.3040E-03
            2443     13.3184E-03     977.728E-06     5.65278E+06    -9.55449E+06    -24.1904E+06    -4.11932E+06    -16.4441E-03     29.7469E-03    -13.3029E-03     10.3736E-03    -16.3673E-03     29.7264E-03    -13.4182E-03     10.3180E-03
            2444     12.4329E-03     976.509E-06     3.63289E+06    -34.6017E+06    -33.8561E+06    -6.81377E+06    -15.5171E-03     28.6350E-03    -13.1179E-03     8.63356E-03    -15.3999E-03     28.5060E-03    -13.2423E-03     8.54411E-03
            2445     11.5464E-03     975.618E-06     1.17236E+06    -48.8064E+06    -39.4127E+06    -7.60237E+06    -14.9228E-03     27.8945E-03    -12.9716E-03     7.21707E-03    -14.7892E-03     27.7060E-03    -13.0996E-03     7.11795E-03
            2446     10.6596E-03     974.978E-06    -1.43572E+06    -55.5908E+06    -40.8084E+06    -7.30665E+06    -14.4719E-03     27.3279E-03    -12.8560E-03     6.12506E-03    -14.3394E-03     27.1113E-03    -12.9774E-03     6.03003E-03
            2447     9.77253E-03     974.451E-06    -3.44734E+06    -59.4967E+06    -37.5674E+06    -6.40016E+06    -14.0976E-03     26.8710E-03    -12.7735E-03     5.18857E-03    -13.9741E-03     26.6331E-03    -12.8700E-03     5.10543E-03
            2448     8.88483E-03     973.996E-06    -5.28833E+06    -61.4320E+06    -32.3311E+06    -5.18641E+06    -13.8015E-03     26.5102E-03    -12.7087E-03     4.38746E-03    -13.6921E-03     26.2576E-03    -12.7736E-03     4.32010E-03
            2449     7.99726E-03     973.646E-06    -6.91986E+06    -60.0487E+06    -27.5883E+06    -4.23367E+06    -13.5438E-03     26.1877E-03    -12.6439E-03     3.72843E-03    -13.4514E-03     25.9375E-03    -12.6848E-03     3.67346E-03
            2450     7.10918E-03     973.332E-06    -8.05532E+06    -58.3475E+06    -23.2066E+06    -3.35697E+06    -13.3060E-03     25.8891E-03    -12.5831E-03     3.17355E-03    -13.2281E-03     25.6427E-03    -12.6029E-03     3.12998E-03
            2451     6.22109E-03     973.022E-06    -8.77429E+06    -56.8141E+06    -19.7328E+06    -2.58212E+06    -13.0909E-03     25.6155E-03    -12.5247E-03     2.65805E-03    -13.0238E-03     25.3728E-03    -12.5282E-03     2.62454E-03
            2452     5.33270E-03     972.762E-06    -9.51871E+06    -54.7685E+06    -17.1300E+06    -1.97267E+06    -12.8965E-03     25.3652E-03    -12.4687E-03     2.19378E-03    -12.8399E-03     25.1300E-03    -12.4611E-03     2.16818E-03
            2453     4.44424E-03     972.523E-06    -9.98123E+06    -53.0656E+06    -14.6688E+06    -1.40666E+06    -12.7236E-03     25.1438E-03    -12.4202E-03     1.76938E-03    -12.6753E-03     24.9142E-03    -12.4022E-03     1.75111E-03
            2454     3.55554E-03     972.319E-06    -10.2878E+06    -51.8004E+06    -12.7374E+06    -845.766E+03    -12.5758E-03     24.9543E-03    -12.3784E-03     1.37741E-03    -12.5337E-03     24.7286E-03    -12.3521E-03     1.36641E-03
            2455     2.66680E-03     972.152E-06    -10.6154E+06    -50.0196E+06    -12.1488E+06    -634.994E+03    -12.4531E-03     24.7922E-03    -12.3392E-03     1.01668E-03    -12.4160E-03     24.5751E-03    -12.3120E-03     1.00843E-03
            2456     1.77789E-03     972.021E-06    -10.6554E+06    -48.7142E+06    -11.6657E+06    -710.422E+03    -12.3640E-03     24.6747E-03    -12.3107E-03     673.950E-06    -12.3297E-03     24.4634E-03    -12.2829E-03     664.751E-06
            2457     888.989E-06     971.956E-06    -10.5255E+06    -48.4496E+06    -10.8998E+06    -573.197E+03    -12.3104E-03     24.6071E-03    -12.2967E-03     366.524E-06    -12.2767E-03     24.3960E-03    -12.2657E-03     359.147E-06


