********************************************************************************
Field Output Report, written Tue May 28 21:46:09 2024

Source 1
---------

   ODB: G:/Abaqus_calc_2019/1740/Vel_10/odb/zeides_2a_24_red_500_cal_75_vel_10_fric_050.odb
   Step: Step-1
   Frame: Increment   7965356: Step Time =   0.9829

Loc 1 : Nodal values from source 1

Output sorted by column "Nodal Label".

Field Output reported at nodes for region: DIE_2A_24_D0_36-1.Region_1
   Computation algorithm: EXTRAPOLATE_COMPUTE_AVERAGE
   Averaged at nodes
   Averaging regions: ODB_REGIONS

      Node Label     COORD.COOR1     COORD.COOR2
                          @Loc 1          @Loc 1
-------------------------------------------------
               1     20.6553E-03     116.442E-03


Field Output reported at nodes for region: DIE_2A_24_D0_36-1.Region_2
   Computation algorithm: EXTRAPOLATE_COMPUTE_AVERAGE
   Averaged at nodes
   Averaging regions: ODB_REGIONS

      Node Label     COORD.COOR1     COORD.COOR2
                          @Loc 1          @Loc 1
-------------------------------------------------
               1     20.6553E-03     116.442E-03


Field Output reported at nodes for part: WIRE-1
   Computation algorithm: EXTRAPOLATE_COMPUTE_AVERAGE
   Averaged at nodes
   Averaging regions: ODB_REGIONS

      Node Label     COORD.COOR1     COORD.COOR2           S.S11           S.S22           S.S33           S.S12         PE.PE11         PE.PE22         PE.PE33         PE.PE12         LE.LE11         LE.LE22         LE.LE33         LE.LE12
                          @Loc 1          @Loc 1          @Loc 1          @Loc 1          @Loc 1          @Loc 1          @Loc 1          @Loc 1          @Loc 1          @Loc 1          @Loc 1          @Loc 1          @Loc 1          @Loc 1
-------------------------------------------------------------------------------------------------------------------------------------------------------------------------------------------------------------------------------------------------
               1     124.333E-09     60.4557E-03    -55.7264E+06    -173.975E+06    -55.7941E+06     153.150E+03    -53.8701E-03     107.616E-03    -53.7461E-03     5.98218E-03    -53.8157E-03     106.909E-03    -53.6920E-03     5.96467E-03
               2     17.0624E-03     62.0464E-03    -2.36694E+06     139.818E+06     94.3934E+06     938.018E+03    -51.2840E-03     105.042E-03    -53.7580E-03     48.9322E-03    -52.5253E-03     106.498E-03    -53.4853E-03     49.0671E-03
               3     16.6014E-03     123.993E-03     26.0378E+06    -18.4888E+06     32.6483E+06     22.9866E+06     37.3408E-03     32.8788E-03    -70.2196E-03    -202.772E-06     37.3523E-03     32.6030E-03    -70.0673E-03     93.6875E-06
               4     87.2870E-09     121.001E-03     40.2504E+06    -1.96334E+06     42.4663E+06    -2.45149E+06    -53.9884E-03     108.358E-03    -54.3697E-03    -3.12131E-03    -53.8555E-03     108.219E-03    -54.2129E-03    -3.16116E-03
               5     511.838E-09    -319.189E-18    -26.8441E+06    -143.967E+06    -27.1645E+06    -182.716E+03    -51.2577E-03     102.226E-03    -50.9679E-03     430.810E-06    -51.1425E-03     101.585E-03    -50.8560E-03     427.954E-06
               6     16.7784E-03    -319.189E-18    -1.34511E+06     104.985E+06     82.6563E+06     9.81127E+06    -104.692E-03     169.899E-03    -65.2063E-03     144.826E-03    -105.660E-03     170.962E-03    -64.9433E-03     143.247E-03
               7     852.890E-06     60.4617E-03    -55.0708E+06    -172.662E+06    -53.8219E+06    -30.8601E+03    -53.8431E-03     107.619E-03    -53.7760E-03     9.81396E-03    -53.7914E-03     106.915E-03    -53.7149E-03     9.78033E-03
               8     1.70583E-03     60.4754E-03    -53.2004E+06    -169.148E+06    -48.4630E+06    -297.780E+03    -53.8498E-03     107.662E-03    -53.8125E-03     17.9160E-03    -53.8050E-03     106.969E-03    -53.7324E-03     17.8490E-03
               9     2.55878E-03     60.4976E-03    -50.2884E+06    -163.923E+06    -40.5171E+06    -319.891E+03    -53.9300E-03     107.761E-03    -53.8309E-03     26.3875E-03    -53.8955E-03     107.083E-03    -53.7229E-03     26.2857E-03
              10     3.41173E-03     60.5283E-03    -46.6923E+06    -157.734E+06    -31.2805E+06    -156.116E+03    -54.0366E-03     107.891E-03    -53.8540E-03     34.7365E-03    -54.0154E-03     107.234E-03    -53.7140E-03     34.5974E-03
              11     4.26471E-03     60.5673E-03    -42.8767E+06    -147.311E+06    -22.9544E+06     112.175E+03    -54.1614E-03     108.026E-03    -53.8647E-03     42.8996E-03    -54.1611E-03     107.417E-03    -53.7037E-03     42.7187E-03
              12     5.11771E-03     60.6144E-03    -39.0260E+06    -137.876E+06    -16.0202E+06     207.235E+03    -54.3220E-03     108.191E-03    -53.8690E-03     50.7534E-03    -54.3442E-03     107.632E-03    -53.6926E-03     50.5209E-03
              13     5.97070E-03     60.6690E-03    -35.3167E+06    -131.829E+06     -9.8416E+06     99.6161E+03    -54.5116E-03     108.387E-03    -53.8754E-03     58.3137E-03    -54.5574E-03     107.868E-03    -53.6823E-03     58.0187E-03
              14     6.82377E-03     60.7313E-03    -31.8955E+06    -123.728E+06    -4.98703E+06     165.365E+03    -54.7038E-03     108.577E-03    -53.8731E-03     65.5865E-03    -54.7839E-03     108.119E-03    -53.6724E-03     65.2221E-03
              15     7.67679E-03     60.8004E-03    -28.8740E+06    -112.859E+06    -3.08748E+06     268.198E+03    -54.9057E-03     108.758E-03    -53.8526E-03     72.5591E-03    -55.0321E-03     108.391E-03    -53.6626E-03     72.1158E-03
              16     8.52982E-03     60.8767E-03    -26.2812E+06    -100.344E+06    -2.26199E+06     213.083E+03    -55.1006E-03     108.926E-03    -53.8252E-03     79.2480E-03    -55.2901E-03     108.672E-03    -53.6529E-03     78.7119E-03
              17     9.38296E-03     60.9591E-03    -24.0750E+06    -88.0017E+06    -545.451E+03     230.941E+03    -55.3157E-03     109.119E-03    -53.8036E-03     86.0493E-03    -55.5913E-03     108.999E-03    -53.6438E-03     85.4065E-03
              18     10.2359E-03     61.0490E-03    -22.2950E+06    -74.3219E+06    -934.503E+03     300.549E+03    -55.5071E-03     109.277E-03    -53.7702E-03     92.8982E-03    -55.8967E-03     109.327E-03    -53.6348E-03     92.1342E-03
              19     11.0892E-03     61.1451E-03    -20.7781E+06    -54.2904E+06    -1.27205E+06     408.529E+03    -55.6689E-03     109.398E-03    -53.7292E-03     98.7153E-03    -56.2171E-03     109.684E-03    -53.6267E-03     97.8134E-03
              20     11.9418E-03     61.2466E-03    -19.5808E+06    -26.4691E+06     130.711E+03     600.140E+03    -55.9008E-03     109.591E-03    -53.6898E-03     106.213E-03    -56.6937E-03     110.220E-03    -53.6224E-03     105.150E-03
              21     12.7954E-03     61.3575E-03    -18.5225E+06     13.2795E+06    -1.73642E+06     418.035E+03    -56.1312E-03     109.743E-03    -53.6120E-03     120.477E-03    -57.3632E-03     110.962E-03    -53.6131E-03     119.203E-03
              22     13.6484E-03     61.4866E-03    -16.8300E+06     70.1420E+06     3.09473E+06    -2.87480E+03    -56.7970E-03     110.329E-03    -53.5318E-03     142.660E-03    -58.8641E-03     112.576E-03    -53.5937E-03     141.138E-03
              23     14.5018E-03     61.6428E-03    -13.9392E+06     117.075E+06     36.0760E+06    -366.836E+03    -57.6331E-03     111.240E-03    -53.6070E-03     165.088E-03    -60.8876E-03     114.756E-03    -53.5761E-03     163.537E-03
              24     15.3548E-03     61.8178E-03    -9.80867E+06     139.540E+06     80.3026E+06     43.8616E+03    -57.0621E-03     110.833E-03    -53.7712E-03     172.545E-03    -61.3990E-03     115.398E-03    -53.5578E-03     171.677E-03
              25     16.2096E-03     61.9923E-03    -4.91502E+06     143.503E+06     96.5809E+06      799.14E+03    -53.7561E-03     107.554E-03    -53.7975E-03     109.711E-03    -56.7657E-03     110.775E-03    -53.5156E-03     109.636E-03
              26     17.0644E-03     63.0946E-03    -1.44049E+06     140.147E+06     95.2641E+06    -391.712E+03    -50.3877E-03     104.149E-03    -53.7611E-03     48.5850E-03    -51.6182E-03     105.596E-03    -53.4859E-03     48.7213E-03
              27     17.0632E-03     64.1472E-03    -1.57059E+06     137.899E+06     94.5258E+06    -1.28350E+06    -52.9027E-03     106.598E-03    -53.6950E-03     45.5604E-03    -54.0908E-03     107.996E-03    -53.4200E-03     45.6004E-03
              28     17.0637E-03     65.2071E-03    -1.88525E+06     136.782E+06     93.8642E+06     318.866E+03    -52.7850E-03     106.480E-03    -53.6951E-03     43.2661E-03    -53.9441E-03     107.846E-03    -53.4214E-03     43.3246E-03
              29     17.0640E-03     66.2570E-03    -3.31156E+06     136.954E+06     93.4461E+06    -21.2682E+03    -52.9636E-03     106.657E-03    -53.6930E-03     45.2852E-03    -54.1527E-03     108.049E-03    -53.4196E-03     45.3497E-03
              30     17.0627E-03     67.3205E-03    -1.99953E+06     137.152E+06     93.9288E+06    -257.605E+03    -52.7408E-03     106.441E-03    -53.7002E-03     45.4004E-03    -53.9263E-03     107.834E-03    -53.4265E-03     45.4621E-03
              31     17.0649E-03     68.3715E-03    -2.75606E+06     136.765E+06     93.2253E+06     232.415E+03    -51.6012E-03     105.324E-03    -53.7231E-03     47.5722E-03    -52.8106E-03     106.739E-03    -53.4513E-03     47.6857E-03
              32     17.0621E-03     69.4271E-03    -3.08913E+06     137.702E+06     93.7054E+06     545.406E+03    -52.4170E-03     106.137E-03    -53.7198E-03     46.8277E-03    -53.6191E-03     107.545E-03    -53.4464E-03     46.9211E-03
              33     17.0644E-03     70.4841E-03    -1.54348E+06     138.930E+06     95.0993E+06     300.587E+03    -51.3624E-03     105.096E-03    -53.7335E-03     45.6766E-03    -52.5472E-03     106.493E-03    -53.4572E-03     45.7758E-03
              34     17.0637E-03     71.5309E-03    -3.24577E+06     138.062E+06     94.1608E+06    -750.481E+03    -53.1748E-03     106.864E-03    -53.6889E-03     45.1703E-03    -54.3669E-03     108.262E-03    -53.4136E-03     45.2168E-03
              35     17.0626E-03     72.5963E-03    -2.65308E+06     138.110E+06     94.2544E+06     389.619E+03    -53.5979E-03     107.297E-03    -53.6986E-03     43.2942E-03    -54.7606E-03     108.667E-03    -53.4238E-03     43.3405E-03
              36     17.0641E-03     73.6482E-03    -939.865E+03     139.030E+06     94.8026E+06     472.028E+03    -50.2574E-03     104.025E-03    -53.7672E-03     44.7275E-03    -51.4218E-03     105.404E-03    -53.4934E-03     44.8683E-03
              37     17.0633E-03     74.6973E-03    -2.39996E+06     138.962E+06     94.3489E+06    -365.010E+03    -52.1025E-03     105.820E-03    -53.7175E-03     44.3456E-03    -53.2730E-03     107.202E-03    -53.4437E-03     44.4283E-03
              38     17.0635E-03     75.7576E-03    -3.64063E+06     139.070E+06     94.1826E+06     297.475E+03    -54.2409E-03     107.915E-03    -53.6740E-03     44.4731E-03    -55.4133E-03     109.295E-03    -53.3995E-03     44.4987E-03
              39     17.0632E-03     76.8184E-03    -2.05258E+06     140.408E+06     95.2184E+06     492.665E+03    -51.9236E-03     105.657E-03    -53.7336E-03     46.8941E-03    -53.1105E-03     107.059E-03    -53.4582E-03     46.9797E-03
              40     17.0637E-03     77.8669E-03    -1.28623E+06     140.878E+06     95.7003E+06     86.8786E+03    -50.8923E-03     104.640E-03    -53.7478E-03     46.3713E-03    -52.0719E-03     106.038E-03    -53.4717E-03     46.4731E-03
              41     17.0639E-03     78.9198E-03    -1.71276E+06     140.364E+06     95.0622E+06    -218.261E+03    -52.6531E-03     106.354E-03    -53.7005E-03     43.4993E-03    -53.8074E-03     107.725E-03    -53.4262E-03     43.5555E-03
              42     17.0631E-03     79.9795E-03    -2.93346E+06     141.506E+06     94.7826E+06     858.669E+03    -52.6504E-03     106.351E-03    -53.7008E-03     42.7574E-03    -53.8139E-03     107.732E-03    -53.4279E-03     42.8360E-03
              43     17.0644E-03     81.0306E-03    -4.02093E+06     142.784E+06     94.5523E+06     346.223E+03    -52.9485E-03     106.649E-03    -53.7000E-03     43.7590E-03    -54.1331E-03     108.052E-03    -53.4285E-03     43.8280E-03
              44     17.0620E-03     82.0911E-03    -2.30970E+06     144.084E+06     95.7559E+06     377.096E+03    -53.0093E-03     106.717E-03    -53.7079E-03     45.2727E-03    -54.2021E-03     108.136E-03    -53.4347E-03     45.3394E-03
              45     17.0650E-03     83.1487E-03    -1.57783E+06     144.977E+06     96.8057E+06     561.860E+03    -50.6823E-03     104.434E-03    -53.7515E-03     48.7091E-03    -51.9205E-03     105.901E-03    -53.4754E-03     48.8558E-03
              46     17.0627E-03     84.1981E-03    -2.79766E+06     145.124E+06     96.4548E+06    -266.711E+03    -51.6449E-03     105.374E-03    -53.7290E-03     49.0216E-03    -52.8997E-03     106.854E-03    -53.4531E-03     49.1411E-03
              47     17.0641E-03     85.2546E-03    -3.04194E+06     145.444E+06     95.9514E+06     22.3194E+03    -53.4494E-03     107.131E-03    -53.6820E-03     46.6020E-03    -54.6670E-03     108.576E-03    -53.4087E-03     46.6544E-03
              48     17.0635E-03     86.3118E-03    -2.72910E+06     145.615E+06     95.5761E+06     234.373E+03    -52.6863E-03     106.388E-03    -53.7019E-03     48.0767E-03    -53.9081E-03     107.840E-03    -53.4312E-03     48.1510E-03
              49     17.0632E-03     87.3700E-03    -1.87498E+06     146.266E+06     96.3522E+06     208.636E+03    -51.4113E-03     105.151E-03    -53.7392E-03     50.6040E-03    -52.6487E-03     106.621E-03    -53.4668E-03     50.7098E-03
              50     17.0642E-03     88.4193E-03    -1.67649E+06     146.259E+06     96.6438E+06    -59.3241E+03    -50.8064E-03     104.539E-03    -53.7325E-03     45.8218E-03    -51.9968E-03     105.962E-03    -53.4589E-03     45.9241E-03
              51     17.0639E-03     89.4670E-03    -2.87116E+06     146.582E+06     96.1992E+06     346.885E+03    -53.3760E-03     107.041E-03    -53.6649E-03     41.3320E-03    -54.5360E-03     108.432E-03    -53.3923E-03     41.3768E-03
              52     17.0635E-03     90.5312E-03    -2.55590E+06     147.990E+06     96.7842E+06     464.906E+03    -54.2260E-03     107.869E-03    -53.6429E-03     43.1297E-03    -55.4081E-03     109.287E-03    -53.3699E-03     43.1588E-03
              53     17.0647E-03     91.5917E-03    -2.57310E+06     147.786E+06     96.7868E+06    -342.565E+03    -51.5225E-03     105.217E-03    -53.6949E-03     49.1123E-03    -52.7808E-03     106.711E-03    -53.4215E-03     49.2223E-03
              54     17.0640E-03     92.6409E-03    -2.97318E+06     146.724E+06     96.8629E+06    -216.014E+03    -51.5567E-03     105.244E-03    -53.6874E-03     49.7023E-03    -52.8202E-03     106.737E-03    -53.4115E-03     49.8153E-03
              55     17.0648E-03     93.6966E-03    -1.48014E+06     146.768E+06     97.9172E+06     115.797E+03    -52.0176E-03     105.681E-03    -53.6629E-03     45.3729E-03    -53.2135E-03     107.108E-03    -53.3840E-03     45.4517E-03
              56     17.0648E-03     94.7487E-03    -1.86789E+06     147.513E+06     98.6354E+06     646.773E+03    -51.3937E-03     105.027E-03    -53.6332E-03     45.3376E-03    -52.5919E-03     106.456E-03    -53.3512E-03     45.4379E-03
              57     17.0673E-03     95.8038E-03    -3.61813E+06     148.343E+06     98.8648E+06     469.950E+03    -53.3884E-03     106.942E-03    -53.5538E-03     46.6213E-03    -54.6195E-03     108.401E-03    -53.2694E-03     46.6754E-03
              58     17.0644E-03     96.8650E-03    -2.87041E+06     148.722E+06     99.0277E+06    -518.595E+03    -52.3537E-03     105.873E-03    -53.5195E-03     47.8364E-03    -53.5775E-03     107.328E-03    -53.2359E-03     47.8940E-03
              59     17.0717E-03     97.9163E-03    -360.284E+03     151.093E+06     101.580E+06    -1.48451E+06    -49.5617E-03     103.036E-03    -53.4739E-03     50.3584E-03    -50.8120E-03     104.527E-03    -53.1846E-03     50.4899E-03
              60     17.0682E-03     98.9665E-03    -3.11174E+06     149.022E+06     100.091E+06     560.572E+03    -53.9895E-03     107.299E-03    -53.3096E-03     50.7793E-03    -55.2771E-03     108.815E-03    -53.0208E-03     50.8249E-03
              61     17.0712E-03     100.031E-03    -4.68390E+06     147.788E+06     98.9784E+06     2.58249E+06    -55.3316E-03     108.510E-03    -53.1785E-03     49.6953E-03    -56.5971E-03     109.997E-03    -52.8911E-03     49.6985E-03
              62     17.0750E-03     101.085E-03    -1.48327E+06     149.439E+06     100.674E+06     4.10675E+03    -52.0691E-03     105.136E-03    -53.0667E-03     51.1542E-03    -53.3406E-03     106.641E-03    -52.7779E-03     51.2247E-03
              63     17.0776E-03     102.135E-03    -3.83979E+06     147.298E+06     99.6476E+06    -725.876E+03    -54.1913E-03     107.007E-03    -52.8152E-03     49.8844E-03    -55.4702E-03     108.506E-03    -52.5250E-03     49.8947E-03
              64     17.0818E-03     103.193E-03    -3.52758E+06     145.238E+06     100.383E+06    -193.083E+03    -57.4543E-03     109.974E-03    -52.5193E-03     49.1216E-03    -58.7206E-03     111.452E-03    -52.2229E-03     49.0373E-03
              65     17.0853E-03     104.260E-03    -2.19496E+06     143.917E+06     101.568E+06     120.839E+03    -58.0082E-03     110.281E-03    -52.2729E-03     51.8875E-03    -59.3102E-03     111.792E-03    -51.9705E-03     51.8011E-03
              66     17.0900E-03     105.315E-03    -1.00857E+06     142.472E+06     103.141E+06    -264.229E+03    -60.7053E-03     112.687E-03    -51.9821E-03     53.9171E-03    -62.0406E-03     114.226E-03    -51.6716E-03     53.7521E-03
              67     17.0925E-03     106.382E-03    -2.95215E+06     138.876E+06     102.057E+06    -1.50345E+06    -66.7941E-03     118.440E-03    -51.6455E-03     52.2216E-03    -68.1235E-03     119.956E-03    -51.3323E-03     51.8526E-03
              68     17.0951E-03     107.453E-03    -3.29900E+06     134.323E+06     100.400E+06    -1.74501E+06    -73.7093E-03     125.050E-03    -51.3412E-03     53.1924E-03    -75.0500E-03     126.566E-03    -51.0291E-03     52.6048E-03
              69     17.0961E-03     108.536E-03    -4.79262E+06     129.712E+06     98.7695E+06    -1.48573E+06    -79.4642E-03     130.564E-03    -51.0998E-03     54.8609E-03    -80.8418E-03     132.099E-03    -50.7871E-03     54.0843E-03
              70     17.0981E-03     109.621E-03    -2.15683E+06     125.722E+06     99.0889E+06    -813.190E+03    -84.8424E-03     135.716E-03    -50.8740E-03     60.6553E-03    -86.2920E-03     137.318E-03    -50.5578E-03     59.6763E-03
              71     17.0997E-03     110.714E-03    -3.65732E+06     121.077E+06     98.8431E+06    -2.04718E+06    -93.7501E-03     144.329E-03    -50.5789E-03     67.7959E-03    -95.2923E-03     146.003E-03    -50.2549E-03     66.4268E-03
              72     17.1003E-03     111.823E-03    -2.07479E+06     114.498E+06     98.7667E+06    -2.51200E+06    -102.182E-03     152.492E-03    -50.3097E-03     73.1551E-03    -103.798E-03     154.222E-03    -49.9789E-03     71.3901E-03
              73     17.1024E-03     112.932E-03    -4.35266E+06     105.302E+06     96.4774E+06    -3.65613E+06    -109.876E-03     159.943E-03    -50.0665E-03     81.5378E-03    -111.618E-03     161.765E-03    -49.7305E-03     79.3745E-03
              74     17.1022E-03     114.056E-03     1.84559E+06     101.029E+06     99.2129E+06     445.895E+03    -120.000E-03     169.790E-03    -49.7901E-03     90.2483E-03    -121.824E-03     171.696E-03    -49.4432E-03     87.6253E-03
              75     17.1040E-03     115.191E-03    -6.40710E+06     90.3757E+06     95.3450E+06    -5.29073E+06    -129.309E-03     178.841E-03    -49.5321E-03     98.6388E-03    -131.276E-03     180.833E-03    -49.1772E-03     95.4035E-03
              76     17.1040E-03     116.332E-03     2.28298E+06     79.6190E+06     99.0031E+06    -2.83328E+06    -137.210E-03     186.522E-03    -49.3120E-03     104.956E-03    -139.266E-03     188.584E-03    -48.9357E-03     101.252E-03
              77     17.1063E-03     117.481E-03    -6.82302E+06     70.4675E+06     99.5110E+06    -4.14214E+06    -146.404E-03     195.482E-03    -49.0785E-03     117.422E-03    -148.776E-03     197.800E-03    -48.6732E-03     112.943E-03
              78     17.1058E-03     118.656E-03     2.84969E+06     70.0887E+06     110.542E+06     2.60351E+06    -154.940E-03     203.829E-03    -48.8883E-03     145.285E-03    -157.834E-03     206.678E-03    -48.4414E-03     139.924E-03
              79     17.1097E-03     119.846E-03    -7.27914E+06     73.2651E+06     99.1438E+06     985.413E+03    -151.174E-03     200.082E-03    -48.9081E-03     188.294E-03    -155.152E-03     204.029E-03    -48.5081E-03     182.126E-03
              80     17.1089E-03     121.020E-03    -6.83267E+06     47.8171E+06     60.8637E+06    -15.8854E+06    -124.060E-03     173.518E-03    -49.4577E-03     245.042E-03    -128.260E-03     177.706E-03    -49.2128E-03     239.779E-03
              81     17.1132E-03     122.132E-03     4.58712E+06     6.57931E+06     26.9205E+06    -16.0171E+06    -53.0682E-03     105.619E-03    -52.5505E-03     235.131E-03    -55.0772E-03     107.634E-03    -52.4321E-03     233.118E-03
              82     16.9997E-03     123.062E-03    -12.6343E+06    -17.2524E+06     13.1763E+06    -396.984E+03     17.5853E-03     45.1093E-03    -62.6947E-03     96.7769E-03     17.3094E-03     45.1790E-03    -62.5854E-03     96.7663E-03
              83     15.7825E-03     123.659E-03     2.95972E+06     28.6730E+06     63.1966E+06    -3.58281E+06     26.1898E-03     45.1389E-03    -71.3287E-03     17.4438E-03     26.0413E-03     45.1603E-03    -71.0586E-03     17.3943E-03
              84     14.8876E-03     123.347E-03    -12.7288E+06    -7.24492E+06     76.7210E+06    -13.6006E+06    -3.92694E-03     76.5601E-03    -72.6331E-03     14.9658E-03    -4.09425E-03     76.4409E-03    -72.2205E-03     14.7304E-03
              85     14.0814E-03     123.005E-03     4.19396E+06    -16.5491E+06     80.4053E+06    -6.35816E+06    -25.2349E-03     97.5645E-03    -72.3296E-03    -9.56957E-03    -25.3440E-03     97.3317E-03    -71.9097E-03    -9.75834E-03
              86     13.2665E-03     122.700E-03     15.3015E+06     4.53538E+06     92.1028E+06    -4.38784E+06    -33.8666E-03     105.191E-03    -71.3240E-03    -24.8234E-03    -33.9554E-03     105.025E-03    -70.8923E-03    -25.0083E-03
              87     12.4541E-03     122.435E-03     22.6764E+06    -7.13232E+06     92.6002E+06     900.027E+03    -45.4987E-03     115.557E-03    -70.0584E-03    -41.8466E-03    -45.5281E-03     115.309E-03    -69.6179E-03    -42.0118E-03
              88     11.6502E-03     122.198E-03     29.0218E+06      551.39E+03     91.0812E+06     1.11322E+06    -54.2931E-03     122.743E-03    -68.4500E-03    -49.7021E-03    -54.2954E-03     122.520E-03    -68.0375E-03    -49.8855E-03
              89     10.8422E-03     121.996E-03     30.4959E+06    -5.86279E+06     86.7250E+06     4.10606E+06    -59.8569E-03     126.593E-03    -66.7363E-03    -50.6219E-03    -59.8317E-03     126.346E-03    -66.3383E-03    -50.7598E-03
              90     10.0316E-03     121.819E-03     31.3458E+06     3.24610E+06     86.9909E+06     1.86446E+06    -63.2062E-03     128.223E-03    -65.0167E-03    -47.7027E-03    -63.1885E-03     128.027E-03    -64.6320E-03    -47.8519E-03
              91     9.21549E-03     121.668E-03     32.1271E+06    -871.364E+03     83.4505E+06     1.17610E+06    -64.8457E-03     128.175E-03    -63.3292E-03    -43.0357E-03    -64.8122E-03     127.969E-03    -62.9572E-03    -43.1728E-03
              92     8.39580E-03     121.536E-03     33.4345E+06     1.13718E+06     79.5980E+06     312.502E+03    -64.9581E-03     126.659E-03    -61.7011E-03    -37.7796E-03    -64.9153E-03     126.474E-03    -61.3532E-03    -37.9057E-03
              93     7.57065E-03     121.424E-03     33.9695E+06    -673.827E+03     73.6002E+06     387.532E+03    -64.0348E-03     124.216E-03    -60.1815E-03    -32.5392E-03    -63.9777E-03     124.035E-03    -59.8618E-03    -32.6429E-03
              94     6.74117E-03     121.328E-03     34.5182E+06     1.45727E+06     70.4781E+06    -533.973E+03    -62.5649E-03     121.374E-03    -58.8087E-03    -27.6799E-03    -62.5035E-03     121.211E-03    -58.5085E-03    -27.7762E-03
              95     5.90743E-03     121.248E-03     35.2898E+06    -282.752E+03     65.3291E+06    -1.01112E+06    -60.8679E-03     118.448E-03    -57.5801E-03    -23.1746E-03    -60.7924E-03     118.287E-03    -57.3042E-03    -23.2603E-03
              96     5.06992E-03     121.180E-03     36.3109E+06     762.146E+03     59.4316E+06    -1.44936E+06    -59.1079E-03     115.609E-03    -56.5007E-03    -19.1526E-03    -59.0202E-03     115.462E-03    -56.2573E-03    -19.2297E-03
              97     4.22954E-03     121.125E-03     37.6354E+06    -482.597E+03     54.5876E+06    -1.66494E+06    -57.3910E-03     112.993E-03    -55.6023E-03    -15.4964E-03    -57.2878E-03     112.847E-03    -55.3833E-03    -15.5643E-03
              98     3.38620E-03     121.081E-03     39.0656E+06     143.642E+03     51.8727E+06    -1.73787E+06    -55.8871E-03     110.792E-03    -54.9045E-03    -12.2309E-03    -55.7736E-03     110.652E-03    -54.7020E-03    -12.2891E-03
              99     2.54097E-03     121.047E-03     40.4536E+06    -459.010E+03     47.6051E+06    -1.98841E+06    -54.6995E-03     109.116E-03    -54.4163E-03    -9.52946E-03    -54.5717E-03     108.978E-03    -54.2363E-03    -9.58189E-03
             100     1.69359E-03     121.022E-03     42.3435E+06     76.3848E+03     44.8050E+06    -2.47611E+06    -53.9699E-03     108.151E-03    -54.1807E-03    -7.27902E-03    -53.8297E-03     108.018E-03    -54.0182E-03    -7.32996E-03
             101     845.796E-06     121.008E-03     41.9557E+06    -1.92071E+06     43.1387E+06    -2.59225E+06    -53.8650E-03     108.117E-03    -54.2518E-03    -4.67677E-03    -53.7233E-03     107.975E-03    -54.0941E-03    -4.72195E-03
             102    -351.763E-09     119.944E-03     35.8806E+06    -4.86105E+06     34.5533E+06    -1.76105E+06    -47.7013E-03     95.7355E-03    -48.0341E-03    -1.08375E-03    -47.5712E-03     95.6029E-03    -47.9064E-03    -1.11403E-03
             103     96.7258E-09     118.914E-03     19.0757E+06    -10.4673E+06     18.7730E+06    -806.595E+03    -37.4624E-03     74.9324E-03    -37.4700E-03     1.29097E-03    -37.3811E-03     74.8233E-03    -37.3886E-03     1.27459E-03
             104     170.873E-09     117.901E-03    -3.12830E+06    -18.4725E+06    -2.28967E+06    -2.22899E+06    -30.5157E-03     60.8614E-03    -30.3456E-03     2.28570E-03    -30.5023E-03     60.7761E-03    -30.3258E-03     2.25284E-03
             105    -121.179E-09     116.899E-03    -26.6920E+06    -28.5667E+06    -26.7727E+06    -3.10331E+06    -25.7133E-03     51.3758E-03    -25.6625E-03     3.33104E-03    -25.7667E-03     51.3105E-03    -25.7162E-03     3.28862E-03
             106     159.660E-09     115.906E-03    -54.2623E+06    -40.2501E+06    -53.4266E+06    -3.72038E+06    -22.9379E-03     45.9724E-03    -23.0345E-03     4.22728E-03    -23.0732E-03     45.9277E-03    -23.1646E-03     4.17809E-03
             107    -366.039E-09     114.914E-03    -84.3460E+06    -52.4091E+06    -84.6000E+06    -3.80921E+06    -21.8436E-03     43.9196E-03    -22.0759E-03     5.05342E-03    -22.0664E-03     43.9030E-03    -22.3007E-03     5.00406E-03
             108     148.643E-09     113.924E-03    -114.811E+06    -62.7694E+06    -114.859E+06    -2.37857E+06    -22.3190E-03     44.7829E-03    -22.4639E-03     5.60572E-03    -22.6353E-03     44.8025E-03    -22.7807E-03     5.57559E-03
             109    -200.913E-09     112.931E-03    -117.488E+06    -61.5855E+06    -119.935E+06     3.09377E+06    -24.2089E-03     48.3706E-03    -24.1617E-03     6.05583E-03    -24.5331E-03     48.4071E-03    -24.5017E-03     6.09676E-03
             110     293.060E-09     111.933E-03    -82.3457E+06    -44.5227E+06    -81.6600E+06     7.23211E+06    -27.2786E-03     54.4581E-03    -27.1795E-03     6.56302E-03    -27.5076E-03     54.4732E-03    -27.4038E-03     6.65745E-03
             111    -219.667E-09     110.928E-03    -47.4671E+06    -29.6738E+06    -44.9184E+06     2.11580E+06    -31.0142E-03     61.9732E-03    -30.9590E-03     6.94871E-03    -31.1437E-03     61.9586E-03    -31.0717E-03     6.97636E-03
             112     254.623E-09     109.915E-03    -34.8557E+06    -30.3880E+06    -34.8065E+06    -2.26555E+06    -34.8253E-03     69.5373E-03    -34.7120E-03     7.13317E-03    -34.9054E-03     69.4863E-03    -34.7914E-03     7.10292E-03
             113    -110.689E-09     108.895E-03    -29.6015E+06    -38.6050E+06    -29.5827E+06    -2.21020E+06    -38.3624E-03     76.6507E-03    -38.2883E-03     7.16504E-03    -38.4118E-03     76.5435E-03    -38.3373E-03     7.13391E-03
             114     76.4695E-09     107.868E-03    -24.7006E+06    -47.9366E+06     -24.368E+06    -3.04347E+06    -41.6437E-03     83.2403E-03    -41.5966E-03     6.88886E-03    -41.6627E-03     83.0719E-03    -41.6131E-03     6.84479E-03
             115     24.4068E-09     106.834E-03    -25.3201E+06    -59.7269E+06    -25.6030E+06    -3.64897E+06    -44.5101E-03     88.9241E-03    -44.4141E-03     6.72579E-03    -44.5132E-03     88.6997E-03    -44.4188E-03     6.67131E-03
             116     18.5903E-09     105.795E-03    -30.0797E+06    -72.2407E+06    -30.0724E+06    -3.44547E+06    -46.8059E-03     93.5719E-03    -46.7660E-03     6.65230E-03    -46.8082E-03     93.2984E-03    -46.7680E-03     6.59792E-03
             117    -11.5890E-09     104.752E-03    -31.9514E+06    -84.3801E+06    -32.7173E+06    -3.59862E+06    -48.7450E-03     97.3249E-03    -48.5799E-03     6.45045E-03    -48.7352E-03     96.9974E-03    -48.5748E-03     6.39186E-03
             118     260.906E-09     103.705E-03    -35.1989E+06    -95.1296E+06    -35.9326E+06    -2.37793E+06    -50.2692E-03     100.298E-03    -50.0286E-03     6.39298E-03    -50.2554E-03     99.9260E-03    -50.0193E-03     6.34845E-03
             119    -124.418E-09     102.656E-03    -39.1241E+06    -104.265E+06    -38.7278E+06    -2.32893E+06    -51.2981E-03     102.533E-03    -51.2354E-03     6.35415E-03    -51.2865E-03     102.126E-03    -51.2212E-03     6.30903E-03
             120     81.1922E-09     101.604E-03    -42.0555E+06    -112.570E+06    -42.2432E+06    -2.87212E+06    -52.0385E-03     104.060E-03    -52.0218E-03     6.18310E-03    -52.0244E-03     103.620E-03    -52.0088E-03     6.12944E-03
             121    -29.1170E-09     100.552E-03    -45.8290E+06    -121.423E+06    -45.6891E+06    -2.54146E+06    -52.6213E-03     105.188E-03    -52.5664E-03     5.91131E-03    -52.6083E-03     104.714E-03    -52.5523E-03     5.86068E-03
             122     56.3182E-09     99.4988E-03    -49.2321E+06    -130.741E+06    -49.7281E+06    -1.90356E+06    -53.0867E-03     106.116E-03    -53.0294E-03     5.77855E-03    -53.0713E-03     105.607E-03    -53.0171E-03     5.73572E-03
             123    -6.53769E-09     98.4442E-03    -52.5846E+06    -137.886E+06    -52.5657E+06    -1.34331E+06    -53.3996E-03     106.760E-03    -53.3602E-03     5.90529E-03    -53.3866E-03     106.224E-03    -53.3468E-03     5.86951E-03
             124     8.18223E-09     97.3893E-03    -54.7753E+06    -144.003E+06    -54.8488E+06    -1.67431E+06    -53.5952E-03     107.127E-03    -53.5318E-03     5.98577E-03    -53.5809E-03     106.567E-03    -53.5179E-03     5.94518E-03
             125     80.8971E-09     96.3344E-03    -57.0002E+06    -150.125E+06    -57.1397E+06    -1.57534E+06    -53.7280E-03     107.371E-03    -53.6433E-03     5.97481E-03    -53.7126E-03     106.787E-03    -53.6287E-03     5.93484E-03
             126    -43.5368E-09     95.2791E-03    -58.4590E+06    -154.614E+06    -58.4071E+06    -1.27259E+06    -53.7492E-03     107.504E-03    -53.7550E-03     5.96521E-03    -53.7328E-03     106.902E-03    -53.7381E-03     5.92903E-03
             127    -19.6196E-09     94.2237E-03    -59.6959E+06    -158.923E+06    -59.8145E+06    -980.528E+03    -53.7843E-03     107.558E-03    -53.7738E-03     5.97080E-03    -53.7658E-03     106.938E-03    -53.7559E-03     5.93859E-03
             128     82.8678E-09     93.1685E-03    -59.8589E+06    -161.998E+06    -59.7822E+06    -679.820E+03    -53.8700E-03     107.619E-03    -53.7495E-03     6.01074E-03    -53.8479E-03     106.984E-03    -53.7267E-03     5.98249E-03
             129     43.5024E-09     92.1129E-03    -60.4820E+06    -165.058E+06    -60.3148E+06    -870.602E+03    -53.8704E-03     107.644E-03    -53.7739E-03     6.05440E-03    -53.8462E-03     106.995E-03    -53.7485E-03     6.02362E-03
             130    -20.4829E-09     91.0578E-03    -61.1361E+06    -167.910E+06    -61.3034E+06    -591.911E+03    -53.8197E-03     107.603E-03    -53.7832E-03     5.96842E-03    -53.7932E-03     106.942E-03    -53.7576E-03     5.94119E-03
             131     41.5246E-09     90.0024E-03    -61.0917E+06    -169.159E+06    -61.4334E+06    -142.140E+03    -53.7934E-03     107.569E-03    -53.7756E-03     5.92760E-03    -53.7646E-03     106.902E-03    -53.7489E-03     5.90615E-03
             132    -52.3215E-09     88.9473E-03    -60.8540E+06    -170.364E+06    -60.3905E+06    -388.272E+03    -53.7850E-03     107.591E-03    -53.8062E-03     5.88639E-03    -53.7548E-03     106.916E-03    -53.7729E-03     5.86189E-03
             133     15.8391E-09     87.8920E-03    -59.4807E+06    -172.341E+06    -59.5714E+06    -486.631E+03    -53.8496E-03     107.628E-03    -53.7786E-03     5.87238E-03    -53.8108E-03     106.940E-03    -53.7403E-03     5.84655E-03
             134     124.616E-09     86.8366E-03     -58.576E+06    -173.768E+06    -58.5174E+06    -318.359E+03    -53.8912E-03     107.644E-03    -53.7523E-03     5.99164E-03    -53.8475E-03     106.945E-03    -53.7080E-03     5.96741E-03
             135    -44.1462E-09     85.7813E-03    -58.3656E+06    -174.406E+06    -58.4146E+06    -542.781E+03    -53.8597E-03     107.614E-03    -53.7543E-03     5.96917E-03    -53.8141E-03     106.912E-03    -53.7088E-03     5.94152E-03
             136     126.489E-09     84.7262E-03    -58.5679E+06    -175.398E+06    -58.7968E+06    -209.864E+03    -53.8097E-03     107.598E-03    -53.7882E-03     5.90131E-03    -53.7631E-03     106.892E-03    -53.7429E-03     5.87846E-03
             137    -190.755E-09     83.6710E-03    -58.5130E+06    -175.862E+06    -58.4880E+06     64.3334E+03    -53.7375E-03     107.593E-03    -53.8557E-03     5.78736E-03    -53.6904E-03     106.884E-03    -53.8083E-03     5.76868E-03
             138     38.1984E-09     82.6158E-03    -57.8659E+06    -175.592E+06    -57.9410E+06     11.1427E+03    -53.7818E-03     107.570E-03    -53.7883E-03     5.71919E-03    -53.7327E-03     106.861E-03    -53.7395E-03     5.70000E-03
             139     87.2785E-09     81.5605E-03    -57.7979E+06    -175.569E+06    -57.7553E+06    -31.8811E+03    -53.8400E-03     107.559E-03    -53.7192E-03     5.81493E-03    -53.7908E-03     106.850E-03    -53.6696E-03     5.79516E-03
             140    -22.0666E-09     80.5053E-03    -57.8590E+06    -175.872E+06    -57.9887E+06    -89.3485E+03    -53.8102E-03     107.561E-03    -53.7509E-03     5.86440E-03    -53.7606E-03     106.851E-03    -53.7019E-03     5.84380E-03
             141     40.6512E-09     79.4501E-03    -57.3136E+06    -175.609E+06    -57.3345E+06     258.991E+03    -53.7897E-03     107.553E-03    -53.7635E-03     5.88539E-03    -53.7387E-03     106.842E-03    -53.7125E-03     5.86960E-03
             142    -30.8951E-09     78.3949E-03    -56.1005E+06    -174.747E+06    -56.2059E+06     372.091E+03    -53.7798E-03     107.546E-03    -53.7660E-03     5.85433E-03    -53.7256E-03     106.836E-03    -53.7123E-03     5.83995E-03
             143     27.6529E-09     77.3399E-03    -55.6074E+06    -174.083E+06    -55.4069E+06    -140.444E+03    -53.8068E-03     107.584E-03    -53.7771E-03     5.78470E-03    -53.7523E-03     106.875E-03    -53.7211E-03     5.76321E-03
             144     12.9560E-09     76.2845E-03    -55.9583E+06    -174.583E+06    -56.0657E+06    -241.642E+03    -53.8164E-03     107.602E-03    -53.7860E-03     5.82239E-03    -53.7619E-03     106.893E-03    -53.7320E-03     5.79979E-03
             145    -18.7000E-09     75.2292E-03    -55.8149E+06    -174.492E+06    -55.8100E+06     96.5803E+03    -53.8078E-03     107.559E-03    -53.7511E-03     5.86555E-03    -53.7531E-03     106.849E-03    -53.6962E-03     5.84739E-03
             146     105.250E-09     74.1740E-03    -55.3831E+06    -174.060E+06    -55.3311E+06     65.0006E+03    -53.8527E-03     107.538E-03    -53.6857E-03     5.93114E-03    -53.7972E-03     106.830E-03    -53.6297E-03     5.91190E-03
             147     77.2985E-09     73.1188E-03    -55.4123E+06    -174.134E+06    -55.4193E+06     19.9741E+03    -53.8527E-03     107.553E-03    -53.7003E-03     5.95683E-03    -53.7971E-03     106.844E-03    -53.6445E-03     5.93685E-03
             148    -16.3177E-09     72.0637E-03    -55.1841E+06    -173.814E+06    -55.0554E+06    -36.9861E+03    -53.7789E-03     107.573E-03    -53.7939E-03     5.87776E-03    -53.7232E-03     106.865E-03    -53.7371E-03     5.85761E-03
             149    -84.8121E-09     71.0085E-03    -54.8284E+06    -173.519E+06    -55.0211E+06     69.1317E+03    -53.7623E-03     107.584E-03    -53.8212E-03     5.82987E-03    -53.7052E-03     106.876E-03    -53.7652E-03     5.81121E-03
             150     67.5851E-09     69.9531E-03    -55.1122E+06    -173.644E+06    -55.1243E+06     145.148E+03    -53.7729E-03     107.543E-03    -53.7703E-03     5.96553E-03    -53.7169E-03     106.836E-03    -53.7142E-03     5.94787E-03
             151    -62.6515E-09     68.8979E-03    -55.1042E+06    -173.751E+06    -55.2824E+06     182.553E+03    -53.7594E-03     107.536E-03    -53.7761E-03     6.08234E-03    -53.7029E-03     106.828E-03    -53.7207E-03     6.06536E-03
             152     9.89122E-09     67.8428E-03    -54.9390E+06    -173.362E+06    -54.9180E+06     97.7576E+03    -53.8107E-03     107.567E-03    -53.7563E-03     5.83243E-03    -53.7545E-03     106.860E-03    -53.6998E-03     5.81438E-03
             153     120.024E-09     66.7879E-03    -55.1931E+06    -173.520E+06    -55.0933E+06    -326.363E+03    -53.8622E-03     107.613E-03    -53.7505E-03     5.67682E-03    -53.8068E-03     106.906E-03    -53.6943E-03     5.65309E-03
             154    -73.2301E-09     65.7325E-03    -55.3959E+06    -173.885E+06    -55.4551E+06    -329.423E+03    -53.8847E-03     107.757E-03    -53.8720E-03     5.77619E-03    -53.8292E-03     107.049E-03    -53.8168E-03     5.75185E-03
             155     31.9156E-09     64.6767E-03    -55.1547E+06    -173.610E+06    -55.1754E+06     63.0807E+03    -53.8942E-03     107.762E-03    -53.8674E-03     5.93243E-03    -53.8384E-03     107.054E-03    -53.8116E-03     5.91354E-03
             156     38.4076E-09     63.6211E-03    -54.8580E+06    -173.320E+06    -55.0013E+06     388.329E+03    -53.8458E-03     107.599E-03    -53.7529E-03     6.02882E-03    -53.7892E-03     106.892E-03    -53.6971E-03     6.01455E-03
             157     31.1767E-09     62.5666E-03    -55.3858E+06    -173.338E+06    -54.9815E+06    -143.874E+03    -53.7909E-03     107.574E-03    -53.7835E-03     5.88938E-03    -53.7369E-03     106.869E-03    -53.7268E-03     5.86756E-03
             158    -99.9375E-09     61.5110E-03    -55.4440E+06    -173.694E+06    -55.7644E+06    -296.630E+03    -53.8082E-03     107.631E-03    -53.8228E-03     5.85798E-03    -53.7529E-03     106.925E-03    -53.7694E-03     5.83408E-03
             159     45.2436E-09     59.4004E-03    -56.0351E+06    -174.131E+06    -55.9012E+06     134.242E+03    -53.8186E-03     107.556E-03    -53.7374E-03     5.99165E-03    -53.7654E-03     106.849E-03    -53.6832E-03     5.97422E-03
             160    -91.5356E-09     58.3455E-03    -55.5400E+06    -173.893E+06    -55.8167E+06     174.497E+03    -53.7601E-03     107.549E-03    -53.7893E-03     5.89230E-03    -53.7048E-03     106.842E-03    -53.7357E-03     5.87523E-03
             161     68.6070E-09     57.2900E-03    -55.5444E+06    -173.810E+06    -55.4120E+06    -3.28457E+03    -53.7834E-03     107.553E-03    -53.7692E-03     5.86378E-03    -53.7288E-03     106.845E-03    -53.7137E-03     5.84421E-03
             162    -36.1426E-09     56.2351E-03    -55.0955E+06    -173.579E+06    -55.2600E+06    -36.5311E+03    -53.7231E-03     107.525E-03    -53.8016E-03     5.85096E-03    -53.6669E-03     106.818E-03    -53.7463E-03     5.83097E-03
             163    -147.966E-09     55.1799E-03    -54.4612E+06    -172.922E+06    -54.6576E+06     276.913E+03    -53.7168E-03     107.533E-03    -53.8167E-03     5.72925E-03    -53.6592E-03     106.828E-03    -53.7603E-03     5.71368E-03
             164     144.125E-09     54.1246E-03    -54.8772E+06    -172.933E+06    -54.6123E+06    -99.3607E+03    -53.7973E-03     107.509E-03    -53.7115E-03     5.74047E-03    -53.7419E-03     106.804E-03    -53.6542E-03     5.72002E-03
             165    -6.32998E-09     53.0696E-03    -55.2139E+06    -173.395E+06    -55.3057E+06    -353.586E+03    -53.7318E-03     107.472E-03    -53.7398E-03     5.93435E-03    -53.6764E-03     106.766E-03    -53.6849E-03     5.91022E-03
             166    -162.614E-09     52.0142E-03    -55.0714E+06    -173.440E+06    -55.3309E+06     61.6658E+03    -53.6590E-03     107.443E-03    -53.7839E-03     5.96671E-03    -53.6027E-03     106.737E-03    -53.7292E-03     5.94815E-03
             167     98.9421E-09     50.9593E-03    -55.5407E+06    -173.828E+06    -55.5864E+06     75.9535E+03    -53.7404E-03     107.387E-03    -53.6464E-03     5.87962E-03    -53.6856E-03     106.680E-03    -53.5917E-03     5.86133E-03
             168     108.499E-09     49.9045E-03    -55.6851E+06    -173.986E+06    -55.7007E+06     37.0420E+03    -53.7929E-03     107.431E-03    -53.6379E-03     5.92068E-03    -53.7384E-03     106.723E-03    -53.5833E-03     5.90145E-03
             169    -67.9424E-09     48.8491E-03    -55.3900E+06    -173.563E+06    -55.2297E+06    -41.1944E+03    -53.7144E-03     107.386E-03    -53.6715E-03     5.87096E-03    -53.6598E-03     106.679E-03    -53.6156E-03     5.85041E-03
             170     86.3760E-09     47.7943E-03    -55.3949E+06    -173.649E+06    -55.3863E+06    -61.0506E+03    -53.6262E-03     107.214E-03    -53.5883E-03     5.89282E-03    -53.5712E-03     106.508E-03    -53.5331E-03     5.87246E-03
             171    -56.1835E-09     46.7396E-03    -54.8516E+06    -173.339E+06    -54.9549E+06     146.773E+03    -53.5988E-03     107.213E-03    -53.6139E-03     5.97713E-03    -53.5422E-03     106.506E-03    -53.5578E-03     5.95972E-03
             172    -17.5884E-09     45.6845E-03    -54.7678E+06    -173.275E+06    -54.8525E+06     102.964E+03    -53.5858E-03     107.159E-03    -53.5735E-03     5.91650E-03    -53.5290E-03     106.453E-03    -53.5171E-03     5.89858E-03
             173     95.1130E-09     44.6299E-03    -54.7791E+06    -173.231E+06    -54.8160E+06    -12.4221E+03    -53.5575E-03     107.000E-03    -53.4425E-03     5.92081E-03    -53.5008E-03     106.294E-03    -53.3860E-03     5.90135E-03
             174     6.75227E-09     43.5755E-03    -55.0613E+06    -173.330E+06    -54.8088E+06    -89.7344E+03    -53.4748E-03     106.923E-03    -53.4480E-03     5.84817E-03    -53.4194E-03     106.216E-03    -53.3909E-03     5.82782E-03
             175    -76.1173E-09     42.5210E-03    -55.1248E+06    -173.761E+06    -55.4707E+06     35.2210E+03    -53.4065E-03     106.822E-03    -53.4158E-03     5.78164E-03    -53.3498E-03     106.115E-03    -53.3613E-03     5.76313E-03
             176     110.068E-09     41.4665E-03    -54.8087E+06    -173.327E+06    -54.7571E+06     347.655E+03    -53.3640E-03     106.645E-03    -53.2809E-03     5.79963E-03    -53.3074E-03     105.938E-03    -53.2239E-03     5.78530E-03
             177    -17.3898E-09     40.4126E-03    -54.4609E+06    -172.629E+06    -54.0059E+06    -80.6682E+03    -53.2717E-03     106.393E-03    -53.1213E-03     5.63952E-03    -53.2155E-03     105.688E-03    -53.0621E-03     5.61971E-03
             178     171.471E-09     39.3588E-03    -54.5765E+06     -172.97E+06    -54.7290E+06    -202.741E+03    -53.1089E-03     106.131E-03    -53.0221E-03     5.58682E-03    -53.0517E-03     105.426E-03    -52.9658E-03     5.56517E-03
             179    -193.615E-09     38.3052E-03    -54.9021E+06    -173.180E+06    -54.9203E+06     48.2328E+03    -52.9297E-03     105.862E-03    -52.9319E-03     5.60268E-03    -52.8735E-03     105.156E-03    -52.8758E-03     5.58470E-03
             180     197.009E-09     37.2518E-03    -54.8057E+06    -173.113E+06    -55.1167E+06     5.62440E+03    -52.7404E-03     105.442E-03    -52.7016E-03     5.60808E-03    -52.6835E-03     104.737E-03    -52.6467E-03     5.58994E-03
             181    -152.293E-09     36.1993E-03    -55.4054E+06    -173.357E+06    -55.2942E+06    -67.1868E+03    -52.4910E-03     104.973E-03    -52.4824E-03     5.61477E-03    -52.4365E-03     104.268E-03    -52.4272E-03     5.59560E-03
             182     108.664E-09     35.1469E-03    -55.8957E+06    -173.686E+06    -55.8277E+06    -214.930E+03    -52.2604E-03     104.465E-03    -52.2046E-03     5.46414E-03    -52.2071E-03     103.759E-03    -52.1508E-03     5.44327E-03
             183     17.1401E-09     34.0954E-03    -55.6986E+06    -173.455E+06    -55.7216E+06    -24.9598E+03    -51.9220E-03     103.857E-03    -51.9347E-03     5.45245E-03    -51.8683E-03     103.152E-03    -51.8811E-03     5.43409E-03
             184    -178.891E-09     33.0446E-03    -55.4049E+06    -173.147E+06    -55.5197E+06    -73.1724E+03    -51.6032E-03     103.279E-03    -51.6753E-03     5.27430E-03    -51.5487E-03     102.575E-03    -51.6215E-03     5.25545E-03
             185     203.098E-09     31.9941E-03    -55.4036E+06    -173.035E+06    -55.5921E+06     87.1311E+03    -51.3263E-03     102.641E-03    -51.3142E-03     5.24036E-03    -51.2718E-03     101.937E-03    -51.2610E-03     5.22414E-03
             186    -221.656E-09     30.9445E-03    -55.2342E+06    -172.635E+06    -55.3752E+06     123.629E+03    -50.8742E-03     101.859E-03    -50.9846E-03     5.14700E-03    -50.8197E-03     101.157E-03    -50.9311E-03     5.13145E-03
             187     37.2995E-09     29.8959E-03    -55.0628E+06    -172.220E+06    -55.1645E+06    -75.9182E+03    -50.4814E-03     101.038E-03    -50.5567E-03     4.95621E-03    -50.4270E-03     100.338E-03    -50.5030E-03     4.93822E-03
             188     5.66095E-09     28.8479E-03    -55.0568E+06    -171.877E+06    -54.9947E+06    -16.4598E+03    -50.1229E-03     100.144E-03    -50.0210E-03     4.87650E-03    -50.0692E-03     99.4449E-03    -49.9669E-03     4.85975E-03
             189     115.452E-09     27.8011E-03    -55.1812E+06    -171.709E+06    -55.1570E+06     99.9619E+03    -49.6332E-03     99.1367E-03    -49.5034E-03     4.77744E-03    -49.5801E-03     98.4390E-03    -49.4502E-03     4.76272E-03
             190    -24.7361E-09     26.7554E-03    -54.4568E+06    -170.761E+06    -54.4596E+06     36.7665E+03    -49.1128E-03     98.1358E-03    -49.0230E-03     4.70573E-03    -49.0584E-03     97.4408E-03    -48.9688E-03     4.69059E-03
             191     77.3513E-09     25.7105E-03    -54.2604E+06    -170.326E+06    -54.3408E+06     223.636E+03    -48.5694E-03     97.0687E-03    -48.4993E-03     4.58073E-03    -48.5149E-03     96.3754E-03    -48.4453E-03     4.56886E-03
             192    -20.4573E-09     24.6671E-03    -54.3884E+06    -169.863E+06    -54.1729E+06     438.246E+03    -48.0198E-03     95.9698E-03    -47.9499E-03     4.47548E-03    -47.9668E-03     95.2787E-03    -47.8956E-03     4.46730E-03
             193     76.3204E-09     23.6246E-03    -53.7598E+06    -168.867E+06    -53.7991E+06     424.183E+03    -47.5088E-03     94.8986E-03    -47.3899E-03     4.32687E-03    -47.4546E-03     94.2111E-03    -47.3360E-03     4.31863E-03
             194     62.6398E-09     22.5833E-03    -53.3260E+06    -167.667E+06    -53.1512E+06     477.646E+03    -46.9701E-03     93.7919E-03    -46.8217E-03     4.24776E-03    -46.9164E-03     93.1088E-03    -46.7671E-03     4.24021E-03
             195     46.5964E-09     21.5432E-03    -52.8319E+06    -166.258E+06    -52.6101E+06     117.292E+03    -46.4587E-03     92.7416E-03    -46.2829E-03     4.12994E-03    -46.4054E-03     92.0641E-03    -46.2283E-03     4.11785E-03
             196     140.670E-09     20.5040E-03    -52.3498E+06    -165.128E+06    -52.5261E+06     168.736E+03    -45.8822E-03     91.6205E-03    -45.7383E-03     4.05139E-03    -45.8282E-03     90.9477E-03    -45.6856E-03     4.04051E-03
             197    -90.4048E-09     19.4660E-03    -52.2152E+06    -164.148E+06    -52.3123E+06     649.212E+03    -45.2275E-03     90.3654E-03    -45.1379E-03     3.88830E-03    -45.1746E-03     89.6970E-03    -45.0858E-03     3.88438E-03
             198     185.914E-09     18.4299E-03    -51.0473E+06    -162.270E+06    -50.8992E+06     493.709E+03    -44.5930E-03     89.0466E-03    -44.4536E-03     3.60548E-03    -44.5390E-03     88.3839E-03    -44.3988E-03     3.60012E-03
             199    -45.8991E-09     17.3945E-03    -49.3440E+06    -159.899E+06    -49.7995E+06     654.703E+03    -43.6989E-03     87.3236E-03    -43.6247E-03     3.19498E-03    -43.6414E-03     86.6685E-03    -43.5703E-03     3.19258E-03
             200     23.9400E-09     16.3620E-03    -48.9388E+06    -157.447E+06    -49.0108E+06     972.712E+03    -42.5275E-03     85.0160E-03    -42.4885E-03     2.61321E-03    -42.4727E-03     84.3714E-03    -42.4343E-03     2.61620E-03
             201     61.6529E-09     15.3316E-03    -46.8206E+06    -153.527E+06    -46.7904E+06     840.022E+03    -41.0968E-03     82.1564E-03    -41.0596E-03     2.02166E-03    -41.0403E-03     81.5251E-03    -41.0030E-03     2.02426E-03
             202    -84.0342E-09     14.3049E-03    -44.0182E+06    -149.405E+06    -44.2553E+06     1.23327E+06    -39.3358E-03     78.6723E-03    -39.3365E-03     1.49238E-03    -39.2749E-03     78.0538E-03    -39.2773E-03     1.50134E-03
             203     102.417E-09     13.2814E-03    -41.0518E+06    -144.831E+06    -40.9153E+06     1.30619E+06    -37.3207E-03     74.4736E-03    -37.1529E-03     1.00105E-03    -37.2565E-03     73.8687E-03    -37.0879E-03     1.01221E-03
             204     173.350E-09     12.2631E-03    -37.9924E+06    -140.034E+06    -38.0443E+06     1.43624E+06    -34.9927E-03     69.7096E-03    -34.7168E-03     708.616E-06    -34.9244E-03     69.1200E-03    -34.6489E-03     722.254E-06
             205     31.5381E-09     11.2496E-03    -36.0156E+06    -135.608E+06    -35.4347E+06     952.422E+03    -32.6155E-03     65.0840E-03    -32.4685E-03     607.892E-06    -32.5474E-03     64.5100E-03    -32.3968E-03     615.437E-06
             206     27.1350E-09     10.2406E-03    -35.1371E+06    -133.230E+06    -34.9005E+06     291.535E+03    -30.7191E-03     61.3052E-03    -30.5861E-03     713.474E-06    -30.6508E-03     60.7411E-03    -30.5165E-03     712.455E-06
             207     149.467E-09     9.23450E-03    -35.5735E+06    -132.438E+06    -35.0998E+06     87.2451E+03    -29.6030E-03     59.1125E-03    -29.5094E-03     1.11928E-03    -29.5377E-03     58.5534E-03    -29.4413E-03     1.11575E-03
             208    -157.926E-09     8.23024E-03    -36.1313E+06    -133.216E+06    -35.6903E+06    -591.424E+03    -29.7605E-03     59.4601E-03    -29.6996E-03     1.68633E-03    -29.6960E-03     58.8988E-03    -29.6325E-03     1.67447E-03
             209     276.448E-09     7.22315E-03    -36.6186E+06    -135.556E+06    -36.5126E+06    -552.818E+03    -31.2899E-03     62.5295E-03    -31.2396E-03     2.41175E-03    -31.2234E-03     61.9582E-03    -31.1725E-03     2.40088E-03
             210    -306.981E-09     6.21241E-03    -35.7965E+06    -137.304E+06    -35.7661E+06    -430.616E+03    -33.7509E-03     67.7765E-03    -34.0256E-03     2.87286E-03    -33.6790E-03     67.1940E-03    -33.9534E-03     2.86394E-03
             211    -139.412E-09     5.19528E-03    -34.5206E+06    -139.270E+06    -34.5900E+06    -502.195E+03    -37.3308E-03     74.7812E-03    -37.4504E-03     2.88234E-03    -37.2516E-03     74.1851E-03    -37.3713E-03     2.87265E-03
             212     377.758E-09     4.17003E-03    -32.9651E+06    -141.224E+06    -32.8117E+06    -519.310E+03    -41.3220E-03     82.5673E-03    -41.2453E-03     2.95602E-03    -41.2346E-03     81.9567E-03    -41.1568E-03     2.94612E-03
             213    -479.657E-09     3.13674E-03    -29.9592E+06    -142.082E+06    -30.4830E+06    -59.3421E+03    -44.9714E-03     90.0763E-03    -45.1049E-03     2.66097E-03    -44.8709E-03     89.4538E-03    -45.0079E-03     2.65750E-03
             214     347.170E-09     2.09613E-03    -27.7796E+06    -142.440E+06    -27.8485E+06      36.144E+03    -48.2309E-03     96.4915E-03    -48.2605E-03     1.99234E-03    -48.1223E-03     95.8604E-03    -48.1530E-03     1.99079E-03
             215    -266.875E-09     1.04949E-03    -27.0535E+06    -143.369E+06    -26.9554E+06    -299.295E+03    -50.4721E-03     100.754E-03    -50.2817E-03     1.08494E-03    -50.3593E-03     100.116E-03    -50.1694E-03     1.07993E-03
             216     854.858E-06    -319.189E-18    -26.7169E+06    -143.801E+06    -26.8713E+06    -291.092E+03    -51.2820E-03     102.355E-03    -51.0727E-03     915.910E-06    -51.1674E-03     101.714E-03    -50.9598E-03     911.231E-06
             217     1.70965E-03    -319.189E-18    -26.2288E+06    -143.559E+06    -26.6543E+06    -400.333E+03    -51.4453E-03     102.675E-03    -51.2298E-03     1.77832E-03    -51.3296E-03     102.034E-03    -51.1169E-03     1.77104E-03
             218     2.56418E-03    -319.189E-18    -25.6315E+06    -143.529E+06    -26.9134E+06    -610.970E+03    -51.8011E-03     103.155E-03    -51.3541E-03     2.57232E-03    -51.6821E-03     102.514E-03    -51.2434E-03     2.56093E-03
             219     3.41834E-03    -319.189E-18    -25.2675E+06    -143.674E+06    -27.3309E+06    -536.861E+03    -52.3324E-03     103.857E-03    -51.5244E-03     3.47050E-03    -52.2108E-03     103.215E-03    -51.4161E-03     3.45879E-03
             220     4.27186E-03    -319.189E-18    -25.1914E+06    -144.841E+06    -29.6299E+06    -509.353E+03    -53.0380E-03     104.779E-03    -51.7409E-03     4.40873E-03    -52.9110E-03     104.134E-03    -51.6425E-03     4.39578E-03
             221     5.12481E-03    -319.189E-18    -24.2335E+06    -146.891E+06    -35.0359E+06    -2.22664E+06    -53.9013E-03     105.897E-03    -51.9956E-03     5.39962E-03    -53.7588E-03     105.249E-03    -51.9226E-03     5.36243E-03
             222     5.97685E-03    -319.189E-18    -21.8807E+06    -143.752E+06    -42.3478E+06    -3.44073E+06    -54.9546E-03     107.240E-03    -52.2855E-03     6.55131E-03    -54.7944E-03     106.615E-03    -52.2571E-03     6.49608E-03
             223     6.82787E-03    -319.189E-18    -18.7885E+06    -136.397E+06    -49.8378E+06    -4.42669E+06    -56.2640E-03     108.893E-03    -52.6290E-03     7.81921E-03    -56.0882E-03     108.311E-03    -52.6531E-03     7.74813E-03
             224     7.67770E-03    -319.189E-18    -14.6276E+06    -124.193E+06    -55.5917E+06    -5.87919E+06    -57.8100E-03     110.851E-03    -53.0414E-03     9.17675E-03    -57.6230E-03     110.333E-03    -53.1180E-03     9.08254E-03
             225     8.52592E-03    -319.189E-18    -9.12374E+06    -104.782E+06    -60.6499E+06    -6.82620E+06    -59.5876E-03     113.104E-03    -53.5168E-03     10.8192E-03    -59.3942E-03     112.682E-03    -53.6549E-03     10.7075E-03
             226     9.37248E-03    -319.189E-18    -3.93653E+06    -81.1840E+06    -63.7986E+06    -6.35301E+06    -61.6758E-03     115.749E-03    -54.0737E-03     12.7977E-03    -61.4865E-03     115.443E-03    -54.2693E-03     12.6844E-03
             227     10.2169E-03    -319.189E-18     390.716E+03    -51.0946E+06    -60.4718E+06    -5.43195E+06    -64.1786E-03     118.923E-03    -54.7441E-03     15.2477E-03    -64.0168E-03     118.756E-03    -54.9730E-03     15.1357E-03
             228     11.0588E-03    -319.189E-18     2.44245E+06    -11.8673E+06    -51.2436E+06    -2.66877E+06    -67.1543E-03     122.693E-03    -55.5390E-03     18.6974E-03    -67.0537E-03     122.708E-03    -55.7815E-03     18.6077E-03
             229     11.8966E-03    -319.189E-18     1.08954E+06     30.6446E+06    -35.6937E+06     231.501E+03    -70.3368E-03     126.812E-03    -56.4753E-03     22.9582E-03    -70.3296E-03     127.021E-03    -56.6997E-03     22.8800E-03
             230     12.7324E-03    -319.189E-18    -1.75542E+06     60.0177E+06    -11.3081E+06     1.31555E+06    -74.0787E-03     131.669E-03    -57.5906E-03     27.3890E-03    -74.1676E-03     131.998E-03    -57.7316E-03     27.2843E-03
             231     13.5652E-03    -319.189E-18    -1.81343E+06     77.2057E+06     18.0037E+06    -947.716E+03    -79.7059E-03     138.615E-03    -58.9092E-03     34.3520E-03    -79.8696E-03     138.994E-03    -58.9285E-03     34.1633E-03
             232     14.3875E-03    -319.189E-18     3.40184E+06     94.2260E+06     57.2812E+06    -4.84612E+06    -86.0222E-03     146.509E-03    -60.4866E-03     49.4446E-03    -86.2574E-03     146.920E-03    -60.3418E-03     49.1398E-03
             233     15.1961E-03    -319.189E-18     6.12970E+06     107.063E+06     87.6124E+06     376.187E+03    -92.9644E-03     155.225E-03    -62.2608E-03     81.1310E-03    -93.3505E-03     155.747E-03    -61.9869E-03     80.5554E-03
             234     15.9943E-03    -319.189E-18     1.95560E+06     107.949E+06     88.1108E+06     7.90927E+06    -100.875E-03     165.062E-03    -64.1876E-03     123.650E-03    -101.606E-03     165.905E-03    -63.9064E-03     122.457E-03
             235     16.9212E-03     1.13407E-03    -2.05287E+06     109.501E+06     81.6014E+06     7.88295E+06    -99.6668E-03     161.940E-03    -62.2732E-03     120.461E-03    -100.661E-03     163.069E-03    -62.0210E-03     118.873E-03
             236     16.9817E-03     2.24701E-03    -1.17242E+06     114.629E+06     80.3717E+06     5.28300E+06    -103.730E-03     161.397E-03    -57.6667E-03     79.0375E-03    -104.679E-03     162.523E-03    -57.4294E-03     77.2181E-03
             237     17.0181E-03     3.37312E-03    -1.47994E+06     115.187E+06     80.4631E+06     3.45768E+06    -116.356E-03     171.509E-03    -55.1534E-03     50.3707E-03    -117.187E-03     172.511E-03    -54.9159E-03     48.2427E-03
             238     17.0323E-03     4.50134E-03    -4.56665E+06     115.256E+06     80.7312E+06     1.11969E+06    -120.576E-03     174.496E-03    -53.9197E-03     31.0862E-03    -121.330E-03     175.408E-03    -53.6765E-03     28.8690E-03
             239     17.0432E-03     5.62937E-03    -1.64993E+06     119.435E+06     85.5247E+06    -104.590E+03    -115.793E-03     169.230E-03    -53.4375E-03     20.1051E-03    -116.486E-03     170.095E-03    -53.1807E-03     18.0591E-03
             240     17.0477E-03     6.75477E-03     358.771E+03     122.901E+06     89.4329E+06     482.422E+03    -106.904E-03     160.287E-03    -53.3830E-03     23.0762E-03    -107.643E-03     161.207E-03    -53.1146E-03     21.2459E-03
             241     17.0465E-03     7.86967E-03    -2.07874E+06     121.067E+06     87.1404E+06     2.12525E+06    -99.2326E-03     152.722E-03    -53.4894E-03     26.9893E-03    -100.033E-03     153.693E-03    -53.2263E-03     25.3329E-03
             242     17.0495E-03     8.96508E-03    -1.87125E+06     121.513E+06     86.3444E+06     1.69193E+06    -91.0629E-03     144.676E-03    -53.6128E-03     26.4313E-03    -91.8723E-03     145.659E-03    -53.3546E-03     24.9958E-03
             243     17.0495E-03     10.0605E-03    -1.92377E+06     123.435E+06     86.8441E+06    -1.17691E+03    -85.4531E-03     139.148E-03    -53.6952E-03     27.8786E-03    -86.2901E-03     140.165E-03    -53.4372E-03     26.6012E-03
             244     17.0501E-03     11.1505E-03    -2.30137E+06     124.297E+06     86.9273E+06     744.033E+03    -79.5883E-03     133.375E-03    -53.7865E-03     27.9872E-03    -80.4420E-03     134.409E-03    -53.5288E-03     26.9215E-03
             245     17.0525E-03     12.2278E-03    -2.25246E+06     125.466E+06     87.1971E+06     771.997E+03    -74.6194E-03     128.451E-03    -53.8312E-03     30.6715E-03    -75.5119E-03     129.528E-03    -53.5738E-03     29.7687E-03
             246     17.0525E-03     13.3100E-03    -2.06620E+06     126.778E+06     87.8098E+06     490.861E+03    -72.9454E-03     126.736E-03    -53.7903E-03     33.7439E-03    -73.8796E-03     127.858E-03    -53.5321E-03     32.9038E-03
             247     17.0557E-03     14.3866E-03    -1.96915E+06     127.929E+06     88.3077E+06     576.483E+03    -69.7775E-03     123.544E-03    -53.7664E-03     35.3665E-03    -70.7359E-03     124.693E-03    -53.5075E-03     34.6480E-03
             248     17.0562E-03     15.4591E-03    -2.67037E+06     128.296E+06     88.1774E+06    -156.245E+03    -67.2683E-03     121.023E-03    -53.7546E-03     36.1215E-03    -68.2510E-03     122.196E-03    -53.4958E-03     35.5060E-03
             249     17.0570E-03     16.5279E-03    -2.53531E+06     128.365E+06     88.4104E+06     520.534E+03    -66.7192E-03     120.427E-03    -53.7074E-03     35.7531E-03    -67.7115E-03     121.609E-03    -53.4479E-03     35.1794E-03
             250     17.0590E-03     17.5991E-03    -1.95982E+06     128.877E+06     88.9749E+06     641.229E+03    -66.5171E-03     120.161E-03    -53.6440E-03     38.8114E-03    -67.5466E-03     121.384E-03    -53.3831E-03     38.2476E-03
             251     17.0589E-03     18.6760E-03    -2.04917E+06     129.861E+06     89.5718E+06     159.601E+03    -65.5577E-03     119.178E-03    -53.6205E-03     44.7151E-03    -66.6673E-03     120.482E-03    -53.3579E-03     44.1883E-03
             252     17.0605E-03     19.7442E-03    -2.28776E+06     130.231E+06     89.8021E+06     246.193E+03    -63.0415E-03     116.690E-03    -53.6486E-03     46.2049E-03    -64.1907E-03     118.033E-03    -53.3851E-03     45.7799E-03
             253     17.0598E-03     20.8060E-03    -1.87035E+06     130.508E+06     90.0478E+06     525.472E+03    -62.0789E-03     115.712E-03    -53.6330E-03     44.1870E-03    -63.2074E-03     117.036E-03    -53.3693E-03     43.8118E-03
             254     17.0622E-03     21.8695E-03    -1.68178E+06     131.321E+06     90.4327E+06     300.863E+03    -62.5436E-03     116.119E-03    -53.5758E-03     42.1890E-03    -63.6515E-03     117.425E-03    -53.3116E-03     41.8104E-03
             255     17.0611E-03     22.9409E-03    -2.76435E+06     131.795E+06     90.1485E+06     15.8351E+03    -61.9432E-03     115.523E-03    -53.5799E-03     44.2439E-03    -63.0908E-03     116.867E-03    -53.3162E-03     43.9012E-03
             256     17.0617E-03     24.0044E-03    -2.40095E+06     132.470E+06     90.6748E+06     296.151E+03    -60.3178E-03     113.939E-03    -53.6214E-03     45.5687E-03    -61.4780E-03     115.298E-03    -53.3566E-03     45.2949E-03
             257     17.0618E-03     25.0655E-03    -1.38202E+06     132.936E+06     91.5798E+06     336.497E+03    -57.8134E-03     111.466E-03    -53.6525E-03     44.2825E-03    -58.9568E-03     112.811E-03    -53.3853E-03     44.0932E-03
             258     17.0633E-03     26.1258E-03    -1.94292E+06     132.451E+06     91.2334E+06    -233.380E+03    -57.9204E-03     111.545E-03    -53.6242E-03     46.2679E-03    -59.0936E-03     112.917E-03    -53.3573E-03     46.0824E-03
             259     17.0618E-03     27.1882E-03    -2.16832E+06     132.182E+06     91.0869E+06    -235.433E+03    -58.6421E-03     112.243E-03    -53.6009E-03     44.5860E-03    -59.8008E-03     113.599E-03    -53.3340E-03     44.3870E-03
             260     17.0635E-03     28.2497E-03    -2.39178E+06     132.100E+06     90.9639E+06     99.9632E+03    -56.9437E-03     110.572E-03    -53.6288E-03     45.7415E-03    -58.1160E-03     111.942E-03    -53.3620E-03     45.6129E-03
             261     17.0627E-03     29.3094E-03    -2.22891E+06     132.210E+06     91.1868E+06     136.094E+03    -55.9800E-03     109.628E-03    -53.6475E-03     46.5319E-03    -57.1560E-03     111.001E-03    -53.3801E-03     46.4429E-03
             262     17.0632E-03     30.3676E-03    -1.86963E+06     132.639E+06     91.5767E+06     156.145E+03    -54.9292E-03     108.595E-03    -53.6653E-03     44.2073E-03    -56.0841E-03     109.948E-03    -53.3971E-03     44.1530E-03
             263     17.0636E-03     31.4206E-03    -2.99470E+06     132.143E+06     90.6683E+06    -354.242E+03    -55.8612E-03     109.489E-03    -53.6277E-03     44.7507E-03    -57.0400E-03     110.863E-03    -53.3616E-03     44.6778E-03
             264     17.0630E-03     32.4873E-03    -4.06865E+06     131.921E+06     90.1933E+06     220.071E+03    -56.6037E-03     110.231E-03    -53.6268E-03     45.2872E-03    -57.7953E-03     111.615E-03    -53.3612E-03     45.2156E-03
             265     17.0626E-03     33.5456E-03    -1.94356E+06     133.354E+06     91.9818E+06     762.963E+03    -53.2107E-03     106.918E-03    -53.7075E-03     45.9357E-03    -54.3950E-03     108.302E-03    -53.4382E-03     45.9749E-03
             266     17.0647E-03     34.5938E-03    -1.08716E+06     133.182E+06     92.4190E+06    -676.206E+03    -52.7970E-03     106.490E-03    -53.6931E-03     46.1757E-03    -53.9777E-03     107.872E-03    -53.4226E-03     46.2095E-03
             267     17.0626E-03     35.6573E-03    -3.73563E+06     131.489E+06     90.6012E+06    -715.400E+03    -55.5101E-03     109.163E-03    -53.6533E-03     47.1299E-03    -56.7087E-03     110.553E-03    -53.3855E-03     47.0971E-03
             268     17.0625E-03     36.7168E-03    -2.83040E+06     132.190E+06     91.2902E+06     984.385E+03    -53.3210E-03     107.033E-03    -53.7125E-03     45.9220E-03    -54.4915E-03     108.399E-03    -53.4436E-03     45.9705E-03
             269     17.0646E-03     37.7635E-03    -1.94716E+06     133.028E+06     92.0832E+06     63.8463E+03    -51.7430E-03     105.462E-03    -53.7189E-03     45.0677E-03    -52.9032E-03     106.821E-03    -53.4486E-03     45.1544E-03
             270     17.0628E-03     38.8239E-03    -2.78751E+06     132.974E+06     91.7703E+06    -175.251E+03    -54.8634E-03     108.520E-03    -53.6570E-03     47.2223E-03    -56.0675E-03     109.921E-03    -53.3869E-03     47.2371E-03
             271     17.0631E-03     39.8876E-03    -1.34276E+06     134.641E+06     93.0621E+06     1.08933E+06    -53.2148E-03     106.921E-03    -53.7064E-03     50.1934E-03    -54.4609E-03     108.371E-03    -53.4344E-03     50.2821E-03
             272     17.0640E-03     40.9395E-03    -1.99756E+06     134.883E+06     92.8524E+06    -601.660E+03    -50.6038E-03     104.363E-03    -53.7590E-03     53.6881E-03    -51.8990E-03     105.861E-03    -53.4874E-03     53.8455E-03
             273     17.0629E-03     41.9915E-03    -2.93716E+06     133.311E+06     91.9003E+06    -612.404E+03    -52.4963E-03     106.205E-03    -53.7087E-03     51.1938E-03    -53.7513E-03     107.656E-03    -53.4383E-03     51.2842E-03
             274     17.0643E-03     43.0465E-03    -2.00085E+06     132.747E+06     92.1641E+06    -93.0893E+03    -52.4798E-03     106.174E-03    -53.6941E-03     44.9751E-03    -53.6475E-03     107.538E-03    -53.4228E-03     45.0460E-03
             275     17.0636E-03     44.0974E-03    -2.78082E+06     132.476E+06     91.6351E+06    -148.051E+03    -53.4570E-03     107.128E-03    -53.6707E-03     45.7836E-03    -54.6405E-03     108.506E-03    -53.4006E-03     45.8396E-03
             276     17.0634E-03     45.1613E-03    -2.51694E+06     133.624E+06     92.2606E+06     901.009E+03    -54.1345E-03     107.805E-03    -53.6701E-03     49.1254E-03    -55.3552E-03     109.223E-03    -53.3989E-03     49.1778E-03
             277     17.0636E-03     46.2220E-03    -1.44176E+06     134.963E+06     93.3978E+06     184.149E+03    -50.3703E-03     104.124E-03    -53.7536E-03     52.6154E-03    -51.6346E-03     105.592E-03    -53.4803E-03     52.7682E-03
             278     17.0646E-03     47.2633E-03    -2.30831E+06     133.826E+06     92.5828E+06    -475.594E+03    -51.3643E-03     105.095E-03    -53.7306E-03     49.9853E-03    -52.6088E-03     106.538E-03    -53.4584E-03     50.1125E-03
             279     17.0620E-03     48.3217E-03    -1.92154E+06     133.396E+06     92.6919E+06    -164.296E+03    -53.3390E-03     107.028E-03    -53.6887E-03     43.7904E-03    -54.5062E-03     108.393E-03    -53.4159E-03     43.8371E-03
             280     17.0654E-03     49.3784E-03    -2.54865E+06     132.845E+06     92.0747E+06    -177.704E+03    -52.7551E-03     106.445E-03    -53.6901E-03     47.6401E-03    -53.9487E-03     107.835E-03    -53.4187E-03     47.6985E-03
             281     17.0622E-03     50.4352E-03    -2.48558E+06     132.755E+06     92.0228E+06     116.584E+03    -52.8613E-03     106.560E-03    -53.6992E-03     46.3041E-03    -54.0368E-03     107.932E-03    -53.4279E-03     46.3638E-03
             282     17.0644E-03     51.4880E-03    -1.49415E+06     134.147E+06     93.0090E+06     825.343E+03    -51.4376E-03     105.164E-03    -53.7262E-03     43.8256E-03    -52.5883E-03     106.516E-03    -53.4535E-03     43.9320E-03
             283     17.0638E-03     52.5385E-03    -2.73679E+06     134.575E+06     92.6581E+06    -83.4737E+03    -53.2654E-03     106.939E-03    -53.6737E-03     46.3943E-03    -54.4564E-03     108.330E-03    -53.4016E-03     46.4534E-03
             284     17.0632E-03     53.6074E-03    -2.12335E+06     135.341E+06     93.3003E+06     292.587E+03    -53.3173E-03     106.999E-03    -53.6821E-03     47.9229E-03    -54.5404E-03     108.425E-03    -53.4087E-03     47.9918E-03
             285     17.0645E-03     54.6546E-03    -2.78191E+06     136.077E+06     93.2004E+06     510.014E+03    -51.0287E-03     104.763E-03    -53.7346E-03     49.8193E-03    -52.2752E-03     106.213E-03    -53.4619E-03     49.9671E-03
             286     17.0629E-03     55.7103E-03    -2.84372E+06     136.715E+06     93.3424E+06    -217.013E+03    -52.2118E-03     105.928E-03    -53.7165E-03     47.4318E-03    -53.4243E-03     107.345E-03    -53.4439E-03     47.5265E-03
             287     17.0639E-03     56.7641E-03    -2.03182E+06     136.549E+06     93.5153E+06    -191.793E+03    -52.2118E-03     105.927E-03    -53.7152E-03     44.9200E-03    -53.3862E-03     107.308E-03    -53.4427E-03     44.9957E-03
             288     17.0635E-03     57.8179E-03    -2.83781E+06     135.335E+06     92.7445E+06    -429.074E+03    -52.5426E-03     106.243E-03    -53.7005E-03     45.3159E-03    -53.7208E-03     107.623E-03    -53.4289E-03     45.3841E-03
             289     17.0636E-03     58.8757E-03    -2.85585E+06     135.374E+06     93.0785E+06     295.496E+03    -53.3900E-03     107.075E-03    -53.6854E-03     45.2916E-03    -54.5722E-03     108.458E-03    -53.4121E-03     45.3549E-03
             290     17.0634E-03     59.9324E-03    -3.04631E+06     136.822E+06     93.5567E+06     656.949E+03    -52.4493E-03     106.159E-03    -53.7102E-03     46.6915E-03    -53.6632E-03     107.577E-03    -53.4364E-03     46.7987E-03
             291     17.0637E-03     60.9875E-03    -3.41673E+06     138.087E+06     93.4286E+06     393.948E+03    -52.5736E-03     106.293E-03    -53.7198E-03     49.5020E-03    -53.8265E-03     107.753E-03    -53.4479E-03     49.6062E-03
             292     852.892E-06     61.5170E-03    -54.8451E+06    -172.409E+06    -53.6222E+06    -226.466E+03    -53.8095E-03     107.626E-03    -53.8165E-03     9.76997E-03    -53.7573E-03     106.923E-03    -53.7551E-03     9.73357E-03
             293     1.70585E-03     61.5306E-03    -53.0337E+06    -168.826E+06    -47.8762E+06    -196.889E+03    -53.8527E-03     107.671E-03    -53.8178E-03     17.9341E-03    -53.8083E-03     106.977E-03    -53.7355E-03     17.8684E-03
             294     2.55876E-03     61.5529E-03    -50.2961E+06    -163.848E+06    -40.1978E+06    -236.008E+03    -53.9421E-03     107.779E-03    -53.8369E-03     26.3913E-03    -53.9082E-03     107.101E-03    -53.7274E-03     26.2905E-03
             295     3.41171E-03     61.5835E-03    -46.9092E+06    -158.038E+06    -31.5475E+06    -35.2018E+03    -54.0502E-03     107.910E-03    -53.8602E-03     34.7395E-03    -54.0292E-03     107.253E-03    -53.7207E-03     34.6020E-03
             296     4.26466E-03     61.6226E-03    -43.0000E+06    -147.479E+06    -23.1362E+06     109.806E+03    -54.1689E-03     108.041E-03    -53.8718E-03     42.9003E-03    -54.1688E-03     107.431E-03    -53.7113E-03     42.7193E-03
             297     5.11767E-03     61.6696E-03    -38.9915E+06    -137.909E+06    -16.0783E+06     132.588E+03    -54.3237E-03     108.200E-03    -53.8758E-03     50.7550E-03    -54.3456E-03     107.640E-03    -53.6997E-03     50.5216E-03
             298     5.97071E-03     61.7244E-03    -35.2985E+06    -131.847E+06    -9.81501E+06     253.708E+03    -54.5203E-03     108.403E-03    -53.8824E-03     58.3043E-03    -54.5661E-03     107.884E-03    -53.6891E-03     58.0111E-03
             299     6.82367E-03     61.7865E-03    -31.9018E+06    -123.834E+06    -4.97020E+06     247.099E+03    -54.7190E-03     108.600E-03    -53.8807E-03     65.5950E-03    -54.7991E-03     108.141E-03    -53.6798E-03     65.2314E-03
             300     7.67670E-03     61.8559E-03    -28.7698E+06    -112.961E+06    -3.19077E+06     276.209E+03    -54.9061E-03     108.766E-03    -53.8595E-03     72.6016E-03    -55.0317E-03     108.397E-03    -53.6699E-03     72.1584E-03
             301     8.52981E-03     61.9318E-03    -26.2301E+06    -100.341E+06    -2.37014E+06     363.091E+03    -55.1060E-03     108.937E-03    -53.8312E-03     79.3103E-03    -55.2951E-03     108.684E-03    -53.6595E-03     78.7762E-03
             302     9.38280E-03     62.0146E-03    -24.1632E+06    -88.1098E+06    -691.694E+03     398.640E+03    -55.3296E-03     109.139E-03    -53.8096E-03     86.1502E-03    -55.6054E-03     109.018E-03    -53.6503E-03     85.5097E-03
             303     10.2360E-03     62.1042E-03    -22.2838E+06    -74.3257E+06    -1.02430E+06     417.434E+03    -55.5477E-03     109.325E-03    -53.7775E-03     93.0297E-03    -55.9377E-03     109.375E-03    -53.6425E-03     92.2664E-03
             304     11.0888E-03     62.2005E-03    -20.6558E+06    -54.7597E+06    -1.53112E+06     481.489E+03    -55.6415E-03     109.377E-03    -53.7352E-03     99.0253E-03    -56.1891E-03     109.661E-03    -53.6335E-03     98.1244E-03
             305     11.9423E-03     62.3021E-03    -18.8621E+06    -26.7891E+06     212.765E+03     579.996E+03    -55.6939E-03     109.380E-03    -53.6864E-03     106.534E-03    -56.4810E-03     110.005E-03    -53.6191E-03     105.477E-03
             306     12.7952E-03     62.4128E-03    -17.2193E+06     14.0129E+06    -1.49186E+06     389.703E+03    -56.0770E-03     109.674E-03    -53.5970E-03     120.621E-03    -57.3048E-03     110.895E-03    -53.5999E-03     119.349E-03
             307     13.6487E-03     62.5421E-03    -16.1962E+06     71.1689E+06     3.68906E+06    -302.487E+03    -57.0067E-03     110.529E-03    -53.5226E-03     143.377E-03    -59.0840E-03     112.791E-03    -53.5839E-03     141.841E-03
             308     14.5017E-03     62.6985E-03    -14.7858E+06     116.808E+06     36.4438E+06    -6.75714E+03    -57.8301E-03     111.440E-03    -53.6098E-03     165.989E-03    -61.1028E-03     114.969E-03    -53.5755E-03     164.438E-03
             309     15.3545E-03     62.8744E-03    -12.0715E+06     138.781E+06     79.2744E+06     531.505E+03    -57.4171E-03     111.197E-03    -53.7797E-03     174.598E-03    -61.8268E-03     115.826E-03    -53.5671E-03     173.728E-03
             310     16.2048E-03     63.0481E-03    -5.88850E+06     143.707E+06     96.2923E+06    -47.3593E+03    -53.5899E-03     107.395E-03    -53.8052E-03     111.341E-03    -56.6582E-03     110.673E-03    -53.5235E-03     111.256E-03
             311     852.913E-06     62.5721E-03    -54.6494E+06    -172.145E+06    -53.1460E+06    -170.296E+03    -53.8285E-03     107.625E-03    -53.7962E-03     9.80264E-03    -53.7764E-03     106.922E-03    -53.7330E-03     9.76697E-03
             312     1.70581E-03     62.5860E-03    -52.6566E+06    -168.726E+06    -47.8256E+06    -114.518E+03    -53.8862E-03     107.709E-03    -53.8225E-03     17.9307E-03    -53.8402E-03     107.016E-03    -53.7407E-03     17.8660E-03
             313     2.55875E-03     62.6081E-03    -49.9522E+06    -163.956E+06    -40.4642E+06     104.464E+03    -53.9505E-03     107.797E-03    -53.8463E-03     26.3659E-03    -53.9143E-03     107.119E-03    -53.7384E-03     26.2694E-03
             314     3.41168E-03     62.6389E-03    -46.6688E+06    -158.124E+06    -31.8375E+06     88.0076E+03    -54.0520E-03     107.920E-03    -53.8677E-03     34.7304E-03    -54.0293E-03     107.262E-03    -53.7299E-03     34.5943E-03
             315     4.26465E-03     62.6778E-03    -42.8458E+06    -147.499E+06    -23.3024E+06     9.53685E+03    -54.1752E-03     108.054E-03    -53.8786E-03     42.9047E-03    -54.1741E-03     107.444E-03    -53.7191E-03     42.7223E-03
             316     5.11762E-03     62.7250E-03    -39.0616E+06    -138.094E+06    -16.3043E+06     167.690E+03    -54.3327E-03     108.215E-03    -53.8827E-03     50.7702E-03    -54.3544E-03     107.655E-03    -53.7073E-03     50.5371E-03
             317     5.97060E-03     62.7796E-03    -35.3600E+06    -131.998E+06    -10.0357E+06     272.098E+03    -54.5113E-03     108.399E-03    -53.8880E-03     58.3334E-03    -54.5568E-03     107.880E-03    -53.6955E-03     58.0406E-03
             318     6.82366E-03     62.8419E-03    -31.8198E+06    -123.797E+06    -5.08889E+06     283.981E+03    -54.6976E-03     108.581E-03    -53.8835E-03     65.6453E-03    -54.7771E-03     108.123E-03    -53.6833E-03     65.2826E-03
             319     7.67673E-03     62.9110E-03    -28.8141E+06    -113.148E+06    -3.34816E+06     319.139E+03    -54.8958E-03     108.756E-03    -53.8601E-03     72.6513E-03    -55.0211E-03     108.387E-03    -53.6710E-03     72.2089E-03
             320     8.52975E-03     62.9873E-03    -26.2889E+06    -100.509E+06    -2.54080E+06     479.133E+03    -55.1007E-03     108.931E-03    -53.8305E-03     79.4143E-03    -55.2896E-03     108.677E-03    -53.6594E-03     78.8822E-03
             321     9.38287E-03     63.0699E-03    -24.0040E+06    -88.1012E+06    -656.529E+03     494.615E+03    -55.2958E-03     109.103E-03    -53.8072E-03     86.2582E-03    -55.5707E-03     108.982E-03    -53.6479E-03     85.6199E-03
             322     10.2359E-03     63.1596E-03    -21.9464E+06    -74.2599E+06    -926.896E+03     377.324E+03    -55.4949E-03     109.266E-03    -53.7709E-03     93.2346E-03    -55.8835E-03     109.316E-03    -53.6360E-03     92.4721E-03
             323     11.0892E-03     63.2560E-03    -20.1701E+06    -54.8294E+06    -1.37709E+06     334.029E+03    -55.5385E-03     109.261E-03    -53.7227E-03     99.1456E-03    -56.0838E-03     109.544E-03    -53.6208E-03     98.2450E-03
             324     11.9422E-03     63.3570E-03    -18.4749E+06    -26.7519E+06     228.524E+03     111.359E+03    -55.5647E-03     109.230E-03    -53.6651E-03     106.662E-03    -56.3485E-03     109.852E-03    -53.5983E-03     105.603E-03
             325     12.7960E-03     63.4681E-03    -16.9210E+06     13.6838E+06    -1.54051E+06    -176.102E+03    -56.0538E-03     109.625E-03    -53.5713E-03     120.878E-03    -57.2793E-03     110.844E-03    -53.5743E-03     119.601E-03
             326     13.6491E-03     63.5974E-03    -15.9796E+06     71.1995E+06     4.35404E+06     690.012E+03    -56.9936E-03     110.493E-03    -53.4989E-03     143.794E-03    -59.0748E-03     112.757E-03    -53.5572E-03     142.274E-03
             327     14.5022E-03     63.7549E-03    -15.0723E+06     116.227E+06     36.0806E+06     1.54155E+06    -57.3190E-03     110.886E-03    -53.5668E-03     166.445E-03    -60.5833E-03     114.405E-03    -53.5331E-03     164.945E-03
             328     15.3561E-03     63.9294E-03    -11.0833E+06     140.086E+06     80.0158E+06     651.048E+03    -56.4758E-03     110.172E-03    -53.6965E-03     175.431E-03    -60.8795E-03     114.802E-03    -53.4834E-03     174.622E-03
             329     16.2142E-03     64.1046E-03    -4.66917E+06     145.068E+06     97.6367E+06    -708.687E+03    -54.3769E-03     108.097E-03    -53.7204E-03     110.554E-03    -57.4309E-03     111.367E-03    -53.4358E-03     110.448E-03
             330     852.969E-06     63.6276E-03    -54.3330E+06    -172.040E+06    -52.9043E+06     228.510E+03    -53.8660E-03     107.655E-03    -53.7891E-03     9.84352E-03    -53.8128E-03     106.952E-03    -53.7253E-03     9.81323E-03
             331     1.70578E-03     63.6412E-03    -52.7399E+06    -168.777E+06    -47.6873E+06     67.3765E+03    -53.9008E-03     107.739E-03    -53.8380E-03     17.9048E-03    -53.8553E-03     107.045E-03    -53.7552E-03     17.8424E-03
             332     2.55867E-03     63.6635E-03    -49.9434E+06    -164.131E+06    -40.6957E+06     60.8936E+03    -53.9528E-03     107.811E-03    -53.8582E-03     26.3770E-03    -53.9160E-03     107.132E-03    -53.7513E-03     26.2799E-03
             333     3.41163E-03     63.6941E-03    -46.4248E+06    -158.050E+06    -31.8590E+06     120.791E+03    -54.0499E-03     107.926E-03    -53.8764E-03     34.7472E-03    -54.0261E-03     107.269E-03    -53.7392E-03     34.6115E-03
             334     4.26460E-03     63.7332E-03    -42.8718E+06    -147.602E+06    -23.4530E+06     197.932E+03    -54.1702E-03     108.055E-03    -53.8845E-03     42.9192E-03    -54.1688E-03     107.445E-03    -53.7256E-03     42.7394E-03
             335     5.11760E-03     63.7802E-03    -39.1037E+06    -138.194E+06    -16.4389E+06     172.706E+03    -54.3159E-03     108.202E-03    -53.8857E-03     50.8100E-03    -54.3374E-03     107.641E-03    -53.7108E-03     50.5773E-03
             336     5.97063E-03     63.8350E-03    -35.2941E+06    -132.081E+06    -9.96367E+06     132.940E+03    -54.4911E-03     108.380E-03    -53.8885E-03     58.3882E-03    -54.5363E-03     107.860E-03    -53.6956E-03     58.0939E-03
             337     6.82368E-03     63.8970E-03    -31.7897E+06    -124.034E+06    -5.12680E+06     318.845E+03    -54.6779E-03     108.559E-03    -53.8810E-03     65.6859E-03    -54.7567E-03     108.099E-03    -53.6807E-03     65.3241E-03
             338     7.67674E-03     63.9665E-03    -28.7194E+06    -113.154E+06    -3.17980E+06     438.592E+03    -54.8798E-03     108.736E-03    -53.8562E-03     72.6955E-03    -55.0049E-03     108.367E-03    -53.6664E-03     72.2550E-03
             339     8.52986E-03     64.0424E-03    -26.0629E+06    -100.646E+06    -2.43618E+06     389.460E+03    -55.0579E-03     108.881E-03    -53.8236E-03     79.4638E-03    -55.2454E-03     108.626E-03    -53.6520E-03     78.9313E-03
             340     9.38294E-03     64.1253E-03    -23.6770E+06    -88.1473E+06    -548.462E+03     418.134E+03    -55.2283E-03     109.024E-03    -53.7953E-03     86.3397E-03    -55.5015E-03     108.901E-03    -53.6359E-03     85.7017E-03
             341     10.2362E-03     64.2147E-03    -21.7448E+06    -74.3006E+06    -768.530E+03     363.219E+03    -55.3974E-03     109.150E-03    -53.7531E-03     93.3241E-03    -55.7847E-03     109.199E-03    -53.6176E-03     92.5636E-03
             342     11.0893E-03     64.3113E-03    -20.1381E+06    -54.5491E+06    -1.07790E+06     211.397E+03    -55.4688E-03     109.169E-03    -53.7002E-03     99.1035E-03    -56.0136E-03     109.452E-03    -53.5973E-03     98.2036E-03
             343     11.9430E-03     64.4119E-03    -18.8589E+06    -26.3403E+06     473.949E+03     4.11868E+03    -55.5562E-03     109.198E-03    -53.6420E-03     106.512E-03    -56.3429E-03     109.823E-03    -53.5741E-03     105.452E-03
             344     12.7961E-03     64.5233E-03    -18.2608E+06     13.5918E+06    -1.37573E+06     20.9662E+03    -56.1001E-03     109.653E-03    -53.5531E-03     120.983E-03    -57.3332E-03     110.874E-03    -53.5532E-03     119.706E-03
             345     13.6493E-03     64.6530E-03    -17.6057E+06     69.4288E+06     2.50448E+06     584.743E+03    -56.7846E-03     110.255E-03    -53.4707E-03     143.556E-03    -58.8645E-03     112.512E-03    -53.5333E-03     142.044E-03
             346     14.5031E-03     64.8100E-03    -13.9863E+06     115.844E+06     36.3837E+06     1.16393E+06    -56.7922E-03     110.319E-03    -53.5267E-03     165.212E-03    -60.0288E-03     113.812E-03    -53.4925E-03     163.732E-03
             347     15.3583E-03     64.9829E-03    -8.46578E+06     142.278E+06     83.0801E+06     298.040E+03    -56.7316E-03     110.396E-03    -53.6645E-03     173.655E-03    -61.1016E-03     115.000E-03    -53.4432E-03     172.817E-03
             348     16.2089E-03     65.1590E-03    -3.94401E+06     145.364E+06     97.9882E+06    -200.396E+03    -54.8382E-03     108.545E-03    -53.7072E-03     108.445E-03    -57.8653E-03     111.790E-03    -53.4223E-03     108.307E-03
             349     852.798E-06     64.6827E-03    -54.4612E+06    -172.367E+06    -53.2521E+06     255.221E+03    -53.8604E-03     107.723E-03    -53.8624E-03     9.79095E-03    -53.8068E-03     107.019E-03    -53.7998E-03     9.76087E-03
             350     1.70576E-03     64.6966E-03    -52.5544E+06    -168.804E+06    -47.7845E+06     322.455E+03    -53.8651E-03     107.722E-03    -53.8573E-03     17.9057E-03    -53.8185E-03     107.029E-03    -53.7753E-03     17.8467E-03
             351     2.55870E-03     64.7187E-03    -50.0308E+06    -164.072E+06    -40.5141E+06     141.124E+03    -53.9506E-03     107.814E-03    -53.8639E-03     26.3939E-03    -53.9145E-03     107.136E-03    -53.7560E-03     26.2979E-03
             352     3.41163E-03     64.7495E-03    -46.8734E+06    -158.285E+06    -31.8590E+06     195.080E+03    -54.0501E-03     107.931E-03    -53.8809E-03     34.7745E-03    -54.0282E-03     107.273E-03    -53.7427E-03     34.6399E-03
             353     4.26459E-03     64.7884E-03    -42.8816E+06    -147.534E+06    -23.2581E+06     188.605E+03    -54.1541E-03     108.041E-03    -53.8868E-03     42.9408E-03    -54.1531E-03     107.431E-03    -53.7270E-03     42.7610E-03
             354     5.11762E-03     64.8355E-03    -38.8462E+06    -138.111E+06    -16.4753E+06     21.7075E+03    -54.2881E-03     108.171E-03    -53.8825E-03     50.8239E-03    -54.3084E-03     107.610E-03    -53.7083E-03     50.5895E-03
             355     5.97069E-03     64.8902E-03    -35.1725E+06    -132.298E+06    -10.0908E+06     131.769E+03    -54.4691E-03     108.351E-03    -53.8820E-03     58.4106E-03    -54.5131E-03     107.830E-03    -53.6896E-03     58.1166E-03
             356     6.82372E-03     64.9524E-03    -31.7078E+06    -124.285E+06    -4.97268E+06     283.940E+03    -54.6646E-03     108.539E-03    -53.8742E-03     65.7111E-03    -54.7428E-03     108.078E-03    -53.6729E-03     65.3491E-03
             357     7.67684E-03     65.0216E-03    -28.4707E+06    -113.223E+06    -3.08663E+06     352.431E+03    -54.8499E-03     108.697E-03    -53.8469E-03     72.7395E-03    -54.9736E-03     108.326E-03    -53.6569E-03     72.2985E-03
             358     8.52989E-03     65.0979E-03    -25.8304E+06    -100.686E+06    -2.22115E+06     390.519E+03    -55.0079E-03     108.820E-03    -53.8117E-03     79.4562E-03    -55.1944E-03     108.563E-03    -53.6393E-03     78.9244E-03
             359     9.38320E-03     65.1802E-03    -23.7395E+06    -88.3105E+06    -406.564E+03     423.794E+03    -55.1789E-03     108.959E-03    -53.7803E-03     86.3182E-03    -55.4521E-03     108.836E-03    -53.6198E-03     85.6811E-03
             360     10.2364E-03     65.2701E-03    -21.9621E+06    -74.1757E+06    -593.399E+03     465.809E+03    -55.3659E-03     109.102E-03    -53.7364E-03     93.1690E-03    -55.7543E-03     109.151E-03    -53.5999E-03     92.4104E-03
             361     11.0898E-03     65.3660E-03    -20.4837E+06    -54.1836E+06    -842.723E+03     274.457E+03    -55.4775E-03     109.162E-03    -53.6849E-03     98.8766E-03    -56.0245E-03     109.447E-03    -53.5809E-03     97.9772E-03
             362     11.9427E-03     65.4675E-03    -19.3578E+06    -26.2461E+06     587.817E+03     315.361E+03    -55.6313E-03     109.263E-03    -53.6321E-03     106.211E-03    -56.4211E-03     109.890E-03    -53.5630E-03     105.151E-03
             363     12.7963E-03     65.5779E-03    -18.1993E+06     13.0808E+06    -1.29069E+06     753.427E+03    -56.1020E-03     109.649E-03    -53.5473E-03     120.971E-03    -57.3361E-03     110.869E-03    -53.5463E-03     119.702E-03
             364     13.6494E-03     65.7092E-03    -16.8248E+06     69.7602E+06     4.36702E+06     273.138E+03    -56.6609E-03     110.130E-03    -53.4692E-03     143.009E-03    -58.7265E-03     112.371E-03    -53.5242E-03     141.502E-03
             365     14.5032E-03     65.8632E-03    -14.7451E+06     116.568E+06     37.7107E+06    -373.618E+03    -57.0566E-03     110.589E-03    -53.5322E-03     164.185E-03    -60.2880E-03     114.072E-03    -53.4912E-03     162.671E-03
             366     15.3562E-03     66.0384E-03    -10.7137E+06     141.885E+06     82.0009E+06     154.399E+03    -56.8682E-03     110.541E-03    -53.6731E-03     174.910E-03    -61.2701E-03     115.171E-03    -53.4533E-03     174.060E-03
             367     16.2098E-03     66.2175E-03    -5.71910E+06     145.065E+06     97.2160E+06     296.104E+03    -54.7321E-03     108.443E-03    -53.7109E-03     110.953E-03    -57.7979E-03     111.722E-03    -53.4269E-03     110.839E-03
             368     852.804E-06     65.7381E-03    -54.6192E+06    -172.635E+06    -53.7001E+06    -215.637E+03    -53.8580E-03     107.721E-03    -53.8634E-03     9.75805E-03    -53.8043E-03     107.017E-03    -53.8024E-03     9.72174E-03
             369     1.70576E-03     65.7518E-03    -52.6221E+06    -169.054E+06    -48.2257E+06     111.423E+03    -53.8670E-03     107.723E-03    -53.8557E-03     17.9605E-03    -53.8198E-03     107.028E-03    -53.7754E-03     17.8988E-03
             370     2.55869E-03     65.7741E-03    -49.8376E+06    -164.234E+06    -40.7631E+06     424.176E+03    -53.9471E-03     107.809E-03    -53.8622E-03     26.3909E-03    -53.9095E-03     107.130E-03    -53.7556E-03     26.2985E-03
             371     3.41162E-03     65.8047E-03    -46.4162E+06    -158.124E+06    -31.8839E+06     226.628E+03    -54.0342E-03     107.911E-03    -53.8768E-03     34.7761E-03    -54.0102E-03     107.253E-03    -53.7396E-03     34.6419E-03
             372     4.26462E-03     65.8438E-03    -42.5676E+06    -147.371E+06    -23.2751E+06    -99.1200E+03    -54.1352E-03     108.015E-03    -53.8797E-03     42.9639E-03    -54.1329E-03     107.406E-03    -53.7206E-03     42.7806E-03
             373     5.11766E-03     65.8907E-03    -38.7691E+06    -138.203E+06    -16.6581E+06     22.6983E+03    -54.2807E-03     108.154E-03    -53.8737E-03     50.8348E-03    -54.3002E-03     107.594E-03    -53.7004E-03     50.6005E-03
             374     5.97070E-03     65.9455E-03    -35.2037E+06    -132.509E+06    -10.2812E+06     174.335E+03    -54.4542E-03     108.327E-03    -53.8729E-03     58.4157E-03    -54.4978E-03     107.805E-03    -53.6812E-03     58.1224E-03
             375     6.82384E-03     66.0076E-03    -31.7063E+06    -124.327E+06    -4.98595E+06     182.812E+03    -54.6389E-03     108.503E-03    -53.8643E-03     65.7110E-03    -54.7170E-03     108.042E-03    -53.6630E-03     65.3479E-03
             376     7.67689E-03     66.0769E-03    -28.6410E+06    -113.473E+06    -3.10050E+06     257.776E+03    -54.8195E-03     108.655E-03    -53.8356E-03     72.7033E-03    -54.9436E-03     108.284E-03    -53.6450E-03     72.2613E-03
             377     8.53016E-03     66.1528E-03    -26.0931E+06    -100.921E+06    -2.27269E+06     470.248E+03    -54.9984E-03     108.798E-03    -53.7998E-03     79.3771E-03    -55.1858E-03     108.541E-03    -53.6270E-03     78.8463E-03
             378     9.38322E-03     66.2355E-03    -23.8847E+06    -88.3765E+06    -339.989E+03     573.946E+03    -55.1954E-03     108.966E-03    -53.7704E-03     86.1860E-03    -55.4693E-03     108.842E-03    -53.6094E-03     85.5503E-03
             379     10.2365E-03     66.3250E-03    -21.9641E+06    -74.0770E+06    -509.840E+03     580.002E+03    -55.4229E-03     109.154E-03    -53.7306E-03     93.0300E-03    -55.8114E-03     109.203E-03    -53.5939E-03     92.2720E-03
             380     11.0894E-03     66.4214E-03    -20.5106E+06    -54.0261E+06    -822.833E+03     589.527E+03    -55.5310E-03     109.215E-03    -53.6843E-03     98.6756E-03    -56.0785E-03     109.501E-03    -53.5803E-03     97.7787E-03
             381     11.9430E-03     66.5223E-03    -19.0062E+06    -26.2449E+06     672.609E+03     422.724E+03    -55.7325E-03     109.370E-03    -53.6374E-03     106.147E-03    -56.5212E-03     109.996E-03    -53.5685E-03     105.087E-03
             382     12.7958E-03     66.6336E-03    -17.3984E+06     12.6944E+06    -1.23442E+06     251.833E+03    -56.0535E-03     109.608E-03    -53.5546E-03     120.604E-03    -57.2803E-03     110.822E-03    -53.5540E-03     119.331E-03
             383     13.6496E-03     66.7636E-03    -15.8010E+06     69.8698E+06     4.28560E+06     859.461E+03    -56.6161E-03     110.088E-03    -53.4722E-03     142.746E-03    -58.6677E-03     112.319E-03    -53.5292E-03     141.248E-03
             384     14.5028E-03     66.9191E-03    -14.1551E+06     117.379E+06     38.3804E+06     695.080E+03    -57.3664E-03     110.911E-03    -53.5449E-03     164.536E-03    -60.6044E-03     114.404E-03    -53.5027E-03     163.020E-03
             385     15.3564E-03     67.0933E-03    -10.9676E+06     141.831E+06     82.3224E+06    -74.6322E+03    -56.8097E-03     110.505E-03    -53.6955E-03     173.622E-03    -61.1994E-03     115.121E-03    -53.4737E-03     172.771E-03
             386     16.2137E-03     67.2693E-03    -5.22560E+06     144.934E+06     97.1180E+06    -144.067E+03    -54.3529E-03     108.077E-03    -53.7241E-03     109.558E-03    -57.3900E-03     111.328E-03    -53.4411E-03     109.454E-03
             387     852.969E-06     66.7934E-03    -54.7041E+06    -172.418E+06    -53.2432E+06    -261.508E+03    -53.8696E-03     107.658E-03    -53.7882E-03     9.69700E-03    -53.8172E-03     106.954E-03    -53.7251E-03     9.66034E-03
             388     1.70578E-03     66.8072E-03    -53.0122E+06    -169.365E+06    -48.4270E+06    -107.021E+03    -53.8896E-03     107.724E-03    -53.8349E-03     17.9665E-03    -53.8435E-03     107.029E-03    -53.7545E-03     17.9019E-03
             389     2.55868E-03     66.8293E-03    -49.9674E+06    -164.430E+06    -41.1104E+06    -48.6060E+03    -53.9347E-03     107.785E-03    -53.8507E-03     26.4344E-03    -53.8970E-03     107.106E-03    -53.7454E-03     26.3361E-03
             390     3.41167E-03     66.8600E-03    -46.1498E+06    -157.841E+06    -31.5820E+06    -45.2640E+03    -54.0152E-03     107.881E-03    -53.8658E-03     34.7976E-03    -53.9906E-03     107.224E-03    -53.7279E-03     34.6601E-03
             391     4.26470E-03     66.8989E-03    -42.4495E+06    -147.389E+06    -23.2962E+06     60.9267E+03    -54.1250E-03     107.992E-03    -53.8668E-03     42.9667E-03    -54.1220E-03     107.383E-03    -53.7081E-03     42.7856E-03
             392     5.11773E-03     66.9460E-03    -38.9406E+06    -138.405E+06    -16.8530E+06     140.477E+03    -54.2795E-03     108.141E-03    -53.8618E-03     50.8375E-03    -54.2993E-03     107.580E-03    -53.6889E-03     50.6047E-03
             393     5.97079E-03     67.0006E-03    -35.3040E+06    -132.475E+06    -10.1952E+06     116.439E+03    -54.4568E-03     108.321E-03    -53.8638E-03     58.4027E-03    -54.5011E-03     107.799E-03    -53.6715E-03     58.1086E-03
             394     6.82384E-03     67.0628E-03    -31.8489E+06    -124.472E+06    -4.96182E+06     176.163E+03    -54.6307E-03     108.487E-03    -53.8562E-03     65.6742E-03    -54.7094E-03     108.025E-03    -53.6544E-03     65.3110E-03
             395     7.67705E-03     67.1320E-03    -28.8069E+06    -113.677E+06    -2.96806E+06     361.575E+03    -54.8209E-03     108.650E-03    -53.8291E-03     72.6172E-03    -54.9458E-03     108.278E-03    -53.6373E-03     72.1764E-03
             396     8.53006E-03     67.2081E-03    -26.1966E+06    -101.141E+06    -2.26234E+06     462.653E+03    -55.0221E-03     108.817E-03    -53.7950E-03     79.2927E-03    -55.2097E-03     108.559E-03    -53.6216E-03     78.7613E-03
             397     9.38331E-03     67.2906E-03    -23.8450E+06    -88.4768E+06    -400.529E+03     544.501E+03    -55.2365E-03     109.005E-03    -53.7686E-03     86.1066E-03    -55.5100E-03     108.881E-03    -53.6078E-03     85.4698E-03
             398     10.2363E-03     67.3803E-03    -21.8785E+06    -74.3790E+06    -606.673E+03     686.820E+03    -55.4445E-03     109.176E-03    -53.7317E-03     93.0443E-03    -55.8320E-03     109.224E-03    -53.5952E-03     92.2876E-03
             399     11.0897E-03     67.4767E-03    -20.1217E+06    -54.0387E+06    -766.506E+03     726.502E+03    -55.6079E-03     109.297E-03    -53.6886E-03     98.7441E-03    -56.1539E-03     109.581E-03    -53.5849E-03     97.8478E-03
             400     11.9425E-03     67.5774E-03    -18.8205E+06    -25.9201E+06     864.759E+03     534.709E+03    -55.7702E-03     109.416E-03    -53.6455E-03     106.312E-03    -56.5596E-03     110.044E-03    -53.5763E-03     105.252E-03
             401     12.7958E-03     67.6893E-03    -17.8361E+06     12.9865E+06    -1.03043E+06     181.251E+03    -56.1472E-03     109.715E-03    -53.5676E-03     120.500E-03    -57.3755E-03     110.929E-03    -53.5657E-03     119.224E-03
             402     13.6491E-03     67.8176E-03    -16.6030E+06     68.9427E+06     2.84195E+06     32.9138E+03    -56.6789E-03     110.163E-03    -53.4845E-03     142.430E-03    -58.7316E-03     112.394E-03    -53.5461E-03     140.918E-03
             403     14.5031E-03     67.9751E-03    -13.4506E+06     116.347E+06     37.6666E+06     696.990E+03    -57.2172E-03     110.773E-03    -53.5557E-03     164.641E-03    -60.4453E-03     114.257E-03    -53.5165E-03     163.132E-03
             404     15.3562E-03     68.1483E-03    -8.57598E+06     143.224E+06     84.3477E+06     821.319E+03    -57.2924E-03     111.012E-03    -53.7195E-03     174.316E-03    -61.6782E-03     115.631E-03    -53.4930E-03     173.450E-03
             405     16.2042E-03     68.3253E-03    -4.51531E+06     145.837E+06     97.7714E+06     277.727E+03    -54.3390E-03     108.092E-03    -53.7525E-03     111.186E-03    -57.3948E-03     111.365E-03    -53.4686E-03     111.076E-03
             406     852.880E-06     67.8488E-03    -54.4210E+06    -172.293E+06    -53.1381E+06     120.132E+03    -53.8325E-03     107.612E-03    -53.7791E-03     9.74995E-03    -53.7790E-03     106.908E-03    -53.7160E-03     9.71838E-03
             407     1.70582E-03     67.8624E-03    -52.7309E+06    -169.122E+06    -48.2088E+06    -122.240E+03    -53.8663E-03     107.678E-03    -53.8115E-03     17.9441E-03    -53.8195E-03     106.983E-03    -53.7308E-03     17.8794E-03
             408     2.55879E-03     67.8846E-03    -50.0472E+06    -164.205E+06    -40.7371E+06    -458.545E+03    -53.9195E-03     107.750E-03    -53.8300E-03     26.4389E-03    -53.8830E-03     107.071E-03    -53.7230E-03     26.3355E-03
             409     3.41175E-03     67.9153E-03    -46.7076E+06    -158.181E+06    -31.5979E+06    -203.416E+03    -54.0145E-03     107.863E-03    -53.8486E-03     34.7883E-03    -53.9923E-03     107.205E-03    -53.7095E-03     34.6488E-03
             410     4.26473E-03     67.9542E-03    -42.9023E+06    -147.685E+06    -23.3058E+06     239.684E+03    -54.1299E-03     107.984E-03    -53.8541E-03     42.9470E-03    -54.1288E-03     107.374E-03    -53.6943E-03     42.7681E-03
             411     5.11780E-03     68.0012E-03    -39.0411E+06    -138.245E+06    -16.5462E+06     199.782E+03    -54.2796E-03     108.132E-03    -53.8526E-03     50.8140E-03    -54.3005E-03     107.572E-03    -53.6782E-03     50.5819E-03
             412     5.97082E-03     68.0559E-03    -35.3842E+06    -132.518E+06    -10.0376E+06     83.7037E+03    -54.4579E-03     108.314E-03    -53.8560E-03     58.3726E-03    -54.5028E-03     107.792E-03    -53.6627E-03     58.0780E-03
             413     6.82394E-03     68.1180E-03    -31.9031E+06    -124.738E+06    -4.87089E+06     253.471E+03    -54.6473E-03     108.498E-03    -53.8507E-03     65.6466E-03    -54.7260E-03     108.035E-03    -53.6479E-03     65.2842E-03
             414     7.67695E-03     68.1872E-03    -28.7792E+06    -113.845E+06    -3.00881E+06     372.513E+03    -54.8446E-03     108.670E-03    -53.8257E-03     72.6066E-03    -54.9690E-03     108.297E-03    -53.6339E-03     72.1657E-03
             415     8.53017E-03     68.2633E-03    -26.0440E+06    -101.246E+06    -2.19243E+06      410.74E+03    -55.0490E-03     108.844E-03    -53.7946E-03     79.2981E-03    -55.2358E-03     108.585E-03    -53.6210E-03     78.7659E-03
             416     9.38319E-03     68.3459E-03    -23.7595E+06    -88.6289E+06    -381.849E+03     469.582E+03    -55.2642E-03     109.035E-03    -53.7706E-03     86.1266E-03    -55.5372E-03     108.910E-03    -53.6096E-03     85.4887E-03
             417     10.2364E-03     68.4355E-03    -21.6637E+06    -74.6493E+06    -565.272E+03     558.726E+03    -55.4528E-03     109.188E-03    -53.7352E-03     92.9857E-03    -55.8388E-03     109.234E-03    -53.5984E-03     92.2270E-03
             418     11.0895E-03     68.5317E-03    -19.9495E+06    -54.1699E+06    -792.031E+03     643.257E+03    -55.6128E-03     109.304E-03    -53.6916E-03     98.8814E-03    -56.1579E-03     109.589E-03    -53.5881E-03     97.9840E-03
             419     11.9427E-03     68.6333E-03    -18.5711E+06    -25.8583E+06     1.01066E+06     798.383E+03    -55.7735E-03     109.422E-03    -53.6489E-03     106.277E-03    -56.5618E-03     110.050E-03    -53.5794E-03     105.221E-03
             420     12.7961E-03     68.7436E-03    -17.4263E+06     13.4212E+06    -812.329E+03     752.054E+03    -56.1794E-03     109.750E-03    -53.5710E-03     120.677E-03    -57.4081E-03     110.967E-03    -53.5692E-03     119.408E-03
             421     13.6486E-03     68.8747E-03    -16.6334E+06     70.0576E+06     4.17186E+06    -50.4299E+03    -56.8756E-03     110.375E-03    -53.4993E-03     142.615E-03    -58.9370E-03     112.614E-03    -53.5559E-03     141.093E-03
             422     14.5020E-03     69.0276E-03    -15.2181E+06     115.685E+06     35.6817E+06    -606.452E+03    -57.4131E-03     110.983E-03    -53.5700E-03     164.766E-03    -60.6545E-03     114.478E-03    -53.5372E-03     163.227E-03
             423     15.3563E-03     69.2059E-03    -10.8410E+06     141.951E+06     80.9054E+06     306.908E+03    -56.7751E-03     110.495E-03    -53.7197E-03     173.859E-03    -61.1523E-03     115.103E-03    -53.5053E-03     173.010E-03
             424     16.2157E-03     69.3805E-03    -5.26247E+06     146.376E+06     98.0321E+06     857.576E+03    -54.1936E-03     107.945E-03    -53.7510E-03     109.991E-03    -57.2305E-03     111.198E-03    -53.4655E-03     109.905E-03
             425     852.974E-06     68.9040E-03    -54.3722E+06    -172.394E+06    -53.2966E+06     54.2370E+03    -53.7900E-03     107.568E-03    -53.7778E-03     9.85965E-03    -53.7359E-03     106.864E-03    -53.7155E-03     9.82724E-03
             426     1.70589E-03     68.9176E-03    -52.4692E+06    -168.663E+06    -47.5495E+06    -132.678E+03    -53.8461E-03     107.638E-03    -53.7922E-03     17.9140E-03    -53.7996E-03     106.945E-03    -53.7093E-03     17.8492E-03
             427     2.55882E-03     68.9398E-03    -49.9264E+06    -164.018E+06    -40.2583E+06    -111.322E+03    -53.9134E-03     107.727E-03    -53.8132E-03     26.3946E-03    -53.8773E-03     107.048E-03    -53.7043E-03     26.2955E-03
             428     3.41179E-03     68.9705E-03    -46.8668E+06    -158.646E+06    -32.0804E+06     54.4099E+03    -54.0138E-03     107.846E-03    -53.8323E-03     34.7524E-03    -53.9909E-03     107.187E-03    -53.6947E-03     34.6162E-03
             429     4.26481E-03     69.0094E-03    -43.1183E+06    -147.880E+06    -23.4498E+06     135.838E+03    -54.1368E-03     107.980E-03    -53.8429E-03     42.9369E-03    -54.1362E-03     107.369E-03    -53.6832E-03     42.7565E-03
             430     5.11780E-03     69.0564E-03    -39.1557E+06    -138.142E+06    -16.3210E+06     161.729E+03    -54.2846E-03     108.130E-03    -53.8457E-03     50.7943E-03    -54.3067E-03     107.570E-03    -53.6702E-03     50.5616E-03
             431     5.97089E-03     69.1111E-03    -35.4772E+06    -132.562E+06    -10.0253E+06     191.789E+03    -54.4582E-03     108.308E-03    -53.8500E-03     58.3472E-03    -54.5034E-03     107.786E-03    -53.6565E-03     58.0540E-03
             432     6.82392E-03     69.1732E-03    -31.9980E+06    -124.947E+06    -5.01392E+06     194.036E+03    -54.6539E-03     108.499E-03    -53.8455E-03     65.6402E-03    -54.7325E-03     108.035E-03    -53.6430E-03     65.2770E-03
             433     7.67709E-03     69.2424E-03    -28.7764E+06    -113.926E+06    -3.11411E+06     261.639E+03    -54.8645E-03     108.687E-03    -53.8223E-03     72.6146E-03    -54.9886E-03     108.313E-03    -53.6309E-03     72.1721E-03
             434     8.53008E-03     69.3185E-03    -26.1332E+06    -101.317E+06    -2.26655E+06     317.699E+03    -55.0672E-03     108.861E-03    -53.7937E-03     79.3170E-03    -55.2542E-03     108.602E-03    -53.6202E-03     78.7833E-03
             435     9.38326E-03     69.4011E-03    -23.7474E+06    -88.7453E+06    -422.135E+03     349.910E+03    -55.2752E-03     109.046E-03    -53.7711E-03     86.1613E-03    -55.5479E-03     108.921E-03    -53.6101E-03     85.5217E-03
             436     10.2363E-03     69.4907E-03    -21.6276E+06    -74.7349E+06    -616.462E+03     315.457E+03    -55.5024E-03     109.240E-03    -53.7378E-03     93.0290E-03    -55.8886E-03     109.286E-03    -53.6012E-03     92.2659E-03
             437     11.0894E-03     69.5870E-03    -19.9006E+06    -54.4437E+06    -938.739E+03     533.394E+03    -55.6081E-03     109.304E-03    -53.6955E-03     98.9037E-03    -56.1528E-03     109.587E-03    -53.5923E-03     98.0046E-03
             438     11.9428E-03     69.6884E-03    -18.1812E+06    -26.0437E+06     1.07887E+06     625.584E+03    -55.7257E-03     109.377E-03    -53.6508E-03     106.301E-03    -56.5116E-03     110.002E-03    -53.5813E-03     105.243E-03
             439     12.7954E-03     69.7995E-03    -16.8167E+06     13.2657E+06    -602.586E+03     858.858E+03    -56.0829E-03     109.651E-03    -53.5681E-03     120.705E-03    -57.3065E-03     110.864E-03    -53.5659E-03     119.440E-03
             440     13.6499E-03     69.9288E-03    -16.0042E+06     70.6343E+06     4.05608E+06     1.31908E+06    -56.8622E-03     110.351E-03    -53.4892E-03     142.948E-03    -58.9221E-03     112.593E-03    -53.5481E-03     141.443E-03
             441     14.5023E-03     70.0854E-03    -14.6856E+06     116.697E+06     36.2567E+06     426.371E+03    -57.5283E-03     111.092E-03    -53.5638E-03     165.447E-03    -60.7848E-03     114.606E-03    -53.5304E-03     163.917E-03
             442     15.3547E-03     70.2588E-03    -11.8098E+06     141.199E+06     80.4556E+06    -371.957E+03    -57.2021E-03     110.929E-03    -53.7265E-03     174.473E-03    -61.6269E-03     115.579E-03    -53.5119E-03     173.607E-03
             443     16.2040E-03     70.4337E-03    -5.74875E+06     145.936E+06     97.5023E+06     24.2208E+03    -54.0614E-03     107.825E-03    -53.7640E-03     109.678E-03    -57.1247E-03     111.104E-03    -53.4798E-03     109.578E-03
             444     852.929E-06     69.9591E-03    -54.4877E+06    -172.263E+06    -52.8771E+06     48.8673E+03    -53.7829E-03     107.557E-03    -53.7737E-03     9.80706E-03    -53.7302E-03     106.853E-03    -53.7093E-03     9.77455E-03
             445     1.70589E-03     69.9729E-03    -52.6253E+06    -168.669E+06    -47.2022E+06     60.9185E+03    -53.8311E-03     107.618E-03    -53.7868E-03     17.8967E-03    -53.7859E-03     106.924E-03    -53.7019E-03     17.8344E-03
             446     2.55884E-03     69.9950E-03    -49.9059E+06    -164.259E+06    -40.4886E+06     282.650E+03    -53.9125E-03     107.717E-03    -53.8045E-03     26.3575E-03    -53.8756E-03     107.037E-03    -53.6964E-03     26.2633E-03
             447     3.41183E-03     70.0257E-03    -46.6128E+06    -158.637E+06    -32.1813E+06     256.133E+03    -54.0130E-03     107.838E-03    -53.8253E-03     34.7205E-03    -53.9888E-03     107.179E-03    -53.6886E-03     34.5867E-03
             448     4.26481E-03     70.0646E-03    -42.9345E+06    -147.857E+06    -23.5451E+06     98.3115E+03    -54.1289E-03     107.965E-03    -53.8363E-03     42.9101E-03    -54.1273E-03     107.355E-03    -53.6774E-03     42.7294E-03
             449     5.11788E-03     70.1116E-03    -39.1481E+06    -138.302E+06    -16.5818E+06     140.393E+03    -54.2794E-03     108.118E-03    -53.8386E-03     50.7789E-03    -54.3008E-03     107.558E-03    -53.6642E-03     50.5461E-03
             450     5.97088E-03     70.1663E-03    -35.4102E+06    -132.603E+06    -10.1143E+06     214.282E+03    -54.4657E-03     108.310E-03    -53.8444E-03     58.3432E-03    -54.5104E-03     107.788E-03    -53.6514E-03     58.0502E-03
             451     6.82400E-03     70.2284E-03    -31.9425E+06    -124.910E+06    -5.02331E+06     209.051E+03    -54.6640E-03     108.506E-03    -53.8419E-03     65.6369E-03    -54.7424E-03     108.042E-03    -53.6396E-03     65.2738E-03
             452     7.67702E-03     70.2977E-03    -28.9157E+06    -114.052E+06    -3.15394E+06     209.467E+03    -54.8700E-03     108.690E-03    -53.8203E-03     72.6137E-03    -54.9946E-03     108.317E-03    -53.6288E-03     72.1704E-03
             453     8.53017E-03     70.3738E-03    -26.2472E+06    -101.283E+06    -2.27310E+06     222.898E+03    -55.0671E-03     108.859E-03    -53.7922E-03     79.3275E-03    -55.2548E-03     108.601E-03    -53.6186E-03     78.7926E-03
             454     9.38322E-03     70.4563E-03    -23.9468E+06    -88.7744E+06    -433.738E+03     189.644E+03    -55.2666E-03     109.036E-03    -53.7695E-03     86.1986E-03    -55.5403E-03     108.911E-03    -53.6083E-03     85.5569E-03
             455     10.2364E-03     70.5461E-03    -22.0071E+06    -74.7828E+06    -680.252E+03     217.818E+03    -55.5099E-03     109.246E-03    -53.7361E-03     93.1652E-03    -55.8982E-03     109.293E-03    -53.5992E-03     92.4007E-03
             456     11.0895E-03     70.6423E-03    -20.2515E+06    -54.8042E+06    -1.01497E+06     296.771E+03    -55.6224E-03     109.317E-03    -53.6948E-03     98.9959E-03    -56.1685E-03     109.600E-03    -53.5910E-03     98.0934E-03
             457     11.9424E-03     70.7436E-03    -18.8861E+06    -26.3388E+06     890.573E+03     598.528E+03    -55.6560E-03     109.304E-03    -53.6480E-03     106.420E-03    -56.4448E-03     109.930E-03    -53.5779E-03     105.363E-03
             458     12.7966E-03     70.8545E-03    -17.7402E+06     12.7825E+06    -663.739E+03     719.748E+03    -56.0842E-03     109.648E-03    -53.5643E-03     120.710E-03    -57.3113E-03     110.860E-03    -53.5604E-03     119.443E-03
             459     13.6485E-03     70.9844E-03    -16.2047E+06     70.0884E+06     4.33980E+06     792.388E+03    -56.6755E-03     110.157E-03    -53.4812E-03     142.956E-03    -58.7386E-03     112.398E-03    -53.5376E-03     141.452E-03
             460     14.5032E-03     71.1400E-03    -13.6592E+06     117.027E+06     38.6886E+06     1.51545E+06    -56.9192E-03     110.460E-03    -53.5408E-03     165.410E-03    -60.1598E-03     113.955E-03    -53.4972E-03     163.925E-03
             461     15.3580E-03     71.3154E-03    -9.72096E+06     142.591E+06     83.8784E+06     1.23288E+06    -56.7955E-03     110.468E-03    -53.6729E-03     176.690E-03    -61.2275E-03     115.129E-03    -53.4462E-03     175.874E-03
             462     16.2134E-03     71.4936E-03    -5.32203E+06     146.770E+06     98.2880E+06    -146.847E+03    -54.9131E-03     108.617E-03    -53.7038E-03     111.814E-03    -58.0055E-03     111.926E-03    -53.4175E-03     111.700E-03
             463     852.911E-06     71.0143E-03    -54.2592E+06    -172.321E+06    -53.0267E+06     188.279E+03    -53.7725E-03     107.575E-03    -53.8028E-03     9.75376E-03    -53.7184E-03     106.871E-03    -53.7394E-03     9.72297E-03
             464     1.70589E-03     71.0280E-03    -52.5933E+06    -169.016E+06    -47.7084E+06     369.995E+03    -53.8193E-03     107.609E-03    -53.7894E-03     17.9053E-03    -53.7727E-03     106.914E-03    -53.7066E-03     17.8471E-03
             465     2.55885E-03     71.0502E-03    -49.9639E+06    -164.526E+06    -40.8660E+06     401.614E+03    -53.9093E-03     107.712E-03    -53.8028E-03     26.3477E-03    -53.8718E-03     107.032E-03    -53.6961E-03     26.2551E-03
             466     3.41180E-03     71.0809E-03    -46.6683E+06    -158.493E+06    -32.0420E+06     306.212E+03    -54.0128E-03     107.838E-03    -53.8251E-03     34.7141E-03    -53.9893E-03     107.179E-03    -53.6878E-03     34.5809E-03
             467     4.26482E-03     71.1198E-03    -42.9134E+06    -147.682E+06    -23.3954E+06     129.154E+03    -54.1181E-03     107.953E-03    -53.8353E-03     42.8907E-03    -54.1168E-03     107.343E-03    -53.6759E-03     42.7104E-03
             468     5.11786E-03     71.1668E-03    -39.0224E+06    -138.433E+06    -16.8528E+06     37.5930E+03    -54.2685E-03     108.103E-03    -53.8342E-03     50.7657E-03    -54.2886E-03     107.542E-03    -53.6612E-03     50.5316E-03
             469     5.97096E-03     71.2215E-03    -35.3318E+06    -132.801E+06    -10.2939E+06     205.035E+03    -54.4700E-03     108.310E-03    -53.8404E-03     58.3346E-03    -54.5138E-03     107.787E-03    -53.6481E-03     58.0415E-03
             470     6.82396E-03     71.2836E-03    -31.9452E+06    -124.941E+06    -4.94361E+06     361.390E+03    -54.6713E-03     108.511E-03    -53.8402E-03     65.6312E-03    -54.7498E-03     108.047E-03    -53.6374E-03     65.2700E-03
             471     7.67708E-03     71.3529E-03    -28.9566E+06    -114.008E+06    -3.01264E+06     303.751E+03    -54.8667E-03     108.686E-03    -53.8194E-03     72.6281E-03    -54.9918E-03     108.312E-03    -53.6272E-03     72.1860E-03
             472     8.53014E-03     71.4289E-03    -26.4528E+06    -101.336E+06    -2.22312E+06     251.937E+03    -55.0658E-03     108.857E-03    -53.7911E-03     79.3284E-03    -55.2546E-03     108.599E-03    -53.6170E-03     78.7937E-03
             473     9.38329E-03     71.5116E-03    -24.3285E+06    -88.7518E+06    -375.511E+03     280.094E+03    -55.2760E-03     109.045E-03    -53.7694E-03     86.1549E-03    -55.5520E-03     108.921E-03    -53.6073E-03     85.5139E-03
             474     10.2364E-03     71.6012E-03    -22.5777E+06    -74.7522E+06    -695.119E+03     267.129E+03    -55.4574E-03     109.192E-03    -53.7347E-03     93.1270E-03    -55.8483E-03     109.240E-03    -53.5970E-03     92.3638E-03
             475     11.0895E-03     71.6979E-03    -21.1909E+06    -55.0173E+06    -1.17787E+06     277.028E+03    -55.5524E-03     109.242E-03    -53.6894E-03     98.9544E-03    -56.1025E-03     109.525E-03    -53.5848E-03     98.0526E-03
             476     11.9431E-03     71.7985E-03    -19.7267E+06    -27.2194E+06     267.793E+03     592.178E+03    -55.7388E-03     109.381E-03    -53.6424E-03     106.307E-03    -56.5313E-03     110.006E-03    -53.5730E-03     105.247E-03
             477     12.7954E-03     71.9099E-03    -18.4950E+06     13.0968E+06    -951.321E+03     723.308E+03    -56.0041E-03     109.564E-03    -53.5600E-03     120.572E-03    -57.2362E-03     110.780E-03    -53.5569E-03     119.305E-03
             478     13.6500E-03     72.0396E-03    -17.8092E+06     70.4019E+06     5.42407E+06     642.501E+03    -56.5453E-03     110.025E-03    -53.4797E-03     142.843E-03    -58.6188E-03     112.269E-03    -53.5288E-03     141.341E-03
             479     14.5030E-03     72.1945E-03    -15.8491E+06     116.384E+06     40.2282E+06     688.991E+03    -57.0343E-03     110.582E-03    -53.5479E-03     164.171E-03    -60.2810E-03     114.069E-03    -53.4925E-03     162.665E-03
             480     15.3573E-03     72.3686E-03    -10.1988E+06     143.063E+06     84.9098E+06     530.422E+03    -56.5460E-03     110.228E-03    -53.6821E-03     172.867E-03    -60.9127E-03     114.820E-03    -53.4502E-03     172.024E-03
             481     16.2122E-03     72.5464E-03    -4.44678E+06     147.196E+06     98.6244E+06     391.479E+03    -54.8017E-03     108.513E-03    -53.7116E-03     108.244E-03    -57.8147E-03     111.747E-03    -53.4254E-03     108.122E-03
             482     852.923E-06     72.0695E-03    -54.5001E+06    -172.720E+06    -53.4377E+06     73.0561E+03    -53.7967E-03     107.588E-03    -53.7910E-03     9.75258E-03    -53.7426E-03     106.882E-03    -53.7288E-03     9.72018E-03
             483     1.70586E-03     72.0832E-03    -52.6108E+06    -169.399E+06    -48.3839E+06     291.028E+03    -53.8284E-03     107.622E-03    -53.7936E-03     17.8844E-03    -53.7803E-03     106.926E-03    -53.7136E-03     17.8251E-03
             484     2.55884E-03     72.1054E-03    -49.9391E+06    -164.642E+06    -41.0981E+06     374.571E+03    -53.8958E-03     107.702E-03    -53.8059E-03     26.3576E-03    -53.8576E-03     107.021E-03    -53.7002E-03     26.2647E-03
             485     3.41183E-03     72.1361E-03    -46.4721E+06    -158.362E+06    -31.8730E+06     226.510E+03    -54.0053E-03     107.831E-03    -53.8255E-03     34.7183E-03    -53.9812E-03     107.172E-03    -53.6879E-03     34.5842E-03
             486     4.26482E-03     72.1750E-03    -42.5547E+06    -147.531E+06    -23.2946E+06     102.904E+03    -54.1210E-03     107.955E-03    -53.8343E-03     42.8787E-03    -54.1183E-03     107.345E-03    -53.6752E-03     42.6980E-03
             487     5.11789E-03     72.2220E-03    -39.0206E+06    -138.554E+06    -17.0349E+06     201.888E+03    -54.2753E-03     108.109E-03    -53.8336E-03     50.7538E-03    -54.2949E-03     107.548E-03    -53.6613E-03     50.5217E-03
             488     5.97090E-03     72.2767E-03    -35.7189E+06    -133.090E+06    -10.5304E+06     342.875E+03    -54.4660E-03     108.307E-03    -53.8406E-03     58.3309E-03    -54.5109E-03     107.783E-03    -53.6485E-03     58.0396E-03
             489     6.82401E-03     72.3389E-03    -32.2849E+06    -125.051E+06    -5.00429E+06     395.106E+03    -54.6689E-03     108.510E-03    -53.8407E-03     65.6101E-03    -54.7489E-03     108.046E-03    -53.6376E-03     65.2492E-03
             490     7.67707E-03     72.4081E-03    -29.1717E+06    -113.965E+06    -2.99087E+06     457.679E+03    -54.8777E-03     108.698E-03    -53.8206E-03     72.5814E-03    -55.0040E-03     108.325E-03    -53.6280E-03     72.1410E-03
             491     8.53018E-03     72.4842E-03    -26.7472E+06    -101.372E+06    -2.27073E+06     501.115E+03    -55.0776E-03     108.871E-03    -53.7936E-03     79.2629E-03    -55.2678E-03     108.613E-03    -53.6192E-03     78.7309E-03
             492     9.38324E-03     72.5667E-03    -24.7224E+06    -88.8795E+06    -587.324E+03     544.979E+03    -55.2758E-03     109.048E-03    -53.7721E-03     86.1224E-03    -55.5533E-03     108.924E-03    -53.6103E-03     85.4845E-03
             493     10.2363E-03     72.6566E-03    -22.9689E+06    -74.7517E+06    -931.271E+03     595.609E+03    -55.4274E-03     109.163E-03    -53.7360E-03     93.0180E-03    -55.8199E-03     109.212E-03    -53.5989E-03     92.2593E-03
             494     11.0897E-03     72.7526E-03    -21.6140E+06    -55.0903E+06    -1.53314E+06     577.137E+03    -55.5540E-03     109.243E-03    -53.6894E-03     98.8666E-03    -56.1058E-03     109.527E-03    -53.5859E-03     97.9681E-03
             495     11.9425E-03     72.8543E-03    -20.3865E+06    -27.5477E+06    -398.930E+03     449.046E+03    -55.7119E-03     109.353E-03    -53.6409E-03     106.306E-03    -56.5058E-03     109.978E-03    -53.5734E-03     105.245E-03
             496     12.7962E-03     72.9651E-03    -19.2552E+06     13.2366E+06    -1.81275E+06     986.950E+03    -56.0192E-03     109.577E-03    -53.5573E-03     120.256E-03    -57.2527E-03     110.794E-03    -53.5577E-03     118.993E-03
             497     13.6493E-03     73.0937E-03    -17.9307E+06     70.0989E+06     3.68826E+06     1.33793E+06    -56.6422E-03     110.120E-03    -53.4774E-03     142.373E-03    -58.7077E-03     112.360E-03    -53.5346E-03     140.877E-03
             498     14.5029E-03     73.2509E-03    -15.0661E+06     117.177E+06     39.4757E+06     161.014E+03    -57.6716E-03     111.240E-03    -53.5684E-03     164.456E-03    -60.9243E-03     114.741E-03    -53.5191E-03     162.915E-03
             499     15.3546E-03     73.4236E-03    -11.0746E+06     143.259E+06     83.9870E+06    -437.461E+03    -58.0255E-03     111.785E-03    -53.7596E-03     173.940E-03    -62.4522E-03     116.437E-03    -53.5314E-03     173.010E-03
             500     16.2052E-03     73.6021E-03    -5.01590E+06     146.433E+06     97.4611E+06     157.129E+03    -54.0028E-03     107.805E-03    -53.8017E-03     109.566E-03    -57.0616E-03     111.083E-03    -53.5195E-03     109.441E-03
             501     852.934E-06     73.1248E-03    -54.7636E+06    -172.900E+06    -53.5422E+06    -18.9296E+03    -53.8369E-03     107.580E-03    -53.7431E-03     9.78847E-03    -53.7837E-03     106.874E-03    -53.6807E-03     9.75468E-03
             502     1.70583E-03     73.1384E-03    -52.9627E+06    -169.661E+06    -48.5863E+06     22.7278E+03    -53.8405E-03     107.634E-03    -53.7933E-03     17.8904E-03    -53.7935E-03     106.937E-03    -53.7135E-03     17.8277E-03
             503     2.55882E-03     73.1606E-03    -50.0789E+06    -164.662E+06    -41.0538E+06     66.5255E+03    -53.8973E-03     107.707E-03    -53.8093E-03     26.3723E-03    -53.8599E-03     107.026E-03    -53.7032E-03     26.2755E-03
             504     3.41181E-03     73.1913E-03    -46.4827E+06    -158.253E+06    -31.5681E+06     24.8230E+03    -53.9960E-03     107.824E-03    -53.8285E-03     34.7163E-03    -53.9725E-03     107.166E-03    -53.6895E-03     34.5797E-03
             505     4.26484E-03     73.2302E-03    -42.8614E+06    -147.877E+06    -23.5391E+06     289.417E+03    -54.1284E-03     107.964E-03    -53.8351E-03     42.8608E-03    -54.1264E-03     107.353E-03    -53.6763E-03     42.6824E-03
             506     5.11784E-03     73.2772E-03    -39.3691E+06    -138.760E+06    -17.1603E+06     577.696E+03    -54.2893E-03     108.126E-03    -53.8366E-03     50.7339E-03    -54.3103E-03     107.564E-03    -53.6641E-03     50.5065E-03
             507     5.97092E-03     73.3319E-03    -35.8572E+06    -133.065E+06    -10.4277E+06     500.853E+03    -54.4757E-03     108.321E-03    -53.8457E-03     58.3056E-03    -54.5215E-03     107.798E-03    -53.6529E-03     58.0161E-03
             508     6.82397E-03     73.3940E-03    -32.4522E+06    -125.189E+06    -5.10288E+06     475.540E+03    -54.6801E-03     108.526E-03    -53.8460E-03     65.5767E-03    -54.7606E-03     108.062E-03    -53.6430E-03     65.2166E-03
             509     7.67700E-03     73.4634E-03    -29.4164E+06    -114.196E+06    -3.14533E+06     606.055E+03    -54.8879E-03     108.715E-03    -53.8267E-03     72.5475E-03    -55.0150E-03     108.341E-03    -53.6342E-03     72.1088E-03
             510     8.53005E-03     73.5394E-03    -26.8151E+06    -101.502E+06    -2.40575E+06     709.283E+03    -55.0777E-03     108.877E-03    -53.7995E-03     79.2559E-03    -55.2680E-03     108.619E-03    -53.6255E-03     78.7265E-03
             511     9.38314E-03     73.6221E-03    -24.5874E+06    -88.8890E+06    -627.372E+03     767.070E+03    -55.2449E-03     109.021E-03    -53.7760E-03     86.0944E-03    -55.5213E-03     108.896E-03    -53.6146E-03     85.4602E-03
             512     10.2365E-03     73.7116E-03    -22.6497E+06    -74.9688E+06    -981.932E+03     892.707E+03    -55.4701E-03     109.210E-03    -53.7399E-03     92.9879E-03    -55.8607E-03     109.257E-03    -53.6032E-03     92.2323E-03
             513     11.0893E-03     73.8080E-03    -21.0293E+06    -54.8889E+06    -1.39353E+06     796.789E+03    -55.5662E-03     109.261E-03    -53.6950E-03     98.8839E-03    -56.1158E-03     109.545E-03    -53.5919E-03     97.9881E-03
             514     11.9428E-03     73.9094E-03    -19.6597E+06    -27.2353E+06     44.9531E+03     798.328E+03    -55.6208E-03     109.265E-03    -53.6443E-03     106.268E-03    -56.4090E-03     109.887E-03    -53.5761E-03     105.217E-03
             515     12.7960E-03     74.0199E-03    -17.9928E+06     12.1684E+06    -2.49251E+06     731.135E+03    -56.1353E-03     109.691E-03    -53.5561E-03     120.355E-03    -57.3602E-03     110.903E-03    -53.5601E-03     119.088E-03
             516     13.6488E-03     74.1500E-03    -15.6852E+06     70.0033E+06     3.08084E+06     645.487E+03    -56.8645E-03     110.347E-03    -53.4828E-03     142.497E-03    -58.9197E-03     112.586E-03    -53.5462E-03     140.984E-03
             517     14.5026E-03     74.3042E-03    -13.2677E+06     118.059E+06     37.9270E+06     790.314E+03    -57.4762E-03     111.041E-03    -53.5644E-03     165.810E-03    -60.7212E-03     114.548E-03    -53.5267E-03     164.286E-03
             518     15.3561E-03     74.4833E-03    -10.3176E+06     143.647E+06     82.8844E+06     529.206E+03    -57.1677E-03     110.887E-03    -53.7196E-03     176.917E-03    -61.6135E-03     115.566E-03    -53.4985E-03     176.073E-03
             519     16.2100E-03     74.6577E-03    -5.44553E+06     146.744E+06     97.9642E+06    -25.9494E+03    -54.3355E-03     108.083E-03    -53.7479E-03     110.977E-03    -57.4179E-03     111.383E-03    -53.4630E-03     110.886E-03
             520     852.932E-06     74.1799E-03    -54.8123E+06    -172.901E+06    -53.5063E+06     70.5315E+03    -53.8319E-03     107.564E-03    -53.7319E-03     9.77818E-03    -53.7790E-03     106.858E-03    -53.6692E-03     9.74567E-03
             521     1.70592E-03     74.1936E-03    -53.0889E+06    -169.633E+06    -48.4635E+06    -46.0949E+03    -53.8437E-03     107.632E-03    -53.7885E-03     17.8817E-03    -53.7976E-03     106.936E-03    -53.7078E-03     17.8180E-03
             522     2.55881E-03     74.2158E-03    -50.3293E+06    -164.547E+06    -40.6870E+06    -206.641E+03    -53.9114E-03     107.722E-03    -53.8109E-03     26.3679E-03    -53.8760E-03     107.042E-03    -53.7028E-03     26.2676E-03
             523     3.41181E-03     74.2464E-03    -47.0104E+06    -158.705E+06    -31.7906E+06     181.450E+03    -54.0075E-03     107.840E-03    -53.8324E-03     34.7156E-03    -53.9857E-03     107.180E-03    -53.6930E-03     34.5809E-03
             524     4.26480E-03     74.2854E-03    -43.4349E+06    -148.397E+06    -23.8968E+06     623.638E+03    -54.1363E-03     107.976E-03    -53.8401E-03     42.8510E-03    -54.1359E-03     107.364E-03    -53.6815E-03     42.6767E-03
             525     5.11783E-03     74.3324E-03    -39.5885E+06    -138.794E+06    -17.0821E+06     570.125E+03    -54.3019E-03     108.146E-03    -53.8437E-03     50.7214E-03    -54.3241E-03     107.584E-03    -53.6704E-03     50.4937E-03
             526     5.97084E-03     74.3871E-03    -35.7767E+06    -133.041E+06    -10.4196E+06     544.050E+03    -54.4955E-03     108.349E-03    -53.8534E-03     58.2996E-03    -54.5410E-03     107.825E-03    -53.6607E-03     58.0104E-03
             527     6.82385E-03     74.4493E-03    -32.3050E+06    -125.402E+06    -5.13382E+06     624.994E+03    -54.6819E-03     108.536E-03    -53.8541E-03     65.5892E-03    -54.7614E-03     108.071E-03    -53.6511E-03     65.2310E-03
             528     7.67695E-03     74.5185E-03    -29.2223E+06    -114.440E+06    -3.22708E+06     707.109E+03    -54.8710E-03     108.704E-03    -53.8326E-03     72.5944E-03    -54.9966E-03     108.328E-03    -53.6404E-03     72.1573E-03
             529     8.53004E-03     74.5947E-03    -26.5378E+06    -101.658E+06    -2.40615E+06     753.772E+03    -55.0635E-03     108.866E-03    -53.8029E-03     79.3059E-03    -55.2520E-03     108.607E-03    -53.6291E-03     78.7776E-03
             530     9.38319E-03     74.6772E-03    -24.1744E+06    -88.9834E+06    -549.606E+03     812.176E+03    -55.2670E-03     109.046E-03    -53.7793E-03     86.0830E-03    -55.5413E-03     108.920E-03    -53.6179E-03     85.4492E-03
             531     10.2362E-03     74.7669E-03    -22.0429E+06    -75.0063E+06    -758.156E+03     755.144E+03    -55.4779E-03     109.222E-03    -53.7441E-03     93.0752E-03    -55.8658E-03     109.268E-03    -53.6072E-03     92.3182E-03
             532     11.0894E-03     74.8634E-03    -20.1790E+06    -55.0111E+06    -1.16481E+06     816.614E+03    -55.5481E-03     109.246E-03    -53.6980E-03     98.8236E-03    -56.0928E-03     109.527E-03    -53.5948E-03     97.9291E-03
             533     11.9427E-03     74.9640E-03    -18.3968E+06    -27.1220E+06     743.612E+03     749.304E+03    -55.6243E-03     109.272E-03    -53.6477E-03     106.265E-03    -56.4067E-03     109.891E-03    -53.5780E-03     105.213E-03
             534     12.7958E-03     75.0758E-03    -17.0440E+06     12.2321E+06    -1.83967E+06     106.008E+03    -56.0432E-03     109.599E-03    -53.5557E-03     120.669E-03    -57.2626E-03     110.807E-03    -53.5580E-03     119.398E-03
             535     13.6497E-03     75.2046E-03    -15.9826E+06     69.9302E+06     2.94184E+06     187.805E+03    -56.9010E-03     110.378E-03    -53.4774E-03     142.843E-03    -58.9650E-03     112.625E-03    -53.5409E-03     141.319E-03
             536     14.5022E-03     75.3610E-03    -14.0445E+06     117.641E+06     36.0778E+06     873.360E+03    -57.1996E-03     110.746E-03    -53.5459E-03     165.395E-03    -60.4483E-03     114.257E-03    -53.5158E-03     163.883E-03
             537     15.3574E-03     75.5353E-03    -9.67845E+06     143.936E+06     82.1428E+06     813.996E+03    -56.0056E-03     109.676E-03    -53.6709E-03     174.490E-03    -60.3762E-03     114.285E-03    -53.4548E-03     173.702E-03
             538     16.2139E-03     75.7132E-03    -5.12554E+06     147.499E+06     98.8326E+06     424.890E+03    -54.6503E-03     108.344E-03    -53.6936E-03     109.227E-03    -57.6664E-03     111.579E-03    -53.4059E-03     109.142E-03
             539     852.951E-06     75.2351E-03    -55.0777E+06    -173.107E+06    -53.6996E+06     115.536E+03    -53.8070E-03     107.575E-03    -53.7679E-03     9.75156E-03    -53.7549E-03     106.869E-03    -53.7055E-03     9.71986E-03
             540     1.70583E-03     75.2488E-03    -53.1006E+06    -169.350E+06    -47.9084E+06     15.0757E+03    -53.8376E-03     107.632E-03    -53.7948E-03     17.8757E-03    -53.7927E-03     106.937E-03    -53.7118E-03     17.8128E-03
             541     2.55885E-03     75.2710E-03    -50.5211E+06    -164.702E+06    -40.6594E+06     140.195E+03    -53.9175E-03     107.732E-03    -53.8141E-03     26.3422E-03    -53.8828E-03     107.051E-03    -53.7053E-03     26.2462E-03
             542     3.41178E-03     75.3017E-03    -47.3784E+06    -159.425E+06    -32.6385E+06     480.478E+03    -54.0251E-03     107.860E-03    -53.8345E-03     34.7091E-03    -54.0029E-03     107.198E-03    -53.6979E-03     34.5782E-03
             543     4.26476E-03     75.3406E-03    -43.4920E+06    -148.567E+06    -24.1166E+06     556.930E+03    -54.1470E-03     107.993E-03    -53.8461E-03     42.8711E-03    -54.1463E-03     107.381E-03    -53.6882E-03     42.6959E-03
             544     5.11778E-03     75.3876E-03    -39.5501E+06    -138.737E+06    -17.0097E+06     495.347E+03    -54.3058E-03     108.156E-03    -53.8506E-03     50.7539E-03    -54.3280E-03     107.595E-03    -53.6771E-03     50.5252E-03
             545     5.97078E-03     75.4424E-03    -35.8961E+06    -133.293E+06    -10.7493E+06     512.313E+03    -54.4866E-03     108.344E-03    -53.8576E-03     58.3460E-03    -54.5319E-03     107.820E-03    -53.6660E-03     58.0566E-03
             546     6.82387E-03     75.5045E-03    -32.3551E+06    -125.576E+06    -5.38819E+06     605.126E+03    -54.6688E-03     108.525E-03    -53.8562E-03     65.6479E-03    -54.7479E-03     108.059E-03    -53.6541E-03     65.2898E-03
             547     7.67692E-03     75.5738E-03    -29.1020E+06    -114.557E+06    -3.37222E+06     624.083E+03    -54.8612E-03     108.694E-03    -53.8329E-03     72.6364E-03    -54.9858E-03     108.318E-03    -53.6415E-03     72.1985E-03
             548     8.53007E-03     75.6499E-03    -26.3070E+06    -101.831E+06    -2.47734E+06     674.022E+03    -55.0590E-03     108.861E-03    -53.8025E-03     79.3283E-03    -55.2459E-03     108.601E-03    -53.6290E-03     78.7993E-03
             549     9.38312E-03     75.7325E-03    -23.8510E+06    -89.1180E+06    -543.425E+03     648.932E+03    -55.2706E-03     109.049E-03    -53.7786E-03     86.1622E-03    -55.5433E-03     108.922E-03    -53.6175E-03     85.5263E-03
             550     10.2363E-03     75.8221E-03    -21.7835E+06    -74.9686E+06    -671.553E+03     564.320E+03    -55.4450E-03     109.187E-03    -53.7421E-03     93.1452E-03    -55.8317E-03     109.232E-03    -53.6052E-03     92.3865E-03
             551     11.0895E-03     75.9184E-03    -20.0304E+06    -55.2464E+06    -1.03265E+06     630.068E+03    -55.5736E-03     109.270E-03    -53.6962E-03     98.9319E-03    -56.1174E-03     109.549E-03    -53.5922E-03     98.0349E-03
             552     11.9425E-03     76.0196E-03    -18.6916E+06    -27.0901E+06     824.021E+03     558.004E+03    -55.6237E-03     109.271E-03    -53.6470E-03     106.183E-03    -56.4089E-03     109.891E-03    -53.5765E-03     105.127E-03
             553     12.7963E-03     76.1302E-03    -18.0732E+06     13.2437E+06    -1.09631E+06     584.613E+03    -56.0261E-03     109.584E-03    -53.5580E-03     120.669E-03    -57.2531E-03     110.797E-03    -53.5565E-03     119.403E-03
             554     13.6491E-03     76.2606E-03    -17.5246E+06     69.9134E+06     2.70709E+06     265.061E+03    -56.9079E-03     110.385E-03    -53.4776E-03     142.748E-03    -58.9823E-03     112.638E-03    -53.5400E-03     141.226E-03
             555     14.5032E-03     76.4159E-03    -14.9357E+06     116.931E+06     35.0396E+06    -64.3140E+03    -57.4422E-03     110.995E-03    -53.5532E-03     164.171E-03    -60.6873E-03     114.501E-03    -53.5259E-03     162.639E-03
             556     15.3556E-03     76.5901E-03    -10.2135E+06     143.438E+06     81.2833E+06     546.648E+03    -56.9955E-03     110.715E-03    -53.7192E-03     172.672E-03    -61.3718E-03     115.328E-03    -53.5060E-03     171.816E-03
             557     16.2080E-03     76.7652E-03    -4.85875E+06     147.749E+06     98.6549E+06     750.350E+03    -54.2024E-03     107.965E-03    -53.7624E-03     109.562E-03    -57.2411E-03     111.225E-03    -53.4763E-03     109.454E-03
             558     852.878E-06     76.2903E-03    -55.1987E+06    -173.213E+06    -53.9097E+06    -135.613E+03    -53.8056E-03     107.596E-03    -53.7907E-03     9.73733E-03    -53.7536E-03     106.890E-03    -53.7291E-03     9.70235E-03
             559     1.70590E-03     76.3040E-03    -53.2967E+06    -169.593E+06    -48.1100E+06     255.640E+03    -53.8342E-03     107.637E-03    -53.8027E-03     17.8957E-03    -53.7897E-03     106.941E-03    -53.7201E-03     17.8359E-03
             560     2.55878E-03     76.3262E-03    -50.6711E+06    -165.219E+06    -41.3461E+06     615.101E+03    -53.9230E-03     107.740E-03    -53.8169E-03     26.3489E-03    -53.8873E-03     107.058E-03    -53.7106E-03     26.2591E-03
             561     3.41177E-03     76.3569E-03    -47.3842E+06    -159.543E+06    -33.0638E+06     534.621E+03    -54.0253E-03     107.862E-03    -53.8370E-03     34.7196E-03    -54.0023E-03     107.201E-03    -53.7023E-03     34.5894E-03
             562     4.26476E-03     76.3959E-03    -43.5904E+06    -148.539E+06    -24.2119E+06     319.088E+03    -54.1439E-03     107.993E-03    -53.8488E-03     42.9147E-03    -54.1437E-03     107.381E-03    -53.6913E-03     42.7366E-03
             563     5.11775E-03     76.4429E-03    -39.6667E+06    -138.986E+06    -17.3366E+06     404.472E+03    -54.2928E-03     108.143E-03    -53.8506E-03     50.8006E-03    -54.3147E-03     107.581E-03    -53.6783E-03     50.5710E-03
             564     5.97083E-03     76.4976E-03    -35.9390E+06    -133.422E+06    -10.9283E+06     522.661E+03    -54.4683E-03     108.324E-03    -53.8555E-03     58.3779E-03    -54.5133E-03     107.799E-03    -53.6645E-03     58.0889E-03
             565     6.82388E-03     76.5597E-03    -32.3874E+06    -125.600E+06    -5.59639E+06     418.815E+03    -54.6624E-03     108.515E-03    -53.8522E-03     65.6751E-03    -54.7413E-03     108.049E-03    -53.6511E-03     65.3147E-03
             566     7.67699E-03     76.6290E-03    -29.1187E+06    -114.670E+06    -3.47171E+06     420.202E+03    -54.8671E-03     108.697E-03    -53.8297E-03     72.6611E-03    -54.9915E-03     108.321E-03    -53.6386E-03     72.2205E-03
             567     8.53003E-03     76.7051E-03    -26.3224E+06    -101.967E+06    -2.55822E+06     447.242E+03    -55.0522E-03     108.852E-03    -53.7995E-03     79.3646E-03    -55.2389E-03     108.590E-03    -53.6263E-03     78.8328E-03
             568     9.38323E-03     76.7877E-03    -23.8951E+06    -89.1733E+06    -558.425E+03     440.665E+03    -55.2360E-03     109.010E-03    -53.7742E-03     86.1930E-03    -55.5087E-03     108.883E-03    -53.6130E-03     85.5550E-03
             569     10.2364E-03     76.8773E-03    -21.8333E+06    -75.0346E+06    -592.211E+03     500.670E+03    -55.4570E-03     109.195E-03    -53.7376E-03     93.0981E-03    -55.8440E-03     109.239E-03    -53.6001E-03     92.3380E-03
             570     11.0895E-03     76.9737E-03    -20.2644E+06    -55.3347E+06    -944.755E+03     570.503E+03    -55.5580E-03     109.250E-03    -53.6925E-03     98.9130E-03    -56.1028E-03     109.530E-03    -53.5876E-03     98.0156E-03
             571     11.9429E-03     77.0749E-03    -19.1063E+06    -27.2464E+06     677.955E+03     783.182E+03    -55.6709E-03     109.315E-03    -53.6443E-03     106.059E-03    -56.4587E-03     109.936E-03    -53.5737E-03     105.004E-03
             572     12.7957E-03     77.1851E-03    -17.7406E+06     13.2855E+06    -790.780E+03     1.19494E+06    -56.2230E-03     109.788E-03    -53.5646E-03     120.751E-03    -57.4539E-03     111.005E-03    -53.5621E-03     119.486E-03
             573     13.6494E-03     77.3162E-03    -16.6126E+06     70.6123E+06     4.25578E+06     441.752E+03    -56.9767E-03     110.473E-03    -53.4964E-03     142.810E-03    -59.0484E-03     112.724E-03    -53.5534E-03     141.289E-03
             574     14.5016E-03     77.4711E-03    -15.2154E+06     116.698E+06     36.3972E+06    -21.8649E+03    -57.4909E-03     111.066E-03    -53.5756E-03     164.527E-03    -60.7359E-03     114.566E-03    -53.5407E-03     162.995E-03
             575     15.3555E-03     77.6461E-03    -11.6243E+06     142.875E+06     81.0449E+06     408.343E+03    -57.4283E-03     111.171E-03    -53.7428E-03     174.976E-03    -61.8783E-03     115.852E-03    -53.5279E-03     174.115E-03
             576     16.2080E-03     77.8227E-03    -5.22285E+06     148.251E+06     98.3032E+06     191.668E+03    -54.0382E-03     107.820E-03    -53.7817E-03     111.073E-03    -57.1425E-03     111.147E-03    -53.4975E-03     110.967E-03
             577     852.929E-06     77.3455E-03    -55.1720E+06    -173.185E+06    -53.8808E+06    -12.0742E+03    -53.8133E-03     107.599E-03    -53.7860E-03     9.71379E-03    -53.7612E-03     106.893E-03    -53.7243E-03     9.68042E-03
             578     1.70581E-03     77.3592E-03    -53.5349E+06    -170.277E+06    -49.2994E+06     282.156E+03    -53.8459E-03     107.647E-03    -53.8013E-03     17.9072E-03    -53.7998E-03     106.950E-03    -53.7232E-03     17.8479E-03
             579     2.55882E-03     77.3815E-03    -50.7153E+06    -165.616E+06    -42.2579E+06     478.213E+03    -53.9199E-03     107.736E-03    -53.8164E-03     26.3661E-03    -53.8825E-03     107.054E-03    -53.7141E-03     26.2746E-03
             580     3.41175E-03     77.4121E-03    -47.2008E+06    -159.355E+06    -32.9868E+06     376.710E+03    -54.0174E-03     107.855E-03    -53.8378E-03     34.7320E-03    -53.9938E-03     107.194E-03    -53.7032E-03     34.5998E-03
             581     4.26475E-03     77.4511E-03    -43.4464E+06    -148.575E+06    -24.3729E+06     296.874E+03    -54.1264E-03     107.972E-03    -53.8458E-03     42.9387E-03    -54.1251E-03     107.360E-03    -53.6892E-03     42.7606E-03
             582     5.11782E-03     77.4981E-03    -39.8174E+06    -139.285E+06    -17.7285E+06     380.935E+03    -54.2796E-03     108.124E-03    -53.8448E-03     50.8138E-03    -54.3012E-03     107.562E-03    -53.6738E-03     50.5840E-03
             583     5.97085E-03     77.5528E-03    -36.1153E+06    -133.398E+06    -10.9923E+06     358.408E+03    -54.4660E-03     108.316E-03    -53.8503E-03     58.3835E-03    -54.5119E-03     107.792E-03    -53.6595E-03     58.0924E-03
             584     6.82393E-03     77.6150E-03    -32.4920E+06    -125.510E+06    -5.61630E+06     265.508E+03    -54.6627E-03     108.510E-03    -53.8476E-03     65.6827E-03    -54.7422E-03     108.045E-03    -53.6466E-03     65.3203E-03
             585     7.67699E-03     77.6842E-03    -29.2849E+06    -114.789E+06    -3.58427E+06     194.049E+03    -54.8563E-03     108.681E-03    -53.8251E-03     72.6672E-03    -54.9812E-03     108.305E-03    -53.6341E-03     72.2237E-03
             586     8.53014E-03     77.7604E-03    -26.4996E+06    -101.967E+06    -2.62222E+06     198.713E+03    -55.0404E-03     108.835E-03    -53.7944E-03     79.3612E-03    -55.2280E-03     108.574E-03    -53.6212E-03     78.8262E-03
             587     9.38324E-03     77.8428E-03    -24.0956E+06    -89.3166E+06    -686.799E+03     254.603E+03    -55.2523E-03     109.022E-03    -53.7697E-03     86.1770E-03    -55.5259E-03     108.895E-03    -53.6087E-03     85.5360E-03
             588     10.2364E-03     77.9326E-03    -22.0112E+06    -75.2472E+06    -804.365E+03     416.486E+03    -55.4734E-03     109.208E-03    -53.7346E-03     93.1020E-03    -55.8609E-03     109.253E-03    -53.5976E-03     92.3402E-03
             589     11.0895E-03     78.0289E-03    -20.3082E+06    -55.5193E+06    -1.17036E+06     550.102E+03    -55.5510E-03     109.241E-03    -53.6900E-03     98.8181E-03    -56.0953E-03     109.520E-03    -53.5859E-03     97.9204E-03
             590     11.9427E-03     78.1298E-03    -18.4555E+06    -27.2055E+06     718.242E+03     685.007E+03    -55.7742E-03     109.419E-03    -53.6451E-03     106.135E-03    -56.5597E-03     110.041E-03    -53.5753E-03     105.076E-03
             591     12.7961E-03     78.2410E-03    -16.7802E+06     12.5607E+06    -781.183E+03     659.475E+03    -56.2106E-03     109.779E-03    -53.5684E-03     120.867E-03    -57.4367E-03     110.992E-03    -53.5662E-03     119.595E-03
             592     13.6485E-03     78.3715E-03    -15.6170E+06     70.2908E+06     4.69868E+06     1.06479E+06    -56.5904E-03     110.077E-03    -53.4869E-03     143.506E-03    -58.6516E-03     112.319E-03    -53.5426E-03     142.010E-03
             593     14.5030E-03     78.5267E-03    -14.1329E+06     117.460E+06     36.8135E+06     1.45448E+06    -57.1953E-03     110.734E-03    -53.5388E-03     166.026E-03    -60.4465E-03     114.245E-03    -53.5046E-03     164.533E-03
             594     15.3565E-03     78.7011E-03    -10.2938E+06     143.768E+06     81.6437E+06     708.458E+03    -57.0111E-03     110.693E-03    -53.6820E-03     176.043E-03    -61.4547E-03     115.374E-03    -53.4673E-03     175.214E-03
             595     16.2112E-03     78.8790E-03    -4.53143E+06     148.732E+06     98.7438E+06    -34.7106E+03    -54.5338E-03     108.256E-03    -53.7227E-03     109.967E-03    -57.6055E-03     111.554E-03    -53.4381E-03     109.862E-03
             596     852.934E-06     78.4008E-03    -55.5852E+06    -173.581E+06    -54.3631E+06     375.031E+03    -53.8086E-03     107.586E-03    -53.7776E-03     9.74259E-03    -53.7573E-03     106.879E-03    -53.7171E-03     9.71439E-03
             597     1.70586E-03     78.4144E-03    -53.9967E+06    -170.426E+06    -49.4906E+06     224.126E+03    -53.8530E-03     107.651E-03    -53.7985E-03     17.9058E-03    -53.8088E-03     106.954E-03    -53.7205E-03     17.8457E-03
             598     2.55877E-03     78.4367E-03    -51.2997E+06    -165.724E+06    -42.3739E+06     25.7199E+03    -53.9071E-03     107.723E-03    -53.8155E-03     26.3903E-03    -53.8723E-03     107.040E-03    -53.7127E-03     26.2931E-03
             599     3.41178E-03     78.4673E-03    -47.7833E+06    -159.454E+06    -32.9883E+06     126.616E+03    -54.0019E-03     107.837E-03    -53.8347E-03     34.7523E-03    -53.9811E-03     107.176E-03    -53.6992E-03     34.6170E-03
             600     4.26479E-03     78.5062E-03    -43.9434E+06    -148.765E+06    -24.4353E+06     336.287E+03    -54.1194E-03     107.961E-03    -53.8414E-03     42.9355E-03    -54.1202E-03     107.348E-03    -53.6841E-03     42.7579E-03
             601     5.11783E-03     78.5533E-03    -40.0146E+06    -139.301E+06    -17.6692E+06     312.051E+03    -54.2749E-03     108.115E-03    -53.8405E-03     50.8106E-03    -54.2976E-03     107.553E-03    -53.6688E-03     50.5800E-03
             602     5.97089E-03     78.6080E-03    -36.2590E+06    -133.346E+06    -10.9362E+06     193.932E+03    -54.4672E-03     108.314E-03    -53.8464E-03     58.3772E-03    -54.5139E-03     107.790E-03    -53.6551E-03     58.0839E-03
             603     6.82394E-03     78.6702E-03    -32.7249E+06    -125.485E+06    -5.75869E+06     154.404E+03    -54.6596E-03     108.503E-03    -53.8434E-03     65.6750E-03    -54.7402E-03     108.039E-03    -53.6428E-03     65.3110E-03
             604     7.67705E-03     78.7395E-03    -29.4977E+06    -114.666E+06    -3.81369E+06     41.1449E+03    -54.8456E-03     108.666E-03    -53.8202E-03     72.6391E-03    -54.9715E-03     108.291E-03    -53.6302E-03     72.1936E-03
             605     8.53016E-03     78.8154E-03    -26.7331E+06    -102.041E+06    -2.98954E+06    -57.6267E+03    -55.0409E-03     108.830E-03    -53.7892E-03     79.3404E-03    -55.2291E-03     108.570E-03    -53.6174E-03     78.8018E-03
             606     9.38329E-03     78.8982E-03    -24.3113E+06    -89.5194E+06    -1.13172E+06     38.0991E+03    -55.2658E-03     109.031E-03    -53.7652E-03     86.2053E-03    -55.5397E-03     108.904E-03    -53.6058E-03     85.5611E-03
             607     10.2364E-03     78.9877E-03    -22.1969E+06    -75.5666E+06    -1.33511E+06     187.627E+03    -55.4614E-03     109.192E-03    -53.7301E-03     93.1189E-03    -55.8486E-03     109.236E-03    -53.5951E-03     92.3545E-03
             608     11.0896E-03     79.0842E-03    -20.3234E+06    -55.5126E+06    -1.47183E+06     335.944E+03    -55.5680E-03     109.254E-03    -53.6862E-03     98.8471E-03    -56.1119E-03     109.533E-03    -53.5836E-03     97.9465E-03
             609     11.9427E-03     79.1850E-03    -18.7301E+06    -27.5176E+06     254.302E+03     351.124E+03    -55.7307E-03     109.370E-03    -53.6398E-03     106.544E-03    -56.5175E-03     109.992E-03    -53.5714E-03     105.483E-03
             610     12.7954E-03     79.2967E-03    -17.7449E+06     12.1327E+06    -1.44324E+06     432.072E+03    -55.9045E-03     109.456E-03    -53.5511E-03     121.023E-03    -57.1319E-03     110.667E-03    -53.5502E-03     119.757E-03
             611     13.6503E-03     79.4255E-03    -16.8958E+06     69.3752E+06     3.20381E+06     1.41435E+06    -56.2338E-03     109.681E-03    -53.4474E-03     143.162E-03    -58.2899E-03     111.914E-03    -53.5075E-03     141.685E-03
             612     14.5043E-03     79.5815E-03    -14.2289E+06     118.304E+06     36.8576E+06     1.32118E+06    -57.0479E-03     110.539E-03    -53.4912E-03     165.825E-03    -60.3013E-03     114.055E-03    -53.4578E-03     164.333E-03
             613     15.3577E-03     79.7575E-03    -9.83394E+06     144.618E+06     82.8122E+06     48.6929E+03    -57.3406E-03     110.991E-03    -53.6501E-03     174.666E-03    -61.7595E-03     115.648E-03    -53.4314E-03     173.791E-03
             614     16.2109E-03     79.9324E-03    -5.23281E+06     148.260E+06     98.4386E+06     277.334E+03    -54.8779E-03     108.590E-03    -53.7124E-03     108.295E-03    -57.9220E-03     111.857E-03    -53.4276E-03     108.166E-03
             615     852.933E-06     79.4560E-03    -56.5061E+06    -174.213E+06    -55.2404E+06     298.656E+03    -53.7997E-03     107.573E-03    -53.7734E-03     9.76700E-03    -53.7508E-03     106.866E-03    -53.7151E-03     9.73787E-03
             616     1.70584E-03     79.4697E-03    -54.4616E+06    -170.387E+06    -49.3553E+06     295.147E+03    -53.8361E-03     107.630E-03    -53.7935E-03     17.9044E-03    -53.7945E-03     106.933E-03    -53.7142E-03     17.8452E-03
             617     2.55883E-03     79.4918E-03    -51.8225E+06    -165.550E+06    -41.8769E+06     129.826E+03    -53.9010E-03     107.712E-03    -53.8111E-03     26.3844E-03    -53.8698E-03     107.031E-03    -53.7052E-03     26.2885E-03
             618     3.41181E-03     79.5225E-03    -48.5638E+06    -159.697E+06    -33.1759E+06     128.811E+03    -54.0000E-03     107.830E-03    -53.8295E-03     34.7485E-03    -53.9825E-03     107.169E-03    -53.6934E-03     34.6132E-03
             619     4.26481E-03     79.5615E-03    -44.4799E+06    -148.786E+06    -24.3696E+06     89.1824E+03    -54.1256E-03     107.965E-03    -53.8390E-03     42.9167E-03    -54.1292E-03     107.353E-03    -53.6806E-03     42.7356E-03
             620     5.11784E-03     79.6085E-03    -40.2641E+06    -139.300E+06    -17.5517E+06    -6.73082E+03    -54.2800E-03     108.120E-03    -53.8399E-03     50.7889E-03    -54.3041E-03     107.557E-03    -53.6673E-03     50.5539E-03
             621     5.97090E-03     79.6632E-03    -36.3888E+06    -133.381E+06    -11.2341E+06     102.270E+03    -54.4654E-03     108.310E-03    -53.8444E-03     58.3556E-03    -54.5123E-03     107.787E-03    -53.6544E-03     58.0610E-03
             622     6.82396E-03     79.7254E-03    -32.7743E+06    -125.320E+06    -6.09348E+06    -1.68311E+03    -54.6539E-03     108.495E-03    -53.8406E-03     65.6325E-03    -54.7345E-03     108.032E-03    -53.6419E-03     65.2663E-03
             623     7.67706E-03     79.7946E-03    -29.4977E+06    -114.487E+06    -4.23121E+06    -173.669E+03    -54.8486E-03     108.666E-03    -53.8170E-03     72.6015E-03    -54.9741E-03     108.292E-03    -53.6293E-03     72.1531E-03
             624     8.53016E-03     79.8707E-03    -26.7859E+06    -102.023E+06    -3.44418E+06    -227.507E+03    -55.0410E-03     108.827E-03    -53.7864E-03     79.3105E-03    -55.2288E-03     108.568E-03    -53.6169E-03     78.7696E-03
             625     9.38329E-03     79.9533E-03    -24.4956E+06    -89.7116E+06    -1.65797E+06    -185.607E+03    -55.2404E-03     109.002E-03    -53.7616E-03     86.2095E-03    -55.5141E-03     108.875E-03    -53.6043E-03     85.5628E-03
             626     10.2365E-03     80.0431E-03     -22.487E+06    -75.6131E+06    -1.80996E+06    -75.7147E+03    -55.4484E-03     109.174E-03    -53.7253E-03     93.0889E-03    -55.8360E-03     109.218E-03    -53.5921E-03     92.3214E-03
             627     11.0896E-03     80.1392E-03    -20.8440E+06    -55.8684E+06    -2.11237E+06     89.4821E+03    -55.5285E-03     109.208E-03    -53.6796E-03     98.8617E-03    -56.0736E-03     109.487E-03    -53.5790E-03     97.9585E-03
             628     11.9428E-03     80.2405E-03    -19.5126E+06    -28.0574E+06    -627.116E+03     331.150E+03    -55.5014E-03     109.125E-03    -53.6239E-03     106.470E-03    -56.2887E-03     109.745E-03    -53.5580E-03     105.413E-03
             629     12.7971E-03     80.3513E-03    -18.4984E+06     11.8430E+06    -2.23758E+06     887.319E+03    -55.8311E-03     109.358E-03    -53.5270E-03     120.547E-03    -57.0571E-03     110.567E-03    -53.5286E-03     119.290E-03
             630     13.6497E-03     80.4803E-03    -16.9051E+06     69.2228E+06     3.02437E+06     902.412E+03    -56.6253E-03     110.065E-03    -53.4394E-03     142.190E-03    -58.6837E-03     112.300E-03    -53.5002E-03     140.690E-03
             631     14.5032E-03     80.6358E-03    -14.2688E+06     119.503E+06     37.9906E+06     457.542E+03    -57.2411E-03     110.751E-03    -53.5103E-03     164.945E-03    -60.4920E-03     114.266E-03    -53.4729E-03     163.426E-03
             632     15.3572E-03     80.8129E-03    -10.2567E+06     144.593E+06     83.0699E+06     607.381E+03    -57.1024E-03     110.768E-03    -53.6659E-03     175.244E-03    -61.5142E-03     115.416E-03    -53.4453E-03     174.380E-03
             633     16.2082E-03     80.9904E-03    -5.87634E+06     147.658E+06     97.6150E+06     560.870E+03    -54.8762E-03     108.589E-03    -53.7129E-03     109.611E-03    -57.9297E-03     111.863E-03    -53.4304E-03     109.488E-03
             634     852.908E-06     80.5112E-03    -57.1141E+06    -174.500E+06    -55.8469E+06    -54.3118E+03    -53.8002E-03     107.566E-03    -53.7654E-03     9.76121E-03    -53.7530E-03     106.859E-03    -53.7088E-03     9.72742E-03
             635     1.70590E-03     80.5248E-03    -54.9703E+06    -170.676E+06    -49.8799E+06     153.136E+03    -53.8227E-03     107.611E-03    -53.7880E-03     17.8989E-03    -53.7824E-03     106.914E-03    -53.7102E-03     17.8379E-03
             636     2.55883E-03     80.5470E-03    -51.9787E+06    -165.673E+06    -42.1814E+06     458.264E+03    -53.9085E-03     107.714E-03    -53.8060E-03     26.3504E-03    -53.8775E-03     107.033E-03    -53.7013E-03     26.2586E-03
             637     3.41180E-03     80.5777E-03    -48.3976E+06    -159.385E+06    -33.1947E+06     154.244E+03    -54.0157E-03     107.845E-03    -53.8288E-03     34.7175E-03    -53.9979E-03     107.185E-03    -53.6935E-03     34.5823E-03
             638     4.26480E-03     80.6167E-03    -44.3598E+06    -148.579E+06    -24.4806E+06    -264.098E+03    -54.1328E-03     107.973E-03    -53.8405E-03     42.8922E-03    -54.1359E-03     107.362E-03    -53.6831E-03     42.7064E-03
             639     5.11783E-03     80.6637E-03    -40.3813E+06    -139.445E+06    -17.7382E+06    -166.018E+03    -54.2883E-03     108.131E-03    -53.8429E-03     50.7600E-03    -54.3126E-03     107.568E-03    -53.6708E-03     50.5228E-03
             640     5.97085E-03     80.7184E-03    -36.5909E+06    -133.368E+06    -11.7629E+06    -150.232E+03    -54.4635E-03     108.309E-03    -53.8457E-03     58.3269E-03    -54.5107E-03     107.787E-03    -53.6580E-03     58.0288E-03
             641     6.82394E-03     80.7806E-03    -32.9280E+06    -125.067E+06    -6.79301E+06    -273.352E+03    -54.6529E-03     108.493E-03    -53.8402E-03     65.6065E-03    -54.7336E-03     108.033E-03    -53.6451E-03     65.2368E-03
             642     7.67702E-03     80.8498E-03    -29.7190E+06    -114.287E+06    -4.81615E+06    -442.082E+03    -54.8558E-03     108.673E-03    -53.8174E-03     72.5698E-03    -54.9818E-03     108.302E-03    -53.6327E-03     72.1177E-03
             643     8.53014E-03     80.9259E-03    -26.9431E+06    -102.046E+06    -3.99918E+06    -467.945E+03    -55.0484E-03     108.836E-03    -53.7879E-03     79.2534E-03    -55.2362E-03     108.578E-03    -53.6208E-03     78.7091E-03
             644     9.38328E-03     81.0085E-03    -24.4738E+06    -89.7222E+06    -2.09115E+06    -427.726E+03    -55.2307E-03     108.994E-03    -53.7633E-03     86.1019E-03    -55.5035E-03     108.867E-03    -53.6082E-03     85.4521E-03
             645     10.2364E-03     81.0982E-03    -22.4688E+06    -75.9243E+06    -2.34631E+06    -231.549E+03    -55.4071E-03     109.132E-03    -53.7248E-03     93.0101E-03    -55.7929E-03     109.175E-03    -53.5939E-03     92.2416E-03
             646     11.0896E-03     81.1945E-03    -20.8486E+06    -56.0794E+06    -2.64575E+06    -7.91620E+03    -55.4943E-03     109.171E-03    -53.6763E-03     98.7129E-03    -56.0382E-03     109.449E-03    -53.5780E-03     97.8087E-03
             647     11.9431E-03     81.2952E-03    -19.3645E+06    -28.4932E+06    -1.23140E+06     304.963E+03    -55.5838E-03     109.207E-03    -53.6233E-03     105.856E-03    -56.3673E-03     109.824E-03    -53.5601E-03     104.797E-03
             648     12.7960E-03     81.4060E-03    -17.6976E+06     11.1516E+06    -2.93290E+06     616.361E+03    -56.0485E-03     109.586E-03    -53.5373E-03     119.943E-03    -57.2670E-03     110.790E-03    -53.5425E-03     118.676E-03
             649     13.6498E-03     81.5361E-03    -16.0544E+06     69.4447E+06     2.89879E+06     297.040E+03    -57.0634E-03     110.535E-03    -53.4720E-03     141.976E-03    -59.1198E-03     112.773E-03    -53.5349E-03     140.450E-03
             650     14.5025E-03     81.6911E-03    -14.0103E+06     119.541E+06     36.5575E+06     509.381E+03    -57.7210E-03     111.286E-03    -53.5645E-03     164.207E-03    -60.9649E-03     114.798E-03    -53.5347E-03     162.665E-03
             651     15.3559E-03     81.8674E-03    -10.1214E+06     144.150E+06     81.2578E+06     1.11048E+06    -56.4592E-03     110.177E-03    -53.7176E-03     173.307E-03    -60.8184E-03     114.776E-03    -53.5056E-03     172.481E-03
             652     16.2144E-03     82.0446E-03    -4.92097E+06     148.182E+06     98.0578E+06     787.233E+03    -54.0960E-03     107.834E-03    -53.7384E-03     109.089E-03    -57.1098E-03     111.072E-03    -53.4559E-03     109.009E-03
             653     852.940E-06     81.5663E-03    -57.2068E+06    -174.330E+06    -55.7535E+06    -33.7611E+03    -53.8208E-03     107.572E-03    -53.7514E-03     9.72494E-03    -53.7745E-03     106.866E-03    -53.6944E-03     9.69135E-03
             654     1.70584E-03     81.5800E-03    -55.4783E+06    -171.105E+06    -50.6650E+06     90.9919E+03    -53.8327E-03     107.623E-03    -53.7905E-03     17.8819E-03    -53.7932E-03     106.926E-03    -53.7153E-03     17.8200E-03
             655     2.55883E-03     81.6022E-03    -52.4587E+06    -165.908E+06    -43.0714E+06     126.716E+03    -53.9145E-03     107.724E-03    -53.8092E-03     26.3505E-03    -53.8842E-03     107.043E-03    -53.7079E-03     26.2544E-03
             656     3.41177E-03     81.6329E-03    -48.5487E+06    -158.730E+06    -33.1654E+06    -124.616E+03    -54.0218E-03     107.857E-03    -53.8350E-03     34.7145E-03    -54.0057E-03     107.201E-03    -53.7003E-03     34.5756E-03
             657     4.26475E-03     81.6719E-03    -44.4965E+06    -148.297E+06    -24.5867E+06    -389.689E+03    -54.1405E-03     107.987E-03    -53.8469E-03     42.8812E-03    -54.1446E-03     107.378E-03    -53.6902E-03     42.6936E-03
             658     5.11778E-03     81.7189E-03    -40.4605E+06    -139.643E+06    -18.1001E+06    -384.144E+03    -54.2899E-03     108.138E-03    -53.8483E-03     50.7530E-03    -54.3138E-03     107.575E-03    -53.6777E-03     50.5128E-03
             659     5.97083E-03     81.7736E-03    -36.5945E+06    -133.152E+06    -12.0029E+06    -373.740E+03    -54.4705E-03     108.321E-03    -53.8507E-03     58.3069E-03    -54.5177E-03     107.801E-03    -53.6645E-03     58.0058E-03
             660     6.82389E-03     81.8357E-03    -33.0447E+06    -124.777E+06    -7.34063E+06    -607.453E+03    -54.6641E-03     108.508E-03    -53.8441E-03     65.5890E-03    -54.7450E-03     108.050E-03    -53.6520E-03     65.2149E-03
             661     7.67698E-03     81.9051E-03    -29.7461E+06    -114.052E+06    -5.29084E+06    -766.615E+03    -54.8679E-03     108.690E-03    -53.8223E-03     72.5398E-03    -54.9937E-03     108.321E-03    -53.6402E-03     72.0834E-03
             662     8.53005E-03     81.9810E-03    -26.8650E+06    -101.965E+06    -4.39280E+06    -910.945E+03    -55.0617E-03     108.856E-03    -53.7938E-03     79.2198E-03    -55.2486E-03     108.598E-03    -53.6290E-03     78.6696E-03
             663     9.38313E-03     82.0638E-03    -24.3614E+06    -89.9076E+06    -2.57867E+06    -791.194E+03    -55.2438E-03     109.014E-03    -53.7697E-03     86.0573E-03    -55.5150E-03     108.886E-03    -53.6169E-03     85.4028E-03
             664     10.2363E-03     82.1532E-03    -22.1300E+06    -76.2493E+06    -2.68081E+06    -564.452E+03    -55.4193E-03     109.152E-03    -53.7323E-03     92.8997E-03    -55.8023E-03     109.193E-03    -53.6031E-03     92.1266E-03
             665     11.0896E-03     82.2496E-03    -20.1827E+06    -56.4757E+06    -2.92745E+06    -257.702E+03    -55.5727E-03     109.259E-03    -53.6867E-03     98.5323E-03    -56.1119E-03     109.535E-03    -53.5902E-03     97.6238E-03
             666     11.9425E-03     82.3505E-03    -18.5824E+06    -28.6386E+06    -1.15680E+06     8.68047E+03    -55.8092E-03     109.454E-03    -53.6450E-03     105.762E-03    -56.5886E-03     110.069E-03    -53.5823E-03     104.695E-03
             667     12.7958E-03     82.4615E-03    -17.2261E+06     11.0191E+06    -2.85023E+06     154.681E+03    -56.3142E-03     109.888E-03    -53.5740E-03     120.099E-03    -57.5337E-03     111.094E-03    -53.5793E-03     118.817E-03
             668     13.6486E-03     82.5910E-03    -16.4738E+06     69.0074E+06     2.39307E+06     446.386E+03    -57.1151E-03     110.629E-03    -53.5136E-03     142.554E-03    -59.1723E-03     112.865E-03    -53.5778E-03     141.028E-03
             669     14.5012E-03     82.7481E-03    -14.9924E+06     118.604E+06     35.2166E+06     768.907E+03    -57.8874E-03     111.491E-03    -53.6036E-03     165.157E-03    -61.1449E-03     115.014E-03    -53.5778E-03     163.613E-03
             670     15.3537E-03     82.9219E-03    -11.0374E+06     144.003E+06     80.2903E+06     784.603E+03    -57.1331E-03     110.909E-03    -53.7764E-03     173.187E-03    -61.5075E-03     115.523E-03    -53.5677E-03     172.335E-03
             671     16.2044E-03     83.0959E-03    -5.04373E+06     149.105E+06     98.5521E+06     566.438E+03    -53.3757E-03     107.176E-03    -53.8000E-03     110.174E-03    -56.4124E-03     110.438E-03    -53.5161E-03     110.117E-03
             672     852.904E-06     82.6215E-03    -57.2783E+06    -174.458E+06    -56.1806E+06     153.862E+03    -53.8016E-03     107.591E-03    -53.7896E-03     9.68005E-03    -53.7549E-03     106.885E-03    -53.7345E-03     9.64889E-03
             673     1.70586E-03     82.6352E-03    -55.5329E+06    -171.095E+06    -51.1246E+06     90.9445E+03    -53.8509E-03     107.651E-03    -53.8001E-03     17.8859E-03    -53.8110E-03     106.955E-03    -53.7271E-03     17.8238E-03
             674     2.55876E-03     82.6574E-03    -52.7008E+06    -165.513E+06    -43.1109E+06    -331.130E+03    -53.9198E-03     107.741E-03    -53.8211E-03     26.3609E-03    -53.8912E-03     107.063E-03    -53.7203E-03     26.2589E-03
             675     3.41175E-03     82.6882E-03    -48.8926E+06    -158.441E+06    -33.4906E+06    -549.293E+03    -54.0190E-03     107.862E-03    -53.8435E-03     34.7212E-03    -54.0045E-03     107.209E-03    -53.7103E-03     34.5768E-03
             676     4.26473E-03     82.7271E-03    -44.6957E+06    -148.039E+06    -24.8474E+06    -548.816E+03    -54.1419E-03     107.996E-03    -53.8536E-03     42.8793E-03    -54.1470E-03     107.388E-03    -53.6984E-03     42.6896E-03
             677     5.11774E-03     82.7741E-03    -40.7109E+06    -139.588E+06    -18.1803E+06    -622.918E+03    -54.2964E-03     108.152E-03    -53.8558E-03     50.7490E-03    -54.3215E-03     107.590E-03    -53.6852E-03     50.5056E-03
             678     5.97078E-03     82.8288E-03    -36.8287E+06    -132.917E+06    -12.4388E+06    -739.888E+03    -54.4840E-03     108.341E-03    -53.8565E-03     58.3083E-03    -54.5321E-03     107.822E-03    -53.6726E-03     58.0024E-03
             679     6.82381E-03     82.8910E-03    -33.0155E+06    -124.128E+06    -7.66659E+06    -1.07933E+06    -54.6769E-03     108.527E-03    -53.8503E-03     65.5879E-03    -54.7582E-03     108.073E-03    -53.6608E-03     65.2075E-03
             680     7.67688E-03     82.9602E-03    -29.5252E+06    -113.904E+06    -5.70950E+06    -1.39830E+06    -54.8686E-03     108.697E-03    -53.8282E-03     72.5706E-03    -54.9929E-03     108.328E-03    -53.6488E-03     72.1061E-03
             681     8.52995E-03     83.0364E-03    -26.6181E+06    -101.800E+06    -4.69144E+06    -1.34683E+06    -55.0660E-03     108.865E-03    -53.7994E-03     79.2629E-03    -55.2515E-03     108.609E-03    -53.6366E-03     78.7072E-03
             682     9.38313E-03     83.1188E-03    -24.1970E+06    -90.0338E+06    -2.80157E+06    -1.29913E+06    -55.2782E-03     109.055E-03    -53.7769E-03     86.0626E-03    -55.5480E-03     108.928E-03    -53.6253E-03     85.4013E-03
             683     10.2362E-03     83.2086E-03    -21.9768E+06    -76.4624E+06    -2.90453E+06    -1.09768E+06    -55.5249E-03     109.269E-03    -53.7446E-03     92.9070E-03    -55.9071E-03     109.311E-03    -53.6164E-03     92.1251E-03
             684     11.0891E-03     83.3047E-03    -20.1505E+06    -57.1176E+06    -3.14836E+06    -788.110E+03    -55.6520E-03     109.358E-03    -53.7057E-03     98.6188E-03    -56.1898E-03     109.630E-03    -53.6094E-03     97.7022E-03
             685     11.9424E-03     83.4061E-03    -18.6768E+06    -29.0142E+06    -1.28513E+06    -271.864E+03    -55.8368E-03     109.503E-03    -53.6660E-03     106.057E-03    -56.6166E-03     110.117E-03    -53.6032E-03     104.985E-03
             686     12.7953E-03     83.5167E-03    -17.4286E+06     10.5841E+06    -2.58348E+06     199.311E+03    -56.3153E-03     109.911E-03    -53.5952E-03     120.602E-03    -57.5389E-03     111.117E-03    -53.5982E-03     119.319E-03
             687     13.6482E-03     83.6473E-03    -16.7180E+06     68.2521E+06     2.68428E+06     1.05229E+06    -56.9461E-03     110.473E-03    -53.5264E-03     143.351E-03    -59.0101E-03     112.712E-03    -53.5877E-03     141.838E-03
             688     14.5025E-03     83.8024E-03    -15.4349E+06     119.158E+06     37.5824E+06     1.62562E+06    -57.3546E-03     110.954E-03    -53.5999E-03     166.290E-03    -60.6218E-03     114.481E-03    -53.5624E-03     164.786E-03
             689     15.3560E-03     83.9802E-03    -11.3793E+06     144.502E+06     82.5690E+06     713.136E+03    -56.8938E-03     110.638E-03    -53.7446E-03     175.081E-03    -61.3036E-03     115.281E-03    -53.5248E-03     174.243E-03
             690     16.2114E-03     84.1516E-03    -5.61291E+06     149.232E+06     98.4051E+06    -112.750E+03    -54.0082E-03     107.771E-03    -53.7625E-03     111.600E-03    -57.0837E-03     111.071E-03    -53.4787E-03     111.519E-03
             691     852.924E-06     83.6768E-03    -57.7542E+06    -174.568E+06    -56.6299E+06    -84.1531E+03    -53.7848E-03     107.614E-03    -53.8290E-03     9.71939E-03    -53.7397E-03     106.909E-03    -53.7752E-03     9.68504E-03
             692     1.70580E-03     83.6905E-03    -55.6503E+06    -170.762E+06    -51.0226E+06    -270.267E+03    -53.8599E-03     107.672E-03    -53.8125E-03     17.8995E-03    -53.8213E-03     106.978E-03    -53.7393E-03     17.8327E-03
             693     2.55876E-03     83.7127E-03    -52.5826E+06    -164.869E+06    -42.7281E+06    -480.875E+03    -53.9265E-03     107.760E-03    -53.8330E-03     26.3751E-03    -53.8989E-03     107.084E-03    -53.7314E-03     26.2711E-03
             694     3.41169E-03     83.7434E-03    -49.0311E+06    -158.163E+06    -33.9002E+06    -708.842E+03    -54.0207E-03     107.872E-03    -53.8508E-03     34.7365E-03    -54.0068E-03     107.220E-03    -53.7199E-03     34.5902E-03
             695     4.26469E-03     83.7824E-03    -45.1854E+06    -147.842E+06    -25.6064E+06    -760.704E+03    -54.1423E-03     108.000E-03    -53.8582E-03     42.8871E-03    -54.1490E-03     107.396E-03    -53.7063E-03     42.6947E-03
             696     5.11771E-03     83.8294E-03    -41.0361E+06    -139.108E+06    -18.2011E+06    -950.626E+03    -54.3043E-03     108.167E-03    -53.8630E-03     50.7547E-03    -54.3317E-03     107.608E-03    -53.6928E-03     50.5071E-03
             697     5.97071E-03     83.8841E-03    -36.8654E+06    -132.371E+06    -12.5717E+06    -1.38026E+06    -54.4855E-03     108.348E-03    -53.8625E-03     58.3343E-03    -54.5344E-03     107.833E-03    -53.6800E-03     58.0202E-03
             698     6.82378E-03     83.9462E-03    -32.9654E+06    -123.454E+06    -8.17502E+06    -1.77383E+06    -54.6679E-03     108.521E-03    -53.8527E-03     65.6351E-03    -54.7491E-03     108.070E-03    -53.6667E-03     65.2459E-03
             699     7.67683E-03     84.0155E-03    -29.6421E+06    -113.636E+06    -6.17035E+06    -2.01109E+06    -54.8628E-03     108.693E-03    -53.8300E-03     72.6189E-03    -54.9874E-03     108.327E-03    -53.6531E-03     72.1467E-03
             700     8.53000E-03     84.0915E-03    -26.7944E+06    -101.830E+06    -5.30213E+06    -1.97024E+06    -55.0776E-03     108.878E-03    -53.8005E-03     79.3272E-03    -55.2630E-03     108.622E-03    -53.6406E-03     78.7637E-03
             701     9.38299E-03     84.1743E-03    -24.2364E+06     -89.883E+06    -3.18539E+06    -1.82344E+06    -55.3269E-03     109.108E-03    -53.7808E-03     86.1315E-03    -55.5968E-03     108.982E-03    -53.6313E-03     85.4627E-03
             702     10.2361E-03     84.2637E-03    -22.1398E+06    -76.8957E+06    -3.43298E+06    -1.56966E+06    -55.5416E-03     109.292E-03    -53.7506E-03     93.0792E-03    -55.9235E-03     109.332E-03    -53.6242E-03     92.2910E-03
             703     11.0891E-03     84.3604E-03    -20.5785E+06    -57.5584E+06    -3.77501E+06    -1.02827E+06    -55.6408E-03     109.351E-03    -53.7104E-03     98.8784E-03    -56.1798E-03     109.624E-03    -53.6160E-03     97.9589E-03
             704     11.9422E-03     84.4608E-03    -19.2177E+06    -29.8657E+06    -2.13720E+06    -406.707E+03    -55.7789E-03     109.445E-03    -53.6661E-03     106.507E-03    -56.5611E-03     110.059E-03    -53.6056E-03     105.434E-03
             705     12.7954E-03     84.5730E-03    -18.6503E+06     9.63010E+06    -3.77545E+06     577.941E+03    -56.1114E-03     109.696E-03    -53.5848E-03     120.890E-03    -57.3378E-03     110.902E-03    -53.5906E-03     119.618E-03
             706     13.6494E-03     84.7014E-03    -18.1116E+06     67.4677E+06     659.041E+03     1.65008E+06    -56.8854E-03     110.389E-03    -53.5035E-03     143.433E-03    -58.9604E-03     112.637E-03    -53.5718E-03     141.929E-03
             707     14.5017E-03     84.8592E-03    -15.0491E+06     119.683E+06     36.5568E+06     1.12227E+06    -56.9159E-03     110.483E-03    -53.5670E-03     165.130E-03    -60.1674E-03     114.000E-03    -53.5360E-03     163.638E-03
             708     15.3571E-03     85.0319E-03    -10.4415E+06     145.464E+06     83.0699E+06     5.14119E+03    -56.0137E-03     109.702E-03    -53.6885E-03     173.689E-03    -60.3780E-03     114.305E-03    -53.4689E-03     172.874E-03
             709     16.2105E-03     85.2084E-03    -5.62145E+06     149.056E+06     98.1748E+06    -83.0408E+03    -54.5464E-03     108.248E-03    -53.7014E-03     110.291E-03    -57.5823E-03     111.508E-03    -53.4185E-03     110.184E-03
             710     852.875E-06     84.7320E-03    -57.9020E+06    -173.963E+06    -56.4768E+06    -380.889E+03    -53.8296E-03     107.631E-03    -53.8010E-03     9.77674E-03    -53.7863E-03     106.928E-03    -53.7471E-03     9.73826E-03
             711     1.70581E-03     84.7457E-03    -55.9078E+06    -170.246E+06    -50.9913E+06    -684.203E+03    -53.8677E-03     107.689E-03    -53.8215E-03     17.9049E-03    -53.8311E-03     106.998E-03    -53.7486E-03     17.8329E-03
             712     2.55872E-03     84.7679E-03    -52.7973E+06    -164.462E+06    -43.2553E+06    -765.482E+03    -53.9252E-03     107.763E-03    -53.8381E-03     26.3809E-03    -53.8985E-03     107.091E-03    -53.7393E-03     26.2733E-03
             713     3.41170E-03     84.7986E-03    -49.1471E+06    -157.900E+06    -34.1286E+06    -596.791E+03    -54.0241E-03     107.880E-03    -53.8557E-03     34.7414E-03    -54.0108E-03     107.230E-03    -53.7262E-03     34.5966E-03
             714     4.26466E-03     84.8376E-03    -45.2410E+06    -147.154E+06    -26.0140E+06    -956.032E+03    -54.1473E-03     108.008E-03    -53.8611E-03     42.9143E-03    -54.1547E-03     107.408E-03    -53.7122E-03     42.7195E-03
             715     5.11766E-03     84.8846E-03    -40.9992E+06    -138.197E+06    -18.7080E+06    -1.66437E+06    -54.3002E-03     108.164E-03    -53.8641E-03     50.7943E-03    -54.3280E-03     107.610E-03    -53.6978E-03     50.5376E-03
             716     5.97071E-03     84.9393E-03    -36.7802E+06    -131.665E+06    -12.7697E+06    -2.11051E+06    -54.4737E-03     108.337E-03    -53.8635E-03     58.3673E-03    -54.5229E-03     107.825E-03    -53.6831E-03     58.0438E-03
             717     6.82376E-03     85.0015E-03    -33.0697E+06    -122.866E+06    -8.75470E+06    -2.41262E+06    -54.6588E-03     108.509E-03    -53.8504E-03     65.6602E-03    -54.7405E-03     108.063E-03    -53.6681E-03     65.2630E-03
             718     7.67690E-03     85.0707E-03    -29.7935E+06    -113.165E+06    -6.77768E+06    -2.57968E+06    -54.8687E-03     108.696E-03    -53.8274E-03     72.6356E-03    -54.9938E-03     108.333E-03    -53.6540E-03     72.1560E-03
             719     8.52988E-03     85.1468E-03    -26.9240E+06    -101.713E+06     -5.9738E+06    -2.68357E+06    -55.0759E-03     108.874E-03    -53.7982E-03     79.3809E-03    -55.2611E-03     108.620E-03    -53.6416E-03     78.8082E-03
             720     9.38308E-03     85.2294E-03    -24.4073E+06    -90.0973E+06    -4.01782E+06    -2.41910E+06    -55.2933E-03     109.069E-03    -53.7761E-03     86.3084E-03    -55.5627E-03     108.944E-03    -53.6302E-03     85.6325E-03
             721     10.2361E-03     85.3193E-03    -22.3239E+06    -77.3317E+06    -4.18175E+06    -1.91979E+06    -55.4749E-03     109.217E-03    -53.7420E-03     93.2090E-03    -55.8560E-03     109.256E-03    -53.6184E-03     92.4175E-03
             722     11.0894E-03     85.4152E-03    -20.6263E+06    -58.2262E+06    -4.62749E+06    -1.26584E+06    -55.6052E-03     109.302E-03    -53.6971E-03     99.0984E-03    -56.1431E-03     109.574E-03    -53.6059E-03     98.1762E-03
             723     11.9424E-03     85.5169E-03    -19.3379E+06    -30.8404E+06    -2.94192E+06    -326.780E+03    -55.7304E-03     109.381E-03    -53.6508E-03     106.517E-03    -56.5109E-03     109.992E-03    -53.5927E-03     105.446E-03
             724     12.7961E-03     85.6272E-03    -18.3712E+06     7.85711E+06    -5.07751E+06     987.370E+03    -56.1668E-03     109.736E-03    -53.5687E-03     120.701E-03    -57.3888E-03     110.935E-03    -53.5788E-03     119.433E-03
             725     13.6486E-03     85.7577E-03    -16.3676E+06     67.1347E+06    -232.875E+03     1.15344E+06    -56.8109E-03     110.297E-03    -53.4857E-03     143.294E-03    -58.8718E-03     112.538E-03    -53.5605E-03     141.790E-03
             726     14.5027E-03     85.9139E-03    -13.4771E+06     120.389E+06     34.5520E+06     251.815E+03    -57.1076E-03     110.655E-03    -53.5479E-03     164.346E-03    -60.3419E-03     114.169E-03    -53.5301E-03     162.837E-03
             727     15.3562E-03     86.0856E-03    -9.34269E+06     145.971E+06     81.2641E+06     353.768E+03    -56.5526E-03     110.248E-03    -53.6954E-03     172.585E-03    -60.8929E-03     114.838E-03    -53.4872E-03     171.741E-03
             728     16.2114E-03     86.2634E-03    -4.67247E+06     149.604E+06     98.2052E+06     469.680E+03    -54.3260E-03     108.054E-03    -53.7281E-03     110.547E-03    -57.3460E-03     111.304E-03    -53.4472E-03     110.438E-03
             729     852.940E-06     85.7873E-03    -57.6453E+06    -173.096E+06    -56.4232E+06    -500.721E+03    -53.8568E-03     107.643E-03    -53.7860E-03     9.79873E-03    -53.8135E-03     106.944E-03    -53.7335E-03     9.75856E-03
             730     1.70576E-03     85.8010E-03    -55.7171E+06    -169.192E+06    -50.8055E+06    -837.694E+03    -53.8719E-03     107.699E-03    -53.8271E-03     17.8933E-03    -53.8361E-03     107.012E-03    -53.7551E-03     17.8194E-03
             731     2.55872E-03     85.8232E-03    -53.0439E+06    -164.425E+06    -43.5738E+06    -844.063E+03    -53.9290E-03     107.772E-03    -53.8428E-03     26.3745E-03    -53.9031E-03     107.100E-03    -53.7453E-03     26.2658E-03
             732     3.41166E-03     85.8539E-03    -49.6803E+06    -157.616E+06    -35.8743E+06    -797.707E+03    -54.0226E-03     107.875E-03    -53.8524E-03     34.7412E-03    -54.0098E-03     107.230E-03    -53.7312E-03     34.5937E-03
             733     4.26465E-03     85.8929E-03    -45.4961E+06    -145.588E+06    -27.5257E+06    -1.69629E+06    -54.1352E-03     107.990E-03    -53.8546E-03     42.9352E-03    -54.1440E-03     107.400E-03    -53.7151E-03     42.7310E-03
             734     5.11769E-03     85.9399E-03    -41.1525E+06    -137.248E+06    -19.6715E+06    -2.46185E+06    -54.2842E-03     108.143E-03    -53.8583E-03     50.8228E-03    -54.3127E-03     107.595E-03    -53.6980E-03     50.5560E-03
             735     5.97071E-03     85.9946E-03    -37.1750E+06    -130.910E+06    -13.7009E+06    -2.79820E+06    -54.4677E-03     108.325E-03    -53.8569E-03     58.3893E-03    -54.5186E-03     107.819E-03    -53.6817E-03     58.0571E-03
             736     6.82380E-03     86.0567E-03    -33.3799E+06    -122.055E+06    -9.45427E+06    -3.14065E+06    -54.6610E-03     108.506E-03    -53.8449E-03     65.6791E-03    -54.7445E-03     108.065E-03    -53.6668E-03     65.2724E-03
             737     7.67681E-03     86.1260E-03    -29.9109E+06    -112.616E+06    -7.59791E+06    -3.39708E+06    -54.8595E-03     108.681E-03    -53.8212E-03     72.6893E-03    -54.9848E-03     108.322E-03    -53.6525E-03     72.1993E-03
             738     8.53000E-03     86.2020E-03    -27.0051E+06    -101.496E+06    -6.72089E+06    -3.33604E+06    -55.0456E-03     108.836E-03    -53.7908E-03     79.4401E-03    -55.2305E-03     108.585E-03    -53.6381E-03     78.8594E-03
             739     9.38305E-03     86.2847E-03    -24.5905E+06    -90.5178E+06    -4.90507E+06    -3.02381E+06    -55.2130E-03     108.977E-03    -53.7642E-03     86.3434E-03    -55.4810E-03     108.851E-03    -53.6218E-03     85.6611E-03
             740     10.2364E-03     86.3744E-03    -22.4225E+06    -77.8210E+06    -5.04087E+06    -2.52847E+06    -55.4504E-03     109.177E-03    -53.7262E-03     93.2243E-03    -55.8299E-03     109.215E-03    -53.6060E-03     92.4254E-03
             741     11.0894E-03     86.4706E-03    -20.4944E+06    -59.1620E+06    -5.37150E+06    -1.78731E+06    -55.5869E-03     109.268E-03    -53.6815E-03     99.0433E-03    -56.1220E-03     109.536E-03    -53.5928E-03     98.1143E-03
             742     11.9428E-03     86.5719E-03    -18.7348E+06    -32.3453E+06    -3.65392E+06    -660.690E+03    -55.7257E-03     109.361E-03    -53.6354E-03     106.477E-03    -56.4996E-03     109.964E-03    -53.5796E-03     105.403E-03
             743     12.7955E-03     86.6828E-03    -16.4823E+06     6.61426E+06    -5.45441E+06    -30.0272E+03    -56.2276E-03     109.782E-03    -53.5543E-03     121.045E-03    -57.4408E-03     110.976E-03    -53.5672E-03     119.762E-03
             744     13.6491E-03     86.8131E-03    -14.6993E+06     67.2378E+06     707.634E+03     202.643E+03    -56.7791E-03     110.256E-03    -53.4770E-03     143.148E-03    -58.8236E-03     112.485E-03    -53.5496E-03     141.635E-03
             745     14.5029E-03     86.9679E-03    -13.5959E+06     120.601E+06     34.9758E+06     750.107E+03    -57.4644E-03     111.013E-03    -53.5481E-03     164.601E-03    -60.7034E-03     114.530E-03    -53.5284E-03     163.080E-03
             746     15.3553E-03     87.1434E-03    -10.4929E+06     145.825E+06     80.1948E+06     963.899E+03    -57.2928E-03     111.014E-03    -53.7209E-03     172.553E-03    -61.6762E-03     115.645E-03    -53.5161E-03     171.682E-03
             747     16.2077E-03     87.3150E-03    -4.97051E+06     150.318E+06     98.2267E+06     563.763E+03    -54.0287E-03     107.799E-03    -53.7703E-03     111.046E-03    -57.0832E-03     111.085E-03    -53.4899E-03     110.942E-03
             748     852.831E-06     86.8426E-03    -57.9529E+06    -172.080E+06    -56.6942E+06    -601.642E+03    -53.8626E-03     107.648E-03    -53.7858E-03     9.81888E-03    -53.8220E-03     106.956E-03    -53.7358E-03     9.77750E-03
             749     1.70581E-03     86.8563E-03    -56.1104E+06    -168.241E+06    -50.9891E+06    -799.167E+03    -53.8622E-03     107.691E-03    -53.8283E-03     17.8999E-03    -53.8296E-03     107.009E-03    -53.7580E-03     17.8264E-03
             750     2.55869E-03     86.8785E-03    -53.2607E+06    -164.360E+06    -43.9567E+06    -826.918E+03    -53.9335E-03     107.776E-03    -53.8422E-03     26.3773E-03    -53.9082E-03     107.105E-03    -53.7465E-03     26.2688E-03
             751     3.41165E-03     86.9091E-03    -49.6930E+06    -156.316E+06    -37.0243E+06    -1.47240E+06    -54.0194E-03     107.865E-03    -53.8460E-03     34.7663E-03    -54.0069E-03     107.229E-03    -53.7324E-03     34.6100E-03
             752     4.26465E-03     86.9481E-03    -45.8428E+06    -143.726E+06    -28.8876E+06    -2.51700E+06    -54.1194E-03     107.964E-03    -53.8450E-03     42.9558E-03    -54.1306E-03     107.386E-03    -53.7145E-03     42.7411E-03
             753     5.11768E-03     86.9951E-03    -41.8769E+06    -136.338E+06    -20.8386E+06    -3.22723E+06    -54.2730E-03     108.123E-03    -53.8499E-03     50.8312E-03    -54.3048E-03     107.582E-03    -53.6956E-03     50.5546E-03
             754     5.97076E-03     87.0498E-03    -37.7255E+06    -129.765E+06    -14.7491E+06    -3.70457E+06    -54.4607E-03     108.309E-03    -53.8479E-03     58.4030E-03    -54.5145E-03     107.811E-03    -53.6788E-03     58.0591E-03
             755     6.82377E-03     87.1120E-03    -33.6914E+06    -121.040E+06    -10.2980E+06    -4.20419E+06    -54.6445E-03     108.480E-03    -53.8359E-03     65.7001E-03    -54.7297E-03     108.046E-03    -53.6631E-03     65.2798E-03
             756     7.67695E-03     87.1812E-03    -30.1797E+06    -112.127E+06    -8.35177E+06    -4.34196E+06    -54.8345E-03     108.646E-03    -53.8116E-03     72.7206E-03    -54.9608E-03     108.291E-03    -53.6470E-03     72.2186E-03
             757     8.53000E-03     87.2573E-03    -27.2259E+06    -101.361E+06    -7.53506E+06    -4.18624E+06    -55.0127E-03     108.792E-03    -53.7791E-03     79.4418E-03    -55.1976E-03     108.542E-03    -53.6303E-03     78.8504E-03
             758     9.38327E-03     87.3398E-03    -24.5339E+06    -90.6594E+06    -5.57723E+06    -3.88782E+06    -55.2066E-03     108.959E-03    -53.7521E-03     86.2911E-03    -55.4731E-03     108.833E-03    -53.6130E-03     85.5976E-03
             759     10.2363E-03     87.4294E-03    -22.1327E+06    -78.2929E+06    -5.67776E+06    -3.38435E+06    -55.4363E-03     109.151E-03    -53.7142E-03     93.2669E-03    -55.8127E-03     109.187E-03    -53.5970E-03     92.4575E-03
             760     11.0896E-03     87.5261E-03    -20.1615E+06    -60.0851E+06    -5.97540E+06    -2.53342E+06    -55.5672E-03     109.237E-03    -53.6694E-03     99.0168E-03    -56.0978E-03     109.500E-03    -53.5829E-03     98.0793E-03
             761     11.9427E-03     87.6267E-03    -17.9959E+06    -33.6607E+06    -4.32232E+06    -1.92707E+06    -55.7009E-03     109.323E-03    -53.6217E-03     106.545E-03    -56.4684E-03     109.919E-03    -53.5684E-03     105.454E-03
             762     12.7965E-03     87.7385E-03    -16.6353E+06     5.96450E+06    -5.98064E+06    -1.09939E+06    -56.0697E-03     109.606E-03    -53.5359E-03     121.056E-03    -57.2761E-03     110.791E-03    -53.5503E-03     119.767E-03
             763     13.6495E-03     87.8679E-03    -16.5600E+06     66.4183E+06    -1.14932E+06     441.515E+03    -56.6616E-03     110.108E-03    -53.4466E-03     143.268E-03    -58.7081E-03     112.335E-03    -53.5246E-03     141.763E-03
             764     14.5023E-03     88.0239E-03    -14.9321E+06     119.574E+06     32.6609E+06     1.27103E+06    -57.2590E-03     110.762E-03    -53.5026E-03     166.318E-03    -60.5127E-03     114.292E-03    -53.4910E-03     164.816E-03
             765     15.3563E-03     88.1988E-03    -11.0176E+06     146.447E+06     79.9808E+06     1.05022E+06    -57.7795E-03     111.462E-03    -53.6822E-03     175.183E-03    -62.2316E-03     116.163E-03    -53.4787E-03     174.311E-03
             766     16.2096E-03     88.3728E-03    -5.20563E+06     151.128E+06     98.7213E+06     343.938E+03    -54.4257E-03     108.180E-03    -53.7538E-03     109.850E-03    -57.5157E-03     111.501E-03    -53.4718E-03     109.728E-03
             767     852.929E-06     87.8979E-03    -58.7738E+06    -170.923E+06    -57.2048E+06    -491.085E+03    -53.8359E-03     107.633E-03    -53.7971E-03     9.76812E-03    -53.8003E-03     106.948E-03    -53.7501E-03     9.72843E-03
             768     1.70577E-03     87.9116E-03    -56.7471E+06    -167.459E+06    -51.7249E+06    -813.635E+03    -53.8539E-03     107.674E-03    -53.8205E-03     17.9132E-03    -53.8245E-03     106.999E-03    -53.7540E-03     17.8394E-03
             769     2.55874E-03     87.9337E-03    -53.4826E+06    -163.360E+06    -44.6739E+06    -1.50203E+06    -53.9305E-03     107.764E-03    -53.8337E-03     26.3821E-03    -53.9067E-03     107.100E-03    -53.7426E-03     26.2648E-03
             770     3.41167E-03     87.9644E-03    -49.6618E+06    -154.698E+06    -36.4986E+06    -2.19405E+06    -54.0148E-03     107.858E-03    -53.8431E-03     34.7593E-03    -54.0053E-03     107.229E-03    -53.7292E-03     34.5937E-03
             771     4.26468E-03     88.0033E-03    -45.9204E+06    -141.836E+06    -28.7561E+06    -2.98020E+06    -54.1163E-03     107.957E-03    -53.8403E-03     42.9429E-03    -54.1308E-03     107.388E-03    -53.7119E-03     42.7221E-03
             772     5.11772E-03     88.0503E-03    -42.0228E+06    -134.664E+06    -21.5195E+06    -3.99806E+06    -54.2678E-03     108.110E-03    -53.8419E-03     50.8333E-03    -54.3017E-03     107.579E-03    -53.6933E-03     50.5466E-03
             773     5.97073E-03     88.1051E-03    -37.9451E+06    -128.377E+06    -15.5209E+06    -4.84706E+06    -54.4365E-03     108.275E-03    -53.8387E-03     58.4182E-03    -54.4923E-03     107.785E-03    -53.6751E-03     58.0597E-03
             774     6.82388E-03     88.1671E-03    -34.1153E+06    -119.948E+06    -11.1041E+06    -5.25965E+06    -54.6244E-03     108.450E-03    -53.8252E-03     65.7162E-03    -54.7122E-03     108.023E-03    -53.6573E-03     65.2823E-03
             775     7.67692E-03     88.2364E-03    -30.5785E+06    -111.470E+06    -9.01230E+06    -5.48738E+06    -54.8174E-03     108.618E-03    -53.8010E-03     72.7008E-03    -54.9457E-03     108.269E-03    -53.6401E-03     72.1840E-03
             776     8.53014E-03     88.3124E-03    -27.2878E+06    -101.149E+06    -8.22617E+06    -5.43653E+06    -54.9983E-03     108.766E-03    -53.7679E-03     79.4060E-03    -55.1829E-03     108.519E-03    -53.6228E-03     78.7985E-03
             777     9.38325E-03     88.3949E-03    -24.4059E+06    -90.7342E+06    -6.23807E+06    -5.09811E+06    -55.2090E-03     108.950E-03    -53.7414E-03     86.3083E-03    -55.4739E-03     108.825E-03    -53.6056E-03     85.5991E-03
             778     10.2365E-03     88.4847E-03    -21.9620E+06    -78.8507E+06    -6.34309E+06    -4.46209E+06    -55.3975E-03     109.100E-03    -53.7030E-03     93.3072E-03    -55.7710E-03     109.135E-03    -53.5885E-03     92.4848E-03
             779     11.0897E-03     88.5809E-03    -19.5962E+06    -61.0393E+06    -6.50357E+06    -3.71081E+06    -55.5061E-03     109.161E-03    -53.6551E-03     99.1226E-03    -56.0310E-03     109.419E-03    -53.5707E-03     98.1719E-03
             780     11.9430E-03     88.6823E-03    -18.1451E+06    -34.5404E+06    -5.00075E+06    -2.68849E+06    -55.6538E-03     109.258E-03    -53.6039E-03     106.674E-03    -56.4202E-03     109.852E-03    -53.5525E-03     105.575E-03
             781     12.7958E-03     88.7930E-03    -17.3630E+06     4.16577E+06    -6.85555E+06    -834.441E+03    -55.9278E-03     109.442E-03    -53.5138E-03     121.080E-03    -57.1308E-03     110.618E-03    -53.5289E-03     119.800E-03
             782     13.6498E-03     88.9233E-03    -16.5709E+06     64.7450E+06    -2.65108E+06     810.417E+03    -56.3549E-03     109.762E-03    -53.4076E-03     143.165E-03    -58.3967E-03     111.983E-03    -53.4907E-03     141.677E-03
             783     14.5049E-03     89.0781E-03    -15.1144E+06     119.637E+06     30.7132E+06     1.19129E+06    -56.8579E-03     110.300E-03    -53.4416E-03     165.792E-03    -60.1004E-03     113.824E-03    -53.4396E-03     164.306E-03
             784     15.3592E-03     89.2546E-03    -10.6124E+06     146.982E+06     79.5667E+06     548.576E+03    -57.0395E-03     110.636E-03    -53.5964E-03     176.604E-03    -61.4890E-03     115.339E-03    -53.3963E-03     175.761E-03
             785     16.2091E-03     89.4329E-03    -5.12128E+06     151.476E+06     98.8644E+06     196.426E+03    -55.1804E-03     108.849E-03    -53.6684E-03     109.466E-03    -58.2650E-03     112.166E-03    -53.3863E-03     109.333E-03
             786     852.848E-06     88.9531E-03    -59.7733E+06    -169.905E+06    -58.2675E+06    -495.761E+03    -53.8076E-03     107.613E-03    -53.8058E-03     9.76465E-03    -53.7770E-03     106.937E-03    -53.7641E-03     9.72503E-03
             787     1.70584E-03     88.9668E-03    -57.3080E+06    -165.924E+06    -52.7128E+06    -1.19488E+06    -53.8542E-03     107.665E-03    -53.8113E-03     17.9006E-03    -53.8284E-03     107.000E-03    -53.7511E-03     17.8219E-03
             788     2.55872E-03     88.9890E-03    -54.2662E+06    -161.544E+06      -44.94E+06    -2.18722E+06    -53.9228E-03     107.752E-03    -53.8297E-03     26.3615E-03    -53.9052E-03     107.099E-03    -53.7415E-03     26.2352E-03
             789     3.41168E-03     89.0196E-03    -50.5377E+06    -153.295E+06    -36.5224E+06    -2.91281E+06    -54.0086E-03     107.850E-03    -53.8413E-03     34.7300E-03    -54.0055E-03     107.229E-03    -53.7283E-03     34.5550E-03
             790     4.26467E-03     89.0586E-03    -46.3044E+06    -139.741E+06    -28.9672E+06    -3.76466E+06    -54.1111E-03     107.947E-03    -53.8362E-03     42.9234E-03    -54.1303E-03     107.390E-03    -53.7113E-03     42.6922E-03
             791     5.11769E-03     89.1056E-03    -42.1855E+06    -132.536E+06    -21.9140E+06    -4.74005E+06    -54.2507E-03     108.086E-03    -53.8356E-03     50.8115E-03    -54.2879E-03     107.567E-03    -53.6918E-03     50.5152E-03
             792     5.97081E-03     89.1602E-03    -38.3875E+06    -126.434E+06    -16.0530E+06    -5.75158E+06    -54.4145E-03     108.245E-03    -53.8305E-03     58.3897E-03    -54.4745E-03     107.766E-03    -53.6717E-03     58.0195E-03
             793     6.82388E-03     89.2223E-03    -34.3836E+06    -118.586E+06    -11.7061E+06    -6.58884E+06    -54.6009E-03     108.416E-03    -53.8153E-03     65.7114E-03    -54.6911E-03     107.997E-03    -53.6521E-03     65.2606E-03
             794     7.67703E-03     89.2916E-03    -30.5673E+06    -110.643E+06    -9.69893E+06    -6.80984E+06    -54.7980E-03     108.588E-03    -53.7896E-03     72.6946E-03    -54.9264E-03     108.243E-03    -53.6333E-03     72.1610E-03
             795     8.53013E-03     89.3674E-03    -27.6142E+06    -100.829E+06    -9.03924E+06    -6.63075E+06    -54.9841E-03     108.740E-03    -53.7561E-03     79.4278E-03    -55.1696E-03     108.496E-03    -53.6150E-03     78.8051E-03
             796     9.38334E-03     89.4502E-03    -25.0461E+06    -90.6369E+06    -7.22705E+06    -6.37683E+06    -55.1697E-03     108.898E-03    -53.7279E-03     86.3577E-03    -55.4365E-03     108.775E-03    -53.5963E-03     85.6327E-03
             797     10.2366E-03     89.5396E-03    -22.3731E+06    -79.2767E+06    -7.33328E+06    -6.01353E+06    -55.3386E-03     109.025E-03    -53.6866E-03     93.3230E-03    -55.7118E-03     109.059E-03    -53.5759E-03     92.4820E-03
             798     11.0898E-03     89.6362E-03    -20.1903E+06    -62.3605E+06    -7.79349E+06    -5.04290E+06    -55.4370E-03     109.072E-03    -53.6347E-03     99.2233E-03    -55.9615E-03     109.326E-03    -53.5540E-03     98.2565E-03
             799     11.9433E-03     89.7371E-03    -18.2975E+06    -36.2096E+06    -6.04618E+06    -3.30383E+06    -55.6076E-03     109.189E-03    -53.5813E-03     106.703E-03    -56.3701E-03     109.775E-03    -53.5325E-03     105.598E-03
             800     12.7970E-03     89.8486E-03    -16.7581E+06     1.53686E+06    -7.67308E+06    -1.05114E+06    -55.8782E-03     109.369E-03    -53.4913E-03     120.620E-03    -57.0725E-03     110.532E-03    -53.5076E-03     119.339E-03
             801     13.6506E-03     89.9772E-03    -15.8261E+06     62.5382E+06    -4.15555E+06     845.039E+03    -56.5140E-03     109.901E-03    -53.3874E-03     142.534E-03    -58.5481E-03     112.113E-03    -53.4759E-03     141.038E-03
             802     14.5032E-03     90.1330E-03    -13.5563E+06     120.894E+06     30.1580E+06     1.16325E+06    -57.3054E-03     110.748E-03    -53.4427E-03     164.676E-03    -60.5498E-03     114.286E-03    -53.4475E-03     163.164E-03
             803     15.3567E-03     90.3083E-03    -10.0485E+06     147.539E+06     78.9446E+06     504.991E+03    -56.3511E-03     109.953E-03    -53.6022E-03     173.556E-03    -60.7129E-03     114.574E-03    -53.4068E-03     172.723E-03
             804     16.2171E-03     90.4867E-03    -5.42945E+06     151.068E+06     98.1742E+06     320.334E+03    -54.6710E-03     108.324E-03    -53.6534E-03     108.193E-03    -57.6731E-03     111.559E-03    -53.3737E-03     108.083E-03
             805     852.952E-06     90.0085E-03    -60.4483E+06    -168.295E+06    -59.3232E+06    -825.952E+03    -53.8181E-03     107.606E-03    -53.7880E-03     9.78839E-03    -53.7916E-03     106.940E-03    -53.7529E-03     9.74432E-03
             806     1.70575E-03     90.0221E-03    -58.3202E+06    -163.787E+06    -53.6296E+06    -1.88525E+06    -53.8585E-03     107.667E-03    -53.8087E-03     17.8970E-03    -53.8396E-03     107.015E-03    -53.7548E-03     17.8093E-03
             807     2.55872E-03     90.0443E-03    -54.8183E+06    -159.360E+06    -45.0604E+06    -2.79136E+06    -53.9189E-03     107.751E-03    -53.8318E-03     26.3465E-03    -53.9071E-03     107.109E-03    -53.7466E-03     26.2123E-03
             808     3.41166E-03     90.0749E-03    -50.5296E+06    -151.106E+06    -36.4997E+06    -3.94685E+06    -54.0037E-03     107.846E-03    -53.8422E-03     34.7120E-03    -54.0037E-03     107.236E-03    -53.7323E-03     34.5234E-03
             809     4.26466E-03     90.1138E-03    -46.2428E+06    -137.832E+06    -29.3262E+06    -4.74540E+06    -54.0973E-03     107.931E-03    -53.8336E-03     42.9025E-03    -54.1184E-03     107.384E-03    -53.7133E-03     42.6587E-03
             810     5.11772E-03     90.1607E-03    -42.4073E+06    -130.632E+06    -22.1979E+06    -5.23236E+06    -54.2342E-03     108.066E-03    -53.8315E-03     50.7794E-03    -54.2749E-03     107.556E-03    -53.6916E-03     50.4768E-03
             811     5.97077E-03     90.2154E-03    -38.6585E+06    -123.553E+06    -16.4069E+06    -6.48396E+06    -54.3979E-03     108.221E-03    -53.8230E-03     58.3743E-03    -54.4629E-03     107.758E-03    -53.6699E-03     57.9949E-03
             812     6.82389E-03     90.2775E-03    -35.0626E+06    -116.636E+06    -12.4389E+06    -7.83628E+06    -54.5639E-03     108.370E-03    -53.8056E-03     65.6948E-03    -54.6592E-03     107.962E-03    -53.6479E-03     65.2283E-03
             813     7.67708E-03     90.3466E-03    -31.8759E+06    -110.096E+06    -10.8640E+06    -8.02069E+06    -54.7521E-03     108.529E-03    -53.7772E-03     72.7084E-03    -54.8860E-03     108.191E-03    -53.6257E-03     72.1599E-03
             814     8.53026E-03     90.4227E-03    -28.7807E+06    -100.004E+06    -10.0455E+06    -7.96691E+06    -54.9502E-03     108.691E-03    -53.7412E-03     79.4450E-03    -55.1411E-03     108.454E-03    -53.6047E-03     78.8057E-03
             815     9.38350E-03     90.5051E-03    -25.5087E+06    -90.1405E+06    -8.06294E+06    -8.09022E+06    -55.1317E-03     108.843E-03    -53.7113E-03     86.3503E-03    -55.4001E-03     108.724E-03    -53.5839E-03     85.6038E-03
             816     10.2367E-03     90.5949E-03    -22.8024E+06    -79.6804E+06    -8.39932E+06    -7.51061E+06    -55.3013E-03     108.970E-03    -53.6684E-03     93.2602E-03    -55.6742E-03     109.003E-03    -53.5618E-03     92.4004E-03
             817     11.0902E-03     90.6908E-03    -20.6826E+06    -63.5699E+06    -9.10016E+06    -6.40462E+06    -55.4532E-03     109.070E-03    -53.6170E-03     99.1406E-03    -55.9765E-03     109.321E-03    -53.5403E-03     98.1558E-03
             818     11.9434E-03     90.7925E-03    -18.7447E+06    -38.4307E+06    -7.67664E+06    -4.65227E+06    -55.6060E-03     109.171E-03    -53.5653E-03     106.512E-03    -56.3625E-03     109.747E-03    -53.5208E-03     105.393E-03
             819     12.7963E-03     90.9031E-03    -17.0084E+06    -1.92700E+06    -9.26473E+06    -2.10256E+06    -56.0846E-03     109.570E-03    -53.4853E-03     120.228E-03    -57.2738E-03     110.719E-03    -53.5042E-03     118.926E-03
             820     13.6499E-03     91.0321E-03    -15.2863E+06     60.3935E+06    -6.36062E+06     188.182E+03    -56.8927E-03     110.287E-03    -53.3947E-03     142.238E-03    -58.9169E-03     112.490E-03    -53.4919E-03     140.719E-03
             821     14.5037E-03     91.1889E-03    -13.0338E+06     120.612E+06     27.7832E+06     1.17939E+06    -57.6854E-03     111.152E-03    -53.4664E-03     165.272E-03    -60.9270E-03     114.695E-03    -53.4835E-03     163.742E-03
             822     15.3562E-03     91.3643E-03    -9.81702E+06     148.523E+06     78.5642E+06     1.37089E+06    -57.2342E-03     110.900E-03    -53.6659E-03     173.206E-03    -61.5848E-03     115.515E-03    -53.4742E-03     172.337E-03
             823     16.2045E-03     91.5366E-03    -5.30622E+06     152.115E+06     98.6181E+06     571.566E+03    -53.9635E-03     107.689E-03    -53.7250E-03     110.154E-03    -56.9861E-03     110.946E-03    -53.4448E-03     110.059E-03
             824     852.849E-06     91.0637E-03    -60.3986E+06    -165.894E+06    -59.0953E+06    -1.14761E+06    -53.8292E-03     107.625E-03    -53.7962E-03     9.80328E-03    -53.8063E-03     106.971E-03    -53.7636E-03     9.75505E-03
             825     1.70581E-03     91.0775E-03    -58.4764E+06    -161.207E+06    -53.6824E+06    -2.23104E+06    -53.8548E-03     107.670E-03    -53.8152E-03     17.8744E-03    -53.8403E-03     107.031E-03    -53.7651E-03     17.7821E-03
             826     2.55868E-03     91.0995E-03    -55.4574E+06    -156.505E+06    -46.2081E+06    -3.59871E+06    -53.9081E-03     107.737E-03    -53.8290E-03     26.3471E-03    -53.9020E-03     107.113E-03    -53.7527E-03     26.2025E-03
             827     3.41164E-03     91.1302E-03    -51.6958E+06    -148.335E+06    -37.7624E+06    -4.88816E+06    -53.9857E-03     107.822E-03    -53.8362E-03     34.7275E-03    -53.9938E-03     107.229E-03    -53.7350E-03     34.5270E-03
             828     4.26464E-03     91.1690E-03    -47.6655E+06    -136.003E+06    -30.0759E+06    -5.66042E+06    -54.0822E-03     107.912E-03    -53.8297E-03     42.9019E-03    -54.1120E-03     107.377E-03    -53.7138E-03     42.6463E-03
             829     5.11770E-03     91.2160E-03    -42.9244E+06    -128.303E+06    -22.8031E+06    -6.57430E+06    -54.2209E-03     108.046E-03    -53.8251E-03     50.7809E-03    -54.2667E-03     107.550E-03    -53.6908E-03     50.4610E-03
             830     5.97081E-03     91.2706E-03    -38.1554E+06    -120.766E+06    -16.4392E+06    -7.57831E+06    -54.3764E-03     108.192E-03    -53.8155E-03     58.3657E-03    -54.4428E-03     107.742E-03    -53.6673E-03     57.9723E-03
             831     6.82396E-03     91.3326E-03    -34.5859E+06    -114.632E+06    -11.9646E+06    -8.16014E+06    -54.5442E-03     108.344E-03    -53.7999E-03     65.6456E-03    -54.6406E-03     107.945E-03    -53.6434E-03     65.1750E-03
             832     7.67711E-03     91.4017E-03    -31.5652E+06    -108.660E+06    -10.6927E+06    -8.91959E+06    -54.7162E-03     108.485E-03    -53.7688E-03     72.6533E-03    -54.8507E-03     108.153E-03    -53.6190E-03     72.0935E-03
             833     8.53039E-03     91.4777E-03    -28.1882E+06    -98.3920E+06    -10.3545E+06    -9.81899E+06    -54.9073E-03     108.634E-03    -53.7266E-03     79.4394E-03    -55.0967E-03     108.404E-03    -53.5949E-03     78.7770E-03
             834     9.38353E-03     91.5602E-03    -25.3017E+06    -89.9272E+06    -8.77730E+06    -9.64709E+06    -55.1122E-03     108.808E-03    -53.6954E-03     86.2805E-03    -55.3785E-03     108.690E-03    -53.5722E-03     85.5146E-03
             835     10.2370E-03     91.6496E-03    -22.8898E+06    -79.9639E+06    -9.24695E+06    -8.88784E+06    -55.3524E-03     109.008E-03    -53.6554E-03     93.1959E-03    -55.7242E-03     109.041E-03    -53.5525E-03     92.3174E-03
             836     11.0900E-03     91.7460E-03    -20.7540E+06    -64.4935E+06    -10.0047E+06    -7.89263E+06    -55.5078E-03     109.117E-03    -53.6096E-03     99.0733E-03    -56.0280E-03     109.364E-03    -53.5360E-03     98.0694E-03
             837     11.9433E-03     91.8473E-03    -18.7026E+06    -40.8554E+06    -8.87757E+06    -6.05759E+06    -55.6260E-03     109.187E-03    -53.5614E-03     106.426E-03    -56.3750E-03     109.751E-03    -53.5195E-03     105.289E-03
             838     12.7972E-03     91.9582E-03    -16.9453E+06    -5.81306E+06    -10.8913E+06    -3.43681E+06    -56.1963E-03     109.681E-03    -53.4844E-03     120.731E-03    -57.3776E-03     110.813E-03    -53.5058E-03     119.411E-03
             839     13.6494E-03     92.0884E-03    -15.7384E+06     58.3797E+06    -7.68861E+06    -666.079E+03    -57.1839E-03     110.587E-03    -53.4028E-03     142.899E-03    -59.2114E-03     112.788E-03    -53.5031E-03     141.357E-03
             840     14.5024E-03     92.2427E-03    -14.7577E+06     119.333E+06     26.4739E+06     1.31040E+06    -57.6433E-03     111.123E-03    -53.4800E-03     165.622E-03    -60.8858E-03     114.660E-03    -53.4993E-03     164.094E-03
             841     15.3563E-03     92.4214E-03    -11.1167E+06     148.893E+06     78.3814E+06     1.29371E+06    -56.9610E-03     110.631E-03    -53.6697E-03     174.397E-03    -61.3514E-03     115.283E-03    -53.4776E-03     173.547E-03
             842     16.2136E-03     92.5943E-03    -5.37208E+06     153.723E+06     99.4914E+06     176.354E+03    -53.9525E-03     107.671E-03    -53.7189E-03     111.443E-03    -57.0230E-03     110.980E-03    -53.4366E-03     111.353E-03
             843     852.888E-06     92.1191E-03    -59.7506E+06    -163.103E+06    -58.4785E+06    -1.29650E+06    -53.8498E-03     107.645E-03    -53.7957E-03     9.84189E-03    -53.8286E-03     107.003E-03    -53.7649E-03     9.79178E-03
             844     1.70571E-03     92.1327E-03    -57.6243E+06    -158.153E+06    -53.1637E+06    -2.52572E+06    -53.8431E-03     107.662E-03    -53.8194E-03     17.8763E-03    -53.8295E-03     107.037E-03    -53.7724E-03     17.7803E-03
             845     2.55869E-03     92.1549E-03    -54.6107E+06    -152.873E+06    -45.4533E+06    -4.15710E+06    -53.8941E-03     107.721E-03    -53.8270E-03     26.3528E-03    -53.8901E-03     107.112E-03    -53.7534E-03     26.2011E-03
             846     3.41167E-03     92.1854E-03    -51.0938E+06    -145.823E+06    -37.0051E+06    -5.21575E+06    -53.9772E-03     107.811E-03    -53.8335E-03     34.7153E-03    -53.9870E-03     107.229E-03    -53.7330E-03     34.5106E-03
             847     4.26469E-03     92.2243E-03    -47.1634E+06    -133.165E+06    -29.4541E+06    -6.33266E+06    -54.0746E-03     107.900E-03    -53.8252E-03     42.8890E-03    -54.1069E-03     107.377E-03    -53.7110E-03     42.6248E-03
             848     5.11772E-03     92.2711E-03    -43.2637E+06    -125.120E+06    -22.9634E+06    -7.98927E+06    -54.1978E-03     108.014E-03    -53.8162E-03     50.7772E-03    -54.2496E-03     107.535E-03    -53.6868E-03     50.4393E-03
             849     5.97082E-03     92.3257E-03    -39.4878E+06    -118.848E+06    -17.4820E+06    -8.78585E+06    -54.3454E-03     108.149E-03    -53.8033E-03     58.3796E-03    -54.4196E-03     107.711E-03    -53.6611E-03     57.9711E-03
             850     6.82395E-03     92.3877E-03    -35.2439E+06    -112.462E+06    -12.7817E+06    -9.39126E+06    -54.5177E-03     108.303E-03    -53.7854E-03     65.6746E-03    -54.6192E-03     107.917E-03    -53.6351E-03     65.1886E-03
             851     7.67715E-03     92.4568E-03    -30.8084E+06    -105.946E+06    -10.8288E+06    -10.5600E+06    -54.6990E-03     108.453E-03    -53.7535E-03     72.6883E-03    -54.8334E-03     108.133E-03    -53.6094E-03     72.1078E-03
             852     8.53036E-03     92.5326E-03    -27.8722E+06    -97.0110E+06    -10.9966E+06    -10.9726E+06    -54.8716E-03     108.581E-03    -53.7096E-03     79.4946E-03    -55.0603E-03     108.358E-03    -53.5835E-03     78.8186E-03
             853     9.38377E-03     92.6152E-03    -25.6615E+06    -89.4948E+06    -9.65755E+06    -10.8087E+06    -55.1088E-03     108.787E-03    -53.6785E-03     86.3493E-03    -55.3758E-03     108.674E-03    -53.5598E-03     85.5693E-03
             854     10.2368E-03     92.7046E-03    -23.3638E+06    -80.0456E+06    -10.4018E+06    -10.3935E+06    -55.3714E-03     109.011E-03    -53.6392E-03     93.3825E-03    -55.7437E-03     109.046E-03    -53.5413E-03     92.4852E-03
             855     11.0902E-03     92.8013E-03    -21.2537E+06    -65.3753E+06    -11.2469E+06    -9.34527E+06    -55.4916E-03     109.086E-03    -53.5944E-03     99.3159E-03    -56.0104E-03     109.330E-03    -53.5250E-03     98.2952E-03
             856     11.9435E-03     92.9020E-03    -19.3292E+06    -43.3147E+06    -10.6226E+06    -7.73998E+06    -55.6625E-03     109.209E-03    -53.5464E-03     106.783E-03    -56.4099E-03     109.765E-03    -53.5087E-03     105.624E-03
             857     12.7962E-03     93.0135E-03    -17.7503E+06    -10.1516E+06    -13.1910E+06    -4.89324E+06    -56.1677E-03     109.637E-03    -53.4688E-03     121.156E-03    -57.3423E-03     110.750E-03    -53.4943E-03     119.818E-03
             858     13.6507E-03     93.1431E-03    -16.9003E+06     54.7356E+06    -11.3609E+06    -1.11104E+06    -57.2463E-03     110.625E-03    -53.3785E-03     143.700E-03    -59.2762E-03     112.822E-03    -53.4902E-03     142.152E-03
             859     14.5028E-03     93.3007E-03    -14.7958E+06     118.415E+06     23.4361E+06     1.04427E+06    -57.5907E-03     111.044E-03    -53.4531E-03     165.492E-03    -60.8352E-03     114.588E-03    -53.4862E-03     163.970E-03
             860     15.3567E-03     93.4732E-03    -10.3525E+06     150.034E+06     78.1390E+06     722.942E+03    -56.5747E-03     110.218E-03    -53.6434E-03     173.976E-03    -60.9740E-03     114.887E-03    -53.4552E-03     173.140E-03
             861     16.2087E-03     93.6495E-03    -4.74258E+06     154.237E+06     100.001E+06     141.473E+03    -53.9845E-03     107.675E-03    -53.6905E-03     109.629E-03    -57.0370E-03     110.968E-03    -53.4073E-03     109.527E-03
             862     852.840E-06     93.1744E-03    -59.2384E+06    -160.018E+06    -58.0622E+06    -1.42395E+06    -53.8439E-03     107.621E-03    -53.7769E-03     9.82614E-03    -53.8252E-03     106.992E-03    -53.7493E-03     9.77447E-03
             863     1.70581E-03     93.1881E-03    -57.1832E+06    -154.342E+06    -52.5612E+06    -3.15343E+06    -53.8356E-03     107.644E-03    -53.8080E-03     17.8851E-03    -53.8262E-03     107.036E-03    -53.7641E-03     17.7810E-03
             864     2.55871E-03     93.2101E-03    -54.0005E+06    -149.528E+06    -44.2734E+06    -4.46317E+06    -53.8917E-03     107.713E-03    -53.8213E-03     26.3393E-03    -53.8912E-03     107.118E-03    -53.7476E-03     26.1836E-03
             865     3.41166E-03     93.2407E-03    -50.1900E+06    -142.812E+06    -36.3038E+06    -5.67232E+06    -53.9659E-03     107.792E-03    -53.8261E-03     34.7010E-03    -53.9765E-03     107.223E-03    -53.7278E-03     34.4905E-03
             866     4.26466E-03     93.2795E-03    -46.0481E+06    -129.670E+06    -29.4258E+06    -7.13517E+06    -54.0399E-03     107.850E-03    -53.8102E-03     42.9045E-03    -54.0717E-03     107.343E-03    -53.7025E-03     42.6304E-03
             867     5.11777E-03     93.3264E-03    -42.5086E+06    -122.326E+06    -22.6043E+06    -7.91446E+06    -54.1544E-03     107.954E-03    -53.7991E-03     50.8057E-03    -54.2069E-03     107.486E-03    -53.6731E-03     50.4693E-03
             868     5.97091E-03     93.3808E-03    -39.4770E+06    -115.898E+06    -17.8809E+06    -9.20780E+06    -54.2977E-03     108.076E-03    -53.7788E-03     58.4583E-03    -54.3754E-03     107.654E-03    -53.6429E-03     58.0453E-03
             869     6.82413E-03     93.4428E-03    -35.8515E+06    -108.922E+06    -14.0073E+06    -11.3929E+06    -54.4650E-03     108.218E-03    -53.7530E-03     65.8164E-03    -54.5726E-03     107.852E-03    -53.6131E-03     65.3060E-03
             870     7.67734E-03     93.5117E-03    -32.4043E+06    -103.998E+06    -11.8765E+06    -12.2856E+06    -54.6552E-03     108.378E-03    -53.7231E-03     72.8426E-03    -54.7986E-03     108.072E-03    -53.5847E-03     72.2412E-03
             871     8.53063E-03     93.5877E-03    -29.3253E+06    -95.8731E+06    -11.7435E+06    -12.0824E+06    -54.8389E-03     108.519E-03    -53.6805E-03     79.6706E-03    -55.0351E-03     108.305E-03    -53.5576E-03     78.9816E-03
             872     9.38382E-03     93.6700E-03    -26.5257E+06    -88.3185E+06    -10.5471E+06    -12.1498E+06    -55.0643E-03     108.711E-03    -53.6462E-03     86.6865E-03    -55.3358E-03     108.605E-03    -53.5324E-03     85.8913E-03
             873     10.2372E-03     93.7599E-03    -24.1341E+06    -79.9436E+06    -11.4471E+06    -11.8729E+06    -55.3141E-03     108.919E-03    -53.6046E-03     93.7216E-03    -55.6885E-03     108.957E-03    -53.5109E-03     92.8077E-03
             874     11.0905E-03     93.8558E-03    -22.0551E+06    -66.2357E+06    -12.7697E+06    -10.9565E+06    -55.4732E-03     109.030E-03    -53.5571E-03     99.5924E-03    -55.9928E-03     109.274E-03    -53.4929E-03     98.5520E-03
             875     11.9438E-03     93.9575E-03    -20.1445E+06    -44.7110E+06    -11.8869E+06    -9.43149E+06    -55.7322E-03     109.246E-03    -53.5142E-03     107.094E-03    -56.4814E-03     109.800E-03    -53.4796E-03     105.911E-03
             876     12.7977E-03     94.0682E-03    -18.5553E+06    -14.4906E+06    -15.1672E+06    -6.53053E+06    -56.3261E-03     109.772E-03    -53.4459E-03     121.345E-03    -57.5014E-03     110.874E-03    -53.4738E-03     119.980E-03
             877     13.6496E-03     94.1989E-03    -17.1040E+06     49.3476E+06    -16.7297E+06    -2.49949E+06    -56.7772E-03     110.107E-03    -53.3295E-03     144.189E-03    -58.7892E-03     112.282E-03    -53.4599E-03     142.645E-03
             878     14.5037E-03     94.3559E-03    -14.5070E+06     117.335E+06     17.4429E+06    -465.540E+03    -57.1810E-03     110.546E-03    -53.3655E-03     166.421E-03    -60.4109E-03     114.091E-03    -53.4273E-03     164.902E-03
             879     15.3571E-03     94.5284E-03    -10.4180E+06     150.400E+06     75.7488E+06     81.4929E+03    -57.2121E-03     110.787E-03    -53.5750E-03     175.449E-03    -61.6409E-03     115.493E-03    -53.3993E-03     174.584E-03
             880     16.2120E-03     94.7059E-03    -4.91122E+06     154.396E+06     100.451E+06     663.601E+03    -54.1542E-03     107.811E-03    -53.6564E-03     110.590E-03    -57.2344E-03     111.130E-03    -53.3709E-03     110.487E-03
             881     852.931E-06     94.2298E-03    -58.9334E+06    -156.303E+06    -57.7692E+06    -1.81323E+06    -53.7903E-03     107.566E-03    -53.7756E-03     9.80795E-03    -53.7759E-03     106.955E-03    -53.7523E-03     9.75130E-03
             882     1.70577E-03     94.2433E-03    -57.2606E+06    -150.439E+06    -52.5157E+06    -3.16110E+06    -53.8174E-03     107.599E-03    -53.7818E-03     17.8966E-03    -53.8140E-03     107.011E-03    -53.7432E-03     17.7926E-03
             883     2.55872E-03     94.2655E-03    -54.7045E+06    -146.053E+06    -45.2470E+06    -4.63497E+06    -53.8664E-03     107.660E-03    -53.7937E-03     26.3704E-03    -53.8730E-03     107.085E-03    -53.7288E-03     26.2129E-03
             884     3.41171E-03     94.2959E-03    -50.9424E+06    -138.542E+06    -37.4626E+06    -6.70005E+06    -53.9152E-03     107.709E-03    -53.7937E-03     34.7653E-03    -53.9340E-03     107.164E-03    -53.7063E-03     34.5420E-03
             885     4.26480E-03     94.3347E-03    -46.7462E+06    -126.576E+06    -30.3449E+06    -8.14739E+06    -53.9741E-03     107.749E-03    -53.7746E-03     42.9790E-03    -54.0125E-03     107.260E-03    -53.6750E-03     42.6926E-03
             886     5.11795E-03     94.3814E-03    -42.1297E+06    -120.091E+06    -23.1402E+06    -8.80311E+06    -54.0871E-03     107.846E-03    -53.7589E-03     50.9034E-03    -54.1399E-03     107.390E-03    -53.6393E-03     50.5568E-03
             887     5.97114E-03     94.4359E-03    -37.2374E+06    -111.549E+06    -16.7921E+06    -10.1982E+06    -54.2287E-03     107.964E-03    -53.7353E-03     58.5767E-03    -54.3028E-03     107.559E-03    -53.6035E-03     58.1524E-03
             888     6.82440E-03     94.4977E-03    -33.9096E+06    -105.295E+06    -12.4786E+06    -11.6686E+06    -54.3849E-03     108.093E-03    -53.7078E-03     65.9633E-03    -54.4900E-03     107.740E-03    -53.5684E-03     65.4512E-03
             889     7.67769E-03     94.5668E-03    -31.7323E+06    -101.846E+06    -10.9251E+06    -12.5849E+06    -54.5726E-03     108.247E-03    -53.6741E-03     73.0584E-03    -54.7167E-03     107.948E-03    -53.5351E-03     72.4555E-03
             890     8.53101E-03     94.6424E-03    -29.2237E+06    -94.0011E+06    -11.3328E+06    -13.5194E+06    -54.7571E-03     108.383E-03    -53.6259E-03     79.9620E-03    -54.9558E-03     108.177E-03    -53.5039E-03     79.2569E-03
             891     9.38447E-03     94.7251E-03    -26.4087E+06    -87.1159E+06    -10.4574E+06    -13.6649E+06    -54.9700E-03     108.557E-03    -53.5866E-03     87.0962E-03    -55.2422E-03     108.456E-03    -53.4743E-03     86.2847E-03
             892     10.2378E-03     94.8145E-03    -23.9183E+06    -79.5041E+06    -11.6037E+06    -13.2947E+06    -55.2607E-03     108.802E-03    -53.5416E-03     94.2001E-03    -55.6341E-03     108.842E-03    -53.4497E-03     93.2710E-03
             893     11.0911E-03     94.9112E-03    -21.8945E+06    -66.5004E+06    -13.0117E+06    -12.3947E+06    -55.5046E-03     109.001E-03    -53.4966E-03     100.088E-03    -56.0236E-03     109.244E-03    -53.4335E-03     99.0303E-03
             894     11.9444E-03     95.0120E-03    -20.2974E+06    -46.5679E+06    -12.5413E+06    -10.6138E+06    -55.7647E-03     109.223E-03    -53.4585E-03     107.782E-03    -56.5135E-03     109.771E-03    -53.4243E-03     106.585E-03
             895     12.7967E-03     95.1242E-03    -18.9378E+06    -18.3850E+06    -16.1185E+06    -7.81982E+06    -56.2483E-03     109.639E-03    -53.3905E-03     122.436E-03    -57.4210E-03     110.726E-03    -53.4170E-03     121.062E-03
             896     13.6510E-03     95.2536E-03    -17.5576E+06     45.5597E+06    -19.2189E+06    -4.61690E+06    -56.7081E-03     109.971E-03    -53.2627E-03     144.265E-03    -58.7088E-03     112.127E-03    -53.3994E-03     142.701E-03
             897     14.5062E-03     95.4088E-03    -15.8296E+06     115.617E+06     11.2210E+06    -2.26849E+06    -56.9608E-03     110.234E-03    -53.2737E-03     166.061E-03    -60.1698E-03     113.765E-03    -53.3623E-03     164.525E-03
             898     15.3598E-03     95.5866E-03    -11.8644E+06     148.998E+06     71.1815E+06    -837.877E+03    -56.4369E-03     109.904E-03    -53.4668E-03     175.526E-03    -60.8220E-03     114.569E-03    -53.3098E-03     174.689E-03
             899     16.2114E-03     95.7594E-03    -6.33637E+06     153.540E+06     99.8578E+06     55.7034E+03    -54.6026E-03     108.164E-03    -53.5610E-03     111.087E-03    -57.6675E-03     111.461E-03    -53.2751E-03     110.985E-03
             900     852.886E-06     95.2850E-03    -58.0110E+06    -152.069E+06    -56.8689E+06    -1.93031E+06    -53.7474E-03     107.495E-03    -53.7474E-03     9.81169E-03    -53.7358E-03     106.903E-03    -53.7271E-03     9.75356E-03
             901     1.70589E-03     95.2986E-03    -56.2104E+06    -146.937E+06    -52.1822E+06    -3.24269E+06    -53.7604E-03     107.500E-03    -53.7393E-03     17.9271E-03    -53.7573E-03     106.927E-03    -53.7056E-03     17.8225E-03
             902     2.55886E-03     95.3206E-03    -53.1144E+06    -141.533E+06    -44.6152E+06    -5.11121E+06    -53.7961E-03     107.538E-03    -53.7414E-03     26.4239E-03    -53.8022E-03     106.982E-03    -53.6822E-03     26.2609E-03
             903     3.41190E-03     95.3511E-03    -49.5406E+06    -133.596E+06    -36.2847E+06    -7.39168E+06    -53.8409E-03     107.578E-03    -53.7372E-03     34.8302E-03    -53.8615E-03     107.054E-03    -53.6531E-03     34.5989E-03
             904     4.26502E-03     95.3897E-03    -45.5292E+06    -123.190E+06    -29.1696E+06    -9.15939E+06    -53.8985E-03     107.615E-03    -53.7161E-03     43.0582E-03    -53.9372E-03     107.139E-03    -53.6173E-03     42.7598E-03
             905     5.11823E-03     95.4364E-03    -41.1998E+06    -116.682E+06    -22.5745E+06    -10.6837E+06    -53.9896E-03     107.682E-03    -53.6927E-03     51.0379E-03    -54.0434E-03     107.241E-03    -53.5767E-03     50.6687E-03
             906     5.97153E-03     95.4908E-03    -37.2761E+06    -108.226E+06    -16.6370E+06    -11.6782E+06    -54.1039E-03     107.765E-03    -53.6615E-03     58.7829E-03    -54.1829E-03     107.376E-03    -53.5337E-03     58.3419E-03
             907     6.82488E-03     95.5527E-03    -33.4167E+06    -102.540E+06    -11.6046E+06    -12.1285E+06    -54.2518E-03     107.882E-03    -53.6299E-03     66.2111E-03    -54.3591E-03     107.540E-03    -53.4908E-03     65.6960E-03
             908     7.67835E-03     95.6214E-03    -29.7182E+06    -98.8711E+06    -9.48923E+06    -13.0073E+06    -54.4307E-03     108.019E-03    -53.5885E-03     73.4007E-03    -54.5704E-03     107.730E-03    -53.4495E-03     72.7961E-03
             909     8.53180E-03     95.6974E-03    -27.0577E+06    -91.1226E+06    -9.80891E+06    -14.1006E+06    -54.6329E-03     108.167E-03    -53.5338E-03     80.3584E-03    -54.8264E-03     107.969E-03    -53.4115E-03     79.6497E-03
             910     9.38530E-03     95.7794E-03    -24.9201E+06    -85.6439E+06    -9.47713E+06    -14.8897E+06    -54.8610E-03     108.351E-03    -53.4905E-03     87.5379E-03    -55.1287E-03     108.254E-03    -53.3776E-03     86.7146E-03
             911     10.2388E-03     95.8696E-03    -22.7759E+06    -78.8512E+06    -10.9983E+06    -14.5471E+06    -55.1603E-03     108.602E-03    -53.4421E-03     94.8431E-03    -55.5289E-03     108.642E-03    -53.3497E-03     93.9034E-03
             912     11.0923E-03     95.9657E-03    -21.0242E+06    -67.0675E+06    -12.7113E+06    -13.4804E+06    -55.4503E-03     108.846E-03    -53.3961E-03     100.879E-03    -55.9645E-03     109.085E-03    -53.3320E-03     99.8122E-03
             913     11.9454E-03     96.0676E-03    -19.5319E+06    -48.6377E+06    -12.6419E+06    -11.7417E+06    -55.6955E-03     109.053E-03    -53.3577E-03     108.587E-03    -56.4377E-03     109.590E-03    -53.3221E-03     107.381E-03
             914     12.7999E-03     96.1785E-03    -18.1260E+06    -21.8920E+06    -16.1843E+06    -8.74257E+06    -56.1645E-03     109.455E-03    -53.2905E-03     122.852E-03    -57.3218E-03     110.517E-03    -53.3134E-03     121.476E-03
             915     13.6529E-03     96.3092E-03    -16.7846E+06     43.1357E+06    -19.3068E+06    -6.33343E+06    -57.3272E-03     110.509E-03    -53.1816E-03     144.570E-03    -59.3296E-03     112.661E-03    -53.3163E-03     142.964E-03
             916     14.5035E-03     96.4642E-03    -14.0701E+06     112.766E+06     12.9227E+06    -4.15078E+06    -57.8074E-03     111.058E-03    -53.2503E-03     165.134E-03    -61.0180E-03     114.581E-03    -53.3288E-03     163.539E-03
             917     15.3590E-03     96.6381E-03    -9.88154E+06     146.056E+06     73.1287E+06    -784.862E+03    -56.3112E-03     109.788E-03    -53.4768E-03     172.153E-03    -60.6253E-03     114.373E-03    -53.3086E-03     171.298E-03
             918     16.2182E-03     96.8148E-03    -5.27447E+06     153.606E+06     100.267E+06     299.903E+03    -53.7615E-03     107.307E-03    -53.5460E-03     109.538E-03    -56.7629E-03     110.545E-03    -53.2597E-03     109.439E-03
             919     852.971E-06     96.3402E-03    -56.2209E+06    -147.541E+06    -55.5756E+06    -2.30544E+06    -53.7043E-03     107.362E-03    -53.6572E-03     9.82942E-03    -53.6922E-03     106.788E-03    -53.6396E-03     9.76671E-03
             920     1.70594E-03     96.3537E-03    -54.2398E+06    -142.734E+06    -50.5737E+06    -3.94272E+06    -53.6724E-03     107.340E-03    -53.6680E-03     17.9477E-03    -53.6679E-03     106.783E-03    -53.6353E-03     17.8346E-03
             921     2.55905E-03     96.3757E-03    -51.3344E+06    -136.692E+06    -43.0669E+06    -5.86886E+06    -53.6783E-03     107.337E-03    -53.6583E-03     26.4716E-03    -53.6847E-03     106.800E-03    -53.6010E-03     26.2998E-03
             922     3.41220E-03     96.4061E-03    -47.6631E+06    -128.472E+06    -34.7851E+06    -7.96129E+06    -53.7195E-03     107.363E-03    -53.6432E-03     34.9239E-03    -53.7402E-03     106.859E-03    -53.5617E-03     34.6867E-03
             923     4.26541E-03     96.4447E-03    -43.8935E+06    -118.903E+06    -27.3209E+06    -9.91185E+06    -53.7713E-03     107.390E-03    -53.6183E-03     43.2014E-03    -53.8105E-03     106.930E-03    -53.5188E-03     42.8951E-03
             924     5.11875E-03     96.4912E-03    -40.6539E+06    -112.689E+06    -21.0270E+06    -11.2864E+06    -53.8368E-03     107.425E-03    -53.5883E-03     51.2359E-03    -53.8954E-03     107.000E-03    -53.4711E-03     50.8614E-03
             925     5.97217E-03     96.5455E-03    -37.1079E+06    -104.913E+06    -16.0650E+06    -12.6602E+06    -53.9199E-03     107.465E-03    -53.5446E-03     59.0567E-03    -54.0031E-03     107.090E-03    -53.4190E-03     58.6065E-03
             926     6.82576E-03     96.6072E-03    -32.9014E+06    -99.8343E+06    -11.5600E+06    -13.9112E+06    -54.0560E-03     107.556E-03    -53.5003E-03     66.5838E-03    -54.1640E-03     107.227E-03    -53.3657E-03     66.0501E-03
             927     7.67930E-03     96.6761E-03    -29.0583E+06    -96.2596E+06    -8.78822E+06    -14.3814E+06    -54.2335E-03     107.686E-03    -53.4527E-03     73.8362E-03    -54.3738E-03     107.407E-03    -53.3149E-03     73.2190E-03
             928     8.53304E-03     96.7516E-03    -25.7224E+06    -88.1253E+06    -8.52642E+06    -15.0209E+06    -54.4507E-03     107.842E-03    -53.3917E-03     80.9289E-03    -54.6426E-03     107.655E-03    -53.2693E-03     80.2144E-03
             929     9.38660E-03     96.8343E-03    -23.2207E+06    -83.3933E+06    -8.05186E+06    -15.6040E+06    -54.7183E-03     108.063E-03    -53.3451E-03     88.1579E-03    -54.9819E-03     107.972E-03    -53.2308E-03     87.3313E-03
             930     10.2404E-03     96.9235E-03    -21.3396E+06    -78.3329E+06    -10.0135E+06    -15.4450E+06    -55.0015E-03     108.295E-03    -53.2938E-03     95.6221E-03    -55.3638E-03     108.333E-03    -53.1994E-03     94.6779E-03
             931     11.0938E-03     97.0210E-03    -19.6941E+06    -67.4936E+06    -12.0204E+06    -14.5872E+06    -55.3226E-03     108.567E-03    -53.2445E-03     101.821E-03    -55.8294E-03     108.799E-03    -53.1782E-03     100.747E-03
             932     11.9477E-03     97.1217E-03    -17.7609E+06    -49.7126E+06    -11.5750E+06    -13.2485E+06    -55.7916E-03     109.006E-03    -53.2140E-03     109.275E-03    -56.5241E-03     109.532E-03    -53.1741E-03     108.053E-03
             933     12.7999E-03     97.2340E-03    -15.3247E+06    -25.3035E+06    -15.2378E+06    -11.0661E+06    -56.4936E-03     109.662E-03    -53.1689E-03     123.286E-03    -57.6366E-03     110.705E-03    -53.1862E-03     121.874E-03
             934     13.6533E-03     97.3635E-03    -12.7946E+06     40.0137E+06    -17.4101E+06    -8.06722E+06    -57.1970E-03     110.268E-03    -53.0712E-03     146.125E-03    -59.1752E-03     112.394E-03    -53.1978E-03     144.510E-03
             935     14.5077E-03     97.5228E-03    -11.8521E+06     108.590E+06     18.7635E+06    -3.86539E+06    -58.2479E-03     111.414E-03    -53.1662E-03     168.499E-03    -61.4737E-03     114.929E-03    -53.2127E-03     166.903E-03
             936     15.3572E-03     97.6928E-03    -10.6354E+06     141.792E+06     75.7928E+06     588.666E+03    -58.0011E-03     111.432E-03    -53.4313E-03     175.570E-03    -62.4099E-03     116.087E-03    -53.2425E-03     174.674E-03
             937     16.2056E-03     97.8670E-03    -4.68479E+06     154.299E+06     99.9053E+06     425.978E+03    -53.2817E-03     106.786E-03    -53.5047E-03     112.220E-03    -56.3597E-03     110.106E-03    -53.2222E-03     112.133E-03
             938     853.067E-06     97.3953E-03    -54.3050E+06    -142.012E+06    -53.3284E+06    -2.76005E+06    -53.5691E-03     107.108E-03    -53.5392E-03     9.84412E-03    -53.5587E-03     106.556E-03    -53.5212E-03     9.77606E-03
             939     1.70617E-03     97.4087E-03    -52.4040E+06    -137.728E+06    -48.4770E+06    -4.78787E+06    -53.5339E-03     107.074E-03    -53.5402E-03     18.0073E-03    -53.5304E-03     106.536E-03    -53.5069E-03     17.8839E-03
             940     2.55936E-03     97.4305E-03    -49.1574E+06    -131.455E+06    -41.2661E+06    -6.84039E+06    -53.5274E-03     107.050E-03    -53.5225E-03     26.5907E-03    -53.5329E-03     106.534E-03    -53.4670E-03     26.4076E-03
             941     3.41266E-03     97.4609E-03    -45.1465E+06    -123.250E+06    -32.9109E+06    -9.00475E+06    -53.5366E-03     107.035E-03    -53.4985E-03     35.0710E-03    -53.5548E-03     106.551E-03    -53.4189E-03     34.8222E-03
             942     4.26607E-03     97.4993E-03    -41.3726E+06    -115.252E+06    -24.8264E+06    -10.0653E+06    -53.5620E-03     107.029E-03    -53.4671E-03     43.3857E-03    -53.5971E-03     106.580E-03    -53.3641E-03     43.0802E-03
             943     5.11957E-03     97.5457E-03    -37.9503E+06    -108.601E+06    -18.4314E+06    -11.1637E+06    -53.6150E-03     107.040E-03    -53.4249E-03     51.4966E-03    -53.6693E-03     106.627E-03    -53.3046E-03     51.1273E-03
             944     5.97322E-03     97.5998E-03    -34.6282E+06    -100.256E+06    -14.1780E+06    -13.1752E+06    -53.6840E-03     107.050E-03    -53.3664E-03     59.4136E-03    -53.7635E-03     106.692E-03    -53.2417E-03     58.9614E-03
             945     6.82695E-03     97.6614E-03    -31.9811E+06    -96.6809E+06    -10.6531E+06    -14.5936E+06    -53.7976E-03     107.109E-03    -53.3110E-03     67.0535E-03    -53.9057E-03     106.791E-03    -53.1777E-03     66.5170E-03
             946     7.68088E-03     97.7301E-03    -28.9595E+06    -92.9607E+06    -8.09346E+06    -15.9721E+06    -53.9735E-03     107.227E-03    -53.2534E-03     74.4362E-03    -54.1177E-03     106.962E-03    -53.1171E-03     73.8055E-03
             947     8.53465E-03     97.8059E-03    -25.5319E+06    -85.8307E+06    -7.72327E+06    -16.7577E+06    -54.1801E-03     107.365E-03    -53.1852E-03     81.6642E-03    -54.3739E-03     107.186E-03    -53.0624E-03     80.9355E-03
             948     9.38872E-03     97.8882E-03    -22.6370E+06    -81.5628E+06    -6.98871E+06    -16.5612E+06    -54.4759E-03     107.608E-03    -53.1323E-03     89.0715E-03    -54.7387E-03     107.521E-03    -53.0161E-03     88.2421E-03
             949     10.2424E-03     97.9781E-03    -20.5692E+06    -77.1849E+06    -9.19519E+06    -16.4659E+06    -54.8371E-03     107.915E-03    -53.0774E-03     96.5974E-03    -55.1974E-03     107.954E-03    -52.9816E-03     95.6481E-03
             950     11.0965E-03     98.0746E-03    -18.4527E+06    -67.4331E+06    -11.4648E+06    -16.0366E+06    -55.2260E-03     108.255E-03    -53.0295E-03     103.064E-03    -55.7259E-03     108.484E-03    -52.9623E-03     101.981E-03
             951     11.9495E-03     98.1774E-03    -16.5666E+06    -49.9846E+06    -11.0207E+06    -15.0222E+06    -55.7735E-03     108.778E-03    -53.0046E-03     110.917E-03    -56.5000E-03     109.300E-03    -52.9632E-03     109.681E-03
             952     12.8034E-03     98.2888E-03    -14.5050E+06    -26.9775E+06    -14.8102E+06    -13.8950E+06    -56.4844E-03     109.451E-03    -52.9663E-03     125.511E-03    -57.6274E-03     110.489E-03    -52.9802E-03     124.070E-03
             953     13.6559E-03     98.4198E-03    -13.6361E+06     34.0434E+06    -18.2199E+06    -9.24740E+06    -56.8974E-03     109.764E-03    -52.8666E-03     147.620E-03    -58.8686E-03     111.860E-03    -52.9873E-03     146.009E-03
             954     14.5106E-03     98.5742E-03    -14.2132E+06     101.486E+06     11.1594E+06    -2.11611E+06    -57.4429E-03     110.345E-03    -52.9017E-03     170.938E-03    -60.6633E-03     113.842E-03    -52.9724E-03     169.411E-03
             955     15.3660E-03     98.7559E-03    -10.3577E+06     141.612E+06     70.7856E+06    -189.718E+03    -57.4892E-03     110.618E-03    -53.1285E-03     178.373E-03    -61.9139E-03     115.303E-03    -52.9649E-03     177.515E-03
             956     16.2225E-03     98.9218E-03    -4.85654E+06     155.327E+06     100.572E+06    -367.776E+03    -55.5075E-03     108.787E-03    -53.2793E-03     112.927E-03    -58.6175E-03     112.139E-03    -52.9946E-03     112.790E-03
             957     853.204E-06     98.4500E-03    -51.8725E+06    -135.805E+06    -50.5783E+06    -2.71779E+06    -53.3503E-03     106.704E-03    -53.3538E-03     9.82351E-03    -53.3407E-03     106.175E-03    -53.3345E-03     9.75666E-03
             958     1.70654E-03     98.4633E-03    -49.8859E+06    -131.553E+06    -45.7081E+06    -5.48060E+06    -53.3121E-03     106.647E-03    -53.3351E-03     18.0928E-03    -53.3090E-03     106.133E-03    -53.3006E-03     17.9615E-03
             959     2.55990E-03     98.4851E-03    -46.7038E+06    -125.498E+06    -38.9957E+06    -8.11011E+06    -53.3124E-03     106.623E-03    -53.3104E-03     26.7391E-03    -53.3175E-03     106.130E-03    -53.2557E-03     26.5414E-03
             960     3.41336E-03     98.5152E-03    -43.1346E+06    -118.166E+06    -31.1870E+06    -10.0173E+06    -53.2827E-03     106.562E-03    -53.2795E-03     35.2625E-03    -53.3004E-03     106.098E-03    -53.2016E-03     35.0033E-03
             961     4.26700E-03     98.5535E-03    -38.9708E+06    -112.209E+06    -23.5030E+06    -10.9745E+06    -53.2710E-03     106.507E-03    -53.2362E-03     43.6521E-03    -53.3000E-03     106.068E-03    -53.1345E-03     43.3387E-03
             962     5.12081E-03     98.5997E-03    -34.1683E+06    -104.087E+06    -16.3506E+06    -12.1316E+06    -53.3011E-03     106.480E-03    -53.1789E-03     51.8658E-03    -53.3453E-03     106.081E-03    -53.0602E-03     51.4891E-03
             963     5.97472E-03     98.6537E-03    -30.6158E+06    -96.5018E+06    -11.0260E+06    -12.9019E+06    -53.3631E-03     106.476E-03    -53.1129E-03     59.8611E-03    -53.4315E-03     106.125E-03    -52.9837E-03     59.4187E-03
             964     6.82881E-03     98.7151E-03    -28.1466E+06    -92.6459E+06    -7.38499E+06    -13.9665E+06    -53.4655E-03     106.511E-03    -53.0459E-03     67.6512E-03    -53.5636E-03     106.202E-03    -52.9077E-03     67.1305E-03
             965     7.68287E-03     98.7838E-03    -25.9993E+06    -87.9558E+06    -5.66701E+06    -16.3610E+06    -53.6139E-03     106.586E-03    -52.9718E-03     75.2371E-03    -53.7522E-03     106.336E-03    -52.8349E-03     74.6109E-03
             966     8.53722E-03     98.8593E-03    -24.1496E+06    -84.0217E+06    -6.35453E+06    -17.4713E+06    -53.8304E-03     106.724E-03    -52.8939E-03     82.6342E-03    -54.0196E-03     106.548E-03    -52.7688E-03     81.9073E-03
             967     9.39132E-03     98.9418E-03    -22.2437E+06    -79.7110E+06    -6.22368E+06    -17.6560E+06    -54.1439E-03     106.974E-03    -52.8303E-03     90.2623E-03    -54.4061E-03     106.893E-03    -52.7136E-03     89.4311E-03
             968     10.2458E-03     99.0317E-03    -19.6749E+06    -75.4165E+06    -8.03740E+06    -18.0052E+06    -54.6328E-03     107.407E-03    -52.7742E-03     97.9901E-03    -54.9909E-03     107.451E-03    -52.6765E-03     97.0326E-03
             969     11.0992E-03     99.1288E-03    -17.6406E+06    -66.9432E+06    -11.1605E+06    -17.6696E+06    -55.0903E-03     107.819E-03    -52.7282E-03     104.652E-03    -55.5865E-03     108.047E-03    -52.6614E-03     103.559E-03
             970     11.9537E-03     99.2313E-03    -15.8370E+06    -50.3136E+06    -10.6508E+06    -16.7935E+06    -55.5059E-03     108.211E-03    -52.7054E-03     112.599E-03    -56.2265E-03     108.728E-03    -52.6628E-03     111.356E-03
             971     12.8068E-03     99.3439E-03    -15.2642E+06    -28.5040E+06    -15.3652E+06    -14.7567E+06    -56.1908E-03     108.852E-03    -52.6617E-03     126.719E-03    -57.3289E-03     109.880E-03    -52.6750E-03     125.286E-03
             972     13.6615E-03     99.4741E-03    -16.1778E+06     25.9747E+06    -21.2858E+06    -9.19547E+06    -57.3982E-03     109.981E-03    -52.5825E-03     148.161E-03    -59.3782E-03     112.057E-03    -52.7032E-03     146.541E-03
             973     14.5138E-03     99.6301E-03    -13.7044E+06     95.5540E+06     6.04447E+06    -3.70552E+06    -58.1450E-03     110.799E-03    -52.6544E-03     169.588E-03    -61.3622E-03     114.290E-03    -52.7428E-03     168.013E-03
             974     15.3685E-03     99.8065E-03    -8.68272E+06     142.097E+06     67.0335E+06    -1.94159E+06    -57.3966E-03     110.317E-03    -52.9200E-03     173.626E-03    -61.7133E-03     114.913E-03    -52.7783E-03     172.724E-03
             975     16.2198E-03     99.9796E-03    -5.47657E+06     154.395E+06     99.7554E+06     469.728E+03    -56.0102E-03     109.136E-03    -53.1253E-03     109.149E-03    -59.0134E-03     112.378E-03    -52.8425E-03     108.974E-03
             976     853.457E-06     99.5041E-03    -48.4898E+06    -128.842E+06    -47.8016E+06    -3.27493E+06    -53.0586E-03     106.093E-03    -53.0346E-03     9.83210E-03    -53.0462E-03     105.590E-03    -53.0165E-03     9.75873E-03
             977     1.70703E-03     99.5175E-03    -46.5620E+06    -124.657E+06    -42.7767E+06    -5.95147E+06    -53.0188E-03     106.049E-03    -53.0305E-03     18.2336E-03    -53.0133E-03     105.560E-03    -52.9961E-03     18.0980E-03
             978     2.56065E-03     99.5391E-03    -44.2112E+06    -118.883E+06    -36.4433E+06    -8.57920E+06    -52.9726E-03     105.974E-03    -53.0018E-03     26.9090E-03    -52.9783E-03     105.507E-03    -52.9476E-03     26.7079E-03
             979     3.41443E-03     99.5691E-03    -41.2382E+06    -113.095E+06    -29.7901E+06    -10.6969E+06    -52.9187E-03     105.875E-03    -52.9566E-03     35.5256E-03    -52.9359E-03     105.431E-03    -52.8818E-03     35.2615E-03
             980     4.26839E-03     99.6070E-03    -37.4348E+06    -107.636E+06    -22.9175E+06    -12.6038E+06    -52.8882E-03     105.787E-03    -52.8984E-03     44.0392E-03    -52.9163E-03     105.366E-03    -52.8026E-03     43.7098E-03
             981     5.12251E-03     99.6531E-03    -33.2717E+06    -99.9700E+06    -16.0419E+06    -13.9744E+06    -52.8742E-03     105.702E-03    -52.8276E-03     52.3775E-03    -52.9193E-03     105.320E-03    -52.7146E-03     51.9839E-03
             982     5.97685E-03     99.7069E-03    -28.7850E+06    -94.6928E+06    -9.99472E+06    -13.9183E+06    -52.9058E-03     105.657E-03    -52.7508E-03     60.5046E-03    -52.9677E-03     105.309E-03    -52.6217E-03     60.0578E-03
             983     6.83125E-03     99.7681E-03    -24.6130E+06    -88.2320E+06    -5.30218E+06    -14.4115E+06    -52.9887E-03     105.654E-03    -52.6657E-03     68.5029E-03    -53.0766E-03     105.357E-03    -52.5286E-03     67.9874E-03
             984     7.68595E-03     99.8366E-03    -21.7875E+06    -83.4118E+06    -2.61607E+06    -15.6502E+06    -53.1405E-03     105.720E-03    -52.5795E-03     76.2794E-03    -53.2661E-03     105.480E-03    -52.4400E-03     75.6754E-03
             985     8.54054E-03     99.9122E-03    -20.4290E+06    -81.3577E+06    -3.43236E+06    -16.6211E+06    -53.3931E-03     105.885E-03    -52.4923E-03     83.8838E-03    -53.5688E-03     105.710E-03    -52.3618E-03     83.1823E-03
             986     9.39534E-03     99.9947E-03    -18.9339E+06    -76.1070E+06    -3.65716E+06    -18.1569E+06    -53.7709E-03     106.191E-03    -52.4196E-03     91.7623E-03    -54.0224E-03     106.115E-03    -52.3001E-03     90.9398E-03
             987     10.2496E-03     100.085E-03    -17.2153E+06    -73.6396E+06    -6.13106E+06    -19.1491E+06    -54.3059E-03     106.668E-03    -52.3618E-03     99.8256E-03    -54.6536E-03     106.711E-03    -52.2607E-03     98.8703E-03
             988     11.1043E-03     100.182E-03    -15.7584E+06    -66.0451E+06    -10.0314E+06    -18.6217E+06    -54.8841E-03     107.201E-03    -52.3170E-03     106.618E-03    -55.3712E-03     107.427E-03    -52.2485E-03     105.529E-03
             989     11.9578E-03     100.285E-03    -15.0209E+06    -50.5264E+06    -9.89443E+06    -17.6396E+06    -55.4706E-03     107.779E-03    -52.3081E-03     114.457E-03    -56.1863E-03     108.290E-03    -52.2625E-03     113.217E-03
             990     12.8122E-03     100.398E-03    -14.4848E+06    -32.1629E+06    -15.5725E+06    -14.7643E+06    -56.5704E-03     108.865E-03    -52.2946E-03     128.309E-03    -57.6977E-03     109.872E-03    -52.3048E-03     126.883E-03
             991     13.6646E-03     100.529E-03    -13.0570E+06     19.4056E+06    -20.2175E+06    -10.0808E+06    -58.3003E-03     110.577E-03    -52.2771E-03     149.736E-03    -60.2658E-03     112.624E-03    -52.3874E-03     148.090E-03
             992     14.5171E-03     100.687E-03    -12.0397E+06     91.2250E+06     6.55513E+06    -5.15266E+06    -59.7981E-03     112.227E-03    -52.4293E-03     171.208E-03    -63.0198E-03     115.711E-03    -52.5113E-03     169.560E-03
             993     15.3659E-03     100.863E-03    -11.1929E+06     139.287E+06     62.7629E+06    -612.881E+03    -59.4676E-03     112.248E-03    -52.7800E-03     176.750E-03    -63.8463E-03     116.899E-03    -52.6519E-03     175.781E-03
             994     16.2193E-03     101.035E-03    -6.03266E+06     153.119E+06     97.1288E+06     634.571E+03    -55.3269E-03     108.349E-03    -53.0221E-03     112.296E-03    -58.3862E-03     111.649E-03    -52.7497E-03     112.129E-03
             995     853.914E-06     100.558E-03    -45.0981E+06    -120.843E+06    -44.3077E+06    -3.86836E+06    -52.6367E-03     105.221E-03    -52.5848E-03     9.97464E-03    -52.6240E-03     104.748E-03    -52.5657E-03     9.89475E-03
             996     1.70772E-03     100.571E-03    -43.3804E+06    -117.666E+06    -40.1714E+06    -6.49846E+06    -52.5983E-03     105.193E-03    -52.5945E-03     18.3981E-03    -52.5906E-03     104.730E-03    -52.5618E-03     18.2577E-03
             997     2.56174E-03     100.592E-03    -40.8167E+06    -112.115E+06    -33.9891E+06    -8.98708E+06    -52.4968E-03     105.057E-03    -52.5604E-03     27.1509E-03    -52.4986E-03     104.615E-03    -52.5086E-03     26.9480E-03
             998     3.41596E-03     100.622E-03     -37.563E+06    -107.391E+06    -26.8833E+06    -11.2214E+06    -52.4230E-03     104.927E-03    -52.5044E-03     35.8912E-03    -52.4338E-03     104.502E-03    -52.4287E-03     35.6254E-03
             999     4.27033E-03     100.660E-03    -34.4016E+06    -101.880E+06    -20.3717E+06    -13.3098E+06    -52.3585E-03     104.789E-03    -52.4307E-03     44.5456E-03    -52.3827E-03     104.389E-03    -52.3350E-03     44.2141E-03
            1000     5.12492E-03     100.706E-03    -31.4067E+06    -95.7980E+06    -15.3443E+06    -14.9804E+06    -52.2986E-03     104.636E-03    -52.3378E-03     53.0846E-03    -52.3400E-03     104.271E-03    -52.2300E-03     52.6874E-03
            1001     5.97973E-03     100.759E-03    -28.1136E+06    -92.5023E+06    -10.5834E+06    -15.6968E+06    -52.2873E-03     104.527E-03    -52.2395E-03     61.4433E-03    -52.3461E-03     104.188E-03    -52.1175E-03     60.9855E-03
            1002     6.83485E-03     100.820E-03    -24.4702E+06    -84.4890E+06    -5.66422E+06    -16.0821E+06    -52.3370E-03     104.471E-03    -52.1335E-03     69.6792E-03    -52.4262E-03     104.189E-03    -52.0039E-03     69.1569E-03
            1003     7.68996E-03     100.889E-03    -20.9221E+06    -81.0824E+06    -1.88924E+06    -16.2028E+06    -52.5132E-03     104.549E-03    -52.0357E-03     77.7178E-03    -52.6353E-03     104.314E-03    -51.8972E-03     77.1239E-03
            1004     8.54525E-03     100.964E-03    -17.8911E+06    -77.8961E+06    -1.55878E+06    -16.5606E+06    -52.8317E-03     104.770E-03    -51.9379E-03     85.6303E-03    -52.9983E-03     104.601E-03    -51.8068E-03     84.9486E-03
            1005     9.40030E-03     101.047E-03    -15.8886E+06    -71.3211E+06    -1.16453E+06    -18.2587E+06    -53.2941E-03     105.154E-03    -51.8604E-03     93.8479E-03    -53.5363E-03     105.090E-03    -51.7398E-03     93.0447E-03
            1006     10.2555E-03     101.137E-03    -14.7247E+06    -71.6228E+06    -3.76114E+06    -19.3327E+06    -53.9241E-03     105.732E-03    -51.8079E-03     102.137E-03    -54.2610E-03     105.773E-03    -51.7015E-03     101.201E-03
            1007     11.1100E-03     101.235E-03    -13.9930E+06    -65.3793E+06    -8.93102E+06    -19.0075E+06    -54.6438E-03     106.412E-03    -51.7682E-03     109.174E-03    -55.1197E-03     106.632E-03    -51.6977E-03     108.102E-03
            1008     11.9646E-03     101.339E-03    -13.0567E+06    -50.3049E+06    -8.10644E+06    -17.8374E+06    -55.6608E-03     107.450E-03    -51.7888E-03     117.149E-03    -56.3678E-03     107.955E-03    -51.7374E-03     115.921E-03
            1009     12.8176E-03     101.452E-03    -12.2204E+06    -35.4529E+06    -14.2061E+06    -15.5336E+06    -57.2792E-03     109.108E-03    -51.8291E-03     131.492E-03    -58.3981E-03     110.099E-03    -51.8310E-03     130.057E-03
            1010     13.6702E-03     101.586E-03    -12.5952E+06     12.9134E+06    -20.0981E+06    -10.6174E+06    -59.1526E-03     111.027E-03    -51.8746E-03     153.432E-03    -61.1222E-03     113.056E-03    -51.9756E-03     151.769E-03
            1011     14.5218E-03     101.743E-03    -13.8494E+06     85.6087E+06    -8.47825E+03     -3.8983E+06    -60.3036E-03     112.345E-03    -52.0412E-03     174.993E-03    -63.5340E-03     115.830E-03    -52.1453E-03     173.363E-03
            1012     15.3758E-03     101.923E-03    -11.5489E+06     137.487E+06     55.6286E+06    -572.174E+03    -59.8262E-03     112.233E-03    -52.4068E-03     180.925E-03    -64.2624E-03     116.955E-03    -52.3112E-03     179.978E-03
            1013     16.2249E-03     102.092E-03    -6.16776E+06     153.138E+06     96.4713E+06    -573.305E+03    -56.6453E-03     109.372E-03    -52.7271E-03     113.884E-03    -59.7668E-03     112.736E-03    -52.4579E-03     113.689E-03
            1014     854.332E-06     101.610E-03    -41.7066E+06    -112.447E+06    -40.8595E+06    -4.06903E+06    -52.0300E-03     104.050E-03    -52.0202E-03     10.1652E-03    -52.0174E-03     103.609E-03    -52.0009E-03     10.0845E-03
            1015     1.70874E-03     101.623E-03    -40.2417E+06    -109.694E+06    -37.3064E+06    -7.05926E+06    -51.9623E-03     103.959E-03    -51.9964E-03     18.5787E-03    -51.9544E-03     103.527E-03    -51.9655E-03     18.4341E-03
            1016     2.56329E-03     101.644E-03    -37.7295E+06    -105.308E+06    -31.7093E+06    -9.96840E+06    -51.8510E-03     103.795E-03    -51.9443E-03     27.4979E-03    -51.8502E-03     103.379E-03    -51.8954E-03     27.2872E-03
            1017     3.41802E-03     101.674E-03    -34.6832E+06    -101.361E+06    -24.9578E+06    -12.0760E+06    -51.7370E-03     103.610E-03    -51.8727E-03     36.4189E-03    -51.7442E-03     103.206E-03    -51.8003E-03     36.1491E-03
            1018     4.27301E-03     101.711E-03    -31.1660E+06    -96.0579E+06    -18.7388E+06    -13.9888E+06    -51.6137E-03     103.391E-03    -51.7770E-03     45.2628E-03    -51.6312E-03     103.011E-03    -51.6862E-03     44.9322E-03
            1019     5.12830E-03     101.757E-03    -27.8633E+06    -91.4554E+06    -13.4962E+06    -15.2774E+06    -51.5172E-03     103.180E-03    -51.6633E-03     54.0280E-03    -51.5480E-03     102.827E-03    -51.5577E-03     53.6393E-03
            1020     5.98386E-03     101.810E-03    -25.0352E+06    -88.5868E+06    -8.88431E+06    -16.3876E+06    -51.4751E-03     103.017E-03    -51.5422E-03     62.6688E-03    -51.5239E-03     102.689E-03    -51.4219E-03     62.2176E-03
            1021     6.83956E-03     101.871E-03    -22.2917E+06    -81.5761E+06    -5.34070E+06    -17.1284E+06    -51.5070E-03     102.917E-03    -51.4099E-03     71.2492E-03    -51.5861E-03     102.643E-03    -51.2860E-03     70.7325E-03
            1022     7.69561E-03     101.939E-03    -19.4693E+06    -78.7946E+06    -1.53724E+06    -17.4139E+06    -51.6966E-03     102.991E-03    -51.2945E-03     79.6871E-03    -51.8105E-03     102.761E-03    -51.1597E-03     79.0999E-03
            1023     8.55151E-03     102.015E-03    -16.5993E+06    -74.9813E+06    -531.155E+03    -17.8375E+06    -52.0775E-03     103.263E-03    -51.1854E-03     88.0266E-03    -52.2376E-03     103.099E-03    -51.0552E-03     87.3538E-03
            1024     9.40749E-03     102.097E-03    -14.6411E+06    -67.7610E+06     568.487E+03    -17.9732E+06    -52.6551E-03     103.760E-03    -51.1046E-03     96.6566E-03    -52.8924E-03     103.703E-03    -50.9822E-03     95.8845E-03
            1025     10.2629E-03     102.188E-03    -13.9125E+06    -68.5584E+06    -1.01056E+06    -18.9083E+06    -53.4888E-03     104.553E-03    -51.0643E-03     105.334E-03    -53.8238E-03     104.598E-03    -50.9498E-03     104.431E-03
            1026     11.1182E-03     102.287E-03    -13.4211E+06    -64.5786E+06    -7.73402E+06    -19.1871E+06    -54.5193E-03     105.562E-03    -51.0427E-03     112.658E-03    -54.9906E-03     105.779E-03    -50.9683E-03     111.608E-03
            1027     11.9724E-03     102.391E-03    -12.7214E+06    -49.9361E+06    -6.81908E+06    -18.3933E+06    -55.9037E-03     107.009E-03    -51.1053E-03     121.071E-03    -56.6099E-03     107.513E-03    -51.0485E-03     119.855E-03
            1028     12.8259E-03     102.507E-03    -12.2443E+06    -38.3677E+06    -13.0789E+06    -16.2873E+06    -57.8592E-03     109.065E-03    -51.2060E-03     135.645E-03    -58.9830E-03     110.047E-03    -51.1980E-03     134.207E-03
            1029     13.6782E-03     102.641E-03    -12.6421E+06     4.73938E+06    -20.0517E+06    -9.60545E+06    -60.0390E-03     111.360E-03    -51.3206E-03     157.241E-03    -62.0168E-03     113.368E-03    -51.4094E-03     155.583E-03
            1030     14.5298E-03     102.802E-03    -12.1280E+06     80.7522E+06    -3.93681E+06    -3.17865E+06    -61.2687E-03     112.803E-03    -51.5339E-03     176.667E-03    -64.4986E-03     116.288E-03    -51.6531E-03     175.027E-03
            1031     15.3798E-03     102.977E-03    -9.22771E+06     137.299E+06     49.6342E+06    -1.60777E+06    -60.2267E-03     112.170E-03    -51.9437E-03     180.049E-03    -64.6194E-03     116.874E-03    -51.8812E-03     179.087E-03
            1032     16.2347E-03     103.153E-03    -5.43334E+06     151.959E+06     95.1007E+06    -971.919E+03    -58.2366E-03     110.603E-03    -52.3669E-03     112.741E-03    -61.3150E-03     113.926E-03    -52.1038E-03     112.500E-03
            1033     854.967E-06     102.661E-03    -38.4864E+06    -103.632E+06    -37.5336E+06    -4.12747E+06    -51.2212E-03     102.446E-03    -51.2248E-03     10.3576E-03    -51.2101E-03     102.040E-03    -51.2064E-03     10.2782E-03
            1034     1.71009E-03     102.674E-03    -37.0159E+06    -100.890E+06    -34.3338E+06    -7.59615E+06    -51.0933E-03     102.272E-03    -51.1787E-03     18.8794E-03    -51.0862E-03     101.875E-03    -51.1504E-03     18.7319E-03
            1035     2.56538E-03     102.695E-03    -35.0179E+06    -97.9899E+06    -29.6393E+06    -10.5795E+06    -50.9590E-03     102.060E-03    -51.1013E-03     27.9716E-03    -50.9577E-03     101.673E-03    -51.0566E-03     27.7595E-03
            1036     3.42090E-03     102.724E-03    -32.2263E+06    -94.6372E+06    -24.2376E+06    -13.2679E+06    -50.7809E-03     101.782E-03    -51.0010E-03     37.1250E-03    -50.7856E-03     101.406E-03    -50.9383E-03     36.8492E-03
            1037     4.27676E-03     102.761E-03    -29.0863E+06    -90.5500E+06    -18.3176E+06    -15.2166E+06    -50.6114E-03     101.491E-03    -50.8792E-03     46.2391E-03    -50.6254E-03     101.133E-03    -50.7974E-03     45.9052E-03
            1038     5.13290E-03     102.806E-03    -25.8877E+06    -87.3986E+06    -12.5245E+06    -16.1278E+06    -50.4719E-03     101.215E-03    -50.7434E-03     55.2854E-03    -50.4976E-03     100.875E-03    -50.6418E-03     54.9017E-03
            1039     5.98934E-03     102.859E-03    -22.5607E+06    -83.7899E+06    -7.91615E+06    -17.2885E+06    -50.3904E-03     100.984E-03    -50.5933E-03     64.2929E-03    -50.4315E-03     100.670E-03    -50.4786E-03     63.8501E-03
            1040     6.84618E-03     102.920E-03    -19.4531E+06    -79.0794E+06    -4.61666E+06    -17.8847E+06    -50.4310E-03     100.868E-03    -50.4371E-03     73.2958E-03    -50.4957E-03     100.596E-03    -50.3174E-03     72.7932E-03
            1041     7.70303E-03     102.988E-03    -16.7204E+06    -75.4693E+06    -426.023E+03    -18.2079E+06    -50.6462E-03     100.948E-03    -50.3019E-03     82.2293E-03    -50.7464E-03     100.722E-03    -50.1703E-03     81.6599E-03
            1042     8.56005E-03     103.063E-03    -14.5976E+06    -72.8653E+06     1.49645E+06    -18.3986E+06    -51.1032E-03     101.289E-03    -50.1858E-03     91.0876E-03    -51.2517E-03     101.122E-03    -50.0514E-03     90.4391E-03
            1043     9.41674E-03     103.147E-03    -12.9001E+06    -66.0141E+06     2.29280E+06    -17.8226E+06    -51.8510E-03     101.951E-03    -50.1005E-03     100.230E-03    -52.0763E-03     101.890E-03    -49.9746E-03     99.4934E-03
            1044     10.2733E-03     103.238E-03    -11.8246E+06    -65.2748E+06     2.23833E+06    -17.8264E+06    -52.9779E-03     103.056E-03    -50.0779E-03     109.381E-03    -53.3045E-03     103.102E-03    -49.9549E-03     108.524E-03
            1045     11.1288E-03     103.338E-03    -12.4900E+06    -63.4247E+06    -5.69921E+06    -17.8077E+06    -54.4972E-03     104.590E-03    -50.0923E-03     117.209E-03    -54.9640E-03     104.803E-03    -50.0107E-03     116.205E-03
            1046     11.9832E-03     103.444E-03    -13.6710E+06    -47.3618E+06    -5.46286E+06    -18.1339E+06    -56.2934E-03     106.507E-03    -50.2140E-03     125.915E-03    -57.0116E-03     107.025E-03    -50.1528E-03     124.721E-03
            1047     12.8365E-03     103.561E-03    -14.0397E+06    -42.5098E+06    -12.1136E+06    -16.3969E+06    -58.6996E-03     109.103E-03    -50.4038E-03     140.401E-03    -59.8398E-03     110.078E-03    -50.3824E-03     138.966E-03
            1048     13.6878E-03     103.698E-03    -13.5434E+06    -4.09463E+06    -20.0481E+06    -10.3100E+06    -61.5030E-03     112.124E-03    -50.6208E-03     161.484E-03    -63.5023E-03     114.119E-03    -50.6955E-03     159.795E-03
            1049     14.5377E-03     103.860E-03    -11.8211E+06     76.8566E+06    -4.16374E+06    -4.98419E+06    -63.3304E-03     114.283E-03    -50.9523E-03     179.384E-03    -66.5991E-03     117.794E-03    -51.0674E-03     177.662E-03
            1050     15.3875E-03     104.038E-03    -9.00219E+06     136.082E+06     46.3614E+06    -2.28023E+06    -62.7289E-03     114.224E-03    -51.4948E-03     180.292E-03    -67.1474E-03     118.959E-03    -51.4473E-03     179.212E-03
            1051     16.2352E-03     104.206E-03    -4.75879E+06     150.829E+06     93.8093E+06    -498.223E+03    -59.8302E-03     111.889E-03    -52.0583E-03     113.551E-03    -62.9307E-03     115.236E-03    -51.8011E-03     113.244E-03
            1052     855.888E-06     103.710E-03    -34.9500E+06    -93.8833E+06    -34.8239E+06    -4.47665E+06    -50.1541E-03     100.216E-03    -50.0620E-03     10.5380E-03    -50.1433E-03     99.8491E-03    -50.0493E-03     10.4567E-03
            1053     1.71197E-03     103.723E-03    -33.8887E+06    -91.9010E+06    -31.9487E+06    -8.10701E+06    -49.9544E-03     100.009E-03    -50.0549E-03     19.3123E-03    -49.9479E-03     99.6487E-03    -50.0322E-03     19.1635E-03
            1054     2.56821E-03     103.744E-03    -31.9976E+06    -89.9465E+06    -28.0003E+06    -11.3079E+06    -49.7587E-03     99.7161E-03    -49.9574E-03     28.6141E-03    -49.7556E-03     99.3612E-03    -49.9206E-03     28.4009E-03
            1055     3.42483E-03     103.772E-03    -29.7714E+06    -87.1988E+06    -23.1146E+06    -14.1593E+06    -49.5242E-03     99.3549E-03    -49.8307E-03     38.0101E-03    -49.5278E-03     99.0101E-03    -49.7767E-03     37.7343E-03
            1056     4.28177E-03     103.809E-03    -27.4047E+06    -85.1271E+06    -17.8703E+06    -16.0695E+06    -49.2900E-03     98.9706E-03    -49.6806E-03     47.4457E-03    -49.3019E-03     98.6347E-03    -49.6068E-03     47.1162E-03
            1057     5.13909E-03     103.854E-03    -24.6129E+06    -82.8172E+06    -13.0340E+06    -17.4776E+06    -49.0945E-03     98.6049E-03    -49.5104E-03     56.8750E-03    -49.1163E-03     98.2830E-03    -49.4198E-03     56.4937E-03
            1058     5.99683E-03     103.906E-03    -21.6711E+06    -79.2766E+06    -8.36310E+06    -18.5179E+06    -48.9881E-03     98.3186E-03    -49.3305E-03     66.3294E-03    -49.0259E-03     98.0221E-03    -49.2259E-03     65.8952E-03
            1059     6.85477E-03     103.966E-03    -19.1112E+06    -76.4792E+06    -4.63870E+06    -18.8233E+06    -49.0330E-03     98.1861E-03    -49.1530E-03     75.8352E-03    -49.0934E-03     97.9203E-03    -49.0376E-03     75.3496E-03
            1060     7.71302E-03     104.034E-03    -17.1685E+06    -72.5589E+06    -1.37453E+06    -18.5898E+06    -49.2989E-03     98.2916E-03    -48.9927E-03     85.3700E-03    -49.3960E-03     98.0739E-03    -48.8694E-03     84.8295E-03
            1061     8.57117E-03     104.110E-03    -15.8138E+06    -71.1365E+06     939.343E+03    -18.2346E+06    -49.9009E-03     98.7713E-03    -48.8704E-03     94.8595E-03    -50.0474E-03     98.6063E-03    -48.7396E-03     94.2507E-03
            1062     9.42913E-03     104.194E-03    -14.8575E+06    -64.5306E+06     1.33851E+06    -17.7635E+06    -50.9279E-03     99.7188E-03    -48.7909E-03     104.619E-03    -51.1537E-03     99.6588E-03    -48.6691E-03     103.922E-03
            1063     10.2862E-03     104.287E-03    -14.5709E+06    -63.9958E+06     2.04273E+06    -16.8273E+06    -52.4876E-03     101.292E-03    -48.8044E-03     114.308E-03    -52.8210E-03     101.340E-03    -48.6802E-03     113.501E-03
            1064     11.1425E-03     104.388E-03    -14.4241E+06    -61.4388E+06    -4.15492E+06    -16.3679E+06    -54.5208E-03     103.405E-03    -48.8839E-03     122.598E-03    -54.9979E-03     103.625E-03    -48.7947E-03     121.642E-03
            1065     11.9969E-03     104.497E-03    -14.7391E+06    -44.3507E+06    -3.04754E+06    -16.7041E+06    -56.9318E-03     106.026E-03    -49.0943E-03     131.517E-03    -57.6677E-03     106.561E-03    -49.0239E-03     130.357E-03
            1066     12.8492E-03     104.616E-03    -15.4312E+06    -45.8452E+06    -9.91448E+06    -15.5741E+06    -59.9994E-03     109.407E-03    -49.4073E-03     146.166E-03    -61.1651E-03     110.384E-03    -49.3680E-03     144.735E-03
            1067     13.7001E-03     104.756E-03    -15.7070E+06    -9.78945E+06    -19.3810E+06    -11.9077E+06    -63.2722E-03     113.026E-03    -49.7535E-03     167.160E-03    -65.3169E-03     115.036E-03    -49.8134E-03     165.420E-03
            1068     14.5484E-03     104.921E-03    -14.5147E+06     72.7501E+06    -4.74298E+06    -7.46222E+06    -65.5952E-03     115.817E-03    -50.2218E-03     184.312E-03    -68.9397E-03     119.382E-03    -50.3299E-03     182.490E-03
            1069     15.3951E-03     105.098E-03    -11.4179E+06     133.066E+06     43.2051E+06    -3.73374E+06    -65.7775E-03     116.695E-03    -50.9179E-03     184.107E-03    -70.3144E-03     121.539E-03    -50.8783E-03     182.893E-03
            1070     16.2421E-03     105.271E-03    -5.31697E+06     148.926E+06     92.5326E+06    -1.16633E+06    -62.9302E-03     114.598E-03    -51.6678E-03     116.146E-03    -66.1217E-03     118.031E-03    -51.4133E-03     115.725E-03
            1071     857.231E-06     104.757E-03    -31.7961E+06    -83.1999E+06    -32.1756E+06    -5.31924E+06    -48.6490E-03     97.2404E-03    -48.5914E-03     10.7374E-03    -48.6417E-03     96.9183E-03    -48.5856E-03     10.6485E-03
            1072     1.71445E-03     104.769E-03    -30.9931E+06    -82.4005E+06    -30.1282E+06    -8.89812E+06    -48.4464E-03     97.0042E-03    -48.5578E-03     19.7876E-03    -48.4415E-03     96.6839E-03    -48.5440E-03     19.6350E-03
            1073     2.57209E-03     104.790E-03    -29.4289E+06    -81.5377E+06    -26.7624E+06    -12.1198E+06    -48.2053E-03     96.6502E-03    -48.4448E-03     29.3647E-03    -48.2026E-03     96.3308E-03    -48.4177E-03     29.1508E-03
            1074     3.42998E-03     104.818E-03    -27.9266E+06    -79.9518E+06    -22.6853E+06    -14.5623E+06    -47.9114E-03     96.2062E-03    -48.2948E-03     39.0565E-03    -47.9152E-03     95.8926E-03    -48.2518E-03     38.7893E-03
            1075     4.28834E-03     104.854E-03    -26.2172E+06    -78.9446E+06    -18.3177E+06    -16.7217E+06    -47.5951E-03     95.7091E-03    -48.1140E-03     48.8597E-03    -47.6067E-03     95.4002E-03    -48.0531E-03     48.5400E-03
            1076     5.14721E-03     104.898E-03    -24.1265E+06    -77.5739E+06    -13.9853E+06    -18.3235E+06    -47.3404E-03     95.2507E-03    -47.9103E-03     58.7411E-03    -47.3619E-03     94.9514E-03    -47.8327E-03     58.3721E-03
            1077     6.00641E-03     104.950E-03    -22.4799E+06    -75.7364E+06    -10.0604E+06    -18.8394E+06    -47.2171E-03     94.9162E-03    -47.6991E-03     68.7161E-03    -47.2556E-03     94.6349E-03    -47.6070E-03     68.3062E-03
            1078     6.86605E-03     105.009E-03    -21.1532E+06    -73.2767E+06    -6.65585E+06    -19.0606E+06    -47.2939E-03     94.7903E-03    -47.4964E-03     78.8118E-03    -47.3582E-03     94.5384E-03    -47.3928E-03     78.3568E-03
            1079     7.72579E-03     105.077E-03    -19.7576E+06    -71.1044E+06    -3.99132E+06    -18.4800E+06    -47.6858E-03     95.0070E-03    -47.3212E-03     88.9789E-03    -47.7841E-03     94.7941E-03    -47.2094E-03     88.4781E-03
            1080     8.58549E-03     105.154E-03    -18.5882E+06    -69.0232E+06    -1.03691E+06    -17.6986E+06    -48.5444E-03     95.7484E-03    -47.2040E-03     99.1558E-03    -48.6936E-03     95.5894E-03    -47.0822E-03     98.5951E-03
            1081     9.44456E-03     105.238E-03    -18.4636E+06    -64.3094E+06     46.9922E+03    -16.3278E+06    -50.0019E-03     97.1622E-03    -47.1603E-03     109.562E-03    -50.2329E-03     97.0991E-03    -47.0400E-03     108.924E-03
            1082     10.3028E-03     105.333E-03    -18.7523E+06    -62.5530E+06     1.69622E+06    -15.3319E+06    -52.0930E-03     99.3295E-03    -47.2365E-03     119.876E-03    -52.4401E-03     99.3830E-03    -47.1101E-03     119.125E-03
            1083     11.1590E-03     105.437E-03    -18.5212E+06    -58.6251E+06    -2.42904E+06    -16.1493E+06    -54.7092E-03     102.122E-03    -47.4126E-03     128.679E-03    -55.2103E-03     102.356E-03    -47.3129E-03     127.754E-03
            1084     12.0133E-03     105.548E-03    -18.1231E+06    -44.0951E+06    -1.28936E+06    -15.4708E+06    -57.7644E-03     105.506E-03    -47.7411E-03     137.928E-03    -58.5276E-03     106.052E-03    -47.6573E-03     136.797E-03
            1085     12.8656E-03     105.671E-03    -18.2854E+06    -45.4570E+06    -7.03685E+06    -14.9055E+06    -61.4707E-03     109.668E-03    -48.1970E-03     152.794E-03    -62.6797E-03     110.671E-03    -48.1397E-03     151.364E-03
            1086     13.7144E-03     105.815E-03    -16.9588E+06    -12.2683E+06    -15.7012E+06    -13.5198E+06    -65.3101E-03     114.015E-03    -48.7044E-03     173.428E-03    -67.4222E-03     116.069E-03    -48.7405E-03     171.622E-03
            1087     14.5625E-03     105.982E-03    -14.6573E+06     67.9974E+06    -893.589E+03    -9.18457E+06    -68.0818E-03     117.425E-03    -49.3430E-03     189.329E-03    -71.5090E-03     121.044E-03    -49.4248E-03     187.401E-03
            1088     15.4080E-03     106.165E-03    -11.3101E+06     129.390E+06     45.5217E+06    -5.26071E+06    -68.9661E-03     119.183E-03    -50.2169E-03     187.119E-03    -73.5964E-03     124.101E-03    -50.1605E-03     185.746E-03
            1089     16.2523E-03     106.334E-03    -5.77654E+06     146.413E+06     92.0257E+06    -2.63004E+06    -67.8239E-03     119.015E-03    -51.1915E-03     116.219E-03    -71.0636E-03     122.488E-03    -50.9353E-03     115.593E-03
            1090     858.703E-06     105.800E-03    -29.7730E+06    -71.6639E+06    -29.7699E+06    -5.53408E+06    -46.7140E-03     93.4514E-03    -46.7374E-03     11.0118E-03    -46.7167E-03     93.1803E-03    -46.7392E-03     10.9239E-03
            1091     1.71778E-03     105.812E-03    -29.1189E+06    -72.1386E+06    -28.7035E+06    -9.54583E+06    -46.5068E-03     93.1585E-03    -46.6516E-03     20.2777E-03    -46.5091E-03     92.8841E-03    -46.6483E-03     20.1240E-03
            1092     2.57692E-03     105.832E-03    -28.4077E+06    -73.1277E+06    -26.8799E+06    -12.7901E+06    -46.2235E-03     92.7378E-03    -46.5143E-03     30.1720E-03    -46.2267E-03     92.4581E-03    -46.5015E-03     29.9605E-03
            1093     3.43662E-03     105.860E-03    -27.2298E+06    -72.8742E+06    -23.9534E+06    -15.1387E+06    -45.8673E-03     92.2034E-03    -46.3361E-03     40.2187E-03    -45.8741E-03     91.9240E-03    -46.3107E-03     39.9595E-03
            1094     4.29676E-03     105.895E-03    -25.9162E+06    -72.4777E+06    -19.9563E+06    -16.9963E+06    -45.5017E-03     91.6284E-03    -46.1267E-03     50.4159E-03    -45.5155E-03     91.3504E-03    -46.0838E-03     50.1129E-03
            1095     5.15743E-03     105.938E-03    -25.2990E+06    -73.1958E+06    -16.3823E+06    -17.8080E+06    -45.1982E-03     91.0936E-03    -45.8954E-03     60.7750E-03    -45.2234E-03     90.8163E-03    -45.8345E-03     60.4383E-03
            1096     6.01864E-03     105.989E-03    -25.1161E+06    -72.3656E+06    -13.6025E+06    -17.8770E+06    -45.0768E-03     90.7321E-03    -45.6554E-03     71.3211E-03    -45.1211E-03     90.4694E-03    -45.5820E-03     70.9548E-03
            1097     6.88009E-03     106.049E-03    -25.6411E+06     -70.787E+06    -10.7549E+06    -17.3082E+06    -45.2782E-03     90.7166E-03    -45.4384E-03     82.0306E-03    -45.3532E-03     90.4801E-03    -45.3524E-03     81.6342E-03
            1098     7.74165E-03     106.117E-03    -26.8057E+06    -69.0723E+06    -7.88965E+06    -16.9800E+06    -45.9308E-03     91.2054E-03    -45.2746E-03     92.8366E-03    -46.0505E-03     91.0073E-03    -45.1750E-03     92.3944E-03
            1099     8.60285E-03     106.194E-03    -27.3730E+06    -67.4733E+06    -5.05790E+06    -16.6856E+06    -47.1871E-03     92.3807E-03    -45.1936E-03     103.687E-03    -47.3644E-03     92.2358E-03    -45.0814E-03     103.180E-03
            1100     9.46317E-03     106.281E-03    -26.7489E+06    -64.8979E+06    -2.82159E+06    -15.2669E+06    -49.1648E-03     94.3866E-03    -45.2219E-03     114.754E-03    -49.4208E-03     94.3253E-03    -45.1031E-03     114.170E-03
            1101     10.3218E-03     106.377E-03    -24.6456E+06    -59.4554E+06      628.81E+03    -15.4844E+06    -51.8162E-03     97.2066E-03    -45.3904E-03     125.698E-03    -52.1872E-03     97.2772E-03    -45.2653E-03     124.979E-03
            1102     11.1787E-03     106.484E-03    -22.4564E+06    -56.7680E+06    -1.16529E+06    -16.0197E+06    -55.1061E-03     100.802E-03    -45.6963E-03     135.067E-03    -55.6298E-03     101.048E-03    -45.5873E-03     134.168E-03
            1103     12.0328E-03     106.599E-03    -21.1370E+06    -44.1672E+06     169.998E+03    -15.2848E+06    -58.8974E-03     105.072E-03    -46.1746E-03     144.539E-03    -59.6892E-03     105.632E-03    -46.0791E-03     143.416E-03
            1104     12.8837E-03     106.727E-03    -19.1474E+06    -42.9408E+06    -3.29402E+06    -15.3157E+06    -63.2186E-03     110.023E-03    -46.8043E-03     159.163E-03    -64.4696E-03     111.063E-03    -46.7307E-03     157.708E-03
            1105     13.7326E-03     106.874E-03    -17.4175E+06    -12.9834E+06    -11.0673E+06    -15.6396E+06    -67.9587E-03     115.472E-03    -47.5131E-03     179.314E-03    -70.1473E-03     117.585E-03    -47.5244E-03     177.405E-03
            1106     14.5767E-03     107.047E-03    -14.3860E+06     62.4220E+06     4.45017E+06    -12.2768E+06    -71.3888E-03     119.770E-03    -48.3810E-03     193.018E-03    -74.8989E-03     123.438E-03    -48.4284E-03     190.920E-03
            1107     15.4197E-03     107.230E-03    -9.67962E+06     124.723E+06     50.9079E+06    -6.59731E+06    -73.1116E-03     122.607E-03    -49.4951E-03     189.841E-03    -77.8369E-03     127.593E-03    -49.4074E-03     188.228E-03
            1108     16.2580E-03     107.407E-03    -5.47348E+06     143.582E+06     91.8802E+06    -3.03127E+06    -73.7541E-03     124.484E-03    -50.7302E-03     118.543E-03    -77.0645E-03     128.019E-03    -50.4710E-03     117.652E-03
            1109     860.826E-06     106.839E-03    -25.3739E+06    -59.9232E+06    -25.6457E+06    -5.49054E+06    -44.3894E-03     88.7833E-03    -44.3939E-03     11.2374E-03    -44.3930E-03     88.5583E-03    -44.3984E-03     11.1543E-03
            1110     1.72166E-03     106.851E-03    -25.6860E+06    -61.7353E+06    -25.5584E+06    -9.27676E+06    -44.1236E-03     88.4285E-03    -44.3049E-03     20.8045E-03    -44.1278E-03     88.1960E-03    -44.3060E-03     20.6618E-03
            1111     2.58308E-03     106.870E-03    -26.3504E+06    -64.7363E+06    -25.6627E+06    -12.4742E+06    -43.7889E-03     87.9297E-03    -44.1409E-03     30.9924E-03    -43.7945E-03     87.6858E-03    -44.1371E-03     30.7968E-03
            1112     3.44481E-03     106.897E-03    -27.3174E+06    -65.8055E+06    -26.1021E+06    -14.8152E+06    -43.3872E-03     87.3143E-03    -43.9271E-03     41.3819E-03    -43.3994E-03     87.0709E-03    -43.9225E-03     41.1432E-03
            1113     4.30715E-03     106.931E-03    -28.6016E+06    -67.4858E+06    -25.2476E+06    -15.7819E+06    -42.9853E-03     86.6709E-03    -43.6855E-03     51.9881E-03    -43.0084E-03     86.4255E-03    -43.6724E-03     51.7221E-03
            1114     5.17001E-03     106.974E-03    -30.2317E+06    -69.9942E+06    -22.6987E+06    -15.5281E+06    -42.7002E-03     86.1367E-03    -43.4365E-03     62.8310E-03    -42.7399E-03     85.8858E-03    -43.4046E-03     62.5501E-03
            1115     6.03337E-03     107.025E-03    -32.6035E+06    -69.9378E+06    -19.7897E+06    -14.6383E+06    -42.6915E-03     85.8875E-03    -43.1960E-03     73.9339E-03    -42.7600E-03     85.6488E-03    -43.1463E-03     73.6406E-03
            1116     6.89697E-03     107.084E-03    -34.8231E+06    -68.9905E+06    -16.0328E+06    -13.8521E+06    -43.1485E-03     86.1511E-03    -43.0026E-03     85.2257E-03    -43.2545E-03     85.9346E-03    -42.9323E-03     84.9090E-03
            1117     7.76035E-03     107.153E-03    -35.6662E+06    -65.9072E+06    -11.3479E+06    -14.0810E+06    -44.2252E-03     87.1164E-03    -42.8911E-03     96.6477E-03    -44.3774E-03     86.9405E-03    -42.8006E-03     96.2799E-03
            1118     8.62290E-03     107.231E-03    -35.6394E+06    -65.7464E+06    -7.91702E+06    -14.6365E+06    -46.0045E-03     88.8973E-03    -42.8928E-03     108.121E-03    -46.2097E-03     88.7654E-03    -42.7854E-03     107.678E-03
            1119     9.48415E-03     107.319E-03    -34.2035E+06    -63.3645E+06    -5.57883E+06    -15.4834E+06    -48.5041E-03     91.5302E-03    -43.0261E-03     119.893E-03    -48.7847E-03     91.4805E-03    -42.9125E-03     119.341E-03
            1120     10.3436E-03     107.419E-03    -31.2700E+06    -54.9979E+06    -1.29855E+06    -17.3534E+06    -51.7766E-03     95.0987E-03    -43.3220E-03     131.491E-03    -52.1775E-03     95.1972E-03    -43.2035E-03     130.777E-03
            1121     11.2004E-03     107.530E-03    -27.2759E+06    -56.7006E+06    -1.96981E+06    -18.1872E+06    -55.8126E-03     99.6047E-03    -43.7921E-03     141.369E-03    -56.3613E-03     99.8612E-03    -43.6801E-03     140.458E-03
            1122     12.0538E-03     107.650E-03    -22.7276E+06    -43.1424E+06     720.474E+03    -17.1897E+06    -60.2969E-03     104.746E-03    -44.4491E-03     151.080E-03    -61.1125E-03     105.326E-03    -44.3500E-03     149.930E-03
            1123     12.9040E-03     107.782E-03    -18.6582E+06    -40.5657E+06    -1.06865E+06    -17.8630E+06    -65.5368E-03     110.822E-03    -45.2849E-03     165.793E-03    -66.8343E-03     111.913E-03    -45.2044E-03     164.262E-03
            1124     13.7495E-03     107.936E-03    -15.1625E+06    -12.6771E+06    -6.88452E+06    -17.7964E+06    -71.1517E-03     117.385E-03    -46.2330E-03     185.788E-03    -73.4111E-03     119.566E-03    -46.2271E-03     183.754E-03
            1125     14.5924E-03     108.114E-03    -12.8532E+06     57.5786E+06     8.23086E+06    -14.2916E+06    -75.7437E-03     123.113E-03    -47.3697E-03     197.978E-03    -79.3609E-03     126.867E-03    -47.3934E-03     195.657E-03
            1126     15.4309E-03     108.300E-03    -9.39454E+06     117.444E+06     51.1012E+06    -8.03555E+06    -78.7815E-03     127.561E-03    -48.7797E-03     193.191E-03    -83.6362E-03     132.652E-03    -48.6809E-03     191.239E-03
            1127     16.2682E-03     108.483E-03    -5.72211E+06     140.390E+06     89.9928E+06    -2.76009E+06    -79.6802E-03     130.005E-03    -50.3246E-03     120.874E-03    -83.0716E-03     133.614E-03    -50.0699E-03     119.708E-03
            1128     863.096E-06     107.872E-03    -25.2693E+06    -48.9037E+06    -25.3435E+06    -4.95718E+06    -41.5521E-03     83.1204E-03    -41.5683E-03     11.5026E-03    -41.5715E-03     82.9495E-03    -41.5875E-03     11.4305E-03
            1129     1.72666E-03     107.884E-03    -26.5520E+06    -52.3183E+06    -27.0924E+06    -8.26640E+06    -41.2933E-03     82.7623E-03    -41.4689E-03     21.2710E-03    -41.3128E-03     82.5796E-03    -41.4900E-03     21.1491E-03
            1130     2.59032E-03     107.902E-03    -28.4014E+06    -57.1397E+06    -29.2538E+06    -10.7548E+06    -40.9195E-03     82.2130E-03    -41.2935E-03     31.7109E-03    -40.9399E-03     82.0137E-03    -41.3157E-03     31.5491E-03
            1131     3.45464E-03     107.928E-03    -31.6516E+06    -60.3346E+06    -32.1855E+06    -11.7953E+06    -40.4906E-03     81.5524E-03    -41.0618E-03     42.4151E-03    -40.5211E-03     81.3489E-03    -41.0893E-03     42.2314E-03
            1132     4.31945E-03     107.962E-03    -36.0384E+06    -63.9923E+06    -33.4310E+06    -11.8731E+06    -40.1224E-03     80.9325E-03    -40.8101E-03     53.3971E-03    -40.1719E-03     80.7231E-03    -40.8322E-03     53.2021E-03
            1133     5.18488E-03     108.004E-03    -40.1636E+06    -68.1401E+06    -31.0261E+06    -11.1717E+06    -39.9961E-03     80.5726E-03    -40.5765E-03     64.6859E-03    -40.0702E-03     80.3515E-03    -40.5746E-03     64.4859E-03
            1134     6.05053E-03     108.055E-03    -43.0846E+06    -69.1501E+06    -25.6323E+06    -9.68711E+06    -40.2833E-03     80.6714E-03    -40.3882E-03     76.2609E-03    -40.3890E-03     80.4525E-03    -40.3536E-03     76.0596E-03
            1135     6.91611E-03     108.114E-03    -44.1968E+06    -65.4823E+06    -19.2882E+06    -10.3159E+06    -41.1402E-03     81.4102E-03    -40.2700E-03     88.1132E-03    -41.2839E-03     81.2200E-03    -40.2074E-03     87.8725E-03
            1136     7.78104E-03     108.184E-03    -43.3861E+06    -62.8920E+06    -13.9868E+06    -12.1152E+06    -42.7050E-03     82.9615E-03    -40.2565E-03     100.170E-03    -42.8856E-03     82.8050E-03    -40.1723E-03     99.8598E-03
            1137     8.64488E-03     108.264E-03    -40.9655E+06    -62.5485E+06    -9.50640E+06    -13.6143E+06    -45.0223E-03     85.4038E-03    -40.3815E-03     112.321E-03    -45.2457E-03     85.2871E-03    -40.2789E-03     111.923E-03
            1138     9.50687E-03     108.355E-03    -37.3920E+06    -58.3783E+06    -5.73609E+06    -16.6271E+06    -48.0958E-03     88.7549E-03    -40.6591E-03     124.785E-03    -48.3899E-03     88.7256E-03    -40.5489E-03     124.248E-03
            1139     10.3667E-03     108.459E-03    -33.0735E+06    -50.7304E+06    -1.71476E+06    -19.2940E+06    -52.0372E-03     93.1525E-03    -41.1153E-03     137.233E-03    -52.4481E-03     93.2711E-03    -41.0024E-03     136.517E-03
            1140     11.2231E-03     108.575E-03    -29.0497E+06    -54.5232E+06    -2.37169E+06    -21.1746E+06    -56.7313E-03     98.5002E-03    -41.7689E-03     147.833E-03    -57.2954E-03     98.7750E-03    -41.6596E-03     146.895E-03
            1141     12.0760E-03     108.700E-03    -24.2089E+06    -42.5820E+06    -339.634E+03    -21.6828E+06    -61.9374E-03     104.559E-03    -42.6216E-03     158.058E-03    -62.7770E-03     105.163E-03    -42.5265E-03     156.842E-03
            1142     12.9248E-03     108.839E-03    -19.4058E+06    -38.4678E+06    -689.949E+03    -21.5660E+06    -68.0631E-03     111.742E-03    -43.6784E-03     173.432E-03    -69.4174E-03     112.893E-03    -43.5980E-03     171.803E-03
            1143     13.7691E-03     108.999E-03    -15.9261E+06    -12.3914E+06    -4.82362E+06    -21.2166E+06    -74.7607E-03     119.643E-03    -44.8824E-03     193.352E-03    -77.1165E-03     121.914E-03    -44.8655E-03     191.151E-03
            1144     14.6086E-03     109.184E-03    -11.7665E+06     51.1347E+06      9.9357E+06    -16.2061E+06    -80.9974E-03     127.315E-03    -46.3173E-03     204.901E-03    -84.7709E-03     131.201E-03    -46.3247E-03     202.284E-03
            1145     15.4422E-03     109.378E-03    -8.89843E+06     109.215E+06     48.1666E+06    -8.50047E+06    -85.2477E-03     133.299E-03    -48.0510E-03     198.893E-03    -90.2992E-03     138.568E-03    -47.9557E-03     196.529E-03
            1146     16.2678E-03     109.564E-03    -5.27141E+06     135.892E+06     86.0599E+06    -2.82462E+06    -85.6989E-03     135.623E-03    -49.9240E-03     126.120E-03    -89.2205E-03     139.359E-03    -49.6831E-03     124.630E-03
            1147     866.186E-06     108.900E-03    -30.3949E+06    -39.6954E+06    -30.7349E+06    -3.74513E+06    -38.2850E-03     76.5581E-03    -38.2731E-03     11.7353E-03    -38.3355E-03     76.4482E-03    -38.3251E-03     11.6825E-03
            1148     1.73217E-03     108.911E-03    -32.7186E+06    -44.7051E+06    -34.3022E+06    -6.40923E+06    -38.0406E-03     76.2282E-03    -38.1876E-03     21.5491E-03    -38.0910E-03     76.1023E-03    -38.2468E-03     21.4581E-03
            1149     2.59885E-03     108.929E-03    -36.6629E+06     -52.111E+06    -38.6356E+06    -7.45282E+06    -37.6660E-03     75.6828E-03    -38.0168E-03     32.1985E-03    -37.7201E-03     75.5328E-03    -38.0812E-03     32.0899E-03
            1150     3.46589E-03     108.954E-03    -41.5683E+06    -58.0699E+06    -41.1422E+06    -6.73499E+06    -37.3026E-03     75.1080E-03    -37.8054E-03     43.1540E-03    -37.3706E-03     74.9407E-03    -37.8667E-03     43.0498E-03
            1151     4.33354E-03     108.987E-03    -46.4632E+06    -61.8316E+06    -40.2140E+06    -5.85151E+06    -37.1385E-03     74.7370E-03    -37.5984E-03     54.4464E-03    -37.2296E-03     74.5594E-03    -37.6425E-03     54.3466E-03
            1152     5.20135E-03     109.029E-03    -50.1865E+06    -67.1052E+06    -35.3720E+06    -5.59639E+06    -37.3498E-03     74.7930E-03    -37.4432E-03     66.0917E-03    -37.4638E-03     74.5925E-03    -37.4499E-03     65.9841E-03
            1153     6.06922E-03     109.079E-03    -50.8535E+06    -67.7257E+06    -28.2760E+06    -6.17458E+06    -38.0529E-03     75.4090E-03    -37.3562E-03     78.1149E-03    -38.1888E-03     75.2054E-03    -37.3256E-03     77.9815E-03
            1154     6.93651E-03     109.140E-03    -49.1352E+06    -60.6882E+06    -21.0073E+06    -8.04140E+06    -39.3605E-03     76.7156E-03    -37.3550E-03     90.5541E-03    -39.5249E-03     76.5506E-03    -37.3008E-03     90.3677E-03
            1155     7.80296E-03     109.211E-03    -47.2107E+06    -59.3018E+06    -15.4818E+06    -10.4352E+06    -41.3998E-03     78.8821E-03    -37.4823E-03     103.293E-03    -41.5930E-03     78.7417E-03    -37.4052E-03     103.031E-03
            1156     8.66773E-03     109.294E-03    -44.6313E+06    -56.7332E+06    -10.6833E+06    -14.1232E+06    -44.1999E-03     81.9580E-03    -37.7581E-03     116.217E-03    -44.4383E-03     81.8674E-03    -37.6645E-03     115.839E-03
            1157     9.53054E-03     109.388E-03    -40.3277E+06    -51.4475E+06    -6.28545E+06    -18.8782E+06    -47.8443E-03     86.0456E-03    -38.2014E-03     129.582E-03    -48.1539E-03     86.0477E-03    -38.0997E-03     129.040E-03
            1158     10.3903E-03     109.496E-03    -35.5771E+06    -47.0557E+06    -3.15013E+06    -21.9693E+06    -52.3578E-03     91.1909E-03    -38.8331E-03     143.153E-03    -52.7802E-03     91.3293E-03    -38.7290E-03     142.424E-03
            1159     11.2469E-03     109.618E-03    -30.4674E+06    -49.7344E+06    -2.37985E+06    -24.5641E+06    -57.6796E-03     97.3552E-03    -39.6755E-03     154.734E-03    -58.2610E-03     97.6593E-03    -39.5711E-03     153.763E-03
            1160     12.0990E-03     109.750E-03    -25.4999E+06    -40.8850E+06    -840.184E+03    -26.1980E+06    -63.6999E-03     104.431E-03    -40.7309E-03     165.787E-03    -64.5690E-03     105.067E-03    -40.6388E-03     164.500E-03
            1161     12.9464E-03     109.895E-03    -20.3224E+06    -37.3878E+06     60.3880E+03    -26.1449E+06    -70.7325E-03     112.749E-03    -42.0163E-03     181.892E-03    -72.1438E-03     113.956E-03    -41.9323E-03     180.151E-03
            1162     13.7888E-03     110.064E-03    -15.8411E+06    -11.6600E+06    -1.31671E+06    -24.4872E+06    -78.9685E-03     122.462E-03    -43.4937E-03     202.118E-03    -81.4459E-03     124.848E-03    -43.4604E-03     199.713E-03
            1163     14.6244E-03     110.258E-03    -13.6778E+06     41.5475E+06     9.70697E+06    -18.5189E+06    -86.2114E-03     131.439E-03    -45.2274E-03     213.641E-03    -90.1693E-03     135.469E-03    -45.2193E-03     210.713E-03
            1164     15.4534E-03     110.462E-03    -10.1197E+06     99.3516E+06     43.3283E+06    -9.33773E+06    -90.5126E-03     137.747E-03    -47.2347E-03     207.464E-03    -95.7770E-03     143.204E-03    -47.1474E-03     204.727E-03
            1165     16.2824E-03     110.653E-03    -5.52672E+06     131.373E+06     82.3846E+06    -3.26079E+06    -92.8385E-03     142.266E-03    -49.4280E-03     133.931E-03    -96.5179E-03     146.156E-03    -49.1985E-03     132.043E-03
            1166     869.025E-06     109.920E-03    -36.2441E+06    -33.2580E+06    -37.5809E+06    -2.65619E+06    -34.7032E-03     69.3932E-03    -34.6900E-03     11.7273E-03    -34.7822E-03     69.3337E-03    -34.7771E-03     11.6914E-03
            1167     1.73858E-03     109.931E-03    -40.5441E+06    -40.9336E+06    -42.5675E+06    -2.63931E+06    -34.4559E-03     69.0581E-03    -34.6022E-03     21.5808E-03    -34.5384E-03     68.9737E-03    -34.6969E-03     21.5439E-03
            1168     2.60812E-03     109.948E-03    -46.9723E+06    -51.3761E+06    -46.3784E+06    -1.17546E+06    -34.2139E-03     68.6764E-03    -34.4625E-03     32.3010E-03    -34.3082E-03     68.5550E-03    -34.5518E-03     32.2817E-03
            1169     3.47827E-03     109.973E-03    -53.3707E+06    -57.9621E+06    -47.7611E+06     92.3599E+03    -34.0934E-03     68.4124E-03    -34.3190E-03     43.4308E-03    -34.2088E-03     68.2702E-03    -34.3964E-03     43.4255E-03
            1170     4.34846E-03     110.005E-03    -57.2279E+06    -60.6413E+06    -44.4287E+06    -147.311E+03    -34.2864E-03     68.5023E-03    -34.2159E-03     54.9811E-03    -34.4236E-03     68.3492E-03    -34.2671E-03     54.9681E-03
            1171     5.21870E-03     110.047E-03    -57.6100E+06    -65.1577E+06    -37.7052E+06    -1.64729E+06    -34.9239E-03     69.1135E-03    -34.1896E-03     66.9723E-03    -35.0700E-03     68.9325E-03    -34.2001E-03     66.9309E-03
            1172     6.08832E-03     110.098E-03    -55.8020E+06    -63.5306E+06    -30.6366E+06    -4.71598E+06    -36.0554E-03     70.2972E-03    -34.2417E-03     79.4738E-03    -36.2129E-03     70.1194E-03    -34.2219E-03     79.3767E-03
            1173     6.95735E-03     110.161E-03    -52.8120E+06    -56.9175E+06    -23.4171E+06    -7.43181E+06    -37.7817E-03     72.1780E-03    -34.3962E-03     92.5162E-03    -37.9591E-03     72.0334E-03    -34.3542E-03     92.3574E-03
            1174     7.82491E-03     110.234E-03    -48.3333E+06    -53.9237E+06    -16.3062E+06    -10.5918E+06    -40.2367E-03     74.9240E-03    -34.6873E-03     106.003E-03    -40.4334E-03     74.8048E-03    -34.6205E-03     105.761E-03
            1175     8.69079E-03     110.320E-03    -42.6977E+06    -48.7601E+06    -9.90930E+06    -15.5861E+06    -43.4658E-03     78.5925E-03    -35.1266E-03     119.842E-03    -43.6978E-03     78.5284E-03    -35.0436E-03     119.469E-03
            1176     9.55404E-03     110.419E-03    -38.1036E+06    -44.2425E+06    -5.30312E+06    -20.2527E+06    -47.5711E-03     83.3078E-03    -35.7366E-03     134.307E-03    -47.8725E-03     83.3323E-03    -35.6438E-03     133.773E-03
            1177     10.4145E-03     110.532E-03    -34.2708E+06    -41.7165E+06    -2.02566E+06    -23.8450E+06    -52.6282E-03     89.1705E-03    -36.5423E-03     148.992E-03    -53.0476E-03     89.3265E-03    -36.4422E-03     148.259E-03
            1178     11.2709E-03     110.659E-03    -30.6881E+06    -43.9554E+06    -886.663E+03    -27.3969E+06    -58.5596E-03     96.1248E-03    -37.5651E-03     161.794E-03    -59.1542E-03     96.4576E-03    -37.4613E-03     160.800E-03
            1179     12.1225E-03     110.799E-03    -26.7317E+06    -37.4345E+06    -11.5042E+03    -29.9270E+06    -65.3756E-03     104.188E-03    -38.8129E-03     173.971E-03    -66.2752E-03     104.861E-03    -38.7199E-03     172.627E-03
            1180     12.9690E-03     110.952E-03    -21.8338E+06    -35.0686E+06     1.33297E+06    -31.3296E+06    -73.6751E-03     113.999E-03    -40.3239E-03     191.265E-03    -75.1542E-03     115.274E-03    -40.2347E-03     189.391E-03
            1181     13.8086E-03     111.131E-03    -17.4016E+06    -15.9806E+06     1.14599E+06    -28.1868E+06    -83.0235E-03     125.093E-03    -42.0693E-03     213.105E-03    -85.6279E-03     127.577E-03    -42.0152E-03     210.500E-03
            1182     14.6409E-03     111.338E-03    -14.1063E+06     30.5716E+06     10.5373E+06    -18.9395E+06    -90.9046E-03     134.973E-03    -44.0684E-03     224.154E-03    -95.0377E-03     139.136E-03    -44.0396E-03     220.957E-03
            1183     15.4696E-03     111.546E-03    -11.7513E+06     91.9269E+06     40.8403E+06    -11.4797E+06    -97.0149E-03     143.380E-03    -46.3654E-03     215.340E-03    -102.502E-03     149.037E-03    -46.2775E-03     212.091E-03
            1184     16.2882E-03     111.748E-03    -6.34392E+06     124.544E+06     80.2194E+06    -5.83397E+06    -101.060E-03     150.003E-03    -48.9430E-03     139.887E-03    -104.900E-03     154.032E-03    -48.7132E-03     137.451E-03
            1185     872.495E-06     110.933E-03    -51.2918E+06    -33.9467E+06    -48.8666E+06     3.27395E+06    -30.9343E-03     61.8743E-03    -30.9400E-03     11.5460E-03    -31.0710E-03     61.8494E-03    -31.0607E-03     11.5888E-03
            1186     1.74498E-03     110.943E-03    -58.9840E+06    -43.0563E+06    -55.1151E+06     5.31733E+06    -30.8181E-03     61.7041E-03    -30.8860E-03     21.2970E-03    -30.9710E-03     61.6536E-03    -31.0136E-03     21.3667E-03
            1187     2.61794E-03     110.960E-03    -64.4524E+06    -53.3284E+06    -56.9238E+06     6.08256E+06    -30.8433E-03     61.6785E-03    -30.8352E-03     31.9356E-03    -31.0059E-03     61.5871E-03    -30.9491E-03     32.0155E-03
            1188     3.49066E-03     110.984E-03    -65.5875E+06    -57.9104E+06    -53.7239E+06     5.09432E+06    -31.1102E-03     61.9340E-03    -30.8238E-03     43.1804E-03    -31.2765E-03     61.8169E-03    -30.9134E-03     43.2468E-03
            1189     4.36339E-03     111.017E-03    -64.2345E+06    -59.0998E+06    -47.5729E+06     3.15245E+06    -31.7190E-03     62.5920E-03    -30.8730E-03     54.9439E-03    -31.8865E-03     62.4590E-03    -30.9321E-03     54.9822E-03
            1190     5.23549E-03     111.060E-03    -61.4599E+06    -60.6211E+06    -40.6431E+06    -761.468E+03    -32.7420E-03     63.7419E-03    -31.0000E-03     67.2715E-03    -32.9062E-03     63.5901E-03    -31.0262E-03     67.2522E-03
            1191     6.10709E-03     111.113E-03    -56.7582E+06    -57.9287E+06    -32.6494E+06    -5.43252E+06    -34.2589E-03     65.4752E-03    -31.2164E-03     80.2597E-03    -34.4216E-03     65.3251E-03    -31.2133E-03     80.1663E-03
            1192     6.97732E-03     111.177E-03    -50.8073E+06    -53.0971E+06    -23.8487E+06    -8.89716E+06    -36.3582E-03     67.9007E-03    -31.5425E-03     93.9331E-03    -36.5242E-03     67.7668E-03    -31.5111E-03     93.7712E-03
            1193     7.84627E-03     111.253E-03    -44.6364E+06    -46.7044E+06    -15.9377E+06    -13.1123E+06    -39.1196E-03     71.1094E-03    -31.9899E-03     108.246E-03    -39.3007E-03     71.0123E-03    -31.9371E-03     107.990E-03
            1194     8.71296E-03     111.342E-03    -39.0701E+06    -40.9567E+06    -9.13933E+06    -18.0839E+06    -42.6748E-03     75.2570E-03    -32.5822E-03     123.090E-03    -42.8911E-03     75.2157E-03    -32.5119E-03     122.707E-03
            1195     9.57727E-03     111.446E-03    -34.0465E+06    -38.4293E+06    -3.39098E+06    -21.3975E+06    -47.2070E-03     80.5559E-03    -33.3489E-03     138.713E-03    -47.4887E-03     80.5903E-03    -33.2607E-03     138.189E-03
            1196     10.4379E-03     111.564E-03    -30.0154E+06    -34.5700E+06     1.23051E+06    -24.6938E+06    -52.7948E-03     87.1061E-03    -34.3113E-03     154.692E-03    -53.1995E-03     87.2785E-03    -34.2115E-03     153.972E-03
            1197     11.2944E-03     111.699E-03    -25.9428E+06    -36.9999E+06     2.99159E+06    -28.9533E+06    -59.3196E-03     94.8163E-03    -35.4968E-03     168.770E-03    -59.9036E-03     95.1691E-03    -35.3905E-03     167.773E-03
            1198     12.1460E-03     111.846E-03    -22.1795E+06    -33.2477E+06     3.35875E+06    -31.2895E+06    -66.9968E-03     103.918E-03    -36.9213E-03     182.408E-03    -67.8966E-03     104.613E-03    -36.8242E-03     181.043E-03
            1199     12.9910E-03     112.010E-03    -21.0695E+06    -31.5212E+06     4.01489E+06    -32.4903E+06    -76.3007E-03     114.933E-03    -38.6326E-03     201.588E-03    -77.8319E-03     116.268E-03    -38.5363E-03     199.648E-03
            1200     13.8291E-03     112.201E-03    -19.2896E+06    -20.4085E+06     2.90377E+06    -31.5617E+06    -86.4234E-03     127.024E-03    -40.6007E-03     224.483E-03    -89.1190E-03     129.573E-03    -40.5286E-03     221.716E-03
            1201     14.6617E-03     112.417E-03    -12.9494E+06     16.4848E+06     10.8352E+06    -24.0919E+06    -96.3571E-03     139.217E-03    -42.8602E-03     235.300E-03    -100.658E-03     143.503E-03    -42.8112E-03     231.699E-03
            1202     15.4823E-03     112.640E-03    -5.77984E+06     83.8073E+06     41.3359E+06    -11.8198E+06    -105.202E-03     150.704E-03    -45.5021E-03     226.300E-03    -110.999E-03     156.662E-03    -45.4086E-03     222.379E-03
            1203     16.2939E-03     112.855E-03    -3.70122E+06     119.227E+06     79.6380E+06    -4.49697E+06    -109.506E-03     157.995E-03    -48.4898E-03     149.596E-03    -113.596E-03     162.268E-03    -48.2591E-03     146.579E-03
            1204     875.745E-06     111.937E-03    -81.3573E+06    -45.9449E+06    -77.8681E+06     9.38136E+06    -27.3065E-03     54.5386E-03    -27.2321E-03     11.0741E-03    -27.5340E-03     54.5394E-03    -27.4368E-03     11.1969E-03
            1205     1.75154E-03     111.948E-03    -79.2732E+06    -49.4816E+06    -71.2880E+06     11.7113E+06    -27.4790E-03     54.8052E-03    -27.3262E-03     20.6928E-03    -27.7002E-03     54.7753E-03    -27.4960E-03     20.8470E-03
            1206     2.62690E-03     111.965E-03    -76.6737E+06    -53.9433E+06    -65.6427E+06     9.64694E+06    -27.8843E-03     55.3169E-03    -27.4327E-03     31.2458E-03    -28.0938E-03     55.2524E-03    -27.5715E-03     31.3746E-03
            1207     3.50226E-03     111.990E-03    -73.0054E+06    -56.2411E+06    -59.4256E+06     5.56754E+06    -28.5291E-03     56.1161E-03    -27.5871E-03     42.4675E-03    -28.7256E-03     56.0256E-03    -27.6968E-03     42.5438E-03
            1208     4.37691E-03     112.024E-03    -67.0576E+06    -55.9403E+06    -52.0077E+06     1.37383E+06    -29.4712E-03     57.2691E-03    -27.7979E-03     54.3487E-03    -29.6494E-03     57.1610E-03    -27.8796E-03     54.3691E-03
            1209     5.25106E-03     112.068E-03    -59.2313E+06    -53.6576E+06    -42.5226E+06    -3.92357E+06    -30.8055E-03     58.8888E-03    -28.0833E-03     66.9749E-03    -30.9635E-03     58.7690E-03    -28.1323E-03     66.9217E-03
            1210     6.12399E-03     112.122E-03    -51.6627E+06    -52.3737E+06    -32.6444E+06    -8.91751E+06    -32.6309E-03     61.0905E-03    -28.4596E-03     80.4206E-03    -32.7724E-03     60.9571E-03    -28.4720E-03     80.2916E-03
            1211     6.99586E-03     112.188E-03    -44.7703E+06    -48.0588E+06    -23.6317E+06    -12.5106E+06    -34.9911E-03     63.9224E-03    -28.9312E-03     94.6802E-03    -35.1291E-03     63.7992E-03    -28.9148E-03     94.4843E-03
            1212     7.86574E-03     112.268E-03    -38.6777E+06    -39.5365E+06    -15.1053E+06    -16.0848E+06    -37.9786E-03     67.4918E-03    -29.5133E-03     109.774E-03    -38.1335E-03     67.4128E-03    -29.4754E-03     109.497E-03
            1213     8.73379E-03     112.361E-03    -34.0391E+06    -34.2477E+06    -7.37318E+06    -19.5498E+06    -41.8099E-03     72.0480E-03    -30.2381E-03     125.609E-03    -42.0026E-03     72.0197E-03    -30.1759E-03     125.230E-03
            1214     9.59865E-03     112.469E-03    -29.9648E+06    -32.6040E+06    -918.522E+03    -23.2306E+06    -46.7025E-03     77.8358E-03    -31.1333E-03     142.491E-03    -46.9627E-03     77.8768E-03    -31.0472E-03     141.968E-03
            1215     10.4601E-03     112.594E-03    -24.9609E+06    -28.3350E+06     4.65995E+06    -26.2860E+06    -52.7136E-03     84.9347E-03    -32.2211E-03     159.899E-03    -53.0926E-03     85.1116E-03    -32.1205E-03     159.186E-03
            1216     11.3171E-03     112.736E-03    -21.1314E+06    -28.8106E+06     7.57096E+06    -29.8044E+06    -59.8674E-03     93.4071E-03    -33.5397E-03     175.545E-03    -60.4340E-03     93.7754E-03    -33.4294E-03     174.561E-03
            1217     12.1681E-03     112.893E-03    -19.2758E+06    -31.5299E+06     6.36892E+06    -31.1635E+06    -68.4059E-03     103.522E-03    -35.1162E-03     191.103E-03    -69.2993E-03     104.218E-03    -35.0107E-03     189.746E-03
            1218     13.0129E-03     113.068E-03    -17.8210E+06    -27.0950E+06     8.26762E+06    -30.2996E+06    -78.4998E-03     115.494E-03    -36.9940E-03     211.716E-03    -80.0461E-03     116.859E-03    -36.8875E-03     209.776E-03
            1219     13.8508E-03     113.270E-03    -15.8492E+06    -16.5981E+06     7.19593E+06    -33.1539E+06    -90.2749E-03     129.440E-03    -39.1650E-03     235.198E-03    -93.0237E-03     132.056E-03    -39.0820E-03     232.273E-03
            1220     14.6783E-03     113.500E-03    -13.2459E+06     2.49687E+06     8.42466E+06    -29.7655E+06    -102.189E-03     143.879E-03    -41.6902E-03     247.576E-03    -106.661E-03     148.292E-03    -41.6325E-03     243.525E-03
            1221     15.4960E-03     113.742E-03    -9.40239E+06     66.7466E+06     37.7657E+06    -16.5635E+06    -112.033E-03     156.684E-03    -44.6508E-03     239.588E-03    -118.222E-03     162.971E-03    -44.5451E-03     234.957E-03
            1222     16.3053E-03     113.967E-03    -2.46564E+06     110.601E+06     80.4495E+06    -4.33263E+06    -118.151E-03     166.162E-03    -48.0111E-03     160.429E-03    -122.538E-03     170.704E-03    -47.7657E-03     156.770E-03
            1223     878.541E-06     112.935E-03    -112.509E+06    -58.9349E+06    -112.950E+06     4.30307E+06    -24.3130E-03     48.5302E-03    -24.2173E-03     10.3445E-03    -24.6262E-03     48.5623E-03    -24.5334E-03     10.4017E-03
            1224     1.75679E-03     112.946E-03    -100.663E+06    -55.0513E+06    -98.2981E+06     5.36801E+06    -24.6897E-03     49.0509E-03    -24.3612E-03     19.6089E-03    -24.9705E-03     49.0635E-03    -24.6269E-03     19.6814E-03
            1225     2.63479E-03     112.964E-03    -88.0592E+06    -52.7935E+06    -84.2022E+06     3.85686E+06    -25.3823E-03     49.9562E-03    -24.5739E-03     30.0084E-03    -25.6232E-03     49.9408E-03    -24.7907E-03     30.0630E-03
            1226     3.51180E-03     112.990E-03    -77.0317E+06    -51.9757E+06    -71.5746E+06    -284.451E+03    -26.3413E-03     51.2004E-03    -24.8592E-03     41.2265E-03    -26.5460E-03     51.1544E-03    -25.0300E-03     41.2286E-03
            1227     4.38839E-03     113.025E-03    -66.8220E+06    -49.7658E+06    -59.2004E+06    -6.01393E+06    -27.5598E-03     52.7702E-03    -25.2104E-03     53.1985E-03    -27.7345E-03     52.7024E-03    -25.3373E-03     53.1258E-03
            1228     5.26392E-03     113.070E-03    -57.7338E+06    -47.0298E+06    -47.2023E+06    -10.8160E+06    -29.1266E-03     54.7563E-03    -25.6297E-03     65.9859E-03    -29.2784E-03     54.6729E-03    -25.7138E-03     65.8475E-03
            1229     6.13856E-03     113.127E-03    -49.9718E+06    -46.4473E+06    -36.4344E+06    -14.3709E+06    -31.1269E-03     57.2542E-03    -26.1272E-03     79.7148E-03    -31.2603E-03     57.1508E-03    -26.1696E-03     79.5219E-03
            1230     7.01139E-03     113.196E-03    -42.8099E+06    -42.4827E+06    -26.1932E+06    -17.7256E+06    -33.6398E-03     60.3497E-03    -26.7099E-03     94.4691E-03    -33.7674E-03     60.2504E-03    -26.7172E-03     94.2161E-03
            1231     7.88282E-03     113.279E-03    -36.0077E+06    -34.3496E+06    -15.3252E+06    -19.9773E+06    -36.8305E-03     64.2305E-03    -27.4000E-03     110.241E-03    -36.9714E-03     64.1662E-03    -27.3746E-03     109.928E-03
            1232     8.75155E-03     113.376E-03    -29.8928E+06    -29.0409E+06    -5.44143E+06    -21.7593E+06    -40.8856E-03     69.1112E-03    -28.2256E-03     126.989E-03    -41.0561E-03     69.0884E-03    -28.1673E-03     126.602E-03
            1233     9.61766E-03     113.490E-03    -25.0049E+06    -25.5539E+06     2.40329E+06    -24.5939E+06    -46.0123E-03     75.2232E-03    -29.2110E-03     145.105E-03    -46.2458E-03     75.2707E-03    -29.1256E-03     144.593E-03
            1234     10.4797E-03     113.621E-03    -22.0062E+06    -23.3621E+06     7.43457E+06    -27.4971E+06    -52.3610E-03     82.7476E-03    -30.3866E-03     163.928E-03    -52.7135E-03     82.9181E-03    -30.2836E-03     163.235E-03
            1235     11.3373E-03     113.771E-03    -20.5858E+06    -22.6730E+06     10.7262E+06    -28.7362E+06    -60.0449E-03     91.8441E-03    -31.7991E-03     181.373E-03    -60.5959E-03     92.2114E-03    -31.6828E-03     180.440E-03
            1236     12.1890E-03     113.938E-03    -19.2678E+06    -27.7680E+06     9.80216E+06    -31.0401E+06    -69.3901E-03     102.878E-03    -33.4879E-03     198.918E-03    -70.2711E-03     103.565E-03    -33.3707E-03     197.589E-03
            1237     13.0331E-03     114.125E-03    -14.7182E+06    -24.7266E+06     11.8503E+06    -32.2557E+06    -80.7991E-03     116.304E-03    -35.5053E-03     221.032E-03    -82.3252E-03     117.659E-03    -35.3889E-03     219.052E-03
            1238     13.8688E-03     114.340E-03    -11.5609E+06    -9.80734E+06     13.3040E+06    -31.7685E+06    -94.3518E-03     132.226E-03    -37.8738E-03     246.787E-03    -97.1253E-03     134.888E-03    -37.7763E-03     243.752E-03
            1239     14.6941E-03     114.589E-03    -12.7898E+06    -6.91840E+06     8.83342E+06    -28.6509E+06    -107.095E-03     147.719E-03    -40.6240E-03     260.753E-03    -111.672E-03     152.204E-03    -40.5513E-03     256.420E-03
            1240     15.5100E-03     114.843E-03    -13.6285E+06     50.1407E+06     34.2091E+06    -17.9654E+06    -118.668E-03     162.511E-03    -43.8428E-03     254.672E-03    -125.298E-03     169.177E-03    -43.7247E-03     249.303E-03
            1241     16.3116E-03     115.091E-03    -10.0738E+06     100.181E+06     78.0436E+06    -8.14817E+06    -127.049E-03     174.605E-03    -47.5555E-03     173.164E-03    -131.876E-03     179.531E-03    -47.2959E-03     168.658E-03
            1242     880.002E-06     113.928E-03    -112.186E+06    -59.5880E+06    -111.978E+06    -3.74973E+06    -22.4847E-03     44.9512E-03    -22.4664E-03     9.52278E-03    -22.7968E-03     44.9784E-03    -22.7772E-03     9.47533E-03
            1243     1.75999E-03     113.939E-03    -105.611E+06    -53.8478E+06    -104.738E+06    -6.15752E+06    -22.8975E-03     45.4456E-03    -22.5481E-03     18.0974E-03    -23.1954E-03     45.4811E-03    -22.8406E-03     18.0198E-03
            1244     2.63947E-03     113.958E-03    -95.8238E+06    -49.2186E+06    -95.1204E+06    -8.57056E+06    -23.5601E-03     46.3051E-03    -22.7450E-03     27.9028E-03    -23.8294E-03     46.3352E-03    -23.0103E-03     27.7953E-03
            1245     3.51866E-03     113.985E-03    -84.5497E+06    -45.4277E+06    -83.8886E+06    -11.8561E+06    -24.5606E-03     47.5866E-03    -23.0260E-03     38.7419E-03    -24.7948E-03     47.6025E-03    -23.2570E-03     38.5932E-03
            1246     4.39657E-03     114.022E-03    -74.7568E+06    -41.9402E+06    -71.9946E+06    -15.8404E+06    -25.9021E-03     49.2985E-03    -23.3964E-03     50.6587E-03    -26.1094E-03     49.3001E-03    -23.5871E-03     50.4587E-03
            1247     5.27355E-03     114.070E-03    -65.9050E+06    -40.4569E+06    -60.0281E+06    -19.6993E+06    -27.6223E-03     51.4795E-03    -23.8572E-03     63.6515E-03    -27.8052E-03     51.4589E-03    -24.0031E-03     63.3999E-03
            1248     6.14897E-03     114.128E-03    -55.9500E+06    -39.8661E+06    -46.9458E+06    -23.3968E+06    -29.7631E-03     54.1751E-03    -24.4120E-03     77.6409E-03    -29.9188E-03     54.1268E-03    -24.5078E-03     77.3354E-03
            1249     7.02337E-03     114.200E-03    -45.3752E+06    -37.3178E+06    -32.2621E+06    -25.8825E+06    -32.4213E-03     57.4879E-03    -25.0666E-03     92.7167E-03    -32.5565E-03     57.4231E-03    -25.1080E-03     92.3660E-03
            1250     7.89542E-03     114.286E-03    -35.9928E+06    -31.5482E+06    -17.6456E+06    -26.1616E+06    -35.7311E-03     61.5586E-03    -25.8275E-03     108.989E-03    -35.8652E-03     61.5042E-03    -25.8178E-03     108.609E-03
            1251     8.76544E-03     114.388E-03    -29.1228E+06    -25.9601E+06    -5.77299E+06    -25.3579E+06    -39.8907E-03     66.6006E-03    -26.7099E-03     126.536E-03    -40.0482E-03     66.5795E-03    -26.6588E-03     126.123E-03
            1252     9.63212E-03     114.507E-03    -25.1096E+06    -20.0783E+06     3.35097E+06    -25.7698E+06    -45.1709E-03     72.9148E-03    -27.7439E-03     145.752E-03    -45.3927E-03     72.9669E-03    -27.6616E-03     145.255E-03
            1253     10.4954E-03     114.645E-03    -22.4367E+06    -18.3906E+06     10.0795E+06    -27.2281E+06    -51.7920E-03     80.7661E-03    -28.9741E-03     165.894E-03    -52.1252E-03     80.9259E-03    -28.8645E-03     165.246E-03
            1254     11.3535E-03     114.803E-03    -19.3766E+06    -19.5704E+06     14.0752E+06    -28.2364E+06    -59.8810E-03     90.3209E-03    -30.4399E-03     185.136E-03    -60.3913E-03     90.6533E-03    -30.3130E-03     184.261E-03
            1255     12.2054E-03     114.981E-03    -16.6532E+06    -20.1510E+06     16.0963E+06    -30.0526E+06    -69.9554E-03     102.153E-03    -32.1971E-03     204.900E-03    -70.7863E-03     102.808E-03    -32.0633E-03     203.638E-03
            1256     13.0499E-03     115.180E-03    -16.0326E+06    -20.0443E+06     16.2685E+06    -34.4818E+06    -82.7838E-03     117.098E-03    -34.3140E-03     229.601E-03    -84.2695E-03     118.411E-03    -34.1803E-03     227.614E-03
            1257     13.8843E-03     115.412E-03    -12.9806E+06    -11.3417E+06     17.6550E+06    -33.8408E+06    -97.1851E-03     134.003E-03    -36.8183E-03     257.824E-03    -99.8938E-03     136.578E-03    -36.6948E-03     254.741E-03
            1258     14.7090E-03     115.677E-03    -8.85942E+06    -15.3260E+06     15.1352E+06    -26.1290E+06    -110.773E-03     150.484E-03    -39.7117E-03     274.057E-03    -115.289E-03     154.876E-03    -39.6010E-03     269.598E-03
            1259     15.5219E-03     115.948E-03     -4.6224E+06     37.2399E+06     35.4933E+06    -16.5317E+06    -125.879E-03     168.986E-03    -43.1070E-03     274.230E-03    -132.927E-03     176.055E-03    -42.9768E-03     268.056E-03
            1260     16.3196E-03     116.225E-03     566.731E+03     89.9514E+06     79.5611E+06    -6.87647E+06    -135.919E-03     183.055E-03    -47.1355E-03     188.614E-03    -141.221E-03     188.453E-03    -46.8690E-03     183.195E-03
            1261     880.642E-06     114.919E-03    -83.8397E+06    -49.8482E+06    -82.5824E+06    -6.09168E+06    -22.0382E-03     44.1008E-03    -22.0626E-03     8.54792E-03    -22.2653E-03     44.0931E-03    -22.2816E-03     8.46903E-03
            1262     1.76088E-03     114.930E-03    -81.8260E+06    -45.4989E+06    -77.7956E+06    -10.5582E+06    -22.4751E-03     44.6077E-03    -22.1326E-03     16.2026E-03    -22.7055E-03     44.6117E-03    -22.3370E-03     16.0659E-03
            1263     2.64098E-03     114.950E-03    -79.1600E+06    -41.2116E+06    -73.1307E+06    -14.7840E+06    -23.0384E-03     45.3575E-03    -22.3191E-03     24.9554E-03    -23.2684E-03     45.3723E-03    -22.5102E-03     24.7643E-03
            1264     3.52039E-03     114.978E-03    -76.1869E+06    -37.0634E+06    -69.0808E+06    -18.7415E+06    -23.8138E-03     46.3657E-03    -22.5519E-03     34.7365E-03    -24.0409E-03     46.3910E-03    -22.7330E-03     34.4945E-03
            1265     4.39958E-03     115.016E-03    -71.3967E+06    -33.2270E+06    -62.9872E+06    -22.6748E+06    -24.9199E-03     47.7709E-03    -22.8510E-03     45.8414E-03    -25.1374E-03     47.7996E-03    -23.0142E-03     45.5489E-03
            1266     5.27755E-03     115.065E-03    -65.0389E+06    -31.7808E+06    -55.1356E+06    -27.0148E+06    -26.4696E-03     49.7059E-03    -23.2363E-03     58.4449E-03    -26.6690E-03     49.7215E-03    -23.3716E-03     58.0957E-03
            1267     6.15445E-03     115.127E-03    -58.9916E+06    -31.6878E+06    -46.9461E+06    -31.1920E+06    -28.5643E-03     52.2856E-03    -23.7213E-03     72.5014E-03    -28.7471E-03     52.2828E-03    -23.8246E-03     72.0950E-03
            1268     7.02910E-03     115.201E-03    -53.0828E+06    -31.8318E+06    -37.7447E+06    -34.1326E+06    -31.2643E-03     55.5885E-03    -24.3241E-03     87.9511E-03    -31.4357E-03     55.5680E-03    -24.3897E-03     87.4979E-03
            1269     7.90224E-03     115.291E-03    -45.4425E+06    -29.2596E+06    -25.9727E+06    -34.8606E+06    -34.6215E-03     59.6789E-03    -25.0575E-03     104.742E-03    -34.7871E-03     59.6550E-03    -25.0790E-03     104.261E-03
            1270     8.77273E-03     115.397E-03    -35.6833E+06    -26.1495E+06    -12.0816E+06    -32.7796E+06    -38.8607E-03     64.7986E-03    -25.9379E-03     122.959E-03    -39.0276E-03     64.7813E-03    -25.9086E-03     122.469E-03
            1271     9.64056E-03     115.521E-03    -26.8829E+06    -19.2474E+06     2.45917E+06    -28.6608E+06    -44.2501E-03     71.2355E-03    -26.9854E-03     143.014E-03    -44.4550E-03     71.2700E-03    -26.9063E-03     142.511E-03
            1272     10.5041E-03     115.666E-03    -22.0428E+06    -14.3722E+06     13.1900E+06    -26.9491E+06    -50.9601E-03     79.1850E-03    -28.2249E-03     164.360E-03    -51.2584E-03     79.3166E-03    -28.1062E-03     163.764E-03
            1273     11.3630E-03     115.833E-03    -19.7626E+06    -15.3521E+06     18.7553E+06    -28.4012E+06    -59.3269E-03     89.0258E-03    -29.6989E-03     185.518E-03    -59.7857E-03     89.3067E-03    -29.5542E-03     184.709E-03
            1274     12.2159E-03     116.020E-03    -16.7711E+06    -14.0844E+06     23.0296E+06    -30.6913E+06    -70.0178E-03     101.494E-03    -31.4764E-03     207.746E-03    -70.7715E-03     102.074E-03    -31.3166E-03     206.563E-03
            1275     13.0602E-03     116.234E-03    -13.1599E+06    -12.3915E+06     26.2463E+06    -32.3130E+06    -83.5295E-03     117.157E-03    -33.6277E-03     235.383E-03    -84.8847E-03     118.348E-03    -33.4594E-03     233.528E-03
            1276     13.8946E-03     116.482E-03    -12.7099E+06    -11.9860E+06     25.4750E+06    -33.9331E+06    -98.0369E-03     134.192E-03    -36.1555E-03     265.329E-03    -100.522E-03     136.519E-03    -35.9923E-03     262.376E-03
            1277     14.7203E-03     116.761E-03    -10.7999E+06    -27.1944E+06     20.2298E+06    -30.7400E+06    -113.028E-03     152.103E-03    -39.0758E-03     286.025E-03    -117.295E-03     156.183E-03    -38.9196E-03     281.523E-03
            1278     15.5339E-03     117.057E-03    -7.94870E+06     22.4067E+06     30.9705E+06    -18.5487E+06    -131.005E-03     173.509E-03    -42.5044E-03     295.971E-03    -138.319E-03     180.793E-03    -42.3705E-03     289.187E-03
            1279     16.3255E-03     117.369E-03    -7.43905E+06     78.0885E+06     72.2107E+06    -7.60620E+06    -143.711E-03     190.433E-03    -46.7220E-03     208.409E-03    -149.544E-03     196.317E-03    -46.4634E-03     202.079E-03
            1280     879.744E-06     115.910E-03    -53.7620E+06    -37.9645E+06    -52.4475E+06    -5.79681E+06    -23.1028E-03     46.1590E-03    -23.0562E-03     7.23327E-03    -23.2406E-03     46.1234E-03    -23.1854E-03     7.15649E-03
            1281     1.75945E-03     115.922E-03    -52.7421E+06    -34.5358E+06    -48.6342E+06    -10.0747E+06    -23.5279E-03     46.7016E-03    -23.1738E-03     13.7391E-03    -23.6715E-03     46.6762E-03    -23.2904E-03     13.6053E-03
            1282     2.63845E-03     115.942E-03    -50.8312E+06    -31.2129E+06    -42.7456E+06    -14.2986E+06    -24.0993E-03     47.4888E-03    -23.3895E-03     21.1186E-03    -24.2472E-03     47.4691E-03    -23.4843E-03     20.9285E-03
            1283     3.51730E-03     115.971E-03    -48.1732E+06    -26.9958E+06    -36.7407E+06    -18.6913E+06    -24.7626E-03     48.4062E-03    -23.6436E-03     29.3801E-03    -24.9127E-03     48.3957E-03    -23.7183E-03     29.1315E-03
            1284     4.39536E-03     116.010E-03    -46.2386E+06    -23.6841E+06    -31.3656E+06    -23.0016E+06    -25.5571E-03     49.4817E-03    -23.9246E-03     38.8428E-03    -25.7109E-03     49.4779E-03    -23.9800E-03     38.5372E-03
            1285     5.27321E-03     116.061E-03    -45.6921E+06    -21.8629E+06    -27.4064E+06    -26.8686E+06    -26.6259E-03     50.8640E-03    -24.2381E-03     49.8319E-03    -26.7863E-03     50.8638E-03    -24.2771E-03     49.4750E-03
            1286     6.14999E-03     116.124E-03    -45.5184E+06    -22.2720E+06    -25.0065E+06    -30.7428E+06    -28.1693E-03     52.7748E-03    -24.6055E-03     62.6944E-03    -28.3331E-03     52.7703E-03    -24.6322E-03     62.2857E-03
            1287     7.02592E-03     116.201E-03    -44.5937E+06    -23.2065E+06    -22.5140E+06    -34.9241E+06    -30.3965E-03     55.4584E-03    -25.0619E-03     77.6130E-03    -30.5609E-03     55.4473E-03    -25.0761E-03     77.1460E-03
            1288     7.89937E-03     116.293E-03    -42.6859E+06    -24.1462E+06    -18.8403E+06    -38.1928E+06    -33.4847E-03     59.1292E-03    -25.6445E-03     94.5478E-03    -33.6505E-03     59.1126E-03    -25.6418E-03     94.0278E-03
            1289     8.77061E-03     116.404E-03    -39.2937E+06    -25.0127E+06    -12.7046E+06    -38.9751E+06    -37.6261E-03     64.0178E-03    -26.3917E-03     113.508E-03    -37.7989E-03     63.9996E-03    -26.3620E-03     112.954E-03
            1290     9.63836E-03     116.532E-03    -32.2925E+06    -22.7608E+06    -2.20187E+06    -36.1188E+06    -42.9674E-03     70.3032E-03    -27.3358E-03     134.583E-03    -43.1589E-03     70.3062E-03    -27.2670E-03     134.018E-03
            1291     10.5027E-03     116.684E-03    -23.1343E+06    -15.0608E+06     12.7429E+06    -30.5623E+06    -49.6947E-03     78.2012E-03    -28.5065E-03     157.102E-03    -49.9437E-03     78.2783E-03    -28.3874E-03     156.518E-03
            1292     11.3625E-03     116.858E-03    -16.5167E+06    -11.2923E+06     25.6148E+06    -27.8112E+06    -58.2076E-03     88.1440E-03    -29.9364E-03     179.970E-03    -58.5781E-03     88.3427E-03    -29.7680E-03     179.257E-03
            1293     12.2153E-03     117.057E-03    -13.9785E+06    -7.92632E+06     32.7678E+06    -29.2985E+06    -69.1600E-03     100.829E-03    -31.6689E-03     204.749E-03    -69.7849E-03     101.283E-03    -31.4733E-03     203.711E-03
            1294     13.0604E-03     117.283E-03    -13.8250E+06    -9.14138E+06     35.3259E+06    -30.3670E+06    -82.4101E-03     116.168E-03    -33.7578E-03     234.680E-03    -83.5470E-03     117.123E-03    -33.5479E-03     233.054E-03
            1295     13.8969E-03     117.548E-03    -12.3827E+06    -6.19481E+06     36.7523E+06    -31.3242E+06    -96.9663E-03     133.171E-03    -36.2044E-03     265.905E-03    -99.0710E-03     135.106E-03    -35.9937E-03     263.278E-03
            1296     14.7243E-03     117.841E-03    -9.99995E+06    -31.2518E+06     28.3569E+06    -32.8736E+06    -112.773E-03     151.803E-03    -39.0301E-03     291.729E-03    -116.491E-03     155.297E-03    -38.8285E-03     287.514E-03
            1297     15.5368E-03     118.166E-03    -5.24498E+06    -1.84681E+06     27.0408E+06    -20.4689E+06    -131.191E-03     173.489E-03    -42.2972E-03     313.388E-03    -138.152E-03     180.353E-03    -42.1517E-03     306.689E-03
            1298     16.3369E-03     118.508E-03     728.873E+03     66.0030E+06     73.1713E+06    -2.54322E+06    -148.119E-03     194.586E-03    -46.4669E-03     234.574E-03    -154.178E-03     200.683E-03    -46.1978E-03     227.780E-03
            1299     877.605E-06     116.905E-03    -26.7812E+06    -26.8939E+06    -25.7274E+06    -5.02131E+06    -25.8832E-03     51.6234E-03    -25.7402E-03     5.66090E-03    -25.9414E-03     51.5650E-03    -25.7910E-03     5.59180E-03
            1300     1.75475E-03     116.917E-03    -25.9461E+06    -24.2964E+06    -22.1133E+06    -9.02794E+06    -26.3122E-03     52.2415E-03    -25.9293E-03     10.6491E-03    -26.3759E-03     52.1898E-03    -25.9670E-03     10.5242E-03
            1301     2.63173E-03     116.938E-03    -24.2080E+06    -21.2159E+06    -16.6846E+06    -13.2017E+06    -26.9090E-03     53.0880E-03    -26.1790E-03     16.2712E-03    -26.9772E-03     53.0422E-03    -26.1966E-03     16.0880E-03
            1302     3.50778E-03     116.968E-03    -22.8626E+06    -17.7084E+06    -11.0430E+06    -16.6264E+06    -27.6123E-03     54.0892E-03    -26.4769E-03     22.5713E-03    -27.6884E-03     54.0520E-03    -26.4733E-03     22.3390E-03
            1303     4.38358E-03     117.008E-03    -22.0752E+06    -14.8943E+06    -5.84262E+06    -19.3992E+06    -28.3353E-03     55.1391E-03    -26.8038E-03     29.8324E-03    -28.4208E-03     55.1090E-03    -26.7795E-03     29.5597E-03
            1304     5.25853E-03     117.058E-03    -21.3035E+06    -13.2940E+06    -1.11950E+06    -22.2201E+06    -29.0721E-03     56.2148E-03    -27.1427E-03     38.4086E-03    -29.1650E-03     56.1867E-03    -27.0981E-03     38.0953E-03
            1305     6.13330E-03     117.122E-03    -20.8566E+06    -13.0871E+06     3.34484E+06    -25.4454E+06    -29.9350E-03     57.4266E-03    -27.4916E-03     48.7137E-03    -30.0349E-03     57.3948E-03    -27.4256E-03     48.3553E-03
            1306     7.00716E-03     117.200E-03    -21.9394E+06    -13.8636E+06     5.62935E+06    -28.7510E+06    -31.1929E-03     59.0514E-03    -27.8585E-03     61.2549E-03    -31.3032E-03     59.0170E-03    -27.7784E-03     60.8509E-03
            1307     7.88055E-03     117.296E-03    -25.0466E+06    -16.0749E+06     5.01292E+06    -31.5778E+06    -33.2519E-03     61.5327E-03    -28.2809E-03     76.4176E-03    -33.3778E-03     61.4973E-03    -28.1962E-03     75.9721E-03
            1308     8.75177E-03     117.408E-03    -28.4363E+06    -18.4353E+06     3.93159E+06    -34.7125E+06    -36.4347E-03     65.2528E-03    -28.8181E-03     94.5895E-03    -36.5808E-03     65.2207E-03    -28.7304E-03     94.0925E-03
            1309     9.62042E-03     117.542E-03    -29.7165E+06    -20.4408E+06     4.99939E+06    -37.7656E+06    -41.0336E-03     70.5633E-03    -29.5297E-03     115.902E-03    -41.2028E-03     70.5401E-03    -29.4320E-03     115.340E-03
            1310     10.4851E-03     117.698E-03    -26.2463E+06    -19.3983E+06     12.3302E+06    -36.6245E+06    -47.3458E-03     77.8251E-03    -30.4793E-03     139.678E-03    -47.5497E-03     77.8319E-03    -30.3514E-03     139.076E-03
            1311     11.3444E-03     117.881E-03    -19.1662E+06    -12.2630E+06     28.1159E+06    -31.7782E+06    -55.7446E-03     87.4782E-03    -31.7335E-03     164.687E-03    -56.0307E-03     87.5723E-03    -31.5474E-03     164.030E-03
            1312     12.1985E-03     118.088E-03    -13.7345E+06    -6.17757E+06     41.4455E+06    -27.1693E+06    -66.6238E-03     99.9451E-03    -33.3213E-03     191.727E-03    -67.0893E-03     100.221E-03    -33.0852E-03     190.892E-03
            1313     13.0441E-03     118.329E-03    -13.2512E+06    -6.49901E+06     45.7929E+06    -24.3309E+06    -79.5510E-03     114.812E-03    -35.2606E-03     221.955E-03    -80.3930E-03     115.453E-03    -35.0030E-03     220.693E-03
            1314     13.8825E-03     118.602E-03    -17.1211E+06     1.35255E+06     47.9851E+06    -26.5193E+06    -93.5968E-03     131.147E-03    -37.5501E-03     254.039E-03    -95.1950E-03     132.553E-03    -37.2873E-03     251.933E-03
            1315     14.7095E-03     118.918E-03    -19.1432E+06    -20.2249E+06     42.0616E+06    -34.7971E+06    -107.658E-03     147.817E-03    -40.1592E-03     284.243E-03    -110.541E-03     150.442E-03    -39.8918E-03     280.741E-03
            1316     15.5312E-03     119.256E-03    -15.2994E+06    -29.9624E+06     25.0399E+06    -33.1981E+06    -124.975E-03     168.015E-03    -43.0400E-03     317.883E-03    -130.775E-03     173.589E-03    -42.8492E-03     311.931E-03
            1317     16.3342E-03     119.639E-03    -9.63013E+06     32.1596E+06     57.1986E+06    -12.5909E+06    -143.308E-03     190.031E-03    -46.7229E-03     262.930E-03    -149.263E-03     195.915E-03    -46.4696E-03     256.068E-03
            1318     873.565E-06     117.906E-03    -2.74341E+06    -17.2609E+06    -1.24519E+06    -4.01377E+06    -30.6758E-03     61.1432E-03    -30.4674E-03     3.74152E-03    -30.6641E-03     61.0618E-03    -30.4446E-03     3.68221E-03
            1319     1.74678E-03     117.920E-03    -2.25050E+06    -14.8469E+06     1.42908E+06    -7.76775E+06    -31.1525E-03     61.8760E-03    -30.7235E-03     6.87206E-03    -31.1466E-03     61.8022E-03    -30.6915E-03     6.75720E-03
            1320     2.61922E-03     117.941E-03    -1.84639E+06    -12.5206E+06     5.45662E+06    -11.0754E+06    -31.8484E-03     62.8811E-03    -31.0327E-03     10.3512E-03    -31.8507E-03     62.8134E-03    -30.9846E-03     10.1858E-03
            1321     3.49131E-03     117.972E-03    -1.21058E+06    -10.3004E+06     10.4393E+06    -13.5799E+06    -32.6280E-03     64.0367E-03    -31.4087E-03     14.2301E-03    -32.6392E-03     63.9734E-03    -31.3398E-03     14.0236E-03
            1322     4.36220E-03     118.012E-03    -402.150E+03    -8.21205E+06     15.6592E+06    -15.4734E+06    -33.3986E-03     65.2223E-03    -31.8237E-03     18.8730E-03    -33.4184E-03     65.1626E-03    -31.7329E-03     18.6330E-03
            1323     5.23261E-03     118.064E-03    -172.022E+03    -6.45604E+06     20.7167E+06    -17.2620E+06    -34.0738E-03     66.3275E-03    -32.2537E-03     24.6066E-03    -34.1051E-03     66.2715E-03    -32.1405E-03     24.3348E-03
            1324     6.10212E-03     118.128E-03    -1.41668E+06    -6.36928E+06     24.2401E+06    -18.7392E+06    -34.6541E-03     67.3319E-03    -32.6779E-03     31.7131E-03    -34.7002E-03     67.2761E-03    -32.5454E-03     31.4144E-03
            1325     6.97154E-03     118.206E-03    -3.99904E+06    -6.90377E+06     26.1766E+06    -20.0089E+06    -35.2603E-03     68.3518E-03    -33.0915E-03     40.5995E-03    -35.3253E-03     68.2980E-03    -32.9448E-03     40.2778E-03
            1326     7.84013E-03     118.301E-03    -6.60310E+06    -9.04489E+06     27.2273E+06    -21.7328E+06    -36.1266E-03     69.6384E-03    -33.5118E-03     51.7773E-03    -36.2075E-03     69.5805E-03    -33.3529E-03     51.4279E-03
            1327     8.70829E-03     118.415E-03    -9.24553E+06    -9.54687E+06     28.3844E+06    -24.5246E+06    -37.6418E-03     71.6132E-03    -33.9713E-03     65.9150E-03    -37.7425E-03     71.5608E-03    -33.8021E-03     65.5235E-03
            1328     9.57512E-03     118.550E-03    -13.1326E+06    -11.7886E+06     28.0891E+06    -27.9052E+06    -40.2757E-03     74.7939E-03    -34.5182E-03     83.7211E-03    -40.4005E-03     74.7455E-03    -34.3417E-03     83.2762E-03
            1329     10.4394E-03     118.711E-03    -18.3343E+06    -15.5677E+06     26.7989E+06    -31.3885E+06    -44.5108E-03     79.7249E-03    -35.2141E-03     105.397E-03    -44.6699E-03     79.6837E-03    -35.0309E-03     104.886E-03
            1330     11.3005E-03     118.898E-03    -20.1892E+06    -13.8827E+06     32.5522E+06    -32.4955E+06    -51.1247E-03     87.2829E-03    -36.1582E-03     130.562E-03    -51.3401E-03     87.2824E-03    -35.9460E-03     129.984E-03
            1331     12.1540E-03     119.117E-03    -17.3721E+06    -11.1626E+06     42.8146E+06    -27.6547E+06    -60.7150E-03     98.1475E-03    -37.4325E-03     159.013E-03    -61.0233E-03     98.2315E-03    -37.1770E-03     158.365E-03
            1332     13.0006E-03     119.365E-03    -12.1228E+06    -8.35442E+06     54.5213E+06    -21.4752E+06    -72.9819E-03     112.074E-03    -39.0918E-03     190.862E-03    -73.4929E-03     112.356E-03    -38.7895E-03     189.997E-03
            1333     13.8365E-03     119.653E-03    -8.33868E+06     6.57882E+06     66.7317E+06    -15.6539E+06    -86.0178E-03     127.123E-03    -41.1055E-03     224.026E-03    -86.9789E-03     127.887E-03    -40.7693E-03     222.681E-03
            1334     14.6695E-03     119.974E-03    -13.6357E+06     6.33321E+06     65.2522E+06    -19.5748E+06    -97.1494E-03     140.489E-03    -43.3394E-03     254.592E-03    -98.9500E-03     142.077E-03    -43.0026E-03     252.313E-03
            1335     15.4941E-03     120.330E-03    -23.9724E+06    -31.4338E+06     36.2319E+06    -30.9982E+06    -108.670E-03     154.269E-03    -45.5987E-03     299.071E-03    -112.396E-03     157.699E-03    -45.3372E-03     295.037E-03
            1336     16.3127E-03     120.738E-03    -17.7836E+06    -3.86670E+06     37.2572E+06    -25.4103E+06    -119.723E-03     167.803E-03    -48.0801E-03     287.201E-03    -124.383E-03     172.293E-03    -47.8624E-03     281.990E-03
            1337     867.428E-06     118.921E-03     18.4184E+06    -9.37915E+06     19.1275E+06    -2.60881E+06    -37.8114E-03     75.4135E-03    -37.6021E-03     1.69388E-03    -37.7362E-03     75.3098E-03    -37.5195E-03     1.64954E-03
            1338     1.73448E-03     118.934E-03     17.7202E+06    -7.27133E+06     21.2859E+06    -5.56250E+06    -38.5281E-03     76.4615E-03    -37.9334E-03     2.36876E-03    -38.4635E-03     76.3659E-03    -37.8421E-03     2.27610E-03
            1339     2.60082E-03     118.957E-03     17.6624E+06    -5.61400E+06     25.1550E+06    -8.03833E+06    -39.2671E-03     77.6229E-03    -38.3559E-03     3.12050E-03    -39.2114E-03     77.5307E-03    -38.2476E-03     2.98429E-03
            1340     3.46583E-03     118.988E-03     17.7081E+06    -4.79892E+06     29.5581E+06    -9.80361E+06    -40.0524E-03     78.8769E-03    -38.8246E-03     4.36509E-03    -40.0051E-03     78.7832E-03    -38.6955E-03     4.19370E-03
            1341     4.33030E-03     119.030E-03     17.2646E+06    -3.31900E+06     33.9645E+06    -10.8295E+06    -40.9022E-03     80.2385E-03    -39.3363E-03     6.20125E-03    -40.8673E-03     80.1476E-03    -39.1867E-03     6.00368E-03
            1342     5.19348E-03     119.082E-03     16.1294E+06    -2.23582E+06     37.6032E+06    -11.1292E+06    -41.7615E-03     81.6507E-03    -39.8893E-03     8.68812E-03    -41.7412E-03     81.5632E-03    -39.7214E-03     8.47306E-03
            1343     6.05593E-03     119.146E-03     14.7549E+06    -2.26257E+06     40.9774E+06    -11.2520E+06    -42.5616E-03     83.0419E-03    -40.4803E-03     11.9760E-03    -42.5559E-03     82.9533E-03    -40.2935E-03     11.7454E-03
            1344     6.91693E-03     119.224E-03     13.6377E+06    -2.75725E+06     44.7962E+06    -11.5906E+06    -43.2122E-03     84.3134E-03    -41.1012E-03     16.3625E-03    -43.2207E-03     84.2212E-03    -40.8930E-03     16.1138E-03
            1345     7.77717E-03     119.318E-03     12.2663E+06    -3.25354E+06     48.3607E+06    -12.7385E+06    -43.6935E-03     85.4326E-03    -41.7391E-03     22.2022E-03    -43.7180E-03     85.3381E-03    -41.5104E-03     21.9256E-03
            1346     8.63649E-03     119.430E-03     9.63946E+06    -4.07263E+06     49.9320E+06    -13.6423E+06    -44.1525E-03     86.5420E-03    -42.3895E-03     29.9895E-03    -44.1969E-03     86.4493E-03    -42.1479E-03     29.6891E-03
            1347     9.49462E-03     119.566E-03     5.85663E+06    -4.26301E+06     51.3308E+06    -14.9992E+06    -44.7722E-03     87.8478E-03    -43.0756E-03     40.2966E-03    -44.8441E-03     87.7634E-03    -42.8213E-03     39.9675E-03
            1348     10.3521E-03     119.724E-03     2.36850E+06    -6.97851E+06     52.6337E+06    -17.2427E+06    -45.8860E-03     89.7118E-03    -43.8258E-03     53.9022E-03    -45.9815E-03     89.6249E-03    -43.5559E-03     53.5335E-03
            1349     11.2070E-03     119.913E-03    -2.51548E+06    -8.12942E+06     52.7009E+06    -20.0028E+06    -48.1553E-03     92.8277E-03    -44.6724E-03     71.9913E-03    -48.2857E-03     92.7550E-03    -44.3934E-03     71.5728E-03
            1350     12.0606E-03     120.133E-03    -6.90897E+06    -12.8340E+06     53.5931E+06    -20.5525E+06    -52.7408E-03     98.4429E-03    -45.7020E-03     95.4392E-03    -52.9135E-03     98.3806E-03    -45.4054E-03     94.9758E-03
            1351     12.9072E-03     120.392E-03    -6.00319E+06    -10.6424E+06     62.1296E+06    -19.5294E+06    -60.0062E-03     107.010E-03    -47.0042E-03     124.052E-03    -60.2559E-03     107.015E-03    -46.6694E-03     123.499E-03
            1352     13.7491E-03     120.686E-03     3.45055E+06    -1.44484E+06     75.3522E+06    -14.6910E+06    -68.5948E-03     117.161E-03    -48.5660E-03     155.491E-03    -68.9844E-03     117.339E-03    -48.1922E-03     154.769E-03
            1353     14.5789E-03     121.017E-03     12.3208E+06     11.6165E+06     84.7174E+06    -589.418E+03    -75.6871E-03     125.929E-03    -50.2415E-03     186.156E-03    -76.3877E-03     126.473E-03    -49.8526E-03     185.212E-03
            1354     15.4101E-03     121.371E-03     18.5834E+06     1.75529E+06     80.3196E+06    -2.41292E+06    -78.6456E-03     130.402E-03    -51.7567E-03     227.694E-03    -80.0731E-03     131.668E-03    -51.3846E-03     226.127E-03
            1355     16.2574E-03     121.779E-03     14.1344E+06    -7.33544E+06     49.4569E+06    -14.4512E+06    -65.9826E-03     118.474E-03    -52.4914E-03     244.822E-03    -67.9469E-03     120.338E-03    -52.2540E-03     242.788E-03
            1356     859.483E-06     119.951E-03     35.1160E+06    -3.83311E+06     35.1621E+06    -2.20300E+06    -47.9288E-03     95.9638E-03    -48.0351E-03    -1.95591E-03    -47.8045E-03     95.8368E-03    -47.9046E-03    -1.99621E-03
            1357     1.71739E-03     119.967E-03     34.3633E+06    -2.18531E+06     37.5102E+06    -3.35959E+06    -48.4529E-03     96.6395E-03    -48.1866E-03    -3.67657E-03    -48.3378E-03     96.5188E-03    -48.0457E-03    -3.74125E-03
            1358     2.57442E-03     119.990E-03     33.7475E+06    -1.37648E+06     41.1252E+06    -4.19639E+06    -49.1633E-03     97.7167E-03    -48.5534E-03    -5.20967E-03    -49.0577E-03     97.5957E-03    -48.3947E-03    -5.29572E-03
            1359     3.43114E-03     120.023E-03     32.4750E+06    -1.33225E+06     44.9734E+06    -4.71000E+06    -50.1333E-03     99.1856E-03    -49.0523E-03    -6.57813E-03    -50.0401E-03     99.0608E-03    -48.8726E-03    -6.68220E-03
            1360     4.28629E-03     120.065E-03     31.1566E+06    -768.873E+03     48.3360E+06    -4.81365E+06    -51.3415E-03     101.021E-03    -49.6799E-03    -8.00748E-03    -51.2611E-03     100.896E-03    -49.4823E-03    -8.12544E-03
            1361     5.14014E-03     120.118E-03     29.9867E+06    -222.358E+03     52.0541E+06    -4.66730E+06    -52.7124E-03     103.152E-03    -50.4398E-03    -9.47964E-03    -52.6449E-03     103.025E-03    -50.2227E-03    -9.60974E-03
            1362     5.99175E-03     120.183E-03     29.1306E+06    -370.479E+03     57.3131E+06    -4.27644E+06    -54.1066E-03     105.437E-03    -51.3303E-03    -10.8986E-03    -54.0518E-03     105.302E-03    -51.0854E-03    -11.0394E-03
            1363     6.84156E-03     120.262E-03     28.3417E+06    -71.3655E+03     62.4061E+06    -4.30846E+06    -55.3613E-03     107.688E-03    -52.3265E-03    -12.1637E-03    -55.3199E-03     107.547E-03    -52.0555E-03    -12.3221E-03
            1364     7.68915E-03     120.355E-03     27.0674E+06    -412.769E+03     65.9564E+06    -3.96160E+06    -56.3784E-03     109.790E-03    -53.4119E-03    -13.1423E-03    -56.3501E-03     109.644E-03    -53.1208E-03    -13.3152E-03
            1365     8.53424E-03     120.467E-03     25.8427E+06    -931.356E+03     69.4143E+06    -3.90566E+06    -56.9715E-03     111.555E-03    -54.5831E-03    -13.6463E-03    -56.9564E-03     111.401E-03    -54.2722E-03    -13.8379E-03
            1366     9.37736E-03     120.599E-03     24.8430E+06    -857.892E+03     73.3699E+06    -3.58958E+06    -56.8766E-03     112.704E-03    -55.8275E-03    -13.3543E-03    -56.8759E-03     112.545E-03    -55.4954E-03    -13.5613E-03
            1367     10.2174E-03     120.755E-03     22.6790E+06    -450.997E+03     76.3120E+06    -4.33926E+06    -55.8578E-03     112.977E-03    -57.1187E-03    -11.5108E-03    -55.8773E-03     112.818E-03    -56.7694E-03    -11.7449E-03
            1368     11.0566E-03     120.937E-03     19.1338E+06    -4.47505E+06     76.5238E+06    -3.62838E+06    -53.9601E-03     112.398E-03    -58.4382E-03    -6.83029E-03    -53.9976E-03     112.226E-03    -58.0769E-03    -7.06802E-03
            1369     11.8927E-03     121.153E-03     16.5800E+06    -5.27078E+06     78.4350E+06    -6.00733E+06    -51.5841E-03     111.377E-03    -59.7932E-03     2.55913E-03    -51.6437E-03     111.206E-03    -59.4174E-03     2.28404E-03
            1370     12.7286E-03     121.404E-03     13.9071E+06    -8.29323E+06     80.7127E+06    -7.14447E+06    -48.6704E-03     109.835E-03    -61.1650E-03     18.1574E-03    -48.7527E-03     109.664E-03    -60.7696E-03     17.8682E-03
            1371     13.5598E-03     121.696E-03     10.5138E+06    -2.11228E+06     82.4963E+06    -11.2793E+06    -45.1043E-03     107.549E-03    -62.4442E-03     41.2062E-03    -45.2338E-03     107.438E-03    -62.0439E-03     40.8624E-03
            1372     14.3974E-03     122.022E-03     10.8828E+06    -9.01633E+06     84.0302E+06    -4.26471E+06    -42.9289E-03     106.551E-03    -63.6220E-03     64.8936E-03    -43.0982E-03     106.454E-03    -63.2046E-03     64.5889E-03
            1373     15.2341E-03     122.378E-03     18.8253E+06     8.49009E+06     93.0569E+06     -85.275E+03    -32.0120E-03     96.3526E-03    -64.3406E-03     93.9467E-03    -32.3227E-03     96.4894E-03    -63.9150E-03     93.5691E-03
            1374     16.0661E-03     122.752E-03     6.24612E+06     14.2609E+06     57.9938E+06    -5.66295E+06    -1.89315E-03     65.4793E-03    -63.5862E-03     104.851E-03    -2.25772E-03     65.7325E-03    -63.3260E-03     104.548E-03
            1375     16.2109E-03     60.9389E-03    -5.43335E+06     143.880E+06     96.8529E+06     415.114E+03    -54.3049E-03     108.055E-03    -53.7497E-03     111.711E-03    -57.3439E-03     111.304E-03    -53.4662E-03     111.625E-03
            1376     15.3563E-03     60.7640E-03    -10.3073E+06     140.170E+06     83.3608E+06     289.208E+03    -56.7813E-03     110.516E-03    -53.7350E-03     174.170E-03    -61.1368E-03     115.091E-03    -53.5065E-03     173.321E-03
            1377     14.5021E-03     60.5865E-03    -14.5296E+06     116.976E+06     38.9951E+06     137.569E+03    -57.1951E-03     110.788E-03    -53.5930E-03     164.753E-03    -60.4359E-03     114.280E-03    -53.5466E-03     163.231E-03
            1378     13.6489E-03     60.4322E-03    -16.8075E+06     69.8148E+06     3.85397E+06     383.641E+03    -56.6785E-03     110.199E-03    -53.5207E-03     142.357E-03    -58.7372E-03     112.435E-03    -53.5783E-03     140.846E-03
            1379     12.7948E-03     60.3020E-03    -18.1789E+06     13.0301E+06    -1.27234E+06     528.240E+03    -56.2513E-03     109.847E-03    -53.5962E-03     120.104E-03    -57.4814E-03     111.063E-03    -53.5951E-03     118.828E-03
            1380     11.9427E-03     60.1906E-03    -19.3662E+06    -26.0301E+06     541.643E+03     234.951E+03    -55.8136E-03     109.483E-03    -53.6689E-03     105.705E-03    -56.6042E-03     110.110E-03    -53.6004E-03     104.638E-03
            1381     11.0892E-03     60.0902E-03    -20.6802E+06    -54.2827E+06    -1.12379E+06     144.281E+03    -55.5826E-03     109.294E-03    -53.7114E-03     98.5854E-03    -56.1300E-03     109.579E-03    -53.6083E-03     97.6817E-03
            1382     10.2362E-03     59.9935E-03    -22.1574E+06    -74.1204E+06    -757.772E+03     170.130E+03    -55.4534E-03     109.210E-03    -53.7563E-03     92.9492E-03    -55.8423E-03     109.259E-03    -53.6205E-03     92.1852E-03
            1383     9.38298E-03     59.9041E-03    -24.0552E+06    -88.0353E+06    -521.607E+03     113.743E+03    -55.2759E-03     109.068E-03    -53.7925E-03     86.0343E-03    -55.5512E-03     108.947E-03    -53.6326E-03     85.3908E-03
            1384     8.52994E-03     59.8212E-03    -26.2148E+06    -100.380E+06    -2.25310E+06     152.388E+03    -55.0908E-03     108.906E-03    -53.8153E-03     79.2333E-03    -55.2798E-03     108.652E-03    -53.6430E-03     78.6966E-03
            1385     7.67689E-03     59.7453E-03    -28.7236E+06    -112.795E+06    -3.09278E+06     130.598E+03    -54.8844E-03     108.727E-03    -53.8430E-03     72.5619E-03    -55.0100E-03     108.360E-03    -53.6533E-03     72.1172E-03
            1386     6.82377E-03     59.6759E-03    -31.7168E+06    -123.619E+06    -5.00136E+06      90.153E+03    -54.6838E-03     108.549E-03    -53.8649E-03     65.6001E-03    -54.7630E-03     108.091E-03    -53.6646E-03     65.2352E-03
            1387     5.97076E-03     59.6138E-03    -35.2109E+06    -131.900E+06    -9.97726E+06     126.256E+03    -54.5013E-03     108.369E-03    -53.8681E-03     58.3012E-03    -54.5462E-03     107.850E-03    -53.6757E-03     58.0067E-03
            1388     5.11773E-03     59.5590E-03    -38.9112E+06    -137.921E+06    -16.1477E+06     159.506E+03    -54.3206E-03     108.182E-03    -53.8616E-03     50.7347E-03    -54.3419E-03     107.623E-03    -53.6859E-03     50.5017E-03
            1389     4.26474E-03     59.5121E-03    -42.7921E+06    -146.966E+06    -22.6777E+06     71.3700E+03    -54.1519E-03     108.010E-03    -53.8585E-03     42.8870E-03    -54.1521E-03     107.403E-03    -53.6967E-03     42.7057E-03
            1390     3.41174E-03     59.4730E-03    -46.8168E+06    -157.533E+06    -31.1514E+06    -174.791E+03    -54.0186E-03     107.868E-03    -53.8493E-03     34.7409E-03    -53.9984E-03     107.213E-03    -53.7087E-03     34.6018E-03
            1391     2.55878E-03     59.4424E-03    -50.3940E+06    -164.083E+06    -40.7587E+06    -235.703E+03    -53.9219E-03     107.749E-03    -53.8271E-03     26.3829E-03    -53.8873E-03     107.071E-03    -53.7199E-03     26.2823E-03
            1392     1.70584E-03     59.4202E-03    -53.2097E+06    -169.397E+06    -48.7865E+06    -64.9425E+03    -53.8625E-03     107.667E-03    -53.8044E-03     17.9046E-03    -53.8169E-03     106.973E-03    -53.7256E-03     17.8406E-03
            1393     852.940E-06     59.4065E-03    -55.2358E+06    -172.860E+06    -54.0016E+06     72.8713E+03    -53.8300E-03     107.595E-03    -53.7654E-03     9.81987E-03    -53.7785E-03     106.891E-03    -53.7047E-03     9.78776E-03
            1394     16.2082E-03     59.8845E-03    -5.69418E+06     144.133E+06     97.0376E+06     407.947E+03    -54.5308E-03     108.263E-03    -53.7320E-03     110.441E-03    -57.5695E-03     111.511E-03    -53.4475E-03     110.338E-03
            1395     15.3561E-03     59.7066E-03    -10.3635E+06     140.524E+06     83.3243E+06    -180.041E+03    -56.9246E-03     110.627E-03    -53.7028E-03     173.891E-03    -61.2897E-03     115.213E-03    -53.4749E-03     173.028E-03
            1396     14.5033E-03     59.5334E-03    -14.1817E+06     116.310E+06      38.803E+06     258.853E+03    -57.0963E-03     110.653E-03    -53.5567E-03     164.661E-03    -60.3286E-03     114.135E-03    -53.5108E-03     163.149E-03
            1397     13.6484E-03     59.3763E-03    -16.6902E+06     70.1705E+06     3.97648E+06     810.296E+03    -56.7482E-03     110.232E-03    -53.4837E-03     142.514E-03    -58.8076E-03     112.470E-03    -53.5414E-03     141.007E-03
            1398     12.7969E-03     59.2464E-03    -17.9158E+06     13.5308E+06    -1.15244E+06     310.889E+03    -56.1114E-03     109.671E-03    -53.5594E-03     120.110E-03    -57.3396E-03     110.887E-03    -53.5588E-03     118.835E-03
            1399     11.9426E-03     59.1360E-03    -19.0277E+06    -26.3222E+06     439.341E+03     119.516E+03    -55.5872E-03     109.231E-03    -53.6434E-03     105.986E-03    -56.3742E-03     109.855E-03    -53.5754E-03     104.925E-03
            1400     11.0895E-03     59.0346E-03    -20.3601E+06    -54.2722E+06    -1.16316E+06     150.599E+03    -55.5101E-03     109.206E-03    -53.6963E-03     98.7213E-03    -56.0557E-03     109.490E-03    -53.5939E-03     97.8194E-03
            1401     10.2362E-03     58.9386E-03    -21.9928E+06    -74.0207E+06    -786.851E+03     88.4608E+03    -55.4418E-03     109.186E-03    -53.7441E-03     93.0301E-03    -55.8301E-03     109.236E-03    -53.6088E-03     92.2656E-03
            1402     9.38313E-03     58.8486E-03    -23.9266E+06    -88.0645E+06    -586.542E+03     95.3375E+03    -55.2577E-03     109.039E-03    -53.7810E-03     86.0979E-03    -55.5320E-03     108.917E-03    -53.6216E-03     85.4548E-03
            1403     8.53004E-03     58.7661E-03    -26.1788E+06    -100.388E+06    -2.41237E+06     71.8083E+03    -55.0644E-03     108.869E-03    -53.8048E-03     79.2521E-03    -55.2528E-03     108.615E-03    -53.6334E-03     78.7150E-03
            1404     7.67688E-03     58.6900E-03    -28.7666E+06    -112.753E+06    -3.19443E+06     32.1641E+03    -54.8754E-03     108.709E-03    -53.8339E-03     72.5616E-03    -55.0011E-03     108.342E-03    -53.6446E-03     72.1159E-03
            1405     6.82388E-03     58.6207E-03    -31.8123E+06    -123.601E+06    -5.18175E+06     35.7434E+03    -54.6800E-03     108.535E-03    -53.8551E-03     65.5773E-03    -54.7594E-03     108.078E-03    -53.6556E-03     65.2118E-03
            1406     5.97079E-03     58.5585E-03    -35.2078E+06    -132.003E+06    -10.0865E+06     84.2886E+03    -54.4867E-03     108.345E-03    -53.8587E-03     58.2920E-03    -54.5313E-03     107.826E-03    -53.6667E-03     57.9973E-03
            1407     5.11779E-03     58.5038E-03    -38.7853E+06    -137.886E+06    -16.1971E+06     94.2355E+03    -54.3039E-03     108.157E-03    -53.8532E-03     50.7255E-03    -54.3245E-03     107.598E-03    -53.6781E-03     50.4919E-03
            1408     4.26476E-03     58.4568E-03    -42.5675E+06    -146.777E+06    -22.6770E+06     18.9821E+03    -54.1408E-03     107.992E-03    -53.8513E-03     42.8644E-03    -54.1401E-03     107.385E-03    -53.6901E-03     42.6825E-03
            1409     3.41177E-03     58.4179E-03    -46.4919E+06    -157.421E+06    -31.2171E+06    -4.68432E+03    -54.0121E-03     107.855E-03    -53.8424E-03     34.7243E-03    -53.9904E-03     107.199E-03    -53.7028E-03     34.5873E-03
            1410     2.55877E-03     58.3871E-03    -50.3320E+06    -164.301E+06    -40.9101E+06     84.6346E+03    -53.9204E-03     107.741E-03    -53.8202E-03     26.3687E-03    -53.8850E-03     107.062E-03    -53.7135E-03     26.2722E-03
            1411     1.70586E-03     58.3650E-03    -53.3965E+06    -169.459E+06    -48.5885E+06     110.436E+03    -53.8552E-03     107.654E-03    -53.7984E-03     17.9001E-03    -53.8107E-03     106.959E-03    -53.7182E-03     17.8384E-03
            1412     852.943E-06     58.3512E-03    -55.0799E+06    -172.742E+06    -53.8440E+06     117.799E+03    -53.7925E-03     107.581E-03    -53.7883E-03     9.77427E-03    -53.7406E-03     106.877E-03    -53.7271E-03     9.74265E-03
            1413     16.2130E-03     58.8296E-03    -4.72312E+06     144.416E+06     97.4534E+06     414.289E+03    -54.7375E-03     108.439E-03    -53.7020E-03     109.999E-03    -57.7737E-03     111.689E-03    -53.4173E-03     109.898E-03
            1414     15.3576E-03     58.6527E-03    -9.74679E+06     140.797E+06     80.3506E+06     242.901E+03    -56.6150E-03     110.274E-03    -53.6591E-03     174.347E-03    -60.9906E-03     114.882E-03    -53.4474E-03     173.516E-03
            1415     14.5025E-03     58.4781E-03    -14.5228E+06     115.726E+06     36.2874E+06     157.577E+03    -57.2328E-03     110.756E-03    -53.5234E-03     165.280E-03    -60.4721E-03     114.250E-03    -53.4887E-03     163.765E-03
            1416     13.6509E-03     58.3211E-03    -16.0883E+06     71.0194E+06     5.23448E+06     518.326E+03    -56.7399E-03     110.204E-03    -53.4638E-03     143.252E-03    -58.8058E-03     112.449E-03    -53.5173E-03     141.743E-03
            1417     12.7954E-03     58.1918E-03    -17.0466E+06     13.3758E+06    -1.24102E+06     500.381E+03    -55.8983E-03     109.441E-03    -53.5428E-03     120.558E-03    -57.1207E-03     110.654E-03    -53.5436E-03     119.293E-03
            1418     11.9428E-03     58.0805E-03    -18.6728E+06    -26.4623E+06     403.766E+03     324.503E+03    -55.5753E-03     109.212E-03    -53.6364E-03     106.251E-03    -56.3608E-03     109.836E-03    -53.5689E-03     105.193E-03
            1419     11.0895E-03     57.9798E-03    -20.1614E+06    -53.9018E+06    -1.05131E+06     251.040E+03    -55.5372E-03     109.226E-03    -53.6892E-03     98.8502E-03    -56.0830E-03     109.512E-03    -53.5871E-03     97.9490E-03
            1420     10.2364E-03     57.8831E-03    -21.8881E+06    -74.0707E+06    -865.462E+03     172.061E+03    -55.4506E-03     109.186E-03    -53.7352E-03     93.0448E-03    -55.8382E-03     109.235E-03    -53.6004E-03     92.2811E-03
            1421     9.38324E-03     57.7935E-03    -23.8686E+06    -87.9815E+06    -613.810E+03     98.7444E+03    -55.2440E-03     109.016E-03    -53.7719E-03     86.1379E-03    -55.5179E-03     108.895E-03    -53.6128E-03     85.4956E-03
            1422     8.53003E-03     57.7108E-03    -26.1364E+06    -100.375E+06    -2.48776E+06     56.8770E+03    -55.0639E-03     108.859E-03    -53.7956E-03     79.2617E-03    -55.2519E-03     108.606E-03    -53.6246E-03     78.7247E-03
            1423     7.67704E-03     57.6348E-03    -28.7364E+06    -112.703E+06    -3.22145E+06     49.3890E+03    -54.8773E-03     108.701E-03    -53.8237E-03     72.5429E-03    -55.0027E-03     108.334E-03    -53.6348E-03     72.0976E-03
            1424     6.82392E-03     57.5654E-03    -31.8325E+06    -123.619E+06    -5.19481E+06     29.3184E+03    -54.6690E-03     108.514E-03    -53.8445E-03     65.5670E-03    -54.7484E-03     108.056E-03    -53.6451E-03     65.2017E-03
            1425     5.97089E-03     57.5033E-03    -35.2394E+06    -131.966E+06    -10.2828E+06    -38.7814E+03    -54.4692E-03     108.317E-03    -53.8477E-03     58.2986E-03    -54.5137E-03     107.798E-03    -53.6567E-03     58.0025E-03
            1426     5.11781E-03     57.4486E-03    -38.7489E+06    -137.899E+06    -16.2517E+06    -91.6637E+03    -54.2844E-03     108.129E-03    -53.8444E-03     50.7293E-03    -54.3048E-03     107.569E-03    -53.6696E-03     50.4935E-03
            1427     4.26480E-03     57.4016E-03    -42.5148E+06    -146.809E+06    -22.6607E+06    -14.8985E+03    -54.1333E-03     107.977E-03    -53.8438E-03     42.8533E-03    -54.1323E-03     107.370E-03    -53.6826E-03     42.6711E-03
            1428     3.41179E-03     57.3626E-03    -46.5279E+06    -157.679E+06    -31.4075E+06     255.740E+03    -54.0175E-03     107.850E-03    -53.8325E-03     34.7015E-03    -53.9953E-03     107.194E-03    -53.6934E-03     34.5678E-03
            1429     2.55884E-03     57.3320E-03    -50.1082E+06    -164.201E+06    -40.7617E+06     428.698E+03    -53.9124E-03     107.721E-03    -53.8087E-03     26.3529E-03    -53.8762E-03     107.042E-03    -53.7018E-03     26.2608E-03
            1430     1.70587E-03     57.3097E-03    -52.9681E+06    -169.145E+06    -48.2943E+06     232.905E+03    -53.8345E-03     107.624E-03    -53.7897E-03     17.8790E-03    -53.7887E-03     106.930E-03    -53.7091E-03     17.8190E-03
            1431     852.901E-06     57.2961E-03    -54.8885E+06    -172.607E+06    -53.5874E+06     40.6360E+03    -53.7948E-03     107.570E-03    -53.7751E-03     9.73888E-03    -53.7426E-03     106.866E-03    -53.7132E-03     9.70616E-03
            1432     16.2093E-03     57.7739E-03    -5.40933E+06     143.839E+06     96.6307E+06     21.4795E+03    -54.5480E-03     108.271E-03    -53.7229E-03     110.651E-03    -57.6166E-03     111.551E-03    -53.4405E-03     110.543E-03
            1433     15.3561E-03     57.5986E-03    -10.4956E+06     140.971E+06     80.9892E+06     781.100E+03    -57.0529E-03     110.736E-03    -53.6830E-03     175.441E-03    -61.4779E-03     115.389E-03    -53.4672E-03     174.600E-03
            1434     14.5038E-03     57.4223E-03    -14.2731E+06     116.259E+06     36.4443E+06     319.972E+03    -57.3508E-03     110.882E-03    -53.5312E-03     165.942E-03    -60.6063E-03     114.394E-03    -53.4969E-03     164.422E-03
            1435     13.6484E-03     57.2665E-03    -16.6672E+06     69.8460E+06     3.51578E+06    -140.096E+03    -56.7383E-03     110.203E-03    -53.4646E-03     143.422E-03    -58.8071E-03     112.450E-03    -53.5242E-03     141.902E-03
            1436     12.7968E-03     57.1364E-03    -17.8077E+06     13.5887E+06    -1.36269E+06     451.972E+03    -56.0057E-03     109.553E-03    -53.5469E-03     120.563E-03    -57.2311E-03     110.767E-03    -53.5476E-03     119.295E-03
            1437     11.9427E-03     57.0259E-03    -18.6722E+06    -25.6626E+06     641.097E+03     512.120E+03    -55.6366E-03     109.271E-03    -53.6347E-03     106.310E-03    -56.4232E-03     109.899E-03    -53.5672E-03     105.254E-03
            1438     11.0895E-03     56.9242E-03    -20.2086E+06    -54.0479E+06    -1.16756E+06     351.860E+03    -55.5691E-03     109.253E-03    -53.6837E-03     98.8475E-03    -56.1146E-03     109.538E-03    -53.5819E-03     97.9472E-03
            1439     10.2365E-03     56.8282E-03    -21.8615E+06    -73.9123E+06    -775.447E+03     274.970E+03    -55.4549E-03     109.183E-03    -53.7282E-03     93.0411E-03    -55.8425E-03     109.233E-03    -53.5932E-03     92.2788E-03
            1440     9.38321E-03     56.7382E-03    -23.8370E+06    -87.8901E+06    -591.217E+03     126.106E+03    -55.2637E-03     109.027E-03    -53.7629E-03     86.1381E-03    -55.5375E-03     108.905E-03    -53.6039E-03     85.4962E-03
            1441     8.53023E-03     56.6556E-03    -26.0292E+06    -100.267E+06    -2.42038E+06     39.2228E+03    -55.0652E-03     108.850E-03    -53.7847E-03     79.2350E-03    -55.2527E-03     108.596E-03    -53.6137E-03     78.6981E-03
            1442     7.67705E-03     56.5795E-03    -28.5976E+06    -112.754E+06    -3.17507E+06     37.8542E+03    -54.8566E-03     108.670E-03    -53.8129E-03     72.5313E-03    -54.9812E-03     108.302E-03    -53.6238E-03     72.0863E-03
            1443     6.82402E-03     56.5103E-03    -31.6741E+06    -123.560E+06    -5.07590E+06     41.0855E+03    -54.6547E-03     108.489E-03    -53.8347E-03     65.5719E-03    -54.7335E-03     108.032E-03    -53.6350E-03     65.2071E-03
            1444     5.97091E-03     56.4481E-03    -35.0841E+06    -131.839E+06    -10.1044E+06    -88.7232E+03    -54.4607E-03     108.299E-03    -53.8384E-03     58.2887E-03    -54.5047E-03     107.780E-03    -53.6468E-03     57.9921E-03
            1445     5.11789E-03     56.3934E-03    -38.8037E+06    -137.963E+06    -16.3136E+06    -130.997E+03    -54.2679E-03     108.103E-03    -53.8349E-03     50.7249E-03    -54.2883E-03     107.543E-03    -53.6602E-03     50.4888E-03
            1446     4.26481E-03     56.3464E-03    -42.8285E+06    -147.101E+06    -22.8774E+06     59.5539E+03    -54.1253E-03     107.960E-03    -53.8347E-03     42.8631E-03    -54.1251E-03     107.352E-03    -53.6736E-03     42.6820E-03
            1447     3.41185E-03     56.3074E-03    -46.6404E+06    -157.894E+06    -31.6378E+06     269.752E+03    -54.0169E-03     107.838E-03    -53.8215E-03     34.6940E-03    -53.9947E-03     107.182E-03    -53.6831E-03     34.5605E-03
            1448     2.55886E-03     56.2768E-03    -49.8784E+06    -164.026E+06    -40.6049E+06     354.274E+03    -53.8999E-03     107.698E-03    -53.7977E-03     26.3477E-03    -53.8630E-03     107.019E-03    -53.6906E-03     26.2547E-03
            1449     1.70589E-03     56.2546E-03    -52.4820E+06    -168.725E+06    -47.8292E+06     411.813E+03    -53.8242E-03     107.604E-03    -53.7800E-03     17.8958E-03    -53.7772E-03     106.911E-03    -53.6984E-03     17.8382E-03
            1450     852.978E-06     56.2408E-03    -54.3681E+06    -172.317E+06    -53.3558E+06     191.818E+03    -53.7648E-03     107.551E-03    -53.7862E-03     9.74690E-03    -53.7107E-03     106.847E-03    -53.7243E-03     9.71620E-03
            1451     16.2093E-03     56.7193E-03    -4.70144E+06     143.440E+06     96.7623E+06     98.8208E+03    -54.3202E-03     108.061E-03    -53.7406E-03     108.986E-03    -57.3477E-03     111.300E-03    -53.4579E-03     108.884E-03
            1452     15.3564E-03     56.5413E-03    -9.81717E+06     140.441E+06     80.5918E+06     493.172E+03    -56.9884E-03     110.690E-03    -53.7020E-03     174.302E-03    -61.3833E-03     115.315E-03    -53.4885E-03     173.453E-03
            1453     14.5020E-03     56.3683E-03    -14.3556E+06     116.360E+06     35.9148E+06     611.266E+03    -57.5250E-03     111.070E-03    -53.5446E-03     165.705E-03    -60.7864E-03     114.589E-03    -53.5129E-03     164.174E-03
            1454     13.6502E-03     56.2103E-03    -16.8380E+06     69.7375E+06     3.38044E+06     380.454E+03    -56.8323E-03     110.303E-03    -53.4711E-03     142.854E-03    -58.8945E-03     112.544E-03    -53.5309E-03     141.337E-03
            1455     12.7955E-03     56.0819E-03    -17.9389E+06     13.4596E+06    -1.48489E+06     59.2014E+03    -56.0354E-03     109.584E-03    -53.5486E-03     120.601E-03    -57.2599E-03     110.797E-03    -53.5496E-03     119.328E-03
            1456     11.9428E-03     55.9701E-03    -19.0424E+06    -25.8203E+06     401.291E+03     293.511E+03    -55.7313E-03     109.363E-03    -53.6319E-03     106.329E-03    -56.5199E-03     109.991E-03    -53.5648E-03     105.267E-03
            1457     11.0898E-03     55.8694E-03    -20.2584E+06    -53.8331E+06    -1.07969E+06     371.320E+03    -55.5644E-03     109.242E-03    -53.6780E-03     98.8793E-03    -56.1100E-03     109.528E-03    -53.5760E-03     97.9802E-03
            1458     10.2364E-03     55.7727E-03    -21.8204E+06    -73.7600E+06    -679.620E+03     230.370E+03    -55.4959E-03     109.216E-03    -53.7205E-03     93.0286E-03    -55.8837E-03     109.267E-03    -53.5853E-03     92.2652E-03
            1459     9.38350E-03     55.6831E-03    -23.7294E+06    -87.6760E+06    -466.688E+03     182.393E+03    -55.2808E-03     109.032E-03    -53.7517E-03     86.0753E-03    -55.5543E-03     108.912E-03    -53.5925E-03     85.4341E-03
            1460     8.53024E-03     55.6004E-03    -26.0275E+06    -100.199E+06    -2.42577E+06     45.4744E+03    -55.0383E-03     108.811E-03    -53.7725E-03     79.2331E-03    -55.2257E-03     108.557E-03    -53.6016E-03     78.6969E-03
            1461     7.67722E-03     55.5244E-03    -28.6303E+06    -112.764E+06    -3.24332E+06         115.201    -54.8363E-03     108.638E-03    -53.8018E-03     72.5294E-03    -54.9608E-03     108.270E-03    -53.6130E-03     72.0844E-03
            1462     6.82403E-03     55.4551E-03    -31.6617E+06    -123.511E+06    -5.11670E+06    -29.5466E+03    -54.6424E-03     108.467E-03    -53.8243E-03     65.5738E-03    -54.7210E-03     108.009E-03    -53.6248E-03     65.2083E-03
            1463     5.97102E-03     55.3929E-03    -35.1370E+06    -131.773E+06    -10.0315E+06    -28.1521E+03    -54.4479E-03     108.277E-03    -53.8288E-03     58.2773E-03    -54.4924E-03     107.758E-03    -53.6370E-03     57.9817E-03
            1464     5.11791E-03     55.3383E-03    -38.9090E+06    -138.065E+06    -16.4069E+06     17.6029E+03    -54.2627E-03     108.087E-03    -53.8246E-03     50.7249E-03    -54.2834E-03     107.527E-03    -53.6501E-03     50.4908E-03
            1465     4.26487E-03     55.2912E-03    -42.7070E+06    -147.290E+06    -23.2120E+06     71.0965E+03    -54.1136E-03     107.936E-03    -53.8228E-03     42.8734E-03    -54.1120E-03     107.328E-03    -53.6634E-03     42.6927E-03
            1466     3.41186E-03     55.2522E-03    -46.4306E+06    -157.976E+06    -31.8781E+06     134.138E+03    -53.9965E-03     107.808E-03    -53.8119E-03     34.6922E-03    -53.9727E-03     107.151E-03    -53.6749E-03     34.5571E-03
            1467     2.55888E-03     55.2216E-03    -49.7297E+06    -164.006E+06    -40.6285E+06     251.426E+03    -53.8920E-03     107.683E-03    -53.7913E-03     26.3488E-03    -53.8544E-03     107.005E-03    -53.6845E-03     26.2545E-03
            1468     1.70590E-03     55.1994E-03    -52.3978E+06    -168.499E+06    -47.4269E+06     274.736E+03    -53.8155E-03     107.592E-03    -53.7769E-03     17.9222E-03    -53.7690E-03     106.899E-03    -53.6937E-03     17.8628E-03
            1469     852.915E-06     55.1857E-03    -54.0033E+06    -171.757E+06    -52.6621E+06     264.984E+03    -53.7521E-03     107.545E-03    -53.7934E-03     9.70911E-03    -53.6980E-03     106.843E-03    -53.7293E-03     9.67957E-03
            1470     16.2116E-03     55.6612E-03    -5.57459E+06     142.973E+06     96.4872E+06    -88.5441E+03    -54.3051E-03     108.049E-03    -53.7436E-03     110.322E-03    -57.3416E-03     111.293E-03    -53.4604E-03     110.218E-03
            1471     15.3562E-03     55.4907E-03    -10.9684E+06     139.606E+06     79.7110E+06     549.707E+03    -57.1840E-03     110.884E-03    -53.7003E-03     174.807E-03    -61.5701E-03     115.496E-03    -53.4883E-03     173.936E-03
            1472     14.5029E-03     55.3091E-03    -14.4166E+06     116.934E+06     36.0989E+06     599.157E+03    -57.5582E-03     111.097E-03    -53.5391E-03     165.325E-03    -60.8108E-03     114.609E-03    -53.5072E-03     163.789E-03
            1473     13.6492E-03     55.1574E-03    -15.8635E+06     70.5813E+06     4.36509E+06     263.484E+03    -56.7268E-03     110.195E-03    -53.4681E-03     142.402E-03    -58.7799E-03     112.430E-03    -53.5256E-03     140.890E-03
            1474     12.7963E-03     55.0256E-03    -17.2008E+06     13.2617E+06    -1.24791E+06     429.132E+03    -56.0502E-03     109.596E-03    -53.5456E-03     120.768E-03    -57.2727E-03     110.808E-03    -53.5462E-03     119.501E-03
            1475     11.9430E-03     54.9154E-03    -18.7763E+06    -26.0881E+06     399.865E+03     202.618E+03    -55.7191E-03     109.348E-03    -53.6286E-03     106.230E-03    -56.5059E-03     109.974E-03    -53.5615E-03     105.168E-03
            1476     11.0895E-03     54.8139E-03    -20.1802E+06    -53.8198E+06    -1.00806E+06     134.047E+03    -55.6440E-03     109.316E-03    -53.6718E-03     98.8849E-03    -56.1901E-03     109.602E-03    -53.5695E-03     97.9810E-03
            1477     10.2368E-03     54.7175E-03    -21.7101E+06    -73.6456E+06    -573.620E+03     235.483E+03    -55.5055E-03     109.215E-03    -53.7100E-03     92.9618E-03    -55.8928E-03     109.266E-03    -53.5746E-03     92.1987E-03
            1478     9.38344E-03     54.6279E-03    -23.6465E+06    -87.6076E+06    -399.591E+03     185.023E+03    -55.2511E-03     108.992E-03    -53.7409E-03     86.0732E-03    -55.5244E-03     108.872E-03    -53.5816E-03     85.4326E-03
            1479     8.53044E-03     54.5453E-03    -25.8525E+06    -100.078E+06    -2.28377E+06     150.797E+03    -55.0263E-03     108.789E-03    -53.7630E-03     79.2453E-03    -55.2131E-03     108.536E-03    -53.5918E-03     78.7108E-03
            1480     7.67719E-03     54.4692E-03    -28.5035E+06    -112.672E+06    -3.16028E+06     35.8376E+03    -54.8298E-03     108.622E-03    -53.7921E-03     72.5593E-03    -54.9539E-03     108.254E-03    -53.6032E-03     72.1149E-03
            1481     6.82419E-03     54.3999E-03    -31.6524E+06    -123.552E+06    -5.00368E+06     25.7064E+03    -54.6320E-03     108.447E-03    -53.8151E-03     65.5791E-03    -54.7107E-03     107.989E-03    -53.6150E-03     65.2145E-03
            1482     5.97100E-03     54.3378E-03    -35.2233E+06    -131.806E+06    -9.98108E+06     60.2641E+03    -54.4384E-03     108.258E-03    -53.8195E-03     58.2830E-03    -54.4833E-03     107.739E-03    -53.6272E-03     57.9888E-03
            1483     5.11798E-03     54.2831E-03    -38.8706E+06    -138.026E+06    -16.3536E+06     3.41033E+03    -54.2641E-03     108.078E-03    -53.8139E-03     50.7165E-03    -54.2847E-03     107.518E-03    -53.6392E-03     50.4823E-03
            1484     4.26493E-03     54.2360E-03    -42.6219E+06    -147.390E+06    -23.3470E+06         484.960    -54.0975E-03     107.908E-03    -53.8108E-03     42.8595E-03    -54.0952E-03     107.299E-03    -53.6520E-03     42.6779E-03
            1485     3.41189E-03     54.1971E-03    -46.3485E+06    -158.126E+06    -32.0221E+06     152.673E+03    -53.9739E-03     107.776E-03    -53.8022E-03     34.6870E-03    -53.9492E-03     107.118E-03    -53.6658E-03     34.5523E-03
            1486     2.55886E-03     54.1664E-03    -49.6713E+06    -163.884E+06    -40.3742E+06     150.371E+03    -53.8859E-03     107.671E-03    -53.7846E-03     26.3295E-03    -53.8486E-03     106.992E-03    -53.6768E-03     26.2339E-03
            1487     1.70591E-03     54.1442E-03    -52.3398E+06    -168.256E+06    -47.1433E+06    -35.0007E+03    -53.8112E-03     107.580E-03    -53.7683E-03     17.8916E-03    -53.7653E-03     106.887E-03    -53.6842E-03     17.8282E-03
            1488     852.953E-06     54.1305E-03    -54.2041E+06    -171.683E+06    -52.6070E+06    -115.080E+03    -53.7872E-03     107.522E-03    -53.7353E-03     9.70190E-03    -53.7343E-03     106.821E-03    -53.6708E-03     9.66746E-03
            1489     16.2069E-03     54.6084E-03    -5.56020E+06     142.647E+06     96.2028E+06     290.078E+03    -54.3457E-03     108.106E-03    -53.7599E-03     111.116E-03    -57.3847E-03     111.352E-03    -53.4776E-03     110.989E-03
            1490     15.3560E-03     54.4307E-03    -10.3939E+06     139.787E+06     80.7599E+06    -20.5384E+03    -57.7693E-03     111.472E-03    -53.7025E-03     173.785E-03    -62.1333E-03     116.061E-03    -53.4863E-03     172.865E-03
            1491     14.5037E-03     54.2570E-03    -13.8828E+06     116.986E+06     36.5188E+06     181.628E+03    -57.3148E-03     110.841E-03    -53.5260E-03     165.070E-03    -60.5588E-03     114.345E-03    -53.4929E-03     163.546E-03
            1492     13.6494E-03     54.1006E-03    -16.4633E+06     70.4096E+06     3.13558E+06     602.026E+03    -56.6013E-03     110.061E-03    -53.4593E-03     142.676E-03    -58.6577E-03     112.299E-03    -53.5218E-03     141.174E-03
            1493     12.7963E-03     53.9714E-03    -17.8155E+06     13.6139E+06    -1.62106E+06     367.313E+03    -56.1356E-03     109.678E-03    -53.5420E-03     120.899E-03    -57.3647E-03     110.896E-03    -53.5440E-03     119.628E-03
            1494     11.9425E-03     53.8599E-03    -18.5825E+06    -25.8195E+06     456.027E+03     113.469E+03    -55.7811E-03     109.402E-03    -53.6208E-03     106.281E-03    -56.5687E-03     110.030E-03    -53.5541E-03     105.216E-03
            1495     11.0901E-03     53.7585E-03    -20.0795E+06    -54.0708E+06    -1.11163E+06     133.149E+03    -55.6453E-03     109.306E-03    -53.6610E-03     98.7306E-03    -56.1899E-03     109.591E-03    -53.5590E-03     97.8267E-03
            1496     10.2366E-03     53.6624E-03    -21.6956E+06    -73.7082E+06    -546.117E+03     145.928E+03    -55.4523E-03     109.153E-03    -53.7008E-03     92.9905E-03    -55.8394E-03     109.203E-03    -53.5652E-03     92.2273E-03
            1497     9.38364E-03     53.5726E-03    -23.5668E+06    -87.5406E+06    -280.147E+03     198.153E+03    -55.2327E-03     108.967E-03    -53.7344E-03     86.0876E-03    -55.5058E-03     108.847E-03    -53.5747E-03     85.4475E-03
            1498     8.53037E-03     53.4902E-03    -25.8634E+06    -100.015E+06    -2.18325E+06     154.919E+03    -55.0281E-03     108.785E-03    -53.7567E-03     79.2675E-03    -55.2153E-03     108.531E-03    -53.5851E-03     78.7332E-03
            1499     7.67736E-03     53.4140E-03    -28.4869E+06    -112.606E+06    -2.99558E+06     157.174E+03    -54.8371E-03     108.622E-03    -53.7849E-03     72.5735E-03    -54.9615E-03     108.254E-03    -53.5953E-03     72.1307E-03
            1500     6.82414E-03     53.3448E-03    -31.6534E+06    -123.559E+06    -4.89757E+06     137.897E+03    -54.6301E-03     108.436E-03    -53.8063E-03     65.5628E-03    -54.7089E-03     107.978E-03    -53.6057E-03     65.1997E-03
            1501     5.97114E-03     53.2826E-03    -35.1619E+06    -131.762E+06    -9.79380E+06     81.3670E+03    -54.4369E-03     108.247E-03    -53.8098E-03     58.2825E-03    -54.4818E-03     107.727E-03    -53.6168E-03     57.9885E-03
            1502     5.11804E-03     53.2279E-03    -38.9504E+06    -137.936E+06    -16.1614E+06     6.67902E+03    -54.2498E-03     108.054E-03    -53.8040E-03     50.7182E-03    -54.2711E-03     107.494E-03    -53.6284E-03     50.4842E-03
            1503     4.26498E-03     53.1809E-03    -42.8717E+06    -147.541E+06    -23.3060E+06     17.5432E+03    -54.0882E-03     107.889E-03    -53.8007E-03     42.8478E-03    -54.0870E-03     107.279E-03    -53.6411E-03     42.6665E-03
            1504     3.41193E-03     53.1420E-03    -46.6114E+06    -158.104E+06    -31.7449E+06     28.6652E+03    -53.9699E-03     107.761E-03    -53.7914E-03     34.6982E-03    -53.9470E-03     107.104E-03    -53.6533E-03     34.5621E-03
            1505     2.55894E-03     53.1113E-03    -49.8420E+06    -163.655E+06    -40.0233E+06    -156.510E+03    -53.8783E-03     107.649E-03    -53.7710E-03     26.3231E-03    -53.8426E-03     106.972E-03    -53.6615E-03     26.2237E-03
            1506     1.70595E-03     53.0891E-03    -52.5118E+06    -168.303E+06    -47.2982E+06    -251.326E+03    -53.7963E-03     107.546E-03    -53.7500E-03     17.8644E-03    -53.7509E-03     106.854E-03    -53.6663E-03     17.7984E-03
            1507     852.981E-06     53.0754E-03    -54.4562E+06    -171.981E+06    -53.1226E+06    -273.963E+03    -53.7438E-03     107.483E-03    -53.7394E-03     9.78957E-03    -53.6910E-03     106.781E-03    -53.6767E-03     9.75296E-03
            1508     16.2107E-03     53.5487E-03    -4.44957E+06     142.969E+06     97.0282E+06     565.306E+03    -54.5484E-03     108.249E-03    -53.7005E-03     109.494E-03    -57.5452E-03     111.456E-03    -53.4162E-03     109.393E-03
            1509     15.3577E-03     53.3768E-03    -9.90939E+06     140.053E+06     80.1501E+06     339.459E+03    -56.4893E-03     110.151E-03    -53.6616E-03     172.947E-03    -60.8221E-03     114.713E-03    -53.4496E-03     172.108E-03
            1510     14.5025E-03     53.2011E-03    -15.2217E+06     116.035E+06     35.0911E+06     202.323E+03    -57.1616E-03     110.685E-03    -53.5231E-03     165.275E-03    -60.4154E-03     114.195E-03    -53.4939E-03     163.761E-03
            1511     13.6497E-03     53.0461E-03    -17.2002E+06     70.6692E+06     3.49372E+06     399.236E+03    -56.7726E-03     110.235E-03    -53.4623E-03     142.891E-03    -58.8414E-03     112.483E-03    -53.5224E-03     141.380E-03
            1512     12.7957E-03     52.9159E-03    -17.4885E+06     14.2107E+06    -1.24970E+06     56.6186E+03    -56.1962E-03     109.731E-03    -53.5352E-03     120.697E-03    -57.4268E-03     110.954E-03    -53.5367E-03     119.417E-03
            1513     11.9436E-03     52.8043E-03    -18.8663E+06    -25.9422E+06     370.182E+03    -19.6684E+03    -55.7786E-03     109.389E-03    -53.6104E-03     106.234E-03    -56.5666E-03     110.017E-03    -53.5435E-03     105.167E-03
            1514     11.0897E-03     52.7037E-03    -20.2529E+06    -54.1015E+06    -1.15805E+06     89.3704E+03    -55.5706E-03     109.223E-03    -53.6527E-03     98.7748E-03    -56.1156E-03     109.508E-03    -53.5507E-03     97.8720E-03
            1515     10.2368E-03     52.6070E-03    -21.7506E+06    -73.8772E+06    -616.702E+03     118.106E+03    -55.4384E-03     109.134E-03    -53.6954E-03     92.9985E-03    -55.8255E-03     109.183E-03    -53.5599E-03     92.2351E-03
            1516     9.38357E-03     52.5177E-03    -23.7354E+06    -87.4529E+06    -237.623E+03     168.022E+03    -55.2245E-03     108.954E-03    -53.7299E-03     86.0807E-03    -55.4985E-03     108.834E-03    -53.5699E-03     85.4403E-03
            1517     8.53050E-03     52.4349E-03    -25.9951E+06    -99.9456E+06    -2.12760E+06     167.484E+03    -55.0362E-03     108.788E-03    -53.7515E-03     79.2792E-03    -55.2244E-03     108.535E-03    -53.5796E-03     78.7447E-03
            1518     7.67732E-03     52.3589E-03    -28.6256E+06    -112.601E+06    -2.99898E+06     159.925E+03    -54.8412E-03     108.619E-03    -53.7782E-03     72.5602E-03    -54.9663E-03     108.252E-03    -53.5884E-03     72.1172E-03
            1519     6.82431E-03     52.2896E-03    -31.6690E+06    -123.473E+06    -4.87201E+06     142.197E+03    -54.6337E-03     108.432E-03    -53.7981E-03     65.5764E-03    -54.7127E-03     107.974E-03    -53.5975E-03     65.2135E-03
            1520     5.97116E-03     52.2275E-03    -35.1614E+06    -131.731E+06    -9.78050E+06     128.986E+03    -54.4334E-03     108.234E-03    -53.8005E-03     58.2968E-03    -54.4783E-03     107.715E-03    -53.6074E-03     58.0037E-03
            1521     5.11808E-03     52.1728E-03    -38.9882E+06    -137.911E+06    -16.0812E+06     153.671E+03    -54.2404E-03     108.035E-03    -53.7946E-03     50.7126E-03    -54.2621E-03     107.475E-03    -53.6185E-03     50.4807E-03
            1522     4.26500E-03     52.1258E-03    -42.9508E+06    -147.505E+06    -23.1949E+06     43.6993E+03    -54.0869E-03     107.877E-03    -53.7903E-03     42.8329E-03    -54.0862E-03     107.268E-03    -53.6301E-03     42.6521E-03
            1523     3.41199E-03     52.0868E-03    -46.7061E+06    -157.795E+06    -31.4880E+06    -236.262E+03    -53.9640E-03     107.743E-03    -53.7793E-03     34.7045E-03    -53.9423E-03     107.087E-03    -53.6402E-03     34.5651E-03
            1524     2.55896E-03     52.0562E-03    -50.0814E+06    -163.614E+06    -40.2933E+06    -460.766E+03    -53.8586E-03     107.615E-03    -53.7568E-03     26.3606E-03    -53.8237E-03     106.939E-03    -53.6484E-03     26.2575E-03
            1525     1.70599E-03     52.0340E-03    -52.8465E+06    -168.783E+06    -48.0598E+06    -383.102E+03    -53.7841E-03     107.520E-03    -53.7355E-03     17.8629E-03    -53.7385E-03     106.827E-03    -53.6544E-03     17.7952E-03
            1526     852.948E-06     52.0204E-03    -54.5615E+06    -172.265E+06    -53.4529E+06    -95.2372E+03    -53.7042E-03     107.459E-03    -53.7546E-03     9.77910E-03    -53.6510E-03     106.756E-03    -53.6930E-03     9.74488E-03
            1527     16.2153E-03     52.5003E-03     -5.5193E+06     142.145E+06     96.1702E+06     367.618E+03    -54.4781E-03     108.178E-03    -53.6995E-03     112.129E-03    -57.5565E-03     111.462E-03    -53.4168E-03     112.043E-03
            1528     15.3557E-03     52.3219E-03    -10.8807E+06     140.429E+06     80.2923E+06     856.153E+03    -56.6570E-03     110.330E-03    -53.6730E-03     176.029E-03    -61.0865E-03     114.986E-03    -53.4594E-03     175.209E-03
            1529     14.5032E-03     52.1462E-03    -14.5737E+06     117.002E+06     36.1175E+06     416.097E+03    -57.3629E-03     110.894E-03    -53.5308E-03     165.020E-03    -60.6110E-03     114.401E-03    -53.4988E-03     163.501E-03
            1530     13.6492E-03     51.9907E-03    -16.2975E+06     70.6476E+06     3.93968E+06    -122.171E+03    -56.8779E-03     110.337E-03    -53.4587E-03     142.947E-03    -58.9445E-03     112.585E-03    -53.5178E-03     141.424E-03
            1531     12.7972E-03     51.8604E-03    -17.6797E+06     14.1868E+06    -1.25620E+06     22.8659E+03    -56.2055E-03     109.733E-03    -53.5272E-03     120.782E-03    -57.4379E-03     110.956E-03    -53.5284E-03     119.501E-03
            1532     11.9427E-03     51.7496E-03    -18.8495E+06    -26.0434E+06     329.445E+03     79.2052E+03    -55.6885E-03     109.293E-03    -53.6050E-03     106.400E-03    -56.4749E-03     109.920E-03    -53.5382E-03     105.339E-03
            1533     11.0901E-03     51.6481E-03    -20.1441E+06    -54.1954E+06    -1.08226E+06     96.3149E+03    -55.5884E-03     109.239E-03    -53.6504E-03     98.7583E-03    -56.1333E-03     109.523E-03    -53.5480E-03     97.8548E-03
            1534     10.2368E-03     51.5522E-03    -21.9160E+06    -73.7482E+06    -620.879E+03     167.688E+03    -55.4331E-03     109.125E-03    -53.6919E-03     92.9641E-03    -55.8210E-03     109.175E-03    -53.5563E-03     92.2016E-03
            1535     9.38365E-03     51.4623E-03    -23.8639E+06    -87.5491E+06    -318.010E+03     118.923E+03    -55.2290E-03     108.955E-03    -53.7259E-03     86.1329E-03    -55.5036E-03     108.835E-03    -53.5660E-03     85.4919E-03
            1536     8.53051E-03     51.3799E-03    -26.0879E+06    -99.8961E+06    -2.11730E+06     167.077E+03    -55.0438E-03     108.791E-03    -53.7468E-03     79.2825E-03    -55.2325E-03     108.538E-03    -53.5747E-03     78.7479E-03
            1537     7.67744E-03     51.3037E-03    -28.6836E+06    -112.562E+06    -3.03223E+06     104.752E+03    -54.8379E-03     108.610E-03    -53.7725E-03     72.5684E-03    -54.9632E-03     108.243E-03    -53.5828E-03     72.1251E-03
            1538     6.82426E-03     51.2346E-03    -31.7594E+06    -123.473E+06    -4.96976E+06     85.5137E+03    -54.6392E-03     108.430E-03    -53.7912E-03     65.5763E-03    -54.7184E-03     107.973E-03    -53.5910E-03     65.2127E-03
            1539     5.97121E-03     51.1723E-03    -35.2084E+06    -131.762E+06    -9.90847E+06     143.158E+03    -54.4396E-03     108.231E-03    -53.7916E-03     58.2721E-03    -54.4844E-03     107.712E-03    -53.5990E-03     57.9792E-03
            1540     5.11814E-03     51.1177E-03    -38.8495E+06    -137.912E+06    -16.1374E+06     194.912E+03    -54.2415E-03     108.025E-03    -53.7838E-03     50.6884E-03    -54.2623E-03     107.465E-03    -53.6082E-03     50.4571E-03
            1541     4.26508E-03     51.0707E-03    -42.6952E+06    -147.133E+06    -22.8975E+06     62.9241E+03    -54.0783E-03     107.858E-03    -53.7793E-03     42.8327E-03    -54.0773E-03     107.249E-03    -53.6186E-03     42.6522E-03
            1542     3.41203E-03     51.0318E-03    -46.6365E+06    -157.500E+06    -31.4574E+06    -302.315E+03    -53.9469E-03     107.715E-03    -53.7679E-03     34.6971E-03    -53.9253E-03     107.060E-03    -53.6291E-03     34.5570E-03
            1543     2.55898E-03     51.0011E-03    -50.1871E+06    -163.876E+06    -40.9647E+06    -420.114E+03    -53.8389E-03     107.584E-03    -53.7456E-03     26.3598E-03    -53.8032E-03     106.908E-03    -53.6401E-03     26.2574E-03
            1544     1.70594E-03     50.9789E-03    -53.0539E+06    -169.224E+06    -48.6354E+06    -255.357E+03    -53.7841E-03     107.509E-03    -53.7252E-03     17.8541E-03    -53.7381E-03     106.815E-03    -53.6461E-03     17.7880E-03
            1545     853.036E-06     50.9653E-03    -54.9145E+06    -172.604E+06    -53.6693E+06    -45.5927E+03    -53.7563E-03     107.437E-03    -53.6806E-03     9.72140E-03    -53.7041E-03     106.733E-03    -53.6191E-03     9.68781E-03
            1546     16.2027E-03     51.4434E-03    -4.60710E+06     141.242E+06     95.7726E+06     533.697E+03    -54.3299E-03     108.081E-03    -53.7507E-03     109.524E-03    -57.3987E-03     111.357E-03    -53.4699E-03     109.416E-03
            1547     15.3565E-03     51.2639E-03    -9.81861E+06     140.511E+06     80.6273E+06     236.460E+03    -57.3716E-03     111.075E-03    -53.7039E-03     174.406E-03    -61.8023E-03     115.736E-03    -53.4902E-03     173.537E-03
            1548     14.5031E-03     51.0925E-03    -13.4974E+06     117.879E+06     37.3184E+06     464.479E+03    -57.5184E-03     111.056E-03    -53.5372E-03     165.092E-03    -60.7623E-03     114.562E-03    -53.5019E-03     163.566E-03
            1549     13.6499E-03     50.9344E-03    -15.8940E+06     70.6893E+06     4.38102E+06     252.358E+03    -56.9546E-03     110.412E-03    -53.4573E-03     143.182E-03    -59.0239E-03     112.663E-03    -53.5148E-03     141.658E-03
            1550     12.7957E-03     50.8057E-03    -17.1602E+06     14.1419E+06    -833.126E+03    -36.6096E+03    -56.1423E-03     109.668E-03    -53.5254E-03     120.565E-03    -57.3712E-03     110.888E-03    -53.5252E-03     119.286E-03
            1551     11.9435E-03     50.6940E-03    -18.6001E+06    -25.9283E+06     596.381E+03     307.310E+03    -55.7234E-03     109.326E-03    -53.6026E-03     106.274E-03    -56.5091E-03     109.952E-03    -53.5351E-03     105.214E-03
            1552     11.0899E-03     50.5931E-03    -20.3015E+06    -54.1813E+06    -1.12532E+06     259.957E+03    -55.5300E-03     109.178E-03    -53.6477E-03     98.7214E-03    -56.0749E-03     109.461E-03    -53.5453E-03     97.8215E-03
            1553     10.2368E-03     50.4969E-03    -21.8645E+06    -73.7159E+06    -574.447E+03     146.030E+03    -55.4333E-03     109.125E-03    -53.6915E-03     93.0052E-03    -55.8211E-03     109.175E-03    -53.5557E-03     92.2425E-03
            1554     9.38366E-03     50.4073E-03    -23.8374E+06    -87.5312E+06    -369.824E+03     148.406E+03    -55.2517E-03     108.976E-03    -53.7241E-03     86.1803E-03    -55.5262E-03     108.856E-03    -53.5645E-03     85.5394E-03
            1555     8.53055E-03     50.3246E-03    -26.0847E+06    -99.9649E+06    -2.22506E+06     71.4875E+03    -55.0526E-03     108.796E-03    -53.7434E-03     79.2965E-03    -55.2409E-03     108.543E-03    -53.5717E-03     78.7608E-03
            1556     7.67741E-03     50.2487E-03    -28.6211E+06    -112.472E+06    -3.01206E+06     84.7870E+03    -54.8609E-03     108.628E-03    -53.7672E-03     72.5453E-03    -54.9860E-03     108.261E-03    -53.5776E-03     72.1016E-03
            1557     6.82437E-03     50.1793E-03    -31.7060E+06    -123.498E+06    -5.09851E+06     55.3416E+03    -54.6484E-03     108.431E-03    -53.7826E-03     65.5317E-03    -54.7271E-03     107.974E-03    -53.5831E-03     65.1677E-03
            1558     5.97129E-03     50.1173E-03    -35.1341E+06    -131.829E+06    -10.0225E+06     71.1774E+03    -54.4417E-03     108.223E-03    -53.7811E-03     58.2390E-03    -54.4859E-03     107.703E-03    -53.5891E-03     57.9453E-03
            1559     5.11819E-03     50.0626E-03    -38.7085E+06    -137.869E+06    -16.1324E+06     72.3660E+03    -54.2433E-03     108.015E-03    -53.7715E-03     50.6596E-03    -54.2635E-03     107.455E-03    -53.5961E-03     50.4269E-03
            1560     4.26511E-03     50.0156E-03    -42.4299E+06    -146.786E+06    -22.6407E+06     1.33289E+03    -54.0694E-03     107.835E-03    -53.7660E-03     42.7948E-03    -54.0679E-03     107.228E-03    -53.6048E-03     42.6137E-03
            1561     3.41204E-03     49.9767E-03    -46.3548E+06    -157.399E+06     -31.321E+06    -80.2674E+03    -53.9393E-03     107.692E-03    -53.7528E-03     34.6415E-03    -53.9166E-03     107.037E-03    -53.6140E-03     34.5043E-03
            1562     2.55902E-03     49.9461E-03    -50.1205E+06    -164.180E+06    -41.0545E+06     13.6632E+03    -53.8284E-03     107.557E-03    -53.7283E-03     26.2966E-03    -53.7918E-03     106.878E-03    -53.6228E-03     26.1998E-03
            1563     1.70601E-03     49.9238E-03    -53.0658E+06    -169.346E+06    -48.7121E+06     55.3242E+03    -53.7451E-03     107.459E-03    -53.7136E-03     17.8551E-03    -53.6989E-03     106.764E-03    -53.6347E-03     17.7932E-03
            1564     852.985E-06     49.9102E-03    -54.9774E+06    -172.723E+06    -53.8378E+06     6.71149E+03    -53.7541E-03     107.428E-03    -53.6736E-03     9.76578E-03    -53.7018E-03     106.724E-03    -53.6126E-03     9.73275E-03
            1565     16.2167E-03     50.3863E-03    -4.71946E+06     141.629E+06     96.4539E+06     298.217E+03    -54.5751E-03     108.294E-03    -53.7193E-03     109.392E-03    -57.5938E-03     111.519E-03    -53.4356E-03     109.285E-03
            1566     15.3566E-03     50.2124E-03    -9.94158E+06     140.942E+06     80.8520E+06     665.910E+03    -56.7521E-03     110.430E-03    -53.6777E-03     173.773E-03    -61.1196E-03     115.028E-03    -53.4634E-03     172.942E-03
            1567     14.5021E-03     50.0344E-03    -13.9754E+06     117.860E+06     36.4002E+06     287.645E+03    -57.3547E-03     110.882E-03    -53.5277E-03     165.156E-03    -60.5991E-03     114.390E-03    -53.4963E-03     163.634E-03
            1568     13.6496E-03     49.8804E-03    -15.7263E+06     70.5258E+06     4.13748E+06    -93.0080E+03    -56.9598E-03     110.414E-03    -53.4538E-03     142.680E-03    -59.0270E-03     112.663E-03    -53.5126E-03     141.152E-03
            1569     12.7970E-03     49.7498E-03    -17.2125E+06     13.6398E+06    -1.01573E+06     513.079E+03    -56.1639E-03     109.685E-03    -53.5208E-03     120.642E-03    -57.3918E-03     110.903E-03    -53.5207E-03     119.370E-03
            1570     11.9431E-03     49.6391E-03    -18.6807E+06    -25.5486E+06     690.704E+03     491.307E+03    -55.6828E-03     109.281E-03    -53.5987E-03     106.195E-03    -56.4697E-03     109.909E-03    -53.5311E-03     105.138E-03
            1571     11.0901E-03     49.5380E-03    -20.0534E+06    -53.9938E+06    -989.910E+03     179.417E+03    -55.4814E-03     109.128E-03    -53.6469E-03     98.8176E-03    -56.0249E-03     109.412E-03    -53.5445E-03     97.9187E-03
            1572     10.2367E-03     49.4418E-03    -21.7025E+06    -73.7076E+06    -560.153E+03     172.748E+03    -55.4479E-03     109.140E-03    -53.6921E-03     93.0503E-03    -55.8351E-03     109.190E-03    -53.5566E-03     92.2875E-03
            1573     9.38367E-03     49.3520E-03    -23.6364E+06    -87.4937E+06    -314.197E+03     91.3161E+03    -55.2847E-03     109.008E-03    -53.7228E-03     86.1336E-03    -55.5583E-03     108.888E-03    -53.5632E-03     85.4914E-03
            1574     8.53053E-03     49.2695E-03    -25.8368E+06    -99.9219E+06    -2.19245E+06     79.9815E+03    -55.0814E-03     108.820E-03    -53.7386E-03     79.2526E-03    -55.2685E-03     108.567E-03    -53.5672E-03     78.7168E-03
            1575     7.67751E-03     49.1933E-03    -28.4786E+06    -112.518E+06    -3.05545E+06     89.9588E+03    -54.8790E-03     108.638E-03    -53.7591E-03     72.4830E-03    -55.0032E-03     108.271E-03    -53.5699E-03     72.0392E-03
            1576     6.82443E-03     49.1243E-03    -31.6075E+06    -123.417E+06    -5.03638E+06     106.638E+03    -54.6561E-03     108.428E-03    -53.7722E-03     65.4867E-03    -54.7344E-03     107.971E-03    -53.5726E-03     65.1235E-03
            1577     5.97131E-03     49.0621E-03    -35.0588E+06    -131.794E+06    -10.0813E+06    -14.5223E+03    -54.4433E-03     108.211E-03    -53.7678E-03     58.1967E-03    -54.4870E-03     107.692E-03    -53.5763E-03     57.9020E-03
            1578     5.11828E-03     49.0075E-03    -38.5894E+06    -137.853E+06    -16.1566E+06    -94.2262E+03    -54.2444E-03     108.000E-03    -53.7559E-03     50.6088E-03    -54.2638E-03     107.440E-03    -53.5808E-03     50.3740E-03
            1579     4.26521E-03     48.9606E-03    -42.4075E+06    -146.790E+06    -22.6188E+06    -56.4514E+03    -54.0735E-03     107.820E-03    -53.7469E-03     42.7437E-03    -54.0719E-03     107.213E-03    -53.5856E-03     42.5619E-03
            1580     3.41217E-03     48.9217E-03    -46.3708E+06    -157.612E+06    -31.2920E+06     215.934E+03    -53.9330E-03     107.662E-03    -53.7293E-03     34.5869E-03    -53.9102E-03     107.006E-03    -53.5900E-03     34.4537E-03
            1581     2.55911E-03     48.8910E-03    -49.9362E+06    -164.188E+06    -40.7144E+06     398.545E+03    -53.8068E-03     107.509E-03    -53.7025E-03     26.2498E-03    -53.7697E-03     106.830E-03    -53.5956E-03     26.1580E-03
            1582     1.70604E-03     48.8689E-03    -52.8274E+06    -169.117E+06    -48.3035E+06     318.623E+03    -53.7148E-03     107.402E-03    -53.6874E-03     17.8165E-03    -53.6683E-03     106.708E-03    -53.6071E-03     17.7580E-03
            1583     852.922E-06     48.8552E-03    -54.7425E+06    -172.464E+06    -53.5287E+06     114.398E+03    -53.6978E-03     107.375E-03    -53.6772E-03     9.72272E-03    -53.6451E-03     106.671E-03    -53.6154E-03     9.69096E-03
            1584     16.2053E-03     49.3303E-03    -5.40732E+06     140.957E+06     95.8658E+06    -150.483E+03    -54.6529E-03     108.361E-03    -53.7082E-03     110.432E-03    -57.6761E-03     111.588E-03    -53.4255E-03     110.309E-03
            1585     15.3570E-03     49.1571E-03    -9.74348E+06     141.294E+06     81.9306E+06     289.723E+03    -57.0337E-03     110.697E-03    -53.6638E-03     174.128E-03    -61.4087E-03     115.302E-03    -53.4449E-03     173.273E-03
            1586     14.5041E-03     48.9802E-03    -13.1984E+06     118.071E+06     36.4492E+06     515.289E+03    -57.1393E-03     110.646E-03    -53.5067E-03     165.391E-03    -60.3881E-03     114.161E-03    -53.4765E-03     163.882E-03
            1587     13.6497E-03     48.8245E-03    -16.1843E+06     69.7621E+06     2.27692E+06     645.683E+03    -56.6810E-03     110.123E-03    -53.4422E-03     143.014E-03    -58.7448E-03     112.371E-03    -53.5085E-03     141.507E-03
            1588     12.7960E-03     48.6948E-03    -17.6588E+06     13.7320E+06    -1.32032E+06     562.773E+03    -56.1855E-03     109.710E-03    -53.5249E-03     120.779E-03    -57.4176E-03     110.932E-03    -53.5258E-03     119.505E-03
            1589     11.9433E-03     48.5838E-03    -18.5224E+06    -25.2380E+06     822.739E+03     297.322E+03    -55.6613E-03     109.266E-03    -53.6045E-03     106.257E-03    -56.4483E-03     109.895E-03    -53.5369E-03     105.198E-03
            1590     11.0899E-03     48.4831E-03    -19.8407E+06    -53.7180E+06    -936.868E+03     296.867E+03    -55.5667E-03     109.217E-03    -53.6505E-03     98.9157E-03    -56.1104E-03     109.502E-03    -53.5485E-03     98.0164E-03
            1591     10.2368E-03     48.3864E-03    -21.5520E+06    -73.5896E+06    -577.211E+03     139.735E+03    -55.5033E-03     109.194E-03    -53.6905E-03     93.0888E-03    -55.8901E-03     109.245E-03    -53.5554E-03     92.3248E-03
            1592     9.38369E-03     48.2970E-03    -23.5050E+06    -87.4303E+06    -322.869E+03     92.3736E+03    -55.3208E-03     109.038E-03    -53.7170E-03     86.0485E-03    -55.5938E-03     108.918E-03    -53.5578E-03     85.4058E-03
            1593     8.53068E-03     48.2142E-03    -25.8410E+06    -99.9516E+06    -2.25330E+06     121.446E+03    -55.1010E-03     108.830E-03    -53.7293E-03     79.1873E-03    -55.2879E-03     108.577E-03    -53.5581E-03     78.6520E-03
            1594     7.67758E-03     48.1383E-03    -28.4681E+06    -112.574E+06    -3.05920E+06     141.518E+03    -54.8804E-03     108.628E-03    -53.7477E-03     72.4251E-03    -55.0043E-03     108.260E-03    -53.5584E-03     71.9822E-03
            1595     6.82448E-03     48.0691E-03    -31.5070E+06    -123.324E+06    -4.91918E+06     99.2065E+03    -54.6682E-03     108.427E-03    -53.7584E-03     65.4104E-03    -54.7462E-03     107.969E-03    -53.5585E-03     65.0471E-03
            1596     5.97149E-03     48.0071E-03    -34.9372E+06    -131.538E+06    -9.80328E+06    -6.99883E+03    -54.4472E-03     108.198E-03    -53.7511E-03     58.1148E-03    -54.4910E-03     107.680E-03    -53.5587E-03     57.8202E-03
            1597     5.11836E-03     47.9524E-03    -38.7103E+06    -137.909E+06    -16.1823E+06    -132.369E+03    -54.2366E-03     107.972E-03    -53.7355E-03     50.5561E-03    -54.2565E-03     107.412E-03    -53.5603E-03     50.3210E-03
            1598     4.26530E-03     47.9055E-03    -42.6692E+06    -147.106E+06    -22.8504E+06     36.7452E+03    -54.0641E-03     107.787E-03    -53.7233E-03     42.6974E-03    -54.0630E-03     107.179E-03    -53.5623E-03     42.5170E-03
            1599     3.41224E-03     47.8667E-03    -46.5648E+06    -157.874E+06    -31.4853E+06     302.208E+03    -53.9160E-03     107.619E-03    -53.7029E-03     34.5526E-03    -53.8934E-03     106.962E-03    -53.5639E-03     34.4205E-03
            1600     2.55917E-03     47.8361E-03    -49.9913E+06    -164.055E+06    -40.3780E+06     391.561E+03    -53.7923E-03     107.466E-03    -53.6739E-03     26.2233E-03    -53.7562E-03     106.787E-03    -53.5654E-03     26.1314E-03
            1601     1.70611E-03     47.8139E-03    -52.6762E+06    -168.625E+06    -47.3742E+06     309.597E+03    -53.7134E-03     107.360E-03    -53.6470E-03     17.7984E-03    -53.6682E-03     106.667E-03    -53.5630E-03     17.7398E-03
            1602     853.178E-06     47.8002E-03    -54.5971E+06    -172.197E+06    -53.0610E+06     73.5284E+03    -53.6560E-03     107.266E-03    -53.6100E-03     9.73142E-03    -53.6036E-03     106.563E-03    -53.5465E-03     9.69930E-03
            1603     16.2145E-03     48.2774E-03    -4.50469E+06     140.867E+06     96.0759E+06    -171.653E+03    -54.7851E-03     108.486E-03    -53.7004E-03     108.266E-03    -57.7828E-03     111.689E-03    -53.4178E-03     108.141E-03
            1604     15.3571E-03     48.0996E-03    -9.85893E+06     140.101E+06     79.8385E+06    -315.943E+03    -56.6896E-03     110.341E-03    -53.6517E-03     173.875E-03    -61.0550E-03     114.937E-03    -53.4413E-03     173.025E-03
            1605     14.5032E-03     47.9270E-03    -14.1303E+06     117.407E+06     36.2931E+06     628.937E+03    -57.1381E-03     110.654E-03    -53.5156E-03     166.205E-03    -60.4008E-03     114.178E-03    -53.4839E-03     164.698E-03
            1606     13.6493E-03     47.7690E-03    -16.0479E+06     70.8478E+06     4.58898E+06     1.13189E+06    -56.7402E-03     110.202E-03    -53.4613E-03     143.690E-03    -58.8141E-03     112.457E-03    -53.5179E-03     142.186E-03
            1607     12.7967E-03     47.6395E-03    -16.9982E+06     14.2396E+06    -960.971E+03     362.133E+03    -56.0942E-03     109.632E-03    -53.5377E-03     120.670E-03    -57.3230E-03     110.854E-03    -53.5385E-03     119.396E-03
            1608     11.9428E-03     47.5287E-03    -18.4420E+06    -25.5617E+06     687.784E+03     322.676E+03    -55.7729E-03     109.390E-03    -53.6167E-03     106.301E-03    -56.5595E-03     110.018E-03    -53.5494E-03     105.240E-03
            1609     11.0899E-03     47.4277E-03    -19.9763E+06    -53.3919E+06    -915.145E+03     342.338E+03    -55.7066E-03     109.361E-03    -53.6540E-03     98.8404E-03    -56.2523E-03     109.648E-03    -53.5521E-03     97.9384E-03
            1610     10.2368E-03     47.3313E-03    -21.5720E+06    -73.5703E+06    -704.109E+03     187.742E+03    -55.5797E-03     109.264E-03    -53.6845E-03     92.9976E-03    -55.9664E-03     109.315E-03    -53.5500E-03     92.2332E-03
            1611     9.38383E-03     47.2416E-03    -23.5504E+06    -87.4564E+06    -324.396E+03     230.034E+03    -55.3436E-03     109.050E-03    -53.7065E-03     85.9777E-03    -55.6166E-03     108.930E-03    -53.5472E-03     85.3366E-03
            1612     8.53075E-03     47.1591E-03    -25.8786E+06    -99.8781E+06    -2.20630E+06     209.227E+03    -55.1113E-03     108.827E-03    -53.7157E-03     79.0772E-03    -55.2984E-03     108.574E-03    -53.5444E-03     78.5430E-03
            1613     7.67768E-03     47.0831E-03    -28.5292E+06    -112.504E+06    -3.07944E+06     100.909E+03    -54.8846E-03     108.616E-03    -53.7310E-03     72.3402E-03    -55.0087E-03     108.248E-03    -53.5419E-03     71.8969E-03
            1614     6.82469E-03     47.0140E-03    -31.5583E+06    -123.267E+06    -4.98486E+06     28.7761E+03    -54.6647E-03     108.404E-03    -53.7390E-03     65.3425E-03    -54.7429E-03     107.947E-03    -53.5395E-03     64.9783E-03
            1615     5.97155E-03     46.9520E-03    -35.0055E+06    -131.551E+06    -9.78274E+06     12.1918E+03    -54.4447E-03     108.174E-03    -53.7295E-03     58.0478E-03    -54.4887E-03     107.655E-03    -53.5370E-03     57.7536E-03
            1616     5.11854E-03     46.8974E-03    -38.7691E+06    -137.808E+06    -15.9617E+06     70.2877E+03    -54.2288E-03     107.940E-03    -53.7116E-03     50.4958E-03    -54.2494E-03     107.380E-03    -53.5353E-03     50.2634E-03
            1617     4.26542E-03     46.8505E-03    -42.7386E+06    -147.326E+06    -23.0185E+06     64.4744E+03    -54.0404E-03     107.736E-03    -53.6958E-03     42.6321E-03    -54.0389E-03     107.127E-03    -53.5353E-03     42.4523E-03
            1618     3.41233E-03     46.8117E-03    -46.4683E+06    -158.058E+06    -31.6811E+06     180.121E+03    -53.8971E-03     107.570E-03    -53.6733E-03     34.4855E-03    -53.8734E-03     106.913E-03    -53.5352E-03     34.3520E-03
            1619     2.55926E-03     46.7812E-03    -49.7167E+06    -163.778E+06    -40.0877E+06     212.338E+03    -53.7738E-03     107.416E-03    -53.6422E-03     26.1852E-03    -53.7371E-03     106.738E-03    -53.5331E-03     26.0912E-03
            1620     1.70622E-03     46.7590E-03    -52.4444E+06    -168.404E+06    -47.2189E+06     29.8293E+03    -53.6654E-03     107.283E-03    -53.6173E-03     17.8111E-03    -53.6195E-03     106.590E-03    -53.5331E-03     17.7491E-03
            1621     853.022E-06     46.7454E-03    -54.2763E+06    -172.078E+06    -52.9733E+06     54.1389E+03    -53.6075E-03     107.217E-03    -53.6096E-03     9.79677E-03    -53.5538E-03     106.514E-03    -53.5463E-03     9.76458E-03
            1622     16.2088E-03     47.2204E-03    -4.97243E+06     140.963E+06     95.8627E+06    -311.698E+03    -54.3244E-03     108.084E-03    -53.7594E-03     112.458E-03    -57.3927E-03     111.357E-03    -53.4773E-03     112.349E-03
            1623     15.3568E-03     47.0477E-03    -10.7659E+06     139.357E+06     79.4279E+06     284.998E+03    -57.4222E-03     111.136E-03    -53.7137E-03     175.537E-03    -61.8223E-03     115.762E-03    -53.5030E-03     174.661E-03
            1624     14.5020E-03     46.8701E-03    -14.8381E+06     117.007E+06     35.8761E+06     230.346E+03    -57.5545E-03     111.106E-03    -53.5514E-03     166.442E-03    -60.8214E-03     114.631E-03    -53.5202E-03     164.912E-03
            1625     13.6499E-03     46.7142E-03    -16.1851E+06     70.8582E+06     4.31676E+06     85.5758E+03    -56.9795E-03     110.458E-03    -53.4786E-03     143.533E-03    -59.0532E-03     112.713E-03    -53.5363E-03     142.007E-03
            1626     12.7955E-03     46.5842E-03    -17.1755E+06     14.3875E+06    -977.051E+03     681.604E+03    -56.2064E-03     109.752E-03    -53.5453E-03     120.652E-03    -57.4346E-03     110.973E-03    -53.5461E-03     119.382E-03
            1627     11.9430E-03     46.4733E-03    -18.4909E+06    -25.3160E+06     700.281E+03     484.696E+03    -55.8982E-03     109.514E-03    -53.6154E-03     105.958E-03    -56.6852E-03     110.143E-03    -53.5484E-03     104.895E-03
            1628     11.0900E-03     46.3722E-03    -20.0103E+06    -53.3655E+06    -880.258E+03     255.298E+03    -55.7517E-03     109.397E-03    -53.6452E-03     98.5401E-03    -56.2972E-03     109.684E-03    -53.5432E-03     97.6359E-03
            1629     10.2370E-03     46.2760E-03    -21.7090E+06    -73.3717E+06    -650.415E+03     334.693E+03    -55.5909E-03     109.262E-03    -53.6715E-03     92.8214E-03    -55.9783E-03     109.314E-03    -53.5369E-03     92.0587E-03
            1630     9.38394E-03     46.1864E-03    -23.6841E+06    -87.5713E+06    -390.714E+03     215.519E+03    -55.3528E-03     109.043E-03    -53.6906E-03     85.8816E-03    -55.6261E-03     108.923E-03    -53.5313E-03     85.2404E-03
            1631     8.53094E-03     46.1039E-03    -25.8250E+06    -99.7381E+06    -2.05699E+06     245.715E+03    -55.1192E-03     108.817E-03    -53.6973E-03     78.9712E-03    -55.3062E-03     108.564E-03    -53.5256E-03     78.4376E-03
            1632     7.67792E-03     46.0280E-03    -28.4055E+06    -112.310E+06    -2.98938E+06     133.303E+03    -54.8831E-03     108.592E-03    -53.7093E-03     72.2643E-03    -55.0068E-03     108.225E-03    -53.5202E-03     71.8217E-03
            1633     6.82475E-03     45.9589E-03    -31.5573E+06    -123.288E+06    -4.92685E+06     32.2241E+03    -54.6515E-03     108.367E-03    -53.7156E-03     65.2679E-03    -54.7295E-03     107.910E-03    -53.5157E-03     64.9043E-03
            1634     5.97176E-03     45.8969E-03    -35.0819E+06    -131.621E+06    -9.83227E+06     68.2731E+03    -54.4321E-03     108.136E-03    -53.7038E-03     57.9633E-03    -54.4763E-03     107.617E-03    -53.5113E-03     57.6702E-03
            1635     5.11864E-03     45.8424E-03    -38.8119E+06    -137.870E+06    -15.9732E+06     141.860E+03    -54.2113E-03     107.895E-03    -53.6838E-03     50.4242E-03    -54.2319E-03     107.335E-03    -53.5075E-03     50.1931E-03
            1636     4.26555E-03     45.7956E-03    -42.7415E+06    -147.263E+06    -22.8679E+06     151.645E+03    -54.0195E-03     107.686E-03    -53.6666E-03     42.5771E-03    -54.0183E-03     107.077E-03    -53.5054E-03     42.3987E-03
            1637     3.41246E-03     45.7568E-03    -46.5926E+06    -157.980E+06    -31.5286E+06    -72.1562E+03    -53.8662E-03     107.509E-03    -53.6430E-03     34.4586E-03    -53.8434E-03     106.852E-03    -53.5040E-03     34.3222E-03
            1638     2.55937E-03     45.7263E-03    -49.7093E+06    -163.744E+06    -40.1840E+06    -190.810E+03    -53.7315E-03     107.344E-03    -53.6124E-03     26.1725E-03    -53.6947E-03     106.666E-03    -53.5038E-03     26.0736E-03
            1639     1.70618E-03     45.7043E-03    -52.2674E+06    -168.475E+06    -47.4937E+06    -41.1054E+03    -53.6343E-03     107.225E-03    -53.5902E-03     17.7550E-03    -53.5870E-03     106.531E-03    -53.5076E-03     17.6923E-03
            1640     853.085E-06     45.6906E-03    -54.1246E+06    -172.031E+06    -52.9368E+06     76.7062E+03    -53.5923E-03     107.170E-03    -53.5772E-03     9.72487E-03    -53.5380E-03     106.466E-03    -53.5140E-03     9.69310E-03
            1641     16.2046E-03     46.1599E-03    -5.54589E+06     140.451E+06     95.2428E+06     121.254E+03    -53.6344E-03     107.427E-03    -53.7923E-03     110.426E-03    -56.6550E-03     110.650E-03    -53.5117E-03     110.335E-03
            1642     15.3540E-03     45.9904E-03    -11.0702E+06     139.108E+06     79.8991E+06    -141.029E+03    -57.5938E-03     111.345E-03    -53.7510E-03     171.567E-03    -61.9335E-03     115.907E-03    -53.5371E-03     170.673E-03
            1643     14.5030E-03     45.8148E-03    -14.2410E+06     117.204E+06     35.9968E+06    -119.544E+03    -57.8315E-03     111.393E-03    -53.5617E-03     165.354E-03    -61.0908E-03     114.914E-03    -53.5310E-03     163.804E-03
            1644     13.6484E-03     45.6587E-03    -16.8494E+06     69.9932E+06     2.69764E+06     207.022E+03    -57.0356E-03     110.505E-03    -53.4693E-03     142.768E-03    -59.1062E-03     112.756E-03    -53.5329E-03     141.240E-03
            1645     12.7967E-03     45.5287E-03    -17.9066E+06     14.4868E+06    -1.09288E+06     172.683E+03    -56.3679E-03     109.899E-03    -53.5315E-03     120.181E-03    -57.5997E-03     111.122E-03    -53.5320E-03     118.898E-03
            1646     11.9433E-03     45.4178E-03    -18.7545E+06    -25.0950E+06     672.588E+03     308.866E+03    -55.8770E-03     109.471E-03    -53.5936E-03     105.709E-03    -56.6652E-03     110.101E-03    -53.5266E-03     104.644E-03
            1647     11.0903E-03     45.3170E-03    -20.1912E+06    -53.4636E+06    -1.01081E+06     437.333E+03    -55.6915E-03     109.315E-03    -53.6238E-03     98.4289E-03    -56.2367E-03     109.602E-03    -53.5221E-03     97.5286E-03
            1648     10.2372E-03     45.2207E-03    -21.7926E+06    -73.1562E+06    -521.905E+03     306.914E+03    -55.5730E-03     109.225E-03    -53.6518E-03     92.7284E-03    -55.9611E-03     109.277E-03    -53.5168E-03     91.9657E-03
            1649     9.38418E-03     45.1311E-03    -23.7246E+06    -87.3972E+06    -438.411E+03     199.434E+03    -55.3476E-03     109.016E-03    -53.6687E-03     85.7752E-03    -55.6207E-03     108.896E-03    -53.5098E-03     85.1343E-03
            1650     8.53112E-03     45.0487E-03    -25.9777E+06    -99.7922E+06    -2.16928E+06     107.217E+03    -55.1065E-03     108.780E-03    -53.6739E-03     78.8855E-03    -55.2936E-03     108.527E-03    -53.5024E-03     78.3507E-03
            1651     7.67802E-03     44.9729E-03    -28.5058E+06    -112.179E+06    -2.91531E+06     168.014E+03    -54.8840E-03     108.568E-03    -53.6841E-03     72.1664E-03    -55.0082E-03     108.201E-03    -53.4947E-03     71.7247E-03
            1652     6.82506E-03     44.9038E-03    -31.6175E+06    -123.169E+06    -4.96888E+06     113.879E+03    -54.6425E-03     108.329E-03    -53.6866E-03     65.1698E-03    -54.7207E-03     107.872E-03    -53.4870E-03     64.8079E-03
            1653     5.97189E-03     44.8419E-03    -35.1192E+06    -131.634E+06    -9.87190E+06     84.3249E+03    -54.4077E-03     108.081E-03    -53.6729E-03     57.8814E-03    -54.4517E-03     107.561E-03    -53.4804E-03     57.5892E-03
            1654     5.11883E-03     44.7875E-03    -38.8063E+06    -138.015E+06    -16.1790E+06     125.624E+03    -54.1862E-03     107.837E-03    -53.6507E-03     50.3240E-03    -54.2061E-03     107.276E-03    -53.4752E-03     50.0932E-03
            1655     4.26568E-03     44.7407E-03    -42.4956E+06    -147.095E+06    -22.8694E+06     51.1460E+03    -53.9870E-03     107.620E-03    -53.6327E-03     42.4961E-03    -53.9848E-03     107.011E-03    -53.4722E-03     42.3168E-03
            1656     3.41255E-03     44.7020E-03    -46.1545E+06    -157.629E+06    -31.4177E+06    -173.326E+03    -53.8296E-03     107.439E-03    -53.6094E-03     34.3856E-03    -53.8053E-03     106.782E-03    -53.4710E-03     34.2482E-03
            1657     2.55937E-03     44.6716E-03    -49.6971E+06    -164.009E+06    -40.6460E+06    -283.898E+03    -53.7039E-03     107.281E-03    -53.5770E-03     26.0978E-03    -53.6659E-03     106.602E-03    -53.4704E-03     25.9979E-03
            1658     1.70629E-03     44.6495E-03    -52.4940E+06    -168.733E+06    -47.7140E+06    -109.150E+03    -53.6258E-03     107.172E-03    -53.5465E-03     17.7025E-03    -53.5790E-03     106.479E-03    -53.4643E-03     17.6390E-03
            1659     853.206E-06     44.6359E-03    -54.2002E+06    -171.986E+06    -52.8055E+06     1.13365E+03    -53.5785E-03     107.065E-03    -53.4862E-03     9.70203E-03    -53.5248E-03     106.362E-03    -53.4223E-03     9.66930E-03
            1660     16.2155E-03     45.1104E-03    -4.41342E+06     141.305E+06     96.1566E+06     472.685E+03    -54.4241E-03     108.116E-03    -53.6918E-03     109.919E-03    -57.4093E-03     111.308E-03    -53.4095E-03     109.839E-03
            1661     15.3572E-03     44.9342E-03    -9.53354E+06     139.259E+06     79.7229E+06    -81.8817E+03    -56.1983E-03     109.861E-03    -53.6630E-03     172.158E-03    -60.5106E-03     114.403E-03    -53.4525E-03     171.334E-03
            1662     14.5024E-03     44.7595E-03    -14.4146E+06     116.471E+06     36.2433E+06    -22.2615E+03    -57.5799E-03     111.102E-03    -53.5218E-03     164.336E-03    -60.8252E-03     114.604E-03    -53.4886E-03     162.795E-03
            1663     13.6506E-03     44.6033E-03    -16.2352E+06     70.9809E+06     4.66990E+06     152.146E+03    -56.9656E-03     110.404E-03    -53.4380E-03     142.291E-03    -59.0316E-03     112.650E-03    -53.4941E-03     140.766E-03
            1664     12.7964E-03     44.4732E-03    -17.2882E+06     13.9706E+06    -1.22289E+06     170.232E+03    -56.1758E-03     109.673E-03    -53.4971E-03     120.135E-03    -57.4005E-03     110.889E-03    -53.4984E-03     118.859E-03
            1665     11.9436E-03     44.3626E-03    -18.9235E+06    -25.5286E+06     532.033E+03     320.299E+03    -55.7772E-03     109.346E-03    -53.5683E-03     105.737E-03    -56.5639E-03     109.973E-03    -53.5012E-03     104.676E-03
            1666     11.0904E-03     44.2617E-03    -20.2669E+06    -53.2456E+06    -1.01661E+06     359.958E+03    -55.6582E-03     109.260E-03    -53.6013E-03     98.4424E-03    -56.2038E-03     109.547E-03    -53.4998E-03     97.5418E-03
            1667     10.2375E-03     44.1655E-03    -21.8184E+06    -73.1948E+06    -562.532E+03     289.750E+03    -55.5704E-03     109.200E-03    -53.6291E-03     92.7255E-03    -55.9580E-03     109.251E-03    -53.4941E-03     91.9632E-03
            1668     9.38441E-03     44.0759E-03    -23.7340E+06    -87.1396E+06    -347.871E+03     197.198E+03    -55.3517E-03     108.996E-03    -53.6439E-03     85.6852E-03    -55.6247E-03     108.876E-03    -53.4849E-03     85.0452E-03
            1669     8.53136E-03     43.9937E-03    -25.9443E+06    -99.7824E+06    -2.19423E+06     79.8694E+03    -55.1128E-03     108.758E-03    -53.6454E-03     78.7792E-03    -55.2993E-03     108.505E-03    -53.4740E-03     78.2446E-03
            1670     7.67835E-03     43.9177E-03    -28.5838E+06    -112.232E+06    -3.00498E+06     91.7549E+03    -54.8750E-03     108.527E-03    -53.6519E-03     72.0325E-03    -54.9989E-03     108.160E-03    -53.4628E-03     71.5906E-03
            1671     6.82520E-03     43.8489E-03    -31.5721E+06    -123.076E+06    -4.98931E+06     122.527E+03    -54.6260E-03     108.277E-03    -53.6514E-03     65.0444E-03    -54.7037E-03     107.821E-03    -53.4521E-03     64.6833E-03
            1672     5.97215E-03     43.7870E-03    -34.9885E+06    -131.638E+06    -10.0236E+06     82.2513E+03    -54.3902E-03     108.024E-03    -53.6340E-03     57.7658E-03    -54.4331E-03     107.505E-03    -53.4425E-03     57.4741E-03
            1673     5.11901E-03     43.7326E-03    -38.5221E+06    -137.948E+06    -16.2072E+06    -3.66520E+03    -54.1566E-03     107.766E-03    -53.6095E-03     50.1952E-03    -54.1749E-03     107.205E-03    -53.4346E-03     49.9632E-03
            1674     4.26587E-03     43.6859E-03    -42.1785E+06    -146.933E+06    -22.7859E+06    -124.375E+03    -53.9517E-03     107.542E-03    -53.5899E-03     42.3802E-03    -53.9481E-03     106.933E-03    -53.4296E-03     42.1989E-03
            1675     3.41268E-03     43.6473E-03    -46.0514E+06    -157.660E+06    -31.4193E+06    -34.3283E+03    -53.7999E-03     107.364E-03    -53.5636E-03     34.2674E-03    -53.7750E-03     106.707E-03    -53.4254E-03     34.1320E-03
            1676     2.55958E-03     43.6169E-03    -49.5843E+06    -164.016E+06    -40.5854E+06     84.2930E+03    -53.6724E-03     107.198E-03    -53.5258E-03     25.9954E-03    -53.6339E-03     106.519E-03    -53.4190E-03     25.9004E-03
            1677     1.70637E-03     43.5948E-03    -52.4733E+06    -168.855E+06    -47.9351E+06    -99.1918E+03    -53.5658E-03     107.058E-03    -53.4924E-03     17.6520E-03    -53.5184E-03     106.364E-03    -53.4112E-03     17.5887E-03
            1678     853.173E-06     43.5813E-03    -54.4108E+06    -172.200E+06    -53.0696E+06    -160.576E+03    -53.4984E-03     106.961E-03    -53.4623E-03     9.64530E-03    -53.4451E-03     106.257E-03    -53.3991E-03     9.61055E-03
            1679     16.2099E-03     44.0570E-03    -5.05922E+06     141.467E+06     96.0052E+06    -152.540E+03    -55.0594E-03     108.740E-03    -53.6808E-03     110.906E-03    -58.1049E-03     111.992E-03    -53.3985E-03     110.778E-03
            1680     15.3572E-03     43.8808E-03    -9.68457E+06     139.481E+06     81.0109E+06     316.125E+03    -57.0334E-03     110.661E-03    -53.6275E-03     175.061E-03    -61.4145E-03     115.268E-03    -53.4106E-03     174.205E-03
            1681     14.5045E-03     43.7036E-03    -13.4982E+06     116.341E+06     36.0910E+06     479.957E+03    -57.2178E-03     110.689E-03    -53.4715E-03     165.134E-03    -60.4495E-03     114.181E-03    -53.4402E-03     163.622E-03
            1682     13.6501E-03     43.5483E-03    -15.9479E+06     70.8702E+06     3.40447E+06     184.456E+03    -56.7810E-03     110.183E-03    -53.4015E-03     143.069E-03    -58.8464E-03     112.433E-03    -53.4641E-03     141.553E-03
            1683     12.7974E-03     43.4184E-03    -17.5070E+06     14.0328E+06    -1.09358E+06     498.681E+03    -56.1411E-03     109.617E-03    -53.4760E-03     120.441E-03    -57.3670E-03     110.834E-03    -53.4764E-03     119.171E-03
            1684     11.9438E-03     43.3072E-03    -18.6805E+06    -25.1403E+06     781.221E+03     484.181E+03    -55.7060E-03     109.256E-03    -53.5500E-03     105.906E-03    -56.4903E-03     109.883E-03    -53.4826E-03     104.851E-03
            1685     11.0908E-03     43.2067E-03    -20.0807E+06    -53.2925E+06    -1.00869E+06     271.277E+03    -55.7030E-03     109.286E-03    -53.5827E-03     98.5392E-03    -56.2477E-03     109.573E-03    -53.4813E-03     97.6370E-03
            1686     10.2376E-03     43.1101E-03    -21.6833E+06    -73.0469E+06    -539.401E+03     306.120E+03    -55.6132E-03     109.219E-03    -53.6053E-03     92.6655E-03    -55.9996E-03     109.270E-03    -53.4706E-03     91.9039E-03
            1687     9.38465E-03     43.0209E-03    -23.6117E+06    -86.9914E+06    -270.562E+03     219.168E+03    -55.3738E-03     108.989E-03    -53.6150E-03     85.5678E-03    -55.6459E-03     108.869E-03    -53.4560E-03     84.9286E-03
            1688     8.53166E-03     42.9384E-03    -25.9090E+06    -99.6815E+06    -2.28788E+06     129.254E+03    -55.1347E-03     108.745E-03    -53.6102E-03     78.6477E-03    -55.3206E-03     108.492E-03    -53.4396E-03     78.1144E-03
            1689     7.67861E-03     42.8628E-03    -28.5109E+06    -112.282E+06    -3.06226E+06     60.8422E+03    -54.8742E-03     108.486E-03    -53.6116E-03     71.8775E-03    -54.9972E-03     108.118E-03    -53.4228E-03     71.4359E-03
            1690     6.82554E-03     42.7938E-03    -31.5751E+06    -123.071E+06    -5.06032E+06     46.0371E+03    -54.6189E-03     108.225E-03    -53.6059E-03     64.8692E-03    -54.6962E-03     107.768E-03    -53.4069E-03     64.5077E-03
            1691     5.97243E-03     42.7321E-03    -34.8740E+06    -131.534E+06    -10.0193E+06    -19.1555E+03    -54.3661E-03     107.950E-03    -53.5835E-03     57.5789E-03    -54.4083E-03     107.430E-03    -53.3923E-03     57.2865E-03
            1692     5.11929E-03     42.6778E-03    -38.4338E+06    -137.858E+06    -16.1000E+06    -114.691E+03    -54.1195E-03     107.675E-03    -53.5554E-03     50.0251E-03    -54.1375E-03     107.114E-03    -53.3803E-03     49.7922E-03
            1693     4.26609E-03     42.6312E-03    -42.3853E+06    -147.007E+06    -22.7048E+06    -32.4495E+03    -53.9130E-03     107.445E-03    -53.5321E-03     42.2209E-03    -53.9103E-03     106.836E-03    -53.3710E-03     42.0413E-03
            1694     3.41293E-03     42.5926E-03    -46.3001E+06    -157.851E+06    -31.4771E+06     97.9889E+03    -53.7488E-03     107.250E-03    -53.5011E-03     34.1542E-03    -53.7247E-03     106.592E-03    -53.3625E-03     34.0208E-03
            1695     2.55969E-03     42.5623E-03    -49.6727E+06    -163.954E+06    -40.3565E+06     145.743E+03    -53.6080E-03     107.070E-03    -53.4618E-03     25.9132E-03    -53.5703E-03     106.391E-03    -53.3539E-03     25.8192E-03
            1696     1.70650E-03     42.5403E-03    -52.3853E+06    -168.651E+06    -47.5988E+06     133.850E+03    -53.4917E-03     106.922E-03    -53.4305E-03     17.5706E-03    -53.4446E-03     106.229E-03    -53.3480E-03     17.5105E-03
            1697     853.248E-06     42.5268E-03    -54.3526E+06    -172.371E+06    -53.3653E+06     55.3840E+03    -53.4228E-03     106.839E-03    -53.4158E-03     9.57215E-03    -53.3684E-03     106.135E-03    -53.3539E-03     9.54047E-03
            1698     16.2090E-03     42.9996E-03    -5.03691E+06     141.276E+06     95.8426E+06    -226.702E+03    -54.9397E-03     108.641E-03    -53.7016E-03     108.517E-03    -57.9567E-03     111.864E-03    -53.4199E-03     108.373E-03
            1699     15.3582E-03     42.8232E-03    -10.2329E+06     138.999E+06     80.5996E+06    -278.451E+03    -57.2773E-03     110.915E-03    -53.6375E-03     173.602E-03    -61.6459E-03     115.507E-03    -53.4212E-03     172.726E-03
            1700     14.5039E-03     42.6509E-03    -13.9217E+06     115.811E+06     35.7683E+06     313.685E+03    -57.2397E-03     110.714E-03    -53.4739E-03     166.347E-03    -60.4886E-03     114.220E-03    -53.4428E-03     164.834E-03
            1701     13.6500E-03     42.4922E-03    -16.1679E+06     70.7880E+06     3.16980E+06     791.771E+03    -56.9224E-03     110.325E-03    -53.4025E-03     143.554E-03    -58.9943E-03     112.581E-03    -53.4659E-03     142.038E-03
            1702     12.7970E-03     42.3631E-03    -17.3443E+06     14.5327E+06    -838.994E+03     447.714E+03    -56.1899E-03     109.663E-03    -53.4731E-03     120.405E-03    -57.4141E-03     110.880E-03    -53.4732E-03     119.134E-03
            1703     11.9439E-03     42.2525E-03    -18.5283E+06    -25.1161E+06     867.789E+03     327.189E+03    -55.8339E-03     109.375E-03    -53.5409E-03     106.203E-03    -56.6184E-03     110.002E-03    -53.4733E-03     105.143E-03
            1704     11.0907E-03     42.1510E-03    -19.8575E+06    -53.0493E+06    -847.745E+03     407.599E+03    -55.8221E-03     109.386E-03    -53.5640E-03     98.5070E-03    -56.3659E-03     109.673E-03    -53.4625E-03     97.6056E-03
            1705     10.2380E-03     42.0551E-03    -21.4366E+06    -72.8229E+06    -493.486E+03     274.469E+03    -55.6900E-03     109.266E-03    -53.5759E-03     92.4425E-03    -56.0750E-03     109.318E-03    -53.4417E-03     91.6799E-03
            1706     9.38499E-03     41.9655E-03    -23.4672E+06    -87.0173E+06    -369.381E+03     301.488E+03    -55.4106E-03     108.988E-03    -53.5769E-03     85.3853E-03    -55.6812E-03     108.867E-03    -53.4185E-03     84.7475E-03
            1707     8.53201E-03     41.8834E-03    -25.7882E+06    -99.4606E+06    -2.28783E+06     258.343E+03    -55.1483E-03     108.713E-03    -53.5652E-03     78.4077E-03    -55.3331E-03     108.460E-03    -53.3950E-03     77.8767E-03
            1708     7.67899E-03     41.8077E-03    -28.4968E+06    -112.174E+06    -3.17040E+06     115.436E+03    -54.8904E-03     108.449E-03    -53.5587E-03     71.6420E-03    -55.0128E-03     108.081E-03    -53.3706E-03     71.2015E-03
            1709     6.82596E-03     41.7390E-03    -31.5619E+06    -122.918E+06    -5.13552E+06    -24.6360E+03    -54.6142E-03     108.159E-03    -53.5447E-03     64.6351E-03    -54.6911E-03     107.702E-03    -53.3464E-03     64.2732E-03
            1710     5.97283E-03     41.6773E-03    -34.9543E+06    -131.457E+06    -10.0431E+06    -143.780E+03    -54.3330E-03     107.849E-03    -53.5159E-03     57.3497E-03    -54.3753E-03     107.330E-03    -53.3248E-03     57.0565E-03
            1711     5.11966E-03     41.6232E-03    -38.6177E+06    -137.967E+06    -16.1724E+06    -67.3018E+03    -54.0757E-03     107.558E-03    -53.4820E-03     49.8181E-03    -54.0941E-03     106.996E-03    -53.3068E-03     49.5865E-03
            1712     4.26645E-03     41.5766E-03    -42.4438E+06    -147.153E+06    -22.8988E+06     46.5857E+03    -53.8512E-03     107.304E-03    -53.4528E-03     42.0328E-03    -53.8481E-03     106.694E-03    -53.2924E-03     41.8548E-03
            1713     3.41319E-03     41.5381E-03    -46.1869E+06    -157.891E+06    -31.6458E+06     94.6591E+03    -53.6678E-03     107.087E-03    -53.4193E-03     34.0050E-03    -53.6427E-03     106.429E-03    -53.2816E-03     33.8720E-03
            1714     2.55992E-03     41.5078E-03    -49.4982E+06    -163.974E+06    -40.5433E+06     123.037E+03    -53.5219E-03     106.902E-03    -53.3804E-03     25.7982E-03    -53.4829E-03     106.223E-03    -53.2736E-03     25.7042E-03
            1715     1.70661E-03     41.4859E-03    -52.2639E+06    -168.574E+06    -47.4845E+06     226.863E+03    -53.4153E-03     106.766E-03    -53.3502E-03     17.4751E-03    -53.3678E-03     106.072E-03    -53.2675E-03     17.4165E-03
            1716     853.300E-06     41.4725E-03    -54.1685E+06    -172.049E+06    -52.7780E+06     345.125E+03    -53.3682E-03     106.677E-03    -53.3084E-03     9.54457E-03    -53.3143E-03     105.973E-03    -53.2443E-03     9.51678E-03
            1717     16.2132E-03     41.9415E-03    -4.74132E+06     141.152E+06     95.8535E+06    -54.4599E+03    -54.5244E-03     108.255E-03    -53.7303E-03     111.755E-03    -57.5637E-03     111.500E-03    -53.4488E-03     111.649E-03
            1718     15.3568E-03     41.7716E-03    -10.0044E+06     138.802E+06     79.5069E+06     450.241E+03    -57.1821E-03     110.863E-03    -53.6807E-03     174.572E-03    -61.5549E-03     115.462E-03    -53.4699E-03     173.703E-03
            1719     14.5024E-03     41.5935E-03    -14.7728E+06     115.739E+06     35.6706E+06     248.198E+03    -57.8649E-03     111.378E-03    -53.5135E-03     166.823E-03    -61.1364E-03     114.905E-03    -53.4816E-03     165.275E-03
            1720     13.6508E-03     41.4375E-03    -16.4165E+06     70.7841E+06     3.95464E+06     128.608E+03    -57.2186E-03     110.638E-03    -53.4198E-03     143.322E-03    -59.2866E-03     112.888E-03    -53.4789E-03     141.790E-03
            1721     12.7969E-03     41.3080E-03    -17.1445E+06     14.3182E+06    -1.26454E+06     291.259E+03    -56.3673E-03     109.836E-03    -53.4686E-03     120.328E-03    -57.5901E-03     111.052E-03    -53.4708E-03     119.051E-03
            1722     11.9439E-03     41.1968E-03    -18.3287E+06    -25.2270E+06     766.646E+03     384.070E+03    -56.0786E-03     109.600E-03    -53.5217E-03     105.796E-03    -56.8623E-03     110.227E-03    -53.4547E-03     104.731E-03
            1723     11.0913E-03     41.0957E-03    -19.9071E+06    -52.8709E+06    -972.729E+03     343.967E+03    -55.8872E-03     109.417E-03    -53.5299E-03     98.1808E-03    -56.4301E-03     109.704E-03    -53.4292E-03     97.2782E-03
            1724     10.2383E-03     40.9996E-03    -21.5840E+06    -72.8757E+06    -658.832E+03     361.669E+03    -55.7300E-03     109.264E-03    -53.5336E-03     92.1577E-03    -56.1146E-03     109.315E-03    -53.4000E-03     91.3960E-03
            1725     9.38551E-03     40.9105E-03    -23.5413E+06    -86.9246E+06    -448.593E+03     317.424E+03    -55.4637E-03     108.989E-03    -53.5254E-03     85.0927E-03    -55.7340E-03     108.869E-03    -53.3675E-03     84.4549E-03
            1726     8.53252E-03     40.8282E-03    -25.7325E+06    -99.3153E+06    -2.20062E+06     292.408E+03    -55.1713E-03     108.675E-03    -53.5041E-03     78.1233E-03    -55.3555E-03     108.422E-03    -53.3338E-03     77.5932E-03
            1727     7.67956E-03     40.7529E-03    -28.2590E+06    -111.910E+06    -3.01041E+06     178.403E+03    -54.8935E-03     108.382E-03    -53.4881E-03     71.3418E-03    -55.0148E-03     108.014E-03    -53.2999E-03     70.9027E-03
            1728     6.82647E-03     40.6841E-03    -31.3545E+06    -122.783E+06    -4.94576E+06     6.93717E+03    -54.5856E-03     108.052E-03    -53.4660E-03     64.3340E-03    -54.6615E-03     107.595E-03    -53.2672E-03     63.9734E-03
            1729     5.97336E-03     40.6227E-03    -34.8948E+06    -131.434E+06    -9.99176E+06    -34.0305E+03    -54.2854E-03     107.715E-03    -53.4298E-03     57.0962E-03    -54.3272E-03     107.195E-03    -53.2385E-03     56.8053E-03
            1730     5.12015E-03     40.5686E-03    -38.5930E+06    -138.128E+06    -16.4426E+06    -42.5717E+03    -54.0121E-03     107.401E-03    -53.3885E-03     49.6202E-03    -54.0295E-03     106.838E-03    -53.2145E-03     49.3898E-03
            1731     4.26688E-03     40.5222E-03    -42.3719E+06    -147.268E+06    -23.1892E+06     56.8283E+03    -53.7784E-03     107.132E-03    -53.3535E-03     41.8463E-03    -53.7741E-03     106.522E-03    -53.1945E-03     41.6692E-03
            1732     3.41354E-03     40.4838E-03    -46.1401E+06    -157.913E+06    -31.7892E+06     126.924E+03    -53.5825E-03     106.898E-03    -53.3151E-03     33.8245E-03    -53.5568E-03     106.240E-03    -53.1781E-03     33.6925E-03
            1733     2.56018E-03     40.4536E-03    -49.4899E+06    -163.992E+06    -40.5784E+06     190.403E+03    -53.4164E-03     106.690E-03    -53.2736E-03     25.6525E-03    -53.3773E-03     106.011E-03    -53.1670E-03     25.5598E-03
            1734     1.70679E-03     40.4317E-03    -52.1290E+06    -168.483E+06    -47.4212E+06     180.202E+03    -53.3160E-03     106.556E-03    -53.2403E-03     17.3755E-03    -53.2681E-03     105.863E-03    -53.1575E-03     17.3165E-03
            1735     853.428E-06     40.4183E-03    -53.8590E+06    -171.609E+06    -52.3512E+06     3.95878E+03    -53.2797E-03     106.452E-03    -53.1722E-03     9.42563E-03    -53.2254E-03     105.749E-03    -53.1070E-03     9.39352E-03
            1736     16.2045E-03     40.8851E-03    -5.64029E+06     140.365E+06     95.0703E+06    -153.123E+03    -53.8756E-03     107.672E-03    -53.7962E-03     112.269E-03    -56.9033E-03     110.902E-03    -53.5162E-03     112.164E-03
            1737     15.3544E-03     40.7144E-03    -11.0281E+06     138.171E+06     79.6277E+06     453.030E+03    -58.0531E-03     111.797E-03    -53.7437E-03     173.152E-03    -62.3984E-03     116.363E-03    -53.5300E-03     172.224E-03
            1738     14.5036E-03     40.5376E-03    -13.9076E+06     116.715E+06     36.0017E+06     431.517E+03    -58.3767E-03     111.906E-03    -53.5296E-03     165.592E-03    -61.6410E-03     115.431E-03    -53.4986E-03     164.021E-03
            1739     13.6492E-03     40.3819E-03    -16.1027E+06     70.3310E+06     2.55495E+06     8.44001E+03    -57.4148E-03     110.819E-03    -53.4039E-03     142.291E-03    -59.4730E-03     113.062E-03    -53.4697E-03     140.751E-03
            1740     12.7973E-03     40.2522E-03    -17.8054E+06     14.0124E+06    -1.70823E+06     52.5379E+03    -56.6450E-03     110.083E-03    -53.4380E-03     119.610E-03    -57.8708E-03     111.300E-03    -53.4410E-03     118.320E-03
            1741     11.9449E-03     40.1413E-03    -18.8825E+06    -25.0008E+06     525.291E+03     329.827E+03    -56.0993E-03     109.575E-03    -53.4759E-03     105.378E-03    -56.8844E-03     110.203E-03    -53.4096E-03     104.313E-03
            1742     11.0917E-03     40.0405E-03    -20.2014E+06    -53.0377E+06    -1.28016E+06     329.323E+03    -55.9020E-03     109.380E-03    -53.4776E-03     97.9108E-03    -56.4446E-03     109.666E-03    -53.3778E-03     97.0083E-03
            1743     10.2390E-03     39.9443E-03    -21.8351E+06    -72.9222E+06    -739.376E+03     355.862E+03    -55.7468E-03     109.222E-03    -53.4755E-03     91.9103E-03    -56.1312E-03     109.272E-03    -53.3418E-03     91.1495E-03
            1744     9.38609E-03     39.8552E-03    -23.6656E+06    -86.7290E+06    -469.882E+03     309.360E+03    -55.4938E-03     108.952E-03    -53.4583E-03     84.7802E-03    -55.7641E-03     108.832E-03    -53.3006E-03     84.1428E-03
            1745     8.53324E-03     39.7733E-03    -25.9102E+06    -99.2873E+06    -2.35907E+06     182.712E+03    -55.2002E-03     108.626E-03    -53.4256E-03     77.8409E-03    -55.3843E-03     108.372E-03    -53.2559E-03     77.3100E-03
            1746     7.68023E-03     39.6979E-03    -28.4206E+06    -111.767E+06    -3.06434E+06     148.722E+03    -54.8793E-03     108.278E-03    -53.3991E-03     71.0424E-03    -55.0008E-03     107.911E-03    -53.2112E-03     70.6041E-03
            1747     6.82720E-03     39.6295E-03    -31.4843E+06    -122.672E+06    -5.04317E+06     112.158E+03    -54.5438E-03     107.912E-03    -53.3679E-03     64.0318E-03    -54.6197E-03     107.455E-03    -53.1696E-03     63.6739E-03
            1748     5.97396E-03     39.5682E-03    -34.9873E+06    -131.410E+06    -9.99113E+06     63.5741E+03    -54.2258E-03     107.550E-03    -53.3240E-03     56.8098E-03    -54.2676E-03     107.030E-03    -53.1327E-03     56.5213E-03
            1749     5.12070E-03     39.5143E-03    -38.6855E+06    -138.109E+06    -16.3691E+06     27.7586E+03    -53.9327E-03     107.208E-03    -53.2757E-03     49.3434E-03    -53.9504E-03     106.646E-03    -53.1012E-03     49.1149E-03
            1750     4.26734E-03     39.4680E-03    -42.4809E+06    -147.441E+06    -23.4638E+06     24.5204E+03    -53.6882E-03     106.920E-03    -53.2322E-03     41.6086E-03    -53.6836E-03     106.310E-03    -53.0741E-03     41.4319E-03
            1751     3.41400E-03     39.4297E-03    -46.1151E+06    -158.035E+06    -32.0092E+06     172.193E+03    -53.4871E-03     106.673E-03    -53.1857E-03     33.6093E-03    -53.4606E-03     106.014E-03    -53.0497E-03     33.4785E-03
            1752     2.56054E-03     39.3996E-03    -49.4067E+06    -163.800E+06    -40.2663E+06     204.537E+03    -53.3027E-03     106.440E-03    -53.1374E-03     25.4863E-03    -53.2638E-03     105.761E-03    -53.0296E-03     25.3942E-03
            1753     1.70705E-03     39.3778E-03    -52.1102E+06    -168.188E+06    -47.0771E+06     10.9203E+03    -53.1713E-03     106.271E-03    -53.1002E-03     17.2855E-03    -53.1241E-03     105.579E-03    -53.0161E-03     17.2247E-03
            1754     853.552E-06     39.3644E-03    -53.9249E+06    -171.663E+06    -52.6556E+06    -160.266E+03    -53.1163E-03     106.168E-03    -53.0522E-03     9.37004E-03    -53.0618E-03     105.466E-03    -52.9884E-03     9.33588E-03
            1755     16.2112E-03     39.8320E-03    -4.63356E+06     140.827E+06     95.6728E+06     479.142E+03    -54.5390E-03     108.260E-03    -53.7213E-03     109.065E-03    -57.5037E-03     111.431E-03    -53.4404E-03     108.951E-03
            1756     15.3563E-03     39.6558E-03    -10.4720E+06     137.805E+06     79.6266E+06    -604.965E+03    -57.0016E-03     110.669E-03    -53.6672E-03     170.871E-03    -61.2911E-03     115.179E-03    -53.4537E-03     169.974E-03
            1757     14.5028E-03     39.4825E-03    -14.5888E+06     115.972E+06     36.5002E+06    -313.250E+03    -58.0831E-03     111.566E-03    -53.4834E-03     164.036E-03    -61.3356E-03     115.073E-03    -53.4479E-03     162.466E-03
            1758     13.6516E-03     39.3254E-03    -16.6245E+06     71.0045E+06     4.03683E+06     492.990E+03    -57.3692E-03     110.730E-03    -53.3612E-03     141.523E-03    -59.4292E-03     112.972E-03    -53.4199E-03     139.991E-03
            1759     12.7986E-03     39.1969E-03    -17.6721E+06     13.9623E+06    -1.31351E+06     305.857E+03    -56.5126E-03     109.903E-03    -53.3907E-03     119.653E-03    -57.7349E-03     111.116E-03    -53.3919E-03     118.372E-03
            1760     11.9451E-03     39.0859E-03    -19.0104E+06    -25.3758E+06     422.844E+03     234.434E+03    -56.1681E-03     109.594E-03    -53.4258E-03     105.423E-03    -56.9540E-03     110.221E-03    -53.3593E-03     104.354E-03
            1761     11.0926E-03     38.9851E-03    -20.3695E+06    -52.8374E+06    -1.27447E+06     278.989E+03    -55.9901E-03     109.407E-03    -53.4171E-03     97.7432E-03    -56.5326E-03     109.693E-03    -53.3173E-03     96.8399E-03
            1762     10.2397E-03     38.8891E-03    -21.8149E+06    -72.9393E+06    -867.056E+03     186.805E+03    -55.8038E-03     109.206E-03    -53.4024E-03     91.6599E-03    -56.1869E-03     109.255E-03    -53.2694E-03     90.8974E-03
            1763     9.38688E-03     38.8001E-03    -23.6665E+06    -86.6753E+06    -566.281E+03     234.362E+03    -55.5162E-03     108.890E-03    -53.3740E-03     84.4774E-03    -55.7852E-03     108.769E-03    -53.2169E-03     83.8403E-03
            1764     8.53399E-03     38.7183E-03    -25.8374E+06    -99.1484E+06    -2.42944E+06     211.350E+03    -55.2053E-03     108.535E-03    -53.3301E-03     77.4547E-03    -55.3882E-03     108.282E-03    -53.1610E-03     76.9253E-03
            1765     7.68106E-03     38.6432E-03    -28.4521E+06    -111.772E+06    -3.25630E+06     151.563E+03    -54.8460E-03     108.139E-03    -53.2928E-03     70.6788E-03    -54.9665E-03     107.771E-03    -53.1057E-03     70.2420E-03
            1766     6.82791E-03     38.5750E-03    -31.5458E+06    -122.604E+06    -5.03338E+06     167.829E+03    -54.5041E-03     107.756E-03    -53.2522E-03     63.6989E-03    -54.5798E-03     107.299E-03    -53.0539E-03     63.3430E-03
            1767     5.97477E-03     38.5139E-03    -35.0805E+06    -131.348E+06    -9.89335E+06     161.749E+03    -54.1764E-03     107.373E-03    -53.1970E-03     56.4686E-03    -54.2185E-03     106.853E-03    -53.0052E-03     56.1823E-03
            1768     5.12144E-03     38.4601E-03    -38.8687E+06    -138.000E+06    -16.1466E+06     97.4809E+03    -53.8490E-03     106.986E-03    -53.1375E-03     49.0228E-03    -53.8676E-03     106.424E-03    -52.9618E-03     48.7963E-03
            1769     4.26804E-03     38.4140E-03    -42.7733E+06    -147.521E+06    -23.4289E+06     63.2340E+03    -53.5677E-03     106.652E-03    -53.0845E-03     41.3314E-03    -53.5643E-03     106.041E-03    -52.9257E-03     41.1562E-03
            1770     3.41448E-03     38.3758E-03    -46.5544E+06    -158.082E+06    -32.0600E+06     56.0135E+03    -53.3475E-03     106.379E-03    -53.0315E-03     33.3872E-03    -53.3228E-03     105.721E-03    -52.8951E-03     33.2560E-03
            1771     2.56098E-03     38.3459E-03    -49.6867E+06    -163.573E+06    -40.1755E+06    -61.9287E+03    -53.1575E-03     106.135E-03    -52.9775E-03     25.3276E-03    -53.1203E-03     105.457E-03    -52.8691E-03     25.2330E-03
            1772     1.70735E-03     38.3242E-03    -52.2685E+06    -168.192E+06    -47.2224E+06    -115.716E+03    -52.9942E-03     105.934E-03    -52.9399E-03     17.1903E-03    -52.9475E-03     105.242E-03    -52.8563E-03     17.1283E-03
            1773     853.620E-06     38.3109E-03    -54.1959E+06    -171.837E+06    -52.8664E+06    -4.71647E+03    -52.9264E-03     105.855E-03    -52.9289E-03     9.34795E-03    -52.8727E-03     105.153E-03    -52.8655E-03     9.31613E-03
            1774     16.2147E-03     38.7770E-03    -4.60940E+06     141.054E+06     95.9371E+06     218.024E+03    -55.4523E-03     109.107E-03    -53.6543E-03     110.869E-03    -58.4900E-03     112.351E-03    -53.3725E-03     110.740E-03
            1775     15.3593E-03     38.6056E-03    -9.75883E+06     139.043E+06     82.1554E+06     826.162E+03    -57.1003E-03     110.693E-03    -53.5923E-03     174.943E-03    -61.4770E-03     115.290E-03    -53.3690E-03     174.084E-03
            1776     14.5053E-03     38.4239E-03    -14.7845E+06     115.915E+06     38.3390E+06     7.41220E+03    -57.6782E-03     111.103E-03    -53.4243E-03     164.813E-03    -60.9149E-03     114.587E-03    -53.3792E-03     163.267E-03
            1777     13.6517E-03     38.2717E-03    -16.6357E+06     70.6802E+06     4.58827E+06    -380.164E+03    -56.9928E-03     110.313E-03    -53.3202E-03     142.125E-03    -59.0465E-03     112.545E-03    -53.3756E-03     140.600E-03
            1778     12.7978E-03     38.1408E-03    -17.2141E+06     13.7216E+06    -1.10611E+06     468.503E+03    -56.6431E-03     109.998E-03    -53.3545E-03     120.104E-03    -57.8660E-03     111.211E-03    -53.3550E-03     118.823E-03
            1779     11.9460E-03     38.0305E-03    -18.5085E+06    -25.3430E+06     465.592E+03     449.716E+03    -56.3683E-03     109.743E-03    -53.3744E-03     105.109E-03    -57.1515E-03     110.369E-03    -53.3085E-03     104.039E-03
            1780     11.0931E-03     37.9296E-03    -20.0832E+06    -52.6412E+06    -1.18078E+06     226.518E+03    -56.1441E-03     109.491E-03    -53.3472E-03     97.3905E-03    -56.6851E-03     109.778E-03    -53.2476E-03     96.4843E-03
            1781     10.2406E-03     37.8340E-03    -21.6962E+06    -72.8983E+06    -1.01268E+06     164.188E+03    -55.8949E-03     109.209E-03    -53.3144E-03     91.2770E-03    -56.2760E-03     109.258E-03    -53.1823E-03     90.5140E-03
            1782     9.38784E-03     37.7450E-03    -23.5935E+06    -86.7034E+06    -634.324E+03     164.428E+03    -55.5504E-03     108.822E-03    -53.2715E-03     84.0970E-03    -55.8175E-03     108.699E-03    -53.1148E-03     83.4600E-03
            1783     8.53504E-03     37.6634E-03    -25.8010E+06    -99.1407E+06    -2.41282E+06     246.031E+03    -55.1787E-03     108.395E-03    -53.2158E-03     77.0331E-03    -55.3602E-03     108.140E-03    -53.0467E-03     76.5058E-03
            1784     7.68199E-03     37.5887E-03    -28.4477E+06    -111.664E+06    -3.19702E+06     253.657E+03    -54.8162E-03     107.983E-03    -53.1672E-03     70.2508E-03    -54.9359E-03     107.615E-03    -52.9800E-03     69.8168E-03
            1785     6.82890E-03     37.5206E-03    -31.6413E+06    -122.595E+06    -4.92959E+06     231.530E+03    -54.4544E-03     107.569E-03    -53.1145E-03     63.2923E-03    -54.5300E-03     107.111E-03    -52.9155E-03     62.9388E-03
            1786     5.97563E-03     37.4597E-03    -35.1454E+06    -131.274E+06    -9.74053E+06     194.132E+03    -54.0981E-03     107.145E-03    -53.0469E-03     56.0806E-03    -54.1401E-03     106.624E-03    -52.8543E-03     55.7964E-03
            1787     5.12229E-03     37.4063E-03    -38.8614E+06    -137.914E+06    -16.1050E+06     199.238E+03    -53.7448E-03     106.720E-03    -52.9750E-03     48.6936E-03    -53.7631E-03     106.157E-03    -52.7992E-03     48.4700E-03
            1788     4.26874E-03     37.3603E-03    -42.8060E+06    -147.454E+06    -23.3100E+06     180.030E+03    -53.4306E-03     106.343E-03    -52.9127E-03     41.0551E-03    -53.4273E-03     105.732E-03    -52.7533E-03     40.8829E-03
            1789     3.41516E-03     37.3224E-03    -46.6008E+06    -157.735E+06    -31.7310E+06    -71.6314E+03    -53.1762E-03     106.031E-03    -52.8546E-03     33.1743E-03    -53.1526E-03     105.374E-03    -52.7170E-03     33.0428E-03
            1790     2.56140E-03     37.2925E-03    -50.0018E+06    -163.610E+06    -40.5398E+06    -331.080E+03    -52.9719E-03     105.769E-03    -52.7971E-03     25.1467E-03    -52.9356E-03     105.092E-03    -52.6900E-03     25.0496E-03
            1791     1.70762E-03     37.2710E-03    -52.6711E+06    -168.576E+06    -47.8592E+06    -248.420E+03    -52.8294E-03     105.583E-03    -52.7540E-03     17.0487E-03    -52.7832E-03     104.891E-03    -52.6725E-03     16.9856E-03
            1792     853.818E-06     37.2577E-03    -54.2858E+06    -171.892E+06    -53.0818E+06    -49.7880E+03    -52.7569E-03     105.476E-03    -52.7189E-03     9.30468E-03    -52.7033E-03     104.774E-03    -52.6563E-03     9.27264E-03
            1793     16.2071E-03     37.7250E-03    -5.45926E+06     140.028E+06     95.0465E+06     179.786E+03    -55.2706E-03     108.994E-03    -53.7233E-03     111.495E-03    -58.3598E-03     112.285E-03    -53.4432E-03     111.324E-03
            1794     15.3566E-03     37.5436E-03    -10.6654E+06     139.165E+06     82.5788E+06     389.543E+03    -58.7671E-03     112.397E-03    -53.6302E-03     175.516E-03    -63.2113E-03     117.058E-03    -53.4036E-03     174.569E-03
            1795     14.5057E-03     37.3726E-03    -13.4997E+06     117.076E+06     38.5882E+06     156.727E+03    -57.9670E-03     111.369E-03    -53.4018E-03     164.593E-03    -61.1930E-03     114.851E-03    -53.3590E-03     163.045E-03
            1796     13.6508E-03     37.2148E-03    -15.8058E+06     69.8654E+06     2.70061E+06    -164.109E+03    -57.2362E-03     110.509E-03    -53.2732E-03     142.295E-03    -59.2849E-03     112.742E-03    -53.3381E-03     140.764E-03
            1797     12.7998E-03     37.0856E-03    -17.7428E+06     13.5625E+06    -1.91916E+06     137.241E+03    -56.8802E-03     110.175E-03    -53.2944E-03     119.237E-03    -58.1026E-03     111.388E-03    -53.2979E-03     117.943E-03
            1798     11.9464E-03     36.9744E-03    -18.8873E+06    -24.9213E+06     206.483E+03     320.222E+03    -56.4106E-03     109.710E-03    -53.2990E-03     104.641E-03    -57.1924E-03     110.335E-03    -53.2345E-03     103.571E-03
            1799     11.0944E-03     36.8743E-03    -20.1131E+06     -52.567E+06    -1.27276E+06     274.599E+03    -56.2401E-03     109.500E-03    -53.2595E-03     96.8571E-03    -56.7796E-03     109.785E-03    -53.1605E-03     95.9503E-03
            1800     10.2416E-03     36.7787E-03    -21.8294E+06    -72.5922E+06    -979.705E+03     286.340E+03    -55.9652E-03     109.176E-03    -53.2111E-03     90.8767E-03    -56.3457E-03     109.224E-03    -53.0791E-03     90.1160E-03
            1801     9.38904E-03     36.6901E-03    -23.8475E+06    -86.8299E+06    -823.406E+03     193.523E+03    -55.5737E-03     108.726E-03    -53.1525E-03     83.6764E-03    -55.8402E-03     108.602E-03    -52.9962E-03     83.0412E-03
            1802     8.53608E-03     36.6088E-03    -26.0903E+06    -99.2260E+06    -2.49411E+06     210.217E+03    -55.1717E-03     108.255E-03    -53.0828E-03     76.6031E-03    -55.3529E-03     107.998E-03    -52.9136E-03     76.0775E-03
            1803     7.68315E-03     36.5342E-03    -28.6375E+06    -111.510E+06    -3.11489E+06     277.967E+03    -54.7868E-03     107.807E-03    -53.0197E-03     69.7975E-03    -54.9067E-03     107.438E-03    -52.8321E-03     69.3659E-03
            1804     6.83002E-03     36.4665E-03    -31.6796E+06    -122.482E+06    -4.96379E+06     225.498E+03    -54.3835E-03     107.336E-03    -52.9521E-03     62.8586E-03    -54.4583E-03     106.877E-03    -52.7533E-03     62.5071E-03
            1805     5.97671E-03     36.4059E-03    -35.1161E+06    -131.308E+06    -9.84066E+06     179.192E+03    -53.9870E-03     106.859E-03    -52.8723E-03     55.6766E-03    -54.0279E-03     106.338E-03    -52.6802E-03     55.3944E-03
            1806     5.12321E-03     36.3527E-03    -38.8264E+06    -137.894E+06    -16.1632E+06     271.026E+03    -53.6121E-03     106.402E-03    -52.7900E-03     48.3001E-03    -53.6297E-03     105.839E-03    -52.6146E-03     48.0792E-03
            1807     4.26960E-03     36.3070E-03    -42.6186E+06    -147.126E+06    -23.2440E+06     197.159E+03    -53.2743E-03     105.992E-03    -52.7179E-03     40.7151E-03    -53.2702E-03     105.382E-03    -52.5590E-03     40.5447E-03
            1808     3.41579E-03     36.2693E-03    -46.4277E+06    -157.389E+06    -31.5583E+06    -75.2814E+03    -52.9977E-03     105.650E-03    -52.6523E-03     32.8956E-03    -52.9738E-03     104.994E-03    -52.5145E-03     32.7652E-03
            1809     2.56195E-03     36.2396E-03    -49.9801E+06    -163.658E+06    -40.6383E+06    -184.499E+03    -52.7805E-03     105.367E-03    -52.5870E-03     24.9086E-03    -52.7438E-03     104.690E-03    -52.4804E-03     24.8143E-03
            1810     1.70800E-03     36.2182E-03    -52.9004E+06    -168.865E+06    -48.4322E+06    -223.363E+03    -52.6295E-03     105.163E-03    -52.5337E-03     16.8906E-03    -52.5832E-03     104.470E-03    -52.4543E-03     16.8284E-03
            1811     854.070E-06     36.2049E-03    -54.7739E+06    -172.171E+06    -53.4925E+06    -173.273E+03    -52.5303E-03     105.027E-03    -52.4966E-03     9.26260E-03    -52.4781E-03     104.325E-03    -52.4350E-03     9.22913E-03
            1812     16.2094E-03     36.6654E-03    -4.85065E+06     140.484E+06     95.4425E+06     661.125E+03    -55.6975E-03     109.400E-03    -53.7020E-03     109.123E-03    -58.7141E-03     112.621E-03    -53.4215E-03     108.937E-03
            1813     15.3583E-03     36.4864E-03    -9.78066E+06     139.480E+06     81.6471E+06    -607.741E+03    -57.9554E-03     111.554E-03    -53.5987E-03     171.596E-03    -62.3125E-03     116.135E-03    -53.3785E-03     170.656E-03
            1814     14.5043E-03     36.3168E-03    -14.4756E+06     116.234E+06     37.3971E+06    -356.812E+03    -58.2032E-03     111.578E-03    -53.3751E-03     163.205E-03    -61.4360E-03     115.064E-03    -53.3357E-03     161.636E-03
            1815     13.6539E-03     36.1590E-03    -17.2222E+06     70.0356E+06     3.06271E+06     817.052E+03    -57.8432E-03     111.063E-03    -53.2202E-03     142.152E-03    -59.9079E-03     113.307E-03    -53.2815E-03     140.608E-03
            1816     12.8000E-03     36.0301E-03    -18.4775E+06     13.8675E+06    -2.30510E+06     179.877E+03    -56.9249E-03     110.136E-03    -53.2108E-03     119.258E-03    -58.1477E-03     111.349E-03    -53.2156E-03     117.965E-03
            1817     11.9482E-03     35.9190E-03    -19.4307E+06    -25.1445E+06    -66.0367E+03    -116.959E+03    -56.4850E-03     109.691E-03    -53.2060E-03     104.432E-03    -57.2659E-03     110.314E-03    -53.1417E-03     103.357E-03
            1818     11.0952E-03     35.8187E-03    -20.6412E+06    -52.4998E+06    -1.34432E+06     163.874E+03    -56.2430E-03     109.399E-03    -53.1560E-03     96.5540E-03    -56.7817E-03     109.682E-03    -53.0567E-03     95.6492E-03
            1819     10.2429E-03     35.7235E-03    -22.1109E+06    -72.5609E+06    -1.00900E+06     179.693E+03    -56.0441E-03     109.138E-03    -53.0936E-03     90.4248E-03    -56.4242E-03     109.185E-03    -52.9614E-03     89.6634E-03
            1820     9.39016E-03     35.6352E-03    -23.9380E+06    -86.7520E+06    -771.353E+03     223.211E+03    -55.6119E-03     108.629E-03    -53.0170E-03     83.1314E-03    -55.8768E-03     108.503E-03    -52.8604E-03     82.4989E-03
            1821     8.53749E-03     35.5543E-03    -26.1047E+06    -99.1778E+06    -2.57663E+06     184.734E+03    -55.1679E-03     108.097E-03    -52.9291E-03     76.0765E-03    -55.3473E-03     107.839E-03    -52.7604E-03     75.5532E-03
            1822     7.68446E-03     35.4800E-03    -28.6154E+06    -111.514E+06    -3.28560E+06     151.730E+03    -54.7358E-03     107.585E-03    -52.8496E-03     69.3112E-03    -54.8538E-03     107.215E-03    -52.6628E-03     68.8808E-03
            1823     6.83126E-03     35.4126E-03    -31.5718E+06    -122.371E+06    -5.04840E+06     178.271E+03    -54.3000E-03     107.067E-03    -52.7672E-03     62.3599E-03    -54.3733E-03     106.609E-03    -52.5692E-03     62.0104E-03
            1824     5.97786E-03     35.3524E-03    -35.0672E+06    -131.365E+06    -10.0077E+06     257.762E+03    -53.8664E-03     106.540E-03    -52.6736E-03     55.2040E-03    -53.9059E-03     106.018E-03    -52.4823E-03     54.9251E-03
            1825     5.12430E-03     35.2995E-03    -38.7670E+06    -137.878E+06    -16.2589E+06     265.927E+03    -53.4563E-03     106.036E-03    -52.5797E-03     47.8689E-03    -53.4728E-03     105.473E-03    -52.4048E-03     47.6500E-03
            1826     4.27052E-03     35.2541E-03    -42.6194E+06    -146.820E+06    -23.0990E+06     189.357E+03    -53.1017E-03     105.599E-03    -52.4973E-03     40.3308E-03    -53.0979E-03     104.990E-03    -52.3381E-03     40.1619E-03
            1827     3.41664E-03     35.2166E-03    -46.5688E+06    -157.167E+06    -31.4431E+06     86.3508E+03    -52.8066E-03     105.227E-03    -52.4199E-03     32.5659E-03    -52.7836E-03     104.571E-03    -52.2817E-03     32.4390E-03
            1828     2.56258E-03     35.1871E-03    -50.1988E+06    -163.676E+06    -40.5889E+06    -4.40750E+03    -52.5637E-03     104.907E-03    -52.3433E-03     24.6615E-03    -52.5280E-03     104.230E-03    -52.2361E-03     24.5706E-03
            1829     1.70847E-03     35.1658E-03    -53.0413E+06    -168.895E+06    -48.4689E+06     17.5436E+03    -52.3847E-03     104.667E-03    -52.2819E-03     16.7156E-03    -52.3389E-03     103.973E-03    -52.2024E-03     16.6572E-03
            1830     854.165E-06     35.1527E-03    -55.0775E+06    -172.386E+06    -53.8675E+06    -76.1209E+03    -52.2856E-03     104.516E-03    -52.2302E-03     9.10702E-03    -52.2341E-03     103.813E-03    -52.1697E-03     9.07517E-03
            1831     16.2154E-03     35.6065E-03    -4.60911E+06     140.740E+06     95.5076E+06    -255.380E+03    -56.0054E-03     109.641E-03    -53.6351E-03     110.178E-03    -59.0176E-03     112.859E-03    -53.3550E-03     110.006E-03
            1832     15.3594E-03     35.4364E-03    -8.93358E+06     139.554E+06     82.5549E+06     1.00981E+06    -57.3726E-03     110.920E-03    -53.5474E-03     173.703E-03    -61.7226E-03     115.494E-03    -53.3240E-03     172.823E-03
            1833     14.5062E-03     35.2573E-03    -14.7595E+06     115.675E+06     38.6241E+06     1.20319E+06    -58.3981E-03     111.743E-03    -53.3445E-03     164.302E-03    -61.6405E-03     115.231E-03    -53.2977E-03     162.737E-03
            1834     13.6531E-03     35.1048E-03    -17.3030E+06     70.8667E+06     4.69775E+06     438.804E+03    -58.1294E-03     111.303E-03    -53.1741E-03     141.873E-03    -60.1955E-03     113.546E-03    -53.2282E-03     140.315E-03
            1835     12.8014E-03     34.9732E-03    -17.8882E+06     14.5576E+06    -1.37335E+06     173.376E+03    -57.2440E-03     110.379E-03    -53.1355E-03     119.092E-03    -58.4649E-03     111.593E-03    -53.1375E-03     117.794E-03
            1836     11.9489E-03     34.8638E-03    -19.1085E+06    -25.2434E+06    -15.1949E+03    -101.400E+03    -56.5883E-03     109.695E-03    -53.1065E-03     103.993E-03    -57.3629E-03     110.312E-03    -53.0423E-03     102.920E-03
            1837     11.0967E-03     34.7633E-03    -20.5813E+06    -52.7475E+06    -1.53258E+06    -124.009E+03    -56.3626E-03     109.401E-03    -53.0385E-03     96.2881E-03    -56.8979E-03     109.680E-03    -52.9398E-03     95.3809E-03
            1838     10.2442E-03     34.6683E-03    -21.9918E+06    -72.8091E+06    -1.20790E+06     55.9818E+03    -56.1223E-03     109.079E-03    -52.9565E-03     89.8168E-03    -56.4985E-03     109.122E-03    -52.8250E-03     89.0553E-03
            1839     9.39184E-03     34.5805E-03    -23.8018E+06    -86.6010E+06    -924.643E+03     135.984E+03    -55.6451E-03     108.505E-03    -52.8597E-03     82.5080E-03    -55.9069E-03     108.377E-03    -52.7042E-03     81.8768E-03
            1840     8.53890E-03     34.5000E-03    -25.9506E+06    -99.1243E+06    -2.82526E+06     171.875E+03    -55.1458E-03     107.899E-03    -52.7529E-03     75.5049E-03    -55.3223E-03     107.639E-03    -52.5857E-03     74.9843E-03
            1841     7.68592E-03     34.4261E-03    -28.5106E+06    -111.508E+06    -3.52448E+06     143.983E+03    -54.6839E-03     107.340E-03    -52.6560E-03     68.7344E-03    -54.7995E-03     106.969E-03    -52.4706E-03     68.3068E-03
            1842     6.83269E-03     34.3591E-03    -31.5987E+06    -122.427E+06    -5.25232E+06     181.950E+03    -54.2050E-03     106.762E-03    -52.5568E-03     61.7622E-03    -54.2767E-03     106.302E-03    -52.3597E-03     61.4154E-03
            1843     5.97925E-03     34.2992E-03    -35.0579E+06    -131.343E+06    -9.94667E+06     334.471E+03    -53.7236E-03     106.172E-03    -52.4488E-03     54.6420E-03    -53.7622E-03     105.649E-03    -52.2573E-03     54.3667E-03
            1844     5.12550E-03     34.2467E-03    -38.8409E+06    -137.718E+06    -16.1319E+06     305.844E+03    -53.2781E-03     105.620E-03    -52.3420E-03     47.3767E-03    -53.2947E-03     105.057E-03    -52.1667E-03     47.1606E-03
            1845     4.27160E-03     34.2016E-03    -42.7688E+06    -146.718E+06    -22.9753E+06     194.199E+03    -52.8998E-03     105.148E-03    -52.2478E-03     39.9063E-03    -52.8966E-03     104.538E-03    -52.0879E-03     39.7394E-03
            1846     3.41751E-03     34.1644E-03    -46.6725E+06    -157.011E+06    -31.2582E+06     190.817E+03    -52.5802E-03     104.740E-03    -52.1595E-03     32.2233E-03    -52.5579E-03     104.085E-03    -52.0205E-03     32.0992E-03
            1847     2.56329E-03     34.1352E-03    -50.2918E+06    -163.608E+06    -40.5562E+06     146.211E+03    -52.3140E-03     104.387E-03    -52.0728E-03     24.4027E-03    -52.2787E-03     103.710E-03    -51.9654E-03     24.3149E-03
            1848     1.70890E-03     34.1140E-03    -53.1853E+06    -168.869E+06    -48.4079E+06     152.136E+03    -52.1266E-03     104.128E-03    -52.0010E-03     16.5301E-03    -52.0816E-03     103.435E-03    -51.9210E-03     16.4743E-03
            1849     854.586E-06     34.1010E-03    -55.0330E+06    -172.211E+06    -53.7047E+06     83.6144E+03    -51.9879E-03     103.940E-03    -51.9519E-03     9.02007E-03    -51.9366E-03     103.238E-03    -51.8909E-03     8.99070E-03
            1850     16.2086E-03     34.5548E-03    -5.14655E+06     139.758E+06     94.6497E+06    -509.366E+03    -55.5295E-03     109.216E-03    -53.6865E-03     111.094E-03    -58.5780E-03     112.468E-03    -53.4084E-03     110.895E-03
            1851     15.3574E-03     34.3761E-03    -11.0430E+06     137.480E+06     80.3798E+06     560.468E+03    -58.8409E-03     112.415E-03    -53.5741E-03     174.608E-03    -63.2297E-03     117.020E-03    -53.3556E-03     173.639E-03
            1852     14.5060E-03     34.2039E-03    -13.6759E+06     116.731E+06     38.7117E+06     1.41974E+06    -59.1069E-03     112.420E-03    -53.3133E-03     164.073E-03    -62.3390E-03     115.906E-03    -53.2692E-03     162.479E-03
            1853     13.6541E-03     34.0462E-03    -15.3768E+06     71.6114E+06     4.55863E+06     702.850E+03    -58.4557E-03     111.561E-03    -53.1058E-03     141.186E-03    -60.5109E-03     113.803E-03    -53.1645E-03     139.620E-03
            1854     12.8027E-03     33.9182E-03    -16.9321E+06     14.8761E+06    -1.58748E+06     222.757E+03    -57.4822E-03     110.525E-03    -53.0427E-03     118.058E-03    -58.6931E-03     111.733E-03    -53.0476E-03     116.755E-03
            1855     11.9503E-03     33.8080E-03    -18.3893E+06    -24.6438E+06    -87.7331E+03     218.751E+03    -56.7861E-03     109.776E-03    -52.9896E-03     103.521E-03    -57.5547E-03     110.392E-03    -52.9276E-03     102.451E-03
            1856     11.0981E-03     33.7080E-03    -19.9840E+06    -53.0580E+06    -1.87661E+06    -7.78169E+03    -56.5449E-03     109.441E-03    -52.8962E-03     95.5616E-03    -57.0738E-03     109.716E-03    -52.7996E-03     94.6544E-03
            1857     10.2460E-03     33.6132E-03    -21.7473E+06    -72.8395E+06    -1.43580E+06     73.1613E+03    -56.1176E-03     108.911E-03    -52.7934E-03     89.1258E-03    -56.4886E-03     108.950E-03    -52.6634E-03     88.3684E-03
            1858     9.39329E-03     33.5259E-03    -23.7659E+06    -86.6720E+06    -1.22298E+06     147.171E+03    -55.6299E-03     108.310E-03    -52.6802E-03     81.8266E-03    -55.8885E-03     108.180E-03    -52.5262E-03     81.1983E-03
            1859     8.54065E-03     33.4458E-03    -26.0486E+06    -99.0486E+06    -3.01570E+06     179.878E+03    -55.1352E-03     107.690E-03    -52.5546E-03     74.8335E-03    -55.3101E-03     107.429E-03    -52.3883E-03     74.3157E-03
            1860     7.68762E-03     33.3724E-03    -28.6449E+06    -111.446E+06    -3.72297E+06     222.659E+03    -54.6139E-03     107.051E-03    -52.4375E-03     68.0799E-03    -54.7282E-03     106.679E-03    -52.2530E-03     67.6563E-03
            1861     6.83435E-03     33.3058E-03    -31.7216E+06    -122.549E+06    -5.34426E+06     274.538E+03    -54.0811E-03     106.402E-03    -52.3213E-03     61.1382E-03    -54.1518E-03     105.941E-03    -52.1243E-03     60.7958E-03
            1862     5.98073E-03     33.2465E-03    -35.2246E+06    -131.359E+06    -10.1288E+06     342.840E+03    -53.5685E-03     105.765E-03    -52.1964E-03     54.0616E-03    -53.6066E-03     105.241E-03    -52.0055E-03     53.7893E-03
            1863     5.12691E-03     33.1943E-03    -38.8779E+06    -137.505E+06    -15.9746E+06     318.019E+03    -53.0861E-03     105.161E-03    -52.0752E-03     46.8488E-03    -53.1027E-03     104.598E-03    -51.8993E-03     46.6355E-03
            1864     4.27281E-03     33.1497E-03    -42.7544E+06    -146.550E+06    -22.8817E+06     219.715E+03    -52.6595E-03     104.628E-03    -51.9682E-03     39.4401E-03    -52.6560E-03     104.019E-03    -51.8081E-03     39.2758E-03
            1865     3.41850E-03     33.1127E-03    -46.7238E+06    -157.011E+06    -31.2999E+06     194.016E+03    -52.3122E-03     104.183E-03    -51.8711E-03     31.8406E-03    -52.2898E-03     103.528E-03    -51.7322E-03     31.7184E-03
            1866     2.56402E-03     33.0838E-03    -50.3040E+06    -163.450E+06    -40.4338E+06     252.567E+03    -52.0375E-03     103.815E-03    -51.7776E-03     24.1073E-03    -52.0025E-03     103.139E-03    -51.6698E-03     24.0222E-03
            1867     1.70948E-03     33.0628E-03    -53.1198E+06    -168.695E+06    -48.3888E+06     178.644E+03    -51.8256E-03     103.527E-03    -51.7011E-03     16.3375E-03    -51.7805E-03     102.834E-03    -51.6214E-03     16.2829E-03
            1868     854.689E-06     33.0499E-03    -54.8615E+06    -172.015E+06    -53.6658E+06     15.3345E+03    -51.6679E-03     103.340E-03    -51.6719E-03     8.86438E-03    -51.6160E-03     102.639E-03    -51.6113E-03     8.83453E-03
            1869     16.2090E-03     33.4953E-03    -5.55913E+06     139.661E+06     94.5969E+06     504.779E+03    -56.1325E-03     109.814E-03    -53.6818E-03     108.574E-03    -59.1265E-03     113.010E-03    -53.4033E-03     108.333E-03
            1870     15.3586E-03     33.3188E-03    -11.1947E+06     137.395E+06     79.5474E+06    -445.215E+03    -59.2057E-03     112.730E-03    -53.5247E-03     170.750E-03    -63.5186E-03     117.261E-03    -53.3100E-03     169.720E-03
            1871     14.5070E-03     33.1464E-03    -14.5489E+06     115.926E+06     36.4247E+06    -468.994E+03    -59.2828E-03     112.510E-03    -53.2272E-03     162.296E-03    -62.4950E-03     115.976E-03    -53.1920E-03     160.670E-03
            1872     13.6560E-03     32.9896E-03    -16.0169E+06     71.4486E+06     3.40990E+06     616.370E+03    -58.4872E-03     111.494E-03    -53.0068E-03     140.500E-03    -60.5366E-03     113.730E-03    -53.0702E-03     138.931E-03
            1873     12.8036E-03     32.8622E-03    -17.0484E+06     15.4207E+06    -1.88711E+06     699.004E+03    -57.5887E-03     110.521E-03    -52.9324E-03     117.473E-03    -58.7958E-03     111.728E-03    -52.9395E-03     116.175E-03
            1874     11.9520E-03     32.7521E-03    -18.6012E+06    -24.3614E+06    -152.512E+03     435.576E+03    -57.1166E-03     109.972E-03    -52.8550E-03     102.973E-03    -57.8863E-03     110.589E-03    -52.7935E-03     101.898E-03
            1875     11.1003E-03     32.6525E-03    -20.0867E+06    -52.7938E+06     -1.7934E+06     350.247E+03    -56.6173E-03     109.352E-03    -52.7343E-03     94.9114E-03    -57.1436E-03     109.624E-03    -52.6376E-03     94.0107E-03
            1876     10.2478E-03     32.5585E-03    -21.7685E+06    -72.8759E+06    -1.47612E+06     189.701E+03    -56.1354E-03     108.747E-03    -52.6116E-03     88.5040E-03    -56.5032E-03     108.783E-03    -52.4818E-03     87.7514E-03
            1877     9.39533E-03     32.4714E-03    -23.7316E+06    -86.6601E+06    -1.04610E+06     266.159E+03    -55.6148E-03     108.095E-03    -52.4802E-03     81.1681E-03    -55.8707E-03     107.962E-03    -52.3254E-03     80.5451E-03
            1878     8.54251E-03     32.3919E-03    -25.9743E+06    -98.9567E+06    -2.81193E+06     261.714E+03    -55.0939E-03     107.428E-03    -52.3346E-03     74.1176E-03    -55.2665E-03     107.166E-03    -52.1675E-03     73.6042E-03
            1879     7.68949E-03     32.3190E-03    -28.5559E+06    -111.418E+06    -3.61225E+06     263.208E+03    -54.5161E-03     106.714E-03    -52.1974E-03     67.3811E-03    -54.6283E-03     106.339E-03    -52.0125E-03     66.9620E-03
            1880     6.83606E-03     32.2530E-03    -31.6299E+06    -122.666E+06    -5.22933E+06     366.395E+03    -53.9406E-03     106.004E-03    -52.0635E-03     60.4771E-03    -54.0093E-03     105.540E-03    -51.8659E-03     60.1396E-03
            1881     5.98241E-03     32.1941E-03    -35.0577E+06    -131.205E+06    -9.89660E+06     334.475E+03    -53.4000E-03     105.321E-03    -51.9211E-03     53.4319E-03    -53.4367E-03     104.796E-03    -51.7295E-03     53.1627E-03
            1882     5.12841E-03     32.1425E-03    -38.7200E+06    -137.416E+06    -16.0734E+06     263.502E+03    -52.8765E-03     104.658E-03    -51.7813E-03     46.2790E-03    -52.8914E-03     104.094E-03    -51.6062E-03     46.0678E-03
            1883     4.27413E-03     32.0982E-03    -42.5885E+06    -146.470E+06    -22.9573E+06     323.253E+03    -52.4118E-03     104.071E-03    -51.6592E-03     38.9282E-03    -52.4070E-03     103.462E-03    -51.4999E-03     38.7677E-03
            1884     3.41958E-03     32.0617E-03    -46.6001E+06    -156.893E+06    -31.3678E+06     334.942E+03    -52.0271E-03     103.577E-03    -51.5499E-03     31.4000E-03    -52.0037E-03     102.922E-03    -51.4116E-03     31.2815E-03
            1885     2.56488E-03     32.0330E-03    -50.2460E+06    -163.280E+06    -40.4859E+06     214.830E+03    -51.7142E-03     103.164E-03    -51.4497E-03     23.7581E-03    -51.6789E-03     102.488E-03    -51.3425E-03     23.6739E-03
            1886     1.70997E-03     32.0123E-03    -53.0319E+06    -168.470E+06    -48.3237E+06     155.616E+03    -51.4878E-03     102.862E-03    -51.3744E-03     16.0843E-03    -51.4425E-03     102.171E-03    -51.2949E-03     16.0303E-03
            1887     855.051E-06     31.9996E-03    -54.7881E+06    -171.816E+06    -53.6257E+06     116.686E+03    -51.3610E-03     102.690E-03    -51.3293E-03     8.75043E-03    -51.3091E-03     101.990E-03    -51.2689E-03     8.72250E-03
            1888     16.2147E-03     32.4370E-03    -4.74051E+06     139.723E+06     94.9323E+06     563.621E+03    -57.2782E-03     110.850E-03    -53.5721E-03     107.885E-03    -60.2313E-03     114.007E-03    -53.2932E-03     107.631E-03
            1889     15.3617E-03     32.2641E-03    -8.75588E+06     138.378E+06     81.6771E+06     747.094E+03    -58.5806E-03     111.984E-03    -53.4036E-03     171.363E-03    -62.8563E-03     116.483E-03    -53.1832E-03     170.391E-03
            1890     14.5095E-03     32.0884E-03    -13.9682E+06     115.822E+06     37.6130E+06     212.378E+03    -59.0793E-03     112.206E-03    -53.1264E-03     162.755E-03    -62.2878E-03     115.667E-03    -53.0860E-03     161.147E-03
            1891     13.6570E-03     31.9346E-03    -17.0541E+06     70.9927E+06     3.45130E+06     45.5469E+03    -58.5106E-03     111.413E-03    -52.9026E-03     140.113E-03    -60.5530E-03     113.637E-03    -52.9635E-03     138.539E-03
            1892     12.8053E-03     31.8052E-03    -18.3025E+06     15.6832E+06    -1.99749E+06     397.937E+03    -57.8034E-03     110.613E-03    -52.8098E-03     117.145E-03    -59.0138E-03     111.820E-03    -52.8160E-03     115.840E-03
            1893     11.9540E-03     31.6963E-03    -19.0015E+06    -24.1017E+06     33.3431E+03     433.344E+03    -57.2157E-03     109.926E-03    -52.7106E-03     102.294E-03    -57.9834E-03     110.541E-03    -52.6479E-03     101.221E-03
            1894     11.1017E-03     31.5973E-03    -20.3201E+06    -52.5449E+06    -1.60033E+06     358.905E+03    -56.7025E-03     109.272E-03    -52.5691E-03     94.3987E-03    -57.2267E-03     109.542E-03    -52.4714E-03     93.5009E-03
            1895     10.2498E-03     31.5037E-03    -21.9091E+06    -72.7892E+06    -1.39865E+06     380.661E+03    -56.2382E-03     108.660E-03    -52.4221E-03     87.9229E-03    -56.6037E-03     108.694E-03    -52.2917E-03     87.1752E-03
            1896     9.39733E-03     31.4174E-03    -23.7751E+06    -86.6145E+06    -1.11886E+06     297.004E+03    -55.6556E-03     107.919E-03    -52.2638E-03     80.5524E-03    -55.9088E-03     107.784E-03    -52.1093E-03     79.9333E-03
            1897     8.54461E-03     31.3382E-03    -25.9167E+06    -98.9033E+06    -2.76546E+06     330.127E+03    -55.0400E-03     107.135E-03    -52.0952E-03     73.4016E-03    -55.2097E-03     106.870E-03    -51.9280E-03     72.8936E-03
            1898     7.69148E-03     31.2660E-03    -28.5973E+06    -111.434E+06    -3.58865E+06     403.046E+03    -54.4236E-03     106.360E-03    -51.9367E-03     66.6062E-03    -54.5338E-03     105.984E-03    -51.7516E-03     66.1930E-03
            1899     6.83804E-03     31.2006E-03    -31.6740E+06    -122.512E+06    -5.48358E+06     287.618E+03    -53.8031E-03     105.583E-03    -51.7798E-03     59.7326E-03    -53.8701E-03     105.118E-03    -51.5836E-03     59.3981E-03
            1900     5.98420E-03     31.1423E-03    -34.9884E+06    -131.176E+06    -10.0263E+06     272.233E+03    -53.2068E-03     104.825E-03    -51.6183E-03     52.7169E-03    -53.2417E-03     104.299E-03    -51.4275E-03     52.4507E-03
            1901     5.13005E-03     31.0912E-03    -38.6982E+06    -137.376E+06    -16.2201E+06     383.848E+03    -52.6443E-03     104.105E-03    -51.4606E-03     45.6095E-03    -52.6581E-03     103.541E-03    -51.2864E-03     45.4031E-03
            1902     4.27556E-03     31.0474E-03    -42.6847E+06    -146.443E+06    -23.1497E+06     445.172E+03    -52.1439E-03     103.466E-03    -51.3217E-03     38.3517E-03    -52.1387E-03     102.856E-03    -51.1632E-03     38.1953E-03
            1903     3.42084E-03     31.0113E-03    -46.5541E+06    -156.648E+06    -31.3924E+06     414.982E+03    -51.7150E-03     102.914E-03    -51.1987E-03     30.9319E-03    -51.6913E-03     102.260E-03    -51.0610E-03     30.8165E-03
            1904     2.56582E-03     30.9830E-03    -50.0490E+06    -163.059E+06    -40.5484E+06     303.923E+03    -51.3676E-03     102.457E-03    -51.0896E-03     23.4126E-03    -51.3314E-03     101.782E-03    -50.9833E-03     23.3311E-03
            1905     1.71064E-03     30.9625E-03    -52.9155E+06    -168.246E+06    -48.2994E+06     221.672E+03    -51.1403E-03     102.147E-03    -51.0067E-03     15.8391E-03    -51.0947E-03     101.456E-03    -50.9275E-03     15.7870E-03
            1906     855.313E-06     30.9499E-03    -54.7046E+06    -171.519E+06    -53.5043E+06     162.525E+03    -50.9657E-03     101.944E-03    -50.9780E-03     8.60292E-03    -50.9139E-03     101.244E-03    -50.9175E-03     8.57609E-03
            1907     16.2139E-03     31.3822E-03    -5.24241E+06     138.963E+06     94.1681E+06    -467.500E+03    -57.5340E-03     111.101E-03    -53.5670E-03     109.470E-03    -60.5415E-03     114.310E-03    -53.2900E-03     109.181E-03
            1908     15.3614E-03     31.2066E-03    -9.36332E+06     137.646E+06     81.3709E+06     425.863E+03    -59.5213E-03     112.896E-03    -53.3749E-03     173.603E-03    -63.8583E-03     117.453E-03    -53.1541E-03     172.585E-03
            1909     14.5096E-03     31.0324E-03    -13.1635E+06     116.626E+06     38.8926E+06     1.62281E+06    -59.6076E-03     112.671E-03    -53.0630E-03     163.253E-03    -62.8165E-03     116.134E-03    -53.0186E-03     161.641E-03
            1910     13.6585E-03     30.8775E-03    -16.0832E+06     71.6955E+06     3.77611E+06     1.17399E+06    -58.9878E-03     111.788E-03    -52.8005E-03     139.991E-03    -61.0243E-03     114.011E-03    -52.8622E-03     138.419E-03
            1911     12.8075E-03     30.7492E-03    -17.7529E+06     15.7355E+06    -2.26637E+06     312.007E+03    -58.0403E-03     110.716E-03    -52.6755E-03     116.732E-03    -59.2413E-03     111.916E-03    -52.6839E-03     115.424E-03
            1912     11.9553E-03     30.6405E-03    -18.9810E+06    -24.1314E+06    -243.303E+03     190.757E+03    -57.2538E-03     109.810E-03    -52.5565E-03     101.666E-03    -58.0141E-03     110.418E-03    -52.4952E-03     100.594E-03
            1913     11.1040E-03     30.5420E-03    -20.3611E+06    -52.5596E+06    -1.95084E+06     380.550E+03    -56.8236E-03     109.218E-03    -52.3943E-03     93.6247E-03    -57.3423E-03     109.483E-03    -52.2983E-03     92.7300E-03
            1914     10.2517E-03     30.4491E-03    -21.9329E+06    -72.5838E+06    -1.61127E+06     399.755E+03    -56.3524E-03     108.573E-03    -52.2205E-03     87.1652E-03    -56.7142E-03     108.604E-03    -52.0915E-03     86.4204E-03
            1915     9.39950E-03     30.3632E-03    -23.8021E+06    -86.5312E+06    -1.39491E+06     371.584E+03    -55.7164E-03     107.749E-03    -52.0329E-03     79.6736E-03    -55.9662E-03     107.611E-03    -51.8799E-03     79.0587E-03
            1916     8.54677E-03     30.2850E-03    -26.1276E+06    -99.0206E+06    -3.24805E+06     457.877E+03    -55.0122E-03     106.848E-03    -51.8360E-03     72.5383E-03    -55.1792E-03     106.580E-03    -51.6707E-03     72.0365E-03
            1917     7.69366E-03     30.2133E-03    -28.6778E+06    -111.286E+06    -3.87913E+06     445.235E+03    -54.3354E-03     105.988E-03    -51.6523E-03     65.7505E-03    -54.4435E-03     105.610E-03    -51.4688E-03     65.3422E-03
            1918     6.84013E-03     30.1487E-03    -31.6847E+06    -122.207E+06    -5.71794E+06     320.787E+03    -53.6616E-03     105.133E-03    -51.4709E-03     58.8935E-03    -53.7270E-03     104.668E-03    -51.2763E-03     58.5635E-03
            1919     5.98620E-03     30.0909E-03    -35.1997E+06    -131.292E+06    -10.6917E+06     315.474E+03    -53.0066E-03     104.292E-03    -51.2853E-03     51.9245E-03    -53.0401E-03     103.765E-03    -51.0973E-03     51.6626E-03
            1920     5.13186E-03     30.0405E-03    -38.8796E+06    -137.421E+06    -16.4854E+06     480.608E+03    -52.3857E-03     103.495E-03    -51.1094E-03     44.8705E-03    -52.3990E-03     102.930E-03    -50.9362E-03     44.6686E-03
            1921     4.27716E-03     29.9973E-03    -42.6483E+06    -146.215E+06    -23.1791E+06     484.437E+03    -51.8321E-03     102.787E-03    -50.9550E-03     37.7160E-03    -51.8264E-03     102.178E-03    -50.7971E-03     37.5629E-03
            1922     3.42208E-03     29.9617E-03    -46.4848E+06    -156.479E+06    -31.4261E+06     409.078E+03    -51.3769E-03     102.196E-03    -50.8190E-03     30.3995E-03    -51.3527E-03     101.542E-03    -50.6819E-03     30.2863E-03
            1923     2.56678E-03     29.9337E-03    -49.9852E+06    -162.805E+06    -40.4469E+06     416.803E+03    -51.0168E-03     101.713E-03    -50.6962E-03     22.9874E-03    -50.9805E-03     101.039E-03    -50.5899E-03     22.9090E-03
            1924     1.71130E-03     29.9135E-03    -52.7700E+06    -167.948E+06    -48.2567E+06     339.600E+03    -50.7514E-03     101.351E-03    -50.5997E-03     15.5554E-03    -50.7055E-03     100.662E-03    -50.5209E-03     15.5059E-03
            1925     855.764E-06     29.9010E-03    -54.5030E+06    -171.124E+06    -53.3415E+06     101.833E+03    -50.5616E-03     101.120E-03    -50.5581E-03     8.40295E-03    -50.5096E-03     100.422E-03    -50.4977E-03     8.37586E-03
            1926     16.2085E-03     30.3209E-03    -5.40577E+06     139.448E+06     94.4170E+06    -309.952E+03    -57.5324E-03     111.132E-03    -53.5995E-03     107.163E-03    -60.5100E-03     114.312E-03    -53.3218E-03     106.834E-03
            1927     15.3611E-03     30.1477E-03    -11.2709E+06     136.069E+06     78.9662E+06    -568.154E+03    -60.3566E-03     113.723E-03    -53.3666E-03     170.936E-03    -64.6646E-03     118.245E-03    -53.1527E-03     169.842E-03
            1928     14.5108E-03     29.9756E-03    -14.7547E+06     115.130E+06     37.2101E+06     689.627E+03    -60.3533E-03     113.356E-03    -53.0026E-03     162.367E-03    -63.5549E-03     116.806E-03    -52.9621E-03     160.712E-03
            1929     13.6599E-03     29.8197E-03    -15.9358E+06     73.1020E+06     4.73308E+06     1.51979E+06    -59.4250E-03     112.128E-03    -52.7027E-03     139.314E-03    -61.4589E-03     114.351E-03    -52.7620E-03     137.732E-03
            1930     12.8086E-03     29.6932E-03    -16.6499E+06     16.4617E+06    -1.91703E+06     917.418E+03    -58.2906E-03     110.833E-03    -52.5423E-03     116.028E-03    -59.4799E-03     112.027E-03    -52.5516E-03     114.725E-03
            1931     11.9578E-03     29.5845E-03    -18.4566E+06    -24.2493E+06    -387.793E+03     641.107E+03    -57.5069E-03     109.900E-03    -52.3932E-03     100.918E-03    -58.2591E-03     110.502E-03    -52.3332E-03     99.8502E-03
            1932     11.1057E-03     29.4871E-03    -20.2769E+06    -52.2959E+06    -2.18028E+06     571.934E+03    -56.9735E-03     109.174E-03    -52.2000E-03     92.7450E-03    -57.4867E-03     109.435E-03    -52.1057E-03     91.8551E-03
            1933     10.2541E-03     29.3943E-03    -21.8677E+06    -72.5236E+06    -1.92078E+06     408.242E+03    -56.4540E-03     108.450E-03    -51.9963E-03     86.1957E-03    -56.8110E-03     108.478E-03    -51.8690E-03     85.4539E-03
            1934     9.40184E-03     29.3095E-03    -23.8239E+06    -86.5599E+06    -1.63205E+06     502.578E+03    -55.7369E-03     107.517E-03    -51.7797E-03     78.6053E-03    -55.9825E-03     107.375E-03    -51.6278E-03     77.9965E-03
            1935     8.54919E-03     29.2318E-03    -25.9633E+06    -98.9056E+06    -3.42341E+06     525.943E+03    -54.9896E-03     106.543E-03    -51.5535E-03     71.5120E-03    -55.1526E-03     106.273E-03    -51.3896E-03     71.0155E-03
            1936     7.69604E-03     29.1611E-03     -28.399E+06    -111.077E+06    -4.02773E+06     418.460E+03    -54.2412E-03     105.582E-03    -51.3411E-03     64.7358E-03    -54.3454E-03     105.203E-03    -51.1590E-03     64.3317E-03
            1937     6.84241E-03     29.0971E-03    -31.4713E+06    -122.170E+06    -5.59301E+06     496.239E+03    -53.4942E-03     104.629E-03    -51.1352E-03     57.9056E-03    -53.5568E-03     104.163E-03    -50.9403E-03     57.5824E-03
            1938     5.98835E-03     29.0402E-03    -35.0055E+06    -131.213E+06    -10.5724E+06     586.113E+03    -52.7790E-03     103.705E-03    -50.9260E-03     51.0243E-03    -52.8103E-03     103.177E-03    -50.7378E-03     50.7700E-03
            1939     5.13382E-03     28.9904E-03    -38.7025E+06    -137.325E+06    -16.6709E+06     473.594E+03    -52.1045E-03     102.832E-03    -50.7276E-03     44.0650E-03    -52.1157E-03     102.267E-03    -50.5557E-03     43.8667E-03
            1940     4.27883E-03     28.9479E-03    -42.4913E+06    -146.056E+06    -23.2083E+06     494.816E+03    -51.5074E-03     102.063E-03    -50.5553E-03     36.9854E-03    -51.5004E-03     101.454E-03    -50.3980E-03     36.8354E-03
            1941     3.42353E-03     28.9128E-03    -46.3678E+06    -156.252E+06    -31.3870E+06     538.720E+03    -51.0184E-03     101.421E-03    -50.4022E-03     29.7935E-03    -50.9936E-03     100.768E-03    -50.2654E-03     29.6843E-03
            1942     2.56796E-03     28.8852E-03    -49.9879E+06    -162.555E+06    -40.4115E+06     440.754E+03    -50.6247E-03     100.888E-03    -50.2631E-03     22.5193E-03    -50.5885E-03     100.214E-03    -50.1570E-03     22.4429E-03
            1943     1.71214E-03     28.8653E-03    -52.7254E+06    -167.579E+06    -48.0924E+06     338.650E+03    -50.3189E-03     100.474E-03    -50.1553E-03     15.2268E-03    -50.2735E-03     99.7861E-03    -50.0763E-03     15.1784E-03
            1944     856.004E-06     28.8531E-03    -54.4296E+06    -170.736E+06    -53.1627E+06     132.227E+03    -50.1554E-03     100.221E-03    -50.0660E-03     8.23483E-03    -50.1038E-03     99.5251E-03    -50.0053E-03     8.20876E-03
            1945     16.2161E-03     29.2617E-03    -4.44988E+06     140.227E+06     95.1540E+06     370.413E+03    -58.0897E-03     111.658E-03    -53.5684E-03     107.860E-03    -61.0428E-03     114.817E-03    -53.2895E-03     107.511E-03
            1946     15.3624E-03     29.0912E-03    -10.1804E+06     136.230E+06     79.5061E+06     372.894E+03    -60.7040E-03     114.011E-03    -53.3072E-03     169.876E-03    -64.9668E-03     118.491E-03    -53.0924E-03     168.764E-03
            1947     14.5115E-03     28.9157E-03    -14.7720E+06     113.902E+06     36.5770E+06    -79.3541E+03    -60.6569E-03     113.571E-03    -52.9140E-03     161.056E-03    -63.8335E-03     116.993E-03    -52.8749E-03     159.375E-03
            1948     13.6616E-03     28.7637E-03    -16.1899E+06     72.5010E+06     4.17585E+06     367.917E+03    -59.5893E-03     112.179E-03    -52.5893E-03     138.433E-03    -61.6095E-03     114.387E-03    -52.6501E-03     136.833E-03
            1949     12.8107E-03     28.6358E-03    -17.2574E+06     16.6024E+06    -2.32907E+06     1.26837E+06    -58.6350E-03     111.036E-03    -52.4010E-03     115.254E-03    -59.8227E-03     112.228E-03    -52.4117E-03     113.949E-03
            1950     11.9595E-03     28.5289E-03    -18.5538E+06    -23.5291E+06    -355.505E+03     1.20499E+06    -57.8242E-03     110.040E-03    -52.2155E-03     99.8566E-03    -58.5711E-03     110.638E-03    -52.1562E-03     98.7947E-03
            1951     11.1085E-03     28.4316E-03    -19.9706E+06    -51.8684E+06    -2.10115E+06     812.979E+03    -57.1774E-03     109.163E-03    -51.9851E-03     91.7656E-03    -57.6851E-03     109.421E-03    -51.8915E-03     90.8791E-03
            1952     10.2566E-03     28.3400E-03    -21.7792E+06    -72.5134E+06    -2.09516E+06     661.806E+03    -56.5178E-03     108.266E-03    -51.7486E-03     85.1690E-03    -56.8691E-03     108.289E-03    -51.6224E-03     84.4348E-03
            1953     9.40447E-03     28.2557E-03    -23.6817E+06    -86.4779E+06    -1.82676E+06     566.422E+03    -55.7546E-03     107.256E-03    -51.5019E-03     77.5479E-03    -55.9950E-03     107.111E-03    -51.3513E-03     76.9449E-03
            1954     8.55182E-03     28.1792E-03    -25.8264E+06    -98.7227E+06    -3.53443E+06     540.522E+03    -54.9641E-03     106.209E-03    -51.2446E-03     70.3886E-03    -55.1230E-03     105.936E-03    -51.0817E-03     69.8971E-03
            1955     7.69869E-03     28.1092E-03    -28.4176E+06    -110.931E+06    -4.20848E+06     580.146E+03    -54.1324E-03     105.134E-03    -51.0012E-03     63.6287E-03    -54.2339E-03     104.753E-03    -50.8201E-03     63.2319E-03
            1956     6.84499E-03     28.0462E-03    -31.4832E+06    -122.181E+06    -5.78731E+06     626.661E+03    -53.3056E-03     104.073E-03    -50.7674E-03     56.8458E-03    -53.3658E-03     103.605E-03    -50.5735E-03     56.5291E-03
            1957     5.99070E-03     27.9901E-03    -34.8719E+06    -131.068E+06    -10.4813E+06     680.959E+03    -52.5201E-03     103.055E-03    -50.5347E-03     50.0240E-03    -52.5494E-03     102.525E-03    -50.3465E-03     49.7755E-03
            1958     5.13592E-03     27.9411E-03    -38.5165E+06    -137.099E+06    -16.7141E+06     674.051E+03    -51.7979E-03     102.111E-03    -50.3135E-03     43.1557E-03    -51.8072E-03     101.546E-03    -50.1425E-03     42.9639E-03
            1959     4.28073E-03     27.8992E-03    -42.4601E+06    -145.985E+06    -23.4101E+06     636.082E+03    -51.1649E-03     101.284E-03    -50.1195E-03     36.1970E-03    -51.1568E-03     100.675E-03    -49.9633E-03     36.0520E-03
            1960     3.42511E-03     27.8648E-03    -46.3249E+06    -155.955E+06    -31.3278E+06     616.832E+03    -50.6208E-03     100.569E-03    -49.9483E-03     29.1531E-03    -50.5958E-03     99.9169E-03    -49.8117E-03     29.0474E-03
            1961     2.56911E-03     27.8376E-03    -49.7952E+06    -162.150E+06     -40.299E+06     484.765E+03    -50.1788E-03     99.9751E-03    -49.7963E-03     22.0281E-03    -50.1422E-03     99.3030E-03    -49.6905E-03     21.9542E-03
            1962     1.71288E-03     27.8182E-03    -52.5761E+06    -167.155E+06    -47.9179E+06     313.817E+03    -49.8651E-03     99.5427E-03    -49.6777E-03     14.8801E-03    -49.8196E-03     98.8562E-03    -49.5987E-03     14.8327E-03
            1963     856.603E-06     27.8062E-03    -54.4591E+06    -170.423E+06    -53.1104E+06     176.738E+03    -49.6855E-03     99.2509E-03    -49.5653E-03     8.05178E-03    -49.6346E-03     98.5561E-03    -49.5048E-03     8.02697E-03
            1964     16.2092E-03     28.2030E-03    -4.78209E+06     139.763E+06     94.7707E+06     288.945E+03    -58.9328E-03     112.459E-03    -53.5262E-03     107.276E-03    -61.8678E-03     115.598E-03    -53.2480E-03     106.879E-03
            1965     15.3632E-03     28.0293E-03    -9.26283E+06     136.774E+06     80.5523E+06     455.126E+03    -61.0429E-03     114.275E-03    -53.2320E-03     168.790E-03    -65.2661E-03     118.717E-03    -53.0141E-03     167.652E-03
            1966     14.5145E-03     27.8597E-03    -13.2532E+06     114.090E+06     36.4393E+06     548.857E+03    -60.7507E-03     113.563E-03    -52.8124E-03     160.319E-03    -63.8993E-03     116.964E-03    -52.7764E-03     158.642E-03
            1967     13.6626E-03     27.7054E-03    -16.5434E+06     71.2362E+06     2.08783E+06     828.627E+03    -59.9998E-03     112.459E-03    -52.4587E-03     138.019E-03    -62.0130E-03     114.660E-03    -52.5276E-03     136.412E-03
            1968     12.8126E-03     27.5793E-03    -18.1753E+06     16.7641E+06    -2.98178E+06     999.884E+03    -59.0276E-03     111.266E-03    -52.2385E-03     114.034E-03    -60.2098E-03     112.452E-03    -52.2514E-03     112.719E-03
            1969     11.9622E-03     27.4725E-03    -18.9526E+06    -22.9983E+06    -662.971E+03     969.934E+03    -58.0174E-03     110.034E-03    -52.0168E-03     98.7228E-03    -58.7584E-03     110.628E-03    -51.9592E-03     97.6597E-03
            1970     11.1109E-03     27.3765E-03    -20.1107E+06    -51.7196E+06    -2.41168E+06     948.412E+03    -57.3457E-03     109.099E-03    -51.7537E-03     90.7557E-03    -57.8481E-03     109.354E-03    -51.6616E-03     89.8733E-03
            1971     10.2594E-03     27.2857E-03    -21.5617E+06    -72.0599E+06    -2.11726E+06     877.567E+03    -56.6440E-03     108.126E-03    -51.4825E-03     84.0794E-03    -56.9895E-03     108.146E-03    -51.3573E-03     83.3520E-03
            1972     9.40725E-03     27.2024E-03    -23.5232E+06    -86.2300E+06    -2.03154E+06      728.22E+03    -55.7932E-03     106.993E-03    -51.1996E-03     76.3402E-03    -56.0282E-03     106.844E-03    -51.0506E-03     75.7445E-03
            1973     8.55471E-03     27.1267E-03    -25.8047E+06    -98.7322E+06    -3.89653E+06     722.378E+03    -54.9027E-03     105.812E-03    -50.9088E-03     69.1518E-03    -55.0572E-03     105.535E-03    -50.7477E-03     68.6683E-03
            1974     7.70149E-03     27.0579E-03    -28.3826E+06    -110.829E+06    -4.46228E+06     815.118E+03    -54.0037E-03     104.638E-03    -50.6347E-03     62.4330E-03    -54.1018E-03     104.255E-03    -50.4551E-03     62.0447E-03
            1975     6.84765E-03     26.9958E-03    -31.4459E+06    -121.942E+06    -6.01359E+06     770.274E+03    -53.1090E-03     103.480E-03    -50.3711E-03     55.6920E-03    -53.1668E-03     103.011E-03    -50.1788E-03     55.3824E-03
            1976     5.99326E-03     26.9407E-03    -34.9456E+06    -131.020E+06    -10.7721E+06     760.702E+03    -52.2520E-03     102.363E-03    -50.1110E-03     48.9515E-03    -52.2797E-03     101.833E-03    -49.9242E-03     48.7086E-03
            1977     5.13826E-03     26.8925E-03    -38.6223E+06    -136.925E+06    -16.8715E+06     865.775E+03    -51.4570E-03     101.324E-03    -49.8667E-03     42.1999E-03    -51.4657E-03     100.758E-03    -49.6965E-03     42.0147E-03
            1978     4.28271E-03     26.8515E-03    -42.3759E+06    -145.663E+06    -23.5383E+06     796.306E+03    -50.7747E-03     100.427E-03    -49.6526E-03     35.3834E-03    -50.7656E-03     99.8189E-03    -49.4976E-03     35.2440E-03
            1979     3.42677E-03     26.8176E-03    -46.1758E+06    -155.631E+06    -31.4059E+06     619.694E+03    -50.1964E-03     99.6601E-03    -49.4636E-03     28.4533E-03    -50.1706E-03     99.0089E-03    -49.3281E-03     28.3503E-03
            1980     2.57045E-03     26.7911E-03    -49.5997E+06    -161.742E+06    -40.1957E+06     525.445E+03    -49.7113E-03     99.0087E-03    -49.2974E-03     21.4821E-03    -49.6742E-03     98.3379E-03    -49.1919E-03     21.4107E-03
            1981     1.71381E-03     26.7720E-03    -52.3364E+06    -166.811E+06    -47.9877E+06     396.265E+03    -49.3606E-03     98.5313E-03    -49.1707E-03     14.5031E-03    -49.3142E-03     97.8461E-03    -49.0928E-03     14.4580E-03
            1982     856.887E-06     26.7603E-03    -53.9817E+06    -169.833E+06    -52.8798E+06     162.116E+03    -49.1663E-03     98.2371E-03    -49.0708E-03     7.85953E-03    -49.1141E-03     97.5442E-03    -49.0107E-03     7.83523E-03
            1983     16.2184E-03     27.1431E-03    -4.75497E+06     139.576E+06     94.6868E+06    -137.593E+03    -59.6725E-03     113.149E-03    -53.4764E-03     106.140E-03    -62.5702E-03     116.251E-03    -53.1984E-03     105.706E-03
            1984     15.3657E-03     26.9713E-03    -9.79594E+06     135.739E+06     79.5928E+06     389.886E+03    -60.8861E-03     114.047E-03    -53.1608E-03     168.468E-03    -65.0724E-03     118.449E-03    -52.9454E-03     167.331E-03
            1985     14.5134E-03     26.8013E-03    -14.2290E+06     113.124E+06     36.1190E+06     1.28710E+06    -61.3295E-03     114.057E-03    -52.7279E-03     160.213E-03    -64.4768E-03     117.451E-03    -52.6907E-03     158.516E-03
            1986     13.6652E-03     26.6474E-03    -16.6635E+06     72.3676E+06     2.94016E+06     1.49605E+06    -60.7217E-03     113.049E-03    -52.3276E-03     136.971E-03    -62.7297E-03     115.247E-03    -52.3936E-03     135.347E-03
            1987     12.8153E-03     26.5219E-03    -17.6680E+06     17.6252E+06    -3.04826E+06     942.104E+03    -59.2307E-03     111.290E-03    -52.0591E-03     112.919E-03    -60.3963E-03     112.464E-03    -52.0742E-03     111.606E-03
            1988     11.9645E-03     26.4167E-03    -18.8973E+06    -23.2748E+06    -1.22850E+06     779.539E+03    -58.2385E-03     110.045E-03    -51.8060E-03     97.8115E-03    -58.9700E-03     110.630E-03    -51.7510E-03     96.7475E-03
            1989     11.1136E-03     26.3212E-03    -20.1642E+06    -51.3722E+06    -2.61971E+06     934.448E+03    -57.5831E-03     109.090E-03    -51.5068E-03     89.5907E-03    -58.0794E-03     109.340E-03    -51.4161E-03     88.7103E-03
            1990     10.2623E-03     26.2314E-03    -21.6516E+06    -71.7234E+06    -2.39324E+06     938.235E+03    -56.8076E-03     108.001E-03    -51.1937E-03     82.6980E-03    -57.1479E-03     108.017E-03    -51.0702E-03     81.9748E-03
            1991     9.41046E-03     26.1492E-03    -23.4990E+06    -86.0112E+06    -2.26561E+06     908.908E+03    -55.8059E-03     106.678E-03    -50.8721E-03     74.9755E-03    -56.0357E-03     106.526E-03    -50.7246E-03     74.3880E-03
            1992     8.55776E-03     26.0748E-03    -25.6436E+06    -98.7288E+06    -4.15836E+06     983.514E+03    -54.8161E-03     105.364E-03    -50.5477E-03     67.8208E-03    -54.9654E-03     105.084E-03    -50.3881E-03     67.3469E-03
            1993     7.70451E-03     26.0069E-03    -28.2187E+06    -110.661E+06    -4.77652E+06     1.03062E+06    -53.8430E-03     104.085E-03    -50.2421E-03     61.1180E-03    -53.9370E-03     103.700E-03    -50.0646E-03     60.7384E-03
            1994     6.85060E-03     25.9461E-03    -31.3158E+06    -121.712E+06    -6.13530E+06     1.02007E+06    -52.8786E-03     102.829E-03    -49.9504E-03     54.4692E-03    -52.9334E-03     102.358E-03    -49.7592E-03     54.1683E-03
            1995     5.99595E-03     25.8920E-03    -34.8260E+06    -130.904E+06    -10.9044E+06     1.06404E+06    -51.9581E-03     101.622E-03    -49.6635E-03     47.8310E-03    -51.9835E-03     101.090E-03    -49.4777E-03     47.5970E-03
            1996     5.14069E-03     25.8449E-03    -38.5274E+06    -136.619E+06    -16.9900E+06     990.667E+03    -51.0985E-03     100.493E-03    -49.3950E-03     41.2129E-03    -51.1057E-03     99.9282E-03    -49.2259E-03     41.0336E-03
            1997     4.28485E-03     25.8046E-03    -42.2893E+06    -145.253E+06    -23.6608E+06     849.961E+03    -50.3562E-03     99.5169E-03    -49.1608E-03     34.5316E-03    -50.3462E-03     98.9098E-03    -49.0071E-03     34.3965E-03
            1998     3.42851E-03     25.7715E-03    -45.9917E+06    -155.254E+06    -31.6468E+06     721.495E+03    -49.7385E-03     98.6935E-03    -48.9550E-03     27.7348E-03    -49.7114E-03     98.0438E-03    -48.8214E-03     27.6359E-03
            1999     2.57178E-03     25.7456E-03    -49.4044E+06    -161.401E+06    -40.3620E+06     604.688E+03    -49.2268E-03     98.0015E-03    -48.7747E-03     20.9331E-03    -49.1887E-03     97.3320E-03    -48.6708E-03     20.8647E-03
            2000     1.71469E-03     25.7269E-03    -52.0516E+06    -166.288E+06    -47.8314E+06     467.849E+03    -48.8396E-03     97.4785E-03    -48.6389E-03     14.1174E-03    -48.7927E-03     96.7952E-03    -48.5615E-03     14.0745E-03
            2001     857.439E-06     25.7155E-03    -53.6992E+06    -169.289E+06    -52.6462E+06     297.128E+03    -48.6252E-03     97.1669E-03    -48.5418E-03     7.63580E-03    -48.5727E-03     96.4760E-03    -48.4817E-03     7.61409E-03
            2002     16.2117E-03     26.0800E-03    -5.10431E+06     139.226E+06     94.1707E+06    -138.469E+03    -59.7405E-03     113.239E-03    -53.4981E-03     107.303E-03    -62.6523E-03     116.353E-03    -53.2217E-03     106.846E-03
            2003     15.3641E-03     25.9146E-03    -10.9374E+06     134.640E+06     78.9146E+06     700.643E+03    -62.2135E-03     115.362E-03    -53.1480E-03     168.920E-03    -66.4158E-03     119.774E-03    -52.9328E-03     167.706E-03
            2004     14.5163E-03     25.7405E-03    -14.8618E+06     112.769E+06     36.9756E+06     1.30435E+06    -62.4639E-03     115.112E-03    -52.6483E-03     159.625E-03    -65.6052E-03     118.494E-03    -52.6054E-03     157.872E-03
            2005     13.6672E-03     25.5891E-03    -16.3617E+06     73.0206E+06     3.74432E+06     1.10304E+06    -61.1853E-03     113.372E-03    -52.1869E-03     135.635E-03    -63.1713E-03     115.549E-03    -52.2503E-03     133.995E-03
            2006     12.8170E-03     25.4652E-03    -17.3089E+06     18.1887E+06    -3.16337E+06     1.14459E+06    -59.6071E-03     111.479E-03    -51.8717E-03     111.577E-03    -60.7589E-03     112.643E-03    -51.8888E-03     110.264E-03
            2007     11.9670E-03     25.3603E-03    -18.6329E+06    -23.0648E+06    -1.39323E+06     1.08225E+06    -58.5622E-03     110.138E-03    -51.5762E-03     96.3838E-03    -59.2826E-03     110.715E-03    -51.5227E-03     95.3236E-03
            2008     11.1166E-03     25.2660E-03    -20.1340E+06    -51.2879E+06    -2.95441E+06     966.026E+03    -57.8234E-03     109.056E-03    -51.2324E-03     88.1042E-03    -58.3126E-03     109.300E-03    -51.1437E-03     87.2253E-03
            2009     10.2656E-03     25.1772E-03    -21.6879E+06    -71.5216E+06    -2.64922E+06     988.401E+03    -56.8666E-03     107.746E-03    -50.8794E-03     81.1753E-03    -57.2004E-03     107.757E-03    -50.7575E-03     80.4583E-03
            2010     9.41363E-03     25.0966E-03    -23.4287E+06    -85.9497E+06    -2.55472E+06     1.04995E+06    -55.7771E-03     106.300E-03    -50.5228E-03     73.5412E-03    -56.0009E-03     106.143E-03    -50.3770E-03     72.9620E-03
            2011     8.56111E-03     25.0231E-03    -25.6103E+06    -98.6835E+06    -4.46742E+06     1.20838E+06    -54.7048E-03     104.871E-03    -50.1658E-03     66.4410E-03    -54.8493E-03     104.587E-03    -50.0079E-03     65.9768E-03
            2012     7.70775E-03     24.9568E-03    -28.1164E+06    -110.404E+06    -5.15724E+06     1.28584E+06    -53.6398E-03     103.470E-03    -49.8300E-03     59.8192E-03    -53.7297E-03     103.083E-03    -49.6549E-03     59.4497E-03
            2013     6.85356E-03     24.8970E-03    -31.1097E+06    -121.590E+06    -6.39637E+06     1.31652E+06    -52.6169E-03     102.129E-03    -49.5123E-03     53.2454E-03    -52.6680E-03     101.657E-03    -49.3229E-03     52.9543E-03
            2014     5.99876E-03     24.8441E-03    -34.5262E+06    -130.687E+06    -10.9232E+06     1.36367E+06    -51.6408E-03     100.842E-03    -49.2012E-03     46.6774E-03    -51.6631E-03     100.310E-03    -49.0162E-03     46.4525E-03
            2015     5.14320E-03     24.7980E-03    -38.2571E+06    -136.091E+06    -17.0279E+06     1.27665E+06    -50.7343E-03     99.6422E-03    -48.9080E-03     40.1849E-03    -50.7396E-03     99.0780E-03    -48.7403E-03     40.0137E-03
            2016     4.28704E-03     24.7587E-03    -42.1642E+06    -144.745E+06    -23.8530E+06     1.02287E+06    -49.9289E-03     98.5806E-03    -48.6517E-03     33.6251E-03    -49.9179E-03     97.9753E-03    -48.5000E-03     33.4959E-03
            2017     3.43032E-03     24.7264E-03    -45.8990E+06    -154.888E+06    -31.9688E+06     854.317E+03    -49.2499E-03     97.6802E-03    -48.4304E-03     26.9919E-03    -49.2218E-03     97.0321E-03    -48.2991E-03     26.8977E-03
            2018     2.57316E-03     24.7011E-03    -49.1839E+06    -160.979E+06    -40.5498E+06     769.783E+03    -48.7106E-03     96.9521E-03    -48.2414E-03     20.3463E-03    -48.6715E-03     96.2844E-03    -48.1394E-03     20.2820E-03
            2019     1.71567E-03     24.6830E-03    -51.8115E+06    -165.656E+06    -47.6243E+06     581.095E+03    -48.3131E-03     96.4130E-03    -48.1000E-03     13.7438E-03    -48.2660E-03     95.7321E-03    -48.0228E-03     13.7036E-03
            2020     857.880E-06     24.6718E-03    -53.6447E+06    -168.672E+06    -52.3286E+06     445.122E+03    -48.0845E-03     96.0807E-03    -47.9963E-03     7.47445E-03    -48.0330E-03     95.3923E-03    -47.9356E-03     7.45558E-03
            2021     16.2130E-03     25.0215E-03    -4.68253E+06     138.677E+06     94.0633E+06     604.344E+03    -60.3004E-03     113.808E-03    -53.5080E-03     104.592E-03    -63.1585E-03     116.869E-03    -53.2320E-03     104.084E-03
            2022     15.3646E-03     24.8496E-03    -10.3563E+06     134.241E+06     78.9353E+06     795.003E+03    -63.2980E-03     116.401E-03    -53.1032E-03     165.865E-03    -67.4337E-03     120.748E-03    -52.8881E-03     164.572E-03
            2023     14.5176E-03     24.6818E-03    -14.0374E+06     113.055E+06     37.4349E+06     790.188E+03    -63.1717E-03     115.711E-03    -52.5394E-03     157.720E-03    -66.2752E-03     119.058E-03    -52.4958E-03     155.925E-03
            2024     13.6684E-03     24.5296E-03    -16.3836E+06     72.5031E+06     3.23668E+06     1.02622E+06    -61.6976E-03     113.721E-03    -52.0234E-03     133.804E-03    -63.6626E-03     115.876E-03    -52.0886E-03     132.148E-03
            2025     12.8204E-03     24.4076E-03    -17.5846E+06     18.2281E+06    -3.71634E+06     1.21618E+06    -60.0977E-03     111.754E-03    -51.6561E-03     109.493E-03    -61.2341E-03     112.903E-03    -51.6756E-03     108.173E-03
            2026     11.9705E-03     24.3042E-03    -18.5639E+06    -22.4602E+06    -1.53336E+06     1.29246E+06    -58.8193E-03     110.133E-03    -51.3133E-03     94.9007E-03    -59.5302E-03     110.702E-03    -51.2614E-03     93.8445E-03
            2027     11.1201E-03     24.2105E-03    -19.9283E+06    -51.1187E+06    -3.35993E+06     1.13094E+06    -57.8700E-03     108.802E-03    -50.9323E-03     86.6869E-03    -58.3490E-03     109.039E-03    -50.8461E-03     85.8169E-03
            2028     10.2689E-03     24.1237E-03    -21.4060E+06    -71.4631E+06    -2.88184E+06     1.11060E+06    -56.8649E-03     107.414E-03    -50.5489E-03     79.7062E-03    -57.1901E-03     107.418E-03    -50.4286E-03     78.9978E-03
            2029     9.41718E-03     24.0440E-03    -23.3034E+06    -85.8836E+06    -2.87994E+06     1.33056E+06    -55.6963E-03     105.857E-03    -50.1611E-03     72.1238E-03    -55.9134E-03     105.695E-03    -50.0172E-03     71.5561E-03
            2030     8.56448E-03     23.9723E-03    -25.4473E+06    -98.6930E+06    -4.93086E+06     1.44543E+06    -54.5481E-03     104.323E-03    -49.7748E-03     65.1050E-03    -54.6866E-03     104.035E-03    -49.6195E-03     64.6517E-03
            2031     7.71091E-03     23.9071E-03    -27.9684E+06    -110.155E+06    -5.58745E+06     1.57916E+06    -53.4458E-03     102.857E-03    -49.4107E-03     58.5189E-03    -53.5314E-03     102.468E-03    -49.2384E-03     58.1601E-03
            2032     6.85669E-03     23.8487E-03    -30.9408E+06    -121.333E+06    -6.78798E+06     1.59990E+06    -52.3538E-03     101.419E-03    -49.0654E-03     51.9512E-03    -52.4012E-03     100.946E-03    -48.8785E-03     51.6701E-03
            2033     6.00155E-03     23.7970E-03    -34.3469E+06    -130.512E+06    -11.1684E+06     1.67356E+06    -51.3130E-03     100.043E-03    -48.7295E-03     45.4711E-03    -51.3325E-03     99.5091E-03    -48.5463E-03     45.2556E-03
            2034     5.14577E-03     23.7520E-03    -38.0695E+06    -135.475E+06    -17.2075E+06     1.67523E+06    -50.3453E-03     98.7586E-03    -48.4133E-03     39.1075E-03    -50.3490E-03     98.1962E-03    -48.2477E-03     38.9461E-03
            2035     4.28926E-03     23.7137E-03    -41.9387E+06    -144.042E+06    -24.0346E+06     1.39892E+06    -49.4872E-03     97.6250E-03    -48.1378E-03     32.6986E-03    -49.4750E-03     97.0223E-03    -47.9883E-03     32.5780E-03
            2036     3.43217E-03     23.6824E-03    -45.7155E+06    -154.416E+06    -32.2516E+06     1.13172E+06    -48.7603E-03     96.6622E-03    -47.9020E-03     26.2396E-03    -48.7311E-03     96.0161E-03    -47.7730E-03     26.1520E-03
            2037     2.57454E-03     23.6577E-03    -49.0412E+06    -160.460E+06    -40.7574E+06     960.528E+03    -48.1795E-03     95.8858E-03    -47.7063E-03     19.7845E-03    -48.1399E-03     95.2206E-03    -47.6063E-03     19.7250E-03
            2038     1.71654E-03     23.6402E-03    -51.5301E+06    -164.929E+06    -47.5451E+06     709.991E+03    -47.7759E-03     95.3403E-03    -47.5644E-03     13.3564E-03    -47.7285E-03     94.6624E-03    -47.4883E-03     13.3193E-03
            2039     858.329E-06     23.6293E-03    -53.1524E+06    -167.780E+06    -52.0701E+06     482.504E+03    -47.5623E-03     95.0108E-03    -47.4485E-03     7.25133E-03    -47.5100E-03     94.3257E-03    -47.3885E-03     7.23352E-03
            2040     16.2151E-03     23.9577E-03    -4.76901E+06     138.028E+06     93.8274E+06     515.424E+03    -61.9182E-03     115.352E-03    -53.4339E-03     104.290E-03    -64.7456E-03     118.381E-03    -53.1580E-03     103.702E-03
            2041     15.3682E-03     23.7901E-03    -9.45244E+06     134.257E+06     79.2827E+06     1.02573E+06    -63.5984E-03     116.569E-03    -52.9702E-03     164.254E-03    -67.6635E-03     120.847E-03    -52.7547E-03     162.926E-03
            2042     14.5190E-03     23.6201E-03    -13.7529E+06     112.787E+06     36.6702E+06     1.04892E+06    -63.3780E-03     115.751E-03    -52.3732E-03     155.574E-03    -66.4308E-03     119.049E-03    -52.3335E-03     153.769E-03
            2043     13.6727E-03     23.4706E-03    -16.1653E+06     72.6903E+06     2.53681E+06     1.26751E+06    -62.0108E-03     113.833E-03    -51.8225E-03     131.731E-03    -63.9431E-03     115.959E-03    -51.8918E-03     130.073E-03
            2044     12.8229E-03     23.3498E-03    -17.4129E+06     18.7338E+06    -4.28383E+06     1.57808E+06    -60.2955E-03     111.715E-03    -51.4194E-03     108.167E-03    -61.4127E-03     112.849E-03    -51.4427E-03     106.856E-03
            2045     11.9738E-03     23.2479E-03    -18.6015E+06    -22.3749E+06    -2.26268E+06     1.27033E+06    -59.0004E-03     110.043E-03    -51.0426E-03     93.6341E-03    -59.7006E-03     110.604E-03    -50.9945E-03     92.5813E-03
            2046     11.1234E-03     23.1560E-03    -19.6793E+06    -50.6800E+06    -3.65257E+06     1.25601E+06    -57.8999E-03     108.531E-03    -50.6309E-03     85.5562E-03    -58.3689E-03     108.761E-03    -50.5471E-03     84.6966E-03
            2047     10.2724E-03     23.0699E-03    -21.2271E+06    -71.5435E+06    -3.35694E+06     1.39859E+06    -56.8452E-03     107.064E-03    -50.2183E-03     78.3805E-03    -57.1617E-03     107.060E-03    -50.1006E-03     77.6839E-03
            2048     9.42055E-03     22.9923E-03    -23.0885E+06    -85.8555E+06    -3.18027E+06     1.60156E+06    -55.6132E-03     105.415E-03    -49.8019E-03     70.7254E-03    -55.8229E-03     105.247E-03    -49.6599E-03     70.1695E-03
            2049     8.56769E-03     22.9217E-03    -25.2192E+06    -98.6397E+06    -5.41054E+06     1.82163E+06    -54.4190E-03     103.804E-03    -49.3852E-03     63.7409E-03    -54.5512E-03     103.512E-03    -49.2326E-03     63.3001E-03
            2050     7.71423E-03     22.8580E-03    -27.7247E+06    -109.908E+06    -6.11735E+06     1.91184E+06    -53.2604E-03     102.251E-03    -48.9906E-03     57.1245E-03    -53.3408E-03     101.861E-03    -48.8216E-03     56.7769E-03
            2051     6.85971E-03     22.8010E-03    -30.7279E+06    -121.002E+06    -7.11538E+06     1.98324E+06    -52.0913E-03     100.709E-03    -48.6176E-03     50.6112E-03    -52.1350E-03     100.235E-03    -48.4332E-03     50.3414E-03
            2052     6.00446E-03     22.7507E-03    -34.1800E+06    -130.354E+06    -11.5094E+06     2.08096E+06    -50.9768E-03     99.2338E-03    -48.2570E-03     44.2409E-03    -50.9932E-03     98.6994E-03    -48.0759E-03     44.0363E-03
            2053     5.14831E-03     22.7070E-03    -37.8368E+06    -134.825E+06    -17.4978E+06     2.09577E+06    -49.9355E-03     97.8557E-03    -47.9202E-03     37.9933E-03    -49.9373E-03     97.2953E-03    -47.7573E-03     37.8421E-03
            2054     4.29142E-03     22.6698E-03    -41.6079E+06    -143.211E+06    -24.2628E+06     1.87462E+06    -49.0279E-03     96.6579E-03    -47.6300E-03     31.7482E-03    -49.0140E-03     96.0583E-03    -47.4833E-03     31.6376E-03
            2055     3.43393E-03     22.6393E-03    -45.4021E+06    -153.721E+06    -32.4346E+06     1.59902E+06    -48.2783E-03     95.6612E-03    -47.3830E-03     25.4554E-03    -48.2477E-03     95.0178E-03    -47.2564E-03     25.3767E-03
            2056     2.57590E-03     22.6156E-03     -48.682E+06    -159.590E+06    -40.7382E+06     1.22489E+06    -47.6784E-03     94.8555E-03    -47.1770E-03     19.1907E-03    -47.6379E-03     94.1937E-03    -47.0787E-03     19.1368E-03
            2057     1.71748E-03     22.5983E-03    -51.1675E+06    -164.052E+06    -47.4503E+06     821.139E+03    -47.2560E-03     94.2809E-03    -47.0249E-03     12.9386E-03    -47.2081E-03     93.6066E-03    -46.9501E-03     12.9045E-03
            2058     858.829E-06     22.5879E-03    -52.7662E+06    -166.761E+06    -51.7000E+06     577.548E+03    -47.0306E-03     93.9227E-03    -46.8921E-03     7.03156E-03    -46.9784E-03     93.2416E-03    -46.8323E-03     7.01555E-03
            2059     16.2158E-03     22.8919E-03    -5.32084E+06     137.303E+06     93.2336E+06     109.898E+03    -62.9981E-03     116.359E-03    -53.3613E-03     102.834E-03    -65.7779E-03     119.337E-03    -53.0865E-03     102.184E-03
            2060     15.3695E-03     22.7296E-03     -9.9925E+06     133.660E+06     79.5784E+06     824.459E+03    -64.2947E-03     117.143E-03    -52.8478E-03     163.637E-03    -68.3129E-03     121.369E-03    -52.6293E-03     162.260E-03
            2061     14.5236E-03     22.5586E-03    -13.5014E+06     112.852E+06     37.1379E+06     1.70158E+06    -63.7882E-03     115.999E-03    -52.2108E-03     155.453E-03    -66.8125E-03     119.268E-03    -52.1692E-03     153.644E-03
            2062     13.6742E-03     22.4121E-03    -15.9066E+06     72.9223E+06     1.81798E+06     1.90908E+06    -62.2061E-03     113.831E-03    -51.6249E-03     130.814E-03    -64.1070E-03     115.929E-03    -51.6985E-03     129.169E-03
            2063     12.8262E-03     22.2915E-03    -17.1377E+06     19.3232E+06    -4.71385E+06     1.64464E+06    -60.4781E-03     111.673E-03    -51.1944E-03     106.867E-03    -61.5773E-03     112.793E-03    -51.2212E-03     105.561E-03
            2064     11.9767E-03     22.1919E-03    -18.1318E+06    -21.9731E+06    -2.55382E+06     1.45417E+06    -59.0919E-03     109.881E-03    -50.7891E-03     92.3490E-03    -59.7780E-03     110.432E-03    -50.7437E-03     91.3057E-03
            2065     11.1266E-03     22.1011E-03    -19.6106E+06    -50.6168E+06    -4.17185E+06     1.47139E+06    -58.0550E-03     108.400E-03    -50.3447E-03     84.3100E-03    -58.5154E-03     108.623E-03    -50.2637E-03     83.4577E-03
            2066     10.2756E-03     22.0168E-03    -21.0679E+06    -71.4386E+06    -3.72522E+06     1.58554E+06    -56.8649E-03     106.763E-03    -49.8979E-03     76.9308E-03    -57.1724E-03     106.753E-03    -49.7824E-03     76.2449E-03
            2067     9.42376E-03     21.9406E-03    -22.8324E+06    -85.9951E+06    -3.46739E+06     1.85807E+06    -55.5782E-03     105.027E-03    -49.4493E-03     69.1513E-03    -55.7801E-03     104.853E-03    -49.3088E-03     68.6060E-03
            2068     8.57114E-03     21.8717E-03    -24.9632E+06    -98.5743E+06    -5.83809E+06     2.17911E+06    -54.3008E-03     103.300E-03    -48.9994E-03     62.2466E-03    -54.4266E-03     103.004E-03    -48.8494E-03     61.8180E-03
            2069     7.71734E-03     21.8095E-03    -27.3603E+06    -109.676E+06    -6.79777E+06     2.39663E+06    -53.0415E-03     101.616E-03    -48.5749E-03     55.6974E-03    -53.1158E-03     101.224E-03    -48.4102E-03     55.3636E-03
            2070     6.86280E-03     21.7541E-03    -30.3838E+06    -120.721E+06    -7.57014E+06     2.52880E+06    -51.8163E-03     99.9945E-03    -48.1782E-03     49.2474E-03    -51.8554E-03     99.5191E-03    -47.9969E-03     48.9912E-03
            2071     6.00719E-03     21.7052E-03    -33.9107E+06    -130.022E+06    -11.7524E+06     2.62597E+06    -50.6432E-03     98.4388E-03    -47.7956E-03     42.9756E-03    -50.6564E-03     97.9041E-03    -47.6167E-03     42.7838E-03
            2072     5.15080E-03     21.6628E-03    -37.5664E+06    -134.152E+06    -17.7872E+06     2.58097E+06    -49.5476E-03     96.9855E-03    -47.4378E-03     36.8329E-03    -49.5471E-03     96.4270E-03    -47.2778E-03     36.6928E-03
            2073     4.29357E-03     21.6269E-03    -41.3343E+06    -142.319E+06    -24.5371E+06     2.44823E+06    -48.5867E-03     95.7175E-03    -47.1309E-03     30.7123E-03    -48.5713E-03     95.1214E-03    -46.9872E-03     30.6132E-03
            2074     3.43565E-03     21.5974E-03    -45.0535E+06    -152.595E+06    -32.2352E+06     2.09603E+06    -47.8081E-03     94.6804E-03    -46.8722E-03     24.6020E-03    -47.7771E-03     94.0412E-03    -46.7468E-03     24.5330E-03
            2075     2.57725E-03     21.5743E-03    -48.3357E+06    -158.413E+06    -40.3150E+06     1.54913E+06    -47.1937E-03     93.8470E-03    -46.6533E-03     18.5256E-03    -47.1535E-03     93.1897E-03    -46.5551E-03     18.4781E-03
            2076     1.71842E-03     21.5577E-03    -50.8545E+06    -163.002E+06    -47.2440E+06     1.07404E+06    -46.7273E-03     93.2180E-03    -46.4907E-03     12.5154E-03    -46.6795E-03     92.5480E-03    -46.4168E-03     12.4861E-03
            2077     859.280E-06     21.5476E-03    -52.3744E+06    -165.541E+06    -51.4041E+06     493.223E+03    -46.4960E-03     92.8503E-03    -46.3543E-03     6.83576E-03    -46.4440E-03     92.1742E-03    -46.2953E-03     6.81935E-03
            2078     16.2178E-03     21.8318E-03    -4.72318E+06     137.074E+06     93.2288E+06     370.940E+03    -63.6803E-03     117.020E-03    -53.3393E-03     102.446E-03    -66.4322E-03     119.971E-03    -53.0651E-03     101.741E-03
            2079     15.3708E-03     21.6638E-03    -10.2747E+06     132.686E+06     78.9130E+06     543.743E+03    -65.0574E-03     117.844E-03    -52.7861E-03     163.612E-03    -69.0533E-03     122.045E-03    -52.5690E-03     162.172E-03
            2080     14.5232E-03     21.4997E-03    -14.1353E+06     111.920E+06     37.7676E+06     1.40034E+06    -64.5971E-03     116.702E-03    -52.1053E-03     154.420E-03    -67.5995E-03     119.942E-03    -52.0582E-03     152.574E-03
            2081     13.6770E-03     21.3506E-03    -15.8386E+06     73.5738E+06     2.81105E+06     2.08511E+06    -62.6933E-03     114.160E-03    -51.4668E-03     129.346E-03    -64.5713E-03     116.235E-03    -51.5364E-03     127.696E-03
            2082     12.8289E-03     21.2349E-03    -16.8709E+06     19.7374E+06    -5.43024E+06     1.92412E+06    -60.6722E-03     111.662E-03    -50.9902E-03     105.419E-03    -61.7499E-03     112.766E-03    -51.0215E-03     104.122E-03
            2083     11.9793E-03     21.1353E-03    -18.1911E+06    -21.6417E+06    -3.19245E+06     1.80197E+06    -59.3436E-03     109.895E-03    -50.5518E-03     91.1954E-03    -60.0189E-03     110.439E-03    -50.5101E-03     90.1602E-03
            2084     11.1296E-03     21.0465E-03    -19.4504E+06    -50.2474E+06    -4.63415E+06     1.72943E+06    -58.2351E-03     108.304E-03    -50.0694E-03     82.6889E-03    -58.6851E-03     108.521E-03    -49.9915E-03     81.8450E-03
            2085     10.2789E-03     20.9638E-03    -20.9419E+06    -71.4892E+06    -4.31327E+06     1.86024E+06    -56.9334E-03     106.518E-03    -49.5849E-03     75.3081E-03    -57.2314E-03     106.501E-03    -49.4724E-03     74.6331E-03
            2086     9.42720E-03     20.8894E-03    -22.8220E+06    -86.0527E+06    -3.99254E+06     2.14565E+06    -55.5377E-03     104.640E-03    -49.1025E-03     67.5573E-03    -55.7325E-03     104.460E-03    -48.9646E-03     67.0235E-03
            2087     8.57427E-03     20.8222E-03    -24.8145E+06    -98.7123E+06    -6.49552E+06     2.48969E+06    -54.1659E-03     102.787E-03    -48.6215E-03     60.6828E-03    -54.2848E-03     102.487E-03    -48.4749E-03     60.2662E-03
            2088     7.72052E-03     20.7617E-03    -27.1202E+06    -109.520E+06    -7.76444E+06     2.91048E+06    -52.8258E-03     100.994E-03    -48.1683E-03     54.1790E-03    -52.8937E-03     100.600E-03    -48.0090E-03     53.8597E-03
            2089     6.86561E-03     20.7078E-03    -29.9936E+06    -120.391E+06    -8.31293E+06     3.15882E+06    -51.5438E-03     99.2920E-03    -47.7481E-03     47.7528E-03    -51.5773E-03     98.8157E-03    -47.5717E-03     47.5119E-03
            2090     6.00989E-03     20.6605E-03    -33.4051E+06    -129.517E+06    -11.9761E+06     3.28683E+06    -50.3241E-03     97.6690E-03    -47.3449E-03     41.5427E-03    -50.3329E-03     97.1342E-03    -47.1685E-03     41.3654E-03
            2091     5.15318E-03     20.6195E-03    -37.1331E+06    -133.367E+06    -17.6905E+06     3.26162E+06    -49.1821E-03     96.1486E-03    -46.9665E-03     35.5375E-03    -49.1792E-03     95.5917E-03    -46.8077E-03     35.4114E-03
            2092     4.29567E-03     20.5848E-03    -40.9046E+06    -141.296E+06    -24.2513E+06     3.03123E+06    -48.1920E-03     94.8300E-03    -46.6380E-03     29.5716E-03    -48.1754E-03     94.2369E-03    -46.4950E-03     29.4841E-03
            2093     3.43744E-03     20.5564E-03    -44.5434E+06    -151.196E+06    -31.9883E+06     2.62207E+06    -47.3640E-03     93.7208E-03    -46.3568E-03     23.6463E-03    -47.3322E-03     93.0869E-03    -46.2329E-03     23.5873E-03
            2094     2.57860E-03     20.5341E-03    -47.8786E+06    -156.902E+06    -39.8095E+06     1.95567E+06    -46.6948E-03     92.8169E-03    -46.1221E-03     17.7546E-03    -46.6548E-03     92.1654E-03    -46.0242E-03     17.7148E-03
            2095     1.71932E-03     20.5183E-03    -50.5085E+06    -161.604E+06    -46.5606E+06     1.19809E+06    -46.2034E-03     92.1512E-03    -45.9478E-03     11.9502E-03    -46.1567E-03     91.4865E-03    -45.8730E-03     11.9241E-03
            2096     859.680E-06     20.5084E-03    -51.9451E+06    -164.241E+06    -51.0144E+06     501.454E+03    -45.9407E-03     91.7481E-03    -45.8074E-03     6.57290E-03    -45.8890E-03     91.0773E-03    -45.7489E-03     6.55746E-03
            2097     16.2144E-03     20.7632E-03    -4.68838E+06     136.758E+06     92.9973E+06     619.856E+03    -64.3171E-03     117.696E-03    -53.3789E-03     102.292E-03    -67.0635E-03     120.641E-03    -53.1054E-03     101.520E-03
            2098     15.3704E-03     20.6024E-03    -10.0768E+06     132.522E+06     79.0777E+06     746.805E+03    -66.3908E-03     119.160E-03    -52.7692E-03     161.792E-03    -70.3503E-03     123.325E-03    -52.5514E-03     160.258E-03
            2099     14.5258E-03     20.4349E-03    -14.1671E+06     110.952E+06     37.2153E+06     1.19531E+06    -65.3683E-03     117.386E-03    -52.0176E-03     152.581E-03    -68.3287E-03     120.582E-03    -51.9719E-03     150.698E-03
            2100     13.6793E-03     20.2921E-03    -16.3759E+06     73.2483E+06     1.65150E+06     1.97563E+06    -63.1670E-03     114.493E-03    -51.3256E-03     127.449E-03    -65.0137E-03     116.537E-03    -51.3998E-03     125.791E-03
            2101     12.8304E-03     20.1764E-03    -17.4028E+06     20.5522E+06    -6.20422E+06     2.16675E+06    -61.1179E-03     111.922E-03    -50.8039E-03     103.792E-03    -62.1797E-03     113.013E-03    -50.8394E-03     102.497E-03
            2102     11.9823E-03     20.0790E-03    -18.2022E+06    -21.2363E+06    -3.86535E+06     1.80835E+06    -59.6981E-03     110.017E-03    -50.3192E-03     89.4025E-03    -60.3601E-03     110.551E-03    -50.2814E-03     88.3688E-03
            2103     11.1326E-03     19.9917E-03    -19.2884E+06    -50.0853E+06    -5.13426E+06     1.90691E+06    -58.3376E-03     108.135E-03    -49.7976E-03     80.8992E-03    -58.7752E-03     108.342E-03    -49.7227E-03     80.0655E-03
            2104     10.2820E-03     19.9110E-03    -20.7716E+06    -71.7361E+06    -5.01432E+06     2.31892E+06    -56.9623E-03     106.242E-03    -49.2797E-03     73.5701E-03    -57.2494E-03     106.215E-03    -49.1706E-03     72.9095E-03
            2105     9.43015E-03     19.8384E-03    -22.6200E+06    -85.9793E+06    -4.39143E+06     2.61481E+06    -55.5109E-03     104.277E-03    -48.7657E-03     65.8128E-03    -55.6972E-03     104.090E-03    -48.6302E-03     65.2936E-03
            2106     8.57747E-03     19.7731E-03    -24.7535E+06    -98.6947E+06    -6.77394E+06     2.89610E+06    -54.0749E-03     102.328E-03    -48.2529E-03     58.8736E-03    -54.1875E-03     102.022E-03    -48.1078E-03     58.4706E-03
            2107     7.72348E-03     19.7144E-03    -27.0070E+06    -109.655E+06    -8.83377E+06     3.33189E+06    -52.6641E-03     100.428E-03    -47.7638E-03     52.3903E-03    -52.7251E-03     100.029E-03    -47.6098E-03     52.0849E-03
            2108     6.86859E-03     19.6622E-03    -29.6412E+06    -120.027E+06    -9.13159E+06     3.76612E+06    -51.3150E-03     98.6281E-03    -47.3132E-03     45.9834E-03    -51.3423E-03     98.1507E-03    -47.1418E-03     45.7582E-03
            2109     6.01256E-03     19.6166E-03    -32.8204E+06    -128.938E+06    -12.0140E+06     3.92883E+06    -50.0381E-03     96.9214E-03    -46.8833E-03     39.7913E-03    -50.0421E-03     96.3860E-03    -46.7088E-03     39.6292E-03
            2110     5.15563E-03     19.5771E-03    -36.2482E+06    -132.329E+06    -17.2470E+06     3.85776E+06    -48.8413E-03     95.3180E-03    -46.4767E-03     33.8919E-03    -48.8342E-03     94.7625E-03    -46.3185E-03     33.7792E-03
            2111     4.29778E-03     19.5437E-03    -39.9583E+06    -140.213E+06    -23.5956E+06     3.71788E+06    -47.8003E-03     93.9200E-03    -46.1197E-03     28.1009E-03    -47.7802E-03     93.3287E-03    -45.9764E-03     28.0271E-03
            2112     3.43927E-03     19.5163E-03    -43.8249E+06    -149.485E+06    -31.3996E+06     3.32397E+06    -46.9084E-03     92.7180E-03    -45.8096E-03     22.3951E-03    -46.8756E-03     92.0900E-03    -45.6863E-03     22.3489E-03
            2113     2.58004E-03     19.4951E-03    -47.1637E+06    -154.839E+06    -38.9977E+06     2.33044E+06    -46.1737E-03     91.7262E-03    -45.5526E-03     16.8003E-03    -46.1338E-03     91.0824E-03    -45.4547E-03     16.7683E-03
            2114     1.72034E-03     19.4797E-03    -49.6490E+06    -159.858E+06    -45.5153E+06     1.28315E+06    -45.6535E-03     91.0124E-03    -45.3588E-03     11.2920E-03    -45.6064E-03     90.3534E-03    -45.2826E-03     11.2689E-03
            2115     860.354E-06     19.4705E-03    -51.4701E+06    -162.968E+06    -50.3916E+06     751.461E+03    -45.3365E-03     90.5437E-03    -45.2072E-03     6.22804E-03    -45.2850E-03     89.8776E-03    -45.1482E-03     6.21688E-03
            2116     16.2145E-03     19.6950E-03    -4.61892E+06     136.612E+06     93.2270E+06     773.111E+03    -65.0120E-03     118.385E-03    -53.3735E-03     100.331E-03    -67.6829E-03     121.255E-03    -53.0987E-03     99.5212E-03
            2117     15.3717E-03     19.5361E-03    -9.96563E+06     132.173E+06     78.9746E+06     1.38811E+06    -66.8020E-03     119.524E-03    -52.7216E-03     158.164E-03    -70.6464E-03     123.573E-03    -52.5039E-03     156.609E-03
            2118     14.5262E-03     19.3726E-03    -14.6352E+06     109.950E+06     35.8777E+06     1.74113E+06    -65.7714E-03     117.702E-03    -51.9302E-03     150.634E-03    -68.6744E-03     120.839E-03    -51.8890E-03     148.743E-03
            2119     13.6796E-03     19.2310E-03    -16.9634E+06     73.1018E+06     288.514E+03     1.97956E+06    -63.8340E-03     115.025E-03    -51.1908E-03     124.869E-03    -65.6446E-03     117.034E-03    -51.2708E-03     123.196E-03
            2120     12.8338E-03     19.1180E-03    -17.8249E+06     21.0738E+06    -7.08371E+06     1.68571E+06    -61.6845E-03     112.297E-03    -50.6125E-03     101.404E-03    -62.7285E-03     113.373E-03    -50.6526E-03     100.095E-03
            2121     11.9850E-03     19.0224E-03    -18.3437E+06    -20.9873E+06    -4.55165E+06     1.63045E+06    -59.8684E-03     109.951E-03    -50.0829E-03     87.4391E-03    -60.5138E-03     110.470E-03    -50.0486E-03     86.4115E-03
            2122     11.1356E-03     18.9372E-03    -19.2926E+06    -50.1980E+06    -5.50189E+06     2.06657E+06    -58.4657E-03     107.994E-03    -49.5283E-03     78.9997E-03    -58.8900E-03     108.188E-03    -49.4551E-03     78.1769E-03
            2123     10.2849E-03     18.8585E-03    -20.5370E+06    -72.1204E+06    -5.32922E+06     2.67023E+06    -57.0689E-03     106.042E-03    -48.9729E-03     71.4450E-03    -57.3431E-03     106.003E-03    -48.8652E-03     70.7980E-03
            2124     9.43344E-03     18.7877E-03    -22.2438E+06    -85.9225E+06    -4.58918E+06     3.18575E+06    -55.5640E-03     103.981E-03    -48.4174E-03     63.5183E-03    -55.7392E-03     103.786E-03    -48.2835E-03     63.0164E-03
            2125     8.58057E-03     18.7245E-03    -24.4092E+06    -98.4809E+06    -6.36588E+06     3.45292E+06    -54.0635E-03     101.927E-03    -47.8638E-03     56.4673E-03    -54.1678E-03     101.614E-03    -47.7174E-03     56.0814E-03
            2126     7.72676E-03     18.6676E-03    -26.5782E+06    -109.646E+06    -8.97556E+06     3.64722E+06    -52.5823E-03     99.9091E-03    -47.3268E-03     49.9578E-03    -52.6350E-03     99.5043E-03    -47.1742E-03     49.6662E-03
            2127     6.87165E-03     18.6173E-03    -28.8613E+06    -120.034E+06    -9.84460E+06     4.17774E+06    -51.1435E-03     97.9709E-03    -46.8273E-03     43.5641E-03    -51.1612E-03     97.4885E-03    -46.6606E-03     43.3537E-03
            2128     6.01560E-03     18.5733E-03    -31.7568E+06    -128.127E+06    -12.0564E+06     4.58161E+06    -49.7831E-03     96.1373E-03    -46.3542E-03     37.4324E-03    -49.7793E-03     95.6009E-03    -46.1826E-03     37.2871E-03
            2129     5.15847E-03     18.5355E-03    -35.2901E+06    -131.290E+06    -16.9454E+06     4.49453E+06    -48.5001E-03     94.4046E-03    -45.9045E-03     31.6730E-03    -48.4876E-03     93.8499E-03    -45.7477E-03     31.5758E-03
            2130     4.30040E-03     18.5035E-03    -39.0386E+06    -139.131E+06    -23.0040E+06     4.48785E+06    -47.3408E-03     92.8498E-03    -45.5090E-03     26.1324E-03    -47.3168E-03     92.2600E-03    -45.3656E-03     26.0747E-03
            2131     3.44139E-03     18.4775E-03    -42.5954E+06    -147.112E+06    -30.1014E+06     3.93589E+06    -46.3500E-03     91.5195E-03    -45.1695E-03     20.7461E-03    -46.3153E-03     90.8986E-03    -45.0449E-03     20.7129E-03
            2132     2.58173E-03     18.4571E-03    -45.8280E+06    -152.264E+06    -37.6983E+06     2.68995E+06    -45.5503E-03     90.4414E-03    -44.8911E-03     15.5676E-03    -45.5089E-03     89.8060E-03    -44.7923E-03     15.5440E-03
            2133     1.72146E-03     18.4426E-03    -48.5589E+06    -158.089E+06    -44.7008E+06     1.66744E+06    -44.9800E-03     89.6681E-03    -44.6881E-03     10.4974E-03    -44.9309E-03     89.0150E-03    -44.6119E-03     10.4817E-03
            2134     860.763E-06     18.4336E-03    -50.3750E+06    -161.204E+06    -49.3200E+06     907.921E+03    -44.6735E-03     89.2031E-03    -44.5295E-03     5.79388E-03    -44.6207E-03     88.5426E-03    -44.4693E-03     5.78601E-03
            2135     16.2182E-03     18.6275E-03    -4.60857E+06     135.537E+06     92.6922E+06     623.067E+03    -65.9100E-03     119.231E-03    -53.3211E-03     99.4911E-03    -68.5244E-03     122.042E-03    -53.0475E-03     98.6409E-03
            2136     15.3726E-03     18.4720E-03    -9.74050E+06     131.369E+06     79.1424E+06     1.93570E+06    -66.7648E-03     119.410E-03    -52.6451E-03     156.640E-03    -70.5362E-03     123.384E-03    -52.4258E-03     155.085E-03
            2137     14.5275E-03     18.3091E-03    -14.1271E+06     110.218E+06     37.4948E+06     2.58577E+06    -66.3869E-03     118.217E-03    -51.8302E-03     147.811E-03    -69.2262E-03     121.289E-03    -51.7820E-03     145.906E-03
            2138     13.6832E-03     18.1692E-03    -16.3666E+06     73.5836E+06     1.11707E+06     2.01476E+06    -64.2853E-03     115.322E-03    -51.0370E-03     121.985E-03    -66.0488E-03     117.286E-03    -51.1144E-03     120.309E-03
            2139     12.8357E-03     18.0591E-03    -17.1753E+06     21.4770E+06    -7.46508E+06     1.70252E+06    -61.9719E-03     112.381E-03    -50.4093E-03     98.7230E-03    -62.9839E-03     113.430E-03    -50.4528E-03     97.4196E-03
            2140     11.9879E-03     17.9662E-03    -18.2899E+06    -20.8511E+06    -5.05871E+06     1.81487E+06    -60.1514E-03     109.990E-03    -49.8386E-03     85.1533E-03    -60.7761E-03     110.491E-03    -49.8072E-03     84.1359E-03
            2141     11.1384E-03     17.8826E-03    -19.5591E+06    -50.6279E+06    -6.04902E+06     2.24732E+06    -58.8083E-03     108.044E-03    -49.2358E-03     76.4904E-03    -59.2162E-03     108.220E-03    -49.1642E-03     75.6778E-03
            2142     10.2885E-03     17.8059E-03    -20.8670E+06    -72.4417E+06    -6.07252E+06     2.80701E+06    -57.3883E-03     106.008E-03    -48.6197E-03     68.5017E-03    -57.6484E-03     105.955E-03    -48.5148E-03     67.8657E-03
            2143     9.43701E-03     17.7373E-03    -22.3083E+06    -86.2997E+06    -5.24566E+06     3.42258E+06    -55.7754E-03     103.775E-03    -47.9996E-03     60.3372E-03    -55.9369E-03     103.566E-03    -47.8684E-03     59.8505E-03
            2144     8.58458E-03     17.6761E-03    -24.2493E+06    -98.3651E+06    -6.54135E+06     4.17234E+06    -54.1795E-03     101.560E-03    -47.3801E-03     53.0753E-03    -54.2727E-03     101.237E-03    -47.2351E-03     52.7111E-03
            2145     7.73075E-03     17.6214E-03    -26.8739E+06    -108.935E+06    -9.02132E+06     4.29863E+06    -52.5700E-03     99.3442E-03    -46.7741E-03     46.4587E-03    -52.6170E-03     98.9353E-03    -46.6223E-03     46.1879E-03
            2146     6.87583E-03     17.5730E-03    -29.4257E+06    -119.964E+06    -11.3790E+06     4.21697E+06    -50.9638E-03     97.1650E-03    -46.2012E-03     40.1443E-03    -50.9758E-03     96.6797E-03    -46.0415E-03     39.9469E-03
            2147     6.01954E-03     17.5310E-03    -31.7459E+06    -127.812E+06    -14.0267E+06     4.81765E+06    -49.4424E-03     95.1062E-03    -45.6638E-03     34.2533E-03    -49.4315E-03     94.5696E-03    -45.5026E-03     34.1226E-03
            2148     5.16218E-03     17.4949E-03    -34.6633E+06    -130.231E+06    -16.7909E+06     5.29698E+06    -48.0125E-03     93.1823E-03    -45.1698E-03     28.7942E-03    -47.9954E-03     92.6286E-03    -45.0147E-03     28.7170E-03
            2149     4.30365E-03     17.4646E-03    -38.2331E+06    -137.706E+06    -22.2231E+06     5.11159E+06    -46.7232E-03     91.4561E-03    -44.7329E-03     23.6622E-03    -46.6963E-03     90.8691E-03    -44.5889E-03     23.6204E-03
            2150     3.44418E-03     17.4399E-03    -41.8187E+06    -144.468E+06    -30.3500E+06     4.48789E+06    -45.6285E-03     89.9819E-03    -44.3533E-03     18.7353E-03    -45.5921E-03     89.3721E-03    -44.2350E-03     18.7153E-03
            2151     2.58381E-03     17.4208E-03    -45.0081E+06    -149.291E+06    -37.5924E+06     3.19442E+06    -44.7584E-03     88.8114E-03    -44.0531E-03     13.9973E-03    -44.7166E-03     88.1889E-03    -43.9593E-03     13.9847E-03
            2152     1.72285E-03     17.4069E-03    -47.5431E+06    -156.056E+06    -43.5942E+06     1.91024E+06    -44.1499E-03     87.9907E-03    -43.8408E-03     9.41402E-03    -44.1000E-03     87.3444E-03    -43.7636E-03     9.40438E-03
            2153     861.547E-06     17.3985E-03    -49.0213E+06    -159.004E+06    -48.2047E+06     1.06036E+06    -43.8057E-03     87.4941E-03    -43.6884E-03     5.17445E-03    -43.7508E-03     86.8409E-03    -43.6278E-03     5.17003E-03
            2154     16.2167E-03     17.5640E-03    -4.63794E+06     133.908E+06     91.7099E+06     893.521E+03    -66.9665E-03     120.284E-03    -53.3174E-03     97.3672E-03    -69.5451E-03     123.056E-03    -53.0463E-03     96.4469E-03
            2155     15.3729E-03     17.4042E-03    -9.72566E+06     130.496E+06     79.6033E+06     1.55827E+06    -67.8944E-03     120.482E-03    -52.5878E-03     156.140E-03    -71.6431E-03     124.429E-03    -52.3649E-03     154.498E-03
            2156     14.5308E-03     17.2454E-03    -13.5232E+06     110.588E+06     39.0982E+06     2.33777E+06    -67.2206E-03     118.932E-03    -51.7111E-03     145.480E-03    -70.0001E-03     121.943E-03    -51.6563E-03     143.537E-03
            2157     13.6845E-03     17.1075E-03    -15.6266E+06     74.4221E+06     1.63934E+06     2.60374E+06    -64.6865E-03     115.545E-03    -50.8586E-03     119.370E-03    -66.3936E-03     117.456E-03    -50.9357E-03     117.702E-03
            2158     12.8388E-03     17.0001E-03    -17.0611E+06     22.4472E+06    -7.70485E+06     2.21562E+06    -62.3817E-03     112.563E-03    -50.1810E-03     95.5791E-03    -63.3563E-03     113.579E-03    -50.2274E-03     94.2883E-03
            2159     11.9909E-03     16.9095E-03    -18.1936E+06    -20.8766E+06    -5.56306E+06     2.21876E+06    -60.8129E-03     110.360E-03    -49.5474E-03     82.0524E-03    -61.4111E-03     110.836E-03    -49.5185E-03     81.0427E-03
            2160     11.1426E-03     16.8278E-03    -19.4291E+06    -51.1022E+06    -6.43961E+06     2.61645E+06    -59.4920E-03     108.355E-03    -48.8629E-03     73.0132E-03    -59.8770E-03     108.508E-03    -48.7928E-03     72.2111E-03
            2161     10.2929E-03     16.7533E-03    -20.6904E+06    -72.6360E+06    -6.66605E+06     2.94249E+06    -57.9666E-03     106.118E-03    -48.1516E-03     64.4072E-03    -58.2056E-03     106.045E-03    -48.0496E-03     63.7840E-03
            2162     9.44227E-03     16.6870E-03    -22.1794E+06    -86.9311E+06    -5.92172E+06     3.70076E+06    -56.2139E-03     103.646E-03    -47.4317E-03     55.9097E-03    -56.3567E-03     103.418E-03    -47.3031E-03     55.4408E-03
            2163     8.59004E-03     16.6281E-03    -24.0421E+06     -98.693E+06    -6.89954E+06     4.70489E+06    -54.3966E-03     101.108E-03    -46.7117E-03     48.4975E-03    -54.4749E-03     100.771E-03    -46.5682E-03     48.1561E-03
            2164     7.73664E-03     16.5757E-03    -26.0687E+06    -107.846E+06    -8.57040E+06     5.14162E+06    -52.5219E-03     98.5328E-03    -46.0109E-03     41.8773E-03    -52.5570E-03     98.1175E-03    -45.8596E-03     41.6337E-03
            2165     6.88154E-03     16.5298E-03    -29.0528E+06    -119.333E+06    -11.4176E+06     5.11535E+06    -50.6472E-03     95.9993E-03    -45.3522E-03     35.8285E-03    -50.6508E-03     95.5094E-03    -45.1941E-03     35.6581E-03
            2166     6.02509E-03     16.4899E-03    -32.4229E+06    -127.430E+06    -15.8093E+06     5.11638E+06    -48.8756E-03     93.6144E-03    -44.7388E-03     30.3780E-03    -48.8608E-03     93.0780E-03    -44.5860E-03     30.2651E-03
            2167     5.16713E-03     16.4558E-03    -34.9895E+06    -129.206E+06    -18.0893E+06     5.15279E+06    -47.2557E-03     91.4488E-03    -44.1931E-03     25.3857E-03    -47.2364E-03     90.8991E-03    -44.0454E-03     25.3182E-03
            2168     4.30798E-03     16.4273E-03    -37.6879E+06    -136.504E+06    -22.1023E+06     5.52217E+06    -45.8589E-03     89.5798E-03    -43.7209E-03     20.7463E-03    -45.8291E-03     88.9956E-03    -43.5788E-03     20.7187E-03
            2169     3.44769E-03     16.4042E-03    -40.9760E+06    -141.462E+06    -30.0592E+06     5.12942E+06    -44.6905E-03     87.9945E-03    -43.3039E-03     16.3740E-03    -44.6534E-03     87.3968E-03    -43.1897E-03     16.3691E-03
            2170     2.58661E-03     16.3861E-03    -43.7159E+06    -145.978E+06    -36.9951E+06     3.55319E+06    -43.7590E-03     86.7311E-03    -42.9721E-03     12.1803E-03    -43.7158E-03     86.1217E-03    -42.8820E-03     12.1773E-03
            2171     1.72480E-03     16.3733E-03    -46.1066E+06    -153.701E+06    -42.4414E+06     2.32522E+06    -43.1006E-03     85.8329E-03    -42.7323E-03     8.21090E-03    -43.0483E-03     85.1943E-03    -42.6548E-03     8.20988E-03
            2172     862.541E-06     16.3652E-03    -48.1267E+06    -156.424E+06    -47.1763E+06     1.46043E+06    -42.6832E-03     85.2413E-03    -42.5581E-03     4.44815E-03    -42.6290E-03     84.5981E-03    -42.4974E-03     4.45075E-03
            2173     16.2160E-03     16.4948E-03    -4.50074E+06     133.174E+06     91.7519E+06     1.07065E+06    -68.1871E-03     121.538E-03    -53.3512E-03     95.1811E-03    -70.7214E-03     124.263E-03    -53.0790E-03     94.1759E-03
            2174     15.3749E-03     16.3369E-03    -9.69573E+06     129.430E+06     78.7203E+06     1.83310E+06    -69.4012E-03     121.942E-03    -52.5411E-03     154.448E-03    -73.0820E-03     125.820E-03    -52.3211E-03     152.698E-03
            2175     14.5307E-03     16.1799E-03    -14.3792E+06     109.454E+06     38.0064E+06     2.20043E+06    -68.1338E-03     119.720E-03    -51.5860E-03     142.670E-03    -70.8345E-03     122.648E-03    -51.5338E-03     140.685E-03
            2176     13.6883E-03     16.0454E-03    -16.5749E+06     75.0825E+06     1.44631E+06     2.51596E+06    -65.6864E-03     116.346E-03    -50.6592E-03     115.892E-03    -67.3357E-03     118.199E-03    -50.7368E-03     114.205E-03
            2177     12.8419E-03     15.9409E-03    -17.3363E+06     23.7653E+06    -8.15785E+06     2.53471E+06    -63.4358E-03     113.323E-03    -49.8869E-03     91.9337E-03    -64.3705E-03     114.304E-03    -49.9370E-03     90.6405E-03
            2178     11.9956E-03     15.8520E-03    -18.0708E+06    -21.0116E+06    -6.23116E+06     2.52134E+06    -61.9696E-03     111.114E-03    -49.1439E-03     77.9404E-03    -62.5345E-03     111.558E-03    -49.1184E-03     76.9325E-03
            2179     11.1480E-03     15.7725E-03    -19.0945E+06    -51.2814E+06    -6.92395E+06     2.88198E+06    -60.5717E-03     108.904E-03    -48.3318E-03     68.2096E-03    -60.9269E-03     109.029E-03    -48.2644E-03     67.4165E-03
            2180     10.2997E-03     15.7004E-03    -20.3785E+06    -72.6893E+06    -7.12845E+06     3.46487E+06    -58.8127E-03     106.296E-03    -47.4830E-03     58.9243E-03    -59.0255E-03     106.199E-03    -47.3837E-03     58.3215E-03
            2181     9.44960E-03     15.6369E-03    -22.1445E+06    -87.4843E+06    -6.34793E+06     4.23412E+06    -56.7368E-03     103.364E-03    -46.6272E-03     50.2172E-03    -56.8590E-03     103.116E-03    -46.5000E-03     49.7732E-03
            2182     8.59815E-03     15.5806E-03    -23.8045E+06    -98.7220E+06    -7.11882E+06     4.75533E+06    -54.5443E-03     100.323E-03    -45.7789E-03     42.8600E-03    -54.6064E-03     99.9712E-03    -45.6368E-03     42.5392E-03
            2183     7.74463E-03     15.5312E-03    -25.4421E+06    -107.594E+06    -8.74197E+06     5.33047E+06    -52.2766E-03     97.2420E-03    -44.9654E-03     36.4467E-03    -52.2978E-03     96.8164E-03    -44.8162E-03     36.2255E-03
            2184     6.88942E-03     15.4879E-03    -27.6857E+06    -119.041E+06    -10.4126E+06     6.48213E+06    -50.0780E-03     94.2969E-03    -44.2190E-03     30.8042E-03    -50.0690E-03     93.7973E-03    -44.0583E-03     30.6692E-03
            2185     6.03230E-03     15.4507E-03    -30.5592E+06    -124.911E+06    -14.4799E+06     5.96615E+06    -48.0431E-03     91.5725E-03    -43.5295E-03     25.8796E-03    -48.0193E-03     91.0389E-03    -43.3764E-03     25.7931E-03
            2186     5.17364E-03     15.4187E-03    -33.3778E+06    -128.420E+06    -18.2547E+06     4.85068E+06    -46.2324E-03     89.1545E-03    -42.9222E-03     21.4525E-03    -46.2024E-03     88.6030E-03    -42.7788E-03     21.3941E-03
            2187     4.31351E-03     15.3923E-03    -36.1108E+06    -136.105E+06    -21.5628E+06     5.59017E+06    -44.7079E-03     87.1177E-03    -42.4098E-03     17.3886E-03    -44.6694E-03     86.5302E-03    -42.2679E-03     17.3720E-03
            2188     3.45233E-03     15.3706E-03    -38.7704E+06    -138.008E+06    -28.0340E+06     5.45111E+06    -43.4400E-03     85.4003E-03    -41.9604E-03     13.6533E-03    -43.3985E-03     84.8125E-03    -41.8442E-03     13.6602E-03
            2189     2.59010E-03     15.3541E-03    -41.6049E+06    -142.944E+06    -35.7778E+06     4.31090E+06    -42.4554E-03     84.0520E-03    -41.5966E-03     10.1386E-03    -42.4071E-03     83.4522E-03    -41.5079E-03     10.1509E-03
            2190     1.72717E-03     15.3421E-03    -44.4035E+06    -150.758E+06    -41.4303E+06     3.34873E+06    -41.7502E-03     83.0791E-03    -41.3290E-03     6.82460E-03    -41.6948E-03     82.4509E-03    -41.2531E-03     6.84057E-03
            2191     863.740E-06     15.3347E-03    -46.2676E+06    -152.792E+06    -45.3996E+06     1.78397E+06    -41.2744E-03     82.4100E-03    -41.1356E-03     3.62084E-03    -41.2186E-03     81.7795E-03    -41.0740E-03     3.62973E-03
            2192     16.2150E-03     15.4216E-03    -5.27125E+06     131.413E+06     90.5416E+06     495.290E+03    -69.1573E-03     122.528E-03    -53.3709E-03     93.9852E-03    -71.6279E-03     125.184E-03    -53.1011E-03     92.8899E-03
            2193     15.3744E-03     15.2690E-03     -9.3707E+06     128.365E+06     79.3895E+06     2.51448E+06    -70.9353E-03     123.430E-03    -52.4951E-03     151.656E-03    -74.4965E-03     127.184E-03    -52.2707E-03     149.809E-03
            2194     14.5343E-03     15.1129E-03    -13.1013E+06     109.806E+06     39.5203E+06     3.49649E+06    -69.6880E-03     121.128E-03    -51.4396E-03     138.955E-03    -72.2877E-03     123.956E-03    -51.3822E-03     136.922E-03
            2195     13.6903E-03     14.9825E-03    -16.3167E+06     75.3103E+06     1.19299E+06     2.76711E+06    -67.3241E-03     117.709E-03    -50.3850E-03     111.178E-03    -68.9034E-03     119.495E-03    -50.4646E-03     109.456E-03
            2196     12.8473E-03     14.8798E-03    -17.5694E+06     24.7723E+06    -8.58435E+06     2.44611E+06    -65.2439E-03     114.709E-03    -49.4654E-03     86.9198E-03    -66.1299E-03     115.646E-03    -49.5187E-03     85.6048E-03
            2197     12.0023E-03     14.7940E-03    -18.0152E+06    -20.8214E+06    -6.75721E+06     2.49195E+06    -63.6884E-03     112.242E-03    -48.5538E-03     72.4622E-03    -64.2150E-03     112.651E-03    -48.5313E-03     71.4462E-03
            2198     11.1566E-03     14.7162E-03    -18.8252E+06    -51.6336E+06    -7.14589E+06     3.13960E+06    -61.9798E-03     109.544E-03    -47.5640E-03     61.9194E-03    -62.3003E-03     109.635E-03    -47.4976E-03     61.1364E-03
            2199     10.3093E-03     14.6475E-03    -19.9963E+06    -72.8326E+06    -7.35390E+06     4.01035E+06    -59.7126E-03     106.252E-03    -46.5389E-03     52.1303E-03    -59.8961E-03     106.127E-03    -46.4411E-03     51.5524E-03
            2200     9.46021E-03     14.5870E-03    -21.4119E+06    -87.8066E+06    -6.68189E+06     4.70937E+06    -57.1357E-03     102.657E-03    -45.5216E-03     43.4963E-03    -57.2328E-03     102.386E-03    -45.3967E-03     43.0812E-03
            2201     8.60876E-03     14.5343E-03    -23.3486E+06    -98.1193E+06    -7.36791E+06     5.12812E+06    -54.4602E-03     98.9914E-03    -44.5312E-03     36.3197E-03    -54.5053E-03     98.6269E-03    -44.3920E-03     36.0276E-03
            2202     7.75531E-03     14.4881E-03    -25.7052E+06    -107.869E+06    -9.23371E+06     5.59348E+06    -51.7859E-03     95.3834E-03    -43.5974E-03     30.2491E-03    -51.7963E-03     94.9465E-03    -43.4499E-03     30.0539E-03
            2203     6.89943E-03     14.4482E-03    -27.5425E+06    -118.952E+06    -10.4041E+06     6.33658E+06    -49.2558E-03     92.0053E-03    -42.7496E-03     25.0770E-03    -49.2384E-03     91.4982E-03    -42.5892E-03     24.9600E-03
            2204     6.04168E-03     14.4137E-03    -28.9981E+06    -121.839E+06    -13.1466E+06     6.11424E+06    -46.9357E-03     88.9112E-03    -41.9755E-03     20.7009E-03    -46.9052E-03     88.3833E-03    -41.8225E-03     20.6333E-03
            2205     5.18198E-03     14.3845E-03    -31.7786E+06    -127.692E+06    -17.4446E+06     5.88024E+06    -44.9162E-03     86.2170E-03    -41.3008E-03     16.9290E-03    -44.8769E-03     85.6621E-03    -41.1568E-03     16.8978E-03
            2206     4.32080E-03     14.3600E-03    -35.1647E+06    -134.826E+06    -22.8976E+06     5.79251E+06    -43.2126E-03     83.9384E-03    -40.7257E-03     13.5885E-03    -43.1671E-03     83.3556E-03    -40.5937E-03     13.5856E-03
            2207     3.45818E-03     14.3403E-03    -37.6227E+06    -135.423E+06    -28.2962E+06     5.27159E+06    -41.8100E-03     82.0544E-03    -40.2444E-03     10.6009E-03    -41.7649E-03     81.4768E-03    -40.1349E-03     10.6139E-03
            2208     2.59455E-03     14.3249E-03    -39.8667E+06    -140.513E+06    -33.6851E+06     5.21535E+06    -40.7664E-03     80.6353E-03    -39.8689E-03     7.83494E-03    -40.7154E-03     80.0413E-03    -39.7757E-03     7.86483E-03
            2209     1.73021E-03     14.3141E-03    -42.0063E+06    -146.297E+06    -38.9432E+06     4.13012E+06    -40.0146E-03     79.6001E-03    -39.5856E-03     5.23191E-03    -39.9570E-03     78.9868E-03    -39.5072E-03     5.26186E-03
            2210     865.291E-06     14.3073E-03    -43.4283E+06    -148.520E+06    -42.7105E+06     2.06663E+06    -39.5139E-03     78.9148E-03    -39.4009E-03     2.74246E-03    -39.4540E-03     78.2975E-03    -39.3362E-03     2.75712E-03
            2211     16.2154E-03     14.3514E-03    -4.87516E+06     130.386E+06     90.1472E+06     722.754E+03    -70.8046E-03     124.140E-03    -53.3352E-03     91.2264E-03    -73.1726E-03     126.692E-03    -53.0665E-03     90.0347E-03
            2212     15.3761E-03     14.1964E-03    -10.0221E+06     126.255E+06     78.7978E+06     1.62698E+06    -72.1091E-03     124.483E-03    -52.3740E-03     147.595E-03    -75.5335E-03     128.092E-03    -52.1486E-03     145.645E-03
            2213     14.5360E-03     14.0457E-03    -13.3681E+06     109.016E+06     41.4745E+06     3.20806E+06    -71.8642E-03     123.075E-03    -51.2106E-03     134.502E-03    -74.3753E-03     125.805E-03    -51.1419E-03     132.366E-03
            2214     13.6970E-03     13.9166E-03    -15.2911E+06     77.0837E+06     3.10043E+06     3.73377E+06    -69.9115E-03     119.883E-03    -49.9717E-03     105.042E-03    -71.4130E-03     121.595E-03    -50.0458E-03     103.262E-03
            2215     12.8549E-03     13.8180E-03    -16.6745E+06     25.9116E+06    -8.99813E+06     2.93671E+06    -67.5680E-03     116.402E-03    -48.8344E-03     80.4375E-03    -68.3939E-03     117.288E-03    -48.8928E-03     79.0985E-03
            2216     12.0123E-03     13.7337E-03    -17.9560E+06    -20.7873E+06    -7.43389E+06     2.85417E+06    -65.7044E-03     113.414E-03    -47.7093E-03     65.7388E-03    -66.1881E-03     113.782E-03    -47.6903E-03     64.7193E-03
            2217     11.1685E-03     13.6597E-03    -18.9132E+06    -51.5292E+06    -7.94557E+06     3.15878E+06    -63.3958E-03     109.903E-03    -46.5068E-03     54.5991E-03    -63.6812E-03     109.962E-03    -46.4444E-03     53.8275E-03
            2218     10.3224E-03     13.5946E-03    -19.4800E+06    -73.5459E+06    -8.06923E+06     3.87190E+06    -60.5022E-03     105.789E-03    -45.2868E-03     44.6625E-03    -60.6541E-03     105.635E-03    -45.1923E-03     44.1050E-03
            2219     9.47372E-03     13.5384E-03    -20.5325E+06    -88.1071E+06    -6.84096E+06     5.18896E+06    -57.3429E-03     101.440E-03    -44.0970E-03     36.0997E-03    -57.4149E-03     101.147E-03    -43.9737E-03     35.7166E-03
            2220     8.62259E-03     13.4895E-03    -22.1961E+06    -97.4123E+06    -6.79674E+06     5.74628E+06    -54.1378E-03     97.0949E-03    -42.9571E-03     29.2014E-03    -54.1644E-03     96.7170E-03    -42.8177E-03     28.9433E-03
            2221     7.76854E-03     13.4474E-03    -23.8944E+06    -107.576E+06    -8.14986E+06     5.95800E+06    -51.0719E-03     92.9663E-03    -41.8944E-03     23.5671E-03    -51.0648E-03     92.5163E-03    -41.7445E-03     23.4002E-03
            2222     6.91227E-03     13.4110E-03    -25.8446E+06    -118.044E+06    -9.53490E+06     6.02513E+06    -48.1901E-03     89.1205E-03    -40.9304E-03     18.9715E-03    -48.1597E-03     88.6071E-03    -40.7695E-03     18.8710E-03
            2223     6.05342E-03     13.3800E-03    -28.4813E+06    -120.654E+06    -12.8651E+06     6.27563E+06    -45.5471E-03     85.6060E-03    -40.0589E-03     15.2892E-03    -45.5114E-03     85.0781E-03    -39.9070E-03     15.2409E-03
            2224     5.19251E-03     13.3535E-03    -31.1322E+06    -126.630E+06    -17.1769E+06     6.75618E+06    -43.2648E-03     82.5730E-03    -39.3083E-03     12.2796E-03    -43.2212E-03     82.0191E-03    -39.1654E-03     12.2734E-03
            2225     4.32975E-03     13.3315E-03    -33.3544E+06    -132.014E+06    -22.6737E+06     6.10523E+06    -41.3620E-03     80.0347E-03    -38.6727E-03     9.73583E-03    -41.3099E-03     79.4611E-03    -38.5463E-03     9.74766E-03
            2226     3.46553E-03     13.3137E-03    -35.6338E+06    -133.668E+06    -27.1140E+06     5.26751E+06    -39.8347E-03     77.9927E-03    -38.1580E-03     7.55018E-03    -39.7829E-03     77.4182E-03    -38.0480E-03     7.57110E-03
            2227     2.60015E-03     13.2998E-03    -37.6922E+06    -138.135E+06    -30.8247E+06     5.08836E+06    -38.6886E-03     76.4546E-03    -37.7659E-03     5.55823E-03    -38.6338E-03     75.8645E-03    -37.6651E-03     5.59197E-03
            2228     1.73388E-03     13.2899E-03    -39.1788E+06    -141.401E+06    -35.6523E+06     4.14444E+06    -37.8830E-03     75.3588E-03    -37.4758E-03     3.65805E-03    -37.8230E-03     74.7607E-03    -37.3922E-03     3.69175E-03
            2229     867.026E-06     13.2840E-03    -40.4594E+06    -143.899E+06    -39.5072E+06     2.32520E+06    -37.4417E-03     74.6969E-03    -37.2552E-03     1.86809E-03    -37.3783E-03     74.0937E-03    -37.1854E-03     1.88810E-03
            2230     16.2190E-03     13.2754E-03    -4.41194E+06     130.019E+06     90.4080E+06     1.11012E+06    -73.5874E-03     126.874E-03    -53.2869E-03     89.5728E-03    -75.9029E-03     129.374E-03    -53.0170E-03     88.2298E-03
            2231     15.3800E-03     13.1290E-03    -9.61075E+06     125.553E+06     78.8176E+06     1.90969E+06    -74.8965E-03     127.063E-03    -52.1665E-03     145.269E-03    -78.2389E-03     130.589E-03    -51.9405E-03     143.129E-03
            2232     14.5417E-03     12.9725E-03    -14.1702E+06     106.970E+06     41.1497E+06     2.50754E+06    -74.8945E-03     125.708E-03    -50.8135E-03     129.277E-03    -77.3033E-03     128.327E-03    -50.7424E-03     126.995E-03
            2233     13.7047E-03     12.8492E-03    -16.0467E+06     77.5100E+06     3.30624E+06     3.42604E+06    -72.8534E-03     122.200E-03    -49.3466E-03     97.7118E-03    -74.2642E-03     123.820E-03    -49.4192E-03     95.8583E-03
            2234     12.8664E-03     12.7536E-03    -16.6537E+06     27.8209E+06    -9.28699E+06     3.70904E+06    -70.2503E-03     118.208E-03    -47.9575E-03     73.2153E-03    -71.0208E-03     119.046E-03    -48.0202E-03     71.8513E-03
            2235     12.0262E-03     12.6727E-03    -17.3157E+06    -20.0953E+06    -7.76393E+06     3.31818E+06    -67.6287E-03     114.220E-03    -46.5918E-03     58.2955E-03    -68.0655E-03     114.548E-03    -46.5764E-03     57.2826E-03
            2236     11.1836E-03     12.6028E-03    -18.4683E+06    -51.1990E+06    -8.22784E+06     3.57506E+06    -64.5975E-03     109.768E-03    -45.1700E-03     46.7836E-03    -64.8465E-03     109.794E-03    -45.1101E-03     46.0352E-03
            2237     10.3384E-03     12.5425E-03    -20.2530E+06    -73.9553E+06    -8.59559E+06     4.18360E+06    -61.0420E-03     104.795E-03    -43.7534E-03     36.8003E-03    -61.1708E-03     104.615E-03    -43.6598E-03     36.2726E-03
            2238     9.49040E-03     12.4910E-03    -21.2525E+06    -88.2520E+06    -7.48838E+06     4.61194E+06    -57.2550E-03     99.6442E-03    -42.3891E-03     28.6977E-03    -57.3114E-03     99.3340E-03    -42.2678E-03     28.3352E-03
            2239     8.63887E-03     12.4471E-03    -21.4017E+06    -97.0532E+06    -6.83201E+06     5.14264E+06    -53.5770E-03     94.6765E-03    -41.0996E-03     22.3741E-03    -53.5875E-03     94.2867E-03    -40.9620E-03     22.1343E-03
            2240     7.78457E-03     12.4093E-03    -22.4361E+06    -107.483E+06    -7.29749E+06     6.13155E+06    -50.0711E-03     89.9829E-03    -39.9117E-03     17.3616E-03    -50.0496E-03     89.5216E-03    -39.7598E-03     17.2197E-03
            2241     6.92709E-03     12.3773E-03    -25.0049E+06    -116.937E+06    -8.74592E+06     6.91653E+06    -46.8149E-03     85.6542E-03    -38.8393E-03     13.4969E-03    -46.7776E-03     85.1384E-03    -38.6772E-03     13.4266E-03
            2242     6.06709E-03     12.3498E-03    -27.7011E+06    -119.663E+06    -12.8197E+06     6.78332E+06    -43.8836E-03     81.7593E-03    -37.8757E-03     10.6191E-03    -43.8421E-03     81.2317E-03    -37.7261E-03     10.5920E-03
            2243     5.20461E-03     12.3267E-03    -29.5422E+06    -125.018E+06    -16.8062E+06     6.38948E+06    -41.3506E-03     78.4050E-03    -37.0544E-03     8.40567E-03    -41.2999E-03     77.8542E-03    -36.9144E-03     8.40588E-03
            2244     4.34010E-03     12.3073E-03    -31.2805E+06    -129.482E+06    -19.7651E+06     6.00285E+06    -39.2566E-03     75.6344E-03    -36.3778E-03     6.63182E-03    -39.2010E-03     75.0650E-03    -36.2435E-03     6.65067E-03
            2245     3.47394E-03     12.2916E-03    -33.5043E+06    -131.554E+06    -24.2596E+06     5.51705E+06    -37.6057E-03     73.4324E-03    -35.8267E-03     5.15987E-03    -37.5499E-03     72.8605E-03    -35.7086E-03     5.18999E-03
            2246     2.60652E-03     12.2794E-03    -35.6249E+06    -135.249E+06    -29.6852E+06     4.62490E+06    -36.3675E-03     71.7704E-03    -35.4029E-03     3.82326E-03    -36.3079E-03     71.1898E-03    -35.3036E-03     3.85512E-03
            2247     1.73815E-03     12.2706E-03    -37.0013E+06    -137.500E+06    -33.6319E+06     3.49868E+06    -35.5243E-03     70.6290E-03    -35.1047E-03     2.51279E-03    -35.4619E-03     70.0442E-03    -35.0198E-03     2.54071E-03
            2248     869.294E-06     12.2653E-03    -37.7106E+06    -139.160E+06    -36.6155E+06     2.20912E+06    -35.0987E-03     69.9500E-03    -34.8513E-03     1.26969E-03    -35.0325E-03     69.3621E-03    -34.7779E-03     1.28952E-03
            2249     16.2151E-03     12.2010E-03    -4.85972E+06     128.678E+06     89.6488E+06     982.600E+03    -76.8691E-03     130.109E-03    -53.2403E-03     87.0421E-03    -79.1350E-03     132.555E-03    -52.9716E-03     85.4800E-03
            2250     15.3825E-03     12.0499E-03    -9.33909E+06     125.153E+06     80.0631E+06     1.83947E+06    -79.8164E-03     131.710E-03    -51.8939E-03     141.838E-03    -83.0819E-03     135.155E-03    -51.6615E-03     139.381E-03
            2251     14.5516E-03     11.9003E-03    -13.4465E+06     106.323E+06     42.4702E+06     3.08889E+06    -79.0910E-03     129.340E-03    -50.2491E-03     123.512E-03    -81.3928E-03     131.849E-03    -50.1714E-03     121.058E-03
            2252     13.7166E-03     11.7782E-03    -16.4258E+06     77.4011E+06     2.57944E+06     3.66027E+06    -76.0251E-03     124.520E-03    -48.4946E-03     90.2946E-03    -77.3403E-03     126.045E-03    -48.5701E-03     88.3815E-03
            2253     12.8810E-03     11.6870E-03    -17.0599E+06     29.6265E+06    -9.76614E+06     3.42269E+06    -72.7324E-03     119.577E-03    -46.8450E-03     65.3189E-03    -73.4430E-03     120.362E-03    -46.9121E-03     63.9339E-03
            2254     12.0426E-03     11.6114E-03    -17.4973E+06    -19.4508E+06    -8.20815E+06     3.53233E+06    -69.3200E-03     114.560E-03    -45.2397E-03     50.6454E-03    -69.7152E-03     114.849E-03    -45.2272E-03     49.6447E-03
            2255     11.2015E-03     11.5460E-03    -18.6837E+06    -51.1328E+06    -8.34293E+06     4.40113E+06    -65.4157E-03     109.025E-03    -43.6088E-03     38.9973E-03    -65.6334E-03     109.020E-03    -43.5493E-03     38.2855E-03
            2256     10.3572E-03     11.4916E-03    -19.7731E+06    -73.0182E+06    -8.05818E+06     4.70478E+06    -61.0510E-03     103.070E-03    -42.0188E-03     29.4431E-03    -61.1569E-03     102.870E-03    -41.9245E-03     28.9535E-03
            2257     9.50856E-03     11.4460E-03    -20.8301E+06    -87.3107E+06    -7.37443E+06     3.93576E+06    -56.7153E-03     97.2263E-03    -40.5110E-03     22.2665E-03    -56.7565E-03     96.9055E-03    -40.3910E-03     21.9244E-03
            2258     8.65684E-03     11.4071E-03    -22.0951E+06    -97.5994E+06    -7.18361E+06     4.17345E+06    -52.5743E-03     91.6810E-03    -39.1067E-03     16.8000E-03    -52.5777E-03     91.2807E-03    -38.9691E-03     16.5727E-03
            2259     7.80131E-03     11.3747E-03    -23.6094E+06    -108.638E+06    -6.99169E+06     6.15453E+06    -48.6802E-03     86.5119E-03    -37.8317E-03     12.6948E-03    -48.6579E-03     86.0406E-03    -37.6749E-03     12.5730E-03
            2260     6.94272E-03     11.3471E-03    -25.1577E+06    -115.451E+06    -7.17533E+06     7.01955E+06    -45.1301E-03     81.8198E-03    -36.6897E-03     9.71383E-03    -45.0948E-03     81.3063E-03    -36.5217E-03     9.66000E-03
            2261     6.08105E-03     11.3240E-03    -26.5404E+06    -117.943E+06    -10.1489E+06     6.33899E+06    -41.9916E-03     77.6680E-03    -35.6764E-03     7.65442E-03    -41.9489E-03     77.1417E-03    -35.5176E-03     7.63261E-03
            2262     5.21686E-03     11.3042E-03    -28.5805E+06    -123.579E+06    -14.6078E+06     6.19423E+06    -39.3183E-03     74.1313E-03    -34.8130E-03     6.17430E-03    -39.2673E-03     73.5823E-03    -34.6654E-03     6.17980E-03
            2263     4.35047E-03     11.2879E-03    -31.1664E+06    -127.191E+06    -18.3855E+06     5.81997E+06    -37.1109E-03     71.2120E-03    -34.1011E-03     5.03188E-03    -37.0596E-03     70.6515E-03    -33.9634E-03     5.05381E-03
            2264     3.48231E-03     11.2743E-03    -33.1748E+06    -129.199E+06    -22.8939E+06     4.91591E+06    -35.3756E-03     68.9027E-03    -33.5271E-03     4.02701E-03    -35.3233E-03     68.3401E-03    -33.4061E-03     4.05302E-03
            2265     2.61283E-03     11.2639E-03    -34.4158E+06    -132.158E+06    -28.5340E+06     4.00018E+06    -34.0908E-03     67.1754E-03    -33.0845E-03     3.05228E-03    -34.0312E-03     66.6068E-03    -32.9857E-03     3.07841E-03
            2266     1.74240E-03     11.2561E-03    -35.3306E+06    -134.246E+06    -32.5741E+06     2.75131E+06    -33.2060E-03     65.9837E-03    -32.7777E-03     2.09002E-03    -33.1415E-03     65.4113E-03    -32.6947E-03     2.10966E-03
            2267     871.308E-06     11.2515E-03     -35.896E+06    -135.314E+06    -34.7527E+06     1.50877E+06    -32.7372E-03     65.3005E-03    -32.5633E-03     1.09641E-03    -32.6702E-03     64.7266E-03    -32.4889E-03     1.10776E-03
            2268     16.2193E-03     11.1183E-03    -4.43520E+06     127.814E+06     89.7833E+06     1.04656E+06    -81.4019E-03     134.474E-03    -53.0716E-03     82.6021E-03    -83.5605E-03     136.810E-03    -52.8016E-03     80.8084E-03
            2269     15.3904E-03     10.9690E-03    -9.69698E+06     123.443E+06     79.5857E+06     1.94381E+06    -83.9447E-03     135.414E-03    -51.4689E-03     136.602E-03    -87.0672E-03     138.709E-03    -51.2359E-03     133.888E-03
            2270     14.5603E-03     10.8212E-03    -14.1621E+06     105.258E+06     44.4814E+06     3.00954E+06    -83.5616E-03     133.110E-03    -49.5483E-03     117.292E-03    -85.7608E-03     135.504E-03    -49.4579E-03     114.662E-03
            2271     13.7318E-03     10.7051E-03    -15.4961E+06     78.9648E+06     5.12380E+06     3.57396E+06    -79.6682E-03     127.150E-03    -47.4818E-03     82.2237E-03    -80.8920E-03     128.586E-03    -47.5482E-03     80.2408E-03
            2272     12.8979E-03     10.6199E-03    -16.1727E+06     30.7612E+06    -10.3730E+06     3.94176E+06    -74.8055E-03     120.354E-03    -45.5490E-03     57.5346E-03    -75.4480E-03     121.080E-03    -45.6220E-03     56.1624E-03
            2273     12.0613E-03     10.5491E-03    -17.8673E+06    -18.9873E+06    -8.77754E+06     4.56801E+06    -70.3638E-03     114.099E-03    -43.7349E-03     43.1909E-03    -70.7200E-03     114.351E-03    -43.7253E-03     42.2290E-03
            2274     11.2212E-03     10.4906E-03    -19.2290E+06    -50.4022E+06    -9.00815E+06     4.63476E+06    -65.4172E-03     107.359E-03    -41.9413E-03     32.1824E-03    -65.6092E-03     107.330E-03    -41.8854E-03     31.5125E-03
            2275     10.3759E-03     10.4430E-03    -19.9063E+06    -71.9139E+06    -8.07103E+06     4.41181E+06    -60.3542E-03     100.594E-03    -40.2399E-03     23.7065E-03    -60.4448E-03     100.383E-03    -40.1471E-03     23.2495E-03
            2276     9.52720E-03     10.4033E-03    -21.3166E+06    -85.8735E+06    -6.37192E+06     4.46534E+06    -55.5038E-03     94.1648E-03    -38.6610E-03     17.6488E-03    -55.5408E-03     93.8404E-03    -38.5374E-03     17.3434E-03
            2277     8.67387E-03     10.3709E-03    -23.7986E+06    -97.9513E+06    -6.33138E+06     4.56094E+06    -50.9547E-03     88.1720E-03    -37.2173E-03     13.3355E-03    -50.9618E-03     87.7656E-03    -37.0724E-03     13.1367E-03
            2278     7.81702E-03     10.3435E-03    -25.3883E+06    -109.411E+06    -6.61296E+06     4.88972E+06    -46.8352E-03     82.7599E-03    -35.9247E-03     10.3533E-03    -46.8185E-03     82.2840E-03    -35.7623E-03     10.2323E-03
            2279     6.95661E-03     10.3211E-03    -25.6948E+06    -114.104E+06    -6.28085E+06     5.14461E+06    -43.1828E-03     77.9650E-03    -34.7821E-03     8.36370E-03    -43.1524E-03     77.4565E-03    -34.6108E-03     8.29768E-03
            2280     6.09322E-03     10.3020E-03    -27.0130E+06    -116.993E+06    -7.17284E+06     5.54238E+06    -40.0360E-03     73.8259E-03    -33.7898E-03     7.02296E-03    -40.0011E-03     73.3005E-03    -33.6169E-03     6.99877E-03
            2281     5.22721E-03     10.2861E-03    -29.2099E+06    -122.319E+06    -11.0600E+06     5.77864E+06    -37.3952E-03     70.3348E-03    -32.9395E-03     6.02539E-03    -37.3543E-03     69.7879E-03    -32.7751E-03     6.03058E-03
            2282     4.35907E-03     10.2725E-03     -31.004E+06    -124.475E+06    -16.0108E+06     4.95899E+06    -35.2245E-03     67.4496E-03    -32.2251E-03     5.21718E-03    -35.1798E-03     66.8993E-03    -32.0797E-03     5.23117E-03
            2283     3.48923E-03     10.2615E-03    -32.6935E+06    -126.849E+06    -21.1186E+06     3.65836E+06    -33.5112E-03     65.1609E-03    -31.6497E-03     4.37551E-03    -33.4625E-03     64.6070E-03    -31.5240E-03     4.38718E-03
            2284     2.61805E-03     10.2526E-03    -34.0016E+06    -129.703E+06    -27.0150E+06     2.62745E+06    -32.2240E-03     63.4274E-03    -31.2034E-03     3.42300E-03    -32.1681E-03     62.8686E-03    -31.1011E-03     3.43253E-03
            2285     1.74586E-03     10.2463E-03     -34.557E+06    -131.625E+06    -31.3629E+06     1.75759E+06    -31.3269E-03     62.2180E-03    -30.8912E-03     2.38225E-03    -31.2640E-03     61.6559E-03    -30.8070E-03     2.38967E-03
            2286     873.069E-06     10.2421E-03    -34.9172E+06    -132.783E+06    -33.9794E+06     799.007E+03    -30.8456E-03     61.5230E-03    -30.6775E-03     1.27961E-03    -30.7784E-03     60.9594E-03    -30.6042E-03     1.28197E-03
            2287     16.2261E-03     10.0306E-03    -4.93317E+06     126.175E+06     88.9865E+06     1.05826E+06    -87.0398E-03     139.869E-03    -52.8290E-03     81.7865E-03    -89.1504E-03     142.152E-03    -52.5599E-03     79.7028E-03
            2288     15.3981E-03     9.88830E-03    -9.64831E+06     122.264E+06     80.2587E+06     2.58368E+06    -89.2741E-03     140.194E-03    -50.9202E-03     133.360E-03    -92.2938E-03     143.382E-03    -50.6822E-03     130.345E-03
            2289     14.5737E-03     9.73561E-03    -12.6242E+06     105.122E+06     46.1565E+06     2.66163E+06    -87.6638E-03     136.352E-03    -48.6882E-03     109.735E-03    -89.7262E-03     138.610E-03    -48.5915E-03     106.964E-03
            2290     13.7474E-03     9.62977E-03    -15.4224E+06     78.6823E+06     4.47789E+06      3.5435E+06    -82.3922E-03     128.726E-03    -46.3343E-03     72.8295E-03    -83.5085E-03     130.056E-03    -46.4036E-03     70.8268E-03
            2291     12.9166E-03     9.55129E-03    -17.7019E+06     31.6266E+06    -11.5739E+06     5.43382E+06    -76.2297E-03     120.406E-03    -44.1761E-03     49.7849E-03    -76.8193E-03     121.080E-03    -44.2541E-03     48.4564E-03
            2292     12.0807E-03     9.48807E-03    -19.1404E+06    -17.5068E+06    -8.79475E+06     5.59030E+06    -70.1680E-03     112.390E-03    -42.2215E-03     36.9205E-03    -70.4942E-03     112.612E-03    -42.2123E-03     36.0259E-03
            2293     11.2392E-03     9.43740E-03    -20.3765E+06    -48.7799E+06    -8.09606E+06     4.84474E+06    -64.3662E-03     104.728E-03    -40.3623E-03     27.0785E-03    -64.5448E-03     104.686E-03    -40.3025E-03     26.4617E-03
            2294     10.3937E-03     9.39677E-03    -21.7863E+06    -70.8435E+06    -6.91839E+06     4.32713E+06    -58.6890E-03     97.3351E-03    -38.6461E-03     20.0572E-03    -58.7798E-03     97.1179E-03    -38.5463E-03     19.6406E-03
            2295     9.54274E-03     9.36441E-03    -23.0948E+06    -85.4872E+06    -5.00939E+06     4.44705E+06    -53.4123E-03     90.5099E-03    -37.0975E-03     15.6144E-03    -53.4550E-03     90.1821E-03    -36.9651E-03     15.3408E-03
            2296     8.68782E-03     9.33790E-03    -24.1308E+06    -97.0593E+06    -4.03251E+06     4.60106E+06    -48.7242E-03     84.4438E-03    -35.7196E-03     12.6759E-03    -48.7354E-03     84.0368E-03    -35.5641E-03     12.5003E-03
            2297     7.82874E-03     9.31656E-03    -25.6716E+06    -107.974E+06    -4.32744E+06     3.53684E+06    -44.6341E-03     79.1450E-03    -34.5109E-03     10.8152E-03    -44.6238E-03     78.6730E-03    -34.3387E-03     10.6920E-03
            2298     6.96637E-03     9.29871E-03    -27.4315E+06    -114.050E+06    -4.21120E+06     3.02105E+06    -41.1564E-03     74.6200E-03    -33.4636E-03     9.63017E-03    -41.1380E-03     74.1118E-03    -33.2795E-03     9.54644E-03
            2299     6.10117E-03     9.28387E-03    -28.8125E+06    -117.208E+06    -4.99353E+06     3.92136E+06    -38.2608E-03     70.8196E-03    -32.5589E-03     8.75937E-03    -38.2383E-03     70.2934E-03    -32.3721E-03     8.71998E-03
            2300     5.23371E-03     9.27122E-03    -30.0506E+06    -120.478E+06    -8.75010E+06     3.85077E+06    -35.8637E-03     67.6412E-03    -31.7775E-03     7.97105E-03    -35.8336E-03     67.1021E-03    -31.6030E-03     7.95462E-03
            2301     4.36428E-03     9.26064E-03    -31.2894E+06    -122.263E+06    -13.4917E+06     2.77018E+06    -33.8942E-03     65.0125E-03    -31.1183E-03     7.18274E-03    -33.8582E-03     64.4705E-03    -30.9631E-03     7.17043E-03
            2302     3.49325E-03     9.25162E-03    -32.4735E+06    -124.839E+06    -19.1210E+06     1.84206E+06    -32.3336E-03     62.9110E-03    -30.5774E-03     6.15256E-03    -32.2899E-03     62.3643E-03    -30.4449E-03     6.14196E-03
            2303     2.62101E-03     9.24463E-03    -33.6977E+06    -128.081E+06    -25.5749E+06     942.808E+03    -31.1423E-03     61.2903E-03    -30.1480E-03     4.86346E-03    -31.0894E-03     60.7372E-03    -30.0413E-03     4.85195E-03
            2304     1.74787E-03     9.23931E-03    -34.6894E+06    -130.310E+06    -30.3698E+06     316.544E+03    -30.2934E-03     60.1265E-03    -29.8332E-03     3.40639E-03    -30.2345E-03     59.5700E-03    -29.7458E-03     3.39561E-03
            2305     874.121E-06     9.23612E-03    -35.3200E+06    -131.772E+06    -33.6649E+06     102.454E+03    -29.7795E-03     59.3861E-03    -29.6067E-03     1.88168E-03    -29.7162E-03     58.8278E-03    -29.5327E-03     1.87525E-03
            2306     16.2242E-03     8.94100E-03    -4.58313E+06     125.136E+06     89.0958E+06     1.14042E+06    -93.8193E-03     146.385E-03    -52.5657E-03     78.5640E-03    -95.8706E-03     148.606E-03    -52.2950E-03     76.1373E-03
            2307     15.4085E-03     8.79167E-03    -8.86224E+06     122.189E+06     81.2123E+06     836.573E+03    -95.6607E-03     145.939E-03    -50.2788E-03     126.682E-03    -98.5657E-03     149.012E-03    -50.0370E-03     123.282E-03
            2308     14.5902E-03     8.65316E-03    -13.0556E+06     102.859E+06     45.8457E+06     3.13367E+06    -91.1656E-03     138.876E-03    -47.7105E-03     101.375E-03    -93.0802E-03     140.978E-03    -47.6114E-03     98.5295E-03
            2309     13.7643E-03     8.55049E-03    -17.3892E+06     76.7966E+06     3.49270E+06     6.19117E+06    -83.5227E-03     128.664E-03    -45.1417E-03     63.9781E-03    -84.5253E-03     129.870E-03    -45.2104E-03     62.0740E-03
            2310     12.9347E-03     8.48376E-03    -20.1671E+06     33.1157E+06    -11.3294E+06     6.94154E+06    -75.7626E-03     118.641E-03    -42.8789E-03     42.6812E-03    -76.3056E-03     119.265E-03    -42.9543E-03     41.4494E-03
            2311     12.0972E-03     8.42965E-03    -22.0716E+06    -14.7908E+06    -7.32955E+06     6.16212E+06    -68.6671E-03     109.572E-03    -40.9052E-03     32.5542E-03    -68.9815E-03     109.778E-03    -40.8883E-03     31.7434E-03
            2312     11.2551E-03     8.38660E-03    -23.5800E+06    -46.4156E+06    -5.97710E+06     4.84078E+06    -61.9654E-03     101.065E-03    -39.0999E-03     24.3905E-03    -62.1488E-03     101.018E-03    -39.0282E-03     23.8389E-03
            2313     10.4064E-03     8.35482E-03    -24.4314E+06    -69.4068E+06    -4.31746E+06     3.67375E+06    -55.8326E-03     93.3351E-03    -37.5025E-03     19.4804E-03    -55.9347E-03     93.1173E-03    -37.3880E-03     19.1052E-03
            2314     9.55323E-03     8.32903E-03    -24.6858E+06    -84.6923E+06    -1.76218E+06     2.71594E+06    -50.5449E-03     86.6605E-03    -36.1156E-03     16.7487E-03    -50.5988E-03     86.3318E-03    -35.9658E-03     16.4868E-03
            2315     8.69537E-03     8.30908E-03    -24.6674E+06    -96.8588E+06    -105.771E+03     2.53215E+06    -46.0661E-03     80.9877E-03    -34.9216E-03     15.0773E-03    -46.0859E-03     80.5768E-03    -34.7459E-03     14.8975E-03
            2316     7.83410E-03     8.29265E-03    -25.5300E+06    -106.125E+06     318.910E+03     2.71567E+06    -42.3854E-03     76.2847E-03    -33.8992E-03     14.0526E-03    -42.3847E-03     75.8160E-03    -33.7067E-03     13.9326E-03
            2317     6.96989E-03     8.27942E-03    -27.7754E+06    -113.272E+06    -169.161E+03     1.63341E+06    -39.3776E-03     72.4052E-03    -33.0276E-03     13.3571E-03    -39.3691E-03     71.8967E-03    -32.8239E-03     13.2637E-03
            2318     6.10328E-03     8.26793E-03    -29.5108E+06    -117.494E+06    -2.36098E+06     827.704E+03    -36.9460E-03     69.2226E-03    -32.2766E-03     12.6704E-03    -36.9314E-03     68.6931E-03    -32.0752E-03     12.5960E-03
            2319     5.23472E-03     8.25842E-03    -30.2269E+06    -119.061E+06    -6.82685E+06     589.075E+03    -34.9893E-03     66.6126E-03    -31.6233E-03     11.7370E-03    -34.9656E-03     66.0789E-03    -31.4410E-03     11.6814E-03
            2320     4.36462E-03     8.25013E-03    -31.0609E+06    -121.014E+06    -11.7719E+06    -125.110E+03    -33.3861E-03     64.4561E-03    -31.0700E-03     10.5819E-03    -33.3537E-03     63.9180E-03    -30.9083E-03     10.5340E-03
            2321     3.49326E-03     8.24324E-03    -32.2754E+06    -124.040E+06    -17.9779E+06    -667.457E+03    -32.0930E-03     62.7009E-03    -30.6079E-03     9.07108E-03    -32.0514E-03     62.1565E-03    -30.4712E-03     9.02949E-03
            2322     2.62091E-03     8.23761E-03    -33.4689E+06    -127.551E+06    -24.6352E+06    -856.692E+03    -31.0916E-03     61.3272E-03    -30.2355E-03     7.17602E-03    -31.0399E-03     60.7752E-03    -30.1252E-03     7.14235E-03
            2323     1.74776E-03     8.23362E-03    -34.7389E+06    -130.342E+06    -30.0314E+06    -926.735E+03    -30.3469E-03     60.3077E-03    -29.9608E-03     5.07987E-03    -30.2888E-03     59.7506E-03    -29.8716E-03     5.05384E-03
            2324     874.079E-06     8.23093E-03    -35.7974E+06    -132.456E+06    -34.1498E+06    -759.607E+03    -29.9009E-03     59.6746E-03    -29.7738E-03     2.83580E-03    -29.8383E-03     59.1142E-03    -29.7005E-03     2.81878E-03
            2325     16.2359E-03     7.83456E-03    -3.80765E+06     125.063E+06     90.3972E+06     855.403E+03    -100.949E-03     153.203E-03    -52.2537E-03     77.1263E-03    -102.942E-03     155.365E-03    -51.9776E-03     74.3820E-03
            2326     15.4218E-03     7.69741E-03    -9.53574E+06     119.757E+06     80.1286E+06     1.03739E+06    -100.922E-03     150.531E-03    -49.6084E-03     121.270E-03    -103.684E-03     153.453E-03    -49.3676E-03     117.616E-03
            2327     14.6032E-03     7.56228E-03    -15.8605E+06     98.3969E+06     45.5132E+06     4.91607E+06    -93.7557E-03     140.537E-03    -46.7811E-03     92.7625E-03    -95.5010E-03     142.446E-03    -46.6732E-03     89.9546E-03
            2328     13.7822E-03     7.47454E-03    -19.4791E+06     75.2110E+06     7.45031E+06     8.36468E+06    -82.7725E-03     126.883E-03    -44.1108E-03     56.3174E-03    -83.6631E-03     127.953E-03    -44.1543E-03     54.5949E-03
            2329     12.9480E-03     7.41909E-03    -22.3309E+06     35.7795E+06    -7.50523E+06     9.15185E+06    -73.2706E-03     115.148E-03    -41.8775E-03     38.5433E-03    -73.7762E-03     115.725E-03    -41.9345E-03     37.4783E-03
            2330     12.1098E-03     7.37312E-03    -25.0397E+06    -10.6173E+06    -3.30751E+06     7.05333E+06    -65.3720E-03     105.410E-03    -40.0378E-03     30.9214E-03    -65.6860E-03     105.608E-03    -40.0026E-03     30.2256E-03
            2331     11.2634E-03     7.34145E-03    -26.6904E+06    -43.1211E+06    -1.22925E+06     3.91621E+06    -58.0780E-03     96.5249E-03    -38.4470E-03     25.4237E-03    -58.2755E-03     96.4792E-03    -38.3519E-03     24.9412E-03
            2332     10.4116E-03     7.31631E-03    -27.3138E+06    -67.1637E+06     215.015E+03     1.46258E+06    -52.0762E-03     89.1889E-03    -37.1128E-03     22.7779E-03    -52.1981E-03     88.9756E-03    -36.9747E-03     22.4288E-03
            2333     9.55497E-03     7.29804E-03    -27.4717E+06    -83.3515E+06     3.08152E+06    -177.047E+03    -47.2706E-03     83.2814E-03    -36.0108E-03     21.4597E-03    -47.3467E-03     82.9557E-03    -35.8347E-03     21.1957E-03
            2334     8.69460E-03     7.28300E-03    -27.8430E+06    -97.2213E+06     4.91832E+06    -655.262E+03    -43.4647E-03     78.5649E-03    -35.1002E-03     20.7089E-03    -43.5078E-03     78.1502E-03    -34.8942E-03     20.5099E-03
            2335     7.83120E-03     7.27134E-03    -27.7507E+06    -106.002E+06     4.23708E+06    -473.503E+03    -40.5215E-03     74.8539E-03    -34.3323E-03     20.0483E-03    -40.5389E-03     74.3844E-03    -34.1172E-03     19.9006E-03
            2336     6.96551E-03     7.26124E-03    -27.5749E+06    -111.689E+06     2.34076E+06    -789.102E+03    -38.2505E-03     71.9342E-03    -33.6837E-03     19.2800E-03    -38.2479E-03     71.4306E-03    -33.4700E-03     19.1633E-03
            2337     6.09808E-03     7.25295E-03    -28.6764E+06    -116.665E+06    -743.245E+03    -2.26318E+06    -36.4664E-03     69.5996E-03    -33.1332E-03     18.2258E-03    -36.4519E-03     69.0713E-03    -32.9262E-03     18.1166E-03
            2338     5.22931E-03     7.24535E-03    -29.7786E+06    -118.978E+06    -6.43849E+06    -3.33138E+06    -35.0540E-03     67.7037E-03    -32.6497E-03     16.7319E-03    -35.0292E-03     67.1694E-03    -32.4662E-03     16.6291E-03
            2339     4.35950E-03     7.23923E-03    -30.5217E+06    -121.258E+06    -11.4918E+06    -3.24445E+06    -33.9073E-03     66.1475E-03    -32.2402E-03     14.8444E-03    -33.8726E-03     65.6072E-03    -32.0776E-03     14.7589E-03
            2340     3.48870E-03     7.23369E-03    -31.7655E+06    -124.543E+06    -17.6865E+06    -3.02806E+06    -32.9623E-03     64.8572E-03    -31.8949E-03     12.5684E-03    -32.9180E-03     64.3090E-03    -31.7567E-03     12.4985E-03
            2341     2.61717E-03     7.22949E-03    -33.2583E+06    -128.668E+06    -24.8832E+06    -2.61969E+06    -32.2201E-03     63.8348E-03    -31.6147E-03     9.83981E-03    -32.1655E-03     63.2772E-03    -31.5043E-03     9.78510E-03
            2342     1.74507E-03     7.22625E-03    -34.5364E+06    -131.648E+06    -30.1590E+06    -1.83337E+06    -31.6687E-03     63.0849E-03    -31.4162E-03     6.85031E-03    -31.6076E-03     62.5210E-03    -31.3260E-03     6.81374E-03
            2343     872.501E-06     7.22438E-03    -35.8469E+06    -134.310E+06    -34.6009E+06    -994.637E+03    -31.3655E-03     62.6538E-03    -31.2883E-03     3.85310E-03    -31.3000E-03     62.0847E-03    -31.2145E-03     3.83372E-03
            2344     16.2362E-03     6.72919E-03    -3.91735E+06     123.412E+06     89.7998E+06     1.32347E+06    -107.470E-03     159.443E-03    -51.9735E-03     74.7166E-03    -109.357E-03     161.495E-03    -51.6977E-03     71.7741E-03
            2345     15.4270E-03     6.59077E-03    -11.0533E+06     115.210E+06     80.0126E+06     3.58245E+06    -104.840E-03     153.887E-03    -49.0464E-03     114.536E-03    -107.381E-03     156.568E-03    -48.7974E-03     110.839E-03
            2346     14.6184E-03     6.47136E-03    -16.1909E+06     94.9827E+06     49.7362E+06     6.98902E+06    -93.4633E-03     139.560E-03    -46.0968E-03     82.1434E-03    -94.9825E-03     141.219E-03    -45.9623E-03     79.5550E-03
            2347     13.7903E-03     6.40236E-03    -21.0860E+06     72.8892E+06     13.8099E+06     10.4498E+06    -79.3890E-03     122.891E-03    -43.5016E-03     51.3032E-03    -80.1781E-03     123.826E-03    -43.5076E-03     49.8495E-03
            2348     12.9566E-03     6.35656E-03    -25.3726E+06     38.9449E+06    -34.5765E+03     11.1253E+06    -68.7277E-03     110.214E-03    -41.4863E-03     38.6833E-03    -69.2163E-03     110.753E-03    -41.5062E-03     37.8208E-03
            2349     12.1121E-03     6.32369E-03    -27.8566E+06    -4.09044E+06     4.06409E+06     7.23793E+06    -60.0833E-03     100.043E-03    -39.9592E-03     34.3090E-03    -60.4101E-03     100.245E-03    -39.8926E-03     33.7444E-03
            2350     11.2616E-03     6.29966E-03    -28.7900E+06    -38.3654E+06     6.26975E+06     1.67375E+06    -53.2915E-03     92.0362E-03    -38.7448E-03     31.5099E-03    -53.5086E-03     91.9978E-03    -38.6160E-03     31.0842E-03
            2351     10.4057E-03     6.28287E-03    -28.6247E+06    -64.4854E+06     7.28375E+06    -2.13197E+06    -48.1510E-03     85.9401E-03    -37.7891E-03     30.4797E-03    -48.2908E-03     85.7290E-03    -37.6177E-03     30.1380E-03
            2352     9.54571E-03     6.26923E-03    -28.6065E+06    -83.1118E+06     9.56499E+06    -3.53331E+06    -44.3545E-03     81.4040E-03    -37.0495E-03     29.8887E-03    -44.4455E-03     81.0711E-03    -36.8397E-03     29.6152E-03
            2353     8.68304E-03     6.25899E-03    -29.1162E+06    -96.6921E+06     10.9049E+06    -4.41737E+06    -41.6459E-03     78.1104E-03    -36.4646E-03     29.1522E-03    -41.7050E-03     77.6916E-03    -36.2276E-03     28.9254E-03
            2354     7.81835E-03     6.25006E-03    -29.1932E+06    -106.247E+06     9.02593E+06    -5.81255E+06    -39.7143E-03     75.6908E-03    -35.9765E-03     28.0699E-03    -39.7458E-03     75.2154E-03    -35.7350E-03     27.8663E-03
            2355     6.95233E-03     6.24269E-03    -28.1275E+06    -112.093E+06     5.22182E+06    -6.07874E+06    -38.3141E-03     73.8707E-03    -35.5566E-03     26.4242E-03    -38.3182E-03     73.3616E-03    -35.3271E-03     26.2477E-03
            2356     6.08528E-03     6.23595E-03    -27.0684E+06    -116.072E+06     434.611E+03    -6.02673E+06    -37.2177E-03     72.4099E-03    -35.1922E-03     24.3519E-03    -37.1978E-03     71.8803E-03    -34.9825E-03     24.2000E-03
            2357     5.21738E-03     6.23024E-03    -27.7126E+06    -119.907E+06    -6.98057E+06    -6.35006E+06    -36.3366E-03     71.2058E-03    -34.8691E-03     21.8549E-03    -36.2994E-03     70.6643E-03    -34.6900E-03     21.7176E-03
            2358     4.34877E-03     6.22506E-03    -29.2003E+06    -123.233E+06    -12.9394E+06    -5.87525E+06    -35.6212E-03     70.2196E-03    -34.5985E-03     18.9668E-03    -35.5749E-03     69.6692E-03    -34.4421E-03     18.8508E-03
            2359     3.47972E-03     6.22086E-03    -30.8541E+06    -126.555E+06    -18.4878E+06    -4.72952E+06    -35.0301E-03     69.4016E-03    -34.3715E-03     15.7175E-03    -34.9772E-03     68.8428E-03    -34.2357E-03     15.6282E-03
            2360     2.61018E-03     6.21732E-03    -32.7395E+06    -130.973E+06    -25.5024E+06    -3.62236E+06    -34.5623E-03     68.7432E-03    -34.1808E-03     12.1050E-03    -34.5010E-03     68.1738E-03    -34.0709E-03     12.0392E-03
            2361     1.74033E-03     6.21489E-03    -34.4592E+06    -134.285E+06    -30.6708E+06     -2.3739E+06    -34.2302E-03     68.2653E-03    -34.0352E-03     8.29124E-03    -34.1643E-03     67.6886E-03    -33.9438E-03     8.24878E-03
            2362     870.344E-06     6.21317E-03    -35.5303E+06    -136.548E+06    -34.3638E+06    -1.02681E+06    -33.9259E-03     67.9246E-03    -33.9987E-03     4.60698E-03    -33.8562E-03     67.3433E-03    -33.9210E-03     4.58773E-03
            2363     16.2437E-03     5.61921E-03    -4.26433E+06     121.623E+06     88.1200E+06     2.65370E+06    -114.386E-03     166.248E-03    -51.8616E-03     72.5892E-03    -116.139E-03     168.164E-03    -51.5912E-03     69.5076E-03
            2364     15.4402E-03     5.47791E-03    -10.4945E+06     113.063E+06     81.7356E+06     6.13004E+06    -105.267E-03     154.024E-03    -48.7572E-03     107.785E-03    -107.527E-03     156.416E-03    -48.4972E-03     104.298E-03
            2365     14.6212E-03     5.38736E-03    -17.6600E+06     90.1067E+06     55.9875E+06     9.11338E+06    -88.4577E-03     134.405E-03    -45.9475E-03     74.6301E-03    -89.7490E-03     135.796E-03    -45.7726E-03     72.4785E-03
            2366     13.7927E-03     5.33229E-03    -23.2261E+06     69.5002E+06     24.6211E+06     13.2943E+06    -72.8161E-03     116.525E-03    -43.7094E-03     52.4217E-03    -73.5309E-03     117.336E-03    -43.6534E-03     51.3110E-03
            2367     12.9499E-03     5.30221E-03    -26.8067E+06     44.2096E+06     11.1577E+06     12.4717E+06    -61.8563E-03     103.985E-03    -42.1292E-03     45.7156E-03    -62.3380E-03     104.499E-03    -42.0986E-03     45.0743E-03
            2368     12.1004E-03     5.27872E-03    -28.5584E+06     5.68408E+06     14.0220E+06     4.80011E+06    -54.2316E-03     95.3029E-03    -41.0713E-03     44.3490E-03    -54.5741E-03     95.5249E-03    -40.9680E-03     43.8795E-03
            2369     11.2446E-03     5.26289E-03    -28.2302E+06    -33.2948E+06     15.2454E+06    -2.56993E+06    -48.8831E-03     89.2016E-03    -40.3185E-03     42.8672E-03    -49.1095E-03     89.1663E-03    -40.1531E-03     42.4659E-03
            2370     10.3852E-03     5.25098E-03    -27.8718E+06    -62.6348E+06     15.3225E+06    -6.18241E+06    -45.3552E-03     85.1295E-03    -39.7743E-03     41.8847E-03    -45.5013E-03     84.9103E-03    -39.5664E-03     41.5390E-03
            2371     9.52344E-03     5.24162E-03    -27.8504E+06    -83.3540E+06     16.7030E+06    -8.09087E+06    -43.0481E-03     82.4285E-03    -39.3803E-03     40.5036E-03    -43.1426E-03     82.0797E-03    -39.1356E-03     40.2014E-03
            2372     8.65997E-03     5.23352E-03    -27.1766E+06    -96.0705E+06     16.1316E+06    -9.55116E+06    -41.5874E-03     80.6531E-03    -39.0657E-03     38.4726E-03    -41.6434E-03     80.2244E-03    -38.8063E-03     38.1990E-03
            2373     7.79574E-03     5.22663E-03    -26.6049E+06    -106.089E+06     12.0653E+06    -11.1614E+06    -40.6675E-03     79.4579E-03    -38.7904E-03     35.9010E-03    -40.6892E-03     78.9730E-03    -38.5377E-03     35.6416E-03
            2374     6.93094E-03     5.22028E-03    -26.5470E+06    -114.295E+06     5.51075E+06    -11.8002E+06    -39.9988E-03     78.5354E-03    -38.5366E-03     32.8341E-03    -39.9909E-03     78.0108E-03    -38.3048E-03     32.5933E-03
            2375     6.06566E-03     5.21494E-03    -26.4241E+06    -118.400E+06    -1.60430E+06    -10.6484E+06    -39.4521E-03     77.7510E-03    -38.2989E-03     29.4065E-03    -39.4218E-03     77.2103E-03    -38.0969E-03     29.2020E-03
            2376     5.19995E-03     5.20991E-03    -26.4311E+06    -122.537E+06    -8.56066E+06    -8.84167E+06    -38.9666E-03     77.0510E-03    -38.0845E-03     25.6826E-03    -38.9162E-03     76.4957E-03    -37.9113E-03     25.5183E-03
            2377     4.33396E-03     5.20577E-03    -27.5803E+06    -126.364E+06    -14.8205E+06    -7.22824E+06    -38.5341E-03     76.4322E-03    -37.8981E-03     21.7729E-03    -38.4721E-03     75.8656E-03    -37.7490E-03     21.6431E-03
            2378     3.46754E-03     5.20198E-03    -29.5520E+06    -130.043E+06    -20.3999E+06    -5.46778E+06    -38.1706E-03     75.9100E-03    -37.7395E-03     17.6764E-03    -38.1032E-03     75.3341E-03    -37.6100E-03     17.5800E-03
            2379     2.60094E-03     5.19921E-03    -31.5489E+06    -133.992E+06    -26.2657E+06    -3.64178E+06    -37.8726E-03     75.4747E-03    -37.6021E-03     13.4096E-03    -37.7998E-03     74.8893E-03    -37.4934E-03     13.3450E-03
            2380     1.73411E-03     5.19696E-03    -33.4018E+06    -137.271E+06    -31.2246E+06    -2.23333E+06    -37.6331E-03     75.1247E-03    -37.4916E-03     9.14178E-03    -37.5569E-03     74.5320E-03    -37.4003E-03     9.10204E-03
            2381     867.112E-06     5.19574E-03    -34.3747E+06    -138.967E+06    -33.9627E+06    -1.05357E+06    -37.4310E-03     74.8781E-03    -37.4471E-03     4.94559E-03    -37.3526E-03     74.2822E-03    -37.3656E-03     4.92641E-03
            2382     16.2383E-03     4.48639E-03    -6.15453E+06     118.402E+06     84.4344E+06     3.64289E+06    -116.992E-03     169.285E-03    -52.2936E-03     77.5428E-03    -118.642E-03     171.093E-03    -52.0342E-03     74.4841E-03
            2383     15.4341E-03     4.37616E-03    -11.7250E+06     109.101E+06     79.7605E+06     8.24803E+06    -101.442E-03     150.702E-03    -49.2592E-03     106.119E-03    -103.423E-03     152.803E-03    -49.0016E-03     103.076E-03
            2384     14.6136E-03     4.30494E-03    -18.6126E+06     85.3705E+06     59.2472E+06     12.3035E+06    -79.6030E-03     126.466E-03    -46.8627E-03     76.6158E-03    -80.6904E-03     127.623E-03    -46.6633E-03     75.0234E-03
            2385     13.7732E-03     4.27382E-03    -23.5505E+06     67.4862E+06     35.8511E+06     14.7489E+06    -63.9772E-03     109.217E-03    -45.2398E-03     62.9220E-03    -64.6261E-03     109.921E-03    -45.1243E-03     62.1524E-03
            2386     12.9238E-03     4.25275E-03    -25.1997E+06     53.8325E+06     23.8216E+06     10.4415E+06    -55.1581E-03     99.3919E-03    -44.2338E-03     60.4734E-03    -55.6302E-03     99.8982E-03    -44.1562E-03     59.9911E-03
            2387     12.0688E-03     4.23783E-03    -24.4554E+06     16.5568E+06     22.3246E+06    -58.6247E+03    -50.1438E-03     93.7958E-03    -43.6520E-03     58.8796E-03    -50.4725E-03     94.0324E-03    -43.5289E-03     58.4543E-03
            2388     11.2103E-03     4.22699E-03    -24.3698E+06    -30.7685E+06     20.6689E+06    -6.93212E+06    -47.1239E-03     90.4167E-03    -43.2928E-03     56.1890E-03    -47.3289E-03     90.3658E-03    -43.1095E-03     55.7964E-03
            2389     10.3500E-03     4.21803E-03    -25.0599E+06    -60.9104E+06     19.1379E+06    -9.96667E+06    -45.4539E-03     88.4902E-03    -43.0364E-03     52.9149E-03    -45.5842E-03     88.2591E-03    -42.8160E-03     52.5615E-03
            2390     9.48891E-03     4.21047E-03    -25.1358E+06    -82.5943E+06     18.7059E+06    -13.4834E+06    -44.5355E-03     87.3758E-03    -42.8402E-03     49.1596E-03    -44.6133E-03     87.0157E-03    -42.5905E-03     48.8151E-03
            2391     8.62750E-03     4.20358E-03    -24.0103E+06    -96.2026E+06     14.9707E+06    -15.9042E+06    -44.0128E-03     86.6599E-03    -42.6471E-03     45.0101E-03    -44.0457E-03     86.2214E-03    -42.3980E-03     44.6738E-03
            2392     7.76581E-03     4.19729E-03    -22.6981E+06    -107.937E+06     8.39630E+06    -16.3148E+06    -43.6520E-03     86.1029E-03    -42.4509E-03     40.5305E-03    -43.6422E-03     85.6037E-03    -42.2195E-03     40.2185E-03
            2393     6.90386E-03     4.19185E-03    -22.6160E+06    -117.652E+06     1.18342E+06    -15.2377E+06    -43.3300E-03     85.5868E-03    -42.2568E-03     35.9553E-03    -43.2885E-03     85.0426E-03    -42.0475E-03     35.6803E-03
            2394     6.04175E-03     4.18685E-03    -23.7786E+06    -123.122E+06    -6.95411E+06    -13.3448E+06    -43.0047E-03     85.0633E-03    -42.0586E-03     31.4086E-03    -42.9447E-03     84.5006E-03    -41.8804E-03     31.1764E-03
            2395     5.17946E-03     4.18266E-03    -25.1202E+06    -127.453E+06    -13.0217E+06    -10.6230E+06    -42.6679E-03     84.5437E-03    -41.8758E-03     26.8926E-03    -42.5962E-03     83.9668E-03    -41.7197E-03     26.7104E-03
            2396     4.31677E-03     4.17891E-03    -26.4290E+06    -130.740E+06    -17.5567E+06    -7.73019E+06    -42.3147E-03     84.0254E-03    -41.7106E-03     22.4062E-03    -42.2360E-03     83.4383E-03    -41.5705E-03     22.2734E-03
            2397     3.45388E-03     4.17582E-03    -28.0778E+06    -134.253E+06    -22.6821E+06    -5.20208E+06    -41.9754E-03     83.5373E-03    -41.5619E-03     17.9393E-03    -41.8908E-03     82.9410E-03    -41.4400E-03     17.8486E-03
            2398     2.59068E-03     4.17327E-03    -29.8812E+06    -137.548E+06    -27.5493E+06    -2.95020E+06    -41.6897E-03     83.1277E-03    -41.4380E-03     13.4770E-03    -41.6014E-03     82.5237E-03    -41.3330E-03     13.4227E-03
            2399     1.72726E-03     4.17162E-03    -31.3578E+06    -139.626E+06    -30.6194E+06    -1.31923E+06    -41.4624E-03     82.8114E-03    -41.3490E-03     9.08010E-03    -41.3734E-03     82.2029E-03    -41.2542E-03     9.05293E-03
            2400     863.591E-06     4.17044E-03    -32.4794E+06    -140.834E+06    -32.3495E+06    -646.764E+03    -41.3414E-03     82.6206E-03    -41.2792E-03     4.93063E-03    -41.2531E-03     82.0103E-03    -41.1897E-03     4.91702E-03
            2401     16.2163E-03     3.35462E-03    -6.13542E+06     113.249E+06     79.9539E+06     5.29596E+06    -110.345E-03     164.056E-03    -53.7105E-03     85.3223E-03    -111.795E-03     165.660E-03    -53.4660E-03     82.7027E-03
            2402     15.4090E-03     3.27280E-03    -12.5869E+06     101.271E+06     74.5955E+06     10.1302E+06    -91.1577E-03     142.335E-03    -51.1769E-03     106.406E-03    -92.7475E-03     144.032E-03    -50.9325E-03     104.103E-03
            2403     14.5758E-03     3.23754E-03    -16.7275E+06     82.2691E+06     61.3468E+06     13.7992E+06    -69.4254E-03     118.883E-03    -49.4577E-03     87.2705E-03    -70.3077E-03     119.825E-03    -49.2460E-03     86.1917E-03
            2404     13.7280E-03     3.21965E-03    -17.8736E+06     71.7238E+06     46.8532E+06     11.2112E+06    -57.8164E-03     106.295E-03    -48.4787E-03     80.3671E-03    -58.3823E-03     106.917E-03    -48.3225E-03     79.8002E-03
            2405     12.8745E-03     3.20609E-03    -15.6588E+06     63.9526E+06     30.7684E+06     4.24728E+06    -53.2232E-03     101.102E-03    -47.8784E-03     76.0737E-03    -53.6264E-03     101.586E-03    -47.7946E-03     75.6450E-03
            2406     12.0183E-03     3.19526E-03    -15.9208E+06     23.4184E+06     17.2982E+06    -2.52965E+06    -51.0160E-03     98.5268E-03    -47.5108E-03     70.0562E-03    -51.2699E-03     98.7554E-03    -47.4351E-03     69.6857E-03
            2407     11.1617E-03     3.18622E-03    -18.5541E+06    -28.5742E+06     11.8888E+06    -8.42979E+06    -49.9658E-03     97.2475E-03    -47.2817E-03     63.4047E-03    -50.1083E-03     97.1863E-03    -47.1539E-03     63.0480E-03
            2408     10.3051E-03     3.17872E-03    -19.6500E+06    -58.4998E+06     8.13239E+06    -13.4570E+06    -49.3713E-03     96.4304E-03    -47.0591E-03     56.9804E-03    -49.4453E-03     96.2014E-03    -46.9051E-03     56.6202E-03
            2409     9.44809E-03     3.17170E-03    -19.1258E+06    -80.6098E+06     4.93276E+06    -17.8419E+06    -48.9824E-03     95.8189E-03    -46.8364E-03     50.8039E-03    -49.0011E-03     95.4672E-03    -46.6672E-03     50.4313E-03
            2410     8.59094E-03     3.16542E-03    -19.0169E+06    -98.0991E+06     602.646E+03    -20.0503E+06    -48.5874E-03     95.1925E-03    -46.6051E-03     44.9027E-03    -48.5633E-03     94.7492E-03    -46.4323E-03     44.5341E-03
            2411     7.73344E-03     3.15980E-03    -19.6021E+06    -112.231E+06    -5.34063E+06    -19.2480E+06    -48.1483E-03     94.5146E-03    -46.3663E-03     39.3425E-03    -48.0909E-03     94.0031E-03    -46.2019E-03     39.0088E-03
            2412     6.87571E-03     3.15487E-03    -20.1638E+06    -123.105E+06    -10.3230E+06    -16.9065E+06    -47.6957E-03     93.8307E-03    -46.1349E-03     34.1379E-03    -47.6134E-03     93.2682E-03    -45.9788E-03     33.8534E-03
            2413     6.01746E-03     3.15068E-03    -21.0522E+06    -129.352E+06    -14.4623E+06    -13.3754E+06    -47.2192E-03     93.1313E-03    -45.9120E-03     29.2728E-03    -47.1229E-03     92.5417E-03    -45.7663E-03     29.0491E-03
            2414     5.15874E-03     3.14697E-03    -23.0249E+06    -133.102E+06    -18.8957E+06    -9.97837E+06    -46.7491E-03     92.4491E-03    -45.7000E-03     24.7143E-03    -46.6485E-03     91.8478E-03    -45.5681E-03     24.5467E-03
            2415     4.29982E-03     3.14392E-03    -25.2548E+06    -136.115E+06    -22.2187E+06    -6.96179E+06    -46.2963E-03     91.8073E-03    -45.5110E-03     20.3944E-03    -46.1960E-03     91.1974E-03    -45.3881E-03     20.2758E-03
            2416     3.44038E-03     3.14139E-03    -27.1746E+06    -138.686E+06    -25.3360E+06    -3.99036E+06    -45.8646E-03     91.2120E-03    -45.3474E-03     16.2168E-03    -45.7647E-03     90.5956E-03    -45.2336E-03     16.1446E-03
            2417     2.58057E-03     3.13944E-03    -28.7102E+06    -140.652E+06    -28.0313E+06    -1.88277E+06    -45.5098E-03     90.7270E-03    -45.2172E-03     12.1347E-03    -45.4100E-03     90.1062E-03    -45.1118E-03     12.0961E-03
            2418     1.72052E-03     3.13798E-03    -29.5557E+06    -141.238E+06    -28.8042E+06    -729.755E+03    -45.2635E-03     90.3892E-03    -45.1257E-03     8.14569E-03    -45.1656E-03     89.7674E-03    -45.0221E-03     8.12721E-03
            2419     860.419E-06     3.13718E-03    -29.8660E+06    -141.700E+06    -29.7245E+06    -204.177E+03    -45.0695E-03     90.1658E-03    -45.0963E-03     4.42365E-03    -44.9706E-03     89.5437E-03    -44.9962E-03     4.41631E-03
            2420     16.1767E-03     2.23165E-03    -4.63880E+06     108.306E+06     78.0762E+06     7.78552E+06    -95.9226E-03     152.553E-03    -56.6307E-03     102.414E-03    -97.1482E-03     153.929E-03    -56.3906E-03     100.490E-03
            2421     15.3488E-03     2.18578E-03    -10.1038E+06     94.6007E+06     72.9115E+06     11.0808E+06    -78.6640E-03     133.575E-03    -54.9107E-03     113.610E-03    -79.8135E-03     134.819E-03    -54.6687E-03     112.118E-03
            2422     14.5070E-03     2.17495E-03    -10.6030E+06     85.1603E+06     66.8984E+06     8.56707E+06    -65.6411E-03     119.458E-03    -53.8165E-03     98.3966E-03    -66.2972E-03     120.184E-03    -53.5901E-03     97.6338E-03
            2423     13.6583E-03     2.16265E-03    -7.39346E+06     79.4428E+06     47.3655E+06     2.52427E+06    -61.1956E-03     114.228E-03    -53.0320E-03     89.2323E-03    -61.6189E-03     114.765E-03    -52.8996E-03     88.7304E-03
            2424     12.8095E-03     2.15214E-03    -6.09522E+06     66.1163E+06     15.5731E+06     903.271E+03    -59.4650E-03     111.794E-03    -52.3291E-03     77.0004E-03    -59.7304E-03     112.224E-03    -52.3383E-03     76.6458E-03
            2425     11.9608E-03     2.14276E-03    -8.03636E+06     26.4806E+06    -4.16943E+06    -597.874E+03    -57.8973E-03     109.684E-03    -51.7865E-03     65.8494E-03    -58.0385E-03     109.899E-03    -51.8341E-03     65.5843E-03
            2426     11.1113E-03     2.13533E-03    -10.1711E+06    -22.7162E+06    -12.7920E+06    -7.45849E+06    -56.7353E-03     108.094E-03    -51.3587E-03     56.6829E-03    -56.7775E-03     108.054E-03    -51.3750E-03     56.3991E-03
            2427     10.2607E-03     2.12863E-03    -11.0844E+06    -55.2388E+06    -19.9311E+06    -14.4079E+06    -55.8427E-03     106.779E-03    -50.9366E-03     48.9688E-03    -55.8169E-03     106.574E-03    -50.9401E-03     48.6421E-03
            2428     9.40963E-03     2.12273E-03    -11.9124E+06    -79.7948E+06    -24.6624E+06    -17.9836E+06    -54.8939E-03     105.426E-03    -50.5322E-03     42.2616E-03    -54.8204E-03     105.097E-03    -50.5225E-03     41.9224E-03
            2429     8.55761E-03     2.11760E-03    -13.6424E+06    -101.293E+06    -26.9884E+06    -18.7060E+06    -53.8827E-03     104.044E-03    -50.1612E-03     36.4453E-03    -53.7773E-03     103.607E-03    -50.1295E-03     36.1216E-03
            2430     7.70472E-03     2.11316E-03    -15.8086E+06    -117.293E+06    -28.1485E+06    -17.5263E+06    -52.8997E-03     102.719E-03    -49.8197E-03     31.3818E-03    -52.7762E-03     102.204E-03    -49.7675E-03     31.0920E-03
            2431     6.85081E-03     2.10934E-03    -18.1926E+06    -129.486E+06    -26.7516E+06    -15.0575E+06    -51.9996E-03     101.518E-03    -49.5184E-03     26.8821E-03    -51.8697E-03     100.941E-03    -49.4380E-03     26.6384E-03
            2432     5.99632E-03     2.10608E-03    -20.5041E+06    -136.678E+06    -23.9814E+06    -11.4132E+06    -51.1783E-03     100.427E-03    -49.2490E-03     22.7931E-03    -51.0517E-03     99.8114E-03    -49.1410E-03     22.6074E-03
            2433     5.14115E-03     2.10340E-03    -22.5120E+06    -138.746E+06    -24.4871E+06    -7.40947E+06    -50.4188E-03     99.4094E-03    -48.9906E-03     19.0732E-03    -50.2972E-03     98.7856E-03    -48.8792E-03     18.9483E-03
            2434     4.28515E-03     2.10111E-03    -24.8190E+06    -140.936E+06    -26.4217E+06    -4.35195E+06    -49.7645E-03     98.5287E-03    -48.7642E-03     15.6348E-03    -49.6476E-03     97.8993E-03    -48.6560E-03     15.5568E-03
            2435     3.42878E-03     2.09936E-03    -26.7733E+06    -142.176E+06    -27.3607E+06    -2.28892E+06    -49.2331E-03     97.8119E-03    -48.5788E-03     12.3754E-03    -49.1223E-03     97.1799E-03    -48.4706E-03     12.3299E-03
            2436     2.57199E-03     2.09796E-03    -27.6438E+06    -142.433E+06    -27.4740E+06    -1.25548E+06    -48.8057E-03     97.2378E-03    -48.4321E-03     9.23690E-03    -48.6983E-03     96.6057E-03    -48.3229E-03     9.20955E-03
            2437     1.71484E-03     2.09694E-03    -27.7938E+06    -142.379E+06    -27.5464E+06    -842.985E+03    -48.4855E-03     96.8118E-03    -48.3264E-03     6.18947E-03    -48.3785E-03     96.1800E-03    -48.2173E-03     6.17146E-03
            2438     857.374E-06     2.09632E-03    -27.8123E+06    -142.431E+06    -27.7638E+06    -312.777E+03    -48.2938E-03     96.5663E-03    -48.2725E-03     3.33945E-03    -48.1860E-03     95.9349E-03    -48.1645E-03     3.33174E-03
            2439     16.0919E-03     1.12567E-03    -1.27189E+06     106.837E+06     83.0049E+06     8.49947E+06    -93.9875E-03     155.359E-03    -61.3713E-03     118.712E-03    -94.9138E-03     156.412E-03    -61.1094E-03     117.339E-03
            2440     15.2595E-03     1.10645E-03    -1.12066E+06     99.6742E+06     80.7078E+06     5.58315E+06    -83.2486E-03     143.015E-03    -59.7659E-03     100.093E-03    -83.9078E-03     143.785E-03    -59.5053E-03     99.2368E-03
            2441     14.4226E-03     1.10005E-03    -1.26371E+06     91.7908E+06     63.8222E+06    -575.423E+03    -76.4295E-03     134.866E-03    -58.4361E-03     75.9092E-03    -76.8137E-03     135.381E-03    -58.2483E-03     75.4226E-03
            2442     13.5890E-03     1.08905E-03    -1.80028E+06     79.9812E+06     29.4770E+06    -1.62182E+06    -72.8909E-03     130.099E-03    -57.2082E-03     61.4395E-03    -73.1365E-03     130.533E-03    -57.1742E-03     61.1051E-03
            2443     12.7543E-03     1.08150E-03    -3.09384E+06     62.1127E+06    -5.74444E+06     1.18594E+06    -69.4790E-03     125.574E-03    -56.0955E-03     49.2959E-03    -69.6180E-03     125.937E-03    -56.2098E-03     49.0983E-03
            2444     11.9152E-03     1.07686E-03    -2.11389E+06     29.2394E+06    -26.6573E+06     615.970E+03    -66.4809E-03     121.658E-03    -55.1776E-03     40.6507E-03    -66.5199E-03     121.869E-03    -55.3502E-03     40.5101E-03
            2445     11.0727E-03     1.07201E-03    -1.30486E+06    -15.3032E+06    -39.6411E+06    -4.64179E+06    -63.9776E-03     118.386E-03    -54.4081E-03     33.9423E-03    -63.9193E-03     118.382E-03    -54.5823E-03     33.7779E-03
            2446     10.2286E-03     1.06764E-03    -2.88619E+06    -52.2218E+06    -48.8011E+06    -9.59082E+06    -61.7886E-03     115.517E-03    -53.7281E-03     28.4141E-03    -61.6660E-03     115.339E-03    -53.8922E-03     28.2123E-03
            2447     9.38231E-03     1.06421E-03    -6.22832E+06    -80.6454E+06    -52.8419E+06    -11.3820E+06    -59.7976E-03     112.933E-03    -53.1351E-03     24.0194E-03    -59.6414E-03     112.621E-03    -53.2734E-03     23.8134E-03
            2448     8.53431E-03     1.06125E-03    -10.1215E+06    -103.862E+06    -51.9709E+06    -11.6732E+06    -58.0314E-03     110.659E-03    -52.6280E-03     20.4597E-03    -57.8601E-03     110.234E-03    -52.7226E-03     20.2641E-03
            2449     7.68472E-03     1.05883E-03    -13.8592E+06    -122.035E+06    -48.0075E+06    -10.6385E+06    -56.4820E-03     108.675E-03    -52.1929E-03     17.4435E-03    -56.3075E-03     108.157E-03    -52.2359E-03     17.2715E-03
            2450     6.83397E-03     1.05665E-03    -17.6488E+06    -134.481E+06    -42.1410E+06    -8.56137E+06    -55.1260E-03     106.946E-03    -51.8195E-03     14.8317E-03    -54.9600E-03     106.361E-03    -51.8096E-03     14.6943E-03
            2451     5.98196E-03     1.05486E-03    -21.1040E+06    -142.049E+06    -35.7429E+06    -6.68333E+06    -53.9614E-03     105.460E-03    -51.4987E-03     12.5012E-03    -53.8104E-03     104.833E-03    -51.4408E-03     12.3941E-03
            2452     5.12900E-03     1.05344E-03    -23.6191E+06    -144.310E+06    -31.1761E+06    -4.03679E+06    -52.9785E-03     104.192E-03    -51.2138E-03     10.4064E-03    -52.8430E-03     103.551E-03    -51.1262E-03     10.3383E-03
            2453     4.27538E-03     1.05230E-03    -25.0836E+06    -143.883E+06    -28.7253E+06    -1.59980E+06    -52.1654E-03     103.130E-03    -50.9647E-03     8.48039E-03    -52.0411E-03     102.489E-03    -50.8633E-03     8.44774E-03
            2454     3.42100E-03     1.05130E-03    -25.9140E+06    -143.578E+06    -27.6653E+06    -998.110E+03    -51.5227E-03     102.280E-03    -50.7570E-03     6.68593E-03    -51.4043E-03     101.640E-03    -50.6496E-03     6.66418E-03
            2455     2.56620E-03     1.05057E-03    -26.2297E+06    -143.220E+06    -27.0024E+06    -890.163E+03    -51.0276E-03     101.621E-03    -50.5930E-03     4.98413E-03    -50.9121E-03     100.982E-03    -50.4824E-03     4.96633E-03
            2456     1.71103E-03     1.05009E-03    -26.5565E+06    -143.248E+06    -26.9816E+06    -663.095E+03    -50.6681E-03     101.141E-03    -50.4730E-03     3.34588E-03    -50.5542E-03     100.502E-03    -50.3616E-03     3.33331E-03
            2457     855.644E-06     1.04976E-03    -26.8950E+06    -143.345E+06    -27.0070E+06    -428.713E+03    -50.4976E-03     100.851E-03    -50.3531E-03     1.81170E-03    -50.3845E-03     100.212E-03    -50.2412E-03     1.80417E-03


