********************************************************************************
Field Output Report, written Tue May 28 21:33:07 2024

Source 1
---------

   ODB: G:/Abaqus_calc_2019/1740/Vel_10/odb/zeides_2a_24_red_2000_cal_10_vel_10_fric_050.odb
   Step: Step-1
   Frame: Increment  14270284: Step Time =    1.459

Loc 1 : Nodal values from source 1

Output sorted by column "Nodal Label".

Field Output reported at nodes for region: DIE_2A_24_D0_36-1.Region_1
   Computation algorithm: EXTRAPOLATE_COMPUTE_AVERAGE
   Averaged at nodes
   Averaging regions: ODB_REGIONS

      Node Label     COORD.COOR1     COORD.COOR2
                          @Loc 1          @Loc 1
-------------------------------------------------
               1     17.3939E-03     180.530E-03


Field Output reported at nodes for region: DIE_2A_24_D0_36-1.Region_2
   Computation algorithm: EXTRAPOLATE_COMPUTE_AVERAGE
   Averaged at nodes
   Averaging regions: ODB_REGIONS

      Node Label     COORD.COOR1     COORD.COOR2
                          @Loc 1          @Loc 1
-------------------------------------------------
               1     17.3939E-03     180.530E-03


Field Output reported at nodes for part: WIRE-1
   Computation algorithm: EXTRAPOLATE_COMPUTE_AVERAGE
   Averaged at nodes
   Averaging regions: ODB_REGIONS

      Node Label     COORD.COOR1     COORD.COOR2           S.S11           S.S22           S.S33           S.S12         PE.PE11         PE.PE22         PE.PE33         PE.PE12         LE.LE11         LE.LE22         LE.LE33         LE.LE12
                          @Loc 1          @Loc 1          @Loc 1          @Loc 1          @Loc 1          @Loc 1          @Loc 1          @Loc 1          @Loc 1          @Loc 1          @Loc 1          @Loc 1          @Loc 1          @Loc 1
-------------------------------------------------------------------------------------------------------------------------------------------------------------------------------------------------------------------------------------------------
               1     204.357E-09     84.5261E-03    -146.354E+06    -290.667E+06    -146.646E+06     850.560E+03    -225.416E-03     450.381E-03    -224.965E-03     11.2303E-03    -225.530E-03     449.369E-03    -225.065E-03     9.98132E-03
               2     14.3764E-03     87.3729E-03    -3.00823E+06     79.1694E+06     89.6576E+06     635.952E+03    -224.484E-03     449.671E-03    -225.186E-03     60.1806E-03    -225.807E-03     451.004E-03    -224.849E-03     47.6665E-03
               3     14.4018E-03     174.094E-03    -41.0370E+06     44.0103E+06     50.2846E+06    -26.8837E+06    -97.5847E-03     323.479E-03    -225.894E-03    -12.4590E-03    -97.8414E-03     323.772E-03    -225.647E-03    -13.6195E-03
               4    -7.00440E-06     169.573E-03     17.3875E+06    -24.1065E+06     4.18498E+06    -8.66113E+06    -246.667E-03     500.403E-03    -253.737E-03    -48.4635E-03    -246.961E-03     499.790E-03    -253.706E-03    -49.4149E-03
               5     634.067E-09     5.16254E-15    -72.3982E+06    -254.415E+06    -72.4455E+06    -1.75602E+06    -204.800E-03     409.250E-03    -204.451E-03     1.65707E-03    -204.686E-03     408.189E-03    -204.339E-03     1.56589E-03
               6     14.1990E-03     5.16254E-15    -189.078E+03     94.1360E+06     97.8632E+06    -2.67482E+06    -427.383E-03     656.397E-03    -229.015E-03     198.142E-03    -431.632E-03     660.737E-03    -228.661E-03     167.467E-03
               7     718.454E-06     84.5410E-03    -144.829E+06    -281.831E+06    -142.009E+06     790.308E+03    -225.300E-03     450.360E-03    -225.060E-03     18.9519E-03    -225.462E-03     449.420E-03    -225.152E-03     16.8424E-03
               8     1.43700E-03     84.5774E-03    -140.939E+06    -265.244E+06    -129.272E+06     283.589E+03    -225.298E-03     450.466E-03    -225.168E-03     35.0165E-03    -225.595E-03     449.696E-03    -225.225E-03     31.1192E-03
               9     2.15573E-03     84.6361E-03    -134.214E+06    -244.710E+06    -110.726E+06    -276.369E+03    -225.601E-03     450.810E-03    -225.209E-03     51.4124E-03    -226.104E-03     450.289E-03    -225.213E-03     45.6563E-03
              10     2.87411E-03     84.7166E-03    -125.425E+06    -222.236E+06    -88.8785E+06    -165.262E+03    -225.884E-03     451.152E-03    -225.268E-03     67.3043E-03    -226.657E-03     450.949E-03    -225.208E-03     59.6988E-03
              11     3.59266E-03     84.8184E-03    -116.138E+06    -197.386E+06    -66.5965E+06    -18.8753E+03    -226.145E-03     451.453E-03    -225.308E-03     82.6302E-03    -227.256E-03     451.644E-03    -225.186E-03     73.1790E-03
              12     4.31117E-03     84.9399E-03    -106.068E+06    -168.860E+06    -45.5638E+06    -171.911E+03    -226.571E-03     451.898E-03    -225.326E-03     97.2712E-03    -228.073E-03     452.556E-03    -225.156E-03     86.0154E-03
              13     5.02996E-03     85.0807E-03    -95.6122E+06    -142.484E+06    -26.0994E+06    -266.129E+03    -227.025E-03     452.370E-03    -225.345E-03     110.815E-03    -228.949E-03     453.524E-03    -225.130E-03     97.8496E-03
              14     5.74876E-03     85.2383E-03    -85.2866E+06    -116.113E+06    -8.39106E+06    -464.306E+03    -227.413E-03     452.768E-03    -225.355E-03     122.811E-03    -229.773E-03     454.437E-03    -225.105E-03     108.264E-03
              15     6.46749E-03     85.4110E-03    -75.4341E+06    -88.2914E+06     7.63186E+06    -599.960E+03    -227.754E-03     453.108E-03    -225.355E-03     132.974E-03    -230.538E-03     455.290E-03    -225.079E-03     117.026E-03
              16     7.18645E-03     85.5963E-03    -65.8683E+06    -58.8392E+06     22.8467E+06    -685.665E+03    -228.076E-03     453.426E-03    -225.350E-03     141.242E-03    -231.249E-03     456.090E-03    -225.055E-03     124.104E-03
              17     7.90500E-03     85.7915E-03    -56.5190E+06    -24.9030E+06     37.7672E+06    -866.395E+03    -228.284E-03     453.626E-03    -225.342E-03     147.423E-03    -231.790E-03     456.733E-03    -225.035E-03     129.325E-03
              18     8.62352E-03     85.9933E-03    -47.4962E+06     15.0398E+06     52.0445E+06     586.162E+03    -228.214E-03     453.533E-03    -225.318E-03     151.534E-03    -231.985E-03     457.037E-03    -225.011E-03     132.735E-03
              19     9.34265E-03     86.1982E-03    -39.1267E+06     43.0820E+06     62.0920E+06     1.08042E+06    -228.004E-03     453.284E-03    -225.280E-03     153.690E-03    -231.942E-03     457.056E-03    -224.975E-03     134.376E-03
              20     10.0622E-03     86.4030E-03    -31.0452E+06     50.5732E+06     68.8500E+06    -820.462E+03    -227.814E-03     453.065E-03    -225.250E-03     153.418E-03    -231.808E-03     456.928E-03    -224.934E-03     133.689E-03
              21     10.7809E-03     86.6059E-03    -23.8723E+06     51.1971E+06     75.7838E+06    -235.525E+03    -227.532E-03     452.770E-03    -225.238E-03     150.226E-03    -231.488E-03     456.604E-03    -224.899E-03     130.262E-03
              22     11.5003E-03     86.8005E-03    -18.7246E+06     59.1940E+06     83.7595E+06     2.31904E+06    -227.042E-03     452.274E-03    -225.232E-03     143.918E-03    -230.895E-03     456.028E-03    -224.872E-03     123.895E-03
              23     12.2197E-03     86.9842E-03    -14.7665E+06     70.5646E+06     90.4363E+06     1.91162E+06    -226.339E-03     451.565E-03    -225.226E-03     131.738E-03    -229.897E-03     455.059E-03    -224.855E-03     112.086E-03
              24     12.9368E-03     87.1446E-03    -10.1729E+06     76.7916E+06     92.9349E+06     654.179E+03    -225.731E-03     450.947E-03    -225.216E-03     121.915E-03    -229.145E-03     454.328E-03    -224.848E-03     102.104E-03
              25     13.6560E-03     87.2989E-03    -5.19372E+06     79.3204E+06     91.5555E+06     759.531E+03    -225.008E-03     450.207E-03    -225.198E-03     90.2747E-03    -227.423E-03     452.618E-03    -224.848E-03     73.8458E-03
              26     14.3748E-03     88.8580E-03    -3.20492E+06     79.7063E+06     91.0292E+06    -330.245E+03    -223.737E-03     448.935E-03    -225.198E-03     58.8407E-03    -225.058E-03     450.263E-03    -224.853E-03     46.3178E-03
              27     14.3766E-03     90.3405E-03    -2.09493E+06     80.1292E+06     90.8637E+06    -29.4523E+03    -224.373E-03     449.540E-03    -225.167E-03     58.3651E-03    -225.685E-03     450.866E-03    -224.826E-03     45.8055E-03
              28     14.3752E-03     91.8336E-03    -2.62442E+06     79.7644E+06     91.1489E+06    -87.7895E+03    -224.983E-03     450.141E-03    -225.158E-03     59.2283E-03    -226.306E-03     451.474E-03    -224.814E-03     46.6251E-03
              29     14.3759E-03     93.3220E-03    -2.03652E+06     81.4317E+06     91.7353E+06     1.06226E+06    -223.965E-03     449.157E-03    -225.191E-03     59.8828E-03    -225.306E-03     450.513E-03    -224.848E-03     47.2679E-03
              30     14.3755E-03     94.8036E-03    -2.11774E+06     82.5828E+06     90.9286E+06    -529.352E+03    -223.866E-03     449.060E-03    -225.194E-03     59.3654E-03    -225.215E-03     450.431E-03    -224.856E-03     46.6349E-03
              31     14.3754E-03     96.2929E-03    -1.22577E+06     80.5654E+06     88.6740E+06    -599.126E+03    -224.701E-03     449.861E-03    -225.160E-03     60.4437E-03    -226.043E-03     451.228E-03    -224.832E-03     47.7088E-03
              32     14.3763E-03     97.7845E-03    -3.33499E+06     79.4462E+06     88.9015E+06     397.248E+03    -224.048E-03     449.216E-03    -225.168E-03     61.6738E-03    -225.412E-03     450.593E-03    -224.834E-03     48.9824E-03
              33     14.3754E-03     99.2668E-03    -1.72254E+06     81.8599E+06     93.1719E+06     859.943E+03    -223.555E-03     448.745E-03    -225.190E-03     61.3294E-03    -224.915E-03     450.120E-03    -224.840E-03     48.6949E-03
              34     14.3766E-03     100.752E-03    -3.32953E+06     79.1128E+06     90.5837E+06    -2.64738E+06    -224.217E-03     449.361E-03    -225.144E-03     61.1597E-03    -225.570E-03     450.721E-03    -224.801E-03     48.4556E-03
              35     14.3763E-03     102.242E-03    -3.33721E+06     77.4073E+06     90.5556E+06    -1.56184E+06    -225.311E-03     450.419E-03    -225.108E-03     61.9730E-03    -226.657E-03     451.766E-03    -224.763E-03     49.3450E-03
              36     14.3763E-03     103.733E-03    -1.09571E+06     78.1302E+06     92.9745E+06     2.19596E+06    -224.664E-03     449.841E-03    -225.177E-03     59.9536E-03    -225.979E-03     451.160E-03    -224.824E-03     47.4640E-03
              37     14.3740E-03     105.214E-03    -2.19953E+06     78.7292E+06     93.4641E+06     1.28643E+06    -223.102E-03     448.331E-03    -225.229E-03     60.7111E-03    -224.438E-03     449.668E-03    -224.873E-03     48.2086E-03
              38     14.3781E-03     106.699E-03    -1.76588E+06     81.2601E+06     94.4970E+06     1.09981E+06    -223.316E-03     448.490E-03    -225.175E-03     60.4110E-03    -224.642E-03     449.825E-03    -224.817E-03     47.9836E-03
              39     14.3750E-03     108.188E-03    -3.27065E+06     80.7159E+06     92.6140E+06    -1.54939E+06    -224.137E-03     449.294E-03    -225.157E-03     58.3879E-03    -225.452E-03     450.615E-03    -224.807E-03     45.8493E-03
              40     14.3764E-03     109.670E-03    -3.13988E+06     82.6589E+06     92.0311E+06     1.52901E+06    -224.377E-03     449.517E-03    -225.140E-03     59.2306E-03    -225.695E-03     450.851E-03    -224.795E-03     46.7909E-03
              41     14.3771E-03     111.162E-03    -2.19398E+06     84.8373E+06     92.1023E+06     116.667E+03    -224.285E-03     449.422E-03    -225.136E-03     57.0251E-03    -225.596E-03     450.758E-03    -224.795E-03     44.4510E-03
              42     14.3744E-03     112.645E-03    -1.83822E+06     82.6090E+06      92.648E+06    -1.42872E+06    -224.354E-03     449.521E-03    -225.167E-03     60.1347E-03    -225.708E-03     450.893E-03    -224.821E-03     47.3708E-03
              43     14.3777E-03     114.139E-03    -2.22576E+06     82.6429E+06     95.0184E+06     1.11895E+06    -224.260E-03     449.424E-03    -225.163E-03     62.8215E-03    -225.643E-03     450.816E-03    -224.805E-03     50.1309E-03
              44     14.3750E-03     115.625E-03    -2.49587E+06     83.2013E+06     95.3610E+06    -854.747E+03    -223.832E-03     449.012E-03    -225.180E-03     62.6261E-03    -225.206E-03     450.396E-03    -224.820E-03     49.9883E-03
              45     14.3768E-03     117.107E-03    -1.41890E+06     79.7185E+06     92.6566E+06    -952.632E+03    -223.232E-03     448.398E-03    -225.166E-03     61.4635E-03    -224.560E-03     449.736E-03    -224.816E-03     49.0032E-03
              46     14.3769E-03     118.592E-03    -3.49145E+06     78.8613E+06     91.4246E+06     189.532E+03    -223.700E-03     448.838E-03    -225.138E-03     60.0617E-03    -225.021E-03     450.161E-03    -224.790E-03     47.6322E-03
              47     14.3757E-03     120.081E-03    -994.592E+03     82.5949E+06     93.3117E+06     2.02915E+06    -223.839E-03     448.990E-03    -225.151E-03     59.9650E-03    -225.156E-03     450.325E-03    -224.802E-03     47.5630E-03
              48     14.3771E-03     121.564E-03    -2.76706E+06     84.5652E+06     93.0228E+06    -200.928E+03    -223.440E-03     448.619E-03    -225.179E-03     57.8690E-03    -224.766E-03     449.966E-03    -224.833E-03     45.3040E-03
              49     14.3742E-03     123.046E-03    -3.77633E+06     83.4507E+06     93.1611E+06    -853.326E+03    -224.102E-03     449.272E-03    -225.170E-03     58.0377E-03    -225.433E-03     450.616E-03    -224.820E-03     45.4388E-03
              50     14.3783E-03     124.541E-03    -2.22284E+06     79.7048E+06     93.0498E+06    -1.56683E+06    -224.175E-03     449.309E-03    -225.134E-03     60.4135E-03    -225.504E-03     450.643E-03    -224.781E-03     47.8664E-03
              51     14.3752E-03     126.026E-03    -3.35563E+06     82.6848E+06     95.3071E+06     80.1437E+03    -224.093E-03     449.233E-03    -225.140E-03     61.3209E-03    -225.449E-03     450.594E-03    -224.778E-03     48.7760E-03
              52     14.3776E-03     127.512E-03     437.519E+03     89.2380E+06     96.8289E+06     3.34080E+06    -223.537E-03     448.697E-03    -225.160E-03     59.2150E-03    -224.875E-03     450.072E-03    -224.806E-03     46.6790E-03
              53     14.3751E-03     128.994E-03    -4.69461E+06     88.8944E+06     92.6859E+06    -107.964E+03    -223.466E-03     448.653E-03    -225.187E-03     58.0119E-03    -224.808E-03     450.025E-03    -224.846E-03     45.4526E-03
              54     14.3755E-03     130.484E-03    -3.01751E+06     91.2472E+06     94.9318E+06     1.02831E+06    -222.977E-03     448.166E-03    -225.188E-03     60.3135E-03    -224.321E-03     449.548E-03    -224.842E-03     47.9400E-03
              55     14.3782E-03     131.967E-03    -745.951E+03     95.7642E+06     98.2800E+06     640.454E+03    -222.368E-03     447.545E-03    -225.177E-03     60.4319E-03    -223.746E-03     448.975E-03    -224.823E-03     47.8084E-03
              56     14.3742E-03     133.453E-03    -2.32016E+06     96.8247E+06     98.4284E+06     103.882E+03    -222.308E-03     447.509E-03    -225.201E-03     61.0802E-03    -223.704E-03     448.956E-03    -224.846E-03     48.4356E-03
              57     14.3784E-03     134.938E-03    -2.54194E+06     95.6027E+06     98.0918E+06    -106.672E+03    -221.169E-03     446.369E-03    -225.201E-03     61.3313E-03    -222.538E-03     447.785E-03    -224.845E-03     48.9404E-03
              58     14.3759E-03     136.413E-03    -3.62681E+06     98.8666E+06     100.187E+06     1.25971E+06    -221.033E-03     446.229E-03    -225.196E-03     58.7554E-03    -222.382E-03     447.625E-03    -224.833E-03     46.5001E-03
              59     14.3775E-03     137.902E-03    -884.097E+03     103.287E+06     101.108E+06     411.503E+03    -219.256E-03     444.473E-03    -225.216E-03     58.7173E-03    -220.614E-03     445.901E-03    -224.859E-03     46.4144E-03
              60     14.3778E-03     139.375E-03    -3.19540E+06     107.741E+06     104.314E+06    -1.86685E+06    -217.880E-03     443.110E-03    -225.231E-03     59.6918E-03    -219.276E-03     444.575E-03    -224.861E-03     47.3711E-03
              61     14.3775E-03     140.854E-03    -1.96561E+06     110.064E+06     108.194E+06     3.18862E+06    -217.358E-03     442.543E-03    -225.186E-03     58.1925E-03    -218.701E-03     443.957E-03    -224.802E-03     46.3094E-03
              62     14.3819E-03     142.327E-03    -3.72914E+06     109.824E+06     108.266E+06     989.042E+03    -215.676E-03     440.749E-03    -225.073E-03     57.7269E-03    -217.030E-03     442.166E-03    -224.685E-03     45.8112E-03
              63     14.3823E-03     143.799E-03    -3.63444E+06     113.846E+06     111.615E+06     1.39678E+06    -215.735E-03     440.655E-03    -224.921E-03     59.1272E-03    -217.130E-03     442.118E-03    -224.522E-03     47.0926E-03
              64     14.3862E-03     145.283E-03    -3.09540E+06     115.296E+06     112.046E+06    -450.662E+03    -215.383E-03     440.152E-03    -224.769E-03     62.0324E-03    -216.809E-03     441.652E-03    -224.371E-03     49.9326E-03
              65     14.3871E-03     146.750E-03    -1.34549E+06     120.571E+06     118.302E+06    -365.789E+03    -215.753E-03     440.355E-03    -224.602E-03     65.1560E-03    -217.202E-03     441.885E-03    -224.184E-03     53.1223E-03
              66     14.3915E-03     148.230E-03    -3.45128E+06     120.472E+06     118.526E+06     639.760E+03    -218.299E-03     442.611E-03    -224.312E-03     66.3364E-03    -219.721E-03     444.105E-03    -223.889E-03     54.5471E-03
              67     14.3947E-03     149.704E-03    -3.95713E+06     117.112E+06     118.036E+06    -1.90044E+06    -222.236E-03     446.209E-03    -223.973E-03     65.5875E-03    -223.629E-03     447.662E-03    -223.547E-03     53.7286E-03
              68     14.3974E-03     151.194E-03    -2.78819E+06     120.242E+06     123.354E+06     4.46895E+06    -226.201E-03     449.885E-03    -223.684E-03     67.0579E-03    -227.618E-03     451.362E-03    -223.238E-03     55.0831E-03
              69     14.4006E-03     152.688E-03    -5.00949E+06     118.902E+06     125.423E+06    -738.656E+03    -230.357E-03     453.731E-03    -223.374E-03     74.3132E-03    -231.859E-03     455.274E-03    -222.912E-03     61.9893E-03
              70     14.4042E-03     154.189E-03    -2.93117E+06     119.354E+06     128.941E+06    -853.802E+03    -236.417E-03     459.478E-03    -223.061E-03     77.1080E-03    -237.937E-03     461.038E-03    -222.585E-03     64.5185E-03
              71     14.4037E-03     155.697E-03    -3.80884E+06     115.846E+06     127.957E+06    -472.486E+03    -243.502E-03     466.312E-03    -222.811E-03     77.4189E-03    -245.007E-03     467.844E-03    -222.333E-03     64.6378E-03
              72     14.4053E-03     157.212E-03    -3.15220E+06     111.079E+06     126.173E+06    -1.67203E+06    -252.031E-03     474.591E-03    -222.560E-03     78.3493E-03    -253.513E-03     476.091E-03    -222.086E-03     65.3033E-03
              73     14.4046E-03     158.748E-03    -3.39956E+06     104.872E+06     120.395E+06    -733.072E+03    -261.672E-03     483.964E-03    -222.292E-03     79.5993E-03    -263.125E-03     485.429E-03    -221.837E-03     66.3336E-03
              74     14.4051E-03     160.296E-03    -3.90089E+06     85.2557E+06     113.771E+06    -9.15138E+06    -270.163E-03     492.232E-03    -222.069E-03     83.2661E-03    -271.597E-03     493.625E-03    -221.618E-03     69.6188E-03
              75     14.4059E-03     161.855E-03     222.312E+03     76.6548E+06     114.683E+06     208.139E+03    -277.016E-03     498.908E-03    -221.892E-03     86.6929E-03    -278.447E-03     500.280E-03    -221.430E-03     72.8880E-03
              76     14.4054E-03     163.426E-03    -4.63528E+06     64.9096E+06     110.116E+06    -1.56246E+06    -282.756E-03     504.510E-03    -221.754E-03     89.4751E-03    -284.206E-03     505.855E-03    -221.290E-03     75.4413E-03
              77     14.4058E-03     164.996E-03    -2.15358E+06     40.9032E+06     108.814E+06    -6.54343E+06    -286.220E-03     507.882E-03    -221.661E-03     88.0605E-03    -287.600E-03     509.082E-03    -221.174E-03     73.8613E-03
              78     14.4073E-03     166.568E-03    -2.13816E+06     14.8031E+06     111.132E+06    -5.07848E+06    -288.237E-03     509.826E-03    -221.589E-03     85.0227E-03    -289.497E-03     510.809E-03    -221.052E-03     71.3184E-03
              79     14.4080E-03     168.148E-03     2.12867E+06     15.9270E+06     124.104E+06     4.93743E+06    -287.020E-03     508.629E-03    -221.609E-03     79.0440E-03    -288.162E-03     509.475E-03    -221.015E-03     66.2198E-03
              80     14.4085E-03     169.713E-03    -8.45627E+06     23.6639E+06     131.423E+06    -1.79981E+06    -276.887E-03     498.699E-03    -221.813E-03     72.8064E-03    -277.922E-03     499.407E-03    -221.178E-03     61.7010E-03
              81     14.4111E-03     171.266E-03     8.94467E+06     22.3225E+06     139.798E+06     1.51895E+06    -258.600E-03     480.691E-03    -222.091E-03     77.0128E-03    -259.219E-03     481.018E-03    -221.438E-03     70.6783E-03
              82     14.4173E-03     172.796E-03     7.47803E+06     38.3048E+06     104.424E+06     1.20523E+06    -172.869E-03     396.930E-03    -224.060E-03     34.8606E-03    -173.102E-03     397.110E-03    -223.605E-03     32.9039E-03
              83     13.4964E-03     173.955E-03    -39.0694E+06    -15.2673E+06     63.9964E+06    -13.4926E+06    -95.8211E-03     324.840E-03    -229.019E-03    -47.1819E-03    -95.9332E-03     324.759E-03    -228.620E-03    -48.8381E-03
              84     12.6636E-03     173.670E-03    -13.5962E+06    -18.6594E+06     114.140E+06    -5.20038E+06    -81.6770E-03     316.714E-03    -235.037E-03    -105.352E-03    -81.6060E-03     316.372E-03    -234.419E-03    -107.478E-03
              85     11.8528E-03     173.359E-03     11.7793E+06     5.90166E+06     139.355E+06    -5.80673E+06    -65.5189E-03     306.409E-03    -240.891E-03    -144.139E-03    -65.3103E-03     306.000E-03    -240.219E-03    -146.101E-03
              86     11.0578E-03     173.036E-03     12.6754E+06    -7.31116E+06     132.358E+06    -1.10486E+06    -62.9950E-03     309.648E-03    -246.653E-03    -177.394E-03    -62.6856E-03     309.093E-03    -245.999E-03    -179.235E-03
              87     10.2824E-03     172.704E-03     9.21215E+06     3.60962E+06     131.565E+06    -220.703E+03    -67.9341E-03     319.795E-03    -251.860E-03    -213.790E-03    -67.5641E-03     319.185E-03    -251.221E-03    -215.737E-03
              88     9.52701E-03     172.370E-03     5.45436E+06     902.277E+03     126.027E+06    -1.82467E+06    -76.9531E-03     333.123E-03    -256.170E-03    -249.505E-03    -76.4849E-03     332.372E-03    -255.549E-03    -251.701E-03
              89     8.79289E-03     172.040E-03     1.99902E+06     1.58420E+06     122.736E+06    -4.87470E+06    -88.6105E-03     348.056E-03    -259.446E-03    -280.785E-03    -88.0601E-03     347.175E-03    -258.837E-03    -283.276E-03
              90     8.07631E-03     171.715E-03    -687.416E+03    -1.26419E+06     118.040E+06    -7.91644E+06    -101.887E-03     363.559E-03    -261.672E-03    -306.138E-03    -101.258E-03     362.543E-03    -261.079E-03    -308.933E-03
              91     7.37426E-03     171.404E-03    -1.46847E+06    -3.34701E+06     112.757E+06    -10.9197E+06    -116.948E-03     379.850E-03    -262.902E-03    -325.482E-03    -116.254E-03     378.708E-03    -262.331E-03    -328.606E-03
              92     6.68513E-03     171.110E-03    -1.77532E+06    -5.62004E+06     106.695E+06    -12.9247E+06    -133.719E-03     396.922E-03    -263.203E-03    -337.393E-03    -132.987E-03     395.680E-03    -262.658E-03    -340.820E-03
              93     6.00560E-03     170.836E-03    -914.942E+03    -5.97912E+06     100.380E+06    -15.2748E+06    -151.104E-03     413.777E-03    -262.673E-03    -340.418E-03    -150.369E-03     412.485E-03    -262.161E-03    -344.118E-03
              94     5.33305E-03     170.584E-03     690.241E+03    -8.29564E+06     92.7883E+06    -16.7100E+06    -168.529E-03     429.983E-03    -261.454E-03    -334.053E-03    -167.837E-03     428.676E-03    -260.979E-03    -337.936E-03
              95     4.66556E-03     170.357E-03     2.99486E+06    -8.26673E+06     85.1836E+06    -18.1915E+06    -185.493E-03     445.201E-03    -259.709E-03    -317.822E-03    -184.901E-03     443.943E-03    -259.275E-03    -321.757E-03
              96     4.00119E-03     170.156E-03     6.57981E+06    -8.83745E+06     76.4241E+06    -19.4753E+06    -200.850E-03     458.512E-03    -257.662E-03    -291.670E-03    -200.391E-03     457.356E-03    -257.277E-03    -295.501E-03
              97     3.33632E-03     169.983E-03     10.6139E+06    -11.8464E+06     65.7113E+06    -18.7474E+06    -214.204E-03     469.771E-03    -255.567E-03    -257.384E-03    -213.887E-03     468.735E-03    -255.237E-03    -260.967E-03
              98     2.67050E-03     169.840E-03     14.2259E+06    -11.3024E+06     54.2564E+06    -17.1112E+06    -225.815E-03     479.398E-03    -253.584E-03    -216.763E-03    -225.657E-03     478.511E-03    -253.317E-03    -219.943E-03
              99     2.00379E-03     169.726E-03     17.2655E+06    -10.8856E+06     42.1490E+06    -16.0064E+06    -234.749E-03     486.647E-03    -251.898E-03    -170.418E-03    -234.740E-03     485.909E-03    -251.696E-03    -173.085E-03
             100     1.33457E-03     169.641E-03     19.9988E+06    -12.5256E+06     31.1753E+06    -13.4868E+06    -240.886E-03     491.829E-03    -250.943E-03    -120.800E-03    -241.003E-03     491.204E-03    -250.798E-03    -122.774E-03
             101     663.945E-06     169.591E-03     19.3290E+06    -18.4649E+06     15.3066E+06    -9.99246E+06    -245.054E-03     497.283E-03    -252.229E-03    -72.1097E-03    -245.293E-03     496.689E-03    -252.154E-03    -73.3512E-03
             102     3.24153E-06     168.002E-03    -37.5791E+06    -39.6445E+06    -35.4617E+06    -6.31973E+06    -213.378E-03     428.626E-03    -215.248E-03    -26.4289E-03    -213.699E-03     428.266E-03    -215.313E-03    -27.0330E-03
             103    -353.014E-09     166.651E-03    -134.329E+06    -83.8635E+06    -131.318E+06    -8.89185E+06    -164.192E-03     326.294E-03    -162.102E-03     1.36068E-03    -164.595E-03     326.217E-03    -162.442E-03     1.04963E-03
             104     1.01040E-06     165.378E-03    -224.352E+06    -136.377E+06    -226.003E+06    -10.9971E+06    -143.615E-03     285.208E-03    -141.593E-03     10.8962E-03    -144.219E-03     285.175E-03    -142.200E-03     10.6237E-03
             105     1.48138E-06     164.133E-03    -289.817E+06    -181.034E+06    -289.933E+06    -8.15180E+06    -140.287E-03     277.032E-03    -136.746E-03     16.5197E-03    -141.054E-03     276.969E-03    -137.513E-03     16.3435E-03
             106     1.43949E-06     162.880E-03    -270.935E+06    -212.707E+06    -272.383E+06    -4.63119E+06    -146.197E-03     289.001E-03    -142.804E-03     18.7153E-03    -146.854E-03     288.725E-03    -143.464E-03     18.5752E-03
             107     765.908E-09     161.604E-03    -207.107E+06    -221.869E+06    -200.671E+06     723.437E+03    -157.300E-03     312.189E-03    -154.888E-03     19.3232E-03    -157.733E-03     311.667E-03    -155.270E-03     19.2055E-03
             108     684.436E-09     160.292E-03    -160.942E+06    -214.626E+06    -160.581E+06     2.36031E+06    -171.615E-03     341.435E-03    -169.820E-03     19.1298E-03    -171.889E-03     340.823E-03    -170.078E-03     18.9551E-03
             109     491.712E-09     158.938E-03    -139.278E+06    -208.802E+06    -145.678E+06    -90.9819E+03    -187.211E-03     372.569E-03    -185.359E-03     17.6131E-03    -187.408E-03     371.935E-03    -185.582E-03     17.3239E-03
             110     958.434E-09     157.543E-03    -138.862E+06    -214.056E+06    -140.980E+06    -1.73003E+06    -202.056E-03     402.309E-03    -200.253E-03     16.2137E-03    -202.250E-03     401.643E-03    -200.447E-03     15.7635E-03
             111     166.379E-09     156.104E-03    -141.524E+06    -224.349E+06    -141.776E+06    -1.69174E+06    -214.539E-03     428.251E-03    -213.711E-03     15.4628E-03    -214.731E-03     427.544E-03    -213.890E-03     14.7910E-03
             112    -147.216E-09     154.632E-03    -146.540E+06    -233.445E+06    -147.048E+06    -1.55784E+06    -223.812E-03     448.097E-03    -224.285E-03     14.1822E-03    -224.008E-03     447.365E-03    -224.469E-03     13.2746E-03
             113    -616.587E-09     153.137E-03    -146.679E+06    -239.697E+06    -147.001E+06    -389.266E+03    -230.548E-03     461.384E-03    -230.837E-03     12.4407E-03    -230.735E-03     460.625E-03    -231.011E-03     11.3153E-03
             114     913.497E-09     151.624E-03    -147.332E+06    -245.136E+06    -148.231E+06    -1.23101E+06    -234.941E-03     469.063E-03    -234.122E-03     11.6283E-03    -235.121E-03     468.281E-03    -234.294E-03     10.4047E-03
             115    -96.9237E-09     150.106E-03    -151.149E+06    -253.602E+06    -151.375E+06    -1.37354E+06    -236.243E-03     471.972E-03    -235.729E-03     10.8755E-03    -236.426E-03     471.158E-03    -235.899E-03     9.58722E-03
             116    -26.7167E-09     148.587E-03    -153.936E+06    -261.815E+06    -153.991E+06    -886.871E+03    -235.371E-03     471.247E-03    -235.876E-03     10.3591E-03    -235.553E-03     470.401E-03    -236.043E-03     9.00147E-03
             117    -595.661E-09     147.070E-03    -158.284E+06    -269.136E+06    -157.905E+06    -1.67433E+06    -234.015E-03     468.796E-03    -234.781E-03     10.4273E-03    -234.202E-03     467.925E-03    -234.951E-03     9.05547E-03
             118     103.674E-09     145.558E-03    -160.187E+06    -276.625E+06    -160.607E+06    -944.212E+03    -233.103E-03     466.129E-03    -233.026E-03     10.3788E-03    -233.287E-03     465.229E-03    -233.196E-03     8.95705E-03
             119     470.833E-09     144.050E-03    -160.828E+06    -283.722E+06    -160.094E+06    -2.00912E+06    -231.858E-03     463.495E-03    -231.638E-03     10.7577E-03    -232.035E-03     462.560E-03    -231.794E-03     9.33546E-03
             120    -753.637E-09     142.546E-03    -160.306E+06    -292.640E+06    -160.738E+06    -1.28134E+06    -230.289E-03     460.808E-03    -230.519E-03     10.7263E-03    -230.449E-03     459.827E-03    -230.666E-03     9.37172E-03
             121     675.054E-09     141.047E-03    -161.172E+06    -297.637E+06    -160.810E+06    -294.945E+03    -229.250E-03     458.321E-03    -229.071E-03     10.6460E-03    -229.407E-03     457.317E-03    -229.210E-03     9.30760E-03
             122    -364.708E-09     139.550E-03    -157.543E+06    -302.333E+06    -157.743E+06    -1.41003E+06    -228.348E-03     456.427E-03    -228.079E-03     10.7726E-03    -228.485E-03     455.390E-03    -228.200E-03     9.41474E-03
             123     409.704E-09     138.057E-03    -155.454E+06    -309.004E+06    -155.614E+06    -768.004E+03    -227.736E-03     455.224E-03    -227.488E-03     11.0177E-03    -227.856E-03     454.147E-03    -227.593E-03     9.70028E-03
             124    -133.738E-09     136.563E-03    -153.440E+06    -311.757E+06    -153.893E+06     106.473E+03    -227.192E-03     454.239E-03    -227.047E-03     11.5009E-03    -227.301E-03     453.143E-03    -227.142E-03     10.2157E-03
             125     23.2700E-09     135.073E-03    -152.401E+06    -310.791E+06    -152.538E+06     948.769E+03    -226.609E-03     453.159E-03    -226.550E-03     11.1955E-03    -226.716E-03     452.065E-03    -226.641E-03     9.90839E-03
             126     135.530E-09     133.583E-03    -150.376E+06    -309.718E+06    -150.088E+06    -263.755E+03    -226.380E-03     452.289E-03    -225.909E-03     11.0258E-03    -226.481E-03     451.194E-03    -225.993E-03     9.70885E-03
             127     351.288E-09     132.095E-03    -148.866E+06    -309.305E+06    -149.202E+06     64.5849E+03    -226.162E-03     451.762E-03    -225.600E-03     11.2336E-03    -226.258E-03     450.665E-03    -225.681E-03     9.93480E-03
             128    -68.4065E-09     130.607E-03    -148.303E+06    -307.606E+06    -147.147E+06     140.456E+03    -225.765E-03     451.310E-03    -225.545E-03     11.2826E-03    -225.864E-03     450.218E-03    -225.619E-03     10.0121E-03
             129     76.8908E-09     129.120E-03    -147.481E+06    -307.142E+06    -147.984E+06     4.23744E+03    -225.597E-03     451.002E-03    -225.405E-03     11.2270E-03    -225.691E-03     449.912E-03    -225.486E-03     9.93585E-03
             130     150.585E-09     127.633E-03    -148.066E+06    -302.435E+06    -148.249E+06     1.29930E+06    -225.555E-03     450.985E-03    -225.429E-03     11.4258E-03    -225.658E-03     449.919E-03    -225.517E-03     10.1640E-03
             131    -236.814E-09     126.146E-03    -148.702E+06    -299.193E+06    -148.257E+06     248.522E+03    -225.386E-03     450.877E-03    -225.491E-03     11.3832E-03    -225.497E-03     449.829E-03    -225.583E-03     10.1226E-03
             132     138.109E-09     124.659E-03    -148.353E+06    -298.493E+06    -148.559E+06     402.949E+03    -225.386E-03     450.646E-03    -225.260E-03     11.1455E-03    -225.496E-03     449.601E-03    -225.355E-03     9.85912E-03
             133     106.236E-09     123.174E-03    -148.607E+06    -295.867E+06    -148.554E+06     100.807E+03    -225.403E-03     450.604E-03    -225.201E-03     11.0564E-03    -225.517E-03     449.572E-03    -225.299E-03     9.77971E-03
             134    -94.2740E-09     121.686E-03    -148.396E+06    -296.201E+06    -148.430E+06    -231.621E+03    -225.516E-03     450.607E-03    -225.091E-03     11.2529E-03    -225.629E-03     449.574E-03    -225.189E-03     9.98079E-03
             135     655.902E-09     120.199E-03    -148.025E+06    -298.940E+06    -148.216E+06    -394.523E+03    -225.690E-03     450.618E-03    -224.928E-03     11.8395E-03    -225.799E-03     449.570E-03    -225.020E-03     10.5447E-03
             136    -165.604E-09     118.713E-03    -148.384E+06    -298.522E+06    -148.622E+06     489.050E+03    -225.497E-03     450.522E-03    -225.025E-03     11.3692E-03    -225.607E-03     449.477E-03    -225.120E-03     10.1051E-03
             137     313.526E-09     117.228E-03    -149.078E+06    -293.645E+06    -148.836E+06     880.592E+03    -225.246E-03     450.424E-03    -225.177E-03     11.0344E-03    -225.366E-03     449.404E-03    -225.280E-03     9.76445E-03
             138    -393.912E-09     115.741E-03    -150.196E+06    -290.393E+06    -150.542E+06     233.507E+03    -225.163E-03     450.359E-03    -225.197E-03     11.0642E-03    -225.290E-03     449.360E-03    -225.311E-03     9.79714E-03
             139     388.062E-09     114.254E-03    -151.017E+06    -288.871E+06    -150.966E+06     204.497E+03    -225.441E-03     450.443E-03    -225.002E-03     11.1834E-03    -225.574E-03     449.453E-03    -225.119E-03     9.94354E-03
             140     212.398E-09     112.769E-03    -150.286E+06    -288.654E+06    -150.427E+06    -606.694E+03    -225.735E-03     450.722E-03    -224.986E-03     11.1368E-03    -225.866E-03     449.731E-03    -225.102E-03     9.85508E-03
             141     227.315E-09     111.281E-03    -151.142E+06    -290.813E+06    -151.074E+06     72.7359E+03    -225.562E-03     450.678E-03    -225.116E-03     11.1569E-03    -225.693E-03     449.679E-03    -225.231E-03     9.87838E-03
             142    -60.6087E-09     109.795E-03    -151.017E+06    -294.068E+06    -150.343E+06    -712.447E+03    -225.428E-03     450.648E-03    -225.220E-03     11.3194E-03    -225.555E-03     449.632E-03    -225.326E-03     10.0280E-03
             143     163.080E-09     108.308E-03    -147.479E+06    -295.581E+06    -148.325E+06    -293.454E+03    -225.563E-03     450.729E-03    -225.166E-03     11.0994E-03    -225.673E-03     449.697E-03    -225.265E-03     9.80340E-03
             144     263.027E-09     106.822E-03    -148.538E+06    -296.612E+06    -148.190E+06     136.428E+03    -225.410E-03     450.494E-03    -225.084E-03     11.2597E-03    -225.524E-03     449.458E-03    -225.179E-03     9.98590E-03
             145    -252.758E-09     105.335E-03    -150.029E+06    -293.957E+06    -150.880E+06     756.996E+03    -225.300E-03     450.390E-03    -225.091E-03     11.3516E-03    -225.421E-03     449.374E-03    -225.201E-03     10.1086E-03
             146     497.010E-09     103.849E-03    -151.992E+06    -287.867E+06    -151.680E+06     864.155E+03    -225.464E-03     450.484E-03    -225.020E-03     11.1498E-03    -225.603E-03     449.502E-03    -225.140E-03     9.87944E-03
             147    -135.109E-09     102.363E-03    -150.935E+06    -287.161E+06    -150.631E+06    -649.516E+03    -225.430E-03     450.494E-03    -225.064E-03     11.1287E-03    -225.566E-03     449.513E-03    -225.182E-03     9.84848E-03
             148     267.785E-09     100.876E-03    -150.218E+06    -291.849E+06    -150.247E+06    -808.480E+03    -225.438E-03     450.561E-03    -225.123E-03     11.3739E-03    -225.564E-03     449.555E-03    -225.233E-03     10.0805E-03
             149     14.9486E-09     99.3892E-03    -147.004E+06    -294.346E+06    -147.315E+06     19.5736E+03    -225.497E-03     450.567E-03    -225.070E-03     11.6222E-03    -225.608E-03     449.540E-03    -225.167E-03     10.3096E-03
             150     273.573E-09     97.9032E-03    -146.657E+06    -291.344E+06    -146.553E+06     722.921E+03    -225.332E-03     450.526E-03    -225.194E-03     11.6284E-03    -225.448E-03     449.512E-03    -225.291E-03     10.3294E-03
             151    -400.734E-09     96.4170E-03    -147.000E+06    -287.477E+06    -146.810E+06     566.284E+03    -225.193E-03     450.401E-03    -225.208E-03     11.1110E-03    -225.315E-03     449.407E-03    -225.312E-03     9.84288E-03
             152     474.743E-09     94.9311E-03    -147.187E+06    -285.477E+06    -147.080E+06     116.101E+03    -225.472E-03     450.327E-03    -224.855E-03     10.9831E-03    -225.597E-03     449.343E-03    -224.963E-03     9.72576E-03
             153     306.114E-09     93.4449E-03    -147.881E+06    -285.401E+06    -148.358E+06     160.482E+03    -225.609E-03     450.527E-03    -224.918E-03     11.3153E-03    -225.735E-03     449.546E-03    -225.032E-03     10.0477E-03
             154    -136.401E-09     91.9580E-03    -147.186E+06    -283.814E+06    -147.368E+06     983.283E+03    -225.517E-03     450.773E-03    -225.257E-03     11.3166E-03    -225.643E-03     449.798E-03    -225.368E-03     10.1001E-03
             155     300.602E-09     90.4707E-03    -148.893E+06    -282.978E+06    -148.179E+06    -436.534E+03    -225.606E-03     450.727E-03    -225.121E-03     11.4511E-03    -225.742E-03     449.760E-03    -225.236E-03     10.1700E-03
             156     201.130E-09     88.9838E-03    -146.362E+06    -283.452E+06    -146.729E+06    -517.986E+03    -225.437E-03     450.388E-03    -224.951E-03     11.4945E-03    -225.562E-03     449.414E-03    -225.062E-03     10.1871E-03
             157    -45.1287E-09     87.4992E-03    -148.026E+06    -285.899E+06    -147.420E+06    -581.972E+03    -225.303E-03     450.292E-03    -224.989E-03     11.2068E-03    -225.430E-03     449.307E-03    -225.097E-03     9.94298E-03
             158     308.854E-09     86.0119E-03    -148.603E+06    -291.005E+06    -149.511E+06    -732.511E+03    -225.503E-03     450.435E-03    -224.932E-03     11.1817E-03    -225.623E-03     449.429E-03    -225.042E-03     9.90733E-03
             159    -108.470E-09     83.0400E-03    -145.197E+06    -285.779E+06    -145.035E+06     428.671E+03    -225.246E-03     450.302E-03    -225.056E-03     11.3499E-03    -225.364E-03     449.311E-03    -225.156E-03     10.0756E-03
             160     250.198E-09     81.5530E-03    -149.640E+06    -286.976E+06    -149.865E+06    -895.758E+03    -225.090E-03     450.275E-03    -225.185E-03     11.5613E-03    -225.222E-03     449.292E-03    -225.301E-03     10.2626E-03
             161    -568.308E-09     80.0683E-03    -152.022E+06    -287.755E+06    -151.833E+06     1.10908E+06    -224.842E-03     450.279E-03    -225.436E-03     11.0265E-03    -224.981E-03     449.297E-03    -225.558E-03     9.77982E-03
             162    -63.9414E-12     78.5822E-03    -148.610E+06    -281.555E+06    -147.636E+06     1.05269E+06    -225.201E-03     450.675E-03    -225.474E-03     10.9730E-03    -225.337E-03     449.714E-03    -225.589E-03     9.72427E-03
             163     150.764E-09     77.0936E-03    -150.406E+06    -282.437E+06    -150.521E+06    -1.29658E+06    -225.741E-03     450.996E-03    -225.255E-03     11.3927E-03    -225.881E-03     450.037E-03    -225.380E-03     10.1231E-03
             164     356.466E-09     75.6070E-03    -152.377E+06    -286.151E+06    -153.220E+06    -90.2267E+03    -225.786E-03     450.772E-03    -224.986E-03     11.3407E-03    -225.927E-03     449.802E-03    -225.117E-03     10.0426E-03
             165     240.909E-09     74.1209E-03    -151.650E+06    -285.033E+06    -151.418E+06     522.403E+03    -225.660E-03     450.572E-03    -224.912E-03     11.1964E-03    -225.801E-03     449.603E-03    -225.036E-03     9.92502E-03
             166     202.650E-09     72.6340E-03    -150.420E+06    -285.577E+06    -149.910E+06    -677.066E+03    -225.493E-03     450.552E-03    -225.059E-03     11.3808E-03    -225.630E-03     449.577E-03    -225.176E-03     10.0993E-03
             167    -55.5927E-09     71.1471E-03    -147.978E+06    -289.608E+06    -148.822E+06     -960.56E+03    -225.316E-03     450.465E-03    -225.149E-03     11.5801E-03    -225.437E-03     449.465E-03    -225.259E-03     10.2756E-03
             168     101.663E-09     69.6612E-03    -148.970E+06    -289.961E+06    -149.182E+06     814.139E+03    -225.174E-03     450.328E-03    -225.155E-03     11.5207E-03    -225.298E-03     449.328E-03    -225.264E-03     10.2866E-03
             169    -162.262E-09     68.1751E-03    -148.919E+06    -285.933E+06    -147.543E+06     494.494E+03    -225.207E-03     450.073E-03    -224.866E-03     11.2401E-03    -225.339E-03     449.090E-03    -224.973E-03     9.96822E-03
             170     690.715E-09     66.6898E-03    -147.285E+06    -289.927E+06    -146.536E+06    -1.21799E+06    -225.386E-03     450.120E-03    -224.734E-03     11.4857E-03    -225.505E-03     449.113E-03    -224.833E-03     10.1979E-03
             171    -314.052E-09     65.2040E-03    -145.813E+06    -293.453E+06    -147.424E+06     158.414E+03    -225.590E-03     450.698E-03    -225.108E-03     11.6412E-03    -225.696E-03     449.673E-03    -225.208E-03     10.3713E-03
             172     574.175E-09     63.7155E-03    -146.558E+06    -294.224E+06    -146.576E+06    -422.346E+03    -225.709E-03     450.895E-03    -225.186E-03     11.6117E-03    -225.819E-03     449.867E-03    -225.280E-03     10.3076E-03
             173    -122.738E-09     62.2300E-03    -148.338E+06    -295.553E+06    -148.844E+06     295.510E+03    -225.546E-03     450.733E-03    -225.188E-03     11.4758E-03    -225.659E-03     449.704E-03    -225.288E-03     10.2182E-03
             174     142.285E-09     60.7435E-03    -148.749E+06    -288.948E+06    -149.037E+06     1.68127E+06    -225.418E-03     450.730E-03    -225.312E-03     11.0255E-03    -225.543E-03     449.734E-03    -225.423E-03     9.75941E-03
             175    -46.2571E-09     59.2566E-03    -148.989E+06    -284.758E+06    -148.397E+06    -808.819E+03    -225.641E-03     450.887E-03    -225.245E-03     11.0123E-03    -225.775E-03     449.911E-03    -225.358E-03     9.70027E-03
             176     492.507E-09     57.7697E-03    -151.657E+06    -286.966E+06    -151.719E+06      -32.17E+03    -225.794E-03     450.935E-03    -225.141E-03     10.9995E-03    -225.932E-03     449.956E-03    -225.263E-03     9.74627E-03
             177    -34.2828E-09     56.2819E-03    -149.937E+06    -285.300E+06    -149.996E+06     823.575E+03    -225.757E-03     450.847E-03    -225.090E-03     11.4351E-03    -225.892E-03     449.873E-03    -225.209E-03     10.1428E-03
             178     495.801E-09     54.7950E-03    -150.814E+06    -286.600E+06    -150.677E+06    -1.26585E+06    -225.776E-03     450.742E-03    -224.966E-03     11.3963E-03    -225.913E-03     449.764E-03    -225.085E-03     10.0698E-03
             179     171.699E-09     53.3091E-03    -150.438E+06    -290.837E+06    -150.988E+06    -313.719E+03    -225.437E-03     450.585E-03    -225.148E-03     11.4636E-03    -225.565E-03     449.586E-03    -225.263E-03     10.1701E-03
             180    -465.968E-09     51.8217E-03    -147.043E+06    -288.177E+06    -147.297E+06     882.274E+03    -225.010E-03     450.523E-03    -225.513E-03     11.4447E-03    -225.130E-03     449.526E-03    -225.618E-03     10.1587E-03
             181    -1.38571E-09     50.3360E-03    -151.728E+06    -287.739E+06    -149.884E+06    -747.724E+03    -225.160E-03     450.744E-03    -225.583E-03     11.5284E-03    -225.301E-03     449.760E-03    -225.696E-03     10.2317E-03
             182    -160.014E-09     48.8483E-03    -150.435E+06    -290.004E+06    -151.489E+06     412.475E+03    -225.622E-03     451.089E-03    -225.467E-03     11.4894E-03    -225.751E-03     450.094E-03    -225.586E-03     10.2094E-03
             183     496.655E-09     47.3610E-03    -148.992E+06    -287.903E+06    -148.483E+06     626.704E+03    -225.886E-03     451.191E-03    -225.305E-03     11.5068E-03    -226.014E-03     450.200E-03    -225.414E-03     10.2438E-03
             184    -34.1463E-09     45.8738E-03    -150.102E+06    -288.132E+06    -149.132E+06    -464.123E+03    -225.706E-03     451.078E-03    -225.372E-03     11.4514E-03    -225.839E-03     450.089E-03    -225.482E-03     10.1497E-03
             185     22.9784E-09     44.3867E-03    -149.748E+06    -289.000E+06    -149.727E+06     237.391E+03    -225.693E-03     450.967E-03    -225.274E-03     11.2369E-03    -225.822E-03     449.973E-03    -225.386E-03     9.95891E-03
             186     555.343E-09     42.8995E-03    -147.138E+06    -287.141E+06    -147.987E+06     227.365E+03    -225.918E-03     451.081E-03    -225.163E-03     11.4586E-03    -226.039E-03     450.091E-03    -225.273E-03     10.1760E-03
             187    -95.1552E-09     41.4123E-03    -147.662E+06    -286.467E+06    -148.602E+06    -18.7694E+03    -225.960E-03     451.112E-03    -225.152E-03     11.2099E-03    -226.084E-03     450.127E-03    -225.266E-03     9.91032E-03
             188     752.249E-09     39.9252E-03    -149.118E+06    -286.172E+06    -147.766E+06    -191.470E+03    -225.976E-03     451.177E-03    -225.201E-03     11.4791E-03    -226.109E-03     450.194E-03    -225.309E-03     10.1637E-03
             189    -321.512E-09     38.4370E-03    -149.613E+06    -285.633E+06    -149.637E+06     317.573E+03    -225.510E-03     450.876E-03    -225.366E-03     11.3452E-03    -225.644E-03     449.900E-03    -225.483E-03     10.0372E-03
             190     61.7456E-09     36.9512E-03    -149.620E+06      -283.9E+06    -149.801E+06     102.833E+03    -225.031E-03     450.491E-03    -225.460E-03     11.4629E-03    -225.167E-03     449.523E-03    -225.580E-03     10.1853E-03
             191    -457.531E-09     35.4643E-03    -149.225E+06    -283.545E+06    -149.213E+06    -56.5983E+03    -225.273E-03     450.519E-03    -225.246E-03     11.2099E-03    -225.407E-03     449.551E-03    -225.364E-03     9.94713E-03
             192     856.508E-09     33.9782E-03    -149.148E+06    -284.089E+06    -150.136E+06     613.821E+03    -225.267E-03     450.101E-03    -224.834E-03     11.0186E-03    -225.398E-03     449.131E-03    -224.957E-03     9.79628E-03
             193    -678.016E-09     32.4932E-03    -147.507E+06    -283.186E+06    -147.455E+06    -128.560E+03    -224.712E-03     449.290E-03    -224.578E-03     10.7439E-03    -224.840E-03     448.318E-03    -224.691E-03     9.49221E-03
             194     660.568E-09     31.0095E-03    -146.885E+06    -284.925E+06    -146.786E+06    -485.321E+03    -224.584E-03     448.388E-03    -223.803E-03     10.5709E-03    -224.708E-03     447.405E-03    -223.911E-03     9.29340E-03
             195     452.138E-09     29.5258E-03    -145.966E+06    -284.123E+06    -145.890E+06     193.066E+03    -224.269E-03     447.180E-03    -222.910E-03     10.9491E-03    -224.391E-03     446.199E-03    -223.016E-03     9.71364E-03
             196     357.644E-09     28.0463E-03    -146.240E+06    -282.252E+06    -145.580E+06    -194.040E+03    -223.018E-03     445.683E-03    -222.665E-03     11.0890E-03    -223.144E-03     444.711E-03    -222.771E-03     9.84597E-03
             197    -688.083E-09     26.5675E-03    -145.329E+06    -283.575E+06    -145.217E+06     245.794E+03    -222.116E-03     444.036E-03    -221.920E-03     10.4461E-03    -222.235E-03     443.055E-03    -222.024E-03     9.26017E-03
             198     1.27313E-06     25.0928E-03    -143.676E+06    -282.389E+06    -144.566E+06     207.458E+03    -221.324E-03     441.888E-03    -220.564E-03     10.2626E-03    -221.436E-03     440.909E-03    -220.670E-03     9.13160E-03
             199    -800.651E-09     23.6207E-03    -144.890E+06    -282.241E+06    -145.143E+06     63.4509E+03    -219.281E-03     438.741E-03    -219.460E-03     9.89784E-03    -219.398E-03     437.764E-03    -219.567E-03     8.79550E-03
             200     38.8236E-09     22.1552E-03    -144.092E+06    -281.490E+06    -144.230E+06     420.428E+03    -216.692E-03     434.352E-03    -217.660E-03     8.81679E-03    -216.806E-03     433.374E-03    -217.764E-03     7.77975E-03
             201    -697.620E-09     20.6967E-03    -143.051E+06    -282.020E+06    -143.550E+06    -355.573E+03    -213.758E-03     428.423E-03    -214.665E-03     7.89215E-03    -213.866E-03     427.439E-03    -214.766E-03     6.89934E-03
             202     24.9420E-09     19.2477E-03    -142.046E+06    -281.706E+06    -142.239E+06     428.244E+03    -210.043E-03     420.501E-03    -210.458E-03     6.66942E-03    -210.147E-03     419.512E-03    -210.555E-03     5.79370E-03
             203     41.0281E-09     17.8127E-03    -141.582E+06    -280.891E+06    -141.254E+06    -221.606E+03    -205.112E-03     410.203E-03    -205.091E-03     5.25228E-03    -205.215E-03     409.214E-03    -205.184E-03     4.46296E-03
             204    -64.2676E-09     16.3944E-03    -139.406E+06    -281.173E+06    -139.503E+06    -511.060E+03    -198.925E-03     397.880E-03    -198.955E-03     3.95010E-03    -199.018E-03     396.882E-03    -199.043E-03     3.24136E-03
             205     57.2692E-09     14.9934E-03    -138.205E+06    -278.371E+06    -138.764E+06     730.383E+03    -192.205E-03     384.297E-03    -192.092E-03     2.97692E-03    -192.297E-03     383.309E-03    -192.181E-03     2.37286E-03
             206     133.560E-09     13.6132E-03    -138.462E+06    -275.302E+06    -138.804E+06     615.047E+03    -184.761E-03     369.448E-03    -184.687E-03     1.75914E-03    -184.858E-03     368.475E-03    -184.781E-03     1.20416E-03
             207    -193.760E-09     12.2539E-03    -136.940E+06    -272.042E+06    -136.476E+06     96.2772E+03    -177.086E-03     354.175E-03    -177.089E-03     996.390E-06    -177.183E-03     353.212E-03    -177.178E-03     471.905E-06
             208     278.397E-09     10.9144E-03    -137.839E+06    -272.590E+06    -137.175E+06    -566.670E+03    -170.477E-03     340.496E-03    -170.019E-03     893.880E-06    -170.576E-03     339.534E-03    -170.110E-03     385.784E-06
             209     359.222E-09     9.59229E-03    -140.279E+06    -277.122E+06    -139.136E+06    -598.706E+03    -165.952E-03     331.676E-03    -165.724E-03     2.20748E-03    -166.053E-03     330.699E-03    -165.815E-03     1.69437E-03
             210    -632.603E-09     8.27691E-03    -141.195E+06    -280.084E+06    -140.613E+06    -149.597E+03    -165.671E-03     331.990E-03    -166.319E-03     4.22764E-03    -165.772E-03     331.003E-03    -166.412E-03     3.72302E-03
             211    -71.7987E-09     6.95361E-03    -138.723E+06    -279.129E+06    -139.175E+06     869.111E+03    -170.805E-03     342.544E-03    -171.739E-03     5.77829E-03    -170.899E-03     341.554E-03    -171.829E-03     5.29944E-03
             212    -631.730E-09     5.61009E-03    -126.869E+06    -276.865E+06    -126.775E+06     534.947E+03    -178.978E-03     359.541E-03    -180.563E-03     6.00385E-03    -179.035E-03     358.527E-03    -180.612E-03     5.51192E-03
             213    -1.02104E-06     4.24063E-03    -111.190E+06    -273.534E+06    -112.127E+06     1.20320E+06    -188.703E-03     378.724E-03    -190.020E-03     5.53903E-03    -188.707E-03     377.681E-03    -190.023E-03     5.10631E-03
             214     717.628E-09     2.84220E-03    -96.5580E+06    -263.344E+06    -96.5266E+06     2.58992E+06    -197.699E-03     395.378E-03    -197.679E-03     4.30973E-03    -197.662E-03     394.342E-03    -197.640E-03     4.00543E-03
             215    -379.191E-09     1.42604E-03    -80.6107E+06    -254.994E+06    -79.2806E+06     221.146E+03    -203.068E-03     405.740E-03    -202.672E-03     2.50602E-03    -202.985E-03     404.698E-03    -202.582E-03     2.33105E-03
             216     732.403E-06     5.16254E-15    -72.5889E+06    -254.748E+06    -71.6886E+06     111.219E+03    -204.823E-03     409.403E-03    -204.580E-03     2.65557E-03    -204.712E-03     408.339E-03    -204.464E-03     2.50457E-03
             217     1.46542E-03     5.16254E-15    -72.6724E+06    -253.459E+06    -68.4040E+06     1.84477E+06    -204.762E-03     409.496E-03    -204.734E-03     3.96414E-03    -204.660E-03     408.434E-03    -204.603E-03     3.66364E-03
             218     2.19852E-03     5.16254E-15    -71.9239E+06    -243.948E+06    -64.2867E+06     1.22796E+06    -204.529E-03     409.259E-03    -204.731E-03     5.24030E-03    -204.445E-03     408.240E-03    -204.594E-03     4.77435E-03
             219     2.93133E-03     5.16254E-15    -70.6815E+06    -227.926E+06    -59.6436E+06     1.42026E+06    -204.261E-03     408.926E-03    -204.665E-03     7.18889E-03    -204.203E-03     407.981E-03    -204.530E-03     6.57961E-03
             220     3.66438E-03     5.16254E-15    -68.9755E+06    -207.547E+06    -53.4775E+06      935.15E+03    -203.997E-03     408.575E-03    -204.578E-03     9.00348E-03    -203.973E-03     407.724E-03    -204.444E-03     8.24259E-03
             221     4.39804E-03     5.16254E-15    -66.1430E+06    -181.077E+06    -46.8232E+06    -164.996E+03    -203.820E-03     408.300E-03    -204.481E-03     10.7179E-03    -203.832E-03     407.571E-03    -204.356E-03     9.80730E-03
             222     5.13119E-03     5.16254E-15    -62.4568E+06    -150.928E+06    -39.7148E+06    -534.756E+03    -203.891E-03     408.292E-03    -204.402E-03     12.7029E-03    -203.943E-03     407.702E-03    -204.291E-03     11.6549E-03
             223     5.86439E-03     5.16254E-15    -57.9636E+06    -116.534E+06    -32.4400E+06    -1.78170E+06    -204.343E-03     408.713E-03    -204.370E-03     14.8316E-03    -204.439E-03     408.283E-03    -204.279E-03     13.6372E-03
             224     6.59707E-03     5.16254E-15    -51.2554E+06    -77.5718E+06    -24.9437E+06    -5.11730E+06    -205.320E-03     409.735E-03    -204.415E-03     16.9944E-03    -205.455E-03     409.485E-03    -204.353E-03     15.6126E-03
             225     7.32864E-03     5.16254E-15    -42.4783E+06    -28.8527E+06    -16.3796E+06    -6.30719E+06    -206.867E-03     411.432E-03    -204.564E-03     19.2203E-03    -207.049E-03     411.408E-03    -204.543E-03     17.6543E-03
             226     8.05909E-03     5.16254E-15    -34.5335E+06     12.7961E+06    -4.93780E+06    -3.93737E+06    -209.176E-03     414.060E-03    -204.883E-03     21.5583E-03    -209.405E-03     414.225E-03    -204.876E-03     19.8285E-03
             227     8.78711E-03     5.16254E-15    -28.5168E+06     30.2857E+06     7.12389E+06    -2.03908E+06    -212.592E-03     418.019E-03    -205.427E-03     24.4097E-03    -212.845E-03     418.257E-03    -205.394E-03     22.4635E-03
             228     9.51225E-03     5.16254E-15    -24.6857E+06     38.3075E+06     21.9523E+06     230.886E+03    -217.420E-03     423.657E-03    -206.237E-03     27.6181E-03    -217.705E-03     423.926E-03    -206.147E-03     25.3570E-03
             229     10.2335E-03     5.16254E-15    -21.8525E+06     46.2026E+06     39.6720E+06     1.59325E+06    -224.270E-03     431.638E-03    -207.368E-03     30.7296E-03    -224.603E-03     431.943E-03    -207.205E-03     27.9899E-03
             230     10.9497E-03     5.16254E-15    -18.5698E+06     52.8910E+06     60.1599E+06     1.65856E+06    -234.513E-03     443.444E-03    -208.931E-03     33.7610E-03    -234.894E-03     443.774E-03    -208.680E-03     30.5313E-03
             231     11.6571E-03     5.16254E-15    -14.8830E+06     60.2375E+06     82.2893E+06       80.87E+03    -250.547E-03     461.658E-03    -211.111E-03     38.4499E-03    -250.991E-03     462.029E-03    -210.765E-03     34.5067E-03
             232     12.3502E-03     5.16254E-15    -12.2555E+06     68.6840E+06     91.2906E+06     3.26529E+06    -276.368E-03     490.516E-03    -214.148E-03     57.6961E-03    -276.946E-03     491.034E-03    -213.773E-03     52.4728E-03
             233     13.0052E-03     5.16254E-15    -13.8714E+06     74.6218E+06     87.5730E+06     4.14175E+06    -319.469E-03     538.031E-03    -218.562E-03     101.176E-03    -320.731E-03     539.275E-03    -218.213E-03     90.2946E-03
             234     13.6361E-03     5.16254E-15    -8.11117E+06     85.4239E+06     91.3228E+06    -1.26711E+06    -386.985E-03     612.095E-03    -225.110E-03     163.357E-03    -390.036E-03     615.193E-03    -224.765E-03     140.135E-03
             235     14.3145E-03     1.93680E-03    -6.19361E+06     91.5925E+06     90.1160E+06    -4.04526E+06    -384.508E-03     611.606E-03    -227.098E-03     169.995E-03    -388.308E-03     615.457E-03    -226.771E-03     142.345E-03
             236     14.3585E-03     3.58851E-03    -3.34033E+06     95.8705E+06     89.2719E+06    -1.28089E+06    -318.417E-03     543.170E-03    -224.752E-03     128.909E-03    -321.399E-03     546.207E-03    -224.440E-03     106.368E-03
             237     14.3685E-03     5.16627E-03     2.55106E+06     97.4107E+06     96.0652E+06     1.17875E+06    -292.837E-03     517.001E-03    -224.165E-03     103.266E-03    -295.256E-03     519.492E-03    -223.829E-03     83.0785E-03
             238     14.3702E-03     6.74574E-03    -1.52948E+06     91.2886E+06     94.9635E+06     302.559E+03    -286.023E-03     510.030E-03    -224.007E-03     88.6537E-03    -288.177E-03     512.225E-03    -223.662E-03     69.2679E-03
             239     14.3743E-03     8.31949E-03    -2.64113E+06     87.9336E+06     92.4908E+06    -730.599E+03    -276.359E-03     500.409E-03    -224.050E-03     84.8446E-03    -278.367E-03     502.451E-03    -223.712E-03     66.5613E-03
             240     14.3746E-03     9.87175E-03    -2.54928E+06     87.0062E+06     92.9144E+06    -497.694E+03    -267.678E-03     491.861E-03    -224.183E-03     81.4063E-03    -269.560E-03     493.773E-03    -223.841E-03     64.2066E-03
             241     14.3744E-03     11.4162E-03    -2.10668E+06     87.0872E+06     94.4442E+06     543.471E+03    -260.243E-03     484.632E-03    -224.388E-03     78.3931E-03    -262.018E-03     486.435E-03    -224.039E-03     62.1222E-03
             242     14.3736E-03     12.9493E-03    -2.92258E+06     84.3078E+06     91.6126E+06    -2.16385E+06    -250.568E-03     475.163E-03    -224.596E-03     76.5459E-03    -252.272E-03     476.890E-03    -224.256E-03     61.0625E-03
             243     14.3768E-03     14.4592E-03    -1.78679E+06     85.7372E+06     93.3972E+06    -2.00347E+06    -243.480E-03     468.222E-03    -224.741E-03     74.2869E-03    -245.121E-03     469.890E-03    -224.396E-03     59.4986E-03
             244     14.3733E-03     15.9717E-03    -1.32372E+06     83.6689E+06     92.2758E+06     1.83306E+06    -239.730E-03     464.599E-03    -224.869E-03     69.4234E-03    -241.252E-03     466.146E-03    -224.527E-03     55.3699E-03
             245     14.3749E-03     17.4760E-03    -3.27599E+06     80.3529E+06     88.5499E+06     1.23883E+06    -234.325E-03     459.348E-03    -225.023E-03     68.1685E-03    -235.835E-03     460.875E-03    -224.692E-03     54.3643E-03
             246     14.3735E-03     18.9695E-03    -1.51425E+06     82.5652E+06     91.1510E+06     117.057E+03    -230.468E-03     455.578E-03    -225.111E-03     68.1893E-03    -231.976E-03     457.110E-03    -224.772E-03     54.5697E-03
             247     14.3757E-03     20.4653E-03    -1.88494E+06     81.6454E+06     90.6552E+06    -871.682E+03    -228.570E-03     453.685E-03    -225.115E-03     66.6921E-03    -230.034E-03     455.169E-03    -224.777E-03     53.3615E-03
             248     14.3751E-03     21.9535E-03    -3.72813E+06     79.9167E+06     89.1473E+06    -100.774E+03    -227.451E-03     452.598E-03    -225.147E-03     64.4055E-03    -228.888E-03     454.046E-03    -224.811E-03     51.2501E-03
             249     14.3738E-03     23.4477E-03    -2.25845E+06     81.5383E+06     90.4208E+06     1.03468E+06    -225.027E-03     450.273E-03    -225.246E-03     62.6584E-03    -226.417E-03     451.682E-03    -224.909E-03     49.8503E-03
             250     14.3751E-03     24.9281E-03    -1.28035E+06     82.2926E+06     91.3493E+06    -540.567E+03    -222.376E-03     447.676E-03    -225.300E-03     63.4095E-03    -223.783E-03     449.106E-03    -224.961E-03     50.5970E-03
             251     14.3747E-03     26.4119E-03    -2.77521E+06     80.6875E+06     91.0991E+06    -247.128E+03    -223.109E-03     448.375E-03    -225.265E-03     62.7479E-03    -224.515E-03     449.793E-03    -224.923E-03     49.8938E-03
             252     14.3752E-03     27.8998E-03    -2.50264E+06     80.3320E+06     90.8539E+06     127.631E+03    -224.018E-03     449.249E-03    -225.232E-03     61.2692E-03    -225.370E-03     450.615E-03    -224.890E-03     48.6360E-03
             253     14.3752E-03     29.3829E-03    -2.37202E+06     81.3325E+06     89.9145E+06     465.282E+03    -224.310E-03     449.526E-03    -225.216E-03     59.2360E-03    -225.622E-03     450.857E-03    -224.881E-03     46.7625E-03
             254     14.3747E-03     30.8709E-03    -1.92236E+06     82.1117E+06     90.4639E+06     21.9466E+03    -224.132E-03     449.349E-03    -225.217E-03     58.5286E-03    -225.446E-03     450.685E-03    -224.881E-03     45.9937E-03
             255     14.3758E-03     32.3583E-03    -1.93659E+06     81.0314E+06     91.0753E+06    -483.120E+03    -223.373E-03     448.588E-03    -225.215E-03     60.2312E-03    -224.727E-03     449.959E-03    -224.875E-03     47.5267E-03
             256     14.3756E-03     33.8441E-03    -2.88305E+06     80.5008E+06      90.948E+06     407.444E+03    -223.472E-03     448.677E-03    -225.205E-03     59.9496E-03    -224.822E-03     450.038E-03    -224.862E-03     47.2986E-03
             257     14.3755E-03     35.3285E-03    -2.24751E+06     81.3597E+06     91.6356E+06    -617.934E+03    -223.851E-03     449.056E-03    -225.205E-03     58.4551E-03    -225.177E-03     450.397E-03    -224.862E-03     45.8237E-03
             258     14.3753E-03     36.8147E-03    -3.35327E+06     80.9900E+06     91.5220E+06     206.032E+03    -224.333E-03     449.525E-03    -225.192E-03     58.9860E-03    -225.674E-03     450.876E-03    -224.847E-03     46.3117E-03
             259     14.3759E-03     38.3050E-03    -2.31493E+06     79.0047E+06     90.8559E+06    -271.222E+03    -224.565E-03     449.771E-03    -225.206E-03     57.9495E-03    -225.897E-03     451.111E-03    -224.863E-03     45.1757E-03
             260     14.3736E-03     39.7895E-03    -2.33207E+06     78.5997E+06     91.2704E+06    -14.4411E+03    -224.174E-03     449.388E-03    -225.213E-03     60.0966E-03    -225.509E-03     450.728E-03    -224.868E-03     47.4493E-03
             261     14.3780E-03     41.2795E-03     -3.0602E+06     81.6542E+06     92.9777E+06     840.526E+03    -224.402E-03     449.555E-03    -225.153E-03     63.1108E-03    -225.746E-03     450.908E-03    -224.802E-03     50.7031E-03
             262     14.3750E-03     42.7720E-03    -937.873E+03     82.3641E+06     92.4607E+06    -1.37416E+06    -224.646E-03     449.791E-03    -225.145E-03     63.8106E-03    -225.996E-03     451.162E-03    -224.801E-03     51.2904E-03
             263     14.3764E-03     44.2549E-03    -1.76494E+06     79.6359E+06     90.1762E+06    -221.715E+03    -224.219E-03     449.399E-03    -225.180E-03     63.3404E-03    -225.577E-03     450.772E-03    -224.842E-03     50.7473E-03
             264     14.3750E-03     45.7394E-03    -3.49428E+06     77.9192E+06     89.6736E+06     599.587E+03    -224.509E-03     449.708E-03    -225.199E-03     59.0683E-03    -225.833E-03     451.036E-03    -224.859E-03     46.4993E-03
             265     14.3749E-03     47.2236E-03    -2.71508E+06     79.2863E+06     90.7464E+06     493.686E+03    -224.241E-03     449.453E-03    -225.211E-03     56.4998E-03    -225.537E-03     450.757E-03    -224.869E-03     43.9719E-03
             266     14.3761E-03     48.7108E-03    -763.993E+03     81.7798E+06     92.8517E+06     776.337E+03    -223.872E-03     449.055E-03    -225.183E-03     58.4925E-03    -225.192E-03     450.393E-03    -224.836E-03     45.9046E-03
             267     14.3762E-03     50.2023E-03    -2.46192E+06     81.1725E+06     92.0839E+06    -385.034E+03    -224.792E-03     449.954E-03    -225.161E-03     61.7170E-03    -226.153E-03     451.327E-03    -224.815E-03     49.0228E-03
             268     14.3749E-03     51.6942E-03    -3.46106E+06     80.2153E+06     90.9353E+06     -527.32E+03    -223.956E-03     449.143E-03    -225.187E-03     63.7649E-03    -225.336E-03     450.532E-03    -224.844E-03     51.1171E-03
             269     14.3771E-03     53.1739E-03    -1.71674E+06     81.8462E+06     92.9172E+06     702.074E+03    -222.813E-03     448.009E-03    -225.196E-03     61.9529E-03    -224.177E-03     449.388E-03    -224.848E-03     49.3383E-03
             270     14.3753E-03     54.6559E-03    -2.23941E+06     82.1109E+06     93.6522E+06    -345.834E+03    -223.863E-03     449.043E-03    -225.180E-03     58.7833E-03    -225.177E-03     450.369E-03    -224.828E-03     46.3040E-03
             271     14.3762E-03     56.1469E-03    -2.45339E+06     81.2089E+06     92.5815E+06    -192.557E+03    -224.320E-03     449.476E-03    -225.156E-03     60.1703E-03    -225.620E-03     450.787E-03    -224.808E-03     47.8626E-03
             272     14.3768E-03     57.6333E-03    -1.79825E+06     81.9715E+06     92.5922E+06     138.696E+03    -224.303E-03     449.453E-03    -225.150E-03     59.6229E-03    -225.623E-03     450.789E-03    -224.803E-03     47.1038E-03
             273     14.3749E-03     59.1180E-03    -1.98861E+06     82.6548E+06     92.7462E+06     159.322E+03    -224.182E-03     449.348E-03    -225.166E-03     59.1281E-03    -225.508E-03     450.691E-03    -224.819E-03     46.5555E-03
             274     14.3773E-03     60.6076E-03    -2.58076E+06     82.0503E+06     91.8806E+06    -597.737E+03    -224.070E-03     449.225E-03    -225.155E-03     60.4753E-03    -225.399E-03     450.570E-03    -224.811E-03     47.9717E-03
             275     14.3751E-03     62.0932E-03    -2.67978E+06     80.7085E+06     91.4971E+06     99.3245E+03    -225.131E-03     450.275E-03    -225.144E-03     59.3227E-03    -226.439E-03     451.595E-03    -224.800E-03     46.8714E-03
             276     14.3762E-03     63.5806E-03    -1.80052E+06     81.7006E+06     92.6148E+06     733.321E+03    -224.878E-03     450.025E-03    -225.146E-03     59.1928E-03    -226.185E-03     451.347E-03    -224.799E-03     46.7465E-03
             277     14.3766E-03     65.0714E-03    -2.11771E+06     81.4361E+06     91.6634E+06    -273.941E+03    -223.753E-03     448.923E-03    -225.169E-03     59.8556E-03    -225.086E-03     450.271E-03    -224.826E-03     47.2873E-03
             278     14.3748E-03     66.5552E-03    -3.32108E+06     79.9751E+06     90.1596E+06    -390.801E+03    -223.522E-03     448.736E-03    -225.214E-03     59.1690E-03    -224.856E-03     450.080E-03    -224.875E-03     46.5711E-03
             279     14.3755E-03     68.0375E-03    -1.99009E+06     79.8826E+06     90.6862E+06    -598.401E+03    -223.922E-03     449.115E-03    -225.193E-03     58.7367E-03    -225.241E-03     450.448E-03    -224.853E-03     46.1358E-03
             280     14.3765E-03     69.5268E-03    -2.73268E+06     79.1459E+06     90.8367E+06     341.242E+03    -224.761E-03     449.915E-03    -225.154E-03     58.9253E-03    -226.071E-03     451.233E-03    -224.810E-03     46.4246E-03
             281     14.3751E-03     71.0197E-03    -2.06281E+06     79.6213E+06     90.9842E+06     320.286E+03    -224.260E-03     449.437E-03    -225.177E-03     60.3914E-03    -225.581E-03     450.770E-03    -224.835E-03     47.9078E-03
             282     14.3763E-03     72.5011E-03    -1.79838E+06     78.8482E+06     91.0294E+06    -531.372E+03    -224.018E-03     449.201E-03    -225.183E-03     61.2069E-03    -225.358E-03     450.551E-03    -224.840E-03     48.5988E-03
             283     14.3753E-03     73.9895E-03    -3.26899E+06     79.0442E+06     91.4405E+06     569.977E+03    -224.326E-03     449.488E-03    -225.162E-03     59.7219E-03    -225.645E-03     450.811E-03    -224.815E-03     47.2510E-03
             284     14.3771E-03     75.4763E-03    -1.22925E+06     80.8946E+06     92.3270E+06     157.300E+03    -223.514E-03     448.664E-03    -225.150E-03     59.8720E-03    -224.832E-03     449.997E-03    -224.803E-03     47.3911E-03
             285     14.3764E-03     76.9598E-03    -2.54098E+06     80.4409E+06     92.0984E+06    -857.856E+03    -224.066E-03     449.215E-03    -225.149E-03     59.1736E-03    -225.395E-03     450.553E-03    -224.801E-03     46.5680E-03
             286     14.3752E-03     78.4500E-03    -3.79285E+06     77.1649E+06     90.9443E+06    -987.325E+03    -224.861E-03     450.027E-03    -225.166E-03     59.0623E-03    -226.174E-03     451.337E-03    -224.818E-03     46.5453E-03
             287     14.3761E-03     79.9357E-03    -1.98974E+06     75.5604E+06     90.8216E+06     309.585E+03    -224.460E-03     449.633E-03    -225.173E-03     59.0326E-03    -225.756E-03     450.927E-03    -224.826E-03     46.5881E-03
             288     14.3756E-03     81.4228E-03    -2.15990E+06     76.7210E+06     91.4819E+06     518.713E+03    -224.489E-03     449.677E-03    -225.189E-03     58.1929E-03    -225.791E-03     450.979E-03    -224.840E-03     45.6812E-03
             289     14.3749E-03     82.9115E-03    -1.75371E+06     79.5132E+06      92.416E+06     574.319E+03    -223.847E-03     449.052E-03    -225.204E-03     59.9875E-03    -225.169E-03     450.381E-03    -224.855E-03     47.4967E-03
             290     14.3770E-03     84.3979E-03    -2.22229E+06     79.3727E+06     89.9856E+06    -69.6275E+03    -223.678E-03     448.864E-03    -225.186E-03     60.9293E-03    -225.009E-03     450.207E-03    -224.848E-03     48.4218E-03
             291     14.3742E-03     85.8837E-03    -2.07450E+06     78.1588E+06     88.0025E+06    -39.5956E+03    -224.778E-03     449.949E-03    -225.172E-03     60.6541E-03    -226.103E-03     451.290E-03    -224.842E-03     48.0698E-03
             292     718.408E-06     86.0276E-03    -146.598E+06    -282.516E+06    -144.071E+06     -432.82E+03    -225.402E-03     450.476E-03    -225.074E-03     18.9196E-03    -225.569E-03     449.538E-03    -225.172E-03     16.7976E-03
             293     1.43692E-03     86.0632E-03    -141.513E+06    -264.811E+06    -130.000E+06    -281.867E+03    -225.393E-03     450.628E-03    -225.235E-03     35.0205E-03    -225.692E-03     449.862E-03    -225.296E-03     31.1208E-03
             294     2.15528E-03     86.1226E-03    -134.762E+06    -244.188E+06    -110.928E+06    -214.387E+03    -225.578E-03     450.849E-03    -225.271E-03     51.4253E-03    -226.083E-03     450.331E-03    -225.276E-03     45.6760E-03
             295     2.87380E-03     86.2032E-03    -126.111E+06    -222.415E+06    -88.5658E+06    -91.2602E+03    -225.794E-03     451.099E-03    -225.305E-03     67.2992E-03    -226.571E-03     450.896E-03    -225.243E-03     59.6985E-03
             296     3.59252E-03     86.3044E-03    -115.971E+06    -196.803E+06    -65.9892E+06    -530.213E+03    -226.137E-03     451.462E-03    -225.325E-03     82.7811E-03    -227.248E-03     451.655E-03    -225.202E-03     73.3265E-03
             297     4.31144E-03     86.4264E-03    -105.699E+06    -168.550E+06    -45.3014E+06    -842.764E+03    -226.587E-03     451.926E-03    -225.339E-03     97.3448E-03    -228.087E-03     452.584E-03    -225.168E-03     86.0840E-03
             298     5.03006E-03     86.5671E-03    -95.4515E+06    -142.169E+06    -26.0158E+06    -912.063E+03    -227.029E-03     452.386E-03    -225.357E-03     110.622E-03    -228.951E-03     453.540E-03    -225.143E-03     97.6461E-03
             299     5.74872E-03     86.7249E-03    -85.5355E+06    -115.674E+06    -8.51515E+06    -1.03903E+06    -227.459E-03     452.829E-03    -225.370E-03     122.591E-03    -229.819E-03     454.499E-03    -225.121E-03     108.032E-03
             300     6.46733E-03     86.8978E-03    -75.9588E+06    -87.8141E+06     7.45837E+06    -1.34288E+06    -227.849E-03     453.226E-03    -225.377E-03     132.915E-03    -230.637E-03     455.412E-03    -225.103E-03     116.945E-03
             301     7.18576E-03     87.0829E-03    -66.7281E+06    -58.1886E+06     22.2943E+06    -1.70901E+06    -228.079E-03     453.453E-03    -225.374E-03     141.518E-03    -231.261E-03     456.126E-03    -225.081E-03     124.366E-03
             302     7.90462E-03     87.2786E-03    -58.0031E+06    -24.9079E+06     36.4147E+06    -1.81073E+06    -228.079E-03     453.429E-03    -225.349E-03     147.982E-03    -231.595E-03     456.544E-03    -225.047E-03     129.897E-03
             303     8.62399E-03     87.4796E-03    -48.7033E+06     12.2910E+06     50.2329E+06    -2.23900E+06    -227.974E-03     453.277E-03    -225.304E-03     151.985E-03    -231.747E-03     456.776E-03    -225.000E-03     133.175E-03
             304     9.34344E-03     87.6844E-03    -38.6793E+06     41.9471E+06     61.5261E+06    -968.837E+03    -227.919E-03     453.173E-03    -225.253E-03     153.702E-03    -231.854E-03     456.940E-03    -224.950E-03     134.357E-03
             305     10.0621E-03     87.8900E-03    -31.8739E+06     50.5699E+06     67.9661E+06     1.39346E+06    -227.889E-03     453.113E-03    -225.224E-03     153.234E-03    -231.885E-03     456.978E-03    -224.911E-03     133.522E-03
             306     10.7815E-03     88.0922E-03    -28.9311E+06     46.5362E+06     71.2184E+06     3.45515E+06    -227.699E-03     452.916E-03    -225.217E-03     149.947E-03    -231.661E-03     456.735E-03    -224.887E-03     130.037E-03
             307     11.5001E-03     88.2875E-03    -24.4865E+06     59.5386E+06     80.2629E+06     3.69707E+06    -227.192E-03     452.415E-03    -225.223E-03     144.016E-03    -231.082E-03     456.196E-03    -224.872E-03     123.955E-03
             308     12.2180E-03     88.4717E-03    -17.8324E+06     74.1754E+06     90.1757E+06     2.01560E+06    -226.413E-03     451.643E-03    -225.231E-03     132.750E-03    -230.011E-03     455.180E-03    -224.861E-03     113.068E-03
             309     12.9382E-03     88.6320E-03    -11.1494E+06     77.2827E+06     93.7644E+06     1.06210E+06    -225.998E-03     451.230E-03    -225.232E-03     123.688E-03    -229.439E-03     454.633E-03    -224.859E-03     103.881E-03
             310     13.6567E-03     88.7863E-03    -5.51523E+06     80.1333E+06     93.1082E+06     159.503E+03    -224.881E-03     450.096E-03    -225.215E-03     90.6655E-03    -227.313E-03     452.523E-03    -224.857E-03     74.1965E-03
             311     718.492E-06     87.5133E-03    -146.301E+06    -280.283E+06    -142.713E+06    -857.230E+03    -225.373E-03     450.477E-03    -225.104E-03     19.1601E-03    -225.544E-03     449.549E-03    -225.199E-03     17.0267E-03
             312     1.43677E-03     87.5503E-03    -141.520E+06    -265.189E+06    -129.454E+06    -589.022E+03    -225.485E-03     450.740E-03    -225.255E-03     35.2729E-03    -225.785E-03     449.972E-03    -225.312E-03     31.3671E-03
             313     2.15524E-03     87.6087E-03    -134.583E+06    -243.870E+06    -110.212E+06    -371.218E+03    -225.550E-03     450.849E-03    -225.299E-03     51.5719E-03    -226.057E-03     450.331E-03    -225.301E-03     45.8272E-03
             314     2.87407E-03     87.6894E-03    -125.665E+06    -221.848E+06    -88.2068E+06    -753.001E+03    -225.798E-03     451.117E-03    -225.319E-03     67.4089E-03    -226.575E-03     450.916E-03    -225.256E-03     59.7959E-03
             315     3.59271E-03     87.7907E-03    -115.834E+06    -196.144E+06    -66.1593E+06    -776.715E+03    -226.246E-03     451.591E-03    -225.344E-03     82.6889E-03    -227.357E-03     451.786E-03    -225.223E-03     73.2260E-03
             316     4.31103E-03     87.9131E-03    -106.041E+06    -167.713E+06    -45.4190E+06    -884.269E+03    -226.660E-03     452.032E-03    -225.373E-03     97.1876E-03    -228.163E-03     452.695E-03    -225.203E-03     85.9185E-03
             317     5.02964E-03     88.0536E-03    -96.2708E+06    -141.582E+06    -26.4262E+06    -1.03028E+06    -227.045E-03     452.439E-03    -225.394E-03     110.554E-03    -228.972E-03     453.597E-03    -225.181E-03     97.5718E-03
             318     5.74829E-03     88.2116E-03    -86.7680E+06    -115.159E+06    -9.35269E+06    -1.14369E+06    -227.369E-03     452.766E-03    -225.397E-03     122.689E-03    -229.734E-03     454.442E-03    -225.151E-03     108.137E-03
             319     6.46710E-03     88.3844E-03    -77.6560E+06    -86.7744E+06     6.26386E+06    -1.35021E+06    -227.653E-03     453.034E-03    -225.381E-03     133.307E-03    -230.451E-03     455.230E-03    -225.112E-03     117.363E-03
             320     7.18615E-03     88.5700E-03    -69.1427E+06    -57.4152E+06     20.6809E+06    -1.67087E+06    -227.893E-03     453.247E-03    -225.354E-03     141.941E-03    -231.088E-03     455.932E-03    -225.067E-03     124.811E-03
             321     7.90532E-03     88.7644E-03    -60.6429E+06    -23.6697E+06     34.9802E+06    -2.35058E+06    -228.002E-03     453.320E-03    -225.318E-03     148.057E-03    -231.533E-03     456.450E-03    -225.021E-03     129.964E-03
             322     8.62437E-03     88.9661E-03    -53.0249E+06     14.3410E+06     48.5796E+06    -3.26447E+06    -228.055E-03     453.331E-03    -225.277E-03     151.770E-03    -231.849E-03     456.848E-03    -224.978E-03     132.933E-03
             323     9.34297E-03     89.1708E-03    -47.1123E+06     36.8959E+06     55.6905E+06    -3.11656E+06    -228.074E-03     453.310E-03    -225.237E-03     153.395E-03    -232.035E-03     457.074E-03    -224.943E-03     133.989E-03
             324     10.0625E-03     89.3763E-03    -40.2054E+06     41.5961E+06     58.8525E+06     1.29637E+06    -227.959E-03     453.169E-03    -225.210E-03     152.810E-03    -231.967E-03     457.011E-03    -224.918E-03     133.086E-03
             325     10.7810E-03     89.5794E-03    -31.7019E+06     45.0667E+06     65.1438E+06     4.84101E+06    -227.593E-03     452.794E-03    -225.201E-03     149.729E-03    -231.556E-03     456.615E-03    -224.894E-03     129.842E-03
             326     11.4999E-03     89.7743E-03    -24.0824E+06     62.3380E+06     78.9102E+06     3.29173E+06    -226.982E-03     452.191E-03    -225.209E-03     144.206E-03    -230.869E-03     455.985E-03    -224.870E-03     124.172E-03
             327     12.2202E-03     89.9583E-03    -16.9262E+06     76.5172E+06     91.5718E+06     1.33928E+06    -226.310E-03     451.531E-03    -225.220E-03     132.578E-03    -229.897E-03     455.063E-03    -224.849E-03     112.927E-03
             328     12.9383E-03     90.1188E-03    -10.4963E+06     78.5613E+06      94.683E+06     133.408E+03    -225.708E-03     450.919E-03    -225.211E-03     123.599E-03    -229.147E-03     454.325E-03    -224.836E-03     103.804E-03
             329     13.6561E-03     90.2765E-03    -4.97688E+06     80.4703E+06     92.8548E+06    -217.030E+03    -224.901E-03     450.085E-03    -225.184E-03     90.6299E-03    -227.333E-03     452.515E-03    -224.829E-03     74.1612E-03
             330     718.568E-06     89.0000E-03    -145.367E+06    -278.768E+06    -142.313E+06    -232.053E+03    -225.409E-03     450.499E-03    -225.090E-03     19.3048E-03    -225.579E-03     449.577E-03    -225.187E-03     17.1592E-03
             331     1.43696E-03     89.0368E-03    -141.475E+06    -265.079E+06    -129.369E+06    -165.908E+03    -225.438E-03     450.693E-03    -225.255E-03     35.1555E-03    -225.738E-03     449.924E-03    -225.312E-03     31.2608E-03
             332     2.15547E-03     89.0951E-03    -134.260E+06    -243.241E+06    -110.128E+06    -417.866E+03    -225.635E-03     450.936E-03    -225.301E-03     51.3207E-03    -226.139E-03     450.420E-03    -225.304E-03     45.5776E-03
             333     2.87384E-03     89.1756E-03    -125.863E+06    -221.245E+06    -88.5394E+06    -451.943E+03    -225.945E-03     451.295E-03    -225.350E-03     67.2508E-03    -226.723E-03     451.097E-03    -225.289E-03     59.6364E-03
             334     3.59217E-03     89.2776E-03    -116.884E+06    -196.184E+06    -67.0021E+06    -321.536E+03    -226.256E-03     451.643E-03    -225.387E-03     82.6843E-03    -227.372E-03     451.842E-03    -225.268E-03     73.2220E-03
             335     4.31091E-03     89.3995E-03    -107.183E+06    -166.924E+06    -46.2587E+06    -286.982E+03    -226.584E-03     451.985E-03    -225.401E-03     97.4331E-03    -228.094E-03     452.657E-03    -225.235E-03     86.1776E-03
             336     5.02959E-03     89.5405E-03    -97.6610E+06    -141.051E+06    -27.3481E+06    -494.842E+03    -226.939E-03     452.341E-03    -225.402E-03     110.949E-03    -228.874E-03     453.509E-03    -225.193E-03     97.9827E-03
             337     5.74838E-03     89.6980E-03    -88.2361E+06    -114.739E+06    -10.3024E+06    -544.922E+03    -227.247E-03     452.634E-03    -225.387E-03     123.016E-03    -229.622E-03     454.319E-03    -225.145E-03     108.477E-03
             338     6.46746E-03     89.8706E-03    -79.4153E+06    -86.0874E+06     5.26148E+06    -444.339E+03    -227.548E-03     452.906E-03    -225.358E-03     133.396E-03    -230.354E-03     455.110E-03    -225.092E-03     117.472E-03
             339     7.18655E-03     90.0560E-03    -70.9474E+06    -56.0694E+06     20.0682E+06    -614.044E+03    -227.864E-03     453.193E-03    -225.329E-03     141.642E-03    -231.066E-03     455.886E-03    -225.044E-03     124.525E-03
             340     7.90529E-03     90.2512E-03    -63.2431E+06    -21.5781E+06     34.3016E+06    -990.232E+03    -228.099E-03     453.401E-03    -225.302E-03     147.676E-03    -231.643E-03     456.544E-03    -225.007E-03     129.585E-03
             341     8.62402E-03     90.4525E-03    -56.2342E+06     15.4377E+06     46.5528E+06    -804.736E+03    -228.158E-03     453.427E-03    -225.269E-03     151.608E-03    -231.969E-03     456.958E-03    -224.977E-03     132.784E-03
             342     9.34337E-03     90.6577E-03    -49.0421E+06     35.5059E+06     53.4990E+06    -91.7949E+03    -228.172E-03     453.411E-03    -225.238E-03     153.468E-03    -232.137E-03     457.172E-03    -224.951E-03     134.115E-03
             343     10.0614E-03     90.8631E-03    -41.7598E+06     37.6302E+06     56.2158E+06    -1.09712E+06    -228.017E-03     453.233E-03    -225.216E-03     153.112E-03    -232.027E-03     457.066E-03    -224.929E-03     133.355E-03
             344     10.7809E-03     91.0653E-03    -32.9591E+06     40.8811E+06     63.1805E+06    -1.67833E+06    -227.576E-03     452.786E-03    -225.210E-03     149.966E-03    -231.548E-03     456.603E-03    -224.906E-03     129.945E-03
             345     11.5006E-03     91.2605E-03    -23.0841E+06     61.8080E+06     79.4263E+06    -19.6179E+03    -227.064E-03     452.288E-03    -225.224E-03     143.842E-03    -230.947E-03     456.078E-03    -224.883E-03     123.718E-03
             346     12.2183E-03     91.4451E-03    -15.3609E+06     77.5271E+06     91.7393E+06     733.442E+03    -226.278E-03     451.513E-03    -225.234E-03     132.148E-03    -229.861E-03     455.050E-03    -224.866E-03     112.455E-03
             347     12.9374E-03     91.6065E-03    -9.41061E+06     79.6941E+06     94.9168E+06     1.01167E+06    -225.205E-03     450.417E-03    -225.213E-03     122.895E-03    -228.627E-03     453.814E-03    -224.840E-03     103.171E-03
             348     13.6590E-03     91.7597E-03    -4.49386E+06     81.6655E+06     93.7300E+06     661.058E+03    -224.820E-03     449.995E-03    -225.175E-03     90.4034E-03    -227.239E-03     452.416E-03    -224.818E-03     73.9981E-03
             349     718.196E-06     90.4864E-03    -147.126E+06    -278.603E+06    -143.999E+06    -387.554E+03    -225.457E-03     450.676E-03    -225.219E-03     19.1708E-03    -225.633E-03     449.759E-03    -225.322E-03     17.0470E-03
             350     1.43677E-03     90.5231E-03    -142.306E+06    -264.855E+06    -130.897E+06    -158.254E+03    -225.401E-03     450.719E-03    -225.318E-03     35.0294E-03    -225.703E-03     449.955E-03    -225.382E-03     31.1409E-03
             351     2.15517E-03     90.5817E-03    -135.320E+06    -243.170E+06    -111.130E+06     145.542E+03    -225.645E-03     450.982E-03    -225.337E-03     51.3981E-03    -226.154E-03     450.470E-03    -225.344E-03     45.6627E-03
             352     2.87354E-03     90.6625E-03    -126.743E+06    -221.457E+06    -88.8700E+06     268.859E+03    -225.917E-03     451.293E-03    -225.376E-03     67.5369E-03    -226.699E-03     451.097E-03    -225.316E-03     59.9343E-03
             353     3.59229E-03     90.7639E-03    -117.251E+06    -196.112E+06    -66.9042E+06     296.479E+03    -226.183E-03     451.580E-03    -225.397E-03     82.9955E-03    -227.304E-03     451.782E-03    -225.277E-03     73.5372E-03
             354     4.31099E-03     90.8860E-03    -107.511E+06    -166.835E+06    -46.4573E+06     397.005E+03    -226.477E-03     451.868E-03    -225.391E-03     97.5748E-03    -227.990E-03     452.542E-03    -225.226E-03     86.3301E-03
             355     5.02985E-03     91.0268E-03    -97.8497E+06    -141.004E+06    -27.4435E+06     610.116E+03    -226.824E-03     452.202E-03    -225.378E-03     110.950E-03    -228.761E-03     453.370E-03    -225.168E-03     98.0036E-03
             356     5.74881E-03     91.1843E-03    -88.7231E+06    -114.820E+06    -10.3865E+06     897.464E+03    -227.270E-03     452.630E-03    -225.361E-03     122.875E-03    -229.647E-03     454.315E-03    -225.117E-03     108.351E-03
             357     6.46752E-03     91.3570E-03    -79.6857E+06    -85.6865E+06     5.34491E+06     985.261E+03    -227.685E-03     453.030E-03    -225.345E-03     133.170E-03    -230.494E-03     455.237E-03    -225.079E-03     117.244E-03
             358     7.18614E-03     91.5425E-03    -71.1938E+06    -55.8538E+06     19.8635E+06     1.20766E+06    -227.948E-03     453.277E-03    -225.329E-03     141.566E-03    -231.153E-03     455.973E-03    -225.045E-03     124.460E-03
             359     7.90516E-03     91.7377E-03    -63.2681E+06    -21.2822E+06     33.7984E+06     1.82687E+06    -228.107E-03     453.411E-03    -225.304E-03     147.763E-03    -231.650E-03     456.556E-03    -225.012E-03     129.719E-03
             360     8.62426E-03     91.9393E-03    -55.0962E+06     16.7482E+06     47.1452E+06     1.40046E+06    -228.199E-03     453.472E-03    -225.273E-03     151.702E-03    -232.007E-03     457.007E-03    -224.982E-03     132.912E-03
             361     9.34276E-03     92.1442E-03    -46.5605E+06     37.5553E+06     54.8634E+06    -326.793E+03    -228.112E-03     453.353E-03    -225.242E-03     153.505E-03    -232.068E-03     457.118E-03    -224.954E-03     134.160E-03
             362     10.0626E-03     92.3501E-03    -37.5001E+06     41.5039E+06     60.9781E+06    -2.17453E+06    -227.954E-03     453.180E-03    -225.226E-03     153.139E-03    -231.956E-03     457.019E-03    -224.927E-03     133.371E-03
             363     10.7812E-03     92.5520E-03    -29.9486E+06     40.6757E+06     68.6901E+06    -3.77664E+06    -227.820E-03     453.056E-03    -225.236E-03     150.132E-03    -231.791E-03     456.866E-03    -224.908E-03     130.057E-03
             364     11.4990E-03     92.7478E-03    -24.0669E+06     56.5156E+06     79.7391E+06    -3.07644E+06    -227.215E-03     452.463E-03    -225.248E-03     144.457E-03    -231.109E-03     456.241E-03    -224.896E-03     124.274E-03
             365     12.2188E-03     92.9321E-03    -17.6628E+06     75.2428E+06     90.1491E+06    -433.216E+03    -226.183E-03     451.427E-03    -225.244E-03     132.788E-03    -229.779E-03     454.967E-03    -224.877E-03     113.101E-03
             366     12.9386E-03     93.0917E-03    -10.7366E+06     79.3871E+06     93.9998E+06     501.419E+03    -225.689E-03     450.919E-03    -225.230E-03     122.705E-03    -229.108E-03     454.310E-03    -224.860E-03     102.947E-03
             367     13.6553E-03     93.2469E-03    -4.66976E+06     81.9445E+06     93.5237E+06     636.439E+03    -224.839E-03     450.046E-03    -225.207E-03     90.3786E-03    -227.261E-03     452.472E-03    -224.852E-03     73.9077E-03
             368     718.355E-06     91.9732E-03    -146.125E+06    -278.656E+06    -142.701E+06     642.778E+03    -225.431E-03     450.733E-03    -225.302E-03     19.1685E-03    -225.604E-03     449.813E-03    -225.400E-03     17.0707E-03
             369     1.43665E-03     92.0095E-03    -142.276E+06    -265.011E+06    -129.719E+06     217.001E+03    -225.399E-03     450.740E-03    -225.342E-03     35.2804E-03    -225.703E-03     449.975E-03    -225.400E-03     31.3806E-03
             370     2.15522E-03     92.0683E-03    -135.275E+06    -243.745E+06    -110.991E+06     139.780E+03    -225.547E-03     450.881E-03    -225.333E-03     51.6749E-03    -226.057E-03     450.367E-03    -225.339E-03     45.9323E-03
             371     2.87400E-03     92.1488E-03    -126.352E+06    -222.067E+06    -88.9163E+06     546.647E+03    -225.825E-03     451.171E-03    -225.346E-03     67.6282E-03    -226.605E-03     450.972E-03    -225.285E-03     60.0348E-03
             372     3.59249E-03     92.2506E-03    -116.791E+06    -196.815E+06    -66.5807E+06     1.03954E+06    -226.182E-03     451.545E-03    -225.363E-03     82.9840E-03    -227.299E-03     451.742E-03    -225.241E-03     73.5392E-03
             373     4.31107E-03     92.3724E-03    -107.071E+06    -167.304E+06    -45.9523E+06     1.27127E+06    -226.500E-03     451.866E-03    -225.366E-03     97.4546E-03    -228.011E-03     452.537E-03    -225.198E-03     86.2114E-03
             374     5.02994E-03     92.5127E-03    -97.3022E+06    -141.745E+06    -27.0880E+06     1.61492E+06    -226.878E-03     452.240E-03    -225.362E-03     110.812E-03    -228.811E-03     453.403E-03    -225.151E-03     97.8737E-03
             375     5.74864E-03     92.6708E-03    -87.3674E+06    -115.256E+06    -9.80249E+06     1.79406E+06    -227.326E-03     452.680E-03    -225.354E-03     122.825E-03    -229.696E-03     454.360E-03    -225.109E-03     108.310E-03
             376     6.46739E-03     92.8436E-03    -77.7879E+06    -86.3887E+06     5.96123E+06     2.06901E+06    -227.710E-03     453.052E-03    -225.343E-03     133.247E-03    -230.510E-03     455.253E-03    -225.075E-03     117.337E-03
             377     7.18641E-03     93.0290E-03    -68.4728E+06    -56.8279E+06     20.6594E+06     2.51481E+06    -228.003E-03     453.331E-03    -225.328E-03     141.688E-03    -231.195E-03     456.018E-03    -225.043E-03     124.601E-03
             378     7.90527E-03     93.2240E-03    -58.9596E+06    -22.5246E+06     35.4546E+06     2.85607E+06    -228.178E-03     453.487E-03    -225.309E-03     147.813E-03    -231.701E-03     456.618E-03    -225.014E-03     129.778E-03
             379     8.62402E-03     93.4260E-03    -49.6832E+06     18.7706E+06     50.7275E+06     2.70429E+06    -228.195E-03     453.478E-03    -225.283E-03     151.744E-03    -231.982E-03     457.007E-03    -224.984E-03     132.989E-03
             380     9.34326E-03     93.6312E-03    -41.6624E+06     43.6945E+06     60.8679E+06     585.077E+03    -228.154E-03     453.411E-03    -225.258E-03     153.404E-03    -232.105E-03     457.193E-03    -224.957E-03     134.055E-03
             381     10.0616E-03     93.8357E-03    -35.6357E+06     44.5849E+06     63.7894E+06    -1.57301E+06    -228.056E-03     453.297E-03    -225.241E-03     152.924E-03    -232.059E-03     457.147E-03    -224.935E-03     133.133E-03
             382     10.7808E-03     94.0398E-03    -30.4884E+06     43.2664E+06     66.8146E+06    -2.20639E+06    -227.669E-03     452.900E-03    -225.231E-03     149.984E-03    -231.637E-03     456.720E-03    -224.916E-03     129.955E-03
             383     11.5005E-03     94.2345E-03    -24.7863E+06     55.0880E+06     77.0965E+06    -2.38594E+06    -227.080E-03     452.317E-03    -225.237E-03     144.184E-03    -230.961E-03     456.081E-03    -224.895E-03     124.052E-03
             384     12.2192E-03     94.4182E-03    -17.7017E+06     70.2822E+06     88.8194E+06    -1.83547E+06    -226.405E-03     451.652E-03    -225.247E-03     132.316E-03    -229.976E-03     455.152E-03    -224.879E-03     112.639E-03
             385     12.9370E-03     94.5799E-03    -11.3620E+06     78.1302E+06     92.9765E+06    -434.619E+03    -225.849E-03     451.089E-03    -225.240E-03     123.460E-03    -229.281E-03     454.488E-03    -224.872E-03     103.680E-03
             386     13.6565E-03     94.7359E-03    -5.56377E+06     82.1235E+06     92.0823E+06    -23.8312E+03    -224.772E-03     449.984E-03    -225.212E-03     91.1246E-03    -227.221E-03     452.438E-03    -224.863E-03     74.5798E-03
             387     718.359E-06     93.4597E-03    -145.925E+06    -279.925E+06    -143.094E+06     514.205E+03    -225.478E-03     450.570E-03    -225.092E-03     19.1561E-03    -225.647E-03     449.643E-03    -225.190E-03     17.0406E-03
             388     1.43693E-03     93.4961E-03    -140.890E+06    -265.217E+06    -128.740E+06     716.444E+03    -225.418E-03     450.699E-03    -225.282E-03     35.2109E-03    -225.716E-03     449.929E-03    -225.336E-03     31.3231E-03
             389     2.15541E-03     93.5546E-03    -134.331E+06    -243.847E+06    -109.852E+06     674.555E+03    -225.565E-03     450.868E-03    -225.303E-03     51.4923E-03    -226.071E-03     450.350E-03    -225.304E-03     45.7517E-03
             390     2.87383E-03     93.6352E-03    -126.137E+06    -223.400E+06    -88.7501E+06     861.945E+03    -225.792E-03     451.115E-03    -225.323E-03     67.4906E-03    -226.569E-03     450.909E-03    -225.260E-03     59.8918E-03
             391     3.59252E-03     93.7370E-03    -116.409E+06    -198.240E+06    -66.6147E+06     1.33595E+06    -226.128E-03     451.463E-03    -225.336E-03     82.9424E-03    -227.241E-03     451.653E-03    -225.212E-03     73.5035E-03
             392     4.31131E-03     93.8587E-03    -106.111E+06    -168.239E+06    -45.5631E+06     1.66598E+06    -226.539E-03     451.880E-03    -225.341E-03     97.4329E-03    -228.044E-03     452.544E-03    -225.171E-03     86.1978E-03
             393     5.02988E-03     93.9992E-03    -95.6221E+06    -142.385E+06    -26.3985E+06     1.58117E+06    -226.967E-03     452.316E-03    -225.349E-03     110.927E-03    -228.893E-03     453.474E-03    -225.136E-03     97.9815E-03
             394     5.74869E-03     94.1572E-03    -85.5947E+06    -116.125E+06    -9.30559E+06     1.70492E+06    -227.357E-03     452.704E-03    -225.347E-03     123.002E-03    -229.719E-03     454.377E-03    -225.101E-03     108.489E-03
             395     6.46767E-03     94.3299E-03    -75.8237E+06    -87.5238E+06     6.80831E+06     1.86723E+06    -227.737E-03     453.077E-03    -225.340E-03     133.260E-03    -230.526E-03     455.267E-03    -225.069E-03     117.353E-03
             396     7.18638E-03     94.5156E-03    -66.1082E+06    -57.6978E+06     22.3042E+06     1.92833E+06    -228.081E-03     453.415E-03    -225.334E-03     141.609E-03    -231.262E-03     456.091E-03    -225.043E-03     124.507E-03
             397     7.90509E-03     94.7109E-03    -56.8741E+06    -23.7496E+06     37.5101E+06     2.01173E+06    -228.256E-03     453.581E-03    -225.324E-03     147.733E-03    -231.772E-03     456.701E-03    -225.020E-03     129.671E-03
             398     8.62411E-03     94.9126E-03    -48.1603E+06     18.8356E+06     53.1760E+06     2.20263E+06    -228.190E-03     453.493E-03    -225.302E-03     151.585E-03    -231.974E-03     457.018E-03    -224.994E-03     132.806E-03
             399     9.34298E-03     95.1177E-03    -39.9642E+06     45.7672E+06     63.3465E+06     3.07546E+06    -228.130E-03     453.404E-03    -225.273E-03     153.392E-03    -232.079E-03     457.189E-03    -224.965E-03     134.078E-03
             400     10.0620E-03     95.3239E-03    -33.4926E+06     48.5038E+06     66.9241E+06     2.37202E+06    -228.055E-03     453.308E-03    -225.254E-03     153.215E-03    -232.061E-03     457.174E-03    -224.941E-03     133.480E-03
             401     10.7806E-03     95.5253E-03    -27.3118E+06     48.2283E+06     71.9758E+06    -565.176E+03    -227.734E-03     452.985E-03    -225.251E-03     150.127E-03    -231.703E-03     456.819E-03    -224.921E-03     130.119E-03
             402     11.4994E-03     95.7209E-03    -20.3476E+06     54.6433E+06     79.9939E+06    -1.47483E+06    -227.275E-03     452.533E-03    -225.258E-03     144.103E-03    -231.140E-03     456.287E-03    -224.908E-03     123.955E-03
             403     12.2180E-03     95.9062E-03    -15.2837E+06     67.5469E+06     88.6024E+06     114.363E+03    -226.446E-03     451.711E-03    -225.264E-03     132.336E-03    -230.009E-03     455.202E-03    -224.897E-03     112.649E-03
             404     12.9380E-03     96.0659E-03    -10.5677E+06     79.0486E+06     93.3731E+06    -144.773E+03    -225.199E-03     450.440E-03    -225.240E-03     123.155E-03    -228.622E-03     453.835E-03    -224.873E-03     103.449E-03
             405     13.6572E-03     96.2222E-03    -4.41773E+06     82.0637E+06     91.2867E+06    -996.136E+03    -224.620E-03     449.807E-03    -225.186E-03     91.3162E-03    -227.055E-03     452.252E-03    -224.843E-03     74.8281E-03
             406     718.543E-06     94.9460E-03    -145.695E+06    -280.744E+06    -142.516E+06    -13.0014E+03    -225.413E-03     450.441E-03    -225.028E-03     19.0288E-03    -225.581E-03     449.509E-03    -225.122E-03     16.9116E-03
             407     1.43685E-03     94.9825E-03    -140.790E+06    -266.470E+06    -129.238E+06     298.854E+03    -225.425E-03     450.653E-03    -225.228E-03     35.2245E-03    -225.720E-03     449.877E-03    -225.284E-03     31.3338E-03
             408     2.15524E-03     95.0412E-03    -133.821E+06    -245.015E+06    -110.106E+06     1.03700E+06    -225.570E-03     450.839E-03    -225.270E-03     51.5277E-03    -226.071E-03     450.316E-03    -225.271E-03     45.7928E-03
             409     2.87395E-03     95.1214E-03    -125.332E+06    -223.811E+06    -88.1192E+06     1.12206E+06    -225.804E-03     451.105E-03    -225.301E-03     67.5905E-03    -226.578E-03     450.895E-03    -225.235E-03     59.9967E-03
             410     3.59269E-03     95.2231E-03    -115.381E+06    -198.628E+06    -66.0412E+06     817.011E+03    -226.139E-03     451.459E-03    -225.319E-03     82.9453E-03    -227.247E-03     451.643E-03    -225.194E-03     73.5019E-03
             411     4.31132E-03     95.3452E-03    -104.969E+06    -169.469E+06    -45.3465E+06     976.104E+03    -226.531E-03     451.857E-03    -225.327E-03     97.3879E-03    -228.028E-03     452.512E-03    -225.156E-03     86.1495E-03
             412     5.03014E-03     95.4857E-03    -94.7509E+06    -143.270E+06    -26.0586E+06     1.30125E+06    -226.979E-03     452.316E-03    -225.337E-03     110.834E-03    -228.899E-03     453.466E-03    -225.122E-03     97.8882E-03
             413     5.74891E-03     95.6435E-03    -85.1057E+06    -116.818E+06    -8.55951E+06     1.39764E+06    -227.440E-03     452.786E-03    -225.346E-03     122.881E-03    -229.799E-03     454.453E-03    -225.096E-03     108.357E-03
             414     6.46745E-03     95.8167E-03    -75.5743E+06    -87.8710E+06     7.84641E+06     1.30944E+06    -227.830E-03     453.182E-03    -225.351E-03     133.163E-03    -230.620E-03     455.368E-03    -225.075E-03     117.235E-03
             415     7.18623E-03     96.0022E-03    -66.5341E+06    -58.1981E+06     23.1272E+06     1.22630E+06    -228.099E-03     453.449E-03    -225.351E-03     141.603E-03    -231.283E-03     456.124E-03    -225.054E-03     124.487E-03
             416     7.90510E-03     96.1978E-03    -57.7795E+06    -24.6559E+06     37.7136E+06     1.32071E+06    -228.224E-03     453.563E-03    -225.339E-03     147.797E-03    -231.744E-03     456.680E-03    -225.030E-03     129.727E-03
             417     8.62376E-03     96.3992E-03    -49.0541E+06     17.1159E+06     52.5459E+06     1.92093E+06    -228.200E-03     453.511E-03    -225.311E-03     151.769E-03    -231.990E-03     457.035E-03    -225.002E-03     132.975E-03
             418     9.34273E-03     96.6045E-03    -40.5364E+06     44.0227E+06     62.1301E+06     2.10250E+06    -228.080E-03     453.355E-03    -225.275E-03     153.640E-03    -232.033E-03     457.140E-03    -224.970E-03     134.306E-03
             419     10.0620E-03     96.8097E-03    -31.7558E+06     48.9837E+06     67.8555E+06     2.76527E+06    -227.969E-03     453.222E-03    -225.253E-03     153.122E-03    -231.965E-03     457.083E-03    -224.939E-03     133.408E-03
             420     10.7812E-03     97.0132E-03    -25.5140E+06     53.7609E+06     75.2338E+06     3.24919E+06    -227.811E-03     453.066E-03    -225.255E-03     150.136E-03    -231.785E-03     456.922E-03    -224.920E-03     130.173E-03
             421     11.4996E-03     97.2085E-03    -22.3386E+06     57.0368E+06     80.3857E+06     954.015E+03    -227.316E-03     452.576E-03    -225.260E-03     144.619E-03    -231.206E-03     456.356E-03    -224.909E-03     124.490E-03
             422     12.2188E-03     97.3926E-03    -16.4236E+06     66.0498E+06     87.6110E+06    -743.665E+03    -226.345E-03     451.605E-03    -225.261E-03     132.871E-03    -229.921E-03     455.104E-03    -224.895E-03     113.167E-03
             423     12.9368E-03     97.5531E-03    -8.18344E+06     80.1690E+06     94.9680E+06    -176.580E+03    -225.395E-03     450.637E-03    -225.242E-03     122.699E-03    -228.800E-03     454.023E-03    -224.872E-03     102.976E-03
             424     13.6571E-03     97.7054E-03    -3.84870E+06     81.8739E+06     92.7170E+06     360.837E+03    -224.546E-03     449.743E-03    -225.197E-03     91.2824E-03    -226.971E-03     452.176E-03    -224.846E-03     74.8237E-03
             425     718.465E-06     96.4321E-03    -145.481E+06    -281.819E+06    -142.121E+06     670.998E+03    -225.242E-03     450.448E-03    -225.206E-03     19.0580E-03    -225.408E-03     449.510E-03    -225.297E-03     16.9382E-03
             426     1.43700E-03     96.4690E-03    -141.418E+06    -267.191E+06    -129.228E+06     557.322E+03    -225.330E-03     450.544E-03    -225.213E-03     35.1361E-03    -225.627E-03     449.764E-03    -225.267E-03     31.2530E-03
             427     2.15565E-03     96.5272E-03    -134.239E+06    -245.934E+06    -110.421E+06     280.250E+03    -225.534E-03     450.769E-03    -225.235E-03     51.4528E-03    -226.035E-03     450.241E-03    -225.236E-03     45.7147E-03
             428     2.87417E-03     96.6077E-03    -124.815E+06    -224.141E+06    -88.4562E+06     247.642E+03    -225.877E-03     451.153E-03    -225.276E-03     67.4666E-03    -226.646E-03     450.940E-03    -225.213E-03     59.8645E-03
             429     3.59258E-03     96.7096E-03    -115.065E+06    -199.056E+06    -66.1900E+06     352.069E+03    -226.191E-03     451.505E-03    -225.314E-03     82.8186E-03    -227.295E-03     451.686E-03    -225.190E-03     73.3714E-03
             430     4.31131E-03     96.8313E-03    -105.334E+06    -170.278E+06    -45.2913E+06     613.633E+03    -226.560E-03     451.892E-03    -225.333E-03     97.3549E-03    -228.057E-03     452.542E-03    -225.159E-03     86.1113E-03
             431     5.03000E-03     96.9721E-03    -95.5012E+06    -144.088E+06    -26.0365E+06     878.484E+03    -227.063E-03     452.414E-03    -225.351E-03     110.735E-03    -228.984E-03     453.560E-03    -225.134E-03     97.7832E-03
             432     5.74859E-03     97.1302E-03    -85.4139E+06    -117.383E+06    -8.25784E+06     994.563E+03    -227.499E-03     452.869E-03    -225.370E-03     122.732E-03    -229.860E-03     454.533E-03    -225.117E-03     108.190E-03
             433     6.46741E-03     97.3034E-03    -75.8098E+06    -88.4789E+06     7.91490E+06     1.26479E+06    -227.798E-03     453.173E-03    -225.375E-03     133.100E-03    -230.589E-03     455.357E-03    -225.097E-03     117.167E-03
             434     7.18613E-03     97.4889E-03    -66.8691E+06    -58.5448E+06     22.8216E+06     1.58859E+06    -228.003E-03     453.367E-03    -225.364E-03     141.620E-03    -231.187E-03     456.040E-03    -225.068E-03     124.517E-03
             435     7.90494E-03     97.6843E-03    -58.3725E+06    -24.8461E+06     36.9802E+06     1.51218E+06    -228.109E-03     453.447E-03    -225.338E-03     147.946E-03    -231.631E-03     456.566E-03    -225.033E-03     129.892E-03
             436     8.62413E-03     97.8860E-03    -49.8690E+06     16.2569E+06     51.3768E+06     1.03680E+06    -228.136E-03     453.437E-03    -225.301E-03     151.940E-03    -231.927E-03     456.960E-03    -224.995E-03     133.145E-03
             437     9.34321E-03     98.0912E-03    -41.4657E+06     43.4534E+06     61.7150E+06     1.07337E+06    -228.154E-03     453.422E-03    -225.268E-03     153.742E-03    -232.112E-03     457.208E-03    -224.963E-03     134.386E-03
             438     10.0618E-03     98.2968E-03    -34.5595E+06     46.5268E+06     66.1106E+06     1.77320E+06    -228.079E-03     453.331E-03    -225.252E-03     153.327E-03    -232.087E-03     457.190E-03    -224.939E-03     133.589E-03
             439     10.7804E-03     98.4995E-03    -27.6651E+06     50.0364E+06     71.8420E+06     3.77597E+06    -227.688E-03     452.933E-03    -225.245E-03     150.266E-03    -231.664E-03     456.780E-03    -224.918E-03     130.320E-03
             440     11.5001E-03     98.6954E-03    -20.0434E+06     62.3325E+06     81.8261E+06     4.85006E+06    -227.097E-03     452.341E-03    -225.244E-03     144.412E-03    -230.977E-03     456.135E-03    -224.896E-03     124.368E-03
             441     12.2185E-03     98.8797E-03    -15.7460E+06     73.3436E+06     90.7415E+06     1.28926E+06    -226.312E-03     451.559E-03    -225.247E-03     132.601E-03    -229.893E-03     455.081E-03    -224.876E-03     112.936E-03
             442     12.9387E-03     99.0395E-03    -12.9421E+06     77.7047E+06     93.0620E+06    -1.48207E+06    -225.746E-03     450.982E-03    -225.236E-03     122.971E-03    -229.183E-03     454.379E-03    -224.865E-03     103.152E-03
             443     13.6556E-03     99.1945E-03    -6.28060E+06     79.8632E+06     92.7199E+06    -204.513E+03    -224.611E-03     449.819E-03    -225.208E-03     91.4590E-03    -227.056E-03     452.256E-03    -224.851E-03     74.9508E-03
             444     718.342E-06     97.9187E-03    -145.314E+06    -283.688E+06    -142.842E+06     546.626E+03    -225.309E-03     450.522E-03    -225.213E-03     19.2145E-03    -225.471E-03     449.575E-03    -225.305E-03     17.0827E-03
             445     1.43686E-03     97.9549E-03    -140.879E+06    -266.572E+06    -130.073E+06     102.676E+03    -225.342E-03     450.580E-03    -225.238E-03     34.9526E-03    -225.635E-03     449.804E-03    -225.297E-03     31.0657E-03
             446     2.15542E-03     98.0134E-03    -134.045E+06    -245.721E+06    -110.719E+06    -183.485E+03    -225.547E-03     450.805E-03    -225.258E-03     51.3137E-03    -226.047E-03     450.277E-03    -225.261E-03     45.5684E-03
             447     2.87388E-03     98.0943E-03    -126.027E+06    -225.005E+06    -89.1962E+06     30.9061E+03    -225.848E-03     451.142E-03    -225.294E-03     67.3774E-03    -226.620E-03     450.927E-03    -225.231E-03     59.7777E-03
             448     3.59263E-03     98.1958E-03    -116.694E+06    -199.795E+06    -66.9723E+06     237.848E+03    -226.209E-03     451.538E-03    -225.328E-03     82.7607E-03    -227.318E-03     451.717E-03    -225.204E-03     73.3185E-03
             449     4.31129E-03     98.3177E-03    -106.419E+06    -170.629E+06    -45.8861E+06     196.624E+03    -226.676E-03     452.032E-03    -225.356E-03     97.3292E-03    -228.178E-03     452.683E-03    -225.183E-03     86.0721E-03
             450     5.02984E-03     98.4589E-03    -96.0459E+06    -144.536E+06    -26.6164E+06     267.713E+03    -227.113E-03     452.497E-03    -225.384E-03     110.748E-03    -229.037E-03     453.644E-03    -225.168E-03     97.7741E-03
             451     5.74843E-03     98.6170E-03    -86.1729E+06    -118.424E+06    -9.38508E+06     690.664E+03    -227.418E-03     452.813E-03    -225.395E-03     122.806E-03    -229.780E-03     454.475E-03    -225.145E-03     108.266E-03
             452     6.46708E-03     98.7898E-03    -76.9828E+06    -89.6136E+06     6.34584E+06     1.24267E+06    -227.679E-03     453.061E-03    -225.382E-03     133.312E-03    -230.471E-03     455.244E-03    -225.109E-03     117.396E-03
             453     7.18605E-03     98.9755E-03    -68.0177E+06    -59.4734E+06     21.3533E+06     1.66990E+06    -227.923E-03     453.282E-03    -225.359E-03     141.814E-03    -231.111E-03     455.956E-03    -225.067E-03     124.722E-03
             454     7.90519E-03     99.1705E-03    -59.2779E+06    -24.7270E+06     36.2826E+06     1.86948E+06    -228.108E-03     453.438E-03    -225.330E-03     147.997E-03    -231.633E-03     456.560E-03    -225.027E-03     129.950E-03
             455     8.62405E-03     99.3726E-03    -51.4584E+06     17.3382E+06     51.1631E+06     1.53734E+06    -228.152E-03     453.449E-03    -225.297E-03     151.814E-03    -231.951E-03     456.978E-03    -224.991E-03     133.026E-03
             456     9.34291E-03     99.5778E-03    -44.6201E+06     42.0976E+06     59.3704E+06     2.00114E+06    -228.093E-03     453.353E-03    -225.260E-03     153.642E-03    -232.058E-03     457.137E-03    -224.959E-03     134.312E-03
             457     10.0621E-03     99.7839E-03    -38.2201E+06     44.7788E+06     62.5034E+06     2.91651E+06    -227.981E-03     453.214E-03    -225.233E-03     153.425E-03    -232.000E-03     457.075E-03    -224.930E-03     133.716E-03
             458     10.7813E-03     99.9865E-03    -32.3742E+06     47.2549E+06     67.8204E+06     2.04708E+06    -227.664E-03     452.887E-03    -225.223E-03     150.477E-03    -231.655E-03     456.734E-03    -224.906E-03     130.516E-03
             459     11.4996E-03     100.182E-03    -25.8012E+06     61.0695E+06     78.7678E+06     1.75984E+06    -226.997E-03     452.221E-03    -225.224E-03     144.694E-03    -230.906E-03     456.026E-03    -224.881E-03     124.601E-03
             460     12.2194E-03     100.366E-03    -17.1672E+06     78.7255E+06     92.4519E+06     2.99422E+06    -226.145E-03     451.372E-03    -225.227E-03     133.071E-03    -229.759E-03     454.937E-03    -224.854E-03     113.385E-03
             461     12.9369E-03     100.527E-03    -10.3794E+06     82.1348E+06     96.8197E+06     1.43963E+06    -225.464E-03     450.673E-03    -225.209E-03     123.875E-03    -228.918E-03     454.101E-03    -224.829E-03     104.111E-03
             462     13.6576E-03     100.681E-03    -5.84549E+06     79.1056E+06     92.9613E+06    -1.64142E+06    -224.710E-03     449.878E-03    -225.168E-03     91.9461E-03    -227.156E-03     452.315E-03    -224.810E-03     75.4476E-03
             463     718.511E-06     99.4053E-03    -145.855E+06    -284.450E+06    -143.642E+06    -6.35877E+03    -225.405E-03     450.566E-03    -225.160E-03     19.1333E-03    -225.567E-03     449.617E-03    -225.254E-03     16.9970E-03
             464     1.43685E-03     99.4412E-03    -141.959E+06    -266.228E+06    -131.360E+06    -177.290E+03    -225.389E-03     450.650E-03    -225.261E-03     35.0246E-03    -225.687E-03     449.880E-03    -225.326E-03     31.1329E-03
             465     2.15524E-03     99.5000E-03    -135.644E+06    -246.261E+06    -111.940E+06    -27.0277E+03    -225.557E-03     450.842E-03    -225.285E-03     51.5306E-03    -226.063E-03     450.317E-03    -225.291E-03     45.7821E-03
             466     2.87399E-03     99.5803E-03    -127.124E+06    -224.991E+06    -89.4753E+06     181.980E+03    -225.858E-03     451.177E-03    -225.319E-03     67.4884E-03    -226.636E-03     450.964E-03    -225.256E-03     59.8890E-03
             467     3.59253E-03     99.6823E-03    -117.168E+06    -199.603E+06    -67.4469E+06     20.7367E+03    -226.307E-03     451.663E-03    -225.356E-03     82.8002E-03    -227.419E-03     451.846E-03    -225.234E-03     73.3491E-03
             468     4.31095E-03     99.8045E-03    -107.393E+06    -170.708E+06    -47.2794E+06    -56.8192E+03    -226.710E-03     452.097E-03    -225.387E-03     97.3821E-03    -228.215E-03     452.752E-03    -225.220E-03     86.1160E-03
             469     5.02949E-03     99.9456E-03    -97.7640E+06    -145.338E+06    -28.4614E+06     182.211E+03    -226.974E-03     452.376E-03    -225.402E-03     110.871E-03    -228.904E-03     453.526E-03    -225.192E-03     97.9006E-03
             470     5.74837E-03     100.103E-03    -88.2648E+06    -119.640E+06    -11.3305E+06     543.478E+03    -227.258E-03     452.649E-03    -225.391E-03     123.019E-03    -229.625E-03     454.311E-03    -225.146E-03     108.493E-03
             471     6.46746E-03     100.276E-03    -79.0413E+06    -90.7909E+06     4.50773E+06     1.03463E+06    -227.632E-03     452.998E-03    -225.366E-03     133.473E-03    -230.430E-03     455.180E-03    -225.097E-03     117.567E-03
             472     7.18640E-03     100.462E-03    -70.1862E+06    -60.6851E+06     19.4330E+06     1.52296E+06    -227.984E-03     453.328E-03    -225.344E-03     141.817E-03    -231.179E-03     456.002E-03    -225.057E-03     124.717E-03
             473     7.90508E-03     100.657E-03    -61.7640E+06    -25.8131E+06     34.0368E+06     1.93349E+06    -228.165E-03     453.486E-03    -225.321E-03     147.971E-03    -231.699E-03     456.610E-03    -225.024E-03     129.917E-03
             474     8.62396E-03     100.859E-03    -53.6533E+06     16.2450E+06     48.8394E+06     3.06563E+06    -228.138E-03     453.426E-03    -225.289E-03     151.944E-03    -231.942E-03     456.956E-03    -224.990E-03     133.190E-03
             475     9.34307E-03     101.064E-03    -46.1830E+06     40.8824E+06     57.6603E+06     3.99072E+06    -228.055E-03     453.306E-03    -225.251E-03     153.764E-03    -232.025E-03     457.090E-03    -224.955E-03     134.466E-03
             476     10.0621E-03     101.270E-03    -39.3366E+06     43.8825E+06     60.1511E+06     3.98265E+06    -227.876E-03     453.092E-03    -225.215E-03     153.366E-03    -231.897E-03     456.954E-03    -224.921E-03     133.667E-03
             477     10.7809E-03     101.473E-03    -32.2457E+06     51.7187E+06     67.9657E+06     3.00091E+06    -227.456E-03     452.655E-03    -225.200E-03     150.380E-03    -231.450E-03     456.522E-03    -224.888E-03     130.449E-03
             478     11.5006E-03     101.669E-03    -24.8006E+06     63.2305E+06     80.5695E+06    -19.2220E+03    -226.906E-03     452.108E-03    -225.202E-03     144.762E-03    -230.814E-03     455.919E-03    -224.855E-03     124.665E-03
             479     12.2191E-03     101.853E-03    -17.1892E+06     74.7083E+06     91.2298E+06    -1.56882E+06    -225.990E-03     451.185E-03    -225.195E-03     133.094E-03    -229.601E-03     454.735E-03    -224.822E-03     113.350E-03
             480     12.9402E-03     102.014E-03    -8.68516E+06     83.8059E+06     97.4771E+06     533.104E+03    -225.018E-03     450.180E-03    -225.162E-03     123.422E-03    -228.461E-03     453.607E-03    -224.784E-03     103.655E-03
             481     13.6582E-03     102.167E-03    -3.71818E+06     81.3882E+06     94.7361E+06     244.856E+03    -225.000E-03     450.123E-03    -225.123E-03     92.0048E-03    -227.430E-03     452.555E-03    -224.762E-03     75.5764E-03
             482     718.243E-06     100.892E-03    -148.536E+06    -283.603E+06    -145.886E+06    -677.171E+03    -225.353E-03     450.535E-03    -225.182E-03     19.0798E-03    -225.527E-03     449.598E-03    -225.285E-03     16.9373E-03
             483     1.43686E-03     100.928E-03    -144.357E+06    -266.702E+06    -132.471E+06    -31.2162E+03    -225.368E-03     450.621E-03    -225.253E-03     35.0705E-03    -225.675E-03     449.853E-03    -225.320E-03     31.1738E-03
             484     2.15551E-03     100.986E-03    -137.167E+06    -245.677E+06    -112.256E+06    -65.9886E+03    -225.629E-03     450.918E-03    -225.290E-03     51.4744E-03    -226.143E-03     450.399E-03    -225.296E-03     45.7257E-03
             485     2.87386E-03     101.067E-03    -127.879E+06    -225.169E+06    -90.5336E+06    -398.807E+03    -225.962E-03     451.305E-03    -225.343E-03     67.4465E-03    -226.742E-03     451.094E-03    -225.284E-03     59.8321E-03
             486     3.59228E-03     101.169E-03    -118.552E+06    -200.410E+06    -69.2678E+06     195.736E+03    -226.261E-03     451.641E-03    -225.380E-03     82.9480E-03    -227.377E-03     451.826E-03    -225.264E-03     73.4980E-03
             487     4.31087E-03     101.291E-03    -108.908E+06    -170.562E+06    -48.4669E+06     446.090E+03    -226.528E-03     451.916E-03    -225.388E-03     97.6673E-03    -228.041E-03     452.577E-03    -225.225E-03     86.4195E-03
             488     5.02975E-03     101.432E-03    -99.2376E+06    -145.978E+06    -29.6444E+06     412.690E+03    -226.866E-03     452.247E-03    -225.381E-03     111.109E-03    -228.803E-03     453.399E-03    -225.173E-03     98.1506E-03
             489     5.74870E-03     101.589E-03    -89.6204E+06    -120.359E+06    -12.6236E+06     681.612E+03    -227.322E-03     452.689E-03    -225.367E-03     123.090E-03    -229.695E-03     454.353E-03    -225.125E-03     108.559E-03
             490     6.46744E-03     101.763E-03    -80.2294E+06    -91.7990E+06     2.99715E+06     875.714E+03    -227.747E-03     453.101E-03    -225.354E-03     133.304E-03    -230.548E-03     455.283E-03    -225.090E-03     117.376E-03
             491     7.18615E-03     101.948E-03    -70.9594E+06    -62.7262E+06     17.6301E+06     1.39370E+06    -227.995E-03     453.336E-03    -225.340E-03     141.691E-03    -231.189E-03     456.003E-03    -225.058E-03     124.579E-03
             492     7.90507E-03     102.144E-03    -62.2726E+06    -28.3563E+06     32.1035E+06     2.79527E+06    -228.072E-03     453.386E-03    -225.314E-03     147.982E-03    -231.602E-03     456.501E-03    -225.022E-03     129.947E-03
             493     8.62421E-03     102.346E-03    -54.5319E+06     13.1972E+06     46.8786E+06     4.28493E+06    -228.061E-03     453.336E-03    -225.275E-03     152.003E-03    -231.862E-03     456.854E-03    -224.981E-03     133.280E-03
             494     9.34323E-03     102.551E-03    -46.7181E+06     39.5953E+06     56.2897E+06     4.62245E+06    -228.025E-03     453.258E-03    -225.233E-03     153.859E-03    -231.996E-03     457.040E-03    -224.941E-03     134.571E-03
             495     10.0621E-03     102.757E-03    -38.1822E+06     46.6172E+06     62.1283E+06     2.74113E+06    -227.900E-03     453.106E-03    -225.206E-03     153.533E-03    -231.928E-03     456.983E-03    -224.908E-03     133.799E-03
             496     10.7815E-03     102.959E-03    -28.6877E+06     55.3279E+06     72.5578E+06     355.475E+03    -227.554E-03     452.758E-03    -225.204E-03     150.258E-03    -231.550E-03     456.638E-03    -224.879E-03     130.243E-03
             497     11.5005E-03     103.155E-03    -20.3032E+06     65.9614E+06     83.8650E+06     137.246E+03    -226.887E-03     452.092E-03    -225.205E-03     144.002E-03    -230.774E-03     455.898E-03    -224.852E-03     123.886E-03
             498     12.2201E-03     103.340E-03    -14.6383E+06     75.4958E+06     93.0466E+06     180.010E+03    -225.973E-03     451.172E-03    -225.199E-03     131.960E-03    -229.542E-03     454.687E-03    -224.822E-03     112.323E-03
             499     12.9377E-03     103.498E-03    -10.1172E+06     82.1194E+06     96.9079E+06    -1.30090E+06    -225.692E-03     450.877E-03    -225.186E-03     121.959E-03    -229.119E-03     454.279E-03    -224.805E-03     102.110E-03
             500     13.6588E-03     103.654E-03    -4.47626E+06     80.9231E+06      94.738E+06    -46.6561E+03    -225.285E-03     450.462E-03    -225.177E-03     90.1514E-03    -227.709E-03     452.883E-03    -224.815E-03     73.6388E-03
             501     718.575E-06     102.378E-03    -149.454E+06    -281.952E+06    -146.011E+06    -496.212E+03    -225.382E-03     450.541E-03    -225.159E-03     18.9456E-03    -225.563E-03     449.614E-03    -225.263E-03     16.8068E-03
             502     1.43692E-03     102.414E-03    -144.835E+06    -267.174E+06    -132.726E+06    -336.823E+03    -225.435E-03     450.709E-03    -225.274E-03     34.9937E-03    -225.744E-03     449.939E-03    -225.340E-03     31.0895E-03
             503     2.15519E-03     102.473E-03    -137.466E+06    -245.426E+06    -113.307E+06    -136.659E+03    -225.674E-03     450.993E-03    -225.319E-03     51.4922E-03    -226.188E-03     450.476E-03    -225.330E-03     45.7495E-03
             504     2.87363E-03     102.554E-03    -129.250E+06    -225.808E+06    -91.7136E+06     170.771E+03    -225.897E-03     451.261E-03    -225.365E-03     67.5472E-03    -226.681E-03     451.052E-03    -225.308E-03     59.9419E-03
             505     3.59229E-03     102.655E-03    -120.145E+06    -201.083E+06    -70.2067E+06     217.281E+03    -226.083E-03     451.458E-03    -225.375E-03     83.0670E-03    -227.207E-03     451.645E-03    -225.260E-03     73.6153E-03
             506     4.31127E-03     102.778E-03    -109.843E+06    -170.972E+06    -49.4180E+06     339.642E+03    -226.402E-03     451.758E-03    -225.356E-03     97.6479E-03    -227.917E-03     452.420E-03    -225.196E-03     86.4039E-03
             507     5.03011E-03     102.918E-03    -99.5828E+06    -146.059E+06    -30.2640E+06     457.727E+03    -226.940E-03     452.289E-03    -225.350E-03     110.964E-03    -228.875E-03     453.440E-03    -225.145E-03     98.0054E-03
             508     5.74869E-03     103.076E-03    -89.6501E+06    -120.779E+06    -13.3133E+06     381.518E+03    -227.477E-03     452.832E-03    -225.354E-03     122.988E-03    -229.849E-03     454.494E-03    -225.116E-03     108.442E-03
             509     6.46727E-03     103.249E-03    -79.9031E+06    -92.6001E+06     2.36092E+06     513.549E+03    -227.767E-03     453.120E-03    -225.353E-03     133.354E-03    -230.567E-03     455.301E-03    -225.091E-03     117.409E-03
             510     7.18612E-03     103.435E-03    -70.6240E+06    -64.5277E+06     16.8492E+06     873.400E+03    -227.913E-03     453.249E-03    -225.336E-03     141.879E-03    -231.103E-03     455.910E-03    -225.056E-03     124.765E-03
             511     7.90524E-03     103.630E-03    -61.0608E+06    -32.6298E+06     31.0459E+06     1.93871E+06    -228.068E-03     453.373E-03    -225.304E-03     148.099E-03    -231.585E-03     456.466E-03    -225.013E-03     130.058E-03
             512     8.62418E-03     103.832E-03    -50.8069E+06     8.72959E+06     46.8884E+06     4.07891E+06    -228.101E-03     453.369E-03    -225.268E-03     151.960E-03    -231.878E-03     456.861E-03    -224.972E-03     133.221E-03
             513     9.34328E-03     104.037E-03    -41.2869E+06     40.6477E+06     59.5032E+06     4.12512E+06    -228.012E-03     453.244E-03    -225.232E-03     153.699E-03    -231.961E-03     457.019E-03    -224.934E-03     134.396E-03
             514     10.0627E-03     104.243E-03    -33.1682E+06     51.0100E+06     66.6993E+06     2.74134E+06    -227.973E-03     453.184E-03    -225.211E-03     153.216E-03    -231.984E-03     457.065E-03    -224.903E-03     133.482E-03
             515     10.7812E-03     104.446E-03    -27.7354E+06     59.7717E+06     74.2371E+06     1.21715E+06    -227.753E-03     452.964E-03    -225.211E-03     150.061E-03    -231.755E-03     456.864E-03    -224.886E-03     130.027E-03
             516     11.4997E-03     104.642E-03    -22.9725E+06     66.4565E+06     82.8199E+06    -960.162E+03    -227.283E-03     452.513E-03    -225.230E-03     143.834E-03    -231.192E-03     456.336E-03    -224.879E-03     123.621E-03
             517     12.2186E-03     104.824E-03    -15.7692E+06     73.5777E+06     92.5606E+06    -707.698E+03    -226.616E-03     451.877E-03    -225.260E-03     131.208E-03    -230.200E-03     455.397E-03    -224.881E-03     111.387E-03
             518     12.9391E-03     104.987E-03    -9.46934E+06     82.7796E+06     98.3435E+06     1.29267E+06    -226.074E-03     451.353E-03    -225.279E-03     122.155E-03    -229.515E-03     454.769E-03    -224.893E-03     102.263E-03
             519     13.6528E-03     105.144E-03    -4.78198E+06     81.2526E+06     95.9266E+06     1.77075E+06    -224.525E-03     449.780E-03    -225.256E-03     91.2516E-03    -226.966E-03     452.215E-03    -224.887E-03     74.8035E-03
             520     718.248E-06     103.864E-03    -150.096E+06    -282.151E+06    -146.109E+06     714.391E+03    -225.428E-03     450.575E-03    -225.147E-03     18.9927E-03    -225.611E-03     449.648E-03    -225.251E-03     16.8803E-03
             521     1.43665E-03     103.901E-03    -145.058E+06    -267.040E+06    -132.676E+06     294.474E+03    -225.464E-03     450.757E-03    -225.293E-03     35.1636E-03    -225.774E-03     449.988E-03    -225.359E-03     31.2791E-03
             522     2.15522E-03     103.959E-03    -138.339E+06    -246.165E+06    -114.358E+06     319.550E+03    -225.589E-03     450.909E-03    -225.320E-03     51.7070E-03    -226.105E-03     450.392E-03    -225.335E-03     45.9712E-03
             523     2.87384E-03     104.040E-03    -129.743E+06    -225.713E+06    -92.0996E+06      515.77E+03    -225.785E-03     451.126E-03    -225.341E-03     67.6511E-03    -226.573E-03     450.919E-03    -225.286E-03     60.0468E-03
             524     3.59256E-03     104.141E-03    -119.763E+06    -200.521E+06    -69.9737E+06     111.696E+03    -226.122E-03     451.470E-03    -225.348E-03     82.9681E-03    -227.246E-03     451.659E-03    -225.233E-03     73.5027E-03
             525     4.31119E-03     104.264E-03    -109.882E+06    -171.393E+06    -49.7463E+06     65.8461E+03    -226.546E-03     451.896E-03    -225.350E-03     97.4170E-03    -228.060E-03     452.555E-03    -225.190E-03     86.1569E-03
             526     5.02987E-03     104.404E-03    -99.9064E+06    -146.060E+06    -30.9231E+06     42.1442E+03    -226.994E-03     452.352E-03    -225.359E-03     110.817E-03    -228.928E-03     453.503E-03    -225.157E-03     97.8488E-03
             527     5.74854E-03     104.563E-03    -90.0385E+06    -120.851E+06    -13.8850E+06    -347.821E+03    -227.346E-03     452.705E-03    -225.359E-03     122.993E-03    -229.717E-03     454.368E-03    -225.123E-03     108.448E-03
             528     6.46743E-03     104.736E-03    -80.5043E+06    -93.5854E+06     1.74624E+06      -333.5E+03    -227.640E-03     452.985E-03    -225.344E-03     133.398E-03    -230.441E-03     455.162E-03    -225.083E-03     117.453E-03
             529     7.18651E-03     104.921E-03    -70.9461E+06    -64.7306E+06     16.7368E+06    -430.714E+03    -227.959E-03     453.284E-03    -225.325E-03     141.800E-03    -231.151E-03     455.945E-03    -225.044E-03     124.661E-03
             530     7.90531E-03     105.116E-03    -61.4953E+06    -33.7726E+06     31.0332E+06    -1.25898E+06    -228.180E-03     453.484E-03    -225.305E-03     147.959E-03    -231.697E-03     456.574E-03    -225.011E-03     129.857E-03
             531     8.62423E-03     105.319E-03    -50.9800E+06     3.46300E+06     45.7204E+06    -1.41848E+06    -228.181E-03     453.459E-03    -225.278E-03     151.763E-03    -231.952E-03     456.929E-03    -224.981E-03     132.918E-03
             532     9.34327E-03     105.524E-03    -40.4036E+06     37.0686E+06     59.0670E+06     1.28886E+06    -228.119E-03     453.370E-03    -225.251E-03     153.472E-03    -232.057E-03     457.124E-03    -224.951E-03     134.115E-03
             533     10.0618E-03     105.730E-03    -32.6849E+06     51.0355E+06     66.5595E+06     4.24305E+06    -228.018E-03     453.250E-03    -225.231E-03     153.095E-03    -232.023E-03     457.127E-03    -224.925E-03     133.383E-03
             534     10.7810E-03     105.933E-03    -26.2849E+06     62.7203E+06     75.2218E+06     4.22457E+06    -227.724E-03     452.954E-03    -225.230E-03     150.005E-03    -231.718E-03     456.860E-03    -224.907E-03     130.029E-03
             535     11.5004E-03     106.129E-03    -20.2253E+06     70.8411E+06     86.3370E+06     3.21289E+06    -227.419E-03     452.677E-03    -225.258E-03     144.311E-03    -231.327E-03     456.514E-03    -224.900E-03     124.174E-03
             536     12.2178E-03     106.314E-03    -17.7109E+06     73.1479E+06     92.7393E+06     1.79442E+06    -226.817E-03     452.105E-03    -225.288E-03     133.271E-03    -230.435E-03     455.651E-03    -224.905E-03     113.501E-03
             537     12.9335E-03     106.473E-03    -13.0960E+06     80.9963E+06     96.3363E+06     551.289E+03    -225.425E-03     450.703E-03    -225.277E-03     124.775E-03    -228.911E-03     454.150E-03    -224.894E-03     104.949E-03
             538     13.6592E-03     106.630E-03    -5.02960E+06     82.6222E+06     96.2492E+06     765.144E+03    -223.920E-03     449.137E-03    -225.217E-03     92.1582E-03    -226.372E-03     451.585E-03    -224.848E-03     75.7889E-03
             539     718.578E-06     105.351E-03    -148.396E+06    -284.485E+06    -145.884E+06     773.130E+03    -225.339E-03     450.495E-03    -225.156E-03     19.2105E-03    -225.511E-03     449.554E-03    -225.257E-03     17.1036E-03
             540     1.43697E-03     105.387E-03    -144.394E+06    -266.894E+06    -132.805E+06     788.306E+03    -225.448E-03     450.696E-03    -225.248E-03     35.2542E-03    -225.755E-03     449.929E-03    -225.316E-03     31.3646E-03
             541     2.15535E-03     105.446E-03    -137.749E+06    -246.436E+06    -114.001E+06     563.656E+03    -225.570E-03     450.858E-03    -225.288E-03     51.5380E-03    -226.084E-03     450.338E-03    -225.301E-03     45.7978E-03
             542     2.87401E-03     105.526E-03    -128.951E+06    -225.192E+06    -92.1924E+06     328.554E+03    -225.821E-03     451.137E-03    -225.316E-03     67.4568E-03    -226.605E-03     450.931E-03    -225.263E-03     59.8462E-03
             543     3.59253E-03     105.628E-03    -119.621E+06    -200.271E+06    -70.3494E+06     267.751E+03    -226.228E-03     451.570E-03    -225.342E-03     82.8357E-03    -227.349E-03     451.759E-03    -225.230E-03     73.3752E-03
             544     4.31104E-03     105.750E-03    -109.643E+06    -171.430E+06    -49.6441E+06     28.4623E+03    -226.635E-03     451.999E-03    -225.363E-03     97.5192E-03    -228.149E-03     452.658E-03    -225.204E-03     86.2563E-03
             545     5.02960E-03     105.891E-03    -99.5964E+06    -145.511E+06    -30.6383E+06    -219.442E+03    -226.963E-03     452.337E-03    -225.374E-03     111.018E-03    -228.901E-03     453.493E-03    -225.172E-03     98.0409E-03
             546     5.74858E-03     106.049E-03    -89.9987E+06    -120.915E+06    -13.5913E+06    -182.973E+03    -227.254E-03     452.620E-03    -225.366E-03     122.975E-03    -229.627E-03     454.284E-03    -225.128E-03     108.429E-03
             547     6.46763E-03     106.222E-03    -80.9233E+06    -93.2879E+06     2.15078E+06    -272.655E+03    -227.645E-03     452.992E-03    -225.347E-03     133.250E-03    -230.447E-03     455.170E-03    -225.084E-03     117.304E-03
             548     7.18622E-03     106.408E-03    -72.4664E+06    -63.5673E+06     16.8209E+06    -894.992E+03    -228.065E-03     453.398E-03    -225.333E-03     141.667E-03    -231.265E-03     456.067E-03    -225.052E-03     124.511E-03
             549     7.90501E-03     106.603E-03    -64.7669E+06    -31.1905E+06     31.0725E+06    -1.68012E+06    -228.261E-03     453.585E-03    -225.324E-03     147.802E-03    -231.799E-03     456.693E-03    -225.030E-03     129.675E-03
             550     8.62387E-03     106.805E-03    -58.9211E+06     4.55719E+06     43.7384E+06    -3.34676E+06    -228.237E-03     453.542E-03    -225.305E-03     151.662E-03    -232.047E-03     457.032E-03    -225.007E-03     132.779E-03
             551     9.34265E-03     107.011E-03    -52.5488E+06     29.4054E+06     51.3109E+06    -3.18572E+06    -228.171E-03     453.443E-03    -225.273E-03     153.545E-03    -232.146E-03     457.187E-03    -224.983E-03     134.130E-03
             552     10.0619E-03     107.217E-03    -43.4691E+06     45.6046E+06     57.9454E+06    -1.44029E+06    -227.945E-03     453.189E-03    -225.244E-03     153.157E-03    -231.984E-03     457.067E-03    -224.957E-03     133.370E-03
             553     10.7808E-03     107.420E-03    -34.4908E+06     60.0087E+06     69.9564E+06     482.509E+03    -227.534E-03     452.776E-03    -225.242E-03     150.260E-03    -231.555E-03     456.685E-03    -224.929E-03     130.268E-03
             554     11.4989E-03     107.616E-03    -27.4276E+06     68.5538E+06     82.8724E+06     2.99673E+06    -226.788E-03     452.037E-03    -225.249E-03     144.848E-03    -230.721E-03     455.875E-03    -224.894E-03     124.796E-03
             555     12.2196E-03     107.801E-03    -18.2053E+06     77.3240E+06     94.1084E+06     3.50086E+06    -225.826E-03     451.060E-03    -225.235E-03     133.715E-03    -229.443E-03     454.614E-03    -224.850E-03     114.132E-03
             556     12.9422E-03     107.962E-03    -10.2807E+06     84.4294E+06     99.1256E+06     1.63200E+06    -225.530E-03     450.735E-03    -225.205E-03     123.858E-03    -228.994E-03     454.175E-03    -224.817E-03     104.080E-03
             557     13.6558E-03     108.113E-03    -5.90327E+06     82.9677E+06     95.4112E+06    -717.122E+03    -224.907E-03     450.079E-03    -225.173E-03     90.0930E-03    -227.350E-03     452.519E-03    -224.807E-03     73.5853E-03
             558     718.422E-06     106.837E-03    -147.479E+06    -285.939E+06    -145.430E+06     128.481E+03    -225.363E-03     450.514E-03    -225.150E-03     19.1563E-03    -225.529E-03     449.563E-03    -225.249E-03     17.0237E-03
             559     1.43684E-03     106.874E-03    -143.575E+06    -266.960E+06    -133.460E+06     92.2318E+03    -225.407E-03     450.647E-03    -225.240E-03     35.1288E-03    -225.708E-03     449.878E-03    -225.312E-03     31.2292E-03
             560     2.15535E-03     106.932E-03    -137.190E+06    -247.249E+06    -114.221E+06     420.667E+03    -225.621E-03     450.904E-03    -225.283E-03     51.3838E-03    -226.129E-03     450.379E-03    -225.296E-03     45.6437E-03
             561     2.87378E-03     107.013E-03    -128.852E+06    -225.626E+06    -92.4382E+06     575.203E+03    -225.894E-03     451.221E-03    -225.327E-03     67.4373E-03    -226.676E-03     451.013E-03    -225.275E-03     59.8292E-03
             562     3.59238E-03     107.114E-03    -119.013E+06    -199.976E+06    -69.9536E+06     371.141E+03    -226.199E-03     451.556E-03    -225.358E-03     82.8942E-03    -227.317E-03     451.745E-03    -225.245E-03     73.4403E-03
             563     4.31111E-03     107.237E-03    -109.272E+06    -171.328E+06    -49.2313E+06     293.709E+03    -226.533E-03     451.898E-03    -225.365E-03     97.5886E-03    -228.045E-03     452.557E-03    -225.205E-03     86.3378E-03
             564     5.02998E-03     107.377E-03    -99.9091E+06    -145.214E+06    -30.1281E+06     344.089E+03    -226.944E-03     452.311E-03    -225.367E-03     111.052E-03    -228.885E-03     453.470E-03    -225.163E-03     98.0788E-03
             565     5.74858E-03     107.535E-03    -90.6633E+06    -120.794E+06    -13.1135E+06     513.266E+03    -227.419E-03     452.789E-03    -225.370E-03     122.963E-03    -229.798E-03     454.455E-03    -225.129E-03     108.408E-03
             566     6.46717E-03     107.708E-03    -81.7002E+06    -93.1286E+06     2.56484E+06     698.632E+03    -227.822E-03     453.193E-03    -225.371E-03     133.206E-03    -230.630E-03     455.373E-03    -225.104E-03     117.256E-03
             567     7.18622E-03     107.894E-03    -73.4874E+06    -62.6141E+06     17.3731E+06     1.13766E+06    -228.099E-03     453.466E-03    -225.367E-03     141.564E-03    -231.303E-03     456.137E-03    -225.083E-03     124.442E-03
             568     7.90489E-03     108.090E-03    -66.1063E+06    -30.0415E+06     31.0680E+06     1.45608E+06    -228.225E-03     453.579E-03    -225.353E-03     147.700E-03    -231.768E-03     456.690E-03    -225.059E-03     129.632E-03
             569     8.62366E-03     108.292E-03    -58.6440E+06     9.05586E+06     45.1529E+06     1.37688E+06    -228.232E-03     453.561E-03    -225.329E-03     151.764E-03    -232.047E-03     457.069E-03    -225.032E-03     132.961E-03
             570     9.34264E-03     108.497E-03    -51.2848E+06     33.9824E+06     54.1879E+06    -1.83497E+06    -228.166E-03     453.465E-03    -225.299E-03     153.786E-03    -232.149E-03     457.230E-03    -225.003E-03     134.390E-03
             571     10.0612E-03     108.703E-03    -43.9274E+06     44.3638E+06     59.4595E+06    -5.00671E+06    -227.901E-03     453.171E-03    -225.269E-03     153.510E-03    -231.947E-03     457.045E-03    -224.973E-03     133.680E-03
             572     10.7803E-03     108.906E-03    -35.1669E+06     52.4137E+06     69.5801E+06    -3.22650E+06    -227.322E-03     452.579E-03    -225.257E-03     150.555E-03    -231.338E-03     456.453E-03    -224.934E-03     130.540E-03
             573     11.5009E-03     109.102E-03    -25.3488E+06     64.3798E+06     83.0928E+06    -841.323E+03    -226.653E-03     451.899E-03    -225.247E-03     144.373E-03    -230.565E-03     455.709E-03    -224.888E-03     124.272E-03
             574     12.2195E-03     109.285E-03    -17.1671E+06     78.4180E+06     92.7910E+06    -883.551E+03    -225.890E-03     451.112E-03    -225.222E-03     131.925E-03    -229.493E-03     454.663E-03    -224.847E-03     112.185E-03
             575     12.9362E-03     109.447E-03    -9.88596E+06     83.5908E+06     96.5812E+06    -32.8802E+03    -225.321E-03     450.513E-03    -225.193E-03     122.718E-03    -228.766E-03     453.940E-03    -224.817E-03     102.888E-03
             576     13.6580E-03     109.606E-03    -4.47819E+06     83.8241E+06     94.8783E+06     1.46669E+06    -224.800E-03     449.959E-03    -225.159E-03     90.6340E-03    -227.227E-03     452.393E-03    -224.800E-03     74.2457E-03
             577     718.286E-06     108.323E-03    -147.108E+06    -286.006E+06    -145.324E+06    -194.087E+03    -225.416E-03     450.641E-03    -225.225E-03     19.0461E-03    -225.580E-03     449.689E-03    -225.324E-03     16.9181E-03
             578     1.43686E-03     108.360E-03    -143.662E+06    -267.668E+06    -133.063E+06     151.800E+03    -225.356E-03     450.639E-03    -225.283E-03     35.1587E-03    -225.657E-03     449.865E-03    -225.352E-03     31.2828E-03
             579     2.15534E-03     108.419E-03    -137.086E+06    -247.590E+06    -113.545E+06     239.018E+03    -225.592E-03     450.888E-03    -225.296E-03     51.4894E-03    -226.101E-03     450.360E-03    -225.306E-03     45.7536E-03
             580     2.87385E-03     108.499E-03    -128.657E+06    -225.962E+06    -91.9633E+06     235.843E+03    -225.890E-03     451.221E-03    -225.331E-03     67.5667E-03    -226.672E-03     451.011E-03    -225.276E-03     59.9545E-03
             581     3.59242E-03     108.601E-03    -118.941E+06    -200.362E+06    -69.7499E+06     507.052E+03    -226.210E-03     451.569E-03    -225.359E-03     82.9750E-03    -227.330E-03     451.758E-03    -225.245E-03     73.5126E-03
             582     4.31111E-03     108.723E-03    -109.130E+06    -171.719E+06    -48.5929E+06     789.261E+03    -226.576E-03     451.950E-03    -225.374E-03     97.4217E-03    -228.088E-03     452.606E-03    -225.210E-03     86.1645E-03
             583     5.02983E-03     108.864E-03    -99.1434E+06    -145.539E+06    -29.1612E+06     1.11774E+06    -227.012E-03     452.398E-03    -225.386E-03     110.744E-03    -228.946E-03     453.548E-03    -225.177E-03     97.7831E-03
             584     5.74862E-03     109.022E-03    -89.4619E+06    -121.198E+06    -12.0617E+06     1.47469E+06    -227.508E-03     452.905E-03    -225.398E-03     122.729E-03    -229.877E-03     454.562E-03    -225.153E-03     108.192E-03
             585     6.46724E-03     109.195E-03    -80.0685E+06    -93.9411E+06     3.57740E+06     1.79078E+06    -227.905E-03     453.311E-03    -225.406E-03     133.135E-03    -230.704E-03     455.482E-03    -225.136E-03     117.195E-03
             586     7.18553E-03     109.381E-03    -70.3925E+06    -64.0612E+06     18.6304E+06     2.32619E+06    -228.063E-03     453.463E-03    -225.400E-03     141.649E-03    -231.253E-03     456.122E-03    -225.112E-03     124.544E-03
             587     7.90453E-03     109.577E-03    -60.3401E+06    -30.9481E+06     33.6534E+06     3.12366E+06    -228.137E-03     453.513E-03    -225.377E-03     147.962E-03    -231.654E-03     456.609E-03    -225.076E-03     129.931E-03
             588     8.62360E-03     109.778E-03    -50.0235E+06     10.8906E+06     49.9322E+06     2.75892E+06    -228.186E-03     453.530E-03    -225.343E-03     152.068E-03    -231.970E-03     457.029E-03    -225.037E-03     133.296E-03
             589     9.34249E-03     109.984E-03    -40.3893E+06     42.1795E+06     62.0342E+06     1.26408E+06    -228.081E-03     453.387E-03    -225.306E-03     154.017E-03    -232.036E-03     457.168E-03    -224.998E-03     134.669E-03
             590     10.0619E-03     110.190E-03    -33.4039E+06     49.9053E+06     68.8969E+06    -518.754E+03    -227.850E-03     453.130E-03    -225.280E-03     153.682E-03    -231.870E-03     457.008E-03    -224.959E-03     133.915E-03
             591     10.7811E-03     110.393E-03    -28.5481E+06     48.5010E+06     73.7125E+06    -1.32248E+06    -227.498E-03     452.760E-03    -225.262E-03     150.386E-03    -231.483E-03     456.602E-03    -224.923E-03     130.376E-03
             592     11.4992E-03     110.588E-03    -23.2573E+06     62.2749E+06     82.4256E+06    -999.921E+03    -226.939E-03     452.185E-03    -225.246E-03     144.541E-03    -230.840E-03     455.985E-03    -224.890E-03     124.422E-03
             593     12.2181E-03     110.774E-03    -17.3800E+06     79.2404E+06     92.1842E+06    -693.158E+03    -226.062E-03     451.292E-03    -225.230E-03     133.323E-03    -229.675E-03     454.857E-03    -224.858E-03     113.641E-03
             594     12.9390E-03     110.933E-03    -12.0967E+06     81.2943E+06     94.1101E+06    -819.708E+03    -225.324E-03     450.520E-03    -225.196E-03     124.300E-03    -228.781E-03     453.950E-03    -224.826E-03     104.529E-03
             595     13.6578E-03     111.088E-03    -5.91629E+06     82.8505E+06     92.8210E+06    -522.699E+03    -224.702E-03     449.857E-03    -225.155E-03     90.1009E-03    -227.133E-03     452.292E-03    -224.803E-03     73.6465E-03
             596     718.374E-06     109.810E-03    -148.901E+06    -285.465E+06    -145.383E+06    -454.356E+03    -225.401E-03     450.667E-03    -225.266E-03     19.0483E-03    -225.574E-03     449.720E-03    -225.363E-03     16.9177E-03
             597     1.43676E-03     109.846E-03    -144.259E+06    -268.834E+06    -132.344E+06     78.4473E+03    -225.405E-03     450.718E-03    -225.314E-03     35.0719E-03    -225.709E-03     449.940E-03    -225.376E-03     31.1767E-03
             598     2.15533E-03     109.905E-03    -137.233E+06    -247.944E+06    -113.057E+06     341.786E+03    -225.543E-03     450.863E-03    -225.320E-03     51.4253E-03    -226.052E-03     450.333E-03    -225.327E-03     45.6788E-03
             599     2.87392E-03     109.986E-03    -128.364E+06    -225.870E+06    -90.9439E+06     289.079E+03    -225.872E-03     451.214E-03    -225.343E-03     67.4357E-03    -226.653E-03     451.002E-03    -225.284E-03     59.8277E-03
             600     3.59251E-03     110.087E-03    -118.867E+06    -200.916E+06    -69.2491E+06     300.745E+03    -226.307E-03     451.683E-03    -225.376E-03     82.8055E-03    -227.424E-03     451.866E-03    -225.259E-03     73.3414E-03
             601     4.31097E-03     110.209E-03    -108.434E+06    -172.599E+06    -48.2468E+06     492.050E+03    -226.717E-03     452.126E-03    -225.409E-03     97.2607E-03    -228.223E-03     452.774E-03    -225.242E-03     85.9951E-03
             602     5.02946E-03     110.350E-03    -97.9624E+06    -146.742E+06    -28.6865E+06     907.997E+03    -227.093E-03     452.526E-03    -225.432E-03     110.749E-03    -229.020E-03     453.667E-03    -225.221E-03     97.7858E-03
             603     5.74799E-03     110.509E-03    -87.5061E+06    -122.052E+06    -11.2007E+06     1.12134E+06    -227.445E-03     452.884E-03    -225.439E-03     122.924E-03    -229.806E-03     454.534E-03    -225.191E-03     108.386E-03
             604     6.46670E-03     110.682E-03    -76.9053E+06    -94.5305E+06     5.09982E+06     994.758E+03    -227.732E-03     453.160E-03    -225.427E-03     133.443E-03    -230.520E-03     455.323E-03    -225.153E-03     117.508E-03
             605     7.18590E-03     110.868E-03    -66.8174E+06    -65.3344E+06     20.2147E+06     921.698E+03    -227.972E-03     453.375E-03    -225.403E-03     141.984E-03    -231.150E-03     456.025E-03    -225.110E-03     124.862E-03
             606     7.90487E-03     111.063E-03    -56.8796E+06    -32.7173E+06     35.1329E+06     865.002E+03    -228.156E-03     453.528E-03    -225.372E-03     148.298E-03    -231.662E-03     456.614E-03    -225.067E-03     130.223E-03
             607     8.62376E-03     111.266E-03    -47.5710E+06     10.9052E+06     51.4050E+06     1.08230E+06    -228.131E-03     453.465E-03    -225.334E-03     152.241E-03    -231.906E-03     456.962E-03    -225.024E-03     133.449E-03
             608     9.34294E-03     111.470E-03    -39.7521E+06     43.0392E+06     62.8907E+06     1.47164E+06    -227.981E-03     453.271E-03    -225.289E-03     153.971E-03    -231.935E-03     457.054E-03    -224.980E-03     134.635E-03
             609     10.0619E-03     111.677E-03    -32.8360E+06     50.6241E+06     68.1363E+06     2.68055E+06    -227.839E-03     453.093E-03    -225.253E-03     153.487E-03    -231.853E-03     456.972E-03    -224.938E-03     133.772E-03
             610     10.7807E-03     111.879E-03    -27.0943E+06     50.4046E+06     72.8684E+06     3.03815E+06    -227.593E-03     452.830E-03    -225.236E-03     150.484E-03    -231.575E-03     456.683E-03    -224.906E-03     130.525E-03
             611     11.5003E-03     112.075E-03    -21.9424E+06     65.1132E+06     83.4865E+06     1.30371E+06    -227.078E-03     452.314E-03    -225.235E-03     144.724E-03    -230.983E-03     456.129E-03    -224.881E-03     124.623E-03
             612     12.2204E-03     112.259E-03    -15.7580E+06     79.3150E+06     94.0278E+06     63.0589E+03    -226.272E-03     451.512E-03    -225.240E-03     132.053E-03    -229.872E-03     455.064E-03    -224.862E-03     112.308E-03
             613     12.9388E-03     112.420E-03    -9.32561E+06     81.7463E+06     97.0925E+06     415.428E+03    -225.444E-03     450.669E-03    -225.225E-03     122.264E-03    -228.868E-03     454.069E-03    -224.845E-03     102.481E-03
             614     13.6560E-03     112.578E-03    -4.13131E+06     83.5262E+06     95.1082E+06    -214.762E+03    -224.716E-03     449.905E-03    -225.189E-03     90.8418E-03    -227.149E-03     452.344E-03    -224.828E-03     74.3504E-03
             615     718.417E-06     111.297E-03    -149.516E+06    -284.441E+06    -145.730E+06    -97.2101E+03    -225.489E-03     450.720E-03    -225.231E-03     18.9610E-03    -225.667E-03     449.780E-03    -225.330E-03     16.8253E-03
             616     1.43671E-03     111.333E-03    -144.661E+06    -269.545E+06    -131.911E+06    -173.238E+03    -225.462E-03     450.816E-03    -225.354E-03     34.9839E-03    -225.768E-03     450.034E-03    -225.413E-03     31.0710E-03
             617     2.15513E-03     111.391E-03    -137.420E+06    -248.449E+06    -113.082E+06     158.335E+03    -225.594E-03     450.960E-03    -225.366E-03     51.3414E-03    -226.104E-03     450.428E-03    -225.372E-03     45.5876E-03
             618     2.87373E-03     111.472E-03    -128.598E+06    -226.189E+06    -91.0974E+06     127.479E+03    -225.904E-03     451.292E-03    -225.387E-03     67.4539E-03    -226.686E-03     451.078E-03    -225.329E-03     59.8451E-03
             619     3.59214E-03     111.574E-03    -118.634E+06    -200.998E+06    -68.7572E+06    -13.0483E+03    -226.313E-03     451.730E-03    -225.418E-03     82.8881E-03    -227.428E-03     451.911E-03    -225.298E-03     73.4312E-03
             620     4.31067E-03     111.696E-03    -108.412E+06    -172.884E+06    -47.9490E+06     15.9609E+03    -226.677E-03     452.115E-03    -225.439E-03     97.4722E-03    -228.183E-03     452.762E-03    -225.270E-03     86.2125E-03
             621     5.02935E-03     111.837E-03    -98.1325E+06    -147.509E+06    -28.8985E+06    -175.025E+03    -227.035E-03     452.482E-03    -225.447E-03     111.121E-03    -228.966E-03     453.625E-03    -225.235E-03     98.1381E-03
             622     5.74821E-03     111.995E-03    -87.7388E+06    -121.733E+06    -11.4808E+06    -618.158E+03    -227.341E-03     452.777E-03    -225.437E-03     123.307E-03    -229.708E-03     454.435E-03    -225.190E-03     108.744E-03
             623     6.46722E-03     112.169E-03    -77.8197E+06    -94.4077E+06     4.57642E+06    -1.17543E+06    -227.621E-03     453.032E-03    -225.411E-03     133.660E-03    -230.414E-03     455.200E-03    -225.138E-03     117.702E-03
             624     7.18608E-03     112.354E-03    -68.0921E+06    -65.2677E+06     19.8275E+06    -1.65610E+06    -227.968E-03     453.350E-03    -225.383E-03     142.039E-03    -231.152E-03     456.004E-03    -225.090E-03     124.877E-03
             625     7.90484E-03     112.550E-03    -58.9060E+06    -33.4906E+06     34.2303E+06    -1.73323E+06    -228.178E-03     453.534E-03    -225.356E-03     148.213E-03    -231.694E-03     456.623E-03    -225.051E-03     130.087E-03
             626     8.62387E-03     112.751E-03    -50.1929E+06     7.33639E+06     48.7648E+06    -324.346E+03    -228.103E-03     453.420E-03    -225.317E-03     152.091E-03    -231.885E-03     456.908E-03    -225.011E-03     133.266E-03
             627     9.34294E-03     112.957E-03    -42.2552E+06     39.4911E+06     59.5875E+06     2.34998E+06    -228.003E-03     453.274E-03    -225.272E-03     153.802E-03    -231.958E-03     457.047E-03    -224.970E-03     134.473E-03
             628     10.0621E-03     113.163E-03    -35.8393E+06     47.3016E+06     63.9989E+06     4.17858E+06    -227.907E-03     453.144E-03    -225.237E-03     153.267E-03    -231.926E-03     457.018E-03    -224.934E-03     133.550E-03
             629     10.7814E-03     113.366E-03    -29.4452E+06     53.6752E+06     70.7572E+06     3.33272E+06    -227.656E-03     452.883E-03    -225.228E-03     149.970E-03    -231.652E-03     456.760E-03    -224.909E-03     129.970E-03
             630     11.5002E-03     113.561E-03    -22.4196E+06     70.2052E+06     84.0729E+06     1.19762E+06    -227.270E-03     452.518E-03    -225.248E-03     143.953E-03    -231.185E-03     456.359E-03    -224.897E-03     123.775E-03
             631     12.2173E-03     113.747E-03    -15.8819E+06     78.9054E+06     94.3609E+06     623.650E+03    -226.508E-03     451.781E-03    -225.272E-03     132.511E-03    -230.120E-03     455.342E-03    -224.892E-03     112.734E-03
             632     12.9350E-03     113.907E-03    -9.67334E+06     81.7642E+06     98.3112E+06     601.047E+03    -225.094E-03     450.349E-03    -225.255E-03     123.268E-03    -228.534E-03     453.760E-03    -224.868E-03     103.524E-03
             633     13.6585E-03     114.060E-03    -4.30027E+06     84.1264E+06     97.4648E+06     673.947E+03    -224.239E-03     449.436E-03    -225.197E-03     92.3580E-03    -226.691E-03     451.889E-03    -224.826E-03     75.9224E-03
             634     718.180E-06     112.783E-03    -148.898E+06    -283.775E+06    -145.914E+06    -309.171E+03    -225.560E-03     450.725E-03    -225.165E-03     19.0282E-03    -225.736E-03     449.788E-03    -225.267E-03     16.8908E-03
             635     1.43670E-03     112.820E-03    -144.550E+06    -269.861E+06    -132.684E+06     65.6539E+03    -225.465E-03     450.817E-03    -225.352E-03     35.0939E-03    -225.769E-03     450.034E-03    -225.414E-03     31.1954E-03
             636     2.15512E-03     112.878E-03    -137.638E+06    -248.595E+06    -113.427E+06     98.5736E+03    -225.673E-03     451.048E-03    -225.375E-03     51.5112E-03    -226.183E-03     450.516E-03    -225.382E-03     45.7641E-03
             637     2.87353E-03     112.959E-03    -128.959E+06    -226.105E+06    -91.3002E+06     62.3646E+03    -225.935E-03     451.342E-03    -225.407E-03     67.7399E-03    -226.719E-03     451.131E-03    -225.349E-03     60.1289E-03
             638     3.59219E-03     113.061E-03    -119.312E+06    -200.712E+06    -68.8743E+06    -153.855E+03    -226.209E-03     451.634E-03    -225.426E-03     83.1768E-03    -227.331E-03     451.820E-03    -225.306E-03     73.7155E-03
             639     4.31091E-03     113.183E-03    -109.162E+06    -172.518E+06    -48.1086E+06    -467.661E+03    -226.564E-03     451.989E-03    -225.425E-03     97.7199E-03    -228.078E-03     452.642E-03    -225.257E-03     86.4485E-03
             640     5.02965E-03     113.324E-03    -98.8893E+06    -146.593E+06    -29.1254E+06    -908.348E+03    -226.960E-03     452.379E-03    -225.420E-03     111.208E-03    -228.897E-03     453.529E-03    -225.210E-03     98.2149E-03
             641     5.74837E-03     113.482E-03    -89.2406E+06    -120.737E+06    -12.0371E+06    -1.36501E+06    -227.299E-03     452.705E-03    -225.406E-03     123.198E-03    -229.674E-03     454.369E-03    -225.161E-03     108.626E-03
             642     6.46718E-03     113.655E-03    -80.0936E+06     -92.976E+06     3.69324E+06    -1.85909E+06    -227.682E-03     453.067E-03    -225.385E-03     133.619E-03    -230.488E-03     455.248E-03    -225.115E-03     117.643E-03
             643     7.18604E-03     113.841E-03    -71.7005E+06    -64.8296E+06     17.9458E+06    -2.24221E+06    -228.033E-03     453.398E-03    -225.365E-03     142.086E-03    -231.235E-03     456.064E-03    -225.078E-03     124.903E-03
             644     7.90502E-03     114.036E-03    -63.9230E+06    -33.1045E+06     31.4281E+06    -2.46860E+06    -228.182E-03     453.524E-03    -225.343E-03     148.148E-03    -231.721E-03     456.629E-03    -225.045E-03     130.000E-03
             645     8.62390E-03     114.238E-03    -56.1781E+06     3.57833E+06     44.4278E+06    -2.10453E+06    -228.204E-03     453.515E-03    -225.312E-03     151.906E-03    -232.006E-03     457.002E-03    -225.013E-03     133.033E-03
             646     9.34296E-03     114.443E-03    -47.8958E+06     32.2814E+06     53.4647E+06     453.505E+03    -228.153E-03     453.427E-03    -225.275E-03     153.479E-03    -232.118E-03     457.182E-03    -224.985E-03     134.089E-03
             647     10.0619E-03     114.650E-03    -38.8523E+06     44.8320E+06     60.4140E+06     2.43986E+06    -228.016E-03     453.270E-03    -225.254E-03     152.820E-03    -232.039E-03     457.140E-03    -224.961E-03     133.044E-03
             648     10.7803E-03     114.852E-03    -30.4549E+06     56.0436E+06     70.6476E+06     2.36569E+06    -227.737E-03     452.996E-03    -225.259E-03     149.955E-03    -231.741E-03     456.886E-03    -224.943E-03     129.930E-03
             649     11.4987E-03     115.049E-03    -24.3407E+06     72.0620E+06     84.0260E+06     1.67366E+06    -226.988E-03     452.261E-03    -225.273E-03     144.635E-03    -230.919E-03     456.117E-03    -224.922E-03     124.510E-03
             650     12.2194E-03     115.233E-03    -18.5493E+06     79.2556E+06     94.1475E+06     1.05785E+06    -225.830E-03     451.097E-03    -225.267E-03     133.024E-03    -229.444E-03     454.653E-03    -224.884E-03     113.394E-03
             651     12.9410E-03     115.394E-03    -12.8006E+06     82.7085E+06     97.5663E+06     739.369E+03    -225.348E-03     450.583E-03    -225.235E-03     122.660E-03    -228.800E-03     454.000E-03    -224.848E-03     102.881E-03
             652     13.6560E-03     115.546E-03    -6.52041E+06     84.5794E+06     96.6769E+06    -205.792E+03    -224.651E-03     449.849E-03    -225.198E-03     91.5908E-03    -227.116E-03     452.311E-03    -224.828E-03     75.0493E-03
             653     718.547E-06     114.270E-03    -149.621E+06    -283.822E+06    -146.269E+06     134.524E+03    -225.404E-03     450.529E-03    -225.124E-03     19.0521E-03    -225.582E-03     449.592E-03    -225.227E-03     16.9427E-03
             654     1.43681E-03     114.306E-03    -145.293E+06    -269.791E+06    -133.363E+06    -95.2956E+03    -225.450E-03     450.719E-03    -225.269E-03     35.2355E-03    -225.758E-03     449.940E-03    -225.334E-03     31.3287E-03
             655     2.15529E-03     114.365E-03    -138.097E+06    -248.658E+06    -113.862E+06    -66.2763E+03    -225.682E-03     451.001E-03    -225.319E-03     51.7380E-03    -226.196E-03     450.472E-03    -225.328E-03     45.9753E-03
             656     2.87376E-03     114.445E-03    -129.210E+06    -225.992E+06    -91.2435E+06     49.7344E+03    -225.937E-03     451.306E-03    -225.368E-03     67.8302E-03    -226.724E-03     451.096E-03    -225.310E-03     60.2202E-03
             657     3.59230E-03     114.547E-03    -119.295E+06    -200.070E+06    -68.9743E+06    -109.370E+03    -226.183E-03     451.573E-03    -225.391E-03     83.2014E-03    -227.306E-03     451.763E-03    -225.272E-03     73.7424E-03
             658     4.31102E-03     114.669E-03    -109.267E+06    -171.872E+06    -48.3157E+06    -289.912E+03    -226.531E-03     451.921E-03    -225.390E-03     97.7279E-03    -228.046E-03     452.579E-03    -225.224E-03     86.4530E-03
             659     5.02970E-03     114.810E-03    -99.9920E+06    -145.912E+06    -29.5388E+06    -406.370E+03    -226.929E-03     452.315E-03    -225.386E-03     111.151E-03    -228.871E-03     453.470E-03    -225.178E-03     98.1658E-03
             660     5.74856E-03     114.968E-03    -90.7256E+06    -119.673E+06    -12.3980E+06    -552.753E+03    -227.364E-03     452.743E-03    -225.380E-03     123.176E-03    -229.748E-03     454.417E-03    -225.136E-03     108.606E-03
             661     6.46741E-03     115.141E-03    -82.0299E+06    -92.0517E+06     2.85390E+06    -488.236E+03    -227.805E-03     453.177E-03    -225.372E-03     133.584E-03    -230.623E-03     455.369E-03    -225.105E-03     117.607E-03
             662     7.18621E-03     115.327E-03    -74.0955E+06    -64.0568E+06     16.7525E+06    -354.481E+03    -228.094E-03     453.458E-03    -225.364E-03     141.865E-03    -231.306E-03     456.131E-03    -225.080E-03     124.702E-03
             663     7.90490E-03     115.523E-03    -66.7015E+06    -31.9567E+06     29.9459E+06    -371.514E+03    -228.246E-03     453.594E-03    -225.348E-03     147.874E-03    -231.797E-03     456.708E-03    -225.056E-03     129.750E-03
             664     8.62378E-03     115.725E-03    -59.7479E+06     4.61440E+06     42.8885E+06    -973.438E+03    -228.331E-03     453.659E-03    -225.328E-03     151.746E-03    -232.148E-03     457.156E-03    -225.034E-03     132.878E-03
             665     9.34229E-03     115.931E-03    -51.7827E+06     30.1053E+06     51.6442E+06    -2.79643E+06    -228.277E-03     453.581E-03    -225.305E-03     153.547E-03    -232.259E-03     457.337E-03    -225.015E-03     134.095E-03
             666     10.0610E-03     116.136E-03    -42.5901E+06     41.4145E+06     57.5157E+06    -3.09684E+06    -228.017E-03     453.300E-03    -225.283E-03     153.289E-03    -232.057E-03     457.169E-03    -224.994E-03     133.435E-03
             667     10.7802E-03     116.340E-03    -33.3878E+06     53.5001E+06     67.5580E+06    -1.69562E+06    -227.459E-03     452.730E-03    -225.271E-03     150.541E-03    -231.476E-03     456.622E-03    -224.962E-03     130.484E-03
             668     11.5002E-03     116.535E-03    -24.0086E+06     69.3923E+06     83.0370E+06     969.282E+03    -226.697E-03     451.967E-03    -225.270E-03     144.454E-03    -230.614E-03     455.804E-03    -224.920E-03     124.365E-03
             669     12.2186E-03     116.719E-03    -16.7907E+06     79.4100E+06     94.8659E+06     2.77229E+06    -226.023E-03     451.287E-03    -225.265E-03     132.122E-03    -229.615E-03     454.826E-03    -224.881E-03     112.509E-03
             670     12.9355E-03     116.879E-03    -10.8511E+06     86.8509E+06     98.8134E+06     752.585E+03    -225.562E-03     450.805E-03    -225.243E-03     122.658E-03    -229.020E-03     454.246E-03    -224.859E-03     102.825E-03
             671     13.6569E-03     117.036E-03    -4.30916E+06     85.7661E+06     96.3095E+06    -938.198E+03    -224.312E-03     449.510E-03    -225.198E-03     91.4953E-03    -226.764E-03     451.972E-03    -224.835E-03     75.0152E-03
             672     718.446E-06     115.756E-03    -148.544E+06    -284.886E+06    -145.416E+06     448.584E+03    -225.226E-03     450.422E-03    -225.195E-03     18.9636E-03    -225.398E-03     449.477E-03    -225.294E-03     16.8467E-03
             673     1.43704E-03     115.793E-03    -143.862E+06    -269.527E+06    -131.456E+06     603.037E+03    -225.426E-03     450.651E-03    -225.225E-03     35.1223E-03    -225.729E-03     449.867E-03    -225.282E-03     31.2280E-03
             674     2.15544E-03     115.851E-03    -136.908E+06    -248.096E+06    -112.151E+06     133.041E+03    -225.651E-03     450.933E-03    -225.283E-03     51.5820E-03    -226.161E-03     450.402E-03    -225.285E-03     45.8234E-03
             675     2.87392E-03     115.932E-03    -128.514E+06    -226.191E+06    -90.7839E+06    -94.7745E+03    -225.872E-03     451.200E-03    -225.327E-03     67.6482E-03    -226.655E-03     450.986E-03    -225.267E-03     60.0360E-03
             676     3.59252E-03     116.033E-03    -119.201E+06    -200.353E+06    -69.3003E+06     305.230E+03    -226.185E-03     451.534E-03    -225.349E-03     83.1371E-03    -227.306E-03     451.722E-03    -225.232E-03     73.6859E-03
             677     4.31113E-03     116.156E-03    -109.426E+06    -171.861E+06    -48.5222E+06     580.885E+03    -226.550E-03     451.908E-03    -225.358E-03     97.7230E-03    -228.067E-03     452.567E-03    -225.193E-03     86.4605E-03
             678     5.02996E-03     116.296E-03    -99.4744E+06    -145.817E+06    -29.1538E+06     784.082E+03    -226.982E-03     452.347E-03    -225.366E-03     111.062E-03    -228.922E-03     453.501E-03    -225.156E-03     98.0899E-03
             679     5.74871E-03     116.455E-03    -90.0887E+06    -119.799E+06    -12.1009E+06     1.18864E+06    -227.489E-03     452.862E-03    -225.373E-03     123.057E-03    -229.870E-03     454.533E-03    -225.129E-03     108.500E-03
             680     6.46722E-03     116.628E-03    -81.3872E+06    -92.3033E+06     3.11840E+06     1.67478E+06    -227.908E-03     453.287E-03    -225.379E-03     133.422E-03    -230.722E-03     455.476E-03    -225.112E-03     117.463E-03
             681     7.18580E-03     116.814E-03    -72.8766E+06    -63.5915E+06     17.4635E+06     1.92751E+06    -228.160E-03     453.541E-03    -225.380E-03     141.784E-03    -231.367E-03     456.212E-03    -225.095E-03     124.653E-03
             682     7.90467E-03     117.009E-03    -64.2107E+06    -31.5547E+06     31.6008E+06     2.01178E+06    -228.336E-03     453.709E-03    -225.372E-03     147.984E-03    -231.878E-03     456.818E-03    -225.076E-03     129.894E-03
             683     8.62330E-03     117.212E-03    -55.1553E+06     8.22005E+06     46.7630E+06     1.26737E+06    -228.331E-03     453.686E-03    -225.355E-03     151.985E-03    -232.139E-03     457.192E-03    -225.053E-03     133.151E-03
             684     9.34241E-03     117.417E-03    -47.0336E+06     36.9011E+06     57.5859E+06    -1.32640E+06    -228.173E-03     453.502E-03    -225.329E-03     153.906E-03    -232.153E-03     457.279E-03    -225.026E-03     134.490E-03
             685     10.0614E-03     117.623E-03    -40.2673E+06     42.5185E+06     61.7186E+06    -4.55556E+06    -227.961E-03     453.262E-03    -225.301E-03     153.591E-03    -232.005E-03     457.135E-03    -224.995E-03     133.705E-03
             686     10.7805E-03     117.826E-03    -33.3770E+06     49.1908E+06     69.2795E+06    -4.15144E+06    -227.486E-03     452.773E-03    -225.286E-03     150.259E-03    -231.499E-03     456.641E-03    -224.963E-03     130.156E-03
             687     11.4991E-03     118.021E-03    -26.8100E+06     63.1738E+06     81.1396E+06    -2.28355E+06    -226.887E-03     452.170E-03    -225.283E-03     144.175E-03    -230.805E-03     455.981E-03    -224.930E-03     124.018E-03
             688     12.2187E-03     118.206E-03    -18.0638E+06     77.1728E+06     92.2748E+06    -1.07727E+06    -226.129E-03     451.404E-03    -225.275E-03     132.616E-03    -229.731E-03     454.948E-03    -224.899E-03     112.918E-03
             689     12.9394E-03     118.368E-03    -9.25678E+06     89.2953E+06     98.8744E+06     336.426E+03    -225.021E-03     450.261E-03    -225.240E-03     123.333E-03    -228.478E-03     453.716E-03    -224.862E-03     103.567E-03
             690     13.6569E-03     118.520E-03    -4.89997E+06     86.2161E+06     95.6988E+06     379.112E+03    -224.055E-03     449.230E-03    -225.175E-03     91.0498E-03    -226.499E-03     451.685E-03    -224.814E-03     74.6662E-03
             691     718.412E-06     117.242E-03    -147.658E+06    -286.515E+06    -144.539E+06     609.765E+03    -225.288E-03     450.486E-03    -225.198E-03     19.0428E-03    -225.455E-03     449.532E-03    -225.292E-03     16.9126E-03
             692     1.43684E-03     117.279E-03    -143.108E+06    -270.145E+06    -131.641E+06     535.242E+03    -225.414E-03     450.655E-03    -225.241E-03     35.2137E-03    -225.712E-03     449.867E-03    -225.300E-03     31.3193E-03
             693     2.15525E-03     117.338E-03    -136.017E+06    -248.505E+06    -112.021E+06     811.033E+03    -225.593E-03     450.874E-03    -225.281E-03     51.5401E-03    -226.098E-03     450.339E-03    -225.283E-03     45.8012E-03
             694     2.87390E-03     117.418E-03    -127.482E+06    -226.058E+06    -89.7664E+06     818.095E+03    -225.843E-03     451.161E-03    -225.317E-03     67.5399E-03    -226.622E-03     450.945E-03    -225.253E-03     59.9404E-03
             695     3.59259E-03     117.520E-03    -118.004E+06    -200.664E+06    -68.2201E+06     830.195E+03    -226.183E-03     451.522E-03    -225.339E-03     82.9450E-03    -227.298E-03     451.704E-03    -225.218E-03     73.5009E-03
             696     4.31132E-03     117.642E-03    -108.047E+06    -172.531E+06    -47.8480E+06     1.20094E+06    -226.598E-03     451.952E-03    -225.354E-03     97.4763E-03    -228.105E-03     452.602E-03    -225.186E-03     86.2231E-03
             697     5.02989E-03     117.783E-03    -98.1943E+06    -146.871E+06    -28.6609E+06     1.63122E+06    -227.086E-03     452.460E-03    -225.374E-03     110.901E-03    -229.018E-03     453.605E-03    -225.162E-03     97.9329E-03
             698     5.74841E-03     117.941E-03    -88.4236E+06    -121.255E+06    -11.3678E+06     1.98347E+06    -227.558E-03     452.949E-03    -225.392E-03     123.050E-03    -229.929E-03     454.609E-03    -225.145E-03     108.503E-03
             699     6.46713E-03     118.115E-03    -78.6235E+06    -93.5168E+06     4.65717E+06     2.50611E+06    -227.897E-03     453.297E-03    -225.401E-03     133.437E-03    -230.696E-03     455.472E-03    -225.128E-03     117.502E-03
             700     7.18599E-03     118.301E-03    -68.8891E+06    -64.0372E+06     20.1286E+06     2.86948E+06    -228.156E-03     453.555E-03    -225.399E-03     141.908E-03    -231.347E-03     456.216E-03    -225.106E-03     124.794E-03
             701     7.90463E-03     118.497E-03    -59.3312E+06    -30.7952E+06     35.4385E+06     2.35529E+06    -228.313E-03     453.702E-03    -225.389E-03     148.230E-03    -231.839E-03     456.805E-03    -225.081E-03     130.149E-03
             702     8.62356E-03     118.699E-03    -50.2263E+06     10.4087E+06     50.9428E+06     1.39418E+06    -228.232E-03     453.595E-03    -225.363E-03     152.181E-03    -232.028E-03     457.101E-03    -225.050E-03     133.353E-03
             703     9.34245E-03     118.904E-03    -41.3957E+06     41.7477E+06     62.7280E+06     650.417E+03    -228.072E-03     453.398E-03    -225.326E-03     154.010E-03    -232.041E-03     457.187E-03    -225.013E-03     134.619E-03
             704     10.0615E-03     119.110E-03    -34.0166E+06     49.1769E+06     69.2336E+06    -839.647E+03    -227.970E-03     453.272E-03    -225.302E-03     153.665E-03    -231.999E-03     457.154E-03    -224.978E-03     133.859E-03
             705     10.7802E-03     119.313E-03    -27.9117E+06     47.5244E+06     74.1908E+06    -2.16445E+06    -227.688E-03     452.982E-03    -225.293E-03     150.536E-03    -231.683E-03     456.831E-03    -224.951E-03     130.455E-03
             706     11.4995E-03     119.508E-03    -20.6345E+06     61.3777E+06     84.4176E+06    -1.58826E+06    -227.045E-03     452.333E-03    -225.288E-03     144.863E-03    -230.947E-03     456.136E-03    -224.925E-03     124.693E-03
             707     12.2181E-03     119.693E-03    -15.1677E+06     76.8620E+06     93.3164E+06    -1.51232E+06    -226.005E-03     451.274E-03    -225.270E-03     133.051E-03    -229.613E-03     454.831E-03    -224.893E-03     113.298E-03
             708     12.9362E-03     119.852E-03    -11.2750E+06     84.3274E+06     95.8387E+06    -909.561E+03    -225.076E-03     450.304E-03    -225.228E-03     122.548E-03    -228.533E-03     453.742E-03    -224.855E-03     102.690E-03
             709     13.6583E-03     120.006E-03    -4.83611E+06     86.4739E+06     95.2870E+06     1.20155E+06    -224.310E-03     449.487E-03    -225.177E-03     90.2514E-03    -226.741E-03     451.931E-03    -224.819E-03     73.8679E-03
             710     718.517E-06     118.728E-03    -146.892E+06    -288.633E+06    -144.325E+06     671.889E+03    -225.433E-03     450.575E-03    -225.142E-03     19.1168E-03    -225.594E-03     449.608E-03    -225.232E-03     16.9982E-03
             711     1.43685E-03     118.765E-03    -142.784E+06    -270.479E+06    -131.511E+06     563.155E+03    -225.378E-03     450.644E-03    -225.266E-03     35.1537E-03    -225.674E-03     449.854E-03    -225.324E-03     31.2596E-03
             712     2.15552E-03     118.824E-03    -135.552E+06    -249.520E+06    -112.110E+06     477.788E+03    -225.558E-03     450.841E-03    -225.283E-03     51.5769E-03    -226.059E-03     450.300E-03    -225.285E-03     45.8340E-03
             713     2.87397E-03     118.905E-03    -126.248E+06    -226.476E+06    -89.7528E+06     784.465E+03    -225.913E-03     451.232E-03    -225.319E-03     67.5186E-03    -226.685E-03     451.012E-03    -225.256E-03     59.9175E-03
             714     3.59242E-03     119.006E-03    -116.838E+06    -201.465E+06    -67.6395E+06     998.614E+03    -226.258E-03     451.616E-03    -225.358E-03     82.8779E-03    -227.367E-03     451.791E-03    -225.235E-03     73.4266E-03
             715     4.31100E-03     119.129E-03    -107.023E+06    -173.807E+06    -46.8623E+06     1.22727E+06    -226.655E-03     452.038E-03    -225.383E-03     97.4900E-03    -228.156E-03     452.677E-03    -225.210E-03     86.2394E-03
             716     5.02966E-03     119.270E-03    -96.4983E+06    -147.552E+06    -27.3151E+06     1.27654E+06    -227.126E-03     452.531E-03    -225.405E-03     110.999E-03    -229.051E-03     453.669E-03    -225.187E-03     98.0275E-03
             717     5.74841E-03     119.428E-03    -85.9971E+06    -122.449E+06    -9.66290E+06     1.40850E+06    -227.541E-03     452.962E-03    -225.421E-03     123.092E-03    -229.900E-03     454.609E-03    -225.167E-03     108.545E-03
             718     6.46706E-03     119.602E-03    -75.7134E+06    -94.9794E+06     6.66652E+06     1.62237E+06    -227.850E-03     453.273E-03    -225.423E-03     133.403E-03    -230.633E-03     455.432E-03    -225.143E-03     117.466E-03
             719     7.18574E-03     119.788E-03    -65.3818E+06    -64.6218E+06     22.4864E+06     1.46733E+06    -228.084E-03     453.497E-03    -225.413E-03     141.931E-03    -231.260E-03     456.147E-03    -225.112E-03     124.799E-03
             720     7.90470E-03     119.984E-03    -55.4995E+06    -31.0278E+06     37.9584E+06     1.66110E+06    -228.185E-03     453.576E-03    -225.391E-03     148.240E-03    -231.693E-03     456.668E-03    -225.076E-03     130.164E-03
             721     8.62363E-03     120.185E-03    -46.5218E+06     11.0678E+06     53.6208E+06     1.98432E+06    -228.143E-03     453.498E-03    -225.355E-03     152.159E-03    -231.924E-03     456.998E-03    -225.035E-03     133.348E-03
             722     9.34277E-03     120.391E-03    -39.0640E+06     42.1933E+06     64.2923E+06     2.06904E+06    -228.041E-03     453.352E-03    -225.311E-03     153.994E-03    -232.002E-03     457.137E-03    -224.994E-03     134.628E-03
             723     10.0618E-03     120.597E-03    -33.1920E+06     50.0190E+06     69.0221E+06     3.01865E+06    -227.848E-03     453.123E-03    -225.274E-03     153.680E-03    -231.869E-03     457.003E-03    -224.954E-03     133.966E-03
             724     10.7812E-03     120.800E-03    -28.6933E+06     53.2608E+06     73.6249E+06     1.06900E+06    -227.597E-03     452.849E-03    -225.253E-03     150.695E-03    -231.603E-03     456.729E-03    -224.920E-03     130.676E-03
             725     11.4998E-03     120.995E-03    -24.3161E+06     62.6954E+06     82.0585E+06    -1.62828E+06    -227.003E-03     452.250E-03    -225.248E-03     144.760E-03    -230.928E-03     456.074E-03    -224.893E-03     124.563E-03
             726     12.2194E-03     121.179E-03    -17.5552E+06     74.6317E+06     92.4503E+06    -283.476E+03    -226.010E-03     451.252E-03    -225.242E-03     133.103E-03    -229.627E-03     454.804E-03    -224.862E-03     113.374E-03
             727     12.9395E-03     121.340E-03    -10.6851E+06     83.7313E+06     97.5338E+06     762.244E+03    -225.806E-03     451.031E-03    -225.225E-03     123.585E-03    -229.269E-03     454.471E-03    -224.844E-03     103.746E-03
             728     13.6550E-03     121.493E-03    -5.41918E+06     85.7945E+06     95.5304E+06     168.862E+03    -224.782E-03     449.981E-03    -225.199E-03     89.9814E-03    -227.221E-03     452.428E-03    -224.837E-03     73.4951E-03
             729     718.229E-06     120.216E-03    -146.625E+06    -289.636E+06    -144.351E+06    -139.476E+03    -225.506E-03     450.606E-03    -225.099E-03     19.2834E-03    -225.664E-03     449.634E-03    -225.188E-03     17.1497E-03
             730     1.43680E-03     120.251E-03    -142.095E+06    -270.769E+06    -131.065E+06     246.915E+03    -225.394E-03     450.675E-03    -225.281E-03     35.0791E-03    -225.686E-03     449.881E-03    -225.337E-03     31.1851E-03
             731     2.15527E-03     120.310E-03    -135.243E+06    -249.948E+06    -111.849E+06     201.742E+03    -225.596E-03     450.898E-03    -225.301E-03     51.5665E-03    -226.095E-03     450.353E-03    -225.302E-03     45.8217E-03
             732     2.87386E-03     120.391E-03    -126.999E+06    -227.827E+06    -90.5581E+06     420.235E+03    -225.925E-03     451.262E-03    -225.337E-03     67.5464E-03    -226.697E-03     451.037E-03    -225.275E-03     59.9499E-03
             733     3.59242E-03     120.493E-03    -117.410E+06    -202.271E+06    -67.7143E+06     592.235E+03    -226.316E-03     451.698E-03    -225.381E-03     82.9206E-03    -227.428E-03     451.870E-03    -225.256E-03     73.4634E-03
             734     4.31102E-03     120.615E-03    -106.870E+06    -174.146E+06    -46.1341E+06     193.206E+03    -226.706E-03     452.120E-03    -225.414E-03     97.5645E-03    -228.209E-03     452.758E-03    -225.237E-03     86.2905E-03
             735     5.02965E-03     120.757E-03    -96.2252E+06    -147.760E+06    -26.5858E+06     147.905E+03    -227.138E-03     452.574E-03    -225.435E-03     111.079E-03    -229.062E-03     453.709E-03    -225.215E-03     98.0950E-03
             736     5.74814E-03     120.915E-03    -86.1000E+06    -122.807E+06    -9.11366E+06     171.528E+03    -227.507E-03     452.954E-03    -225.447E-03     123.046E-03    -229.866E-03     454.598E-03    -225.190E-03     108.485E-03
             737     6.46692E-03     121.088E-03    -76.2108E+06    -95.0862E+06     6.98424E+06    -279.052E+03    -227.776E-03     453.216E-03    -225.440E-03     133.450E-03    -230.563E-03     455.375E-03    -225.157E-03     117.485E-03
             738     7.18583E-03     121.274E-03    -66.8295E+06    -64.8888E+06     21.9807E+06    -608.324E+03    -228.014E-03     453.433E-03    -225.419E-03     141.980E-03    -231.197E-03     456.085E-03    -225.118E-03     124.823E-03
             739     7.90473E-03     121.470E-03    -57.7218E+06    -32.4307E+06     36.4755E+06    -577.117E+03    -228.122E-03     453.512E-03    -225.390E-03     148.114E-03    -231.636E-03     456.600E-03    -225.077E-03     130.009E-03
             740     8.62384E-03     121.672E-03    -48.4968E+06     7.66617E+06     51.5705E+06     688.933E+03    -228.064E-03     453.413E-03    -225.349E-03     151.941E-03    -231.843E-03     456.898E-03    -225.032E-03     133.121E-03
             741     9.34280E-03     121.878E-03    -40.7130E+06     38.5389E+06     61.4302E+06     3.82149E+06    -227.943E-03     453.239E-03    -225.296E-03     153.696E-03    -231.896E-03     457.007E-03    -224.986E-03     134.367E-03
             742     10.0620E-03     122.083E-03    -34.1803E+06     48.1091E+06     65.4797E+06     6.08295E+06    -227.813E-03     453.064E-03    -225.251E-03     153.256E-03    -231.829E-03     456.940E-03    -224.944E-03     133.560E-03
             743     10.7810E-03     122.286E-03    -28.0497E+06     60.8788E+06     74.5696E+06     5.54506E+06    -227.509E-03     452.744E-03    -225.235E-03     150.201E-03    -231.516E-03     456.651E-03    -224.910E-03     130.252E-03
             744     11.5003E-03     122.483E-03    -22.9118E+06     68.5814E+06     84.9612E+06     2.41743E+06    -227.043E-03     452.287E-03    -225.244E-03     143.892E-03    -230.962E-03     456.121E-03    -224.885E-03     123.747E-03
             745     12.2190E-03     122.664E-03    -18.6498E+06     72.2679E+06     91.9003E+06    -288.674E+03    -226.352E-03     451.606E-03    -225.254E-03     131.612E-03    -229.955E-03     455.133E-03    -224.872E-03     111.823E-03
             746     12.9375E-03     122.826E-03    -12.7312E+06     84.3362E+06     97.1052E+06    -705.919E+03    -225.370E-03     450.608E-03    -225.238E-03     122.575E-03    -228.826E-03     454.037E-03    -224.857E-03     102.756E-03
             747     13.6581E-03     122.984E-03    -6.26654E+06     85.9565E+06     95.8396E+06    -741.078E+03    -224.473E-03     449.670E-03    -225.196E-03     89.8971E-03    -226.914E-03     452.116E-03    -224.833E-03     73.4433E-03
             748     718.573E-06     121.702E-03    -147.004E+06    -288.552E+06    -144.254E+06    -425.620E+03    -225.425E-03     450.610E-03    -225.185E-03     19.0243E-03    -225.585E-03     449.643E-03    -225.275E-03     16.8942E-03
             749     1.43690E-03     121.738E-03    -142.925E+06    -271.827E+06    -131.722E+06    -298.330E+03    -225.445E-03     450.739E-03    -225.295E-03     35.0785E-03    -225.738E-03     449.942E-03    -225.352E-03     31.1808E-03
             750     2.15531E-03     121.797E-03    -136.353E+06    -250.716E+06    -112.200E+06     430.349E+03    -225.662E-03     450.995E-03    -225.333E-03     51.5633E-03    -226.165E-03     450.449E-03    -225.332E-03     45.8219E-03
             751     2.87381E-03     121.877E-03    -127.717E+06    -227.887E+06    -89.4591E+06     459.353E+03    -225.932E-03     451.310E-03    -225.378E-03     67.5672E-03    -226.710E-03     451.085E-03    -225.309E-03     59.9592E-03
             752     3.59234E-03     121.980E-03    -117.606E+06    -201.889E+06    -67.1269E+06    -96.6072E+03    -226.319E-03     451.732E-03    -225.413E-03     82.9345E-03    -227.432E-03     451.906E-03    -225.285E-03     73.4673E-03
             753     4.31077E-03     122.102E-03    -107.534E+06    -173.754E+06    -46.3727E+06    -203.225E+03    -226.767E-03     452.210E-03    -225.443E-03     97.5529E-03    -228.274E-03     452.852E-03    -225.267E-03     86.2671E-03
             754     5.02935E-03     122.243E-03    -98.0354E+06    -148.012E+06    -27.3021E+06    -115.568E+03    -227.120E-03     452.585E-03    -225.465E-03     111.039E-03    -229.052E-03     453.723E-03    -225.245E-03     98.0444E-03
             755     5.74811E-03     122.402E-03    -88.4028E+06    -122.345E+06    -10.0696E+06    -410.813E+03    -227.396E-03     452.861E-03    -225.465E-03     123.056E-03    -229.767E-03     454.513E-03    -225.210E-03     108.485E-03
             756     6.46689E-03     122.575E-03    -79.3296E+06    -94.4405E+06     5.54304E+06    -709.378E+03    -227.722E-03     453.169E-03    -225.447E-03     133.496E-03    -230.526E-03     455.339E-03    -225.167E-03     117.520E-03
             757     7.18576E-03     122.761E-03    -71.1796E+06    -64.9068E+06     19.8138E+06    -569.739E+03    -228.018E-03     453.441E-03    -225.423E-03     141.929E-03    -231.220E-03     456.102E-03    -225.126E-03     124.765E-03
             758     7.90458E-03     122.956E-03    -64.0179E+06    -31.9225E+06     33.3157E+06    -629.196E+03    -228.141E-03     453.535E-03    -225.394E-03     147.966E-03    -231.684E-03     456.641E-03    -225.088E-03     129.843E-03
             759     8.62342E-03     123.159E-03    -57.4261E+06     4.23795E+06     45.7628E+06    -646.362E+03    -228.077E-03     453.431E-03    -225.354E-03     151.736E-03    -231.885E-03     456.918E-03    -225.048E-03     132.891E-03
             760     9.34272E-03     123.364E-03    -48.8539E+06     31.6888E+06     54.3719E+06     152.813E+03    -228.019E-03     453.325E-03    -225.305E-03     153.336E-03    -231.988E-03     457.075E-03    -225.009E-03     133.946E-03
             761     10.0618E-03     123.570E-03    -38.1255E+06     45.1161E+06     61.2848E+06     1.81202E+06    -227.913E-03     453.185E-03    -225.272E-03     152.720E-03    -231.935E-03     457.055E-03    -224.976E-03     132.929E-03
             762     10.7807E-03     123.773E-03    -27.7040E+06     60.1963E+06     73.5325E+06     3.72353E+06    -227.452E-03     452.718E-03    -225.266E-03     149.570E-03    -231.447E-03     456.616E-03    -224.946E-03     129.582E-03
             763     11.4997E-03     123.968E-03    -19.2964E+06     70.4527E+06     86.4436E+06     5.42010E+06    -226.981E-03     452.257E-03    -225.275E-03     143.817E-03    -230.881E-03     456.087E-03    -224.917E-03     123.729E-03
             764     12.2182E-03     124.154E-03    -13.8085E+06     77.1430E+06     95.8897E+06     4.86122E+06    -226.333E-03     451.617E-03    -225.284E-03     132.579E-03    -229.933E-03     455.164E-03    -224.896E-03     112.886E-03
             765     12.9363E-03     124.313E-03    -9.11135E+06     88.7821E+06     100.898E+06     1.30924E+06    -224.835E-03     450.084E-03    -225.249E-03     123.292E-03    -228.288E-03     453.527E-03    -224.860E-03     103.583E-03
             766     13.6568E-03     124.464E-03    -4.31417E+06     86.1249E+06     97.1199E+06    -1.21853E+06    -224.017E-03     449.190E-03    -225.173E-03     91.0741E-03    -226.451E-03     451.633E-03    -224.806E-03     74.7068E-03
             767     718.167E-06     123.188E-03    -147.340E+06    -288.352E+06    -144.140E+06     221.001E+03    -225.405E-03     450.659E-03    -225.254E-03     19.0537E-03    -225.569E-03     449.695E-03    -225.343E-03     16.9215E-03
             768     1.43671E-03     123.225E-03    -143.471E+06    -272.121E+06    -131.513E+06     182.219E+03    -225.499E-03     450.827E-03    -225.328E-03     35.1299E-03    -225.795E-03     450.029E-03    -225.383E-03     31.2367E-03
             769     2.15518E-03     123.283E-03    -136.707E+06    -251.128E+06    -112.130E+06     50.3895E+03    -225.720E-03     451.095E-03    -225.375E-03     51.5280E-03    -226.224E-03     450.548E-03    -225.373E-03     45.7817E-03
             770     2.87358E-03     123.364E-03    -127.690E+06    -227.951E+06    -89.5208E+06     225.055E+03    -225.985E-03     451.408E-03    -225.423E-03     67.5590E-03    -226.764E-03     451.184E-03    -225.355E-03     59.9309E-03
             771     3.59212E-03     123.466E-03    -118.346E+06    -202.109E+06    -67.4305E+06     729.823E+03    -226.310E-03     451.765E-03    -225.454E-03     82.9582E-03    -227.428E-03     451.940E-03    -225.327E-03     73.4946E-03
             772     4.31080E-03     123.589E-03    -108.840E+06    -173.735E+06    -46.5959E+06     887.524E+03    -226.710E-03     452.183E-03    -225.473E-03     97.6724E-03    -228.223E-03     452.827E-03    -225.296E-03     86.4083E-03
             773     5.02918E-03     123.730E-03    -98.8637E+06    -147.492E+06    -27.4804E+06     466.237E+03    -227.059E-03     452.540E-03    -225.481E-03     111.115E-03    -228.998E-03     453.685E-03    -225.261E-03     98.1205E-03
             774     5.74801E-03     123.888E-03    -89.4222E+06    -122.172E+06    -10.7303E+06     542.285E+03    -227.412E-03     452.886E-03    -225.474E-03     123.102E-03    -229.790E-03     454.544E-03    -225.221E-03     108.528E-03
             775     6.46691E-03     124.062E-03    -80.8878E+06    -94.4537E+06     4.37731E+06     1.12804E+06    -227.815E-03     453.275E-03    -225.460E-03     133.345E-03    -230.625E-03     455.451E-03    -225.184E-03     117.377E-03
             776     7.18562E-03     124.247E-03    -72.7397E+06    -64.8680E+06     18.5439E+06     1.46195E+06    -228.084E-03     453.529E-03    -225.445E-03     141.630E-03    -231.290E-03     456.193E-03    -225.153E-03     124.482E-03
             777     7.90448E-03     124.443E-03    -64.4488E+06    -32.0300E+06     32.2244E+06     1.99508E+06    -228.185E-03     453.606E-03    -225.421E-03     147.602E-03    -231.724E-03     456.709E-03    -225.120E-03     129.510E-03
             778     8.62348E-03     124.645E-03    -56.1258E+06     5.99834E+06     46.1680E+06     1.78975E+06    -228.244E-03     453.637E-03    -225.392E-03     151.346E-03    -232.044E-03     457.125E-03    -225.089E-03     132.520E-03
             779     9.34210E-03     124.850E-03    -48.1485E+06     34.3219E+06     56.2718E+06    -1.15238E+06    -228.256E-03     453.621E-03    -225.365E-03     153.081E-03    -232.222E-03     457.375E-03    -225.063E-03     133.667E-03
             780     10.0606E-03     125.057E-03    -40.4258E+06     42.9107E+06     60.8262E+06    -4.06945E+06    -227.969E-03     453.309E-03    -225.340E-03     152.524E-03    -231.994E-03     457.167E-03    -225.040E-03     132.657E-03
             781     10.7798E-03     125.259E-03    -32.7682E+06     50.2004E+06     67.4675E+06    -1.18342E+06    -227.336E-03     452.654E-03    -225.317E-03     149.436E-03    -231.331E-03     456.515E-03    -225.005E-03     129.389E-03
             782     11.4989E-03     125.455E-03    -25.5569E+06     66.9451E+06     80.9946E+06     2.11148E+06    -226.440E-03     451.738E-03    -225.298E-03     144.137E-03    -230.353E-03     455.563E-03    -224.953E-03     124.073E-03
             783     12.2189E-03     125.640E-03    -15.8413E+06     80.2016E+06     94.9060E+06     1.71578E+06    -225.348E-03     450.613E-03    -225.266E-03     132.687E-03    -228.948E-03     454.167E-03    -224.885E-03     113.083E-03
             784     12.9401E-03     125.799E-03    -7.88289E+06     89.8019E+06     101.767E+06     3.17723E+06    -224.886E-03     450.098E-03    -225.213E-03     122.491E-03    -228.318E-03     453.527E-03    -224.823E-03     102.820E-03
             785     13.6584E-03     125.951E-03    -4.78426E+06     89.0587E+06     99.2500E+06     2.42797E+06    -224.542E-03     449.704E-03    -225.162E-03     90.9744E-03    -226.986E-03     452.159E-03    -224.788E-03     74.5905E-03
             786     718.634E-06     124.675E-03    -146.902E+06    -289.693E+06    -144.028E+06     489.147E+03    -225.443E-03     450.747E-03    -225.304E-03     19.0751E-03    -225.603E-03     449.776E-03    -225.391E-03     16.9295E-03
             787     1.43678E-03     124.711E-03    -142.562E+06     -272.32E+06    -130.826E+06     617.139E+03    -225.569E-03     450.946E-03    -225.377E-03     35.1352E-03    -225.862E-03     450.145E-03    -225.429E-03     31.2275E-03
             788     2.15507E-03     124.770E-03    -135.996E+06    -251.598E+06    -111.732E+06     609.018E+03    -225.717E-03     451.136E-03    -225.420E-03     51.5677E-03    -226.217E-03     450.585E-03    -225.416E-03     45.8256E-03
             789     2.87353E-03     124.851E-03    -127.758E+06    -229.156E+06    -89.9438E+06     926.445E+03    -225.981E-03     451.432E-03    -225.451E-03     67.7155E-03    -226.758E-03     451.203E-03    -225.383E-03     60.1041E-03
             790     3.59198E-03     124.953E-03    -118.274E+06    -203.255E+06    -67.4625E+06     1.58403E+06    -226.352E-03     451.831E-03    -225.480E-03     83.1626E-03    -227.470E-03     452.003E-03    -225.351E-03     73.6972E-03
             791     4.31047E-03     125.075E-03    -108.112E+06    -173.987E+06    -46.2223E+06     1.83467E+06    -226.678E-03     452.172E-03    -225.494E-03     97.6791E-03    -228.189E-03     452.815E-03    -225.316E-03     86.4143E-03
             792     5.02952E-03     125.217E-03    -98.1732E+06    -147.414E+06    -27.1738E+06     1.87547E+06    -227.083E-03     452.581E-03    -225.498E-03     110.900E-03    -229.018E-03     453.723E-03    -225.278E-03     97.9170E-03
             793     5.74806E-03     125.375E-03    -88.8951E+06    -123.108E+06    -10.5830E+06     2.20500E+06    -227.601E-03     453.106E-03    -225.505E-03     122.812E-03    -229.974E-03     454.757E-03    -225.251E-03     108.242E-03
             794     6.46649E-03     125.548E-03    -79.5114E+06    -95.3456E+06     4.78616E+06     2.57868E+06    -227.991E-03     453.502E-03    -225.511E-03     133.009E-03    -230.792E-03     455.668E-03    -225.233E-03     117.039E-03
             795     7.18514E-03     125.734E-03    -69.9029E+06    -64.8151E+06     19.7273E+06     2.56154E+06    -228.207E-03     453.716E-03    -225.508E-03     141.176E-03    -231.397E-03     456.370E-03    -225.214E-03     124.026E-03
             796     7.90386E-03     125.930E-03    -60.2201E+06    -33.0110E+06     34.1278E+06     2.16738E+06    -228.341E-03     453.838E-03    -225.497E-03     147.118E-03    -231.855E-03     456.922E-03    -225.192E-03     129.011E-03
             797     8.62252E-03     126.132E-03    -50.1887E+06     7.80803E+06     50.0994E+06     1.65452E+06    -228.359E-03     453.838E-03    -225.479E-03     150.943E-03    -232.132E-03     457.315E-03    -225.167E-03     132.106E-03
             798     9.34131E-03     126.338E-03    -41.3780E+06     39.3491E+06     61.9929E+06     1.51730E+06    -228.106E-03     453.555E-03    -225.448E-03     152.852E-03    -232.047E-03     457.308E-03    -225.135E-03     133.500E-03
             799     10.0604E-03     126.543E-03    -36.0941E+06     46.6119E+06     66.3544E+06     1.09674E+06    -227.713E-03     453.120E-03    -225.407E-03     152.710E-03    -231.723E-03     456.975E-03    -225.090E-03     132.978E-03
             800     10.7793E-03     126.745E-03    -32.0270E+06     46.1134E+06     70.0137E+06    -618.357E+03    -227.205E-03     452.571E-03    -225.366E-03     149.917E-03    -231.197E-03     456.410E-03    -225.036E-03     129.912E-03
             801     11.4988E-03     126.940E-03    -24.5925E+06     63.2617E+06     82.5740E+06    -424.358E+03    -226.275E-03     451.603E-03    -225.327E-03     143.995E-03    -230.177E-03     455.402E-03    -224.971E-03     123.928E-03
             802     12.2189E-03     127.124E-03    -18.8485E+06     79.9392E+06     93.7653E+06     1.05060E+06    -225.313E-03     450.591E-03    -225.278E-03     131.861E-03    -228.914E-03     454.136E-03    -224.898E-03     112.254E-03
             803     12.9373E-03     127.284E-03    -13.9685E+06     86.5101E+06     97.0082E+06     535.405E+03    -225.148E-03     450.373E-03    -225.225E-03     121.945E-03    -228.604E-03     453.805E-03    -224.845E-03     102.144E-03
             804     13.6566E-03     127.439E-03    -4.70139E+06     91.0929E+06     98.0328E+06     1.62571E+06    -224.441E-03     449.623E-03    -225.182E-03     89.8302E-03    -226.887E-03     452.092E-03    -224.818E-03     73.3531E-03
             805     718.057E-06     126.161E-03    -146.873E+06    -291.224E+06    -143.622E+06     480.448E+03    -225.430E-03     450.885E-03    -225.455E-03     19.1761E-03    -225.588E-03     449.905E-03    -225.538E-03     17.0435E-03
             806     1.43653E-03     126.198E-03    -142.013E+06    -273.705E+06    -129.929E+06     957.495E+03    -225.543E-03     450.972E-03    -225.429E-03     35.2077E-03    -225.834E-03     450.164E-03    -225.476E-03     31.2901E-03
             807     2.15498E-03     126.257E-03    -135.337E+06    -252.756E+06    -110.829E+06     1.52715E+06    -225.710E-03     451.157E-03    -225.447E-03     51.5792E-03    -226.209E-03     450.599E-03    -225.438E-03     45.8281E-03
             808     2.87360E-03     126.337E-03    -127.097E+06    -230.639E+06    -89.2169E+06     1.91015E+06    -226.008E-03     451.482E-03    -225.474E-03     67.6744E-03    -226.780E-03     451.243E-03    -225.401E-03     60.0720E-03
             809     3.59213E-03     126.440E-03    -117.214E+06    -204.313E+06    -66.9215E+06     1.81368E+06    -226.429E-03     451.936E-03    -225.506E-03     83.0492E-03    -227.541E-03     452.100E-03    -225.375E-03     73.5818E-03
             810     4.31067E-03     126.562E-03    -107.025E+06    -175.351E+06    -46.1075E+06     2.21086E+06    -226.858E-03     452.396E-03    -225.537E-03     97.3462E-03    -228.361E-03     453.030E-03    -225.358E-03     86.0659E-03
             811     5.02887E-03     126.703E-03    -97.0120E+06    -148.420E+06    -26.6500E+06     2.79497E+06    -227.288E-03     452.855E-03    -225.567E-03     110.545E-03    -229.215E-03     453.988E-03    -225.345E-03     97.5560E-03
             812     5.74742E-03     126.862E-03    -87.0081E+06    -124.405E+06    -9.51585E+06     3.00249E+06    -227.729E-03     453.320E-03    -225.591E-03     122.462E-03    -230.089E-03     454.957E-03    -225.332E-03     107.893E-03
             813     6.46596E-03     127.036E-03    -77.3025E+06    -96.1615E+06     6.36699E+06     3.01400E+06    -228.083E-03     453.687E-03    -225.603E-03     132.739E-03    -230.871E-03     455.840E-03    -225.320E-03     116.767E-03
             814     7.18446E-03     127.221E-03    -68.4211E+06    -64.6921E+06     21.4482E+06     2.73816E+06    -228.337E-03     453.942E-03    -225.605E-03     141.013E-03    -231.521E-03     456.592E-03    -225.305E-03     123.845E-03
             815     7.90299E-03     127.417E-03    -60.3163E+06    -31.3307E+06     36.1211E+06     1.81437E+06    -228.465E-03     454.065E-03    -225.599E-03     147.142E-03    -231.986E-03     457.155E-03    -225.286E-03     129.015E-03
             816     8.62156E-03     127.619E-03    -52.7273E+06     8.93113E+06     50.5503E+06     519.603E+03    -228.252E-03     453.823E-03    -225.571E-03     151.072E-03    -232.040E-03     457.309E-03    -225.255E-03     132.228E-03
             817     9.34054E-03     127.824E-03    -45.0868E+06     36.8056E+06     60.3365E+06     948.436E+03    -227.817E-03     453.333E-03    -225.516E-03     152.782E-03    -231.768E-03     457.080E-03    -225.202E-03     133.442E-03
             818     10.0600E-03     128.029E-03    -36.4028E+06     44.6248E+06     66.1679E+06     3.53018E+06    -227.432E-03     452.885E-03    -225.453E-03     152.249E-03    -231.430E-03     456.720E-03    -225.134E-03     132.578E-03
             819     10.7799E-03     128.232E-03    -29.1186E+06     52.9645E+06     75.3667E+06     3.55867E+06    -227.004E-03     452.410E-03    -225.406E-03     149.068E-03    -230.983E-03     456.255E-03    -225.064E-03     129.149E-03
             820     11.4990E-03     128.426E-03    -25.1969E+06     63.0529E+06     84.6172E+06     1.06519E+06    -226.609E-03     451.983E-03    -225.374E-03     143.042E-03    -230.506E-03     455.769E-03    -225.006E-03     122.960E-03
             821     12.2179E-03     128.610E-03    -18.5415E+06     76.4752E+06     93.7576E+06     1.30455E+06    -225.898E-03     451.244E-03    -225.347E-03     131.108E-03    -229.491E-03     454.772E-03    -224.962E-03     111.425E-03
             822     12.9380E-03     128.771E-03    -9.74978E+06     90.4963E+06     100.440E+06     1.51153E+06    -224.956E-03     450.261E-03    -225.304E-03     122.108E-03    -228.406E-03     453.705E-03    -224.919E-03     102.345E-03
             823     13.6564E-03     128.927E-03    -5.53857E+06     91.1240E+06     96.7422E+06     259.678E+03    -224.024E-03     449.254E-03    -225.230E-03     89.6824E-03    -226.468E-03     451.722E-03    -224.870E-03     73.2564E-03
             824     718.418E-06     127.648E-03    -146.881E+06    -293.732E+06    -143.724E+06     1.20878E+06    -225.514E-03     450.956E-03    -225.441E-03     19.1994E-03    -225.669E-03     449.963E-03    -225.521E-03     17.0732E-03
             825     1.43673E-03     127.685E-03    -142.734E+06    -275.854E+06    -130.484E+06     1.41930E+06    -225.565E-03     451.025E-03    -225.460E-03     35.1682E-03    -225.856E-03     450.208E-03    -225.506E-03     31.2610E-03
             826     2.15511E-03     127.744E-03    -135.727E+06    -254.561E+06    -110.957E+06     1.75242E+06    -225.838E-03     451.331E-03    -225.493E-03     51.4431E-03    -226.336E-03     450.765E-03    -225.481E-03     45.6815E-03
             827     2.87332E-03     127.824E-03    -126.594E+06    -231.816E+06    -88.7854E+06     1.82617E+06    -226.184E-03     451.734E-03    -225.549E-03     67.4009E-03    -226.953E-03     451.487E-03    -225.474E-03     59.7814E-03
             828     3.59169E-03     127.927E-03    -116.469E+06    -205.684E+06    -66.4545E+06     2.09503E+06    -226.540E-03     452.139E-03    -225.599E-03     82.7262E-03    -227.643E-03     452.291E-03    -225.465E-03     73.2645E-03
             829     4.30996E-03     128.050E-03    -106.471E+06    -176.778E+06    -45.4256E+06     2.41789E+06    -227.003E-03     452.642E-03    -225.639E-03     97.1472E-03    -228.500E-03     453.266E-03    -225.456E-03     85.8649E-03
             830     5.02842E-03     128.191E-03    -96.6012E+06    -150.391E+06    -26.3439E+06     2.84495E+06    -227.474E-03     453.152E-03    -225.679E-03     110.484E-03    -229.397E-03     454.275E-03    -225.452E-03     97.4780E-03
             831     5.74671E-03     128.349E-03    -87.0032E+06    -125.639E+06    -9.14843E+06     3.24463E+06    -227.840E-03     453.548E-03    -225.708E-03     122.427E-03    -230.200E-03     455.180E-03    -225.446E-03     107.843E-03
             832     6.46519E-03     128.523E-03    -77.9381E+06    -96.9410E+06     6.98870E+06     3.39704E+06    -228.130E-03     453.849E-03    -225.719E-03     132.602E-03    -230.920E-03     455.998E-03    -225.431E-03     116.626E-03
             833     7.18376E-03     128.709E-03    -69.1616E+06    -64.9503E+06     22.3945E+06     3.55797E+06    -228.339E-03     454.054E-03    -225.715E-03     140.898E-03    -231.525E-03     456.699E-03    -225.408E-03     123.744E-03
             834     7.90229E-03     128.905E-03    -60.9467E+06    -30.3020E+06     37.0006E+06     3.97939E+06    -228.359E-03     454.052E-03    -225.693E-03     147.069E-03    -231.880E-03     457.142E-03    -225.376E-03     128.990E-03
             835     8.62117E-03     129.106E-03     -53.702E+06     11.3585E+06     51.4317E+06     3.74914E+06    -228.127E-03     453.775E-03    -225.648E-03     150.768E-03    -231.918E-03     457.267E-03    -225.330E-03     131.980E-03
             836     9.34041E-03     129.311E-03    -46.8100E+06     37.8012E+06     60.5754E+06     2.15560E+06    -227.897E-03     453.485E-03    -225.589E-03     152.245E-03    -231.855E-03     457.236E-03    -225.273E-03     132.896E-03
             837     10.0593E-03     129.516E-03    -39.4794E+06     41.9205E+06     64.4484E+06     132.286E+03    -227.613E-03     453.146E-03    -225.533E-03     151.451E-03    -231.618E-03     456.973E-03    -225.214E-03     131.682E-03
             838     10.7780E-03     129.717E-03    -30.1511E+06     50.7773E+06     73.6260E+06     1.15686E+06    -227.158E-03     452.654E-03    -225.496E-03     148.011E-03    -231.126E-03     456.482E-03    -225.157E-03     128.020E-03
             839     11.4978E-03     129.913E-03    -20.4962E+06     64.5749E+06     85.6234E+06     3.59236E+06    -226.696E-03     452.166E-03    -225.470E-03     142.167E-03    -230.563E-03     455.941E-03    -225.106E-03     122.095E-03
             840     12.2163E-03     130.097E-03    -15.1055E+06     78.8917E+06     94.8901E+06     2.28791E+06    -225.667E-03     451.104E-03    -225.437E-03     130.683E-03    -229.242E-03     454.630E-03    -225.055E-03     111.028E-03
             841     12.9346E-03     130.256E-03    -10.6598E+06     90.3938E+06     99.7112E+06     1.13006E+06    -224.213E-03     449.577E-03    -225.364E-03     122.118E-03    -227.664E-03     453.021E-03    -224.981E-03     102.409E-03
             842     13.6563E-03     130.411E-03     -5.2146E+06      91.756E+06     97.5057E+06     1.35563E+06    -223.271E-03     448.521E-03    -225.250E-03     90.9518E-03    -225.719E-03     450.994E-03    -224.888E-03     74.6565E-03
             843     718.137E-06     129.135E-03    -146.164E+06    -296.716E+06    -144.060E+06     464.470E+03    -225.608E-03     451.059E-03    -225.451E-03     19.0286E-03    -225.754E-03     450.050E-03    -225.529E-03     16.8958E-03
             844     1.43644E-03     129.172E-03    -141.853E+06    -277.726E+06    -131.108E+06     963.588E+03    -225.736E-03     451.265E-03    -225.529E-03     35.0659E-03    -226.017E-03     450.437E-03    -225.576E-03     31.1601E-03
             845     2.15467E-03     129.230E-03    -134.487E+06    -256.210E+06    -111.052E+06     1.22306E+06    -226.040E-03     451.641E-03    -225.601E-03     51.4494E-03    -226.529E-03     451.065E-03    -225.590E-03     45.6778E-03
             846     2.87291E-03     129.312E-03    -125.696E+06    -233.275E+06    -88.5748E+06     1.62560E+06    -226.412E-03     452.096E-03    -225.685E-03     67.3406E-03    -227.174E-03     451.841E-03    -225.607E-03     59.7054E-03
             847     3.59109E-03     129.414E-03    -116.371E+06    -207.728E+06    -66.3835E+06     2.18678E+06    -226.722E-03     452.474E-03    -225.752E-03     82.5644E-03    -227.822E-03     452.615E-03    -225.614E-03     73.0899E-03
             848     4.30958E-03     129.537E-03    -106.326E+06    -178.722E+06    -45.3031E+06     2.80118E+06    -227.055E-03     452.843E-03    -225.788E-03     97.0277E-03    -228.547E-03     453.454E-03    -225.601E-03     85.7511E-03
             849     5.02776E-03     129.679E-03    -96.3163E+06    -152.183E+06    -25.7315E+06     3.35001E+06    -227.517E-03     453.333E-03    -225.816E-03     110.346E-03    -229.435E-03     454.443E-03    -225.584E-03     97.3405E-03
             850     5.74611E-03     129.837E-03    -86.5376E+06    -126.739E+06    -8.30700E+06     3.69244E+06    -227.947E-03     453.786E-03    -225.839E-03     122.251E-03    -230.304E-03     455.410E-03    -225.571E-03     107.653E-03
             851     6.46439E-03     130.011E-03    -76.7231E+06    -97.9895E+06     7.87823E+06     3.83814E+06    -228.219E-03     454.067E-03    -225.847E-03     132.440E-03    -231.002E-03     456.206E-03    -225.554E-03     116.451E-03
             852     7.18282E-03     130.196E-03    -67.2328E+06    -66.7507E+06     23.1324E+06     4.49375E+06    -228.388E-03     454.225E-03    -225.837E-03     140.630E-03    -231.559E-03     456.854E-03    -225.528E-03     123.478E-03
             853     7.90161E-03     130.392E-03    -58.0575E+06    -32.6538E+06     37.8339E+06     5.49296E+06    -228.388E-03     454.200E-03    -225.812E-03     146.327E-03    -231.885E-03     457.266E-03    -225.491E-03     128.249E-03
             854     8.62047E-03     130.593E-03    -48.8755E+06     11.0172E+06     53.8854E+06     6.57336E+06    -228.215E-03     453.985E-03    -225.770E-03     149.655E-03    -231.973E-03     457.453E-03    -225.446E-03     130.882E-03
             855     9.33902E-03     130.798E-03    -40.5783E+06     42.7003E+06     64.7654E+06     6.02422E+06    -227.979E-03     453.692E-03    -225.714E-03     151.194E-03    -231.906E-03     457.439E-03    -225.393E-03     131.882E-03
             856     10.0579E-03     131.002E-03    -34.1277E+06     48.2438E+06     69.6508E+06     3.14708E+06    -227.706E-03     453.370E-03    -225.664E-03     150.811E-03    -231.690E-03     457.203E-03    -225.337E-03     131.081E-03
             857     10.7771E-03     131.204E-03    -30.0546E+06     45.3576E+06     72.7513E+06     1.45356E+06    -227.289E-03     452.910E-03    -225.621E-03     148.144E-03    -231.246E-03     456.710E-03    -225.279E-03     128.171E-03
             858     11.4952E-03     131.399E-03    -25.9397E+06     60.7470E+06     81.6605E+06     2.39922E+06    -226.216E-03     451.781E-03    -225.565E-03     142.913E-03    -230.100E-03     455.552E-03    -225.207E-03     122.904E-03
             859     12.2155E-03     131.583E-03    -18.8707E+06     83.9812E+06     94.5794E+06     2.71352E+06    -224.759E-03     450.243E-03    -225.484E-03     131.624E-03    -228.352E-03     453.793E-03    -225.106E-03     112.142E-03
             860     12.9370E-03     131.741E-03    -11.5137E+06     90.1907E+06     98.8086E+06     1.63794E+06    -223.850E-03     449.219E-03    -225.369E-03     122.699E-03    -227.295E-03     452.657E-03    -224.989E-03     103.117E-03
             861     13.6560E-03     131.895E-03    -4.59229E+06     92.7369E+06     98.4114E+06     909.789E+03    -222.984E-03     448.225E-03    -225.241E-03     91.1044E-03    -225.447E-03     450.716E-03    -224.877E-03     74.7050E-03
             862     718.335E-06     130.622E-03    -146.853E+06    -297.865E+06    -143.689E+06     42.5424E+03    -225.766E-03     451.363E-03    -225.598E-03     19.0212E-03    -225.913E-03     450.349E-03    -225.671E-03     16.8910E-03
             863     1.43640E-03     130.659E-03    -141.975E+06    -278.977E+06    -131.135E+06     190.398E+03    -225.919E-03     451.607E-03    -225.688E-03     35.0690E-03    -226.199E-03     450.773E-03    -225.734E-03     31.1505E-03
             864     2.15448E-03     130.718E-03    -134.855E+06    -258.030E+06    -111.735E+06     759.788E+03    -226.231E-03     451.999E-03    -225.767E-03     51.4594E-03    -226.718E-03     451.414E-03    -225.756E-03     45.6801E-03
             865     2.87250E-03     130.800E-03    -126.643E+06    -235.468E+06    -89.6683E+06     1.47966E+06    -226.557E-03     452.409E-03    -225.852E-03     67.2935E-03    -227.319E-03     452.146E-03    -225.775E-03     59.6516E-03
             866     3.59049E-03     130.902E-03    -117.017E+06    -209.485E+06    -66.8987E+06     2.02883E+06    -226.884E-03     452.802E-03    -225.918E-03     82.5200E-03    -227.985E-03     452.938E-03    -225.779E-03     73.0205E-03
             867     4.30845E-03     131.025E-03    -106.656E+06    -180.958E+06    -45.6846E+06     2.36685E+06    -227.226E-03     453.182E-03    -225.956E-03     96.9935E-03    -228.717E-03     453.784E-03    -225.767E-03     85.6832E-03
             868     5.02698E-03     131.167E-03    -96.2634E+06    -154.085E+06    -26.0372E+06     2.82024E+06    -227.635E-03     453.616E-03    -225.981E-03     110.253E-03    -229.550E-03     454.717E-03    -225.748E-03     97.2178E-03
             869     5.74515E-03     131.325E-03    -85.7536E+06    -128.443E+06    -8.36918E+06     3.25760E+06    -228.043E-03     454.042E-03    -225.999E-03     121.927E-03    -230.392E-03     455.654E-03    -225.730E-03     107.299E-03
             870     6.46352E-03     131.499E-03    -75.8973E+06    -99.6532E+06     7.74656E+06     3.85705E+06    -228.387E-03     454.394E-03    -226.007E-03     131.926E-03    -231.160E-03     456.521E-03    -225.713E-03     115.906E-03
             871     7.18196E-03     131.684E-03    -66.7864E+06    -68.9112E+06     22.7906E+06     4.20949E+06    -228.604E-03     454.610E-03    -226.006E-03     139.862E-03    -231.765E-03     457.224E-03    -225.695E-03     122.662E-03
             872     7.90008E-03     131.880E-03    -57.4964E+06    -35.3283E+06     37.4474E+06     4.42319E+06    -228.564E-03     454.555E-03    -225.991E-03     145.462E-03    -232.048E-03     457.601E-03    -225.669E-03     127.327E-03
             873     8.61833E-03     132.081E-03    -48.2856E+06     7.02888E+06     52.6753E+06     5.31211E+06    -228.265E-03     454.212E-03    -225.947E-03     149.051E-03    -232.007E-03     457.655E-03    -225.624E-03     130.239E-03
             874     9.33734E-03     132.285E-03    -39.5419E+06      41.582E+06     64.5657E+06     6.87536E+06    -227.841E-03     453.718E-03    -225.877E-03     150.762E-03    -231.750E-03     457.447E-03    -225.557E-03     131.481E-03
             875     10.0565E-03     132.489E-03    -33.2345E+06     50.6911E+06     69.7174E+06     8.66132E+06    -227.415E-03     453.213E-03    -225.798E-03     150.545E-03    -231.385E-03     457.043E-03    -225.475E-03     130.947E-03
             876     10.7755E-03     132.691E-03    -28.4837E+06     50.5632E+06     73.9496E+06     7.63674E+06    -226.694E-03     452.410E-03    -225.717E-03     147.989E-03    -230.635E-03     456.216E-03    -225.379E-03     128.200E-03
             877     11.4961E-03     132.885E-03    -21.7578E+06     63.2703E+06     84.1828E+06     4.08541E+06    -225.624E-03     451.248E-03    -225.624E-03     142.493E-03    -229.486E-03     455.014E-03    -225.264E-03     122.571E-03
             878     12.2164E-03     133.066E-03    -15.6786E+06     82.5217E+06     95.9843E+06     2.61201E+06    -224.635E-03     450.159E-03    -225.523E-03     130.638E-03    -228.227E-03     453.709E-03    -225.140E-03     111.034E-03
             879     12.9358E-03     133.226E-03    -11.6140E+06     92.9085E+06     100.534E+06     2.39026E+06    -223.674E-03     449.080E-03    -225.406E-03     120.496E-03    -227.116E-03     452.519E-03    -225.021E-03     100.824E-03
             880     13.6569E-03     133.379E-03    -5.92964E+06     95.5307E+06     99.3508E+06     1.01952E+06    -222.727E-03     447.998E-03    -225.271E-03     89.8804E-03    -225.183E-03     450.484E-03    -224.904E-03     73.4943E-03
             881     717.780E-06     132.110E-03    -147.284E+06    -298.529E+06    -144.480E+06     259.292E+03    -226.082E-03     451.824E-03    -225.742E-03     19.0547E-03    -226.230E-03     450.809E-03    -225.818E-03     16.8978E-03
             882     1.43590E-03     132.147E-03    -143.599E+06    -280.243E+06    -131.751E+06     700.365E+03    -226.149E-03     452.071E-03    -225.922E-03     35.1125E-03    -226.435E-03     451.235E-03    -225.966E-03     31.1830E-03
             883     2.15383E-03     132.207E-03    -137.301E+06    -259.967E+06    -112.862E+06     912.755E+03    -226.394E-03     452.387E-03    -225.993E-03     51.3708E-03    -226.888E-03     451.798E-03    -225.981E-03     45.5871E-03
             884     2.87178E-03     132.288E-03    -128.012E+06    -236.575E+06    -90.2934E+06     970.025E+03    -226.646E-03     452.701E-03    -226.055E-03     67.2084E-03    -227.412E-03     452.435E-03    -225.978E-03     59.5467E-03
             885     3.58996E-03     132.390E-03    -117.899E+06    -210.842E+06    -67.7899E+06     1.26298E+06    -227.050E-03     453.155E-03    -226.105E-03     82.4200E-03    -228.152E-03     453.287E-03    -225.968E-03     72.8823E-03
             886     4.30819E-03     132.513E-03    -107.735E+06    -182.263E+06    -46.8380E+06     1.47578E+06    -227.521E-03     453.672E-03    -226.151E-03     96.6964E-03    -229.015E-03     454.273E-03    -225.965E-03     85.3275E-03
             887     5.02587E-03     132.655E-03    -97.4376E+06    -156.186E+06    -27.6525E+06     1.88870E+06    -227.886E-03     454.077E-03    -226.191E-03     109.811E-03    -229.801E-03     455.171E-03    -225.962E-03     96.7209E-03
             888     5.74405E-03     132.814E-03    -87.8697E+06    -130.462E+06    -10.5310E+06     2.54901E+06    -228.258E-03     454.474E-03    -226.215E-03     121.395E-03    -230.607E-03     456.078E-03    -225.952E-03     106.725E-03
             889     6.46205E-03     132.987E-03    -78.5578E+06    -101.886E+06     5.40613E+06     2.96380E+06    -228.629E-03     454.860E-03    -226.231E-03     131.287E-03    -231.404E-03     456.978E-03    -225.942E-03     115.215E-03
             890     7.17979E-03     133.173E-03    -69.1505E+06    -71.1126E+06     20.8255E+06     3.61689E+06    -228.710E-03     454.943E-03    -226.233E-03     139.248E-03    -231.870E-03     457.544E-03    -225.925E-03     122.019E-03
             891     7.89815E-03     133.368E-03    -61.1195E+06    -37.1745E+06     35.1054E+06     4.27637E+06    -228.513E-03     454.717E-03    -226.204E-03     145.099E-03    -232.003E-03     457.756E-03    -225.886E-03     126.964E-03
             892     8.61700E-03     133.569E-03     -54.286E+06     4.08722E+06     48.9884E+06     4.63369E+06    -228.177E-03     454.315E-03    -226.138E-03     148.749E-03    -231.933E-03     457.751E-03    -225.820E-03     129.934E-03
             893     9.33584E-03     133.772E-03    -48.0344E+06     36.1596E+06     58.4902E+06     6.20999E+06    -227.752E-03     453.798E-03    -226.046E-03     150.213E-03    -231.678E-03     457.512E-03    -225.737E-03     130.925E-03
             894     10.0550E-03     133.976E-03    -40.0470E+06     46.5302E+06     63.2516E+06     7.96795E+06    -227.121E-03     453.062E-03    -225.942E-03     149.589E-03    -231.098E-03     456.880E-03    -225.635E-03     129.979E-03
             895     10.7751E-03     134.177E-03    -30.7374E+06     57.1370E+06     72.5502E+06     6.57427E+06    -226.193E-03     452.030E-03    -225.837E-03     146.261E-03    -230.134E-03     455.853E-03    -225.512E-03     126.461E-03
             896     11.4947E-03     134.369E-03    -24.3336E+06     67.5683E+06     82.7806E+06     4.03093E+06    -225.279E-03     451.005E-03    -225.725E-03     140.429E-03    -229.133E-03     454.772E-03    -225.374E-03     120.497E-03
             897     12.2141E-03     134.552E-03    -18.3058E+06     80.1990E+06     94.3528E+06     4.46409E+06    -224.140E-03     449.750E-03    -225.610E-03     129.760E-03    -227.718E-03     453.274E-03    -225.228E-03     110.252E-03
             898     12.9338E-03     134.711E-03    -9.77180E+06     97.4770E+06     104.716E+06     3.83345E+06    -223.194E-03     448.667E-03    -225.473E-03     121.435E-03    -226.646E-03     452.127E-03    -225.077E-03     101.858E-03
             899     13.6541E-03     134.860E-03    -3.83175E+06     99.2440E+06     102.474E+06     944.785E+03    -222.082E-03     447.379E-03    -225.297E-03     90.8697E-03    -224.541E-03     449.879E-03    -224.923E-03     74.6018E-03
             900     718.035E-06     133.598E-03    -149.213E+06    -299.809E+06    -146.666E+06     148.642E+03    -226.357E-03     452.393E-03    -226.037E-03     19.0155E-03    -226.510E-03     451.378E-03    -226.119E-03     16.8503E-03
             901     1.43560E-03     133.636E-03    -145.137E+06    -281.314E+06    -134.020E+06     341.962E+03    -226.430E-03     452.632E-03    -226.203E-03     35.1648E-03    -226.719E-03     451.797E-03    -226.255E-03     31.2174E-03
             902     2.15331E-03     133.695E-03    -138.110E+06    -260.384E+06    -114.086E+06     394.274E+03    -226.599E-03     452.864E-03    -226.265E-03     51.2300E-03    -227.095E-03     452.276E-03    -226.258E-03     45.4128E-03
             903     2.87129E-03     133.777E-03    -129.195E+06    -237.680E+06    -91.6785E+06     819.056E+03    -226.888E-03     453.205E-03    -226.317E-03     66.9144E-03    -227.656E-03     452.936E-03    -226.244E-03     59.2263E-03
             904     3.58905E-03     133.879E-03    -119.389E+06    -212.039E+06    -69.3862E+06     915.198E+03    -227.341E-03     453.711E-03    -226.371E-03     82.0348E-03    -228.446E-03     453.841E-03    -226.237E-03     72.4640E-03
             905     4.30650E-03     134.003E-03    -109.475E+06    -183.512E+06    -48.8191E+06     1.23353E+06    -227.785E-03     454.207E-03    -226.422E-03     96.2356E-03    -229.282E-03     454.805E-03    -226.241E-03     84.8291E-03
             906     5.02444E-03     134.144E-03    -99.5778E+06    -158.049E+06    -29.7074E+06     1.72227E+06    -228.214E-03     454.685E-03    -226.471E-03     109.294E-03    -230.131E-03     455.774E-03    -226.246E-03     96.1615E-03
             907     5.74220E-03     134.303E-03    -89.6406E+06    -132.148E+06    -12.3573E+06     2.12546E+06    -228.583E-03     455.090E-03    -226.507E-03     120.903E-03    -230.932E-03     456.688E-03    -226.247E-03     106.187E-03
             908     6.45991E-03     134.477E-03    -80.4138E+06    -103.593E+06     3.34737E+06     2.82166E+06    -228.712E-03     455.229E-03    -226.517E-03     130.779E-03    -231.485E-03     457.339E-03    -226.233E-03     114.686E-03
             909     7.17821E-03     134.662E-03    -72.1947E+06    -74.5130E+06     17.6380E+06     3.92494E+06    -228.644E-03     455.139E-03    -226.495E-03     138.689E-03    -231.802E-03     457.725E-03    -226.194E-03     121.459E-03
             910     7.89662E-03     134.856E-03    -64.2103E+06    -40.5628E+06     31.7981E+06     5.61456E+06    -228.480E-03     454.922E-03    -226.442E-03     144.284E-03    -231.964E-03     457.941E-03    -226.131E-03     126.160E-03
             911     8.61507E-03     135.056E-03    -56.5447E+06     824.748E+03     46.2220E+06     7.81875E+06    -228.186E-03     454.550E-03    -226.364E-03     147.608E-03    -231.927E-03     457.959E-03    -226.052E-03     128.834E-03
             912     9.33384E-03     135.260E-03    -49.0001E+06     35.0577E+06     56.9612E+06     8.40853E+06    -227.673E-03     453.934E-03    -226.261E-03     148.986E-03    -231.584E-03     457.630E-03    -225.956E-03     129.721E-03
             913     10.0528E-03     135.462E-03    -41.6894E+06     47.9417E+06     62.6722E+06     5.46972E+06    -226.901E-03     453.042E-03    -226.141E-03     148.448E-03    -230.874E-03     456.855E-03    -225.837E-03     128.804E-03
             914     10.7719E-03     135.662E-03    -34.4565E+06     57.1380E+06     71.1345E+06     4.07963E+06    -225.977E-03     451.992E-03    -226.015E-03     145.656E-03    -229.927E-03     455.817E-03    -225.693E-03     125.823E-03
             915     11.4918E-03     135.854E-03    -27.0503E+06     68.4159E+06     83.1035E+06     4.15353E+06    -224.898E-03     450.781E-03    -225.883E-03     140.461E-03    -228.756E-03     454.544E-03    -225.527E-03     120.606E-03
             916     12.2130E-03     136.035E-03    -18.4314E+06     81.5622E+06     95.8683E+06     2.09974E+06    -223.318E-03     449.043E-03    -225.725E-03     128.896E-03    -226.861E-03     452.532E-03    -225.337E-03     109.542E-03
             917     12.9366E-03     136.192E-03    -11.0411E+06     98.7783E+06     104.464E+06     1.58725E+06    -222.042E-03     447.566E-03    -225.523E-03     120.352E-03    -225.483E-03     451.015E-03    -225.128E-03     100.843E-03
             918     13.6571E-03     136.349E-03    -6.16796E+06     102.048E+06     103.010E+06     1.76766E+06    -221.394E-03     446.697E-03    -225.303E-03     89.4917E-03    -223.861E-03     449.206E-03    -224.927E-03     73.2887E-03
             919     717.310E-06     135.088E-03    -151.082E+06    -299.973E+06    -148.592E+06     245.794E+03    -226.643E-03     453.203E-03    -226.560E-03     18.9740E-03    -226.802E-03     452.192E-03    -226.649E-03     16.8113E-03
             920     1.43498E-03     135.125E-03    -146.982E+06    -281.196E+06    -136.186E+06    -354.348E+03    -226.697E-03     453.277E-03    -226.580E-03     34.8727E-03    -226.991E-03     452.447E-03    -226.640E-03     30.9139E-03
             921     2.15260E-03     135.185E-03    -139.999E+06    -260.892E+06    -116.468E+06    -265.555E+03    -226.912E-03     453.524E-03    -226.612E-03     50.9516E-03    -227.412E-03     452.938E-03    -226.613E-03     45.1203E-03
             922     2.87003E-03     135.266E-03    -130.982E+06    -238.834E+06    -94.0947E+06    -35.5051E+03    -227.312E-03     453.982E-03    -226.670E-03     66.6480E-03    -228.083E-03     453.713E-03    -226.604E-03     58.9188E-03
             923     3.58752E-03     135.370E-03    -121.504E+06    -213.487E+06    -72.0165E+06     619.774E+03    -227.653E-03     454.383E-03    -226.730E-03     81.7379E-03    -228.762E-03     454.512E-03    -226.605E-03     72.1285E-03
             924     4.30535E-03     135.493E-03    -111.517E+06    -184.624E+06    -50.8437E+06     946.103E+03    -228.060E-03     454.836E-03    -226.776E-03     95.9392E-03    -229.561E-03     455.433E-03    -226.601E-03     84.4988E-03
             925     5.02280E-03     135.634E-03    -101.062E+06    -159.501E+06    -31.6781E+06     1.10905E+06    -228.571E-03     455.394E-03    -226.823E-03     108.907E-03    -230.489E-03     456.479E-03    -226.603E-03     95.7253E-03
             926     5.74008E-03     135.793E-03    -91.0996E+06    -134.193E+06    -14.5175E+06     1.74685E+06    -228.828E-03     455.685E-03    -226.857E-03     120.342E-03    -231.176E-03     457.275E-03    -226.603E-03     105.577E-03
             927     6.45792E-03     135.966E-03    -81.4685E+06    -106.696E+06     1.08037E+06     2.84615E+06    -228.820E-03     455.675E-03    -226.855E-03     129.959E-03    -231.584E-03     457.768E-03    -226.576E-03     113.831E-03
             928     7.17587E-03     136.151E-03    -71.9808E+06    -78.1207E+06     15.7290E+06     4.26638E+06    -228.775E-03     455.594E-03    -226.819E-03     137.540E-03    -231.913E-03     458.153E-03    -226.523E-03     120.276E-03
             929     7.89394E-03     136.345E-03    -62.8431E+06    -46.2373E+06     29.7430E+06     6.20190E+06    -228.613E-03     455.371E-03    -226.758E-03     142.926E-03    -232.060E-03     458.344E-03    -226.451E-03     124.790E-03
             930     8.61232E-03     136.545E-03    -53.5102E+06    -6.06190E+06     44.7489E+06     9.00451E+06    -228.122E-03     454.789E-03    -226.667E-03     146.300E-03    -231.815E-03     458.141E-03    -226.357E-03     127.551E-03
             931     9.33101E-03     136.747E-03    -44.4274E+06     35.4186E+06     59.0570E+06     9.97907E+06    -227.291E-03     453.827E-03    -226.535E-03     147.864E-03    -231.161E-03     457.493E-03    -226.227E-03     128.661E-03
             932     10.0506E-03     136.949E-03    -37.2038E+06     55.8269E+06     68.3918E+06     7.78446E+06    -226.410E-03     452.787E-03    -226.377E-03     147.631E-03    -230.358E-03     456.603E-03    -226.062E-03     128.088E-03
             933     10.7709E-03     137.148E-03    -30.1783E+06     58.4807E+06     76.9444E+06     4.49123E+06    -225.502E-03     451.719E-03    -226.217E-03     145.096E-03    -229.429E-03     455.524E-03    -225.873E-03     125.310E-03
             934     11.4917E-03     137.339E-03    -21.9284E+06     67.2404E+06     88.4937E+06     4.27108E+06    -224.371E-03     450.416E-03    -226.045E-03     139.571E-03    -228.199E-03     454.148E-03    -225.668E-03     119.745E-03
             935     12.2121E-03     137.519E-03    -16.4258E+06     85.3756E+06     99.5463E+06     4.59924E+06    -223.149E-03     449.000E-03    -225.851E-03     128.071E-03    -226.701E-03     452.508E-03    -225.453E-03     108.671E-03
             936     12.9303E-03     137.674E-03    -12.7190E+06     99.7442E+06     104.790E+06     2.22201E+06    -221.737E-03     447.366E-03    -225.629E-03     119.104E-03    -225.187E-03     450.820E-03    -225.231E-03     99.5479E-03
             937     13.6545E-03     137.826E-03    -5.57498E+06     103.540E+06     103.180E+06     705.020E+03    -220.091E-03     445.453E-03    -225.361E-03     88.4180E-03    -222.547E-03     447.957E-03    -224.988E-03     72.2284E-03
             938     717.241E-06     136.579E-03    -152.126E+06    -299.910E+06    -149.662E+06     198.668E+03    -227.124E-03     454.177E-03    -227.052E-03     19.0345E-03    -227.287E-03     453.169E-03    -227.145E-03     16.8667E-03
             939     1.43424E-03     136.616E-03    -148.295E+06    -279.899E+06    -136.971E+06    -211.284E+03    -227.106E-03     454.160E-03    -227.054E-03     34.6266E-03    -227.407E-03     453.338E-03    -227.118E-03     30.6533E-03
             940     2.15167E-03     136.675E-03    -141.796E+06    -260.421E+06    -118.164E+06    -887.702E+03    -227.352E-03     454.419E-03    -227.067E-03     50.7821E-03    -227.858E-03     453.840E-03    -227.075E-03     44.9267E-03
             941     2.86887E-03     136.758E-03    -133.322E+06    -239.613E+06    -96.5860E+06    -733.144E+03    -227.731E-03     454.852E-03    -227.120E-03     66.4010E-03    -228.510E-03     454.586E-03    -227.062E-03     58.6241E-03
             942     3.58608E-03     136.860E-03    -123.374E+06    -214.265E+06    -74.1711E+06    -391.839E+03    -228.097E-03     455.278E-03    -227.182E-03     81.2182E-03    -229.210E-03     455.408E-03    -227.063E-03     71.5452E-03
             943     4.30324E-03     136.983E-03    -112.632E+06    -185.476E+06    -52.9310E+06    -273.346E+03    -228.509E-03     455.740E-03    -227.232E-03     95.2690E-03    -230.007E-03     456.334E-03    -227.064E-03     83.7648E-03
             944     5.02037E-03     137.126E-03    -102.260E+06    -160.793E+06    -33.9028E+06    -9.29461E+03    -228.832E-03     456.104E-03    -227.272E-03     108.060E-03    -230.745E-03     457.182E-03    -227.060E-03     94.8188E-03
             945     5.73784E-03     137.284E-03    -91.9161E+06    -136.370E+06    -16.6925E+06     448.459E+03    -229.012E-03     456.300E-03    -227.288E-03     119.307E-03    -231.349E-03     457.875E-03    -227.040E-03     104.482E-03
             946     6.45520E-03     137.457E-03    -81.5083E+06    -110.134E+06    -870.151E+03     1.08561E+06    -229.120E-03     456.395E-03    -227.275E-03     128.792E-03    -231.866E-03     458.463E-03    -227.001E-03     112.584E-03
             947     7.17276E-03     137.641E-03    -71.4325E+06    -82.9591E+06     13.7189E+06     2.43171E+06    -229.046E-03     456.283E-03    -227.236E-03     136.353E-03    -232.158E-03     458.807E-03    -226.944E-03     119.019E-03
             948     7.89068E-03     137.835E-03    -61.5331E+06    -51.7913E+06     28.4928E+06     4.27126E+06    -228.665E-03     455.829E-03    -227.165E-03     141.711E-03    -232.079E-03     458.759E-03    -226.858E-03     123.530E-03
             949     8.60900E-03     138.033E-03    -52.0866E+06    -14.9502E+06     43.1632E+06     6.71217E+06    -227.875E-03     454.919E-03    -227.043E-03     144.870E-03    -231.523E-03     458.203E-03    -226.730E-03     126.101E-03
             950     9.32836E-03     138.234E-03    -43.7669E+06     31.8420E+06     58.7050E+06     9.28975E+06    -226.871E-03     453.738E-03    -226.867E-03     146.166E-03    -230.701E-03     457.356E-03    -226.556E-03     126.995E-03
             951     10.0482E-03     138.435E-03     -35.942E+06     59.5636E+06     70.5129E+06     10.0809E+06    -225.944E-03     452.610E-03    -226.666E-03     145.456E-03    -229.859E-03     456.405E-03    -226.348E-03     125.974E-03
             952     10.7682E-03     138.632E-03    -31.1689E+06     65.7503E+06     77.6814E+06     8.40789E+06    -224.862E-03     451.318E-03    -226.456E-03     142.460E-03    -228.762E-03     455.116E-03    -226.118E-03     122.791E-03
             953     11.4883E-03     138.823E-03    -28.1108E+06     69.7576E+06     85.1503E+06     4.56645E+06    -223.595E-03     449.827E-03    -226.233E-03     137.379E-03    -227.415E-03     453.549E-03    -225.867E-03     117.627E-03
             954     12.2099E-03     139.001E-03    -20.3092E+06     83.5412E+06     97.2729E+06     3.10190E+06    -222.205E-03     448.199E-03    -225.994E-03     126.999E-03    -225.757E-03     451.693E-03    -225.600E-03     107.627E-03
             955     12.9341E-03     139.159E-03    -10.6119E+06     102.071E+06     108.106E+06     4.27683E+06    -220.821E-03     446.548E-03    -225.727E-03     118.964E-03    -224.252E-03     449.991E-03    -225.319E-03     99.5567E-03
             956     13.6527E-03     139.307E-03    -4.82578E+06     106.298E+06     107.300E+06     1.35232E+06    -219.048E-03     444.456E-03    -225.408E-03     88.9984E-03    -221.505E-03     446.962E-03    -225.018E-03     72.9107E-03
             957     716.551E-06     138.071E-03    -154.168E+06    -298.917E+06    -152.277E+06    -902.598E+03    -227.676E-03     455.204E-03    -227.528E-03     18.7373E-03    -227.846E-03     454.208E-03    -227.633E-03     16.5436E-03
             958     1.43367E-03     138.108E-03    -149.902E+06    -279.157E+06    -139.674E+06    -643.084E+03    -227.760E-03     455.354E-03    -227.595E-03     34.4024E-03    -228.066E-03     454.543E-03    -227.671E-03     30.3943E-03
             959     2.15026E-03     138.168E-03    -143.452E+06    -258.971E+06    -119.614E+06    -604.972E+03    -227.984E-03     455.636E-03    -227.653E-03     50.3481E-03    -228.499E-03     455.070E-03    -227.667E-03     44.4442E-03
             960     2.86719E-03     138.250E-03    -135.250E+06    -238.475E+06    -97.8998E+06    -1.39468E+06    -228.226E-03     455.937E-03    -227.711E-03     65.7743E-03    -229.012E-03     455.680E-03    -227.658E-03     57.9426E-03
             961     3.58397E-03     138.353E-03    -124.858E+06    -213.702E+06    -76.1499E+06    -2.14415E+06    -228.651E-03     456.413E-03    -227.762E-03     80.6115E-03    -229.768E-03     456.549E-03    -227.652E-03     70.8583E-03
             962     4.30058E-03     138.476E-03    -113.975E+06    -185.942E+06    -55.3585E+06    -2.30181E+06    -229.013E-03     456.823E-03    -227.809E-03     94.6374E-03    -230.513E-03     457.418E-03    -227.651E-03     83.0407E-03
             963     5.01751E-03     138.618E-03    -103.376E+06    -161.531E+06    -36.1712E+06    -2.17541E+06    -229.195E-03     457.033E-03    -227.838E-03     107.168E-03    -231.104E-03     458.107E-03    -227.635E-03     93.8354E-03
             964     5.73453E-03     138.776E-03    -92.8287E+06    -138.001E+06    -18.7252E+06    -1.87783E+06    -229.363E-03     457.202E-03    -227.839E-03     118.165E-03    -231.691E-03     458.765E-03    -227.598E-03     103.246E-03
             965     6.45173E-03     138.949E-03    -82.8803E+06    -112.317E+06    -2.81636E+06    -1.23021E+06    -229.425E-03     457.240E-03    -227.815E-03     127.396E-03    -232.157E-03     459.287E-03    -227.546E-03     111.109E-03
             966     7.16912E-03     139.132E-03    -73.3596E+06    -86.5326E+06     11.6552E+06    -634.667E+03    -229.220E-03     456.982E-03    -227.762E-03     134.743E-03    -232.313E-03     459.473E-03    -227.472E-03     117.332E-03
             967     7.88685E-03     139.325E-03    -63.8857E+06    -58.0373E+06     25.4084E+06     937.677E+03    -228.617E-03     456.280E-03    -227.662E-03     139.816E-03    -232.005E-03     459.161E-03    -227.359E-03     121.564E-03
             968     8.60534E-03     139.522E-03    -55.1387E+06    -22.8993E+06     39.2859E+06     3.61330E+06    -227.733E-03     455.240E-03    -227.507E-03     142.601E-03    -231.346E-03     458.463E-03    -227.198E-03     123.780E-03
             969     9.32425E-03     139.721E-03    -46.5292E+06     23.4680E+06     54.9240E+06     7.64356E+06    -226.717E-03     454.018E-03    -227.301E-03     143.654E-03    -230.506E-03     457.566E-03    -226.993E-03     124.461E-03
             970     10.0437E-03     139.921E-03    -38.9708E+06     56.1766E+06     66.0405E+06     11.0522E+06    -225.504E-03     452.558E-03    -227.054E-03     143.023E-03    -229.380E-03     456.304E-03    -226.749E-03     123.604E-03
             971     10.7639E-03     140.117E-03    -31.0731E+06     70.0284E+06     75.5917E+06     10.7950E+06    -224.006E-03     450.790E-03    -226.783E-03     140.387E-03    -227.865E-03     454.567E-03    -226.462E-03     120.860E-03
             972     11.4860E-03     140.305E-03    -22.3903E+06     78.3043E+06     88.4421E+06     7.85426E+06    -222.356E-03     448.849E-03    -226.493E-03     135.919E-03    -226.131E-03     452.566E-03    -226.132E-03     116.346E-03
             973     12.2076E-03     140.483E-03    -17.9078E+06     86.5143E+06     99.6605E+06     4.17309E+06    -220.444E-03     446.607E-03    -226.163E-03     126.160E-03    -223.959E-03     450.076E-03    -225.764E-03     107.018E-03
             974     12.9284E-03     140.636E-03    -13.7463E+06     101.823E+06     108.152E+06     1.09556E+06    -218.869E-03     444.655E-03    -225.786E-03     118.531E-03    -222.309E-03     448.094E-03    -225.373E-03     99.2142E-03
             975     13.6568E-03     140.785E-03    -6.14133E+06     109.291E+06     109.652E+06     1.48155E+06    -217.876E-03     443.262E-03    -225.387E-03     88.1227E-03    -220.332E-03     445.767E-03    -224.988E-03     72.2117E-03
             976     716.552E-06     139.565E-03    -156.678E+06    -294.758E+06    -154.308E+06    -1.65416E+06    -228.378E-03     456.539E-03    -228.161E-03     18.5326E-03    -228.563E-03     455.570E-03    -228.278E-03     16.3133E-03
             977     1.43249E-03     139.603E-03    -152.908E+06    -278.428E+06    -142.359E+06    -1.99720E+06    -228.530E-03     456.818E-03    -228.288E-03     34.2206E-03    -228.849E-03     456.019E-03    -228.374E-03     30.1735E-03
             978     2.14873E-03     139.662E-03    -145.183E+06    -257.723E+06    -122.073E+06    -1.99842E+06    -228.738E-03     457.111E-03    -228.373E-03     49.9685E-03    -229.260E-03     456.556E-03    -228.399E-03     43.9986E-03
             979     2.86487E-03     139.744E-03    -135.773E+06    -235.502E+06    -99.4348E+06    -2.66682E+06    -228.962E-03     457.404E-03    -228.442E-03     65.3031E-03    -229.752E-03     457.165E-03    -228.401E-03     57.3937E-03
             980     3.58129E-03     139.847E-03    -126.323E+06    -211.262E+06    -78.0912E+06    -3.72454E+06    -229.268E-03     457.757E-03    -228.489E-03     80.0077E-03    -230.392E-03     457.909E-03    -228.390E-03     70.1653E-03
             981     4.29774E-03     139.971E-03    -116.157E+06    -185.047E+06    -57.4873E+06    -4.29312E+06    -229.536E-03     458.058E-03    -228.522E-03     93.5781E-03    -231.039E-03     458.658E-03    -228.372E-03     81.8851E-03
             982     5.01414E-03     140.112E-03    -105.511E+06    -161.357E+06    -37.9882E+06    -4.38804E+06    -229.743E-03     458.283E-03    -228.540E-03     105.900E-03    -231.652E-03     459.355E-03    -228.343E-03     92.4643E-03
             983     5.73062E-03     140.270E-03    -95.1049E+06    -138.379E+06    -20.6770E+06    -4.37778E+06    -229.888E-03     458.422E-03    -228.534E-03     116.764E-03    -232.212E-03     459.977E-03    -228.299E-03     101.735E-03
             984     6.44730E-03     140.442E-03    -84.9806E+06    -114.139E+06    -5.34701E+06    -3.99763E+06    -229.818E-03     458.316E-03    -228.498E-03     125.652E-03    -232.536E-03     460.342E-03    -228.236E-03     109.259E-03
             985     7.16428E-03     140.625E-03    -75.4366E+06    -89.3228E+06     8.90583E+06    -2.59718E+06    -229.400E-03     457.823E-03    -228.423E-03     132.574E-03    -232.468E-03     460.280E-03    -228.139E-03     115.093E-03
             986     7.88182E-03     140.816E-03    -66.7644E+06    -62.5869E+06     21.8553E+06    -1.30168E+06    -228.636E-03     456.927E-03    -228.291E-03     137.302E-03    -231.991E-03     459.759E-03    -227.994E-03     119.002E-03
             987     8.60000E-03     141.011E-03    -58.3496E+06    -30.2346E+06     34.7196E+06     1.25510E+06    -227.626E-03     455.723E-03    -228.098E-03     140.082E-03    -231.198E-03     458.880E-03    -227.796E-03     121.237E-03
             988     9.31878E-03     141.210E-03    -50.0105E+06     10.4691E+06     47.8964E+06     5.64059E+06    -226.286E-03     454.122E-03    -227.837E-03     141.475E-03    -230.017E-03     457.575E-03    -227.540E-03     122.330E-03
             989     10.0387E-03     141.407E-03    -41.4223E+06     49.6019E+06     60.0638E+06     9.38012E+06    -224.522E-03     452.027E-03    -227.505E-03     141.262E-03    -228.341E-03     455.701E-03    -227.216E-03     121.989E-03
             990     10.7602E-03     141.600E-03    -33.9631E+06     72.3567E+06     72.7297E+06     9.42456E+06    -222.591E-03     449.723E-03    -227.132E-03     139.242E-03    -226.419E-03     453.477E-03    -226.825E-03     119.902E-03
             991     11.4816E-03     141.786E-03    -27.8423E+06     82.7875E+06     86.4754E+06     6.99605E+06    -220.532E-03     447.258E-03    -226.726E-03     135.406E-03    -224.301E-03     450.972E-03    -226.374E-03     116.062E-03
             992     12.2059E-03     141.961E-03    -19.7972E+06     92.3540E+06     101.117E+06     4.97806E+06    -218.405E-03     444.683E-03    -226.278E-03     126.040E-03    -221.905E-03     448.148E-03    -225.878E-03     107.204E-03
             993     12.9336E-03     142.114E-03    -11.6149E+06     105.973E+06     112.687E+06     3.21948E+06    -217.348E-03     443.151E-03    -225.803E-03     119.468E-03    -220.761E-03     446.572E-03    -225.376E-03     100.517E-03
             994     13.6530E-03     142.262E-03    -6.03393E+06     111.842E+06     112.364E+06     1.72942E+06    -216.492E-03     441.809E-03    -225.317E-03     88.7884E-03    -218.944E-03     444.311E-03    -224.909E-03     73.0593E-03
             995     715.463E-06     141.062E-03    -159.159E+06    -289.942E+06    -155.558E+06    -973.454E+03    -229.283E-03     458.416E-03    -229.133E-03     18.2636E-03    -229.486E-03     457.477E-03    -229.260E-03     16.0401E-03
             996     1.43133E-03     141.099E-03    -154.269E+06    -273.715E+06    -142.283E+06    -2.68174E+06    -229.354E-03     458.572E-03    -229.217E-03     33.7436E-03    -229.685E-03     457.796E-03    -229.308E-03     29.6598E-03
             997     2.14690E-03     141.159E-03    -147.299E+06    -255.163E+06    -124.219E+06    -3.84909E+06    -229.519E-03     458.780E-03    -229.261E-03     49.3680E-03    -230.051E-03     458.244E-03    -229.298E-03     43.3241E-03
             998     2.86264E-03     141.241E-03    -137.966E+06    -232.775E+06    -102.263E+06    -4.20167E+06    -229.836E-03     459.152E-03    -229.316E-03     64.6404E-03    -230.636E-03     458.933E-03    -229.290E-03     56.6338E-03
             999     3.57809E-03     141.344E-03    -127.772E+06    -207.476E+06    -79.4335E+06    -5.11764E+06    -230.114E-03     459.488E-03    -229.374E-03     79.0770E-03    -231.244E-03     459.658E-03    -229.285E-03     69.1371E-03
            1000     4.29372E-03     141.467E-03    -117.851E+06    -182.702E+06    -58.5465E+06    -6.03918E+06    -230.296E-03     459.705E-03    -229.409E-03     92.3243E-03    -231.802E-03     460.314E-03    -229.266E-03     80.5193E-03
            1001     5.00959E-03     141.608E-03    -107.560E+06    -159.977E+06    -39.7381E+06    -6.46780E+06    -230.480E-03     459.900E-03    -229.420E-03     104.342E-03    -232.387E-03     460.973E-03    -229.231E-03     90.7845E-03
            1002     5.72565E-03     141.765E-03    -97.1656E+06    -137.947E+06    -23.1158E+06    -6.48233E+06    -230.509E-03     459.914E-03    -229.405E-03     114.815E-03    -232.819E-03     461.457E-03    -229.180E-03     99.6854E-03
            1003     6.44175E-03     141.937E-03    -87.7622E+06    -115.061E+06    -8.48301E+06    -6.06206E+06    -230.192E-03     459.538E-03    -229.346E-03     123.476E-03    -232.890E-03     461.541E-03    -229.094E-03     107.005E-03
            1004     7.15834E-03     142.118E-03    -78.4748E+06    -92.6714E+06     4.81194E+06    -5.20356E+06    -229.505E-03     458.732E-03    -229.228E-03     130.284E-03    -232.543E-03     461.149E-03    -228.955E-03     112.751E-03
            1005     7.87567E-03     142.308E-03    -69.1776E+06    -66.6541E+06     17.7726E+06    -3.27669E+06    -228.460E-03     457.496E-03    -229.036E-03     135.177E-03    -231.772E-03     460.274E-03    -228.750E-03     116.903E-03
            1006     8.59364E-03     142.502E-03    -60.5127E+06    -38.0204E+06     30.0762E+06    -485.094E+03    -227.037E-03     455.798E-03    -228.761E-03     138.434E-03    -230.555E-03     458.879E-03    -228.468E-03     119.691E-03
            1007     9.31311E-03     142.697E-03    -52.3041E+06    -2.19393E+06     42.7663E+06     3.48410E+06    -225.196E-03     453.591E-03    -228.395E-03     140.231E-03    -228.859E-03     456.936E-03    -228.102E-03     121.278E-03
            1008     10.0341E-03     142.892E-03    -44.7407E+06     42.7176E+06     55.7584E+06     7.24187E+06    -222.993E-03     450.921E-03    -227.928E-03     140.391E-03    -226.758E-03     454.518E-03    -227.646E-03     121.367E-03
            1009     10.7561E-03     143.082E-03    -37.0554E+06     74.4999E+06      69.469E+06     7.97121E+06    -220.695E-03     448.098E-03    -227.404E-03     138.942E-03    -224.484E-03     451.819E-03    -227.110E-03     119.916E-03
            1010     11.4813E-03     143.265E-03    -28.6554E+06     86.8026E+06     84.4039E+06     6.25742E+06    -218.702E-03     445.561E-03    -226.859E-03     135.140E-03    -222.421E-03     449.242E-03    -226.522E-03     116.162E-03
            1011     12.2062E-03     143.437E-03    -21.2558E+06     96.0491E+06     99.7172E+06     3.30390E+06    -217.013E-03     443.322E-03    -226.309E-03     125.411E-03    -220.482E-03     446.768E-03    -225.919E-03     106.803E-03
            1012     12.9294E-03     143.588E-03    -14.6978E+06     107.599E+06     112.130E+06     1.52516E+06    -215.473E-03     441.223E-03    -225.751E-03     118.988E-03    -218.859E-03     444.614E-03    -225.325E-03     100.301E-03
            1013     13.6607E-03     143.738E-03    -7.39047E+06     113.312E+06     114.080E+06     1.46932E+06    -215.244E-03     440.436E-03    -225.193E-03     89.3603E-03    -217.691E-03     442.929E-03    -224.776E-03     73.7806E-03
            1014     714.873E-06     142.562E-03    -158.904E+06    -284.528E+06    -156.362E+06    -1.85946E+06    -230.337E-03     460.783E-03    -230.446E-03     18.1448E-03    -230.545E-03     459.871E-03    -230.585E-03     15.8741E-03
            1015     1.42938E-03     142.599E-03    -154.731E+06    -268.194E+06    -143.304E+06    -2.59060E+06    -230.394E-03     460.767E-03    -230.373E-03     33.2215E-03    -230.734E-03     460.021E-03    -230.476E-03     29.0751E-03
            1016     2.14446E-03     142.658E-03    -148.340E+06    -249.838E+06    -124.467E+06    -3.79269E+06    -230.531E-03     460.913E-03    -230.383E-03     48.6110E-03    -231.073E-03     460.403E-03    -230.428E-03     42.5016E-03
            1017     2.85931E-03     142.740E-03    -139.640E+06    -227.983E+06    -103.298E+06    -5.75950E+06    -230.825E-03     461.241E-03    -230.415E-03     63.6916E-03    -231.636E-03     461.045E-03    -230.399E-03     55.5954E-03
            1018     3.57427E-03     142.844E-03    -129.569E+06    -203.690E+06    -81.2200E+06    -6.90645E+06    -231.093E-03     461.553E-03    -230.460E-03     77.7859E-03    -232.227E-03     461.740E-03    -230.383E-03     67.7498E-03
            1019     4.28926E-03     142.966E-03    -119.084E+06    -179.635E+06    -60.0654E+06    -7.55992E+06    -231.279E-03     461.771E-03    -230.493E-03     90.8146E-03    -232.782E-03     462.388E-03    -230.360E-03     78.9065E-03
            1020     5.00426E-03     143.107E-03    -108.694E+06    -157.835E+06    -41.5234E+06    -7.89440E+06    -231.323E-03     461.818E-03    -230.495E-03     102.655E-03    -233.220E-03     462.889E-03    -230.316E-03     89.0033E-03
            1021     5.71920E-03     143.264E-03    -99.2374E+06    -137.066E+06    -25.5613E+06    -7.74916E+06    -231.004E-03     461.449E-03    -230.445E-03     113.016E-03    -233.299E-03     462.979E-03    -230.230E-03     97.8278E-03
            1022     6.43499E-03     143.433E-03    -89.5859E+06    -114.727E+06    -10.8667E+06    -7.68682E+06    -230.299E-03     460.618E-03    -230.319E-03     121.788E-03    -232.971E-03     462.596E-03    -230.077E-03     105.316E-03
            1023     7.15154E-03     143.614E-03    -80.1265E+06    -93.7892E+06     2.44137E+06    -7.55112E+06    -229.218E-03     459.325E-03    -230.107E-03     128.781E-03    -232.217E-03     461.700E-03    -229.842E-03     111.312E-03
            1024     7.86898E-03     143.801E-03    -71.1169E+06    -72.1187E+06     14.2638E+06    -6.14081E+06    -227.688E-03     457.481E-03    -229.793E-03     134.059E-03    -230.945E-03     460.189E-03    -229.514E-03     115.934E-03
            1025     8.58822E-03     143.992E-03    -61.6716E+06    -45.1220E+06     26.8611E+06    -3.67374E+06    -225.786E-03     455.160E-03    -229.374E-03     137.671E-03    -229.233E-03     458.151E-03    -229.085E-03     119.176E-03
            1026     9.30868E-03     144.184E-03    -51.8355E+06    -12.8911E+06     39.9807E+06    -327.958E+03    -223.562E-03     452.412E-03    -228.850E-03     139.753E-03    -227.138E-03     455.642E-03    -228.556E-03     121.108E-03
            1027     10.0309E-03     144.375E-03    -41.5778E+06     35.2259E+06     55.0246E+06     3.66434E+06    -221.108E-03     449.328E-03    -228.220E-03     140.288E-03    -224.783E-03     452.821E-03    -227.936E-03     121.610E-03
            1028     10.7554E-03     144.561E-03    -31.6615E+06     72.3938E+06     69.6812E+06     6.40300E+06    -218.870E-03     446.407E-03    -227.537E-03     138.920E-03    -222.564E-03     450.044E-03    -227.248E-03     120.289E-03
            1029     11.4800E-03     144.741E-03    -24.4455E+06     88.7489E+06     84.2277E+06     7.12850E+06    -217.113E-03     443.975E-03    -226.862E-03     135.648E-03    -220.763E-03     447.609E-03    -226.534E-03     117.058E-03
            1030     12.2057E-03     144.912E-03    -18.4128E+06     101.246E+06     101.048E+06     5.62492E+06    -215.780E-03     442.002E-03    -226.222E-03     127.129E-03    -219.218E-03     445.441E-03    -225.837E-03     108.885E-03
            1031     12.9342E-03     145.061E-03    -12.0087E+06     110.467E+06     113.971E+06     3.31549E+06    -215.012E-03     440.629E-03    -225.616E-03     120.086E-03    -218.372E-03     444.008E-03    -225.189E-03     101.629E-03
            1032     13.6583E-03     145.204E-03    -6.10314E+06     115.968E+06     115.417E+06     938.960E+03    -215.093E-03     440.137E-03    -225.044E-03     90.7497E-03    -217.546E-03     442.646E-03    -224.626E-03     75.1821E-03
            1033     713.570E-06     144.065E-03    -159.608E+06    -277.533E+06    -156.582E+06    -2.28333E+06    -231.757E-03     463.424E-03    -231.667E-03     17.9443E-03    -231.979E-03     462.549E-03    -231.816E-03     15.6290E-03
            1034     1.42776E-03     144.102E-03    -155.180E+06    -263.529E+06    -143.831E+06    -3.17708E+06    -231.717E-03     463.417E-03    -231.700E-03     32.7487E-03    -232.064E-03     462.695E-03    -231.812E-03     28.5480E-03
            1035     2.14151E-03     144.161E-03    -147.769E+06    -243.762E+06    -124.531E+06    -4.40418E+06    -231.870E-03     463.585E-03    -231.715E-03     47.9718E-03    -232.417E-03     463.103E-03    -231.770E-03     41.7898E-03
            1036     2.85551E-03     144.244E-03    -139.465E+06    -221.043E+06    -103.365E+06    -6.10060E+06    -232.027E-03     463.768E-03    -231.741E-03     62.7450E-03    -232.839E-03     463.600E-03    -231.735E-03     54.5990E-03
            1037     3.56944E-03     144.346E-03    -129.942E+06    -199.147E+06    -81.5026E+06    -7.73155E+06    -232.161E-03     463.921E-03    -231.761E-03     76.6084E-03    -233.292E-03     464.120E-03    -231.691E-03     66.5166E-03
            1038     4.28342E-03     144.469E-03    -119.626E+06    -176.307E+06    -60.8523E+06    -8.17653E+06    -232.165E-03     463.915E-03    -231.750E-03     89.5885E-03    -233.658E-03     464.534E-03    -231.625E-03     77.6425E-03
            1039     4.99757E-03     144.609E-03    -109.685E+06    -154.773E+06    -42.3725E+06    -8.76339E+06    -231.818E-03     463.500E-03    -231.682E-03     101.576E-03    -233.700E-03     464.565E-03    -231.510E-03     87.9317E-03
            1040     5.71274E-03     144.764E-03    -99.3201E+06    -134.996E+06    -26.2004E+06    -9.58817E+06    -231.099E-03     462.626E-03    -231.527E-03     112.140E-03    -233.367E-03     464.138E-03    -231.318E-03     96.9972E-03
            1041     6.42853E-03     144.932E-03    -89.3416E+06    -114.011E+06    -11.7034E+06    -9.54829E+06    -229.946E-03     461.215E-03    -231.268E-03     121.086E-03    -232.578E-03     463.158E-03    -231.032E-03     104.738E-03
            1042     7.14543E-03     145.110E-03    -80.1070E+06    -93.5779E+06     1.67415E+06    -9.01440E+06    -228.330E-03     459.228E-03    -230.898E-03     128.331E-03    -231.278E-03     461.554E-03    -230.638E-03     111.090E-03
            1043     7.86409E-03     145.293E-03    -71.2810E+06    -72.9996E+06     13.8595E+06    -9.18146E+06    -226.366E-03     456.776E-03    -230.410E-03     133.833E-03    -229.562E-03     459.419E-03    -230.131E-03     116.000E-03
            1044     8.58399E-03     145.481E-03    -61.9179E+06    -50.5010E+06     24.9653E+06    -8.32178E+06    -224.072E-03     453.876E-03    -229.804E-03     137.636E-03    -227.435E-03     456.768E-03    -229.516E-03     119.515E-03
            1045     9.30610E-03     145.669E-03     -52.219E+06    -20.3945E+06     37.3736E+06    -6.16674E+06    -221.548E-03     450.639E-03    -229.091E-03     139.894E-03    -225.027E-03     453.752E-03    -228.799E-03     121.686E-03
            1046     10.0303E-03     145.855E-03    -43.4516E+06     23.2367E+06     51.7026E+06    -1.91495E+06    -219.090E-03     447.382E-03    -228.291E-03     140.755E-03    -222.663E-03     450.733E-03    -228.003E-03     122.561E-03
            1047     10.7553E-03     146.038E-03    -36.1411E+06     63.3852E+06     64.0163E+06     4.28538E+06    -217.060E-03     444.508E-03    -227.448E-03     140.086E-03    -220.673E-03     448.032E-03    -227.168E-03     121.990E-03
            1048     11.4825E-03     146.216E-03    -28.9522E+06     91.4788E+06     79.2266E+06     5.26096E+06    -215.694E-03     442.341E-03    -226.647E-03     137.614E-03    -219.306E-03     445.945E-03    -226.342E-03     119.479E-03
            1049     12.2109E-03     146.384E-03    -20.4653E+06     102.786E+06     97.4898E+06     3.55226E+06    -215.218E-03     441.169E-03    -225.951E-03     128.734E-03    -218.627E-03     444.588E-03    -225.583E-03     110.756E-03
            1050     12.9367E-03     146.533E-03    -12.4746E+06     110.850E+06     113.552E+06     4.44553E+06    -215.541E-03     440.906E-03    -225.365E-03     121.128E-03    -218.885E-03     444.270E-03    -224.940E-03     102.793E-03
            1051     13.6632E-03     146.682E-03    -5.12951E+06     120.485E+06     119.928E+06     2.46684E+06    -215.796E-03     440.645E-03    -224.850E-03     92.9101E-03    -218.260E-03     443.172E-03    -224.417E-03     77.4154E-03
            1052     712.891E-06     145.574E-03    -158.520E+06    -270.506E+06    -155.280E+06    -1.71660E+06    -233.146E-03     466.209E-03    -233.063E-03     17.6272E-03    -233.374E-03     465.364E-03    -233.217E-03     15.3143E-03
            1053     1.42539E-03     145.610E-03    -154.009E+06    -256.950E+06    -142.241E+06    -3.56036E+06    -233.225E-03     466.345E-03    -233.120E-03     32.4795E-03    -233.577E-03     465.650E-03    -233.236E-03     28.2632E-03
            1054     2.13830E-03     145.669E-03    -147.139E+06    -238.081E+06    -124.706E+06    -5.28090E+06    -233.289E-03     466.438E-03    -233.149E-03     47.6318E-03    -233.836E-03     465.979E-03    -233.214E-03     41.4184E-03
            1055     2.85106E-03     145.751E-03    -138.159E+06    -214.629E+06    -102.662E+06    -6.57774E+06    -233.252E-03     466.405E-03    -233.153E-03     62.3170E-03    -234.061E-03     466.258E-03    -233.154E-03     54.1548E-03
            1056     3.56422E-03     145.853E-03    -128.601E+06    -193.424E+06    -79.9030E+06    -7.91782E+06    -233.089E-03     466.201E-03    -233.112E-03     76.3529E-03    -234.213E-03     466.413E-03    -233.045E-03     66.2727E-03
            1057     4.27769E-03     145.975E-03    -118.650E+06    -172.235E+06    -59.7058E+06    -8.91830E+06    -232.667E-03     465.662E-03    -232.996E-03     89.3842E-03    -234.145E-03     466.282E-03    -232.873E-03     77.4841E-03
            1058     4.99211E-03     146.113E-03    -107.931E+06    -150.356E+06    -41.2783E+06    -9.79935E+06    -231.820E-03     464.601E-03    -232.781E-03     101.300E-03    -233.672E-03     465.656E-03    -232.613E-03     87.7731E-03
            1059     5.70707E-03     146.266E-03    -98.0437E+06    -131.478E+06    -25.2563E+06    -10.7784E+06    -230.577E-03     463.028E-03    -232.452E-03     112.085E-03    -232.803E-03     464.513E-03    -232.245E-03     97.1574E-03
            1060     6.42330E-03     146.431E-03    -88.5764E+06    -112.249E+06    -11.2192E+06    -11.2927E+06    -228.906E-03     460.900E-03    -231.994E-03     121.324E-03    -231.484E-03     462.797E-03    -231.759E-03     105.277E-03
            1061     7.14143E-03     146.605E-03    -78.8119E+06    -92.8372E+06     1.90074E+06    -11.3248E+06    -226.875E-03     458.286E-03    -231.411E-03     128.952E-03    -229.753E-03     460.549E-03    -231.153E-03     112.104E-03
            1062     7.86098E-03     146.785E-03    -69.5768E+06    -71.5558E+06     14.7035E+06    -10.7949E+06    -224.570E-03     455.280E-03    -230.711E-03     134.757E-03    -227.678E-03     457.845E-03    -230.432E-03     117.442E-03
            1063     8.58288E-03     146.967E-03    -61.6303E+06    -50.6497E+06     25.6281E+06    -11.0271E+06    -222.050E-03     451.952E-03    -229.902E-03     138.820E-03    -225.319E-03     454.749E-03    -229.611E-03     121.282E-03
            1064     9.30664E-03     147.151E-03    -54.3636E+06    -25.2661E+06     36.3499E+06    -9.30244E+06    -219.502E-03     448.507E-03    -229.005E-03     141.313E-03    -222.881E-03     451.498E-03    -228.708E-03     123.732E-03
            1065     10.0321E-03     147.333E-03    -46.9239E+06     9.39539E+06     47.9187E+06    -4.26019E+06    -217.275E-03     445.326E-03    -228.051E-03     142.475E-03    -220.733E-03     448.512E-03    -227.757E-03     124.939E-03
            1066     10.7599E-03     147.512E-03    -38.2802E+06     53.6638E+06     60.4016E+06    -192.931E+03    -215.680E-03     442.769E-03    -227.089E-03     141.861E-03    -219.188E-03     446.156E-03    -226.809E-03     124.327E-03
            1067     11.4880E-03     147.687E-03    -29.3911E+06     91.1985E+06     75.2533E+06     2.84040E+06    -214.963E-03     441.170E-03    -226.206E-03     139.382E-03    -218.491E-03     444.699E-03    -225.920E-03     121.714E-03
            1068     12.2144E-03     147.857E-03    -23.5029E+06     103.196E+06     92.6630E+06     4.73359E+06    -215.046E-03     440.534E-03    -225.488E-03     132.170E-03    -218.421E-03     443.923E-03    -225.140E-03     114.619E-03
            1069     12.9406E-03     148.007E-03    -16.8494E+06     114.196E+06     113.174E+06     1.56510E+06    -216.213E-03     441.152E-03    -224.940E-03     126.545E-03    -219.617E-03     444.573E-03    -224.515E-03     108.292E-03
            1070     13.6667E-03     148.152E-03    -7.79735E+06     122.513E+06     121.237E+06    -629.555E+03    -217.750E-03     442.258E-03    -224.507E-03     96.4622E-03    -220.257E-03     444.820E-03    -224.067E-03     80.9669E-03
            1071     711.762E-06     147.085E-03    -156.293E+06    -263.532E+06    -153.092E+06    -2.14792E+06    -234.279E-03     468.886E-03    -234.607E-03     17.7774E-03    -234.508E-03     468.069E-03    -234.764E-03     15.4836E-03
            1072     1.42356E-03     147.123E-03    -151.435E+06    -249.491E+06    -140.352E+06    -3.53728E+06    -234.565E-03     469.018E-03    -234.453E-03     32.6831E-03    -234.916E-03     468.352E-03    -234.573E-03     28.4731E-03
            1073     2.13522E-03     147.181E-03    -144.728E+06    -230.613E+06    -122.149E+06    -5.67348E+06    -234.488E-03     468.949E-03    -234.462E-03     47.8572E-03    -235.032E-03     468.516E-03    -234.528E-03     41.6792E-03
            1074     2.84740E-03     147.262E-03    -136.086E+06    -208.897E+06    -100.529E+06    -7.16883E+06    -234.146E-03     468.543E-03    -234.396E-03     62.5694E-03    -234.947E-03     468.410E-03    -234.398E-03     54.4618E-03
            1075     3.55997E-03     147.363E-03    -126.347E+06    -187.507E+06    -78.0876E+06    -8.01643E+06    -233.494E-03     467.723E-03    -234.228E-03     76.7406E-03    -234.601E-03     467.942E-03    -234.164E-03     66.7851E-03
            1076     4.27335E-03     147.483E-03    -116.305E+06    -166.286E+06    -57.4858E+06    -9.68364E+06    -232.517E-03     466.454E-03    -233.937E-03     90.1076E-03    -233.971E-03     467.072E-03    -233.815E-03     78.4019E-03
            1077     4.98743E-03     147.619E-03    -106.320E+06    -146.186E+06    -39.7413E+06    -10.8566E+06    -231.141E-03     464.652E-03    -233.512E-03     102.405E-03    -232.959E-03     465.689E-03    -233.344E-03     89.1522E-03
            1078     5.70340E-03     147.769E-03    -96.4889E+06    -126.828E+06    -23.6215E+06    -11.5714E+06    -229.320E-03     462.266E-03    -232.946E-03     113.666E-03    -231.498E-03     463.720E-03    -232.741E-03     99.1505E-03
            1079     6.42130E-03     147.929E-03    -86.6615E+06    -108.377E+06    -9.30288E+06    -12.8065E+06    -227.231E-03     459.475E-03    -232.244E-03     123.301E-03    -229.743E-03     461.321E-03    -232.007E-03     107.775E-03
            1080     7.14068E-03     148.099E-03    -77.5342E+06    -91.3069E+06     3.10813E+06    -12.9411E+06    -224.930E-03     456.352E-03    -231.422E-03     131.212E-03    -227.721E-03     458.535E-03    -231.162E-03     114.998E-03
            1081     7.86250E-03     148.274E-03    -68.9068E+06    -71.0020E+06     15.3333E+06    -12.3251E+06    -222.430E-03     452.930E-03    -230.500E-03     137.228E-03    -225.436E-03     455.395E-03    -230.220E-03     120.643E-03
            1082     8.58610E-03     148.452E-03    -60.6610E+06    -49.5790E+06     27.1239E+06    -11.4732E+06    -219.885E-03     449.383E-03    -229.498E-03     141.381E-03    -223.040E-03     452.068E-03    -229.203E-03     124.637E-03
            1083     9.31168E-03     148.630E-03    -52.8488E+06    -28.8381E+06     37.4844E+06    -9.94124E+06    -217.663E-03     446.111E-03    -228.448E-03     144.208E-03    -220.915E-03     448.965E-03    -228.142E-03     127.412E-03
            1084     10.0392E-03     148.808E-03    -44.2035E+06       4.481E+03     48.0376E+06    -7.45994E+06    -216.089E-03     443.483E-03    -227.394E-03     145.630E-03    -219.408E-03     446.506E-03    -227.090E-03     128.797E-03
            1085     10.7667E-03     148.984E-03    -35.9264E+06     46.3434E+06     61.4335E+06    -3.27659E+06    -215.203E-03     441.593E-03    -226.389E-03     145.462E-03    -218.590E-03     444.838E-03    -226.097E-03     128.558E-03
            1086     11.4944E-03     149.158E-03    -28.8334E+06     82.6752E+06     74.2240E+06     1.58557E+06    -214.985E-03     440.484E-03    -225.499E-03     143.765E-03    -218.427E-03     443.902E-03    -225.206E-03     126.625E-03
            1087     12.2240E-03     149.327E-03    -20.2871E+06     103.029E+06     94.3560E+06     3.66963E+06    -215.514E-03     440.321E-03    -224.807E-03     136.194E-03    -218.827E-03     443.655E-03    -224.455E-03     119.044E-03
            1088     12.9533E-03     149.478E-03    -11.6672E+06     122.595E+06     117.779E+06     2.44678E+06    -218.183E-03     442.523E-03    -224.340E-03     130.435E-03    -221.557E-03     445.949E-03    -223.912E-03     112.397E-03
            1089     13.6748E-03     149.636E-03    -6.01735E+06     123.557E+06     122.116E+06    -216.139E+03    -221.303E-03     445.369E-03    -224.066E-03     98.2825E-03    -223.789E-03     447.918E-03    -223.626E-03     82.8034E-03
            1090     710.894E-06     148.601E-03    -152.856E+06    -255.707E+06    -150.039E+06    -2.01413E+06    -235.390E-03     471.092E-03    -235.702E-03     17.8945E-03    -235.616E-03     470.304E-03    -235.860E-03     15.6306E-03
            1091     1.42195E-03     148.638E-03    -148.678E+06    -241.761E+06    -137.950E+06    -3.93413E+06    -235.331E-03     470.810E-03    -235.479E-03     33.0583E-03    -235.678E-03     470.171E-03    -235.603E-03     28.9298E-03
            1092     2.13319E-03     148.697E-03    -141.739E+06    -223.077E+06    -118.625E+06    -5.41075E+06    -234.957E-03     470.304E-03    -235.347E-03     48.4886E-03    -235.493E-03     469.890E-03    -235.412E-03     42.4580E-03
            1093     2.84479E-03     148.776E-03    -133.593E+06    -202.500E+06    -96.9249E+06    -6.78907E+06    -234.170E-03     469.281E-03    -235.111E-03     63.7741E-03    -234.959E-03     469.158E-03    -235.109E-03     55.8737E-03
            1094     3.55737E-03     148.875E-03    -123.896E+06    -181.264E+06    -75.5334E+06    -8.38223E+06    -232.969E-03     467.694E-03    -234.725E-03     78.5749E-03    -234.056E-03     467.916E-03    -234.660E-03     68.9008E-03
            1095     4.27141E-03     148.992E-03    -113.714E+06    -160.126E+06    -55.1302E+06    -9.93239E+06    -231.394E-03     465.576E-03    -234.181E-03     92.6681E-03    -232.816E-03     466.185E-03    -234.060E-03     81.3681E-03
            1096     4.98736E-03     149.124E-03    -104.170E+06    -140.888E+06    -37.2738E+06    -11.2560E+06    -229.580E-03     463.072E-03    -233.492E-03     105.470E-03    -231.352E-03     464.082E-03    -233.323E-03     92.7489E-03
            1097     5.70480E-03     149.269E-03    -94.3468E+06    -121.489E+06    -21.2754E+06    -12.2711E+06    -227.468E-03     460.139E-03    -232.672E-03     116.890E-03    -229.580E-03     461.547E-03    -232.465E-03     103.022E-03
            1098     6.42411E-03     149.426E-03    -85.1631E+06    -103.696E+06    -6.90128E+06    -12.9321E+06    -225.029E-03     456.761E-03    -231.731E-03     126.797E-03    -227.455E-03     458.536E-03    -231.492E-03     112.055E-03
            1099     7.14582E-03     149.590E-03    -76.8051E+06    -88.0583E+06     5.43323E+06    -13.7169E+06    -222.534E-03     453.222E-03    -230.687E-03     135.077E-03    -225.222E-03     455.309E-03    -230.421E-03     119.740E-03
            1100     7.86930E-03     149.760E-03    -68.3744E+06    -69.9352E+06     16.6378E+06    -13.7076E+06    -220.074E-03     449.640E-03    -229.566E-03     141.495E-03    -222.962E-03     451.989E-03    -229.283E-03     125.822E-03
            1101     8.59495E-03     149.932E-03    -60.1312E+06    -50.3219E+06     27.7465E+06    -12.6392E+06    -217.890E-03     446.302E-03    -228.412E-03     146.015E-03    -220.917E-03     448.857E-03    -228.113E-03     130.192E-03
            1102     9.32262E-03     150.106E-03    -51.8671E+06    -30.2123E+06     38.5980E+06    -11.8700E+06    -216.421E-03     443.698E-03    -227.277E-03     149.123E-03    -219.544E-03     446.418E-03    -226.965E-03     133.186E-03
            1103     10.0506E-03     150.281E-03    -43.9834E+06    -3.36839E+06     48.8622E+06    -10.7000E+06    -215.686E-03     441.892E-03    -226.206E-03     150.740E-03    -218.886E-03     444.782E-03    -225.893E-03     134.651E-03
            1104     10.7797E-03     150.456E-03    -36.1860E+06     35.3064E+06     60.9886E+06    -5.69731E+06    -215.652E-03     440.899E-03    -225.247E-03     150.621E-03    -218.933E-03     444.000E-03    -224.941E-03     134.315E-03
            1105     11.5091E-03     150.629E-03    -28.1196E+06     74.3036E+06     72.7149E+06     129.354E+03    -216.713E-03     441.165E-03    -224.452E-03     147.942E-03    -220.070E-03     444.475E-03    -224.155E-03     131.190E-03
            1106     12.2353E-03     150.798E-03    -21.2685E+06     104.426E+06     90.2774E+06     632.179E+03    -219.044E-03     442.971E-03    -223.927E-03     139.118E-03    -222.330E-03     446.291E-03    -223.597E-03     121.965E-03
            1107     12.9567E-03     150.955E-03    -14.9445E+06     122.420E+06     112.643E+06    -2.15807E+06    -221.959E-03     445.655E-03    -223.697E-03     132.865E-03    -225.326E-03     449.077E-03    -223.289E-03     114.682E-03
            1108     13.6799E-03     151.118E-03    -7.15640E+06     123.358E+06     122.670E+06     417.594E+03    -224.814E-03     448.476E-03    -223.662E-03     100.157E-03    -227.297E-03     451.016E-03    -223.217E-03     84.6090E-03
            1109     710.283E-06     150.120E-03    -149.537E+06    -247.675E+06    -147.308E+06    -1.99248E+06    -235.861E-03     471.617E-03    -235.756E-03     18.5727E-03    -236.085E-03     470.858E-03    -235.917E-03     16.4015E-03
            1110     1.42108E-03     150.156E-03    -145.619E+06    -234.599E+06    -134.860E+06    -3.40843E+06    -235.111E-03     470.743E-03    -235.632E-03     34.4938E-03    -235.454E-03     470.128E-03    -235.755E-03     30.5216E-03
            1111     2.13260E-03     150.213E-03    -139.262E+06    -216.055E+06    -115.215E+06    -4.96949E+06    -234.193E-03     469.463E-03    -235.269E-03     50.5824E-03    -234.723E-03     469.065E-03    -235.330E-03     44.8115E-03
            1112     2.84533E-03     150.290E-03    -130.665E+06    -195.397E+06    -93.2634E+06    -6.92803E+06    -232.885E-03     467.653E-03    -234.768E-03     66.4447E-03    -233.655E-03     467.536E-03    -234.762E-03     58.9289E-03
            1113     3.55945E-03     150.386E-03    -120.961E+06    -174.639E+06    -72.2534E+06    -8.53025E+06    -231.247E-03     465.356E-03    -234.109E-03     81.8907E-03    -232.303E-03     465.572E-03    -234.042E-03     72.7245E-03
            1114     4.27513E-03     150.498E-03    -110.802E+06    -154.038E+06    -52.2529E+06    -9.63581E+06    -229.337E-03     462.643E-03    -233.306E-03     96.3575E-03    -230.708E-03     463.225E-03    -233.183E-03     85.7176E-03
            1115     4.99256E-03     150.626E-03    -100.860E+06    -135.004E+06    -33.8155E+06    -10.5900E+06    -227.176E-03     459.551E-03    -232.375E-03     109.616E-03    -228.872E-03     460.508E-03    -232.202E-03     97.7158E-03
            1116     5.71187E-03     150.767E-03    -91.7522E+06    -115.863E+06    -17.6815E+06    -11.4382E+06    -224.744E-03     456.065E-03    -231.321E-03     121.609E-03    -226.765E-03     457.400E-03    -231.108E-03     108.679E-03
            1117     6.43359E-03     150.917E-03    -83.1792E+06    -98.9193E+06    -3.53776E+06    -12.3288E+06    -222.193E-03     452.356E-03    -230.164E-03     132.411E-03    -224.511E-03     454.038E-03    -229.918E-03     118.706E-03
            1118     7.15758E-03     151.076E-03    -74.8697E+06    -83.0337E+06     8.93271E+06    -13.1728E+06    -219.836E-03     448.773E-03    -228.937E-03     141.457E-03    -222.404E-03     450.754E-03    -228.663E-03     127.215E-03
            1119     7.88386E-03     151.240E-03    -66.9676E+06    -67.0056E+06     19.6067E+06    -14.0194E+06    -217.883E-03     445.574E-03    -227.690E-03     148.132E-03    -220.642E-03     447.800E-03    -227.398E-03     133.532E-03
            1120     8.61200E-03     151.408E-03    -58.8139E+06    -49.8874E+06     29.6774E+06    -13.7838E+06    -216.694E-03     443.183E-03    -226.489E-03     152.693E-03    -219.587E-03     445.604E-03    -226.183E-03     137.849E-03
            1121     9.34025E-03     151.579E-03    -51.2227E+06    -29.7073E+06     39.7689E+06    -12.9733E+06    -216.306E-03     441.699E-03    -225.393E-03     155.450E-03    -219.300E-03     444.291E-03    -225.077E-03     140.380E-03
            1122     10.0694E-03     151.752E-03    -44.3081E+06    -4.67340E+06     49.7697E+06    -11.2589E+06    -216.663E-03     441.105E-03    -224.442E-03     156.418E-03    -219.751E-03     443.875E-03    -224.122E-03     141.031E-03
            1123     10.7974E-03     151.927E-03    -37.4047E+06     24.5871E+06     60.1515E+06    -8.08165E+06    -218.018E-03     441.697E-03    -223.678E-03     155.426E-03    -221.198E-03     444.656E-03    -223.359E-03     139.576E-03
            1124     11.5230E-03     152.101E-03    -29.7307E+06     66.1581E+06     69.5688E+06    -3.89633E+06    -220.655E-03     443.784E-03    -223.129E-03     152.913E-03    -223.951E-03     447.008E-03    -222.834E-03     136.335E-03
            1125     12.2464E-03     152.277E-03    -20.2841E+06     105.627E+06     85.9125E+06    -1.66211E+06    -224.060E-03     446.948E-03    -222.888E-03     145.180E-03    -227.338E-03     450.280E-03    -222.582E-03     127.986E-03
            1126     12.9682E-03     152.439E-03    -12.9788E+06     122.399E+06     109.618E+06     201.666E+03    -226.985E-03     449.954E-03    -222.969E-03     138.385E-03    -230.356E-03     453.396E-03    -222.580E-03     120.140E-03
            1127     13.6847E-03     152.603E-03    -7.93903E+06     122.507E+06     123.222E+06     770.629E+03    -229.272E-03     452.494E-03    -223.222E-03     106.103E-03    -231.802E-03     455.074E-03    -222.772E-03     90.3720E-03
            1128     711.344E-06     151.639E-03    -146.375E+06    -241.270E+06    -144.007E+06    -1.81668E+06    -234.413E-03     468.613E-03    -234.199E-03     19.7037E-03    -234.634E-03     467.874E-03    -234.357E-03     17.6667E-03
            1129     1.42327E-03     151.672E-03    -142.343E+06    -228.244E+06    -130.995E+06    -3.07742E+06    -233.279E-03     467.326E-03    -234.047E-03     36.6841E-03    -233.614E-03     466.725E-03    -234.165E-03     32.9971E-03
            1130     2.13630E-03     151.727E-03    -135.108E+06    -208.303E+06    -111.463E+06    -5.01538E+06    -231.915E-03     465.414E-03    -233.499E-03     53.8117E-03    -232.426E-03     465.028E-03    -233.558E-03     48.4753E-03
            1131     2.85057E-03     151.800E-03    -126.582E+06    -188.825E+06    -89.7023E+06    -6.60377E+06    -230.295E-03     463.085E-03    -232.790E-03     70.3822E-03    -231.031E-03     462.961E-03    -232.781E-03     63.4679E-03
            1132     3.56661E-03     151.891E-03    -117.379E+06    -168.550E+06    -68.4415E+06    -7.46662E+06    -228.374E-03     460.308E-03    -231.934E-03     86.4366E-03    -229.378E-03     460.495E-03    -231.862E-03     78.0537E-03
            1133     4.28451E-03     151.999E-03    -107.601E+06    -147.545E+06    -48.1596E+06    -8.53166E+06    -226.108E-03     457.040E-03    -230.931E-03     101.717E-03    -227.407E-03     457.572E-03    -230.802E-03     92.0243E-03
            1134     5.00448E-03     152.122E-03    -98.0979E+06    -129.435E+06    -29.8216E+06    -9.75599E+06    -223.585E-03     453.375E-03    -229.790E-03     116.208E-03    -225.191E-03     454.259E-03    -229.610E-03     105.394E-03
            1135     5.72724E-03     152.256E-03    -88.6746E+06    -110.992E+06    -13.7034E+06    -10.6093E+06    -221.103E-03     449.640E-03    -228.537E-03     129.191E-03    -223.012E-03     450.878E-03    -228.316E-03     117.454E-03
            1136     6.45242E-03     152.401E-03    -79.7159E+06    -94.1004E+06     501.460E+03    -11.0116E+06    -219.027E-03     446.261E-03    -227.234E-03     140.519E-03    -221.215E-03     447.829E-03    -226.980E-03     128.051E-03
            1137     7.17948E-03     152.555E-03    -71.3419E+06    -77.7203E+06     13.1116E+06    -11.6799E+06    -217.461E-03     443.409E-03    -225.948E-03     149.576E-03    -219.887E-03     445.267E-03    -225.666E-03     136.546E-03
            1138     7.90796E-03     152.715E-03    -63.3169E+06    -61.6965E+06     24.1611E+06    -12.6797E+06    -216.691E-03     441.432E-03    -224.741E-03     156.019E-03    -219.302E-03     443.529E-03    -224.439E-03     142.541E-03
            1139     8.63636E-03     152.881E-03    -56.2470E+06    -47.6675E+06     32.9475E+06    -13.4334E+06    -216.826E-03     440.502E-03    -223.676E-03     160.241E-03    -219.575E-03     442.786E-03    -223.361E-03     146.371E-03
            1140     9.36522E-03     153.050E-03    -49.2320E+06    -28.3217E+06     42.4812E+06    -12.3627E+06    -217.717E-03     440.513E-03    -222.796E-03     162.457E-03    -220.576E-03     442.974E-03    -222.471E-03     148.216E-03
            1141     10.0925E-03     153.223E-03    -42.5181E+06    -7.14483E+06     51.7151E+06    -10.5347E+06    -219.497E-03     441.627E-03    -222.130E-03     163.142E-03    -222.461E-03     444.266E-03    -221.800E-03     148.417E-03
            1142     10.8183E-03     153.400E-03    -36.1840E+06     18.4784E+06     62.1869E+06    -7.97994E+06    -222.320E-03     444.033E-03    -221.713E-03     162.422E-03    -225.402E-03     446.873E-03    -221.376E-03     147.030E-03
            1143     11.5423E-03     153.579E-03    -29.9545E+06     63.7113E+06     73.6246E+06    -6.64796E+06    -225.993E-03     447.537E-03    -221.545E-03     160.362E-03    -229.253E-03     450.705E-03    -221.225E-03     143.969E-03
            1144     12.2628E-03     153.760E-03    -24.2420E+06     102.299E+06     87.0786E+06    -5.36726E+06    -229.838E-03     451.511E-03    -221.672E-03     151.857E-03    -233.120E-03     454.818E-03    -221.350E-03     134.666E-03
            1145     12.9782E-03     153.928E-03    -15.1479E+06     117.294E+06     103.578E+06    -1.60497E+06    -233.286E-03     455.374E-03    -222.088E-03     142.324E-03    -236.644E-03     458.796E-03    -221.719E-03     123.893E-03
            1146     13.6940E-03     154.096E-03    -5.89168E+06     120.875E+06     120.096E+06    -309.643E+03    -235.647E-03     458.352E-03    -222.705E-03     108.554E-03    -238.171E-03     460.936E-03    -222.271E-03     92.5044E-03
            1147     713.982E-06     153.149E-03    -144.713E+06    -235.187E+06    -141.365E+06    -1.57038E+06    -230.295E-03     460.931E-03    -230.636E-03     21.0717E-03    -230.517E-03     460.212E-03    -230.792E-03     19.2559E-03
            1148     1.42854E-03     153.181E-03    -139.447E+06    -220.978E+06    -127.540E+06    -3.67679E+06    -229.324E-03     459.493E-03    -230.169E-03     39.0692E-03    -229.647E-03     458.904E-03    -230.284E-03     35.8305E-03
            1149     2.14444E-03     153.231E-03    -131.864E+06    -201.998E+06    -108.898E+06    -4.77442E+06    -227.734E-03     457.262E-03    -229.528E-03     57.5282E-03    -228.216E-03     456.872E-03    -229.588E-03     52.8436E-03
            1150     2.86206E-03     153.301E-03    -123.197E+06    -182.892E+06    -86.8207E+06    -5.45692E+06    -225.912E-03     454.611E-03    -228.699E-03     75.6618E-03    -226.601E-03     454.463E-03    -228.689E-03     69.6026E-03
            1151     3.58114E-03     153.388E-03    -114.203E+06    -162.284E+06    -64.6288E+06    -6.86616E+06    -223.763E-03     451.473E-03    -227.709E-03     93.2463E-03    -224.703E-03     451.615E-03    -227.631E-03     85.8920E-03
            1152     4.30264E-03     153.490E-03    -104.482E+06    -142.296E+06    -44.2358E+06    -7.92379E+06    -221.331E-03     447.894E-03    -226.563E-03     109.928E-03    -222.544E-03     448.357E-03    -226.426E-03     101.412E-03
            1153     5.02710E-03     153.606E-03    -94.5456E+06    -123.540E+06    -25.6894E+06    -8.65870E+06    -219.049E-03     444.353E-03    -225.304E-03     125.253E-03    -220.545E-03     445.147E-03    -225.116E-03     115.732E-03
            1154     5.75363E-03     153.736E-03    -85.1682E+06    -106.116E+06    -9.80915E+06    -9.70626E+06    -217.325E-03     441.334E-03    -224.009E-03     138.698E-03    -219.102E-03     442.459E-03    -223.781E-03     128.287E-03
            1155     6.48156E-03     153.876E-03    -75.8704E+06    -90.2078E+06     4.07207E+06    -10.2019E+06    -216.341E-03     439.109E-03    -222.767E-03     150.095E-03    -218.379E-03     440.543E-03    -222.506E-03     138.923E-03
            1156     7.21059E-03     154.026E-03    -66.9731E+06    -72.7369E+06     17.0804E+06    -10.4883E+06    -216.179E-03     437.827E-03    -221.648E-03     159.002E-03    -218.447E-03     439.549E-03    -221.360E-03     147.183E-03
            1157     7.93967E-03     154.185E-03    -59.2448E+06    -57.5590E+06     28.1842E+06    -10.6159E+06    -216.884E-03     437.591E-03    -220.707E-03     165.358E-03    -219.338E-03     439.549E-03    -220.397E-03     152.988E-03
            1158     8.66876E-03     154.350E-03    -52.3691E+06    -43.5872E+06     37.8318E+06    -10.5767E+06    -218.415E-03     438.396E-03    -219.982E-03     169.368E-03    -221.014E-03     440.546E-03    -219.653E-03     156.498E-03
            1159     9.39597E-03     154.521E-03    -46.3045E+06    -27.0702E+06     46.2227E+06    -10.4474E+06    -220.798E-03     440.291E-03    -219.493E-03     171.389E-03    -223.522E-03     442.621E-03    -219.155E-03     157.976E-03
            1160     10.1220E-03     154.697E-03    -40.2786E+06    -8.99882E+06     54.3438E+06    -9.38676E+06    -224.151E-03     443.420E-03    -219.269E-03     171.758E-03    -226.994E-03     445.932E-03    -218.926E-03     157.674E-03
            1161     10.8453E-03     154.877E-03    -33.3892E+06     16.8742E+06     65.9891E+06    -8.28355E+06    -228.420E-03     447.758E-03    -219.339E-03     170.414E-03    -231.411E-03     450.501E-03    -218.985E-03     155.401E-03
            1162     11.5642E-03     155.063E-03    -26.1523E+06     63.0965E+06     79.3447E+06    -6.01519E+06    -233.053E-03     452.731E-03    -219.677E-03     167.146E-03    -236.251E-03     455.831E-03    -219.334E-03     150.898E-03
            1163     12.2794E-03     155.251E-03    -19.1229E+06     98.8303E+06     93.2539E+06    -3.58436E+06    -237.479E-03     457.782E-03    -220.303E-03     157.346E-03    -240.708E-03     461.024E-03    -219.952E-03     140.143E-03
            1164     12.9920E-03     155.427E-03    -14.1823E+06     113.270E+06     105.547E+06    -3.67424E+06    -241.574E-03     462.761E-03    -221.187E-03     146.366E-03    -244.944E-03     466.178E-03    -220.803E-03     127.499E-03
            1165     13.6975E-03     155.600E-03    -8.23741E+06     118.977E+06     119.080E+06    -2.33310E+06    -243.524E-03     465.766E-03    -222.242E-03     110.226E-03    -246.076E-03     468.366E-03    -221.807E-03     93.7040E-03
            1166     718.595E-06     154.645E-03    -142.918E+06    -227.835E+06    -139.625E+06    -2.05733E+06    -223.576E-03     447.600E-03    -224.024E-03     23.3782E-03    -223.798E-03     446.906E-03    -224.185E-03     21.8967E-03
            1167     1.43783E-03     154.674E-03    -136.312E+06    -213.316E+06    -124.631E+06    -3.46314E+06    -222.699E-03     446.192E-03    -223.493E-03     42.8159E-03    -223.007E-03     445.614E-03    -223.609E-03     40.1495E-03
            1168     2.15834E-03     154.721E-03    -129.939E+06    -196.367E+06    -106.764E+06    -4.79530E+06    -221.256E-03     444.113E-03    -222.857E-03     63.1255E-03    -221.708E-03     443.711E-03    -222.918E-03     59.2401E-03
            1169     2.88053E-03     154.786E-03    -121.476E+06    -177.408E+06    -84.9871E+06    -5.84840E+06    -219.358E-03     441.381E-03    -222.023E-03     82.7244E-03    -219.995E-03     441.198E-03    -222.014E-03     77.6687E-03
            1170     3.60527E-03     154.868E-03    -111.616E+06    -156.463E+06    -62.3132E+06    -6.71823E+06    -217.205E-03     438.206E-03    -221.001E-03     101.505E-03    -218.063E-03     438.288E-03    -220.924E-03     95.3481E-03
            1171     4.33220E-03     154.965E-03    -101.808E+06    -137.218E+06    -41.4391E+06    -7.55546E+06    -215.453E-03     435.322E-03    -219.869E-03     119.326E-03    -216.560E-03     435.697E-03    -219.730E-03     112.128E-03
            1172     5.06057E-03     155.077E-03    -91.7309E+06    -118.509E+06    -23.0906E+06    -8.24244E+06    -214.357E-03     433.088E-03    -218.731E-03     135.369E-03    -215.724E-03     433.773E-03    -218.542E-03     127.207E-03
            1173     5.79032E-03     155.202E-03    -82.1156E+06    -101.291E+06    -6.77787E+06    -8.61058E+06    -213.984E-03     431.658E-03    -217.674E-03     149.365E-03    -215.617E-03     432.657E-03    -217.442E-03     140.308E-03
            1174     6.52101E-03     155.340E-03    -73.5090E+06    -86.2943E+06     6.99721E+06    -9.20480E+06    -214.535E-03     431.299E-03    -216.764E-03     161.123E-03    -216.421E-03     432.596E-03    -216.497E-03     151.247E-03
            1175     7.25142E-03     155.490E-03    -65.9280E+06    -69.8439E+06     19.0039E+06    -8.97768E+06    -216.024E-03     432.078E-03    -216.054E-03     170.298E-03    -218.143E-03     433.659E-03    -215.762E-03     159.691E-03
            1176     7.98105E-03     155.650E-03    -58.9888E+06    -54.7367E+06     30.0897E+06    -8.48027E+06    -218.385E-03     433.975E-03    -215.590E-03     176.696E-03    -220.699E-03     435.798E-03    -215.274E-03     165.423E-03
            1177     8.70872E-03     155.817E-03    -52.5691E+06    -41.0391E+06     39.5906E+06    -8.12087E+06    -221.635E-03     437.029E-03    -215.394E-03     180.411E-03    -224.103E-03     439.051E-03    -215.060E-03     168.504E-03
            1178     9.43474E-03     155.992E-03    -46.6623E+06    -24.4431E+06     48.2005E+06    -8.01650E+06    -225.915E-03     441.402E-03    -215.487E-03     181.741E-03    -228.523E-03     443.621E-03    -215.143E-03     169.094E-03
            1179     10.1569E-03     156.173E-03    -40.8690E+06    -7.86183E+06     56.0307E+06    -8.19594E+06    -231.124E-03     447.018E-03    -215.894E-03     180.945E-03    -233.872E-03     449.434E-03    -215.544E-03     167.369E-03
            1180     10.8747E-03     156.362E-03    -35.3434E+06     18.5231E+06     66.8273E+06    -8.05959E+06    -236.610E-03     453.222E-03    -216.612E-03     178.386E-03    -239.532E-03     455.893E-03    -216.253E-03     163.663E-03
            1181     11.5886E-03     156.556E-03    -29.1273E+06     61.6936E+06     79.3146E+06    -8.08579E+06    -241.971E-03     459.557E-03    -217.586E-03     174.117E-03    -245.123E-03     462.597E-03    -217.237E-03     157.925E-03
            1182     12.2985E-03     156.753E-03    -21.6828E+06     92.7687E+06     91.4977E+06    -7.26376E+06    -246.808E-03     465.616E-03    -218.809E-03     163.172E-03    -250.013E-03     468.810E-03    -218.454E-03     145.776E-03
            1183     13.0024E-03     156.937E-03    -12.4303E+06     111.039E+06     106.917E+06    -3.14703E+06    -250.601E-03     470.842E-03    -220.242E-03     151.375E-03    -253.978E-03     474.261E-03    -219.850E-03     132.147E-03
            1184     13.7053E-03     157.120E-03    -5.09091E+06     116.927E+06     120.766E+06    -781.604E+03    -252.123E-03     473.899E-03    -221.776E-03     113.148E-03    -254.675E-03     476.498E-03    -221.334E-03     96.2834E-03
            1185     725.784E-06     156.116E-03    -139.525E+06    -219.484E+06    -136.722E+06    -2.34893E+06    -214.028E-03     427.808E-03    -213.780E-03     25.7719E-03    -214.245E-03     427.136E-03    -213.943E-03     24.6589E-03
            1186     1.45239E-03     156.142E-03    -134.615E+06    -206.380E+06    -123.751E+06    -3.72736E+06    -213.148E-03     426.787E-03    -213.639E-03     47.2643E-03    -213.441E-03     426.217E-03    -213.763E-03     45.2307E-03
            1187     2.17992E-03     156.187E-03    -128.077E+06    -190.323E+06    -105.048E+06    -4.91112E+06    -212.150E-03     425.296E-03    -213.146E-03     69.4901E-03    -212.566E-03     424.877E-03    -213.210E-03     66.4787E-03
            1188     2.90863E-03     156.249E-03    -119.982E+06    -171.365E+06    -83.0988E+06    -5.81639E+06    -210.819E-03     423.309E-03    -212.490E-03     90.7049E-03    -211.399E-03     423.086E-03    -212.483E-03     86.7169E-03
            1189     3.63914E-03     156.326E-03    -110.609E+06    -150.983E+06    -61.2698E+06    -6.64248E+06    -209.687E-03     421.397E-03    -211.709E-03     110.698E-03    -210.463E-03     421.414E-03    -211.637E-03     105.756E-03
            1190     4.37139E-03     156.420E-03    -100.850E+06    -132.457E+06    -40.7559E+06    -7.13505E+06    -209.254E-03     420.167E-03    -210.912E-03     129.474E-03    -210.249E-03     420.446E-03    -210.778E-03     123.596E-03
            1191     5.10450E-03     156.530E-03    -91.6731E+06    -114.278E+06    -22.3935E+06    -7.20613E+06    -209.710E-03     419.908E-03    -210.199E-03     146.364E-03    -210.948E-03     420.477E-03    -210.012E-03     139.566E-03
            1192     5.83775E-03     156.654E-03    -83.4125E+06    -98.1185E+06    -6.69326E+06    -6.93416E+06    -211.141E-03     420.788E-03    -209.647E-03     161.196E-03    -212.636E-03     421.656E-03    -209.417E-03     153.487E-03
            1193     6.57020E-03     156.794E-03    -76.1383E+06    -82.9270E+06     6.81107E+06    -6.48307E+06    -213.576E-03     422.890E-03    -209.313E-03     173.549E-03    -215.326E-03     424.054E-03    -209.049E-03     164.973E-03
            1194     7.30145E-03     156.946E-03     -69.573E+06    -67.7052E+06     18.3275E+06    -6.27070E+06    -216.977E-03     426.214E-03    -209.237E-03     182.945E-03    -218.962E-03     427.659E-03    -208.946E-03     173.538E-03
            1195     8.03057E-03     157.109E-03    -63.4161E+06    -52.5986E+06     28.5045E+06    -5.81110E+06    -221.425E-03     430.878E-03    -209.454E-03     189.207E-03    -223.616E-03     432.577E-03    -209.143E-03     178.990E-03
            1196     8.75692E-03     157.283E-03    -57.5007E+06    -36.9201E+06     38.0201E+06    -6.34946E+06    -227.010E-03     437.009E-03    -209.998E-03     192.257E-03    -229.376E-03     438.932E-03    -209.671E-03     181.190E-03
            1197     9.47862E-03     157.465E-03    -50.7636E+06    -20.8763E+06     46.5167E+06    -7.77180E+06    -233.490E-03     444.377E-03    -210.887E-03     192.536E-03    -236.006E-03     446.508E-03    -210.551E-03     180.504E-03
            1198     10.1956E-03     157.657E-03    -43.4249E+06    -6.31397E+06     53.8201E+06    -8.68656E+06    -240.290E-03     452.398E-03    -212.107E-03     190.575E-03    -242.951E-03     454.730E-03    -211.766E-03     177.408E-03
            1199     10.9077E-03     157.855E-03    -35.6664E+06     20.4095E+06     65.3714E+06    -8.26066E+06    -246.804E-03     460.425E-03    -213.621E-03     186.444E-03    -249.642E-03     463.023E-03    -213.272E-03     171.943E-03
            1200     11.6151E-03     158.059E-03    -28.8045E+06     63.7890E+06     78.3832E+06    -7.43732E+06    -252.616E-03     467.963E-03    -215.347E-03     180.384E-03    -255.694E-03     470.941E-03    -215.006E-03     164.243E-03
            1201     12.3171E-03     158.266E-03    -23.4660E+06     93.3254E+06     89.4593E+06    -7.74015E+06    -256.960E-03     474.203E-03    -217.243E-03     168.107E-03    -260.125E-03     477.359E-03    -216.897E-03     150.590E-03
            1202     13.0165E-03     158.460E-03    -17.5252E+06     105.743E+06     102.010E+06    -8.67077E+06    -259.786E-03     479.033E-03    -219.247E-03     155.395E-03    -263.153E-03     482.419E-03    -218.864E-03     135.830E-03
            1203     13.7119E-03     158.647E-03    -8.81521E+06     108.269E+06     114.342E+06    -5.06473E+06    -261.318E-03     482.592E-03    -221.275E-03     115.557E-03    -263.853E-03     485.150E-03    -220.847E-03     98.3418E-03
            1204     735.524E-06     157.552E-03    -138.545E+06    -210.875E+06    -137.168E+06    -2.53426E+06    -201.597E-03     402.251E-03    -200.654E-03     27.8341E-03    -201.816E-03     401.612E-03    -200.834E-03     27.0577E-03
            1205     1.47125E-03     157.579E-03    -135.992E+06    -200.292E+06    -124.962E+06    -3.66622E+06    -201.016E-03     401.987E-03    -200.971E-03     51.4567E-03    -201.304E-03     401.428E-03    -201.108E-03     49.9991E-03
            1206     2.20730E-03     157.622E-03    -129.884E+06    -184.699E+06    -106.009E+06    -4.25820E+06    -200.712E-03     401.455E-03    -200.743E-03     75.2517E-03    -201.104E-03     401.023E-03    -200.817E-03     73.0592E-03
            1207     2.94486E-03     157.682E-03    -121.765E+06    -165.427E+06    -84.2633E+06    -4.76907E+06    -200.718E-03     401.162E-03    -200.444E-03     98.1519E-03    -201.247E-03     400.904E-03    -200.449E-03     95.1880E-03
            1208     3.68260E-03     157.758E-03    -113.382E+06    -146.261E+06    -62.7464E+06    -5.19941E+06    -201.505E-03     401.684E-03    -200.179E-03     119.848E-03    -202.206E-03     401.635E-03    -200.116E-03     116.071E-03
            1209     4.42006E-03     157.852E-03    -105.400E+06    -129.035E+06    -43.1415E+06    -4.94385E+06    -202.996E-03     403.015E-03    -200.019E-03     139.952E-03    -203.897E-03     403.203E-03    -199.895E-03     135.338E-03
            1210     5.15753E-03     157.963E-03    -97.9383E+06    -111.715E+06    -25.7228E+06    -4.15024E+06    -205.326E-03     405.329E-03    -200.003E-03     157.868E-03    -206.456E-03     405.785E-03    -199.828E-03     152.387E-03
            1211     5.89382E-03     158.091E-03    -90.9856E+06    -95.9236E+06    -10.7418E+06    -3.65787E+06    -208.827E-03     409.018E-03    -200.191E-03     173.550E-03    -210.205E-03     409.761E-03    -199.974E-03     167.156E-03
            1212     6.62832E-03     158.235E-03    -84.1767E+06    -79.9105E+06     2.42224E+06    -3.51100E+06    -213.522E-03     414.164E-03    -200.643E-03     186.514E-03    -215.152E-03     415.205E-03    -200.393E-03     179.182E-03
            1213     7.35986E-03     158.393E-03    -77.0418E+06    -64.4933E+06     14.1536E+06    -3.88679E+06    -219.396E-03     420.803E-03    -201.408E-03     196.037E-03    -221.263E-03     422.129E-03    -201.132E-03     187.748E-03
            1214     8.08760E-03     158.565E-03    -69.3667E+06    -49.6205E+06     24.3093E+06    -4.87390E+06    -226.500E-03     429.022E-03    -202.522E-03     201.970E-03    -228.576E-03     430.610E-03    -202.228E-03     192.681E-03
            1215     8.81002E-03     158.750E-03    -60.9678E+06    -30.0569E+06     34.9550E+06    -6.39372E+06    -234.643E-03     438.658E-03    -204.015E-03     204.391E-03    -236.908E-03     440.503E-03    -203.708E-03     194.037E-03
            1216     9.52662E-03     158.945E-03    -52.8483E+06    -14.8902E+06     43.3794E+06    -9.42007E+06    -243.163E-03     449.039E-03    -205.875E-03     203.575E-03    -245.588E-03     451.103E-03    -205.560E-03     192.024E-03
            1217     10.2374E-03     159.148E-03    -44.5271E+06    -2.82873E+06     50.3545E+06    -11.8386E+06    -251.380E-03     459.434E-03    -208.054E-03     199.915E-03    -253.952E-03     461.698E-03    -207.733E-03     187.023E-03
            1218     10.9423E-03     159.360E-03    -35.8127E+06     20.2014E+06     61.1282E+06    -12.4118E+06    -258.804E-03     469.287E-03    -210.483E-03     193.792E-03    -261.554E-03     471.809E-03    -210.154E-03     179.347E-03
            1219     11.6410E-03     159.576E-03    -27.2789E+06     58.8456E+06     74.1834E+06    -9.22329E+06    -264.438E-03     477.490E-03    -213.052E-03     185.684E-03    -267.416E-03     480.369E-03    -212.727E-03     169.503E-03
            1220     12.3364E-03     159.793E-03    -19.0069E+06     95.0042E+06     89.3949E+06    -5.93170E+06    -267.699E-03     483.374E-03    -215.675E-03     171.537E-03    -270.765E-03     486.453E-03    -215.338E-03     153.984E-03
            1221     13.0283E-03     159.992E-03    -12.3866E+06     110.659E+06     104.995E+06    -6.18668E+06    -269.619E-03     487.910E-03    -218.291E-03     157.506E-03    -272.907E-03     491.244E-03    -217.908E-03     137.782E-03
            1222     13.7181E-03     160.190E-03    -6.76490E+06     99.8148E+06     112.941E+06    -7.71624E+06    -270.316E-03     491.143E-03    -220.827E-03     118.195E-03    -272.806E-03     493.637E-03    -220.397E-03     100.670E-03
            1223     746.786E-06     158.950E-03    -141.923E+06    -205.978E+06    -140.967E+06    -303.407E+03    -187.006E-03     372.865E-03    -185.859E-03     29.8835E-03    -187.240E-03     372.253E-03    -186.059E-03     29.3718E-03
            1224     1.49321E-03     158.977E-03    -142.119E+06    -195.783E+06    -128.422E+06    -772.468E+03    -187.067E-03     373.478E-03    -186.411E-03     54.9100E-03    -187.371E-03     372.936E-03    -186.563E-03     53.9415E-03
            1225     2.24021E-03     159.020E-03    -136.727E+06    -179.635E+06    -110.727E+06    -1.73094E+06    -188.035E-03     374.581E-03    -186.547E-03     80.1797E-03    -188.423E-03     374.151E-03    -186.641E-03     78.6916E-03
            1226     2.98621E-03     159.081E-03    -130.360E+06    -162.158E+06    -90.3376E+06    -2.11839E+06    -189.896E-03     376.688E-03    -186.792E-03     104.630E-03    -190.400E-03     376.403E-03    -186.820E-03     102.553E-03
            1227     3.73163E-03     159.160E-03    -123.476E+06    -144.351E+06    -69.4108E+06    -1.18657E+06    -192.696E-03     379.908E-03    -187.212E-03     127.776E-03    -193.347E-03     379.799E-03    -187.170E-03     125.065E-03
            1228     4.47572E-03     159.258E-03    -116.429E+06    -126.794E+06    -49.9369E+06    -518.767E+03    -196.490E-03     384.322E-03    -187.832E-03     149.249E-03    -197.320E-03     384.426E-03    -187.729E-03     145.810E-03
            1229     5.21744E-03     159.375E-03    -109.044E+06    -110.026E+06    -32.9142E+06    -265.755E+03    -201.329E-03     390.008E-03    -188.679E-03     168.513E-03    -202.367E-03     390.360E-03    -188.526E-03     164.240E-03
            1230     5.95682E-03     159.510E-03    -101.208E+06    -92.8169E+06    -17.7517E+06    -491.595E+03    -207.362E-03     397.152E-03    -189.789E-03     185.058E-03    -208.630E-03     397.781E-03    -189.597E-03     179.867E-03
            1231     6.69243E-03     159.663E-03    -92.7382E+06    -74.6775E+06    -4.09191E+06    -2.25286E+06    -214.756E-03     405.968E-03    -191.212E-03     198.300E-03    -216.265E-03     406.897E-03    -190.990E-03     192.083E-03
            1232     7.42337E-03     159.833E-03    -83.4090E+06    -59.0241E+06     7.79554E+06    -4.86461E+06    -223.526E-03     416.528E-03    -193.002E-03     207.740E-03    -225.266E-03     417.745E-03    -192.757E-03     200.412E-03
            1233     8.14812E-03     160.019E-03    -73.3432E+06    -43.7342E+06     18.6630E+06    -7.86728E+06    -233.431E-03     428.622E-03    -195.191E-03     213.424E-03    -235.384E-03     430.111E-03    -194.928E-03     204.908E-03
            1234     8.86614E-03     160.219E-03    -63.2187E+06    -23.2554E+06     29.9230E+06    -11.0274E+06    -243.860E-03     441.632E-03    -197.772E-03     215.321E-03    -246.015E-03     443.401E-03    -197.497E-03     205.523E-03
            1235     9.57696E-03     160.431E-03    -53.3183E+06    -7.51337E+06     39.6865E+06    -13.5604E+06    -254.235E-03     454.945E-03    -200.710E-03     213.361E-03    -256.563E-03     456.951E-03    -200.424E-03     202.177E-03
            1236     10.2801E-03     160.651E-03    -44.5592E+06     2.16800E+06     46.8707E+06    -15.9646E+06    -263.897E-03     467.831E-03    -203.935E-03     208.234E-03    -266.384E-03     470.040E-03    -203.639E-03     195.498E-03
            1237     10.9763E-03     160.878E-03    -36.9822E+06     22.3325E+06     56.5736E+06    -17.0637E+06    -271.718E-03     479.060E-03    -207.341E-03     200.345E-03    -274.390E-03     481.522E-03    -207.037E-03     185.898E-03
            1238     11.6676E-03     161.107E-03    -29.1728E+06     49.9244E+06     67.1726E+06    -15.5144E+06    -276.895E-03     487.685E-03    -210.790E-03     189.599E-03    -279.772E-03     490.446E-03    -210.485E-03     173.282E-03
            1239     12.3550E-03     161.332E-03    -20.0888E+06     92.2928E+06     84.6700E+06    -12.8023E+06    -279.395E-03     493.572E-03    -214.177E-03     173.174E-03    -282.369E-03     496.561E-03    -213.859E-03     155.358E-03
            1240     13.0396E-03     161.541E-03    -9.27146E+06     108.673E+06     100.863E+06    -11.4830E+06    -279.411E-03     496.828E-03    -217.417E-03     157.498E-03    -282.586E-03     500.065E-03    -217.056E-03     137.495E-03
            1241     13.7229E-03     161.742E-03    -1.63306E+06     86.1484E+06     109.196E+06    -5.66351E+06    -277.916E-03     498.353E-03    -220.437E-03     119.437E-03    -280.323E-03     500.745E-03    -220.014E-03     101.694E-03
            1242     758.599E-06     160.305E-03    -159.755E+06    -209.142E+06    -155.586E+06     2.91163E+06    -171.681E-03     342.061E-03    -170.381E-03     31.5942E-03    -171.972E-03     341.476E-03    -170.624E-03     31.3033E-03
            1243     1.51705E-03     160.333E-03    -156.480E+06    -195.541E+06    -141.839E+06     3.68151E+06    -172.728E-03     343.921E-03    -171.193E-03     57.2649E-03    -173.067E-03     343.404E-03    -171.392E-03     56.7098E-03
            1244     2.27407E-03     160.379E-03    -152.023E+06    -178.018E+06    -122.714E+06     3.94870E+06    -175.270E-03     347.092E-03    -171.822E-03     83.6766E-03    -175.685E-03     346.676E-03    -171.957E-03     82.7778E-03
            1245     3.02987E-03     160.446E-03    -146.719E+06    -160.825E+06    -101.654E+06     3.75704E+06    -179.014E-03     351.728E-03    -172.714E-03     109.457E-03    -179.528E-03     351.433E-03    -172.777E-03     108.131E-03
            1246     3.78302E-03     160.531E-03    -139.467E+06    -142.920E+06    -80.4692E+06     3.03326E+06    -183.975E-03     357.857E-03    -173.882E-03     133.826E-03    -184.608E-03     357.712E-03    -173.875E-03     131.983E-03
            1247     4.53334E-03     160.637E-03    -130.079E+06    -124.045E+06    -60.5533E+06     1.99030E+06    -190.227E-03     365.565E-03    -175.338E-03     156.224E-03    -191.001E-03     365.607E-03    -175.272E-03     153.744E-03
            1248     5.28015E-03     160.764E-03    -119.268E+06    -106.127E+06    -42.5469E+06     42.5355E+03    -197.895E-03     375.009E-03    -177.114E-03     176.162E-03    -198.837E-03     375.272E-03    -177.000E-03     172.894E-03
            1249     6.02173E-03     160.912E-03    -107.176E+06    -87.9568E+06    -26.1757E+06    -2.45551E+06    -206.991E-03     386.237E-03    -179.246E-03     193.231E-03    -208.127E-03     386.758E-03    -179.094E-03     189.025E-03
            1250     6.75778E-03     161.079E-03    -94.8075E+06    -67.8908E+06    -10.9076E+06    -4.90517E+06    -217.440E-03     399.205E-03    -181.765E-03     206.672E-03    -218.794E-03     400.018E-03    -181.583E-03     201.390E-03
            1251     7.48678E-03     161.267E-03    -83.3371E+06    -50.1069E+06     2.60547E+06    -8.67306E+06    -229.078E-03     413.775E-03    -184.697E-03     216.100E-03    -230.662E-03     414.885E-03    -184.491E-03     209.579E-03
            1252     8.20808E-03     161.472E-03    -72.8462E+06    -34.6668E+06     14.2669E+06    -13.0132E+06    -241.451E-03     429.493E-03    -188.041E-03     221.431E-03    -243.259E-03     430.886E-03    -187.814E-03     213.562E-03
            1253     8.92090E-03     161.693E-03    -62.3392E+06    -14.0895E+06     26.3618E+06    -17.1088E+06    -253.880E-03     445.641E-03    -191.761E-03     222.536E-03    -255.902E-03     447.325E-03    -191.518E-03     213.215E-03
            1254     9.62506E-03     161.925E-03    -51.9758E+06    -1.98927E+06     35.9248E+06    -20.0759E+06    -265.788E-03     461.585E-03    -195.798E-03     219.637E-03    -267.992E-03     463.504E-03    -195.540E-03     208.743E-03
            1255     10.3211E-03     162.166E-03    -42.1841E+06     7.27309E+06     44.3479E+06    -21.4215E+06    -276.252E-03     476.310E-03    -200.058E-03     213.209E-03    -278.619E-03     478.433E-03    -199.785E-03     200.645E-03
            1256     11.0096E-03     162.410E-03    -32.3345E+06     24.3037E+06     55.0590E+06    -22.2303E+06    -284.203E-03     488.616E-03    -204.413E-03     203.560E-03    -286.735E-03     490.968E-03    -204.126E-03     189.198E-03
            1257     11.6923E-03     162.653E-03    -22.5311E+06     43.6103E+06     65.1475E+06    -20.2496E+06    -289.178E-03     497.891E-03    -208.714E-03     191.111E-03    -291.888E-03     500.494E-03    -208.419E-03     174.780E-03
            1258     12.3707E-03     162.888E-03    -14.1710E+06     86.4235E+06     83.7014E+06    -16.6795E+06    -290.561E-03     503.398E-03    -212.836E-03     173.802E-03    -293.380E-03     506.233E-03    -212.523E-03     155.955E-03
            1259     13.0473E-03     163.103E-03    -10.2619E+06     99.6051E+06     99.1749E+06    -12.0700E+06    -288.599E-03     505.272E-03    -216.673E-03     156.880E-03    -291.653E-03     508.356E-03    -216.306E-03     136.821E-03
            1260     13.7267E-03     163.301E-03    -7.24874E+06     73.0946E+06     105.456E+06    -5.18266E+06    -284.868E-03     504.996E-03    -220.128E-03     119.955E-03    -287.233E-03     507.290E-03    -219.697E-03     102.040E-03
            1261     770.438E-06     161.618E-03    -201.369E+06    -215.336E+06    -195.011E+06     1.41441E+06    -157.534E-03     313.233E-03    -155.699E-03     31.8619E-03    -157.961E-03     312.732E-03    -156.069E-03     31.6891E-03
            1262     1.53948E-03     161.650E-03    -191.123E+06    -198.970E+06    -177.601E+06     2.60088E+06    -159.387E-03     316.345E-03    -156.959E-03     58.0363E-03    -159.827E-03     315.903E-03    -157.281E-03     57.7158E-03
            1263     2.30674E-03     161.702E-03    -180.195E+06    -179.997E+06    -150.910E+06     3.47538E+06    -163.421E-03     321.495E-03    -158.074E-03     85.1824E-03    -163.903E-03     321.124E-03    -158.306E-03     84.6498E-03
            1264     3.07102E-03     161.776E-03    -166.455E+06    -159.659E+06    -121.883E+06     3.07946E+06    -169.020E-03     328.610E-03    -159.590E-03     111.510E-03    -169.553E-03     328.331E-03    -159.727E-03     110.680E-03
            1265     3.83192E-03     161.872E-03    -151.617E+06    -138.866E+06    -95.4864E+06     894.001E+03    -176.264E-03     337.757E-03    -161.493E-03     136.307E-03    -176.866E-03     337.600E-03    -161.550E-03     135.050E-03
            1266     4.58796E-03     161.991E-03    -136.700E+06    -119.190E+06    -72.8073E+06    -2.00261E+06    -185.194E-03     348.996E-03    -163.802E-03     158.907E-03    -185.888E-03     348.991E-03    -163.795E-03     157.092E-03
            1267     5.33803E-03     162.133E-03    -122.308E+06    -99.4916E+06    -53.0613E+06    -5.25859E+06    -195.734E-03     362.274E-03    -166.540E-03     178.708E-03    -196.556E-03     362.464E-03    -166.484E-03     176.169E-03
            1268     6.08172E-03     162.298E-03    -108.929E+06    -80.0085E+06    -35.1832E+06    -9.40706E+06    -207.813E-03     377.539E-03    -169.726E-03     195.377E-03    -208.802E-03     377.965E-03    -169.628E-03     191.914E-03
            1269     6.81708E-03     162.486E-03    -95.5429E+06    -59.9369E+06    -18.5505E+06    -13.8876E+06    -221.080E-03     394.443E-03    -173.363E-03     208.278E-03    -222.267E-03     395.140E-03    -173.230E-03     203.709E-03
            1270     7.54383E-03     162.695E-03    -81.3070E+06    -41.7013E+06    -2.79654E+06    -17.7157E+06    -235.113E-03     412.546E-03    -177.433E-03     217.214E-03    -236.512E-03     413.526E-03    -177.268E-03     211.361E-03
            1271     8.26092E-03     162.924E-03    -66.9326E+06    -24.4138E+06     12.2884E+06    -21.6115E+06    -249.406E-03     431.302E-03    -181.896E-03     222.014E-03    -251.018E-03     432.564E-03    -181.702E-03     214.721E-03
            1272     8.96834E-03     163.169E-03    -54.0918E+06    -6.93365E+06     26.1566E+06    -23.8565E+06    -263.276E-03     449.962E-03    -186.686E-03     222.634E-03    -265.091E-03     451.496E-03    -186.467E-03     213.818E-03
            1273     9.66621E-03     163.426E-03    -43.5256E+06     3.00711E+06     37.0803E+06    -24.3527E+06    -276.001E-03     467.721E-03    -191.720E-03     219.520E-03    -278.004E-03     469.483E-03    -191.476E-03     209.067E-03
            1274     10.3549E-03     163.690E-03    -34.9569E+06     13.4454E+06      46.934E+06    -25.3262E+06    -286.648E-03     483.527E-03    -196.880E-03     212.729E-03    -288.824E-03     485.500E-03    -196.614E-03     200.548E-03
            1275     11.0364E-03     163.954E-03    -28.7576E+06     25.4357E+06     55.6995E+06    -25.7440E+06    -294.560E-03     496.591E-03    -202.031E-03     202.612E-03    -296.903E-03     498.768E-03    -201.748E-03     188.621E-03
            1276     11.7123E-03     164.212E-03    -24.5358E+06     33.9182E+06     62.8488E+06    -22.9935E+06    -299.114E-03     506.152E-03    -207.038E-03     189.619E-03    -301.632E-03     508.526E-03    -206.737E-03     173.679E-03
            1277     12.3851E-03     164.458E-03    -22.7312E+06     78.2862E+06     81.4762E+06    -16.7842E+06    -299.302E-03     511.061E-03    -211.759E-03     171.044E-03    -301.964E-03     513.686E-03    -211.432E-03     153.580E-03
            1278     13.0583E-03     164.675E-03    -17.6742E+06     95.5186E+06     98.8136E+06    -13.4599E+06    -296.160E-03     512.238E-03    -216.078E-03     153.071E-03    -299.053E-03     515.122E-03    -215.697E-03     133.317E-03
            1279     13.7296E-03     164.876E-03    -7.42484E+06     57.2494E+06     105.028E+06    -10.1363E+06    -290.180E-03     510.074E-03    -219.894E-03     117.262E-03    -292.408E-03     512.173E-03    -219.441E-03     99.4036E-03
            1280     779.205E-06     162.896E-03    -266.968E+06    -207.957E+06    -263.611E+06    -6.85588E+06    -146.420E-03     290.355E-03    -143.935E-03     30.8226E-03    -147.079E-03     290.086E-03    -144.564E-03     30.6135E-03
            1281     1.55753E-03     162.932E-03    -254.914E+06    -193.132E+06    -239.722E+06    -11.3045E+06    -148.712E-03     294.377E-03    -145.665E-03     56.2588E-03    -149.378E-03     294.141E-03    -146.214E-03     55.8893E-03
            1282     2.33324E-03     162.993E-03    -234.234E+06    -174.448E+06    -205.359E+06    -15.8299E+06    -153.908E-03     301.058E-03    -147.150E-03     82.5852E-03    -154.566E-03     300.856E-03    -147.584E-03     82.0192E-03
            1283     3.10498E-03     163.077E-03    -207.628E+06    -153.411E+06    -167.005E+06    -20.0211E+06    -161.188E-03     310.374E-03    -149.187E-03     108.110E-03    -161.832E-03     310.218E-03    -149.498E-03     107.288E-03
            1284     3.87142E-03     163.187E-03    -179.718E+06    -133.392E+06    -131.345E+06    -23.0781E+06    -170.560E-03     322.321E-03    -151.761E-03     132.118E-03    -171.198E-03     322.229E-03    -151.964E-03     130.956E-03
            1285     4.63147E-03     163.322E-03    -152.230E+06    -113.830E+06    -99.4089E+06    -25.3565E+06    -181.942E-03     336.823E-03    -154.881E-03     153.675E-03    -182.598E-03     336.825E-03    -154.992E-03     152.058E-03
            1286     5.38393E-03     163.483E-03    -125.893E+06    -97.4396E+06    -71.0534E+06    -25.6424E+06    -195.121E-03     353.671E-03    -158.550E-03     172.252E-03    -195.822E-03     353.791E-03    -158.581E-03     170.040E-03
            1287     6.12701E-03     163.670E-03    -102.334E+06    -74.6937E+06    -44.4536E+06    -24.8772E+06    -209.605E-03     372.344E-03    -162.740E-03     187.511E-03    -210.407E-03     372.655E-03    -162.705E-03     184.527E-03
            1288     6.86067E-03     163.883E-03    -82.5218E+06    -51.5454E+06    -21.1473E+06    -26.4645E+06    -224.889E-03     392.291E-03    -167.402E-03     199.072E-03    -225.839E-03     392.836E-03    -167.313E-03     195.076E-03
            1289     7.58387E-03     164.118E-03    -66.3494E+06    -36.3532E+06    -2.30871E+06    -27.9995E+06    -240.461E-03     412.939E-03    -172.477E-03     206.833E-03    -241.580E-03     413.711E-03    -172.340E-03     201.635E-03
            1290     8.29685E-03     164.374E-03    -54.5143E+06    -16.9405E+06     14.6856E+06    -28.0606E+06    -255.585E-03     433.465E-03    -177.880E-03     210.796E-03    -256.908E-03     434.502E-03    -177.703E-03     204.250E-03
            1291     8.99939E-03     164.646E-03    -46.9092E+06    -5.48369E+06     28.2361E+06    -26.9142E+06    -269.691E-03     453.210E-03    -183.519E-03     211.296E-03    -271.218E-03     454.480E-03    -183.302E-03     203.292E-03
            1292     9.69220E-03     164.930E-03    -41.9406E+06     5.30759E+06     40.3476E+06    -25.2611E+06    -282.093E-03     471.372E-03    -189.279E-03     208.775E-03    -283.823E-03     472.865E-03    -189.024E-03     199.222E-03
            1293     10.3769E-03     165.218E-03    -38.1177E+06     23.3799E+06     52.4718E+06    -27.1293E+06    -292.332E-03     487.369E-03    -195.037E-03     203.250E-03    -294.270E-03     489.110E-03    -194.753E-03     191.996E-03
            1294     11.0539E-03     165.504E-03    -32.5008E+06     26.9776E+06     59.4897E+06    -29.1326E+06    -300.120E-03     500.807E-03    -200.687E-03     194.483E-03    -302.215E-03     502.716E-03    -200.381E-03     181.406E-03
            1295     11.7254E-03     165.779E-03    -24.2335E+06     23.8606E+06     66.0572E+06    -26.1674E+06    -304.276E-03     510.393E-03    -206.117E-03     181.923E-03    -306.497E-03     512.425E-03    -205.786E-03     166.949E-03
            1296     12.3934E-03     166.035E-03    -12.5494E+06     65.8524E+06     88.4494E+06    -18.4233E+06    -304.008E-03     515.195E-03    -211.187E-03     164.058E-03    -306.338E-03     517.460E-03    -210.822E-03     147.539E-03
            1297     13.0597E-03     166.257E-03    -4.92573E+06     89.7979E+06     106.327E+06    -11.0457E+06    -299.726E-03     515.479E-03    -215.753E-03     147.329E-03    -302.296E-03     518.043E-03    -215.345E-03     128.550E-03
            1298     13.7313E-03     166.456E-03    -3.33899E+06     44.7666E+06     109.112E+06    -6.92190E+06    -292.447E-03     512.189E-03    -219.742E-03     113.094E-03    -294.463E-03     514.035E-03    -219.256E-03     96.0094E-03
            1299     784.928E-06     164.150E-03    -286.799E+06    -177.104E+06    -281.585E+06    -14.5362E+06    -140.773E-03     278.806E-03    -138.033E-03     27.0294E-03    -141.547E-03     278.749E-03    -138.768E-03     26.7325E-03
            1300     1.56781E-03     164.192E-03    -275.136E+06    -164.897E+06    -258.352E+06    -27.0662E+06    -143.581E-03     283.656E-03    -140.074E-03     49.0388E-03    -144.357E-03     283.617E-03    -140.728E-03     48.4861E-03
            1301     2.34754E-03     164.261E-03    -256.680E+06    -148.056E+06    -227.390E+06    -39.1389E+06    -149.382E-03     291.265E-03    -141.883E-03     71.6814E-03    -150.150E-03     291.255E-03    -142.433E-03     70.8399E-03
            1302     3.12292E-03     164.357E-03    -234.935E+06    -131.544E+06    -194.516E+06    -49.6863E+06    -157.579E-03     301.899E-03    -144.320E-03     93.5130E-03    -158.337E-03     301.921E-03    -144.761E-03     92.3481E-03
            1303     3.89200E-03     164.483E-03    -210.012E+06    -117.433E+06    -161.939E+06    -57.8172E+06    -168.109E-03     315.525E-03    -147.416E-03     113.917E-03    -168.849E-03     315.574E-03    -147.751E-03     112.396E-03
            1304     4.65308E-03     164.637E-03    -184.420E+06    -104.148E+06    -132.145E+06    -62.7810E+06    -180.710E-03     331.864E-03    -151.154E-03     132.217E-03    -181.442E-03     331.959E-03    -151.396E-03     130.274E-03
            1305     5.40460E-03     164.821E-03    -159.376E+06    -95.1434E+06    -105.205E+06    -65.4549E+06    -195.001E-03     350.505E-03    -155.504E-03     148.037E-03    -195.737E-03     350.649E-03    -155.661E-03     145.589E-03
            1306     6.14603E-03     165.033E-03    -133.894E+06    -77.6807E+06    -76.8222E+06    -65.7475E+06    -210.374E-03     370.777E-03    -160.403E-03     161.121E-03    -211.145E-03     371.028E-03    -160.480E-03     158.076E-03
            1307     6.87648E-03     165.272E-03    -109.548E+06    -55.7323E+06    -47.2408E+06    -62.7281E+06    -226.299E-03     392.071E-03    -165.772E-03     171.129E-03    -227.143E-03     392.474E-03    -165.768E-03     167.355E-03
            1308     7.59586E-03     165.535E-03    -88.8118E+06    -44.8064E+06    -19.9502E+06    -57.5638E+06    -242.066E-03     413.586E-03    -171.521E-03     177.823E-03    -242.998E-03     414.112E-03    -171.427E-03     173.169E-03
            1309     8.30420E-03     165.819E-03    -70.6901E+06    -28.4662E+06     4.90765E+06    -49.8524E+06    -256.767E-03     434.266E-03    -177.499E-03     181.512E-03    -257.819E-03     434.961E-03    -177.330E-03     175.851E-03
            1310     9.00292E-03     166.119E-03    -53.7726E+06    -18.1442E+06     26.5241E+06    -40.5659E+06    -269.916E-03     453.495E-03    -183.579E-03     182.715E-03    -271.089E-03     454.345E-03    -183.342E-03     175.902E-03
            1311     9.69301E-03     166.429E-03    -37.4294E+06    -4.22585E+06     46.5703E+06    -32.2189E+06    -281.083E-03     470.710E-03    -189.627E-03     181.583E-03    -282.387E-03     471.739E-03    -189.334E-03     173.467E-03
            1312     10.3756E-03     166.742E-03    -22.4493E+06     25.7711E+06     66.6297E+06    -25.5276E+06    -290.075E-03     485.596E-03    -195.521E-03     178.570E-03    -291.542E-03     486.889E-03    -195.192E-03     169.000E-03
            1313     11.0520E-03     167.051E-03    -12.2783E+06     33.3470E+06     77.4504E+06    -23.2507E+06    -296.650E-03     497.826E-03    -201.176E-03     173.773E-03    -298.259E-03     499.292E-03    -200.819E-03     162.600E-03
            1314     11.7229E-03     167.345E-03    -7.16259E+06     21.6490E+06     83.4745E+06    -22.1449E+06    -300.230E-03     506.743E-03    -206.513E-03     166.356E-03    -301.968E-03     508.295E-03    -206.116E-03     153.479E-03
            1315     12.3921E-03     167.612E-03    -5.88798E+06     47.5715E+06     98.4038E+06    -17.6638E+06    -300.567E-03     512.000E-03    -211.432E-03     153.992E-03    -302.472E-03     513.769E-03    -211.001E-03     139.562E-03
            1316     13.0627E-03     167.842E-03    -2.81362E+06     69.6606E+06     112.416E+06    -6.58849E+06    -297.591E-03     513.457E-03    -215.866E-03     138.646E-03    -299.756E-03     515.535E-03    -215.401E-03     121.882E-03
            1317     13.7347E-03     168.032E-03     1.46070E+06     38.5491E+06     120.372E+06     3.38246E+06    -291.142E-03     510.930E-03    -219.787E-03     105.125E-03    -292.881E-03     512.460E-03    -219.244E-03     89.5056E-03
            1318     783.012E-06     165.400E-03    -221.311E+06    -130.891E+06    -217.481E+06    -17.7013E+06    -144.518E-03     287.111E-03    -142.594E-03     17.4161E-03    -145.130E-03     287.091E-03    -143.170E-03     16.9895E-03
            1319     1.56362E-03     165.447E-03    -213.137E+06    -119.583E+06    -197.664E+06    -31.6490E+06    -147.747E-03     292.218E-03    -144.471E-03     30.9895E-03    -148.372E-03     292.222E-03    -144.977E-03     30.2187E-03
            1320     2.34096E-03     165.525E-03    -201.617E+06    -105.890E+06    -173.573E+06    -45.2329E+06    -153.509E-03     300.084E-03    -146.575E-03     44.7812E-03    -154.148E-03     300.120E-03    -146.996E-03     43.6102E-03
            1321     3.11263E-03     165.633E-03    -188.306E+06    -93.2824E+06    -148.982E+06    -57.4990E+06    -161.354E-03     310.733E-03    -149.378E-03     57.6118E-03    -162.004E-03     310.801E-03    -149.715E-03     55.9925E-03
            1322     3.87732E-03     165.774E-03    -174.673E+06    -85.1890E+06    -126.855E+06    -67.4423E+06    -170.934E-03     323.788E-03    -152.854E-03     69.1278E-03    -171.590E-03     323.877E-03    -153.112E-03     67.0426E-03
            1323     4.63371E-03     165.947E-03    -161.217E+06    -79.6634E+06    -107.861E+06    -74.9027E+06    -181.937E-03     338.872E-03    -156.935E-03     79.5454E-03    -182.599E-03     338.981E-03    -157.125E-03     76.9781E-03
            1324     5.38076E-03     166.153E-03    -147.622E+06    -73.2657E+06    -89.8737E+06    -81.8744E+06    -194.057E-03     355.606E-03    -161.549E-03     88.8246E-03    -194.729E-03     355.748E-03    -161.678E-03     85.7455E-03
            1325     6.11758E-03     166.388E-03    -134.398E+06    -65.8636E+06    -71.2762E+06    -86.6736E+06    -206.967E-03     373.590E-03    -166.623E-03     96.9101E-03    -207.655E-03     373.771E-03    -166.689E-03     93.3476E-03
            1326     6.84378E-03     166.653E-03    -120.660E+06    -55.9542E+06    -50.6539E+06    -86.4234E+06    -220.186E-03     392.246E-03    -172.059E-03     103.922E-03    -220.897E-03     392.478E-03    -172.056E-03     99.9244E-03
            1327     7.55926E-03     166.944E-03    -105.404E+06    -51.1376E+06    -28.3784E+06    -82.8535E+06    -233.058E-03     410.796E-03    -177.738E-03     109.902E-03    -233.788E-03     411.058E-03    -177.653E-03     105.452E-03
            1328     8.26512E-03     167.254E-03    -89.1457E+06    -45.5340E+06    -6.88350E+06    -77.7854E+06    -245.020E-03     428.510E-03    -183.491E-03     115.366E-03    -245.773E-03     428.815E-03    -183.330E-03     110.399E-03
            1329     8.96226E-03     167.580E-03     -72.032E+06    -40.7112E+06     12.8168E+06    -70.6586E+06    -255.711E-03     444.879E-03    -189.169E-03     120.822E-03    -256.491E-03     445.236E-03    -188.941E-03     115.286E-03
            1330     9.65219E-03     167.914E-03    -55.4287E+06    -28.7020E+06     34.2927E+06    -62.7674E+06    -265.010E-03     459.667E-03    -194.657E-03     126.406E-03    -265.849E-03     460.123E-03    -194.364E-03     120.181E-03
            1331     10.3366E-03     168.249E-03    -40.8929E+06    -7.13985E+06     58.1110E+06    -50.7653E+06    -272.606E-03     472.469E-03    -199.862E-03     131.902E-03    -273.555E-03     473.093E-03    -199.502E-03     124.832E-03
            1332     11.0176E-03     168.578E-03    -29.7038E+06     15.6942E+06     81.7329E+06    -35.3339E+06    -278.107E-03     482.818E-03    -204.711E-03     135.936E-03    -279.211E-03     483.648E-03    -204.282E-03     127.809E-03
            1333     11.6987E-03     168.890E-03    -23.1003E+06     10.9944E+06     96.4207E+06    -23.8995E+06    -282.055E-03     491.235E-03    -209.180E-03     136.249E-03    -283.319E-03     492.186E-03    -208.680E-03     126.598E-03
            1334     12.3778E-03     169.173E-03    -19.4962E+06     24.0859E+06     105.612E+06    -11.6365E+06    -284.577E-03     497.825E-03    -213.248E-03     129.876E-03    -286.024E-03     498.989E-03    -212.726E-03     118.490E-03
            1335     13.0534E-03     169.413E-03    -19.5486E+06     51.2630E+06     118.344E+06    -2.19455E+06    -284.322E-03     501.285E-03    -216.963E-03     119.471E-03    -286.047E-03     502.784E-03    -216.417E-03     105.736E-03
            1336     13.7269E-03     169.611E-03    -14.7831E+06     34.1650E+06     127.923E+06    -1.29680E+06    -280.090E-03     500.374E-03    -220.284E-03     93.5984E-03    -281.550E-03     501.533E-03    -219.673E-03     80.4116E-03
            1337     768.762E-06     166.675E-03    -132.916E+06    -80.5613E+06    -127.507E+06    -15.6402E+06    -164.954E-03     328.263E-03    -163.308E-03    -755.585E-06    -165.363E-03     328.191E-03    -163.636E-03    -1.32281E-03
            1338     1.53563E-03     166.728E-03    -127.132E+06    -72.0719E+06    -112.845E+06    -28.6886E+06    -167.434E-03     333.013E-03    -165.580E-03    -5.31190E-03    -167.845E-03     332.946E-03    -165.855E-03    -6.44292E-03
            1339     2.29780E-03     166.813E-03    -116.377E+06    -61.8735E+06    -90.5265E+06    -40.5423E+06    -171.260E-03     339.276E-03    -168.016E-03    -9.70184E-03    -171.654E-03     339.203E-03    -168.211E-03    -11.4786E-03
            1340     3.05425E-03     166.932E-03    -104.166E+06    -54.1948E+06    -68.9646E+06    -49.6009E+06    -175.914E-03     346.969E-03    -171.055E-03    -13.7951E-03    -176.275E-03     346.876E-03    -171.171E-03    -16.2064E-03
            1341     3.80345E-03     167.085E-03    -93.0337E+06    -51.2357E+06    -50.8120E+06    -55.3175E+06    -181.086E-03     355.724E-03    -174.638E-03    -18.0250E-03    -181.405E-03     355.592E-03    -174.683E-03    -21.0390E-03
            1342     4.54492E-03     167.272E-03    -82.5919E+06    -46.8050E+06    -34.4167E+06    -60.3104E+06    -186.345E-03     365.003E-03    -178.658E-03    -21.6206E-03    -186.623E-03     364.844E-03    -178.643E-03    -25.2031E-03
            1343     5.27835E-03     167.492E-03    -73.5496E+06    -41.8373E+06    -18.9077E+06    -64.1003E+06    -191.734E-03     374.755E-03    -183.020E-03    -24.2390E-03    -191.980E-03     374.579E-03    -182.948E-03    -28.3118E-03
            1344     6.00351E-03     167.743E-03    -67.1421E+06    -38.9176E+06    -5.45297E+06    -65.4108E+06    -197.031E-03     384.654E-03    -187.623E-03    -25.7617E-03    -197.252E-03     384.461E-03    -187.497E-03    -30.2207E-03
            1345     6.72068E-03     168.025E-03    -63.3230E+06    -35.9067E+06     5.42144E+06    -65.6503E+06    -201.755E-03     394.066E-03    -192.311E-03    -25.2360E-03    -201.966E-03     393.870E-03    -192.140E-03    -29.9574E-03
            1346     7.43126E-03     168.333E-03    -61.4022E+06    -33.9952E+06     14.7270E+06    -65.5231E+06    -205.948E-03     402.864E-03    -196.916E-03    -21.9176E-03    -206.166E-03     402.681E-03    -196.704E-03    -26.7918E-03
            1347     8.13629E-03     168.661E-03    -60.9586E+06    -33.7143E+06     23.1902E+06    -65.1563E+06    -209.863E-03     411.153E-03    -201.290E-03    -15.4779E-03    -210.107E-03     410.993E-03    -201.036E-03    -20.4302E-03
            1348     8.83764E-03     169.005E-03    -61.6825E+06    -33.9833E+06     30.7482E+06    -65.5143E+06    -213.511E-03     418.808E-03    -205.296E-03    -5.40707E-03    -213.798E-03     418.683E-03    -205.004E-03    -10.4020E-03
            1349     9.53716E-03     169.358E-03    -63.6273E+06    -30.9874E+06     40.4179E+06    -64.7530E+06    -217.162E-03     426.001E-03    -208.839E-03     9.02792E-03    -217.527E-03     425.946E-03    -208.500E-03     4.00309E-03
            1350     10.2357E-03     169.714E-03    -65.1474E+06    -26.9752E+06     53.0918E+06    -60.6897E+06    -221.131E-03     432.991E-03    -211.861E-03     27.1162E-03    -221.603E-03     433.028E-03    -211.462E-03     21.9961E-03
            1351     10.9343E-03     170.061E-03    -61.6046E+06    -17.7280E+06     67.9620E+06    -50.6660E+06    -225.952E-03     440.296E-03    -214.344E-03     47.7901E-03    -226.554E-03     440.472E-03    -213.889E-03     42.3864E-03
            1352     11.6301E-03     170.392E-03    -51.7500E+06    -15.0631E+06     81.9875E+06    -36.8043E+06    -232.348E-03     448.718E-03    -216.370E-03     70.0419E-03    -233.079E-03     449.026E-03    -215.863E-03     64.0386E-03
            1353     12.3237E-03     170.694E-03    -35.9897E+06    -6.40976E+06     95.0497E+06    -25.9014E+06    -239.798E-03     457.856E-03    -218.058E-03     90.7143E-03    -240.647E-03     458.317E-03    -217.521E-03     83.8128E-03
            1354     13.0172E-03     170.954E-03    -11.7447E+06     24.0174E+06     127.935E+06    -11.9807E+06    -247.317E-03     466.974E-03    -219.657E-03     104.981E-03    -248.368E-03     467.715E-03    -219.035E-03     96.4779E-03
            1355     13.7164E-03     171.152E-03     5.92791E+06     31.4948E+06     146.762E+06    -481.972E+03    -254.811E-03     476.099E-03    -221.288E-03     93.4149E-03    -255.716E-03     476.716E-03    -220.608E-03     85.4472E-03
            1356     736.474E-06     168.031E-03    -36.2721E+06    -36.8662E+06    -31.8159E+06    -11.1438E+06    -212.816E-03     428.158E-03    -215.342E-03    -42.2532E-03    -213.105E-03     427.804E-03    -215.395E-03    -43.1807E-03
            1357     1.46801E-03     168.090E-03    -32.1569E+06    -30.9212E+06    -19.6534E+06    -19.9462E+06    -211.543E-03     427.693E-03    -216.150E-03    -74.9961E-03    -211.756E-03     427.314E-03    -216.157E-03    -76.6647E-03
            1358     2.19588E-03     168.179E-03    -27.5966E+06    -25.7987E+06    -3.22965E+06    -26.8997E+06    -209.522E-03     427.465E-03    -217.943E-03    -107.971E-03    -209.646E-03     427.011E-03    -217.882E-03    -110.402E-03
            1359     2.91921E-03     168.302E-03    -24.2411E+06    -24.1817E+06     12.0437E+06    -30.9527E+06    -206.070E-03     426.399E-03    -220.328E-03    -138.550E-03    -206.087E-03     425.838E-03    -220.198E-03    -141.612E-03
            1360     3.63722E-03     168.460E-03    -20.9912E+06    -24.0295E+06     26.1251E+06    -33.4194E+06    -201.200E-03     424.280E-03    -223.080E-03    -165.846E-03    -201.094E-03     423.603E-03    -222.884E-03    -169.448E-03
            1361     4.34964E-03     168.649E-03    -18.6415E+06    -20.0576E+06     39.3192E+06    -35.6048E+06    -195.143E-03     421.196E-03    -226.053E-03    -189.027E-03    -194.926E-03     420.428E-03    -225.800E-03    -193.062E-03
            1362     5.05664E-03     168.870E-03    -18.2617E+06    -18.1970E+06     50.4703E+06    -35.6515E+06    -187.844E-03     416.960E-03    -229.117E-03    -206.966E-03    -187.532E-03     416.115E-03    -228.811E-03    -211.284E-03
            1363     5.75825E-03     169.123E-03    -18.7338E+06    -17.6111E+06     59.9718E+06    -34.5576E+06    -179.370E-03     411.454E-03    -232.085E-03    -218.805E-03    -178.986E-03     410.561E-03    -231.732E-03    -223.274E-03
            1364     6.45665E-03     169.402E-03    -19.1086E+06    -14.9314E+06     68.6209E+06    -33.3055E+06    -170.055E-03     404.802E-03    -234.747E-03    -223.890E-03    -169.638E-03     403.908E-03    -234.354E-03    -228.380E-03
            1365     7.15412E-03     169.706E-03    -19.7442E+06    -13.2701E+06     75.8483E+06    -30.9109E+06    -160.409E-03     397.332E-03    -236.922E-03    -221.874E-03    -159.995E-03     396.472E-03    -236.495E-03    -226.247E-03
            1366     7.85314E-03     170.032E-03    -20.2241E+06    -11.2511E+06     82.4085E+06    -28.5050E+06    -151.086E-03     389.552E-03    -238.466E-03    -212.956E-03    -150.706E-03     388.763E-03    -238.008E-03    -217.125E-03
            1367     8.55581E-03     170.374E-03    -20.9465E+06    -9.25814E+06     88.5569E+06    -26.3009E+06    -142.744E-03     382.011E-03    -239.267E-03    -197.717E-03    -142.425E-03     381.317E-03    -238.780E-03    -201.656E-03
            1368     9.26493E-03     170.725E-03    -21.5897E+06    -8.32036E+06     93.3285E+06    -24.2948E+06    -135.677E-03     374.917E-03    -239.240E-03    -176.249E-03    -135.439E-03     374.330E-03    -238.729E-03    -179.936E-03
            1369     9.98351E-03     171.083E-03    -21.4242E+06    -8.82168E+06     96.7537E+06    -22.1865E+06    -130.305E-03     368.636E-03    -238.331E-03    -148.642E-03    -130.157E-03     368.164E-03    -237.804E-03    -152.055E-03
            1370     10.7129E-03     171.439E-03    -21.2419E+06    -11.4360E+06     98.5293E+06    -22.2995E+06    -127.828E-03     364.392E-03    -236.564E-03    -115.044E-03    -127.778E-03     364.032E-03    -236.024E-03    -118.232E-03
            1371     11.4560E-03     171.787E-03    -21.1185E+06    -18.1971E+06     99.1566E+06    -20.9850E+06    -129.348E-03     363.425E-03    -234.077E-03    -76.4829E-03    -129.390E-03     363.144E-03    -233.524E-03    -79.4548E-03
            1372     12.2102E-03     172.116E-03    -18.7651E+06    -7.19135E+06     109.736E+06    -24.4771E+06    -136.017E-03     367.172E-03    -231.155E-03    -37.4661E-03    -136.181E-03     367.029E-03    -230.568E-03    -40.4941E-03
            1373     12.9677E-03     172.405E-03    -8.88649E+06    -10.3657E+06     120.759E+06    -19.1518E+06    -151.306E-03     379.544E-03    -228.238E-03    -1.43179E-03    -151.587E-03     379.508E-03    -227.606E-03    -5.06897E-03
            1374     13.7041E-03     172.649E-03     3.10718E+06     4.66737E+06     113.063E+06    -3.15728E+06    -167.316E-03     392.769E-03    -225.453E-03     25.3304E-03    -167.592E-03     392.841E-03    -224.899E-03     22.3218E-03
            1375     13.6580E-03     85.8116E-03    -4.87412E+06     79.1289E+06     90.2748E+06    -269.321E+03    -225.202E-03     450.383E-03    -225.180E-03     91.0160E-03    -227.631E-03     452.813E-03    -224.836E-03     74.5110E-03
            1376     12.9400E-03     85.6581E-03    -9.31974E+06     76.8821E+06     93.3330E+06    -710.940E+03    -225.656E-03     450.861E-03    -225.205E-03     123.016E-03    -229.079E-03     454.253E-03    -224.836E-03     103.207E-03
            1377     12.2191E-03     85.4978E-03    -13.6368E+06     66.7131E+06     89.6912E+06    -383.338E+03    -226.103E-03     451.332E-03    -225.229E-03     132.749E-03    -229.651E-03     454.808E-03    -224.857E-03     113.138E-03
            1378     11.4998E-03     85.3145E-03    -19.3962E+06     60.3054E+06     82.6760E+06     11.3277E+03    -226.907E-03     452.152E-03    -225.245E-03     144.534E-03    -230.768E-03     455.918E-03    -224.891E-03     124.505E-03
            1379     10.7810E-03     85.1188E-03    -26.5510E+06     55.5731E+06     74.5880E+06    -316.063E+03    -227.556E-03     452.810E-03    -225.255E-03     150.331E-03    -231.533E-03     456.674E-03    -224.924E-03     130.359E-03
            1380     10.0614E-03     84.9172E-03    -34.5881E+06     47.9447E+06     65.9746E+06    -28.2574E+03    -227.992E-03     453.254E-03    -225.262E-03     153.037E-03    -231.994E-03     457.112E-03    -224.952E-03     133.292E-03
            1381     9.34264E-03     84.7112E-03    -42.2644E+06     42.1502E+06     61.1501E+06    -309.374E+03    -228.241E-03     453.520E-03    -225.279E-03     153.134E-03    -232.189E-03     457.290E-03    -224.973E-03     133.765E-03
            1382     8.62432E-03     84.5062E-03    -49.6348E+06     16.9496E+06     52.0144E+06    -591.108E+03    -228.312E-03     453.609E-03    -225.297E-03     151.308E-03    -232.096E-03     457.127E-03    -224.990E-03     132.471E-03
            1383     7.90546E-03     84.3048E-03    -57.8810E+06    -25.0672E+06     36.8956E+06    -69.9153E+03    -228.221E-03     453.535E-03    -225.315E-03     147.635E-03    -231.734E-03     456.647E-03    -225.010E-03     129.556E-03
            1384     7.18639E-03     84.1098E-03    -66.9560E+06    -59.2490E+06     22.0421E+06    -63.1932E+03    -227.991E-03     453.321E-03    -225.330E-03     141.538E-03    -231.169E-03     455.987E-03    -225.037E-03     124.424E-03
            1385     6.46755E-03     83.9247E-03    -76.2814E+06    -88.3798E+06     6.98064E+06     38.3238E+03    -227.691E-03     453.034E-03    -225.343E-03     133.073E-03    -230.478E-03     455.216E-03    -225.069E-03     117.148E-03
            1386     5.74859E-03     83.7518E-03    -85.9486E+06    -116.364E+06    -8.96526E+06     114.343E+03    -227.384E-03     452.732E-03    -225.348E-03     122.699E-03    -229.744E-03     454.400E-03    -225.099E-03     108.164E-03
            1387     5.02997E-03     83.5941E-03    -95.8256E+06    -142.413E+06    -26.2393E+06     151.839E+03    -226.999E-03     452.339E-03    -225.340E-03     110.646E-03    -228.924E-03     453.494E-03    -225.126E-03     97.6760E-03
            1388     4.31154E-03     83.4535E-03    -105.831E+06    -168.555E+06    -45.5854E+06     247.845E+03    -226.541E-03     451.865E-03    -225.324E-03     97.2588E-03    -228.044E-03     452.525E-03    -225.154E-03     86.0016E-03
            1389     3.59274E-03     83.3322E-03    -116.037E+06    -197.100E+06    -66.6258E+06    -27.5773E+03    -226.171E-03     451.477E-03    -225.306E-03     82.8793E-03    -227.283E-03     451.670E-03    -225.185E-03     73.4252E-03
            1390     2.87408E-03     83.2302E-03    -125.817E+06    -222.387E+06    -88.8114E+06    -54.8068E+03    -225.855E-03     451.128E-03    -225.273E-03     67.6426E-03    -226.631E-03     450.926E-03    -225.212E-03     60.0427E-03
            1391     2.15545E-03     83.1498E-03    -134.601E+06    -244.871E+06    -110.985E+06     17.7818E+03    -225.592E-03     450.815E-03    -225.223E-03     51.6343E-03    -226.096E-03     450.294E-03    -225.228E-03     45.8875E-03
            1392     1.43714E-03     83.0915E-03    -141.934E+06    -266.300E+06    -130.681E+06    -102.177E+03    -225.364E-03     450.533E-03    -225.169E-03     35.1839E-03    -225.663E-03     449.762E-03    -225.230E-03     31.2819E-03
            1393     718.548E-06     83.0550E-03    -145.108E+06    -280.318E+06    -142.249E+06     185.214E+03    -225.238E-03     450.336E-03    -225.098E-03     19.1220E-03    -225.404E-03     449.405E-03    -225.193E-03     16.9975E-03
            1394     13.6555E-03     84.3232E-03    -4.83835E+06     80.2651E+06     92.3159E+06    -848.535E+03    -224.384E-03     449.602E-03    -225.218E-03     91.6955E-03    -226.823E-03     452.041E-03    -224.866E-03     75.2378E-03
            1395     12.9360E-03     84.1706E-03    -10.9523E+06     76.0478E+06     93.2692E+06    -783.831E+03    -225.552E-03     450.818E-03    -225.266E-03     123.771E-03    -228.997E-03     454.224E-03    -224.894E-03     103.940E-03
            1396     12.2185E-03     84.0116E-03    -18.5228E+06     66.8599E+06     87.9344E+06    -1.25541E+06    -226.476E-03     451.756E-03    -225.280E-03     133.095E-03    -230.072E-03     455.269E-03    -224.911E-03     113.345E-03
            1397     11.4995E-03     83.8275E-03    -25.2810E+06     60.0554E+06     79.8267E+06    -2.22407E+06    -227.279E-03     452.549E-03    -225.271E-03     144.482E-03    -231.183E-03     456.345E-03    -224.922E-03     124.309E-03
            1398     10.7801E-03     83.6324E-03    -30.7067E+06     53.5316E+06     71.4461E+06    -1.60042E+06    -227.858E-03     453.113E-03    -225.254E-03     149.799E-03    -231.849E-03     456.977E-03    -224.930E-03     129.751E-03
            1399     10.0620E-03     83.4295E-03    -36.1868E+06     48.5383E+06     65.2780E+06    -1.74614E+06    -228.182E-03     453.427E-03    -225.244E-03     152.612E-03    -232.193E-03     457.292E-03    -224.936E-03     132.798E-03
            1400     9.34355E-03     83.2243E-03    -42.5815E+06     42.2060E+06     60.8457E+06    -1.73501E+06    -228.175E-03     453.429E-03    -225.254E-03     153.225E-03    -232.124E-03     457.201E-03    -224.949E-03     133.842E-03
            1401     8.62413E-03     83.0195E-03    -50.9141E+06     15.0189E+06     50.3896E+06    -992.730E+03    -228.122E-03     453.403E-03    -225.281E-03     151.653E-03    -231.906E-03     456.914E-03    -224.977E-03     132.849E-03
            1402     7.90507E-03     82.8183E-03    -59.7073E+06    -25.8326E+06     35.3210E+06    -481.362E+03    -228.151E-03     453.461E-03    -225.311E-03     147.770E-03    -231.668E-03     456.572E-03    -225.010E-03     129.704E-03
            1403     7.18630E-03     82.6232E-03    -68.2811E+06    -59.4436E+06     20.9313E+06    -141.250E+03    -228.015E-03     453.344E-03    -225.329E-03     141.466E-03    -231.198E-03     456.012E-03    -225.039E-03     124.347E-03
            1404     6.46753E-03     82.4381E-03    -77.4471E+06    -88.5361E+06     6.11857E+06     77.8586E+03    -227.737E-03     453.074E-03    -225.337E-03     133.051E-03    -230.530E-03     455.260E-03    -225.066E-03     117.114E-03
            1405     5.74896E-03     82.2654E-03    -87.0739E+06    -116.278E+06    -9.85528E+06     199.700E+03    -227.347E-03     452.689E-03    -225.341E-03     122.837E-03    -229.714E-03     454.362E-03    -225.096E-03     108.299E-03
            1406     5.03020E-03     82.1075E-03    -96.8923E+06    -142.565E+06    -27.2770E+06     140.400E+03    -226.861E-03     452.208E-03    -225.347E-03     110.878E-03    -228.791E-03     453.367E-03    -225.136E-03     97.9179E-03
            1407     4.31108E-03     81.9675E-03    -107.098E+06    -168.367E+06    -46.4542E+06     106.276E+03    -226.464E-03     451.817E-03    -225.353E-03     97.5536E-03    -227.973E-03     452.483E-03    -225.186E-03     86.3061E-03
            1408     3.59242E-03     81.8454E-03    -117.509E+06    -197.009E+06    -67.4003E+06     257.894E+03    -226.194E-03     451.544E-03    -225.350E-03     83.0785E-03    -227.313E-03     451.741E-03    -225.230E-03     73.6344E-03
            1409     2.87391E-03     81.7441E-03    -127.524E+06    -222.558E+06    -89.8136E+06     373.712E+03    -225.901E-03     451.219E-03    -225.318E-03     67.5975E-03    -226.684E-03     451.019E-03    -225.260E-03     60.0068E-03
            1410     2.15530E-03     81.6634E-03    -135.946E+06    -244.282E+06    -112.142E+06     441.812E+03    -225.618E-03     450.886E-03    -225.267E-03     51.4675E-03    -226.127E-03     450.370E-03    -225.277E-03     45.7343E-03
            1411     1.43676E-03     81.6048E-03    -142.601E+06    -265.710E+06    -132.034E+06    -5.15283E+03    -225.425E-03     450.632E-03    -225.208E-03     34.9325E-03    -225.725E-03     449.866E-03    -225.276E-03     31.0367E-03
            1412     718.421E-06     81.5693E-03    -147.691E+06    -281.136E+06    -145.564E+06    -693.397E+03    -225.217E-03     450.396E-03    -225.179E-03     19.0917E-03    -225.390E-03     449.469E-03    -225.285E-03     16.9532E-03
            1413     13.6567E-03     82.8395E-03    -4.56865E+06     80.6848E+06     94.2683E+06     1.04948E+06    -224.281E-03     449.516E-03    -225.235E-03     90.5702E-03    -226.706E-03     451.938E-03    -224.874E-03     74.1701E-03
            1414     12.9371E-03     82.6832E-03    -11.6502E+06     76.8224E+06     93.6752E+06     772.752E+03    -225.326E-03     450.607E-03    -225.282E-03     122.111E-03    -228.753E-03     453.995E-03    -224.908E-03     102.306E-03
            1415     12.2175E-03     82.5234E-03    -18.1071E+06     71.7100E+06     89.7143E+06    -1.40968E+06    -226.534E-03     451.826E-03    -225.293E-03     131.498E-03    -230.118E-03     455.341E-03    -224.922E-03     111.709E-03
            1416     11.4992E-03     82.3402E-03    -22.8757E+06     60.7617E+06     82.5944E+06    -3.82167E+06    -227.478E-03     452.755E-03    -225.277E-03     143.675E-03    -231.367E-03     456.539E-03    -224.919E-03     123.446E-03
            1417     10.7815E-03     82.1446E-03    -28.5567E+06     49.7992E+06     73.4820E+06    -3.54834E+06    -227.942E-03     453.195E-03    -225.253E-03     149.743E-03    -231.917E-03     457.031E-03    -224.916E-03     129.675E-03
            1418     10.0624E-03     81.9429E-03    -35.8514E+06     48.2537E+06     65.5698E+06    -2.27533E+06    -228.058E-03     453.292E-03    -225.234E-03     152.981E-03    -232.066E-03     457.154E-03    -224.924E-03     133.194E-03
            1419     9.34292E-03     81.7376E-03    -44.4254E+06     40.3871E+06     58.5335E+06    -1.95118E+06    -228.072E-03     453.318E-03    -225.247E-03     153.442E-03    -232.024E-03     457.087E-03    -224.948E-03     134.073E-03
            1420     8.62408E-03     81.5334E-03    -52.6973E+06     13.4842E+06     48.6005E+06    -1.33291E+06    -228.170E-03     453.448E-03    -225.279E-03     151.567E-03    -231.956E-03     456.954E-03    -224.979E-03     132.762E-03
            1421     7.90525E-03     81.3313E-03    -60.9285E+06    -26.7869E+06     33.8990E+06    -946.500E+03    -228.163E-03     453.467E-03    -225.304E-03     147.511E-03    -231.682E-03     456.575E-03    -225.007E-03     129.428E-03
            1422     7.18645E-03     81.1368E-03    -69.8089E+06    -60.4020E+06     19.4708E+06    -564.156E+03    -227.928E-03     453.252E-03    -225.323E-03     141.380E-03    -231.115E-03     455.920E-03    -225.037E-03     124.252E-03
            1423     6.46758E-03     80.9515E-03    -79.0696E+06    -88.9652E+06     4.73070E+06    -201.540E+03    -227.624E-03     452.967E-03    -225.342E-03     133.235E-03    -230.423E-03     455.155E-03    -225.075E-03     117.305E-03
            1424     5.74861E-03     80.7789E-03    -88.6302E+06    -116.579E+06    -11.1746E+06    -70.6238E+03    -227.235E-03     452.598E-03    -225.363E-03     123.002E-03    -229.607E-03     454.274E-03    -225.121E-03     108.475E-03
            1425     5.02956E-03     80.6215E-03    -98.5028E+06    -142.484E+06    -28.5884E+06     17.6016E+03    -226.836E-03     452.218E-03    -225.382E-03     110.944E-03    -228.771E-03     453.380E-03    -225.176E-03     97.9983E-03
            1426     4.31098E-03     80.4810E-03    -108.670E+06    -168.505E+06    -47.9101E+06     128.736E+03    -226.521E-03     451.912E-03    -225.391E-03     97.4696E-03    -228.032E-03     452.578E-03    -225.229E-03     86.2320E-03
            1427     3.59228E-03     80.3591E-03    -118.681E+06    -197.212E+06    -68.8664E+06     272.601E+03    -226.244E-03     451.627E-03    -225.383E-03     82.9283E-03    -227.364E-03     451.825E-03    -225.269E-03     73.4887E-03
            1428     2.87373E-03     80.2573E-03    -128.165E+06    -222.544E+06    -91.0777E+06     162.380E+03    -225.990E-03     451.331E-03    -225.341E-03     67.4488E-03    -226.773E-03     451.133E-03    -225.288E-03     59.8516E-03
            1429     2.15549E-03     80.1769E-03    -136.701E+06    -244.017E+06    -112.619E+06     223.764E+03    -225.678E-03     450.953E-03    -225.275E-03     51.3100E-03    -226.190E-03     450.440E-03    -225.286E-03     45.5713E-03
            1430     1.43703E-03     80.1186E-03    -143.459E+06    -264.726E+06    -130.989E+06     742.537E+03    -225.409E-03     450.624E-03    -225.215E-03     34.8251E-03    -225.716E-03     449.861E-03    -225.278E-03     30.9511E-03
            1431     718.579E-06     80.0826E-03    -149.155E+06    -280.671E+06    -145.504E+06     1.07721E+06    -225.086E-03     450.397E-03    -225.311E-03     18.7855E-03    -225.266E-03     449.474E-03    -225.416E-03     16.6892E-03
            1432     13.6567E-03     81.3528E-03    -4.79341E+06     79.5183E+06     93.7478E+06     1.01711E+06    -224.891E-03     450.094E-03    -225.203E-03     89.9998E-03    -227.301E-03     452.497E-03    -224.842E-03     73.6180E-03
            1433     12.9379E-03     81.1971E-03    -8.67276E+06     80.0813E+06     96.3509E+06     442.743E+03    -225.506E-03     450.738E-03    -225.233E-03     122.480E-03    -228.914E-03     454.121E-03    -224.854E-03     102.748E-03
            1434     12.2193E-03     81.0368E-03    -14.0557E+06     74.7842E+06     93.1681E+06    -519.526E+03    -226.250E-03     451.499E-03    -225.249E-03     131.415E-03    -229.802E-03     454.997E-03    -224.872E-03     111.753E-03
            1435     11.5003E-03     80.8526E-03    -23.4265E+06     64.8302E+06     81.6089E+06    -1.40702E+06    -227.100E-03     452.335E-03    -225.235E-03     143.521E-03    -230.979E-03     456.125E-03    -224.887E-03     123.411E-03
            1436     10.7805E-03     80.6579E-03    -32.6629E+06     49.9131E+06     68.0950E+06    -3.97354E+06    -227.620E-03     452.840E-03    -225.220E-03     149.681E-03    -231.601E-03     456.685E-03    -224.905E-03     129.641E-03
            1437     10.0617E-03     80.4558E-03    -39.3316E+06     43.1746E+06     61.1283E+06    -4.02104E+06    -227.949E-03     453.175E-03    -225.226E-03     152.721E-03    -231.956E-03     457.019E-03    -224.926E-03     132.918E-03
            1438     9.34313E-03     80.2513E-03    -45.6419E+06     39.6727E+06     57.4203E+06    -2.11729E+06    -228.159E-03     453.403E-03    -225.244E-03     153.098E-03    -232.114E-03     457.170E-03    -224.948E-03     133.707E-03
            1439     8.62424E-03     80.0462E-03    -53.7459E+06     12.5468E+06     47.5527E+06    -1.75751E+06    -228.182E-03     453.451E-03    -225.269E-03     151.408E-03    -231.972E-03     456.957E-03    -224.972E-03     132.579E-03
            1440     7.90548E-03     79.8450E-03    -62.5107E+06    -28.2575E+06     32.5774E+06    -1.26617E+06    -228.008E-03     453.308E-03    -225.300E-03     147.667E-03    -231.531E-03     456.414E-03    -225.005E-03     129.597E-03
            1441     7.18635E-03     79.6505E-03    -71.4327E+06    -61.1946E+06     17.9290E+06    -817.062E+03    -227.801E-03     453.135E-03    -225.334E-03     141.685E-03    -230.991E-03     455.803E-03    -225.052E-03     124.587E-03
            1442     6.46729E-03     79.4653E-03    -80.4771E+06     -89.758E+06     3.14139E+06    -676.658E+03    -227.548E-03     452.915E-03    -225.368E-03     133.382E-03    -230.348E-03     455.103E-03    -225.105E-03     117.467E-03
            1443     5.74835E-03     79.2927E-03    -89.6292E+06    -116.938E+06    -12.5003E+06    -469.175E+03    -227.250E-03     452.646E-03    -225.396E-03     122.943E-03    -229.624E-03     454.323E-03    -225.159E-03     108.413E-03
            1444     5.02969E-03     79.1351E-03    -99.3637E+06    -143.003E+06    -29.8332E+06    -190.677E+03    -226.972E-03     452.380E-03    -225.408E-03     110.833E-03    -228.906E-03     453.541E-03    -225.206E-03     97.8803E-03
            1445     4.31088E-03     78.9943E-03    -109.281E+06    -168.641E+06    -49.0482E+06     11.4570E+03    -226.658E-03     452.056E-03    -225.398E-03     97.3425E-03    -228.170E-03     452.723E-03    -225.240E-03     86.1014E-03
            1446     3.59233E-03     78.8726E-03    -119.112E+06    -197.339E+06    -69.7427E+06    -155.358E+03    -226.300E-03     451.672E-03    -225.372E-03     82.7456E-03    -227.420E-03     451.871E-03    -225.262E-03     73.2951E-03
            1447     2.87385E-03     78.7705E-03    -128.608E+06    -222.519E+06    -91.6160E+06    -10.8422E+03    -225.917E-03     451.248E-03    -225.331E-03     67.3015E-03    -226.700E-03     451.051E-03    -225.280E-03     59.7080E-03
            1448     2.15527E-03     78.6903E-03    -137.520E+06    -244.065E+06    -113.569E+06     102.955E+03    -225.585E-03     450.874E-03    -225.289E-03     51.2584E-03    -226.100E-03     450.363E-03    -225.303E-03     45.5161E-03
            1449     1.43685E-03     78.6324E-03    -145.059E+06    -265.489E+06    -132.533E+06     234.283E+03    -225.343E-03     450.621E-03    -225.277E-03     35.0540E-03    -225.656E-03     449.860E-03    -225.345E-03     31.1568E-03
            1450     718.362E-06     78.5964E-03    -148.433E+06    -278.032E+06    -144.210E+06     770.692E+03    -225.220E-03     450.598E-03    -225.378E-03     18.9597E-03    -225.403E-03     449.686E-03    -225.481E-03     16.8513E-03
            1451     13.6574E-03     79.8659E-03    -4.46365E+06     79.1290E+06     93.7346E+06    -408.137E+03    -225.145E-03     450.327E-03    -225.183E-03     90.3813E-03    -227.550E-03     452.726E-03    -224.822E-03     73.9969E-03
            1452     12.9385E-03     79.7100E-03    -9.91761E+06     80.8239E+06     96.6341E+06    -650.354E+03    -225.805E-03     451.003E-03    -225.198E-03     122.648E-03    -229.225E-03     454.395E-03    -224.818E-03     102.868E-03
            1453     12.2192E-03     79.5501E-03    -16.4863E+06     74.5176E+06     92.8957E+06     191.000E+03    -226.170E-03     451.378E-03    -225.208E-03     131.738E-03    -229.741E-03     454.886E-03    -224.827E-03     112.081E-03
            1454     11.4999E-03     79.3663E-03    -22.3039E+06     66.3810E+06     83.3011E+06     477.460E+03    -226.872E-03     452.075E-03    -225.203E-03     143.423E-03    -230.747E-03     455.865E-03    -224.850E-03     123.362E-03
            1455     10.7816E-03     79.1714E-03    -28.7036E+06     54.9322E+06     71.3904E+06    -14.0406E+03    -227.447E-03     452.643E-03    -225.196E-03     149.173E-03    -231.414E-03     456.496E-03    -224.877E-03     129.193E-03
            1456     10.0625E-03     78.9695E-03    -38.1318E+06     45.0070E+06     61.9733E+06    -2.16884E+06    -227.824E-03     453.029E-03    -225.205E-03     152.375E-03    -231.825E-03     456.874E-03    -224.905E-03     132.602E-03
            1457     9.34326E-03     78.7641E-03    -47.1271E+06     37.3068E+06     56.0197E+06    -3.60822E+06    -227.937E-03     453.169E-03    -225.232E-03     153.229E-03    -231.891E-03     456.926E-03    -224.938E-03     133.850E-03
            1458     8.62444E-03     78.5597E-03    -54.5934E+06     9.79540E+06     46.1228E+06    -2.28738E+06    -227.929E-03     453.207E-03    -225.278E-03     151.761E-03    -231.716E-03     456.702E-03    -224.983E-03     132.963E-03
            1459     7.90498E-03     78.3591E-03    -62.8931E+06    -29.7042E+06     31.4602E+06    -1.08694E+06    -227.926E-03     453.254E-03    -225.328E-03     147.985E-03    -231.447E-03     456.355E-03    -225.036E-03     129.941E-03
            1460     7.18590E-03     78.1640E-03    -71.6517E+06    -61.4576E+06     17.0798E+06    -828.679E+03    -227.860E-03     453.228E-03    -225.368E-03     141.800E-03    -231.050E-03     455.895E-03    -225.089E-03     124.707E-03
            1461     6.46704E-03     77.9791E-03    -80.5978E+06    -90.1867E+06     2.34012E+06    -822.438E+03    -227.660E-03     453.057E-03    -225.397E-03     133.286E-03    -230.460E-03     455.243E-03    -225.137E-03     117.357E-03
            1462     5.74821E-03     77.8061E-03    -90.2082E+06    -117.755E+06    -13.5440E+06    -659.938E+03    -227.377E-03     452.790E-03    -225.413E-03     122.854E-03    -229.750E-03     454.464E-03    -225.179E-03     108.312E-03
            1463     5.02942E-03     77.6484E-03    -99.9938E+06    -143.590E+06    -30.7836E+06    -408.154E+03    -227.092E-03     452.502E-03    -225.409E-03     110.772E-03    -229.027E-03     453.661E-03    -225.210E-03     97.8096E-03
            1464     4.31099E-03     77.5076E-03    -109.867E+06    -168.819E+06    -49.8089E+06    -345.073E+03    -226.753E-03     452.134E-03    -225.381E-03     97.2470E-03    -228.266E-03     452.802E-03    -225.226E-03     85.9894E-03
            1465     3.59256E-03     77.3857E-03    -119.765E+06    -197.525E+06    -70.3752E+06    -249.080E+03    -226.270E-03     451.616E-03    -225.345E-03     82.6296E-03    -227.392E-03     451.815E-03    -225.237E-03     73.1738E-03
            1466     2.87399E-03     77.2843E-03    -129.532E+06    -222.812E+06    -92.2741E+06     73.2215E+03    -225.750E-03     451.074E-03    -225.324E-03     67.3572E-03    -226.537E-03     450.878E-03    -225.275E-03     59.7616E-03
            1467     2.15533E-03     77.2040E-03    -138.237E+06    -244.026E+06    -114.327E+06     270.589E+03    -225.424E-03     450.760E-03    -225.336E-03     51.4019E-03    -225.942E-03     450.252E-03    -225.353E-03     45.6604E-03
            1468     1.43664E-03     77.1460E-03    -144.750E+06    -265.189E+06    -133.805E+06    -261.222E+03    -225.345E-03     450.730E-03    -225.385E-03     35.1131E-03    -225.655E-03     449.973E-03    -225.460E-03     31.2044E-03
            1469     718.081E-06     77.1098E-03    -148.886E+06    -278.317E+06    -146.526E+06    -1.00887E+06    -225.544E-03     450.880E-03    -225.336E-03     19.1946E-03    -225.726E-03     449.970E-03    -225.449E-03     17.0627E-03
            1470     13.6567E-03     78.3766E-03    -5.70345E+06     79.6271E+06     93.9116E+06    -584.916E+03    -225.230E-03     450.403E-03    -225.173E-03     90.1120E-03    -227.651E-03     452.814E-03    -224.810E-03     73.6566E-03
            1471     12.9387E-03     78.2233E-03    -11.1163E+06     79.6770E+06     95.8426E+06    -50.4389E+03    -225.718E-03     450.902E-03    -225.184E-03     122.593E-03    -229.158E-03     454.307E-03    -224.804E-03     102.744E-03
            1472     12.2200E-03     78.0636E-03    -17.1194E+06     74.6395E+06     92.1331E+06    -612.039E+03    -226.256E-03     451.445E-03    -225.188E-03     132.119E-03    -229.851E-03     454.976E-03    -224.811E-03     112.372E-03
            1473     11.5013E-03     77.8801E-03    -23.3330E+06     66.1213E+06     83.3116E+06    -1.12092E+06    -226.877E-03     452.063E-03    -225.186E-03     143.937E-03    -230.774E-03     455.870E-03    -224.831E-03     123.810E-03
            1474     10.7815E-03     77.6850E-03    -29.7724E+06     55.1854E+06     72.1236E+06     157.102E+03    -227.318E-03     452.507E-03    -225.189E-03     150.062E-03    -231.297E-03     456.367E-03    -224.865E-03     130.130E-03
            1475     10.0625E-03     77.4830E-03    -35.3183E+06     49.3326E+06     64.5084E+06     790.590E+03    -227.668E-03     452.879E-03    -225.212E-03     153.330E-03    -231.666E-03     456.741E-03    -224.910E-03     133.661E-03
            1476     9.34334E-03     77.2783E-03    -43.3186E+06     37.9046E+06     57.0513E+06    -346.505E+03    -227.821E-03     453.076E-03    -225.254E-03     153.781E-03    -231.759E-03     456.829E-03    -224.961E-03     134.486E-03
            1477     8.62344E-03     77.0738E-03    -53.5146E+06     7.40986E+06     44.8941E+06    -933.328E+03    -227.957E-03     453.264E-03    -225.307E-03     151.752E-03    -231.729E-03     456.743E-03    -225.016E-03     132.992E-03
            1478     7.90460E-03     76.8724E-03    -62.6536E+06    -30.1745E+06     30.8769E+06    -855.173E+03    -228.033E-03     453.387E-03    -225.354E-03     147.620E-03    -231.549E-03     456.484E-03    -225.065E-03     129.562E-03
            1479     7.18577E-03     76.6777E-03    -71.4115E+06    -61.9493E+06     16.8428E+06    -724.215E+03    -227.954E-03     453.339E-03    -225.385E-03     141.470E-03    -231.139E-03     456.002E-03    -225.108E-03     124.358E-03
            1480     6.46693E-03     76.4921E-03    -80.7752E+06    -90.5568E+06     1.88841E+06    -512.875E+03    -227.780E-03     453.180E-03    -225.400E-03     133.023E-03    -230.578E-03     455.365E-03    -225.143E-03     117.081E-03
            1481     5.74831E-03     76.3197E-03    -90.3708E+06    -118.211E+06    -13.9239E+06    -402.816E+03    -227.487E-03     452.888E-03    -225.401E-03     122.581E-03    -229.858E-03     454.558E-03    -225.168E-03     108.034E-03
            1482     5.02972E-03     76.1616E-03    -100.208E+06    -143.891E+06    -31.0552E+06    -355.597E+03    -227.080E-03     452.467E-03    -225.387E-03     110.621E-03    -229.013E-03     453.624E-03    -225.189E-03     97.6587E-03
            1483     4.31116E-03     76.0207E-03    -110.233E+06    -169.101E+06    -49.9461E+06    -290.735E+03    -226.601E-03     451.970E-03    -225.369E-03     97.3070E-03    -228.116E-03     452.639E-03    -225.214E-03     86.0492E-03
            1484     3.59254E-03     75.8993E-03    -120.034E+06    -197.702E+06    -70.3589E+06    -4.76993E+03    -226.132E-03     451.495E-03    -225.363E-03     82.8127E-03    -227.258E-03     451.696E-03    -225.254E-03     73.3566E-03
            1485     2.87377E-03     75.7983E-03    -129.593E+06    -223.120E+06    -92.4848E+06    -124.242E+03    -225.739E-03     451.102E-03    -225.363E-03     67.4915E-03    -226.528E-03     450.907E-03    -225.314E-03     59.8831E-03
            1486     2.15497E-03     75.7178E-03    -138.252E+06    -244.128E+06    -114.445E+06    -243.599E+03    -225.490E-03     450.869E-03    -225.379E-03     51.4469E-03    -226.008E-03     450.361E-03    -225.397E-03     45.7080E-03
            1487     1.43648E-03     75.6594E-03    -144.789E+06    -264.470E+06    -132.899E+06     16.5862E+03    -225.467E-03     450.868E-03    -225.401E-03     35.0790E-03    -225.779E-03     450.112E-03    -225.472E-03     31.1943E-03
            1488     718.383E-06     75.6225E-03    -149.927E+06    -279.708E+06    -147.119E+06    -19.9180E+03    -225.649E-03     450.845E-03    -225.196E-03     19.1447E-03    -225.833E-03     449.932E-03    -225.309E-03     17.0093E-03
            1489     13.6584E-03     76.8906E-03    -5.20020E+06     79.6689E+06     93.3643E+06    -960.937E+03    -224.676E-03     449.844E-03    -225.168E-03     90.6390E-03    -227.107E-03     452.268E-03    -224.809E-03     74.1600E-03
            1490     12.9383E-03     76.7363E-03    -10.3706E+06     78.4345E+06     95.0605E+06    -615.934E+03    -225.548E-03     450.750E-03    -225.202E-03     123.330E-03    -228.985E-03     454.153E-03    -224.825E-03     103.526E-03
            1491     12.2193E-03     76.5764E-03    -16.1544E+06     75.7560E+06     92.9040E+06    -101.129E+03    -226.191E-03     451.414E-03    -225.223E-03     132.909E-03    -229.786E-03     454.951E-03    -224.845E-03     113.219E-03
            1492     11.5000E-03     76.3935E-03    -22.9452E+06     65.8383E+06     83.3540E+06     22.7723E+03    -226.911E-03     452.139E-03    -225.228E-03     144.867E-03    -230.816E-03     455.954E-03    -224.873E-03     124.774E-03
            1493     10.7811E-03     76.1993E-03    -30.0318E+06     53.7127E+06     71.1350E+06    -155.054E+03    -227.449E-03     452.680E-03    -225.231E-03     150.592E-03    -231.433E-03     456.541E-03    -224.909E-03     130.653E-03
            1494     10.0614E-03     75.9965E-03    -37.8248E+06     47.6851E+06     62.0766E+06    -187.665E+03    -227.770E-03     453.016E-03    -225.246E-03     153.238E-03    -231.773E-03     456.874E-03    -224.950E-03     133.553E-03
            1495     9.34210E-03     75.7918E-03    -45.6572E+06     38.3921E+06     55.5951E+06     1.08154E+06    -228.017E-03     453.295E-03    -225.278E-03     153.260E-03    -231.962E-03     457.053E-03    -224.990E-03     133.954E-03
            1496     8.62390E-03     75.5870E-03    -53.5120E+06     9.96890E+06     45.6041E+06     1.08122E+06    -228.133E-03     453.450E-03    -225.317E-03     151.267E-03    -231.908E-03     456.939E-03    -225.026E-03     132.500E-03
            1497     7.90495E-03     75.3860E-03    -62.4470E+06    -29.5380E+06     30.9379E+06    -152.766E+03    -228.124E-03     453.473E-03    -225.349E-03     147.394E-03    -231.637E-03     456.570E-03    -225.061E-03     129.336E-03
            1498     7.18596E-03     75.1911E-03    -71.8106E+06    -62.3531E+06     16.4169E+06    -237.208E+03    -228.051E-03     453.419E-03    -225.369E-03     141.325E-03    -231.235E-03     456.080E-03    -225.092E-03     124.212E-03
            1499     6.46721E-03     75.0056E-03    -80.9629E+06    -90.6163E+06     1.86126E+06    -194.776E+03    -227.820E-03     453.194E-03    -225.374E-03     132.865E-03    -230.616E-03     455.376E-03    -225.116E-03     116.929E-03
            1500     5.74854E-03     74.8327E-03    -90.3082E+06    -118.236E+06    -13.6537E+06    -224.611E+03    -227.453E-03     452.824E-03    -225.371E-03     122.527E-03    -229.823E-03     454.493E-03    -225.137E-03     107.987E-03
            1501     5.02996E-03     74.6751E-03    -100.136E+06    -144.068E+06    -30.6810E+06    -194.655E+03    -226.917E-03     452.286E-03    -225.369E-03     110.669E-03    -228.852E-03     453.443E-03    -225.168E-03     97.7128E-03
            1502     4.31100E-03     74.5346E-03    -110.044E+06    -169.358E+06    -49.4935E+06    -293.409E+03    -226.371E-03     451.753E-03    -225.382E-03     97.3833E-03    -227.885E-03     452.419E-03    -225.225E-03     86.1404E-03
            1503     3.59204E-03     74.4130E-03    -120.114E+06    -198.351E+06    -69.9485E+06    -266.419E+03    -226.076E-03     451.482E-03    -225.406E-03     82.7917E-03    -227.201E-03     451.680E-03    -225.294E-03     73.3323E-03
            1504     2.87353E-03     74.3117E-03    -129.495E+06    -223.044E+06    -91.8100E+06    -101.666E+03    -225.884E-03     451.286E-03    -225.402E-03     67.3002E-03    -226.673E-03     451.089E-03    -225.350E-03     59.6885E-03
            1505     2.15523E-03     74.2314E-03    -138.082E+06    -243.852E+06    -114.204E+06    -305.077E+03    -225.669E-03     451.037E-03    -225.367E-03     51.3424E-03    -226.186E-03     450.528E-03    -225.384E-03     45.6018E-03
            1506     1.43684E-03     74.1724E-03    -145.242E+06    -265.249E+06    -133.154E+06    -286.542E+03    -225.500E-03     450.831E-03    -225.331E-03     35.1650E-03    -225.813E-03     450.073E-03    -225.402E-03     31.2682E-03
            1507     718.371E-06     74.1357E-03    -149.863E+06    -279.714E+06    -146.223E+06     238.501E+03    -225.545E-03     450.657E-03    -225.112E-03     19.1243E-03    -225.730E-03     449.742E-03    -225.221E-03     16.9973E-03
            1508     13.6555E-03     75.4036E-03    -5.00132E+06     80.9259E+06     93.5955E+06    -415.216E+03    -224.280E-03     449.460E-03    -225.180E-03     90.7784E-03    -226.703E-03     451.882E-03    -224.822E-03     74.3813E-03
            1509     12.9376E-03     75.2488E-03    -11.6587E+06     77.9510E+06     94.4675E+06    -971.016E+03    -225.270E-03     450.503E-03    -225.233E-03     122.763E-03    -228.687E-03     453.881E-03    -224.857E-03     103.057E-03
            1510     12.2184E-03     75.0904E-03    -17.7854E+06     74.4314E+06     91.4804E+06    -439.455E+03    -226.042E-03     451.306E-03    -225.265E-03     132.171E-03    -229.612E-03     454.813E-03    -224.890E-03     112.566E-03
            1511     11.4990E-03     74.9066E-03    -24.2921E+06     65.4425E+06     81.5163E+06    -94.2874E+03    -227.018E-03     452.284E-03    -225.266E-03     143.884E-03    -230.907E-03     456.083E-03    -224.918E-03     123.793E-03
            1512     10.7801E-03     74.7117E-03    -31.0371E+06     52.8849E+06     69.2563E+06    -85.3048E+03    -227.676E-03     452.929E-03    -225.254E-03     149.539E-03    -231.653E-03     456.783E-03    -224.939E-03     129.550E-03
            1513     10.0618E-03     74.5104E-03    -38.1215E+06     47.0575E+06     61.8023E+06     1.19193E+06    -227.999E-03     453.254E-03    -225.255E-03     152.576E-03    -232.002E-03     457.109E-03    -224.959E-03     132.857E-03
            1514     9.34330E-03     74.3049E-03    -46.0136E+06     38.6438E+06     55.8779E+06     1.26107E+06    -228.069E-03     453.344E-03    -225.275E-03     153.027E-03    -232.015E-03     457.102E-03    -224.985E-03     133.712E-03
            1515     8.62377E-03     74.1004E-03    -54.3782E+06     11.3002E+06     45.4984E+06     703.931E+03    -228.112E-03     453.421E-03    -225.309E-03     151.356E-03    -231.896E-03     456.920E-03    -225.019E-03     132.578E-03
            1516     7.90475E-03     73.8995E-03    -62.8883E+06    -28.1917E+06     31.2584E+06     909.999E+03    -228.240E-03     453.577E-03    -225.338E-03     147.539E-03    -231.760E-03     456.683E-03    -225.049E-03     129.487E-03
            1517     7.18615E-03     73.7041E-03    -71.6206E+06    -61.4980E+06     17.1626E+06     219.629E+03    -228.147E-03     453.495E-03    -225.348E-03     141.347E-03    -231.335E-03     456.161E-03    -225.069E-03     124.227E-03
            1518     6.46752E-03     73.5190E-03    -80.6293E+06    -90.5467E+06     2.67437E+06    -169.719E+03    -227.770E-03     453.120E-03    -225.350E-03     132.947E-03    -230.566E-03     455.301E-03    -225.089E-03     117.022E-03
            1519     5.74872E-03     73.3462E-03    -89.9353E+06    -118.326E+06    -12.9387E+06    -225.273E+03    -227.291E-03     452.650E-03    -225.359E-03     122.661E-03    -229.659E-03     454.316E-03    -225.121E-03     108.141E-03
            1520     5.02976E-03     73.1888E-03    -99.3940E+06    -143.961E+06    -29.9171E+06    -345.456E+03    -226.827E-03     452.199E-03    -225.372E-03     110.649E-03    -228.759E-03     453.355E-03    -225.169E-03     97.6946E-03
            1521     4.31094E-03     73.0487E-03    -109.401E+06    -169.457E+06    -48.9862E+06    -402.292E+03    -226.453E-03     451.837E-03    -225.384E-03     97.2118E-03    -227.963E-03     452.499E-03    -225.225E-03     85.9695E-03
            1522     3.59229E-03     72.9265E-03    -119.518E+06    -198.679E+06    -69.6643E+06    -460.749E+03    -226.143E-03     451.534E-03    -225.391E-03     82.5326E-03    -227.261E-03     451.724E-03    -225.278E-03     73.0843E-03
            1523     2.87370E-03     72.8249E-03    -129.294E+06    -223.365E+06    -91.2092E+06    -220.206E+03    -225.883E-03     451.258E-03    -225.375E-03     67.1179E-03    -226.669E-03     451.056E-03    -225.320E-03     59.5124E-03
            1524     2.15517E-03     72.7446E-03    -138.018E+06    -243.845E+06    -113.270E+06    -2.94722E+03    -225.676E-03     451.005E-03    -225.329E-03     51.3277E-03    -226.194E-03     450.496E-03    -225.341E-03     45.5874E-03
            1525     1.43681E-03     72.6859E-03    -145.008E+06    -265.616E+06    -133.412E+06    -354.241E+03    -225.448E-03     450.726E-03    -225.279E-03     35.1940E-03    -225.759E-03     449.967E-03    -225.350E-03     31.2808E-03
            1526     718.388E-06     72.6493E-03    -149.249E+06    -280.515E+06    -146.182E+06    -663.934E+03    -225.403E-03     450.560E-03    -225.158E-03     19.2274E-03    -225.584E-03     449.641E-03    -225.266E-03     17.0773E-03
            1527     13.6586E-03     73.9176E-03    -5.10476E+06     82.2135E+06     94.5059E+06     653.432E+03    -224.560E-03     449.747E-03    -225.186E-03     90.4592E-03    -226.984E-03     452.171E-03    -224.826E-03     74.0675E-03
            1528     12.9378E-03     73.7634E-03    -10.5338E+06     79.0917E+06     95.4996E+06     170.784E+03    -225.193E-03     450.425E-03    -225.232E-03     122.283E-03    -228.604E-03     453.802E-03    -224.854E-03     102.576E-03
            1529     12.2184E-03     73.6035E-03    -17.3899E+06     73.3430E+06     91.1050E+06    -609.333E+03    -226.198E-03     451.453E-03    -225.255E-03     131.455E-03    -229.756E-03     454.946E-03    -224.881E-03     111.827E-03
            1530     11.5000E-03     73.4197E-03    -23.9933E+06     65.0610E+06      80.958E+06    -33.1188E+03    -227.057E-03     452.301E-03    -225.244E-03     143.103E-03    -230.934E-03     456.089E-03    -224.899E-03     123.003E-03
            1531     10.7812E-03     73.2255E-03    -31.0767E+06     51.9375E+06     68.2635E+06     983.994E+03    -227.531E-03     452.761E-03    -225.230E-03     149.143E-03    -231.498E-03     456.605E-03    -224.919E-03     129.186E-03
            1532     10.0618E-03     73.0230E-03    -38.2736E+06     46.3413E+06     61.1862E+06     1.25069E+06    -227.874E-03     453.115E-03    -225.240E-03     152.634E-03    -231.873E-03     456.965E-03    -224.946E-03     132.936E-03
            1533     9.34253E-03     72.8183E-03    -45.4873E+06     39.0982E+06     56.3498E+06     1.73498E+06    -228.045E-03     453.315E-03    -225.269E-03     153.139E-03    -231.991E-03     457.074E-03    -224.978E-03     133.837E-03
            1534     8.62373E-03     72.6142E-03    -53.8128E+06     12.4417E+06     46.6912E+06     1.44911E+06    -228.206E-03     453.508E-03    -225.302E-03     151.237E-03    -231.988E-03     457.008E-03    -225.008E-03     132.467E-03
            1535     7.90506E-03     72.4122E-03    -62.2054E+06    -26.9717E+06     32.8481E+06     363.725E+03    -228.255E-03     453.580E-03    -225.325E-03     147.372E-03    -231.773E-03     456.687E-03    -225.032E-03     129.311E-03
            1536     7.18634E-03     72.2175E-03    -70.3779E+06    -60.7243E+06     18.6881E+06     76.8180E+03    -228.029E-03     453.367E-03    -225.338E-03     141.332E-03    -231.214E-03     456.032E-03    -225.054E-03     124.219E-03
            1537     6.46745E-03     72.0324E-03    -79.2274E+06    -90.3312E+06     3.91695E+06     26.1333E+03    -227.662E-03     453.013E-03    -225.351E-03     133.052E-03    -230.453E-03     455.191E-03    -225.086E-03     117.140E-03
            1538     5.74857E-03     71.8601E-03    -88.5862E+06    -118.227E+06    -11.7742E+06    -116.603E+03    -227.271E-03     452.639E-03    -225.368E-03     122.709E-03    -229.634E-03     454.302E-03    -225.127E-03     108.192E-03
            1539     5.02973E-03     71.7026E-03    -98.4068E+06    -144.032E+06    -29.0211E+06    -263.112E+03    -226.959E-03     452.334E-03    -225.374E-03     110.604E-03    -228.887E-03     453.485E-03    -225.168E-03     97.6455E-03
            1540     4.31113E-03     71.5620E-03    -108.297E+06    -169.476E+06    -47.9630E+06    -171.746E+03    -226.627E-03     451.987E-03    -225.360E-03     97.1055E-03    -228.133E-03     452.646E-03    -225.197E-03     85.8556E-03
            1541     3.59262E-03     71.4401E-03    -118.324E+06    -198.342E+06    -68.7652E+06    -183.778E+03    -226.203E-03     451.540E-03    -225.337E-03     82.5430E-03    -227.317E-03     451.729E-03    -225.222E-03     73.1015E-03
            1542     2.87393E-03     71.3387E-03    -128.175E+06    -223.782E+06    -90.7219E+06    -499.628E+03    -225.836E-03     451.144E-03    -225.308E-03     67.1682E-03    -226.616E-03     450.938E-03    -225.251E-03     59.5717E-03
            1543     2.15538E-03     71.2580E-03    -136.665E+06    -244.694E+06    -112.288E+06    -270.767E+03    -225.571E-03     450.842E-03    -225.271E-03     51.2294E-03    -226.081E-03     450.324E-03    -225.279E-03     45.4955E-03
            1544     1.43690E-03     71.1995E-03    -143.174E+06    -265.045E+06    -131.931E+06    -35.7681E+03    -225.379E-03     450.613E-03    -225.235E-03     35.0393E-03    -225.684E-03     449.852E-03    -225.302E-03     31.1269E-03
            1545     718.413E-06     71.1631E-03    -146.961E+06    -281.823E+06    -144.972E+06    -540.033E+03    -225.309E-03     450.491E-03    -225.182E-03     19.2644E-03    -225.479E-03     449.561E-03    -225.286E-03     17.1006E-03
            1546     13.6558E-03     72.4307E-03    -4.64925E+06      81.162E+06     93.4406E+06     81.3099E+03    -224.849E-03     450.049E-03    -225.200E-03     91.2803E-03    -227.295E-03     452.495E-03    -224.844E-03     74.7419E-03
            1547     12.9380E-03     72.2772E-03    -9.96112E+06     79.6194E+06     95.3113E+06     721.988E+03    -225.768E-03     450.993E-03    -225.225E-03     122.733E-03    -229.198E-03     454.393E-03    -224.849E-03     102.929E-03
            1548     12.2195E-03     72.1162E-03    -15.4168E+06     75.7428E+06     92.5376E+06     194.688E+03    -226.251E-03     451.486E-03    -225.235E-03     132.125E-03    -229.817E-03     454.998E-03    -224.860E-03     112.494E-03
            1549     11.5002E-03     71.9333E-03    -21.5743E+06     62.2638E+06     82.6800E+06     467.895E+03    -226.992E-03     452.228E-03    -225.236E-03     143.798E-03    -230.861E-03     456.002E-03    -224.882E-03     123.738E-03
            1550     10.7809E-03     71.7387E-03    -27.8592E+06     49.3542E+06     71.6823E+06     2.78051E+06    -227.549E-03     452.784E-03    -225.235E-03     149.656E-03    -231.501E-03     456.604E-03    -224.908E-03     129.764E-03
            1551     10.0620E-03     71.5372E-03    -35.6863E+06     47.7797E+06     64.1396E+06     3.68945E+06    -227.889E-03     453.128E-03    -225.239E-03     152.577E-03    -231.876E-03     456.972E-03    -224.936E-03     132.932E-03
            1552     9.34300E-03     71.3317E-03    -44.3507E+06     40.3416E+06     58.1786E+06     2.09232E+06    -228.125E-03     453.385E-03    -225.260E-03     152.864E-03    -232.065E-03     457.142E-03    -224.963E-03     133.562E-03
            1553     8.62424E-03     71.1270E-03    -51.6950E+06     14.7494E+06     49.4751E+06     837.990E+03    -228.231E-03     453.518E-03    -225.287E-03     151.144E-03    -232.008E-03     457.020E-03    -224.986E-03     132.367E-03
            1554     7.90536E-03     70.9258E-03    -59.4198E+06    -26.0861E+06     34.9228E+06     461.493E+03    -228.122E-03     453.434E-03    -225.312E-03     147.467E-03    -231.631E-03     456.538E-03    -225.013E-03     129.421E-03
            1555     7.18625E-03     70.7311E-03    -68.3077E+06    -60.7639E+06     20.1889E+06     435.514E+03    -227.919E-03     453.255E-03    -225.336E-03     141.360E-03    -231.094E-03     455.914E-03    -225.048E-03     124.267E-03
            1556     6.46733E-03     70.5460E-03    -77.5859E+06    -89.9662E+06     5.38588E+06     499.030E+03    -227.661E-03     453.016E-03    -225.355E-03     132.809E-03    -230.444E-03     455.188E-03    -225.085E-03     116.902E-03
            1557     5.74846E-03     70.3737E-03    -87.2405E+06    -117.767E+06    -10.3803E+06     336.407E+03    -227.345E-03     452.710E-03    -225.364E-03     122.415E-03    -229.702E-03     454.369E-03    -225.119E-03     107.895E-03
            1558     5.02986E-03     70.2159E-03    -97.1878E+06    -143.763E+06    -27.5745E+06     169.673E+03    -227.002E-03     452.362E-03    -225.360E-03     110.532E-03    -228.925E-03     453.509E-03    -225.148E-03     97.5799E-03
            1559     4.31133E-03     70.0753E-03    -107.359E+06    -169.656E+06    -46.7183E+06     216.637E+03    -226.602E-03     451.944E-03    -225.342E-03     97.1841E-03    -228.105E-03     452.600E-03    -225.174E-03     85.9380E-03
            1560     3.59260E-03     69.9539E-03    -117.539E+06    -197.972E+06    -67.5514E+06     53.3880E+03    -226.211E-03     451.528E-03    -225.317E-03     82.7021E-03    -227.325E-03     451.718E-03    -225.197E-03     73.2588E-03
            1561     2.87413E-03     69.8522E-03    -126.827E+06    -223.137E+06    -89.7049E+06    -359.187E+03    -225.852E-03     451.131E-03    -225.279E-03     67.4065E-03    -226.627E-03     450.925E-03    -225.220E-03     59.8183E-03
            1562     2.15559E-03     69.7719E-03    -135.399E+06    -245.205E+06    -111.745E+06    -648.769E+03    -225.556E-03     450.793E-03    -225.237E-03     51.4735E-03    -226.060E-03     450.270E-03    -225.244E-03     45.7369E-03
            1563     1.43695E-03     69.7132E-03    -142.438E+06    -265.772E+06    -130.714E+06    -332.112E+03    -225.366E-03     450.564E-03    -225.198E-03     35.1336E-03    -225.668E-03     449.796E-03    -225.260E-03     31.2258E-03
            1564     718.508E-06     69.6767E-03    -147.065E+06    -281.848E+06    -144.076E+06     472.326E+03    -225.233E-03     450.399E-03    -225.166E-03     19.2055E-03    -225.404E-03     449.466E-03    -225.264E-03     17.0918E-03
            1565     13.6564E-03     70.9409E-03    -5.66229E+06     80.5432E+06     92.3487E+06    -341.839E+03    -224.717E-03     449.911E-03    -225.194E-03     90.1077E-03    -227.140E-03     452.331E-03    -224.841E-03     73.6394E-03
            1566     12.9381E-03     70.7897E-03    -10.9132E+06     79.3441E+06     94.1921E+06    -727.719E+03    -225.487E-03     450.714E-03    -225.227E-03     122.229E-03    -228.905E-03     454.102E-03    -224.855E-03     102.444E-03
            1567     12.2186E-03     70.6299E-03    -16.3280E+06     75.5169E+06     91.7585E+06     136.550E+03    -226.216E-03     451.465E-03    -225.249E-03     132.546E-03    -229.789E-03     454.981E-03    -224.876E-03     112.936E-03
            1568     11.4996E-03     70.4465E-03    -23.8914E+06     60.2046E+06     80.2301E+06     1.04036E+06    -227.058E-03     452.305E-03    -225.247E-03     143.920E-03    -230.932E-03     456.075E-03    -224.899E-03     123.873E-03
            1569     10.7808E-03     70.2521E-03    -30.9373E+06     46.4412E+06     69.0275E+06     1.06489E+06    -227.759E-03     452.997E-03    -225.239E-03     149.628E-03    -231.720E-03     456.814E-03    -224.916E-03     129.687E-03
            1570     10.0620E-03     70.0499E-03    -35.6978E+06     47.1284E+06     65.2922E+06     1.55912E+06    -228.137E-03     453.375E-03    -225.237E-03     152.644E-03    -232.134E-03     457.222E-03    -224.928E-03     132.923E-03
            1571     9.34331E-03     69.8450E-03    -40.6166E+06     43.5815E+06     61.8271E+06     2.09402E+06    -228.148E-03     453.398E-03    -225.250E-03     153.075E-03    -232.082E-03     457.163E-03    -224.945E-03     133.775E-03
            1572     8.62421E-03     69.6402E-03    -48.9486E+06     16.1549E+06     51.4219E+06     1.57171E+06    -228.087E-03     453.366E-03    -225.279E-03     151.380E-03    -231.856E-03     456.870E-03    -224.975E-03     132.629E-03
            1573     7.90511E-03     69.4396E-03    -58.6173E+06    -25.8592E+06     36.0656E+06     1.53915E+06    -228.115E-03     453.426E-03    -225.312E-03     147.485E-03    -231.623E-03     456.530E-03    -225.009E-03     129.450E-03
            1574     7.18632E-03     69.2445E-03     -67.994E+06    -59.8587E+06     21.4716E+06     1.34540E+06    -227.976E-03     453.308E-03    -225.333E-03     141.222E-03    -231.151E-03     455.968E-03    -225.040E-03     124.139E-03
            1575     6.46760E-03     69.0596E-03    -77.3407E+06    -89.3955E+06     6.51305E+06     790.143E+03    -227.697E-03     453.041E-03    -225.344E-03     132.781E-03    -230.481E-03     455.214E-03    -225.070E-03     116.875E-03
            1576     5.74898E-03     68.8872E-03    -86.8393E+06    -117.057E+06    -9.40865E+06     618.459E+03    -227.351E-03     452.700E-03    -225.349E-03     122.554E-03    -229.710E-03     454.362E-03    -225.100E-03     108.038E-03
            1577     5.03012E-03     68.7296E-03    -96.7623E+06    -143.277E+06    -26.8689E+06     586.493E+03    -226.919E-03     452.268E-03    -225.349E-03     110.699E-03    -228.843E-03     453.417E-03    -225.135E-03     97.7650E-03
            1578     4.31114E-03     68.5890E-03    -106.894E+06    -169.394E+06    -46.1382E+06     315.196E+03    -226.506E-03     451.852E-03    -225.345E-03     97.3141E-03    -228.008E-03     452.507E-03    -225.175E-03     86.0829E-03
            1579     3.59261E-03     68.4673E-03    -116.621E+06    -197.325E+06    -66.8543E+06    -9.91750E+03    -226.172E-03     451.507E-03    -225.335E-03     82.8350E-03    -227.284E-03     451.699E-03    -225.215E-03     73.3912E-03
            1580     2.87390E-03     68.3660E-03    -126.428E+06    -222.713E+06    -89.0021E+06    -368.590E+03    -225.899E-03     451.202E-03    -225.302E-03     67.5028E-03    -226.677E-03     450.998E-03    -225.241E-03     59.8986E-03
            1581     2.15527E-03     68.2855E-03    -135.423E+06    -245.488E+06    -111.074E+06    -473.601E+03    -225.676E-03     450.914E-03    -225.237E-03     51.3932E-03    -226.182E-03     450.389E-03    -225.240E-03     45.6472E-03
            1582     1.43699E-03     68.2269E-03    -142.964E+06    -267.132E+06    -130.754E+06    -164.626E+03    -225.427E-03     450.573E-03    -225.146E-03     34.8523E-03    -225.728E-03     449.797E-03    -225.205E-03     30.9678E-03
            1583     718.485E-06     68.1907E-03    -147.753E+06    -281.217E+06    -143.717E+06     210.796E+03    -225.242E-03     450.221E-03    -224.979E-03     18.8837E-03    -225.417E-03     449.291E-03    -225.076E-03     16.7679E-03
            1584     13.6586E-03     69.4576E-03    -3.82030E+06     81.7148E+06     94.1575E+06     268.623E+03    -224.570E-03     449.749E-03    -225.179E-03     90.1814E-03    -226.974E-03     452.157E-03    -224.821E-03     73.8346E-03
            1585     12.9373E-03     69.3032E-03    -9.94606E+06     79.1154E+06     94.5317E+06     337.628E+03    -225.087E-03     450.313E-03    -225.226E-03     122.666E-03    -228.497E-03     453.694E-03    -224.853E-03     102.975E-03
            1586     12.2186E-03     69.1429E-03    -18.0715E+06     73.5406E+06     90.0229E+06     805.837E+03    -226.258E-03     451.511E-03    -225.253E-03     131.817E-03    -229.833E-03     455.022E-03    -224.883E-03     112.160E-03
            1587     11.4998E-03     68.9597E-03    -23.7170E+06     60.2909E+06     81.7563E+06     963.122E+03    -227.134E-03     452.388E-03    -225.254E-03     143.417E-03    -231.008E-03     456.155E-03    -224.899E-03     123.337E-03
            1588     10.7808E-03     68.7649E-03    -29.4343E+06     47.2955E+06     71.6297E+06     37.1344E+03    -227.780E-03     453.022E-03    -225.243E-03     149.420E-03    -231.740E-03     456.838E-03    -224.910E-03     129.444E-03
            1589     10.0621E-03     68.5629E-03    -36.8414E+06     45.9635E+06     64.7494E+06    -1.43360E+06    -228.046E-03     453.279E-03    -225.233E-03     152.632E-03    -232.047E-03     457.125E-03    -224.923E-03     132.861E-03
            1590     9.34322E-03     68.3581E-03    -44.7400E+06     41.2946E+06     59.8663E+06    -803.314E+03    -228.070E-03     453.319E-03    -225.249E-03     153.104E-03    -232.022E-03     457.085E-03    -224.945E-03     133.753E-03
            1591     8.62410E-03     68.1543E-03    -52.2944E+06     15.8537E+06     50.8393E+06     1.10481E+06    -228.122E-03     453.404E-03    -225.282E-03     151.317E-03    -231.906E-03     456.911E-03    -224.975E-03     132.559E-03
            1592     7.90528E-03     67.9524E-03    -60.3283E+06    -25.3796E+06     36.0275E+06     1.26804E+06    -228.153E-03     453.461E-03    -225.308E-03     147.403E-03    -231.668E-03     456.568E-03    -225.004E-03     129.367E-03
            1593     7.18655E-03     67.7582E-03    -68.5084E+06    -58.5591E+06     21.9330E+06     733.145E+03    -227.966E-03     453.292E-03    -225.326E-03     141.236E-03    -231.147E-03     455.959E-03    -225.032E-03     124.140E-03
            1594     6.46755E-03     67.5731E-03    -77.0852E+06    -88.8684E+06     7.10279E+06     552.255E+03    -227.634E-03     452.976E-03    -225.342E-03     132.956E-03    -230.420E-03     455.152E-03    -225.066E-03     117.053E-03
            1595     5.74855E-03     67.4007E-03    -86.4647E+06    -117.167E+06    -8.93041E+06     725.195E+03    -227.296E-03     452.652E-03    -225.356E-03     122.722E-03    -229.654E-03     454.313E-03    -225.105E-03     108.217E-03
            1596     5.02980E-03     67.2433E-03    -96.1341E+06    -142.253E+06    -26.1877E+06     585.427E+03    -226.928E-03     452.288E-03    -225.360E-03     110.758E-03    -228.853E-03     453.442E-03    -225.145E-03     97.8159E-03
            1597     4.31127E-03     67.1027E-03    -105.850E+06    -168.741E+06    -45.4693E+06     129.120E+03    -226.522E-03     451.878E-03    -225.356E-03     97.2855E-03    -228.020E-03     452.533E-03    -225.185E-03     86.0555E-03
            1598     3.59232E-03     66.9811E-03    -115.960E+06    -197.160E+06    -66.4853E+06    -29.6285E+03    -226.205E-03     451.547E-03    -225.343E-03     82.6725E-03    -227.312E-03     451.736E-03    -225.221E-03     73.2358E-03
            1599     2.87383E-03     66.8793E-03    -125.347E+06    -222.715E+06    -88.2196E+06    -33.9340E+03    -225.962E-03     451.260E-03    -225.299E-03     67.2603E-03    -226.735E-03     451.053E-03    -225.235E-03     59.6442E-03
            1600     2.15569E-03     66.7988E-03    -133.886E+06    -245.624E+06    -110.033E+06     68.6606E+03    -225.677E-03     450.898E-03    -225.221E-03     51.2541E-03    -226.177E-03     450.370E-03    -225.221E-03     45.5005E-03
            1601     1.43724E-03     66.7406E-03    -140.701E+06    -266.652E+06    -129.426E+06    -278.336E+03    -225.386E-03     450.521E-03    -225.135E-03     34.8967E-03    -225.679E-03     449.743E-03    -225.191E-03     31.0006E-03
            1602     718.791E-06     66.7051E-03    -145.219E+06    -282.562E+06    -142.187E+06    -944.264E+03    -225.319E-03     450.232E-03    -224.913E-03     19.0735E-03    -225.482E-03     449.290E-03    -225.004E-03     16.9375E-03
            1603     13.6557E-03     67.9723E-03    -4.89056E+06     80.8426E+06     92.9173E+06     53.5376E+03    -224.807E-03     450.021E-03    -225.214E-03     90.8397E-03    -227.243E-03     452.456E-03    -224.859E-03     74.3625E-03
            1604     12.9382E-03     67.8162E-03    -10.0318E+06     78.9669E+06     95.0455E+06     581.748E+03    -225.846E-03     451.088E-03    -225.242E-03     123.464E-03    -229.284E-03     454.495E-03    -224.867E-03     103.662E-03
            1605     12.2191E-03     67.6561E-03    -14.6385E+06     72.0782E+06     91.5784E+06     915.022E+03    -226.434E-03     451.681E-03    -225.247E-03     131.973E-03    -230.000E-03     455.185E-03    -224.872E-03     112.281E-03
            1606     11.5000E-03     67.4729E-03    -21.0306E+06     60.1768E+06     82.0022E+06     1.40002E+06    -227.188E-03     452.423E-03    -225.234E-03     143.509E-03    -231.052E-03     456.188E-03    -224.881E-03     123.423E-03
            1607     10.7813E-03     67.2779E-03    -28.8145E+06     50.7984E+06     71.9850E+06     907.234E+03    -227.651E-03     452.873E-03    -225.223E-03     149.382E-03    -231.609E-03     456.701E-03    -224.895E-03     129.434E-03
            1608     10.0622E-03     67.0763E-03    -36.1379E+06     47.8487E+06     65.5252E+06    -129.270E+03    -227.893E-03     453.119E-03    -225.227E-03     152.478E-03    -231.888E-03     456.967E-03    -224.916E-03     132.750E-03
            1609     9.34296E-03     66.8717E-03    -43.9090E+06     39.7272E+06     60.2010E+06    -919.782E+03    -228.086E-03     453.335E-03    -225.249E-03     152.882E-03    -232.029E-03     457.089E-03    -224.942E-03     133.524E-03
            1610     8.62431E-03     66.6671E-03    -51.9481E+06     13.5673E+06     50.5795E+06    -852.006E+03    -228.184E-03     453.459E-03    -225.275E-03     151.155E-03    -231.961E-03     456.953E-03    -224.966E-03     132.364E-03
            1611     7.90539E-03     66.4664E-03    -59.3589E+06    -25.3704E+06     36.2342E+06    -340.693E+03    -228.084E-03     453.383E-03    -225.299E-03     147.367E-03    -231.594E-03     456.487E-03    -224.995E-03     129.319E-03
            1612     7.18629E-03     66.2714E-03    -67.1927E+06    -58.4451E+06     21.9721E+06    -158.244E+03    -227.851E-03     453.175E-03    -225.324E-03     141.245E-03    -231.026E-03     455.840E-03    -225.032E-03     124.148E-03
            1613     6.46755E-03     66.0870E-03    -76.1915E+06    -89.5271E+06     7.18781E+06     331.575E+03    -227.607E-03     452.957E-03    -225.350E-03     132.953E-03    -230.388E-03     455.129E-03    -225.074E-03     117.047E-03
            1614     5.74871E-03     65.9144E-03    -85.5450E+06    -117.290E+06    -8.45086E+06     680.214E+03    -227.336E-03     452.701E-03    -225.365E-03     122.666E-03    -229.690E-03     454.360E-03    -225.113E-03     108.158E-03
            1615     5.02995E-03     65.7567E-03    -95.1444E+06    -141.504E+06    -25.3941E+06     366.414E+03    -226.981E-03     452.344E-03    -225.362E-03     110.547E-03    -228.902E-03     453.498E-03    -225.146E-03     97.5945E-03
            1616     4.31105E-03     65.6164E-03    -105.344E+06    -168.512E+06    -44.8115E+06     364.566E+03    -226.607E-03     451.953E-03    -225.346E-03     97.0888E-03    -228.103E-03     452.607E-03    -225.173E-03     85.8511E-03
            1617     3.59273E-03     65.4945E-03    -115.101E+06    -196.599E+06    -65.6164E+06     242.101E+03    -226.240E-03     451.557E-03    -225.317E-03     82.6063E-03    -227.346E-03     451.746E-03    -225.193E-03     73.1674E-03
            1618     2.87427E-03     65.3928E-03    -125.090E+06    -222.630E+06    -87.8959E+06     101.963E+03    -225.816E-03     451.098E-03    -225.281E-03     67.3615E-03    -226.589E-03     450.891E-03    -225.217E-03     59.7559E-03
            1619     2.15542E-03     65.3126E-03    -133.938E+06    -244.988E+06    -109.990E+06     111.428E+03    -225.467E-03     450.729E-03    -225.262E-03     51.5214E-03    -225.970E-03     450.205E-03    -225.263E-03     45.7752E-03
            1620     1.43676E-03     65.2546E-03    -140.930E+06    -265.941E+06    -129.430E+06    -273.529E+03    -225.309E-03     450.582E-03    -225.273E-03     35.1333E-03    -225.605E-03     449.809E-03    -225.331E-03     31.2271E-03
            1621     718.167E-06     65.2188E-03    -145.166E+06    -284.502E+06    -142.937E+06    -171.373E+03    -225.428E-03     450.625E-03    -225.197E-03     19.2188E-03    -225.588E-03     449.674E-03    -225.288E-03     17.0882E-03
            1622     13.6557E-03     66.4826E-03    -5.25981E+06     80.7691E+06     92.7857E+06    -493.622E+03    -224.788E-03     450.023E-03    -225.235E-03     90.2124E-03    -227.217E-03     452.451E-03    -224.880E-03     73.7052E-03
            1623     12.9371E-03     66.3282E-03    -10.0878E+06     78.7826E+06     95.1736E+06    -559.091E+03    -226.076E-03     451.333E-03    -225.256E-03     122.562E-03    -229.493E-03     454.717E-03    -224.880E-03     102.764E-03
            1624     12.2186E-03     66.1692E-03    -16.4735E+06     70.6456E+06     91.0801E+06    -524.826E+03    -226.569E-03     451.820E-03    -225.251E-03     132.050E-03    -230.132E-03     455.311E-03    -224.874E-03     112.383E-03
            1625     11.5002E-03     65.9854E-03    -22.3491E+06     57.9341E+06     81.4738E+06     202.133E+03    -227.302E-03     452.534E-03    -225.233E-03     143.640E-03    -231.162E-03     456.284E-03    -224.877E-03     123.567E-03
            1626     10.7812E-03     65.7917E-03    -27.1607E+06     51.6235E+06     73.3083E+06     1.15052E+06    -227.697E-03     452.914E-03    -225.217E-03     149.341E-03    -231.647E-03     456.738E-03    -224.886E-03     129.405E-03
            1627     10.0621E-03     65.5896E-03    -33.3157E+06     51.0820E+06     67.8144E+06     874.261E+03    -227.916E-03     453.133E-03    -225.217E-03     152.379E-03    -231.906E-03     456.989E-03    -224.904E-03     132.655E-03
            1628     9.34354E-03     65.3850E-03    -40.9620E+06     41.6537E+06     61.3544E+06    -181.140E+03    -228.036E-03     453.272E-03    -225.236E-03     152.907E-03    -231.967E-03     457.028E-03    -224.930E-03     133.575E-03
            1629     8.62436E-03     65.1806E-03    -48.9375E+06     12.6530E+06     50.7133E+06    -774.233E+03    -228.100E-03     453.368E-03    -225.268E-03     151.316E-03    -231.863E-03     456.855E-03    -224.962E-03     132.531E-03
            1630     7.90543E-03     64.9798E-03    -57.6727E+06    -26.4854E+06     36.2926E+06    -420.906E+03    -228.049E-03     453.350E-03    -225.301E-03     147.458E-03    -231.550E-03     456.446E-03    -224.997E-03     129.412E-03
            1631     7.18654E-03     64.7854E-03    -67.1905E+06    -59.2162E+06     21.7027E+06     288.126E+03    -227.860E-03     453.188E-03    -225.329E-03     141.274E-03    -231.031E-03     455.848E-03    -225.037E-03     124.195E-03
            1632     6.46731E-03     64.6005E-03    -76.7165E+06    -89.8098E+06     6.66775E+06     461.547E+03    -227.676E-03     453.026E-03    -225.350E-03     132.913E-03    -230.457E-03     455.197E-03    -225.075E-03     117.008E-03
            1633     5.74860E-03     64.4277E-03    -86.3345E+06    -116.941E+06     -8.9467E+06     192.528E+03    -227.392E-03     452.748E-03    -225.356E-03     122.589E-03    -229.749E-03     454.410E-03    -225.106E-03     108.069E-03
            1634     5.02993E-03     64.2703E-03    -96.1574E+06    -141.695E+06    -26.1542E+06     199.485E+03    -226.967E-03     452.316E-03    -225.349E-03     110.545E-03    -228.891E-03     453.471E-03    -225.134E-03     97.5960E-03
            1635     4.31153E-03     64.1298E-03    -105.991E+06    -168.224E+06    -45.1443E+06    -6.71843E+03    -226.538E-03     451.877E-03    -225.339E-03     97.3336E-03    -228.041E-03     452.537E-03    -225.167E-03     86.0845E-03
            1636     3.59271E-03     64.0080E-03    -116.170E+06    -196.381E+06    -65.5815E+06     322.711E+03    -226.117E-03     451.450E-03    -225.334E-03     83.0069E-03    -227.231E-03     451.646E-03    -225.208E-03     73.5649E-03
            1637     2.87385E-03     63.9068E-03    -126.296E+06    -222.261E+06    -88.4688E+06     718.041E+03    -225.740E-03     451.067E-03    -225.327E-03     67.5648E-03    -226.519E-03     450.865E-03    -225.264E-03     59.9803E-03
            1638     2.15518E-03     63.8267E-03    -135.326E+06    -244.824E+06    -111.150E+06     201.123E+03    -225.472E-03     450.803E-03    -225.331E-03     51.4491E-03    -225.979E-03     450.283E-03    -225.336E-03     45.7096E-03
            1639     1.43660E-03     63.7679E-03    -142.361E+06    -265.899E+06    -131.140E+06     188.651E+03    -225.364E-03     450.721E-03    -225.357E-03     34.8847E-03    -225.664E-03     449.952E-03    -225.421E-03     30.9878E-03
            1640     718.297E-06     63.7323E-03    -145.904E+06    -284.712E+06    -143.633E+06     2.23530E+03    -225.532E-03     450.811E-03    -225.279E-03     19.0502E-03    -225.694E-03     449.861E-03    -225.373E-03     16.9130E-03
            1641     13.6568E-03     64.9947E-03    -5.19719E+06     80.9340E+06     93.2748E+06    -457.436E+03    -224.384E-03     449.583E-03    -225.199E-03     90.5334E-03    -226.799E-03     451.996E-03    -224.842E-03     74.1400E-03
            1642     12.9379E-03     64.8417E-03    -11.4233E+06     77.3372E+06     94.0288E+06     170.521E+03    -225.616E-03     450.855E-03    -225.239E-03     122.285E-03    -229.025E-03     454.225E-03    -224.864E-03     102.554E-03
            1643     12.2189E-03     64.6814E-03    -18.2275E+06     72.8128E+06     90.4104E+06    -97.6837E+03    -226.548E-03     451.790E-03    -225.242E-03     131.468E-03    -230.116E-03     455.290E-03    -224.869E-03     111.786E-03
            1644     11.4999E-03     64.4987E-03    -24.7518E+06     59.3694E+06      80.464E+06    -2.62271E+06    -227.170E-03     452.395E-03    -225.225E-03     143.265E-03    -231.036E-03     456.151E-03    -224.873E-03     123.163E-03
            1645     10.7813E-03     64.3042E-03    -29.9897E+06     47.9168E+06     70.3775E+06    -3.59160E+06    -227.653E-03     452.864E-03    -225.211E-03     149.419E-03    -231.615E-03     456.686E-03    -224.885E-03     129.393E-03
            1646     10.0627E-03     64.1031E-03    -34.9151E+06     48.7278E+06     65.4721E+06    -1.46377E+06    -227.910E-03     453.124E-03    -225.213E-03     152.740E-03    -231.907E-03     456.980E-03    -224.906E-03     132.984E-03
            1647     9.34317E-03     63.8984E-03    -41.6192E+06     42.0455E+06     60.4389E+06     252.765E+03    -228.008E-03     453.245E-03    -225.238E-03     153.222E-03    -231.943E-03     457.007E-03    -224.936E-03     133.910E-03
            1648     8.62418E-03     63.6942E-03    -50.6929E+06     13.1882E+06     49.8155E+06     241.813E+03    -228.061E-03     453.337E-03    -225.276E-03     151.400E-03    -231.834E-03     456.832E-03    -224.972E-03     132.635E-03
            1649     7.90512E-03     63.4931E-03    -60.2330E+06    -27.1913E+06      35.062E+06     239.449E+03    -228.064E-03     453.376E-03    -225.311E-03     147.389E-03    -231.574E-03     456.473E-03    -225.009E-03     129.354E-03
            1650     7.18612E-03     63.2991E-03    -69.1080E+06    -59.9545E+06     20.8332E+06     245.897E+03    -227.976E-03     453.309E-03    -225.333E-03     141.226E-03    -231.156E-03     455.971E-03    -225.042E-03     124.131E-03
            1651     6.46767E-03     63.1138E-03    -77.9845E+06    -89.0183E+06     6.10073E+06     24.2020E+03    -227.713E-03     453.057E-03    -225.344E-03     132.940E-03    -230.502E-03     455.235E-03    -225.071E-03     117.023E-03
            1652     5.74890E-03     62.9414E-03    -87.4007E+06    -116.550E+06    -9.63595E+06    -217.702E+03    -227.302E-03     452.655E-03    -225.353E-03     122.734E-03    -229.666E-03     454.323E-03    -225.105E-03     108.215E-03
            1653     5.03009E-03     62.7838E-03    -97.1440E+06    -141.963E+06    -26.8188E+06    -193.989E+03    -226.871E-03     452.232E-03    -225.361E-03     110.819E-03    -228.801E-03     453.391E-03    -225.149E-03     97.8694E-03
            1654     4.31098E-03     62.6436E-03    -107.423E+06    -168.286E+06    -46.2986E+06    -85.8917E+03    -226.439E-03     451.809E-03    -225.370E-03     97.4868E-03    -227.949E-03     452.474E-03    -225.202E-03     86.2352E-03
            1655     3.59216E-03     62.5219E-03    -117.899E+06    -197.307E+06    -67.5664E+06     86.9382E+03    -226.072E-03     451.455E-03    -225.383E-03     82.9334E-03    -227.191E-03     451.651E-03    -225.264E-03     73.4867E-03
            1656     2.87364E-03     62.4203E-03    -126.962E+06    -222.000E+06    -89.3934E+06     339.827E+03    -225.836E-03     451.217E-03    -225.381E-03     67.4564E-03    -226.617E-03     451.019E-03    -225.322E-03     59.8579E-03
            1657     2.15528E-03     62.3400E-03    -135.181E+06    -244.412E+06    -111.407E+06     444.514E+03    -225.629E-03     450.990E-03    -225.361E-03     51.3822E-03    -226.136E-03     450.472E-03    -225.368E-03     45.6372E-03
            1658     1.43685E-03     62.2817E-03    -141.674E+06    -265.304E+06    -130.936E+06     276.606E+03    -225.453E-03     450.796E-03    -225.342E-03     35.0681E-03    -225.751E-03     450.029E-03    -225.407E-03     31.1690E-03
            1659     718.381E-06     62.2450E-03    -146.104E+06    -284.348E+06    -144.113E+06     188.214E+03    -225.474E-03     450.735E-03    -225.261E-03     19.2197E-03    -225.637E-03     449.788E-03    -225.357E-03     17.0966E-03
            1660     13.6577E-03     63.5127E-03    -4.82711E+06     80.9161E+06     93.6810E+06     721.018E+03    -225.026E-03     450.182E-03    -225.155E-03     90.2331E-03    -227.436E-03     452.590E-03    -224.797E-03     73.8636E-03
            1661     12.9374E-03     63.3528E-03    -10.1356E+06     76.9814E+06     94.3354E+06    -119.154E+03    -225.326E-03     450.507E-03    -225.181E-03     121.762E-03    -228.725E-03     453.870E-03    -224.807E-03     102.022E-03
            1662     12.2193E-03     63.1948E-03    -14.9697E+06     74.7450E+06     92.2009E+06    -322.177E+03    -225.961E-03     451.167E-03    -225.206E-03     130.816E-03    -229.499E-03     454.650E-03    -224.832E-03     111.216E-03
            1663     11.5005E-03     63.0118E-03    -21.7896E+06     64.0452E+06     81.3615E+06    -526.903E+03    -226.818E-03     452.026E-03    -225.208E-03     143.301E-03    -230.674E-03     455.796E-03    -224.863E-03     123.268E-03
            1664     10.7812E-03     62.8180E-03    -31.0992E+06     49.5695E+06     67.4287E+06    -2.58259E+06    -227.469E-03     452.673E-03    -225.204E-03     149.571E-03    -231.434E-03     456.507E-03    -224.893E-03     129.580E-03
            1665     10.0616E-03     62.6162E-03    -40.2333E+06     44.4154E+06     60.3210E+06    -3.83868E+06    -227.894E-03     453.111E-03    -225.217E-03     152.651E-03    -231.899E-03     456.955E-03    -224.921E-03     132.881E-03
            1666     9.34309E-03     62.4119E-03    -47.6393E+06     37.6140E+06     56.5129E+06    -2.59793E+06    -228.057E-03     453.302E-03    -225.245E-03     152.981E-03    -232.007E-03     457.053E-03    -224.948E-03     133.627E-03
            1667     8.62412E-03     62.2075E-03    -54.2362E+06     12.1577E+06     48.3083E+06    -1.05851E+06    -228.059E-03     453.342E-03    -225.283E-03     151.157E-03    -231.843E-03     456.836E-03    -224.980E-03     132.371E-03
            1668     7.90521E-03     62.0070E-03    -61.3333E+06    -27.5422E+06     34.5658E+06    -818.548E+03    -228.059E-03     453.376E-03    -225.318E-03     147.375E-03    -231.575E-03     456.477E-03    -225.016E-03     129.312E-03
            1669     7.18651E-03     61.8122E-03    -69.6001E+06    -60.3427E+06     20.3989E+06    -708.468E+03    -227.968E-03     453.308E-03    -225.340E-03     141.379E-03    -231.152E-03     455.972E-03    -225.050E-03     124.261E-03
            1670     6.46747E-03     61.6274E-03    -78.5643E+06    -89.0504E+06     5.55566E+06    -525.415E+03    -227.648E-03     453.004E-03    -225.356E-03     133.109E-03    -230.442E-03     455.187E-03    -225.086E-03     117.183E-03
            1671     5.74847E-03     61.4550E-03    -87.8168E+06    -116.624E+06    -10.3506E+06    -414.444E+03    -227.217E-03     452.594E-03    -225.377E-03     122.908E-03    -229.584E-03     454.265E-03    -225.132E-03     108.386E-03
            1672     5.02951E-03     61.2975E-03    -97.7923E+06    -142.742E+06    -27.8096E+06    -296.396E+03    -226.837E-03     452.236E-03    -225.398E-03     110.893E-03    -228.768E-03     453.394E-03    -225.189E-03     97.9399E-03
            1673     4.31101E-03     61.1572E-03    -107.828E+06    -168.628E+06    -47.2065E+06     111.250E+03    -226.502E-03     451.912E-03    -225.410E-03     97.4115E-03    -228.011E-03     452.577E-03    -225.245E-03     86.1604E-03
            1674     3.59242E-03     61.0355E-03    -117.587E+06    -196.846E+06    -68.3572E+06    -83.6764E+03    -226.146E-03     451.561E-03    -225.416E-03     82.8951E-03    -227.264E-03     451.761E-03    -225.302E-03     73.4352E-03
            1675     2.87367E-03     60.9339E-03    -127.431E+06    -222.480E+06    -90.2212E+06    -268.553E+03    -225.842E-03     451.260E-03    -225.418E-03     67.6370E-03    -226.625E-03     451.062E-03    -225.362E-03     60.0242E-03
            1676     2.15506E-03     60.8531E-03    -136.382E+06    -244.196E+06    -111.911E+06     154.667E+03    -225.656E-03     451.063E-03    -225.408E-03     51.5394E-03    -226.169E-03     450.550E-03    -225.415E-03     45.7918E-03
            1677     1.43663E-03     60.7952E-03    -143.775E+06    -265.726E+06    -131.442E+06     540.467E+03    -225.527E-03     450.912E-03    -225.385E-03     35.2470E-03    -225.835E-03     450.148E-03    -225.448E-03     31.3488E-03
            1678     718.300E-06     60.7582E-03    -147.927E+06    -282.294E+06    -144.573E+06     1.27535E+06    -225.443E-03     450.785E-03    -225.342E-03     19.1510E-03    -225.618E-03     449.852E-03    -225.441E-03     17.0300E-03
            1679     13.6580E-03     62.0215E-03    -4.63758E+06     81.1253E+06     93.8664E+06    -334.092E+03    -225.480E-03     450.624E-03    -225.144E-03     90.5000E-03    -227.902E-03     453.046E-03    -224.786E-03     74.0466E-03
            1680     12.9413E-03     61.8695E-03    -9.59545E+06     78.2805E+06     95.6801E+06    -657.440E+03    -225.456E-03     450.615E-03    -225.160E-03     122.992E-03    -228.874E-03     454.000E-03    -224.781E-03     103.246E-03
            1681     12.2199E-03     61.7087E-03    -16.2853E+06     73.0334E+06     92.0973E+06    -143.672E+03    -225.689E-03     450.882E-03    -225.193E-03     132.169E-03    -229.245E-03     454.373E-03    -224.815E-03     112.623E-03
            1682     11.4999E-03     61.5260E-03    -23.3793E+06     63.7271E+06     81.4351E+06     914.077E+03    -226.780E-03     451.986E-03    -225.206E-03     143.526E-03    -230.646E-03     455.759E-03    -224.857E-03     123.511E-03
            1683     10.7808E-03     61.3312E-03    -30.0227E+06     54.1218E+06     70.0434E+06     1.20657E+06    -227.537E-03     452.738E-03    -225.201E-03     149.086E-03    -231.496E-03     456.579E-03    -224.886E-03     129.161E-03
            1684     10.0624E-03     61.1297E-03    -37.1380E+06     48.7757E+06     63.4499E+06    -954.638E+03    -227.863E-03     453.071E-03    -225.209E-03     151.994E-03    -231.855E-03     456.921E-03    -224.908E-03     132.258E-03
            1685     9.34319E-03     60.9251E-03    -45.0369E+06     36.7267E+06     57.6109E+06    -3.60992E+06    -227.891E-03     453.130E-03    -225.240E-03     152.647E-03    -231.823E-03     456.866E-03    -224.940E-03     133.291E-03
            1686     8.62420E-03     60.7212E-03    -52.8556E+06     8.32550E+06     47.7572E+06    -3.46566E+06    -227.918E-03     453.205E-03    -225.287E-03     151.262E-03    -231.689E-03     456.679E-03    -224.984E-03     132.457E-03
            1687     7.90511E-03     60.5204E-03    -60.8613E+06    -29.1421E+06     33.8801E+06    -1.91131E+06    -227.979E-03     453.311E-03    -225.332E-03     147.730E-03    -231.492E-03     456.407E-03    -225.032E-03     129.661E-03
            1688     7.18597E-03     60.3257E-03    -69.7011E+06    -61.3048E+06     19.5445E+06    -1.00218E+06    -227.869E-03     453.237E-03    -225.368E-03     141.687E-03    -231.054E-03     455.900E-03    -225.080E-03     124.579E-03
            1689     6.46719E-03     60.1410E-03    -78.9373E+06    -89.7480E+06     4.53630E+06    -571.682E+03    -227.626E-03     453.022E-03    -225.396E-03     133.264E-03    -230.423E-03     455.207E-03    -225.128E-03     117.333E-03
            1690     5.74843E-03     59.9687E-03    -88.4486E+06    -117.142E+06    -11.4304E+06    -437.885E+03    -227.292E-03     452.710E-03    -225.418E-03     122.914E-03    -229.661E-03     454.383E-03    -225.177E-03     108.377E-03
            1691     5.02963E-03     59.8112E-03    -98.2083E+06    -143.165E+06    -28.8438E+06    -225.510E+03    -226.886E-03     452.323E-03    -225.437E-03     110.935E-03    -228.817E-03     453.482E-03    -225.232E-03     97.9803E-03
            1692     4.31067E-03     59.6705E-03    -108.217E+06    -168.864E+06    -47.9799E+06    -150.221E+03    -226.510E-03     451.964E-03    -225.454E-03     97.5636E-03    -228.021E-03     452.630E-03    -225.292E-03     86.3136E-03
            1693     3.59197E-03     59.5490E-03    -118.291E+06    -196.829E+06    -68.5459E+06    -68.6269E+03    -226.179E-03     451.648E-03    -225.469E-03     83.0908E-03    -227.302E-03     451.851E-03    -225.355E-03     73.6266E-03
            1694     2.87342E-03     59.4474E-03    -128.100E+06    -222.612E+06    -90.6367E+06     131.650E+03    -225.902E-03     451.376E-03    -225.473E-03     67.8086E-03    -226.689E-03     451.180E-03    -225.418E-03     60.1964E-03
            1695     2.15491E-03     59.3665E-03    -136.963E+06    -244.775E+06    -112.495E+06     205.548E+03    -225.691E-03     451.158E-03    -225.467E-03     51.5679E-03    -226.205E-03     450.643E-03    -225.476E-03     45.8232E-03
            1696     1.43658E-03     59.3081E-03    -143.832E+06    -266.178E+06    -131.790E+06     279.778E+03    -225.572E-03     451.028E-03    -225.456E-03     35.2348E-03    -225.879E-03     450.262E-03    -225.520E-03     31.3324E-03
            1697     718.346E-06     59.2715E-03    -147.857E+06    -280.364E+06    -144.570E+06    -244.565E+03    -225.591E-03     450.937E-03    -225.346E-03     19.1590E-03    -225.769E-03     450.014E-03    -225.448E-03     17.0093E-03
            1698     13.6568E-03     60.5328E-03    -5.44854E+06     81.8987E+06     93.8498E+06    -732.756E+03    -224.602E-03     449.781E-03    -225.179E-03     91.0480E-03    -227.035E-03     452.214E-03    -224.821E-03     74.6097E-03
            1699     12.9362E-03     60.3821E-03    -11.5212E+06     77.7263E+06     94.5882E+06    -440.320E+03    -225.675E-03     450.888E-03    -225.213E-03     123.216E-03    -229.115E-03     454.288E-03    -224.836E-03     103.401E-03
            1700     12.2189E-03     60.2228E-03    -17.5857E+06     70.7820E+06     90.8310E+06    -223.496E+03    -226.546E-03     451.763E-03    -225.217E-03     132.305E-03    -230.125E-03     455.268E-03    -224.840E-03     112.599E-03
            1701     11.5005E-03     60.0393E-03    -22.6357E+06     62.4617E+06     82.9294E+06    -101.148E+03    -227.140E-03     452.342E-03    -225.202E-03     143.288E-03    -231.008E-03     456.111E-03    -224.845E-03     123.200E-03
            1702     10.7819E-03     59.8445E-03    -27.5184E+06     55.2706E+06     73.8930E+06    -40.2941E+03    -227.506E-03     452.696E-03    -225.190E-03     149.117E-03    -231.463E-03     456.537E-03    -224.861E-03     129.165E-03
            1703     10.0626E-03     59.6431E-03    -33.0356E+06     52.5483E+06     67.5967E+06    -506.459E+03    -227.620E-03     452.823E-03    -225.203E-03     152.408E-03    -231.608E-03     456.684E-03    -224.894E-03     132.701E-03
            1704     9.34350E-03     59.4391E-03    -40.4639E+06     39.5133E+06     60.2645E+06    -596.159E+03    -227.691E-03     452.939E-03    -225.248E-03     153.146E-03    -231.614E-03     456.684E-03    -224.945E-03     133.854E-03
            1705     8.62392E-03     59.2352E-03    -50.7823E+06     7.51109E+06     47.8396E+06    -775.206E+03    -227.844E-03     453.153E-03    -225.308E-03     151.633E-03    -231.605E-03     456.621E-03    -225.006E-03     132.886E-03
            1706     7.90472E-03     59.0339E-03    -61.3005E+06    -30.6481E+06     32.5626E+06    -1.01154E+06    -227.935E-03     453.297E-03    -225.362E-03     147.849E-03    -231.445E-03     456.387E-03    -225.066E-03     129.811E-03
            1707     7.18581E-03     58.8394E-03    -70.4452E+06    -62.6393E+06     17.9953E+06    -858.784E+03    -227.824E-03     453.230E-03    -225.406E-03     141.634E-03    -231.008E-03     455.889E-03    -225.123E-03     124.530E-03
            1708     6.46670E-03     58.6543E-03    -79.4002E+06    -90.3788E+06     3.58367E+06    -604.365E+03    -227.613E-03     453.055E-03    -225.442E-03     133.265E-03    -230.408E-03     455.238E-03    -225.178E-03     117.336E-03
            1709     5.74789E-03     58.4820E-03    -88.9297E+06    -117.355E+06    -12.1275E+06    -441.157E+03    -227.348E-03     452.818E-03    -225.469E-03     122.969E-03    -229.719E-03     454.492E-03    -225.231E-03     108.427E-03
            1710     5.02917E-03     58.3247E-03    -98.8655E+06    -143.321E+06    -29.2709E+06    -251.243E+03    -226.965E-03     452.453E-03    -225.488E-03     111.013E-03    -228.901E-03     453.615E-03    -225.283E-03     98.0429E-03
            1711     4.31053E-03     58.1841E-03    -109.005E+06    -169.061E+06    -48.2991E+06     48.5282E+03    -226.561E-03     452.065E-03    -225.503E-03     97.5533E-03    -228.076E-03     452.732E-03    -225.342E-03     86.2990E-03
            1712     3.59180E-03     58.0623E-03    -119.299E+06    -197.435E+06    -69.4437E+06     10.5689E+03    -226.255E-03     451.767E-03    -225.512E-03     82.8912E-03    -227.379E-03     451.968E-03    -225.400E-03     73.4271E-03
            1713     2.87326E-03     57.9604E-03    -128.888E+06    -222.868E+06    -91.5306E+06    -264.887E+03    -225.978E-03     451.481E-03    -225.503E-03     67.6156E-03    -226.767E-03     451.287E-03    -225.451E-03     59.9842E-03
            1714     2.15493E-03     57.8795E-03    -137.069E+06    -244.816E+06    -113.136E+06    -178.308E+03    -225.736E-03     451.222E-03    -225.486E-03     51.5181E-03    -226.250E-03     450.709E-03    -225.498E-03     45.7582E-03
            1715     1.43646E-03     57.8213E-03    -143.563E+06    -265.604E+06    -131.929E+06    -83.1279E+03    -225.587E-03     451.059E-03    -225.472E-03     35.1408E-03    -225.893E-03     450.295E-03    -225.538E-03     31.2380E-03
            1716     718.094E-06     57.7841E-03    -148.974E+06    -280.603E+06    -145.991E+06    -109.921E+03    -225.662E-03     450.964E-03    -225.302E-03     19.0436E-03    -225.842E-03     450.043E-03    -225.409E-03     16.9216E-03
            1717     13.6567E-03     59.0501E-03    -4.93634E+06     82.4503E+06     94.1144E+06     513.434E+03    -224.722E-03     449.905E-03    -225.182E-03     89.4068E-03    -227.135E-03     452.320E-03    -224.824E-03     72.9625E-03
            1718     12.9383E-03     58.8936E-03    -10.7473E+06     78.3098E+06     94.5671E+06     54.3566E+03    -225.631E-03     450.836E-03    -225.206E-03     120.959E-03    -229.024E-03     454.195E-03    -224.831E-03     101.198E-03
            1719     12.2195E-03     58.7346E-03    -16.6172E+06     71.3011E+06     91.3246E+06    -916.197E+03    -226.442E-03     451.652E-03    -225.210E-03     130.946E-03    -229.989E-03     455.128E-03    -224.833E-03     111.281E-03
            1720     11.5008E-03     58.5522E-03    -23.3118E+06     63.5734E+06     83.4211E+06    -2.26780E+06    -227.027E-03     452.228E-03    -225.201E-03     143.589E-03    -230.906E-03     456.008E-03    -224.842E-03     123.478E-03
            1721     10.7815E-03     58.3583E-03    -29.6641E+06     54.9664E+06     73.0241E+06    -3.54219E+06    -227.247E-03     452.448E-03    -225.201E-03     149.867E-03    -231.224E-03     456.303E-03    -224.873E-03     129.883E-03
            1722     10.0622E-03     58.1571E-03    -36.7759E+06     48.2698E+06     63.8581E+06    -1.92919E+06    -227.446E-03     452.674E-03    -225.228E-03     152.982E-03    -231.445E-03     456.528E-03    -224.926E-03     133.290E-03
            1723     9.34245E-03     57.9531E-03    -45.5009E+06     38.0466E+06     56.6687E+06     521.246E+03    -227.734E-03     453.015E-03    -225.281E-03     153.444E-03    -231.677E-03     456.767E-03    -224.987E-03     134.169E-03
            1724     8.62354E-03     57.7487E-03    -53.5653E+06     9.56609E+06     46.7557E+06     757.687E+03    -227.970E-03     453.312E-03    -225.342E-03     151.675E-03    -231.747E-03     456.798E-03    -225.045E-03     132.936E-03
            1725     7.90453E-03     57.5478E-03    -61.5924E+06    -30.2557E+06     32.2390E+06     43.3311E+03    -227.987E-03     453.380E-03    -225.393E-03     147.760E-03    -231.499E-03     456.473E-03    -225.099E-03     129.724E-03
            1726     7.18545E-03     57.3527E-03    -70.5392E+06    -62.6162E+06     17.7664E+06    -277.929E+03    -227.832E-03     453.269E-03    -225.437E-03     141.571E-03    -231.015E-03     455.928E-03    -225.155E-03     124.474E-03
            1727     6.46664E-03     57.1681E-03    -80.1573E+06    -90.6123E+06     3.01788E+06    -449.689E+03    -227.607E-03     453.083E-03    -225.476E-03     133.182E-03    -230.403E-03     455.265E-03    -225.214E-03     117.260E-03
            1728     5.74770E-03     56.9951E-03    -89.8558E+06    -117.734E+06    -12.6972E+06    -405.215E+03    -227.326E-03     452.834E-03    -225.508E-03     122.792E-03    -229.699E-03     454.507E-03    -225.271E-03     108.251E-03
            1729     5.02896E-03     56.8380E-03    -99.6296E+06    -143.867E+06    -29.8082E+06    -328.500E+03    -227.031E-03     452.558E-03    -225.527E-03     110.775E-03    -228.969E-03     453.718E-03    -225.323E-03     97.7915E-03
            1730     4.31029E-03     56.6972E-03    -109.552E+06    -169.337E+06    -48.6415E+06    -260.785E+03    -226.694E-03     452.223E-03    -225.529E-03     97.4041E-03    -228.211E-03     452.890E-03    -225.367E-03     86.1306E-03
            1731     3.59190E-03     56.5754E-03    -119.366E+06    -197.087E+06    -69.4241E+06    -65.9395E+03    -226.336E-03     451.856E-03    -225.520E-03     82.8767E-03    -227.461E-03     452.059E-03    -225.408E-03     73.4071E-03
            1732     2.87349E-03     56.4735E-03    -128.952E+06    -222.779E+06    -92.2475E+06    -263.624E+03    -226.002E-03     451.499E-03    -225.497E-03     67.5913E-03    -226.790E-03     451.306E-03    -225.449E-03     59.9655E-03
            1733     2.15485E-03     56.3928E-03    -137.772E+06    -245.068E+06    -114.337E+06    -590.182E+03    -225.748E-03     451.220E-03    -225.473E-03     51.5610E-03    -226.262E-03     450.707E-03    -225.489E-03     45.8092E-03
            1734     1.43668E-03     56.3339E-03    -144.918E+06    -266.418E+06    -132.693E+06    -196.980E+03    -225.599E-03     451.050E-03    -225.451E-03     35.1504E-03    -225.909E-03     450.284E-03    -225.518E-03     31.2548E-03
            1735     718.463E-06     56.2977E-03    -148.944E+06    -280.362E+06    -145.355E+06     516.649E+03    -225.644E-03     450.907E-03    -225.264E-03     19.1770E-03    -225.825E-03     449.987E-03    -225.368E-03     17.0398E-03
            1736     13.6579E-03     57.5596E-03    -5.63324E+06     81.8801E+06     93.6652E+06    -497.673E+03    -225.015E-03     450.174E-03    -225.159E-03     90.3325E-03    -227.444E-03     452.602E-03    -224.801E-03     73.8469E-03
            1737     12.9396E-03     57.4084E-03    -10.8634E+06     79.1428E+06     95.4981E+06    -482.559E+03    -225.637E-03     450.818E-03    -225.181E-03     122.430E-03    -229.049E-03     454.196E-03    -224.802E-03     102.695E-03
            1738     12.2196E-03     57.2484E-03    -15.9330E+06     72.5360E+06     92.7507E+06     427.919E+03    -225.918E-03     451.124E-03    -225.206E-03     131.885E-03    -229.460E-03     454.598E-03    -224.825E-03     112.375E-03
            1739     11.4999E-03     57.0656E-03    -23.6414E+06     67.7450E+06     82.8042E+06    -353.590E+03    -226.579E-03     451.796E-03    -225.217E-03     143.667E-03    -230.456E-03     455.590E-03    -224.867E-03     123.648E-03
            1740     10.7808E-03     56.8722E-03    -32.4781E+06     56.3501E+06     69.1723E+06    -1.88194E+06    -227.126E-03     452.355E-03    -225.229E-03     149.684E-03    -231.111E-03     456.224E-03    -224.918E-03     129.730E-03
            1741     10.0613E-03     56.6712E-03    -41.3644E+06     43.4174E+06     59.0325E+06    -1.83034E+06    -227.582E-03     452.845E-03    -225.263E-03     152.787E-03    -231.588E-03     456.687E-03    -224.971E-03     133.079E-03
            1742     9.34251E-03     56.4666E-03    -48.4322E+06     35.9162E+06     54.4525E+06    -1.45811E+06    -227.874E-03     453.187E-03    -225.313E-03     153.253E-03    -231.824E-03     456.935E-03    -225.023E-03     133.934E-03
            1743     8.62328E-03     56.2621E-03    -55.2154E+06     9.02064E+06     45.6896E+06    -1.18578E+06    -228.024E-03     453.393E-03    -225.369E-03     151.547E-03    -231.809E-03     456.881E-03    -225.073E-03     132.761E-03
            1744     7.90435E-03     56.0611E-03    -63.2602E+06    -30.4755E+06     31.6560E+06    -489.374E+03    -228.017E-03     453.436E-03    -225.418E-03     147.663E-03    -231.538E-03     456.531E-03    -225.124E-03     129.607E-03
            1745     7.18539E-03     55.8666E-03    -71.8991E+06    -62.1869E+06     17.6005E+06    -316.804E+03    -227.889E-03     453.348E-03    -225.459E-03     141.540E-03    -231.079E-03     456.011E-03    -225.177E-03     124.435E-03
            1746     6.46636E-03     55.6811E-03    -80.8154E+06    -90.3044E+06     2.93454E+06    -495.799E+03    -227.685E-03     453.177E-03    -225.492E-03     133.080E-03    -230.486E-03     455.362E-03    -225.229E-03     117.144E-03
            1747     5.74769E-03     55.5088E-03    -90.0758E+06    -118.189E+06    -12.8748E+06    -627.912E+03    -227.359E-03     452.877E-03    -225.517E-03     122.653E-03    -229.731E-03     454.546E-03    -225.280E-03     108.106E-03
            1748     5.02892E-03     55.3509E-03    -99.6385E+06    -144.120E+06    -30.2345E+06    -497.750E+03    -227.012E-03     452.545E-03    -225.533E-03     110.732E-03    -228.946E-03     453.702E-03    -225.331E-03     97.7598E-03
            1749     4.31048E-03     55.2103E-03    -109.518E+06    -169.539E+06    -49.4455E+06    -574.574E+03    -226.691E-03     452.228E-03    -225.537E-03     97.4580E-03    -228.206E-03     452.896E-03    -225.379E-03     86.1821E-03
            1750     3.59179E-03     55.0885E-03    -119.388E+06    -197.925E+06    -70.0086E+06    -462.461E+03    -226.423E-03     451.947E-03    -225.524E-03     82.9758E-03    -227.547E-03     452.148E-03    -225.414E-03     73.4945E-03
            1751     2.87324E-03     54.9866E-03    -128.897E+06    -222.568E+06    -92.0449E+06     78.4274E+03    -226.119E-03     451.598E-03    -225.479E-03     67.4141E-03    -226.906E-03     451.405E-03    -225.430E-03     59.7902E-03
            1752     2.15504E-03     54.9059E-03    -137.601E+06    -244.927E+06    -114.295E+06     191.331E+03    -225.756E-03     451.181E-03    -225.425E-03     51.3504E-03    -226.269E-03     450.668E-03    -225.442E-03     45.6120E-03
            1753     1.43648E-03     54.8469E-03    -144.498E+06    -266.697E+06    -133.175E+06    -300.447E+03    -225.534E-03     450.927E-03    -225.394E-03     35.0391E-03    -225.840E-03     450.160E-03    -225.463E-03     31.1341E-03
            1754     718.117E-06     54.8107E-03    -149.101E+06    -281.099E+06    -146.051E+06    -993.303E+03    -225.627E-03     450.801E-03    -225.174E-03     19.0889E-03    -225.808E-03     449.878E-03    -225.280E-03     16.9137E-03
            1755     13.6567E-03     56.0732E-03    -4.25059E+06     82.9504E+06     95.7482E+06    -188.934E+03    -224.559E-03     449.743E-03    -225.184E-03     90.8007E-03    -226.978E-03     452.163E-03    -224.819E-03     74.4590E-03
            1756     12.9370E-03     55.9201E-03    -10.5170E+06     78.5437E+06     96.4915E+06    -262.442E+03    -225.333E-03     450.561E-03    -225.227E-03     122.854E-03    -228.772E-03     453.961E-03    -224.844E-03     103.033E-03
            1757     12.2192E-03     55.7624E-03    -17.8677E+06     71.1270E+06     91.3519E+06    -222.877E+03    -226.150E-03     451.399E-03    -225.249E-03     132.215E-03    -229.726E-03     454.899E-03    -224.869E-03     112.556E-03
            1758     11.5000E-03     55.5799E-03    -23.9937E+06     68.6687E+06     82.5523E+06     955.853E+03    -226.654E-03     451.906E-03    -225.253E-03     143.670E-03    -230.535E-03     455.707E-03    -224.905E-03     123.661E-03
            1759     10.7804E-03     55.3860E-03    -30.4748E+06     58.0236E+06     70.3901E+06     2.16277E+06    -227.222E-03     452.486E-03    -225.264E-03     149.455E-03    -231.198E-03     456.355E-03    -224.952E-03     129.550E-03
            1760     10.0615E-03     55.1847E-03    -37.4523E+06     47.1641E+06     62.3038E+06     658.662E+03    -227.738E-03     453.033E-03    -225.295E-03     152.685E-03    -231.738E-03     456.887E-03    -224.998E-03     132.976E-03
            1761     9.34219E-03     54.9799E-03    -45.8808E+06     36.3022E+06     56.2180E+06    -1.34099E+06    -227.974E-03     453.311E-03    -225.337E-03     153.281E-03    -231.917E-03     457.058E-03    -225.043E-03     133.942E-03
            1762     8.62323E-03     54.7757E-03    -54.9018E+06     7.13508E+06     45.4574E+06    -1.42237E+06    -228.062E-03     453.448E-03    -225.385E-03     151.484E-03    -231.842E-03     456.926E-03    -225.089E-03     132.689E-03
            1763     7.90410E-03     54.5744E-03    -63.2400E+06    -31.1623E+06     31.7239E+06    -1.31845E+06    -228.075E-03     453.506E-03    -225.431E-03     147.473E-03    -231.595E-03     456.599E-03    -225.136E-03     129.393E-03
            1764     7.18521E-03     54.3800E-03    -71.4618E+06    -62.8045E+06     17.6651E+06    -1.16060E+06    -227.966E-03     453.430E-03    -225.464E-03     141.357E-03    -231.153E-03     456.089E-03    -225.181E-03     124.229E-03
            1765     6.46658E-03     54.1943E-03     -80.053E+06    -90.6832E+06     2.99305E+06    -799.585E+03    -227.677E-03     453.168E-03    -225.491E-03     132.995E-03    -230.472E-03     455.349E-03    -225.229E-03     117.059E-03
            1766     5.74777E-03     54.0221E-03    -89.2536E+06    -118.423E+06    -12.9391E+06    -545.275E+03    -227.379E-03     452.894E-03    -225.516E-03     122.757E-03    -229.746E-03     454.562E-03    -225.279E-03     108.214E-03
            1767     5.02908E-03     53.8642E-03    -99.2384E+06    -144.278E+06    -30.5507E+06    -387.570E+03    -227.100E-03     452.625E-03    -225.524E-03     110.751E-03    -229.033E-03     453.782E-03    -225.324E-03     97.7736E-03
            1768     4.31009E-03     53.7236E-03    -109.288E+06    -170.078E+06    -49.9995E+06    -447.236E+03    -226.782E-03     452.291E-03    -225.509E-03     97.1251E-03    -228.292E-03     452.955E-03    -225.354E-03     85.8419E-03
            1769     3.59172E-03     53.6012E-03    -119.182E+06    -198.472E+06    -70.4395E+06    -432.881E+03    -226.470E-03     451.944E-03    -225.474E-03     82.5095E-03    -227.590E-03     452.140E-03    -225.366E-03     73.0186E-03
            1770     2.87372E-03     53.4993E-03    -128.812E+06    -223.241E+06    -91.7424E+06    -121.128E+03    -226.094E-03     451.507E-03    -225.414E-03     67.0473E-03    -226.879E-03     451.309E-03    -225.362E-03     59.4112E-03
            1771     2.15527E-03     53.4192E-03    -137.114E+06    -244.662E+06    -113.318E+06     364.056E+03    -225.723E-03     451.067E-03    -225.344E-03     51.2024E-03    -226.236E-03     450.553E-03    -225.357E-03     45.4539E-03
            1772     1.43696E-03     53.3604E-03    -143.320E+06    -265.314E+06    -132.315E+06     218.809E+03    -225.453E-03     450.748E-03    -225.295E-03     35.0388E-03    -225.758E-03     449.986E-03    -225.364E-03     31.1271E-03
            1773     718.588E-06     53.3237E-03    -148.144E+06    -282.309E+06    -145.845E+06    -214.388E+03    -225.389E-03     450.601E-03    -225.212E-03     19.1513E-03    -225.563E-03     449.671E-03    -225.317E-03     16.9938E-03
            1774     13.6576E-03     54.5890E-03    -4.28494E+06     83.2956E+06     95.9512E+06     304.239E+03    -224.364E-03     449.574E-03    -225.210E-03     90.2698E-03    -226.788E-03     452.000E-03    -224.845E-03     73.8712E-03
            1775     12.9378E-03     54.4338E-03    -10.1819E+06     78.2902E+06     95.9809E+06     595.494E+03    -225.155E-03     450.417E-03    -225.261E-03     122.592E-03    -228.581E-03     453.806E-03    -224.880E-03     102.819E-03
            1776     12.2179E-03     54.2746E-03    -17.1723E+06     71.9888E+06     91.3717E+06    -469.863E+03    -225.993E-03     451.287E-03    -225.294E-03     131.707E-03    -229.565E-03     454.788E-03    -224.916E-03     112.024E-03
            1777     11.4991E-03     54.0935E-03    -22.6566E+06     65.1405E+06     83.9039E+06    -565.637E+03    -226.917E-03     452.225E-03    -225.307E-03     143.717E-03    -230.801E-03     456.016E-03    -224.950E-03     123.627E-03
            1778     10.7803E-03     53.8995E-03    -28.1795E+06     55.2844E+06     74.0059E+06     1.21699E+06    -227.525E-03     452.838E-03    -225.312E-03     149.652E-03    -231.496E-03     456.690E-03    -224.981E-03     129.707E-03
            1779     10.0610E-03     53.6980E-03    -34.9053E+06     50.6489E+06     65.8562E+06     2.46129E+06    -227.894E-03     453.215E-03    -225.321E-03     152.628E-03    -231.891E-03     457.077E-03    -225.015E-03     132.929E-03
            1780     9.34208E-03     53.4933E-03    -42.7432E+06     39.7387E+06     59.0138E+06     1.85526E+06    -228.086E-03     453.434E-03    -225.349E-03     152.955E-03    -232.020E-03     457.187E-03    -225.049E-03     133.645E-03
            1781     8.62308E-03     53.2887E-03    -51.2285E+06     8.82886E+06     47.9356E+06     138.890E+03    -228.124E-03     453.513E-03    -225.388E-03     151.089E-03    -231.887E-03     456.986E-03    -225.087E-03     132.312E-03
            1782     7.90432E-03     53.0879E-03    -60.0295E+06    -31.2565E+06     32.6556E+06    -580.507E+03    -228.093E-03     453.518E-03    -225.425E-03     147.348E-03    -231.595E-03     456.601E-03    -225.129E-03     129.282E-03
            1783     7.18557E-03     52.8929E-03    -69.4836E+06    -63.3279E+06     17.7271E+06    -233.434E+03    -227.943E-03     453.400E-03    -225.456E-03     141.380E-03    -231.120E-03     456.054E-03    -225.175E-03     124.268E-03
            1784     6.46652E-03     52.7080E-03    -79.2792E+06    -91.2795E+06     2.72381E+06    -10.9992E+03    -227.721E-03     453.204E-03    -225.483E-03     133.031E-03    -230.513E-03     455.382E-03    -225.222E-03     117.102E-03
            1785     5.74753E-03     52.5353E-03    -89.2151E+06    -118.662E+06    -13.2158E+06     92.1081E+03    -227.547E-03     453.040E-03    -225.493E-03     122.548E-03    -229.913E-03     454.706E-03    -225.257E-03     108.000E-03
            1786     5.02893E-03     52.3770E-03    -98.8510E+06    -144.345E+06    -30.1193E+06    -192.440E+03    -227.248E-03     452.722E-03    -225.474E-03     110.288E-03    -229.179E-03     453.877E-03    -225.272E-03     97.2870E-03
            1787     4.31107E-03     52.2364E-03    -108.833E+06    -169.817E+06    -48.8204E+06    -184.284E+03    -226.795E-03     452.233E-03    -225.437E-03     96.9410E-03    -228.306E-03     452.895E-03    -225.277E-03     85.6523E-03
            1788     3.59273E-03     52.1143E-03    -119.182E+06    -198.428E+06    -69.7722E+06    -152.059E+03    -226.287E-03     451.690E-03    -225.403E-03     82.6898E-03    -227.410E-03     451.888E-03    -225.292E-03     73.2047E-03
            1789     2.87381E-03     52.0128E-03    -128.584E+06    -223.802E+06    -91.8288E+06    -354.650E+03    -225.871E-03     451.247E-03    -225.377E-03     67.4713E-03    -226.657E-03     451.049E-03    -225.325E-03     59.8322E-03
            1790     2.15534E-03     51.9325E-03    -136.732E+06    -244.893E+06    -113.036E+06    -503.416E+03    -225.661E-03     451.008E-03    -225.347E-03     51.6728E-03    -226.174E-03     450.494E-03    -225.359E-03     45.9014E-03
            1791     1.43685E-03     51.8739E-03    -143.789E+06    -265.645E+06    -131.966E+06    -80.2717E+03    -225.503E-03     450.806E-03    -225.303E-03     35.3543E-03    -225.811E-03     450.043E-03    -225.369E-03     31.4368E-03
            1792     718.237E-06     51.8377E-03    -147.064E+06    -281.483E+06    -144.045E+06     670.521E+03    -225.208E-03     450.602E-03    -225.393E-03     19.2229E-03    -225.381E-03     449.671E-03    -225.492E-03     17.0832E-03
            1793     13.6553E-03     53.1005E-03    -4.67171E+06     82.2910E+06     94.5162E+06     499.413E+03    -224.235E-03     449.464E-03    -225.229E-03     91.4824E-03    -226.676E-03     451.906E-03    -224.869E-03     74.9880E-03
            1794     12.9372E-03     52.9475E-03    -10.3824E+06     79.0354E+06     95.3385E+06    -114.704E+03    -225.482E-03     450.759E-03    -225.277E-03     122.140E-03    -228.889E-03     454.133E-03    -224.900E-03     102.397E-03
            1795     12.2182E-03     52.7891E-03    -15.8948E+06     74.2101E+06     92.5493E+06    -469.565E+03    -225.830E-03     451.141E-03    -225.310E-03     131.329E-03    -229.378E-03     454.627E-03    -224.932E-03     111.744E-03
            1796     11.4986E-03     52.6059E-03    -23.0747E+06     64.4659E+06     82.6577E+06    -595.438E+03    -226.845E-03     452.171E-03    -225.325E-03     143.140E-03    -230.712E-03     455.945E-03    -224.972E-03     123.079E-03
            1797     10.7797E-03     52.4124E-03    -31.0848E+06     52.0028E+06     70.5692E+06    -898.288E+03    -227.656E-03     452.980E-03    -225.323E-03     149.301E-03    -231.627E-03     456.820E-03    -225.001E-03     129.310E-03
            1798     10.0612E-03     52.2110E-03    -37.2938E+06     47.6409E+06     63.8855E+06    -298.495E+03    -228.094E-03     453.420E-03    -225.325E-03     152.460E-03    -232.093E-03     457.270E-03    -225.021E-03     132.713E-03
            1799     9.34236E-03     52.0062E-03    -42.8487E+06     40.4859E+06     58.9790E+06     970.037E+03    -228.154E-03     453.496E-03    -225.343E-03     152.842E-03    -232.089E-03     457.252E-03    -225.044E-03     133.517E-03
            1800     8.62355E-03     51.8021E-03    -50.6810E+06     10.8886E+06     47.9638E+06     1.99012E+06    -228.110E-03     453.487E-03    -225.377E-03     151.145E-03    -231.875E-03     456.971E-03    -225.079E-03     132.395E-03
            1801     7.90437E-03     51.6014E-03    -60.8422E+06    -30.0908E+06     31.9475E+06     1.97663E+06    -228.106E-03     453.519E-03    -225.413E-03     147.445E-03    -231.614E-03     456.612E-03    -225.122E-03     129.416E-03
            1802     7.18522E-03     51.4063E-03    -70.7183E+06    -62.3723E+06     17.4764E+06     1.20265E+06    -228.033E-03     453.474E-03    -225.441E-03     141.211E-03    -231.219E-03     456.137E-03    -225.161E-03     124.098E-03
            1803     6.46646E-03     51.2214E-03    -80.0497E+06    -90.6270E+06     2.95784E+06     661.093E+03    -227.912E-03     453.360E-03    -225.449E-03     132.676E-03    -230.708E-03     455.542E-03    -225.186E-03     116.732E-03
            1804     5.74833E-03     51.0477E-03    -89.3752E+06    -118.128E+06    -12.5372E+06     11.3807E+03    -227.574E-03     453.012E-03    -225.439E-03     122.401E-03    -229.943E-03     454.681E-03    -225.201E-03     107.838E-03
            1805     5.03015E-03     50.8904E-03    -99.1486E+06    -144.193E+06    -29.4525E+06    -235.286E+03    -227.032E-03     452.460E-03    -225.428E-03     110.697E-03    -228.970E-03     453.619E-03    -225.223E-03     97.7012E-03
            1806     4.31096E-03     50.7495E-03    -109.129E+06    -169.688E+06    -48.3583E+06    -123.745E+03    -226.541E-03     451.968E-03    -225.428E-03     97.7011E-03    -228.060E-03     452.638E-03    -225.265E-03     86.4205E-03
            1807     3.59203E-03     50.6281E-03    -118.824E+06    -198.278E+06    -69.1218E+06    -148.165E+03    -226.157E-03     451.594E-03    -225.437E-03     83.2825E-03    -227.283E-03     451.795E-03    -225.323E-03     73.7984E-03
            1808     2.87352E-03     50.5264E-03    -128.440E+06    -223.593E+06    -91.3576E+06    -329.921E+03    -225.877E-03     451.314E-03    -225.437E-03     67.8013E-03    -226.665E-03     451.118E-03    -225.384E-03     60.1550E-03
            1809     2.15483E-03     50.4459E-03    -137.344E+06    -245.190E+06    -113.495E+06    -474.723E+03    -225.694E-03     451.114E-03    -225.420E-03     51.6855E-03    -226.210E-03     450.601E-03    -225.433E-03     45.9031E-03
            1810     1.43652E-03     50.3870E-03    -144.564E+06    -266.567E+06    -133.192E+06    -550.376E+03    -225.546E-03     450.937E-03    -225.391E-03     35.1956E-03    -225.855E-03     450.173E-03    -225.461E-03     31.2693E-03
            1811     718.582E-06     50.3510E-03    -149.671E+06    -281.874E+06    -146.056E+06    -712.498E+03    -225.313E-03     450.790E-03    -225.478E-03     19.1949E-03    -225.495E-03     449.865E-03    -225.582E-03     17.0403E-03
            1812     13.6563E-03     51.6112E-03    -5.13213E+06     81.9019E+06     94.0963E+06    -59.4076E+03    -224.446E-03     449.663E-03    -225.217E-03     90.9433E-03    -226.863E-03     452.080E-03    -224.858E-03     74.5162E-03
            1813     12.9373E-03     51.4612E-03    -9.49170E+06     80.2772E+06     96.8794E+06     403.671E+03    -225.112E-03     450.382E-03    -225.271E-03     120.552E-03    -228.487E-03     453.728E-03    -224.889E-03     100.891E-03
            1814     12.2181E-03     51.3023E-03    -16.9636E+06     73.2813E+06     91.7414E+06     1.10260E+06    -225.873E-03     451.178E-03    -225.304E-03     131.335E-03    -229.423E-03     454.661E-03    -224.927E-03     111.773E-03
            1815     11.4993E-03     51.1200E-03    -25.3771E+06     66.0958E+06     79.9786E+06     1.28686E+06    -226.896E-03     452.201E-03    -225.305E-03     143.232E-03    -230.769E-03     455.986E-03    -224.964E-03     123.209E-03
            1816     10.7800E-03     50.9254E-03    -32.4741E+06     55.5938E+06     67.7926E+06    -776.128E+03    -227.636E-03     452.932E-03    -225.296E-03     149.076E-03    -231.608E-03     456.790E-03    -224.991E-03     129.094E-03
            1817     10.0611E-03     50.7236E-03    -39.7937E+06     45.9407E+06     59.8815E+06    -2.13416E+06    -227.995E-03     453.299E-03    -225.303E-03     152.247E-03    -231.994E-03     457.146E-03    -225.013E-03     132.487E-03
            1818     9.34225E-03     50.5193E-03    -48.6539E+06     35.4808E+06     53.6971E+06    -684.680E+03    -228.052E-03     453.381E-03    -225.329E-03     152.766E-03    -232.001E-03     457.127E-03    -225.041E-03     133.423E-03
            1819     8.62300E-03     50.3156E-03    -57.6192E+06     9.02844E+06     44.1886E+06     1.02637E+06    -228.149E-03     453.516E-03    -225.367E-03     151.082E-03    -231.943E-03     457.009E-03    -225.076E-03     132.303E-03
            1820     7.90427E-03     50.1144E-03    -64.8644E+06    -28.1304E+06     31.5959E+06     1.02961E+06    -228.244E-03     453.642E-03    -225.398E-03     147.195E-03    -231.779E-03     456.755E-03    -225.105E-03     129.116E-03
            1821     7.18583E-03     49.9198E-03    -72.1724E+06    -61.0891E+06     18.0239E+06     226.724E+03    -228.144E-03     453.553E-03    -225.409E-03     141.111E-03    -231.343E-03     456.227E-03    -225.126E-03     123.959E-03
            1822     6.46752E-03     49.7339E-03    -80.2817E+06    -89.8745E+06     3.79729E+06    -331.763E+03    -227.770E-03     453.186E-03    -225.416E-03     133.081E-03    -230.575E-03     455.376E-03    -225.150E-03     117.121E-03
            1823     5.74855E-03     49.5615E-03     -89.306E+06    -117.784E+06    -11.7376E+06    -355.354E+03    -227.234E-03     452.672E-03    -225.438E-03     123.190E-03    -229.614E-03     454.351E-03    -225.196E-03     108.631E-03
            1824     5.02900E-03     49.4038E-03    -99.1204E+06    -144.206E+06    -29.2704E+06    -392.249E+03    -226.849E-03     452.318E-03    -225.469E-03     111.364E-03    -228.793E-03     453.483E-03    -225.262E-03     98.3719E-03
            1825     4.31041E-03     49.2634E-03    -108.838E+06    -169.969E+06    -48.4212E+06    -563.647E+03    -226.550E-03     452.041E-03    -225.491E-03     97.7348E-03    -228.067E-03     452.709E-03    -225.329E-03     86.4460E-03
            1826     3.59183E-03     49.1412E-03    -118.497E+06    -198.575E+06    -68.7546E+06    -485.392E+03    -226.221E-03     451.728E-03    -225.507E-03     83.0012E-03    -227.344E-03     451.925E-03    -225.391E-03     73.5096E-03
            1827     2.87329E-03     49.0396E-03    -128.006E+06    -223.806E+06    -90.4933E+06    -231.246E+03    -225.958E-03     451.463E-03    -225.506E-03     67.6910E-03    -226.745E-03     451.264E-03    -225.448E-03     60.0387E-03
            1828     2.15515E-03     48.9588E-03    -136.658E+06    -245.218E+06    -112.854E+06     8.61072E+03    -225.740E-03     451.228E-03    -225.488E-03     51.7499E-03    -226.254E-03     450.714E-03    -225.498E-03     45.9739E-03
            1829     1.43677E-03     48.9003E-03    -143.471E+06    -266.618E+06    -131.971E+06    -40.0737E+03    -225.554E-03     451.041E-03    -225.487E-03     35.2785E-03    -225.859E-03     450.273E-03    -225.552E-03     31.3671E-03
            1830     717.887E-06     48.8642E-03    -148.379E+06    -283.071E+06    -145.789E+06     150.517E+03    -225.548E-03     451.029E-03    -225.481E-03     19.2338E-03    -225.722E-03     450.095E-03    -225.585E-03     17.0963E-03
            1831     13.6583E-03     50.1267E-03    -5.49756E+06     82.2442E+06     93.9093E+06    -750.962E+03    -224.347E-03     449.538E-03    -225.190E-03     91.0560E-03    -226.767E-03     451.957E-03    -224.832E-03     74.6726E-03
            1832     12.9379E-03     49.9754E-03    -11.0690E+06     78.3386E+06     94.8896E+06    -238.888E+03    -224.714E-03     449.971E-03    -225.258E-03     122.069E-03    -228.099E-03     453.321E-03    -224.881E-03     102.492E-03
            1833     12.2183E-03     49.8165E-03    -15.5098E+06     70.1676E+06     90.9612E+06     1.52756E+06    -226.188E-03     451.490E-03    -225.301E-03     131.780E-03    -229.726E-03     454.957E-03    -224.926E-03     112.222E-03
            1834     11.4988E-03     49.6326E-03    -20.1953E+06     66.8836E+06     84.0984E+06     2.99685E+06    -227.207E-03     452.505E-03    -225.298E-03     143.130E-03    -231.056E-03     456.276E-03    -224.945E-03     123.127E-03
            1835     10.7804E-03     49.4385E-03    -27.8998E+06     60.3481E+06     73.1503E+06     3.84156E+06    -227.672E-03     452.950E-03    -225.278E-03     148.690E-03    -231.628E-03     456.809E-03    -224.959E-03     128.788E-03
            1836     10.0615E-03     49.2371E-03    -38.6304E+06     48.0033E+06     61.0124E+06     3.60498E+06    -227.839E-03     453.112E-03    -225.273E-03     151.684E-03    -231.829E-03     456.958E-03    -224.981E-03     132.014E-03
            1837     9.34222E-03     49.0329E-03    -48.4222E+06     36.2252E+06     54.3570E+06     1.32421E+06    -227.964E-03     453.266E-03    -225.302E-03     152.124E-03    -231.905E-03     457.006E-03    -225.013E-03     132.813E-03
            1838     8.62362E-03     48.8287E-03    -55.5839E+06     9.56645E+06     46.2371E+06    -1.35783E+06    -228.108E-03     453.452E-03    -225.344E-03     150.731E-03    -231.894E-03     456.941E-03    -225.046E-03     131.904E-03
            1839     7.90490E-03     48.6275E-03    -62.3207E+06    -29.0641E+06     33.1159E+06    -1.84720E+06    -228.138E-03     453.515E-03    -225.377E-03     147.361E-03    -231.665E-03     456.621E-03    -225.079E-03     129.239E-03
            1840     7.18607E-03     48.4327E-03    -69.9144E+06    -61.1037E+06     19.5100E+06    -1.29012E+06    -227.866E-03     453.274E-03    -225.408E-03     141.699E-03    -231.061E-03     455.947E-03    -225.121E-03     124.548E-03
            1841     6.46672E-03     48.2477E-03    -78.7193E+06    -90.3705E+06     4.83203E+06    -890.337E+03    -227.451E-03     452.905E-03    -225.454E-03     133.683E-03    -230.256E-03     455.096E-03    -225.184E-03     117.731E-03
            1842     5.74745E-03     48.0754E-03    -88.0132E+06    -118.321E+06    -10.9378E+06    -439.718E+03    -227.203E-03     452.708E-03    -225.505E-03     123.378E-03    -229.579E-03     454.384E-03    -225.261E-03     108.817E-03
            1843     5.02907E-03     47.9173E-03    -97.5019E+06    -143.934E+06    -28.1386E+06    -344.541E+03    -226.996E-03     452.533E-03    -225.537E-03     111.202E-03    -228.932E-03     453.694E-03    -225.328E-03     98.2075E-03
            1844     4.31044E-03     47.7761E-03    -107.564E+06    -170.083E+06    -47.1922E+06    -347.852E+03    -226.668E-03     452.217E-03    -225.550E-03     97.6534E-03    -228.179E-03     452.880E-03    -225.383E-03     86.3663E-03
            1845     3.59193E-03     47.6547E-03    -117.970E+06    -199.317E+06    -68.2233E+06    -269.947E+03    -226.323E-03     451.877E-03    -225.554E-03     83.1264E-03    -227.443E-03     452.069E-03    -225.435E-03     73.6378E-03
            1846     2.87332E-03     47.5527E-03    -127.763E+06    -224.478E+06    -90.4987E+06    -344.126E+03    -225.991E-03     451.539E-03    -225.548E-03     67.7779E-03    -226.775E-03     451.335E-03    -225.490E-03     60.1318E-03
            1847     2.15453E-03     47.4718E-03    -136.298E+06    -245.610E+06    -112.163E+06    -212.611E+03    -225.714E-03     451.263E-03    -225.549E-03     51.7048E-03    -226.227E-03     450.745E-03    -225.556E-03     45.9283E-03
            1848     1.43610E-03     47.4132E-03    -143.336E+06    -267.155E+06    -131.166E+06     208.890E+03    -225.614E-03     451.181E-03    -225.567E-03     35.2728E-03    -225.919E-03     450.409E-03    -225.628E-03     31.3569E-03
            1849     718.443E-06     47.3767E-03    -147.657E+06    -282.404E+06    -144.047E+06     535.290E+03    -225.754E-03     451.196E-03    -225.442E-03     19.2784E-03    -225.928E-03     450.261E-03    -225.538E-03     17.1512E-03
            1850     13.6561E-03     48.6443E-03    -4.50355E+06     82.7791E+06     93.9851E+06     739.026E+03    -224.222E-03     449.437E-03    -225.215E-03     90.6380E-03    -226.635E-03     451.855E-03    -224.859E-03     74.3028E-03
            1851     12.9361E-03     48.4884E-03    -11.6886E+06     78.5426E+06     93.8160E+06    -117.858E+03    -225.436E-03     450.702E-03    -225.266E-03     122.798E-03    -228.841E-03     454.072E-03    -224.894E-03     103.124E-03
            1852     12.2180E-03     48.3289E-03    -18.4597E+06     67.5000E+06     88.7588E+06    -1.19530E+06    -226.693E-03     451.967E-03    -225.274E-03     130.929E-03    -230.237E-03     455.428E-03    -224.902E-03     111.240E-03
            1853     11.5001E-03     48.1454E-03    -25.1612E+06     62.5230E+06     80.8044E+06     477.937E+03    -227.233E-03     452.481E-03    -225.248E-03     142.445E-03    -231.085E-03     456.231E-03    -224.898E-03     122.416E-03
            1854     10.7809E-03     47.9515E-03    -30.7194E+06     56.6193E+06     71.5732E+06     3.60199E+06    -227.566E-03     452.794E-03    -225.228E-03     148.200E-03    -231.518E-03     456.630E-03    -224.908E-03     128.322E-03
            1855     10.0620E-03     47.7506E-03    -34.1672E+06     50.3365E+06     66.1133E+06     4.62364E+06    -227.788E-03     453.025E-03    -225.237E-03     151.424E-03    -231.761E-03     456.864E-03    -224.930E-03     131.788E-03
            1856     9.34336E-03     47.5463E-03    -38.7153E+06     44.1462E+06     62.7144E+06     2.90034E+06    -227.814E-03     453.086E-03    -225.272E-03     152.294E-03    -231.730E-03     456.840E-03    -224.967E-03     133.031E-03
            1857     8.62402E-03     47.3423E-03    -46.9810E+06     13.2433E+06     51.2575E+06     731.822E+03    -227.832E-03     453.157E-03    -225.325E-03     151.263E-03    -231.591E-03     456.647E-03    -225.020E-03     132.501E-03
            1858     7.90470E-03     47.1411E-03    -57.0189E+06    -29.2029E+06     35.5317E+06    -248.566E+03    -227.750E-03     453.141E-03    -225.391E-03     147.920E-03    -231.255E-03     456.237E-03    -225.089E-03     129.870E-03
            1859     7.18535E-03     46.9465E-03    -66.9486E+06    -61.8631E+06     20.9673E+06    -371.425E+03    -227.582E-03     453.045E-03    -225.463E-03     142.009E-03    -230.764E-03     455.709E-03    -225.172E-03     124.902E-03
            1860     6.46626E-03     46.7618E-03    -76.5667E+06    -90.9088E+06     6.00307E+06    -27.3223E+03    -227.548E-03     453.075E-03    -225.527E-03     133.713E-03    -230.344E-03     455.259E-03    -225.254E-03     117.766E-03
            1861     5.74764E-03     46.5884E-03    -86.4209E+06    -118.394E+06    -9.88971E+06     12.9222E+03    -227.434E-03     453.001E-03    -225.566E-03     123.321E-03    -229.803E-03     454.670E-03    -225.319E-03     108.760E-03
            1862     5.02878E-03     46.4302E-03    -96.6432E+06    -143.945E+06    -27.1534E+06     280.725E+03    -227.041E-03     452.630E-03    -225.589E-03     111.249E-03    -228.974E-03     453.788E-03    -225.376E-03     98.2677E-03
            1863     4.31001E-03     46.2896E-03    -107.073E+06    -170.261E+06    -46.6416E+06     418.101E+03    -226.661E-03     452.269E-03    -225.608E-03     97.8535E-03    -228.173E-03     452.932E-03    -225.439E-03     86.5721E-03
            1864     3.59130E-03     46.1674E-03    -117.239E+06    -199.139E+06    -67.5656E+06     223.621E+03    -226.438E-03     452.050E-03    -225.612E-03     83.1895E-03    -227.558E-03     452.243E-03    -225.491E-03     73.6903E-03
            1865     2.87309E-03     46.0657E-03    -127.040E+06    -224.081E+06    -89.5850E+06     126.498E+03    -226.157E-03     451.742E-03    -225.585E-03     67.6484E-03    -226.941E-03     451.539E-03    -225.524E-03     60.0000E-03
            1866     2.15497E-03     45.9850E-03    -136.090E+06    -246.184E+06    -111.839E+06    -15.7216E+03    -225.835E-03     451.381E-03    -225.546E-03     51.4740E-03    -226.345E-03     450.858E-03    -225.551E-03     45.7027E-03
            1867     1.43663E-03     45.9260E-03    -143.194E+06    -267.341E+06    -131.366E+06    -147.723E+03    -225.627E-03     451.152E-03    -225.525E-03     35.1276E-03    -225.930E-03     450.379E-03    -225.586E-03     31.2061E-03
            1868     717.895E-06     45.8891E-03    -148.152E+06    -282.135E+06    -144.673E+06    -348.788E+03    -225.633E-03     451.078E-03    -225.445E-03     19.2575E-03    -225.810E-03     450.147E-03    -225.544E-03     17.1028E-03
            1869     13.6561E-03     47.1593E-03    -4.49646E+06     81.9737E+06     93.9434E+06     1.22071E+06    -225.173E-03     450.394E-03    -225.222E-03     89.0483E-03    -227.564E-03     452.789E-03    -224.864E-03     72.6856E-03
            1870     12.9382E-03     46.9998E-03    -9.82911E+06     80.1626E+06     95.3938E+06     1.82272E+06    -226.050E-03     451.277E-03    -225.228E-03     121.860E-03    -229.444E-03     454.645E-03    -224.853E-03     102.132E-03
            1871     12.2199E-03     46.8415E-03    -17.5896E+06     70.5822E+06     89.6032E+06     1.17366E+06    -226.485E-03     451.700E-03    -225.215E-03     130.674E-03    -230.030E-03     455.173E-03    -224.844E-03     111.014E-03
            1872     11.5005E-03     46.6588E-03    -24.4830E+06     59.3120E+06     80.3641E+06     -640.89E+03    -227.149E-03     452.346E-03    -225.198E-03     142.682E-03    -230.998E-03     456.086E-03    -224.846E-03     122.637E-03
            1873     10.7817E-03     46.4652E-03    -28.8599E+06     51.5541E+06     72.7535E+06    -1.50995E+06    -227.382E-03     452.577E-03    -225.195E-03     148.597E-03    -231.327E-03     456.391E-03    -224.864E-03     128.663E-03
            1874     10.0627E-03     46.2639E-03    -33.7620E+06     50.2660E+06      67.459E+06    -967.545E+03    -227.459E-03     452.677E-03    -225.218E-03     152.156E-03    -231.439E-03     456.521E-03    -224.905E-03     132.480E-03
            1875     9.34300E-03     46.0604E-03    -40.8032E+06     44.3654E+06     61.9901E+06     801.697E+03    -227.520E-03     452.794E-03    -225.274E-03     153.196E-03    -231.453E-03     456.560E-03    -224.970E-03     133.946E-03
            1876     8.62360E-03     45.8562E-03    -48.8402E+06     15.3322E+06     51.7202E+06     2.33154E+06    -227.565E-03     452.924E-03    -225.360E-03     151.909E-03    -231.339E-03     456.430E-03    -225.052E-03     133.216E-03
            1877     7.90426E-03     45.6553E-03    -57.7193E+06    -26.8517E+06     36.2925E+06     1.94207E+06    -227.604E-03     453.055E-03    -225.451E-03     148.269E-03    -231.118E-03     456.164E-03    -225.147E-03     130.275E-03
            1878     7.18483E-03     45.4607E-03    -67.2675E+06    -61.3492E+06     20.9975E+06     1.33415E+06    -227.757E-03     453.285E-03    -225.528E-03     142.174E-03    -230.943E-03     455.953E-03    -225.236E-03     125.085E-03
            1879     6.46588E-03     45.2745E-03    -76.9840E+06    -90.6506E+06     5.94800E+06     911.264E+03    -227.794E-03     453.369E-03    -225.575E-03     133.698E-03    -230.593E-03     455.556E-03    -225.303E-03     117.747E-03
            1880     5.74711E-03     45.1013E-03    -86.8632E+06    -117.912E+06    -9.88483E+06     825.494E+03    -227.475E-03     453.078E-03    -225.603E-03     123.201E-03    -229.848E-03     454.753E-03    -225.355E-03     108.634E-03
            1881     5.02849E-03     44.9435E-03    -96.9929E+06    -144.091E+06    -27.3651E+06     743.757E+03    -227.050E-03     452.675E-03    -225.625E-03     111.029E-03    -228.985E-03     453.834E-03    -225.412E-03     98.0375E-03
            1882     4.30981E-03     44.8026E-03    -107.090E+06    -169.922E+06    -46.5084E+06     541.890E+03    -226.726E-03     452.366E-03    -225.640E-03     97.6429E-03    -228.238E-03     453.030E-03    -225.471E-03     86.3543E-03
            1883     3.59154E-03     44.6799E-03    -117.124E+06    -198.296E+06    -67.2062E+06     530.308E+03    -226.442E-03     452.085E-03    -225.643E-03     83.0572E-03    -227.563E-03     452.281E-03    -225.522E-03     73.5584E-03
            1884     2.87311E-03     44.5783E-03    -126.844E+06    -223.680E+06    -89.3533E+06     554.001E+03    -226.173E-03     451.793E-03    -225.619E-03     67.6994E-03    -226.958E-03     451.592E-03    -225.558E-03     60.0464E-03
            1885     2.15476E-03     44.4975E-03    -135.516E+06    -246.036E+06    -111.635E+06     319.593E+03    -225.938E-03     451.509E-03    -225.572E-03     51.7890E-03    -226.447E-03     450.988E-03    -225.576E-03     46.0100E-03
            1886     1.43657E-03     44.4393E-03    -142.491E+06    -266.997E+06    -130.763E+06     205.714E+03    -225.714E-03     451.235E-03    -225.521E-03     35.5026E-03    -226.016E-03     450.462E-03    -225.581E-03     31.5815E-03
            1887     718.589E-06     44.4020E-03    -147.616E+06    -282.194E+06    -144.389E+06     239.512E+03    -225.648E-03     451.032E-03    -225.385E-03     19.3370E-03    -225.822E-03     450.100E-03    -225.483E-03     17.1961E-03
            1888     13.6572E-03     45.6670E-03    -5.47876E+06     80.5613E+06     92.4614E+06     281.228E+03    -225.536E-03     450.734E-03    -225.198E-03     90.3281E-03    -227.950E-03     453.146E-03    -224.845E-03     73.8722E-03
            1889     12.9393E-03     45.5145E-03    -9.56721E+06     79.2136E+06     94.6694E+06     284.746E+03    -226.268E-03     451.459E-03    -225.190E-03     122.585E-03    -229.670E-03     454.833E-03    -224.818E-03     102.812E-03
            1890     12.2191E-03     45.3545E-03    -13.1988E+06     71.1746E+06     91.4158E+06     1.09726E+06    -226.311E-03     451.494E-03    -225.183E-03     131.310E-03    -229.841E-03     454.965E-03    -224.810E-03     111.698E-03
            1891     11.5007E-03     45.1717E-03    -18.0834E+06     62.7797E+06     84.5176E+06     832.061E+03    -226.739E-03     451.929E-03    -225.190E-03     142.938E-03    -230.569E-03     455.673E-03    -224.833E-03     122.956E-03
            1892     10.7817E-03     44.9788E-03    -26.4353E+06     54.0268E+06     74.8459E+06    -889.200E+03    -226.976E-03     452.191E-03    -225.215E-03     149.528E-03    -230.928E-03     456.024E-03    -224.881E-03     129.632E-03
            1893     10.0618E-03     44.7787E-03    -35.7674E+06     47.8955E+06     65.3599E+06    -972.455E+03    -227.266E-03     452.526E-03    -225.261E-03     153.136E-03    -231.261E-03     456.375E-03    -224.951E-03     133.480E-03
            1894     9.34241E-03     44.5743E-03    -44.2484E+06     40.6442E+06     59.1011E+06    -14.0755E+03    -227.460E-03     452.796E-03    -225.335E-03     153.748E-03    -231.404E-03     456.556E-03    -225.035E-03     134.507E-03
            1895     8.62295E-03     44.3704E-03    -52.3936E+06     13.9216E+06     49.6674E+06     861.580E+03    -227.612E-03     453.042E-03    -225.430E-03     152.117E-03    -231.404E-03     456.553E-03    -225.125E-03     133.397E-03
            1896     7.90328E-03     44.1694E-03    -60.6860E+06    -26.0351E+06     35.0042E+06     1.67814E+06    -227.914E-03     453.424E-03    -225.510E-03     148.276E-03    -231.446E-03     456.547E-03    -225.209E-03     130.247E-03
            1897     7.18446E-03     43.9735E-03    -69.4185E+06    -60.0510E+06     20.3405E+06     1.52508E+06    -228.087E-03     453.647E-03    -225.559E-03     141.961E-03    -231.286E-03     456.327E-03    -225.270E-03     124.838E-03
            1898     6.46595E-03     43.7875E-03    -78.5288E+06    -89.9245E+06     5.36817E+06     1.16997E+06    -227.825E-03     453.412E-03    -225.588E-03     133.357E-03    -230.630E-03     455.604E-03    -225.316E-03     117.398E-03
            1899     5.74728E-03     43.6145E-03    -87.7319E+06    -117.470E+06    -10.3237E+06     823.872E+03    -227.406E-03     453.022E-03    -225.615E-03     123.000E-03    -229.785E-03     454.702E-03    -225.370E-03     108.421E-03
            1900     5.02853E-03     43.4564E-03    -97.2166E+06    -143.447E+06    -27.4430E+06     643.261E+03    -227.094E-03     452.734E-03    -225.640E-03     111.096E-03    -229.034E-03     453.899E-03    -225.428E-03     98.0867E-03
            1901     4.31011E-03     43.3154E-03    -107.251E+06    -169.526E+06    -46.7099E+06     632.941E+03    -226.754E-03     452.406E-03    -225.652E-03     97.8124E-03    -228.268E-03     453.073E-03    -225.484E-03     86.5232E-03
            1902     3.59133E-03     43.1929E-03    -117.360E+06    -198.135E+06    -67.7329E+06     540.294E+03    -226.361E-03     452.026E-03    -225.665E-03     83.2910E-03    -227.483E-03     452.225E-03    -225.546E-03     73.7974E-03
            1903     2.87284E-03     43.0910E-03    -126.888E+06    -223.490E+06    -89.9557E+06     438.862E+03    -226.084E-03     451.756E-03    -225.672E-03     67.8785E-03    -226.869E-03     451.558E-03    -225.613E-03     60.2250E-03
            1904     2.15446E-03     43.0102E-03    -135.398E+06    -245.546E+06    -111.597E+06     493.862E+03    -225.941E-03     451.601E-03    -225.660E-03     51.7941E-03    -226.451E-03     451.083E-03    -225.666E-03     46.0069E-03
            1905     1.43623E-03     42.9515E-03    -142.455E+06    -266.616E+06    -130.691E+06     511.668E+03    -225.831E-03     451.449E-03    -225.618E-03     35.3717E-03    -226.134E-03     450.679E-03    -225.678E-03     31.4402E-03
            1906     717.910E-06     42.9150E-03    -146.321E+06    -281.271E+06    -143.705E+06     351.094E+03    -225.844E-03     451.218E-03    -225.374E-03     19.3345E-03    -226.014E-03     450.287E-03    -225.473E-03     17.1861E-03
            1907     13.6559E-03     44.1784E-03    -5.17146E+06     80.8888E+06     91.9312E+06    -955.531E+03    -225.305E-03     450.488E-03    -225.183E-03     91.1570E-03    -227.735E-03     452.920E-03    -224.833E-03     74.5956E-03
            1908     12.9373E-03     44.0259E-03    -10.6298E+06     78.0767E+06     93.8236E+06    -1.38111E+06    -226.053E-03     451.237E-03    -225.184E-03     120.896E-03    -229.442E-03     454.593E-03    -224.813E-03     101.077E-03
            1909     12.2206E-03     43.8673E-03    -16.4637E+06     68.2282E+06     90.2715E+06    -629.182E+03    -225.827E-03     451.026E-03    -225.199E-03     131.407E-03    -229.355E-03     454.476E-03    -224.823E-03     111.887E-03
            1910     11.5007E-03     43.6866E-03    -24.0466E+06     63.9389E+06     82.2936E+06     348.729E+03    -226.209E-03     451.443E-03    -225.234E-03     143.909E-03    -230.071E-03     455.208E-03    -224.880E-03     123.997E-03
            1911     10.7800E-03     43.4933E-03    -30.6306E+06     56.5490E+06     71.5770E+06     616.505E+03    -226.860E-03     452.137E-03    -225.277E-03     150.020E-03    -230.830E-03     455.991E-03    -224.956E-03     130.176E-03
            1912     10.0608E-03     43.2923E-03    -37.0792E+06     46.7034E+06     63.0682E+06     82.1070E+03    -227.394E-03     452.728E-03    -225.334E-03     153.037E-03    -231.388E-03     456.573E-03    -225.033E-03     133.393E-03
            1913     9.34148E-03     43.0882E-03    -44.8577E+06     39.9322E+06     58.3034E+06     334.395E+03    -227.638E-03     453.045E-03    -225.407E-03     153.507E-03    -231.585E-03     456.806E-03    -225.109E-03     134.239E-03
            1914     8.62200E-03     42.8843E-03    -53.4031E+06     12.6548E+06     48.3722E+06     553.961E+03    -227.995E-03     453.475E-03    -225.480E-03     151.804E-03    -231.791E-03     456.986E-03    -225.179E-03     133.026E-03
            1915     7.90345E-03     42.6822E-03    -61.7019E+06    -26.6244E+06     34.3629E+06     441.948E+03    -228.305E-03     453.833E-03    -225.528E-03     147.968E-03    -231.844E-03     456.959E-03    -225.229E-03     129.862E-03
            1916     7.18492E-03     42.4862E-03    -69.7517E+06    -59.7694E+06     20.2783E+06     673.808E+03    -228.126E-03     453.682E-03    -225.556E-03     141.772E-03    -231.330E-03     456.367E-03    -225.267E-03     124.610E-03
            1917     6.46605E-03     42.3006E-03    -78.3879E+06    -89.3080E+06     5.35566E+06     637.410E+03    -227.706E-03     453.293E-03    -225.587E-03     133.420E-03    -230.515E-03     455.491E-03    -225.317E-03     117.448E-03
            1918     5.74709E-03     42.1277E-03    -87.7491E+06    -117.131E+06    -10.6888E+06     553.376E+03    -227.378E-03     453.001E-03    -225.624E-03     123.219E-03    -229.757E-03     454.684E-03    -225.380E-03     108.646E-03
            1919     5.02835E-03     41.9694E-03    -97.4727E+06    -143.456E+06    -28.0769E+06     528.153E+03    -227.090E-03     452.744E-03    -225.653E-03     111.263E-03    -229.032E-03     453.911E-03    -225.444E-03     98.2514E-03
            1920     4.30958E-03     41.8281E-03    -107.365E+06    -169.206E+06    -47.3279E+06     736.399E+03    -226.742E-03     452.412E-03    -225.670E-03     97.7664E-03    -228.258E-03     453.083E-03    -225.505E-03     86.4682E-03
            1921     3.59123E-03     41.7060E-03    -117.346E+06    -197.720E+06    -68.3014E+06     730.296E+03    -226.397E-03     452.080E-03    -225.682E-03     83.1221E-03    -227.518E-03     452.280E-03    -225.567E-03     73.6336E-03
            1922     2.87270E-03     41.6037E-03    -127.330E+06    -223.233E+06    -90.5000E+06     479.227E+03    -226.140E-03     451.821E-03    -225.681E-03     67.6481E-03    -226.925E-03     451.623E-03    -225.625E-03     59.9965E-03
            1923     2.15443E-03     41.5226E-03    -136.180E+06    -245.232E+06    -112.357E+06     545.752E+03    -225.963E-03     451.618E-03    -225.655E-03     51.4909E-03    -226.475E-03     451.102E-03    -225.664E-03     45.7036E-03
            1924     1.43633E-03     41.4637E-03    -142.928E+06    -265.673E+06    -131.425E+06     445.296E+03    -225.803E-03     451.412E-03    -225.609E-03     35.0086E-03    -226.108E-03     450.648E-03    -225.674E-03     31.0740E-03
            1925     718.427E-06     41.4275E-03    -146.784E+06    -280.311E+06    -144.385E+06     121.805E+03    -225.838E-03     451.204E-03    -225.366E-03     18.9810E-03    -226.011E-03     450.280E-03    -225.468E-03     16.8191E-03
            1926     13.6576E-03     42.6874E-03    -5.25683E+06     81.5284E+06     93.2105E+06    -1.23604E+06    -224.702E-03     449.864E-03    -225.162E-03     91.3634E-03    -227.131E-03     452.294E-03    -224.807E-03     74.8897E-03
            1927     12.9406E-03     42.5396E-03    -12.8023E+06     76.3115E+06     93.1897E+06     99.1648E+03    -224.833E-03     450.045E-03    -225.212E-03     121.508E-03    -228.221E-03     453.389E-03    -224.838E-03     101.886E-03
            1928     12.2181E-03     42.3828E-03    -18.5867E+06     69.6652E+06     89.9738E+06     453.441E+03    -225.462E-03     450.738E-03    -225.276E-03     132.473E-03    -228.992E-03     454.188E-03    -224.900E-03     113.113E-03
            1929     11.4981E-03     42.2005E-03    -23.3687E+06     62.7711E+06     83.0765E+06    -943.643E+03    -226.545E-03     451.870E-03    -225.325E-03     144.056E-03    -230.400E-03     455.624E-03    -224.967E-03     124.116E-03
            1930     10.7798E-03     42.0071E-03    -28.7876E+06     53.5430E+06     73.2734E+06     84.0095E+03    -227.283E-03     452.636E-03    -225.353E-03     149.403E-03    -231.234E-03     456.463E-03    -225.023E-03     129.525E-03
            1931     10.0604E-03     41.8059E-03    -36.0437E+06     47.7315E+06     64.2117E+06     1.20029E+06    -227.607E-03     452.988E-03    -225.381E-03     152.291E-03    -231.594E-03     456.831E-03    -225.077E-03     132.623E-03
            1932     9.34110E-03     41.6021E-03    -44.1415E+06     40.5844E+06     58.7393E+06     454.130E+03    -227.916E-03     453.347E-03    -225.430E-03     152.810E-03    -231.863E-03     457.110E-03    -225.131E-03     133.478E-03
            1933     8.62243E-03     41.3969E-03    -51.9116E+06     13.2825E+06     49.6692E+06     136.223E+03    -228.223E-03     453.705E-03    -225.482E-03     151.430E-03    -232.016E-03     457.216E-03    -225.177E-03     132.602E-03
            1934     7.90368E-03     41.1948E-03    -60.0399E+06    -27.1564E+06     34.7662E+06     167.530E+03    -228.236E-03     453.754E-03    -225.519E-03     147.969E-03    -231.770E-03     456.878E-03    -225.218E-03     129.844E-03
            1935     7.18475E-03     40.9994E-03    -68.8013E+06    -60.3648E+06     19.9290E+06     366.614E+03    -227.965E-03     453.520E-03    -225.555E-03     141.932E-03    -231.166E-03     456.205E-03    -225.268E-03     124.766E-03
            1936     6.46575E-03     40.8141E-03    -77.9457E+06    -89.1296E+06     4.89461E+06     591.915E+03    -227.689E-03     453.285E-03    -225.596E-03     133.528E-03    -230.498E-03     455.486E-03    -225.329E-03     117.550E-03
            1937     5.74699E-03     40.6407E-03    -87.6585E+06    -116.947E+06    -11.2018E+06     812.878E+03    -227.456E-03     453.087E-03    -225.631E-03     123.199E-03    -229.835E-03     454.772E-03    -225.391E-03     108.621E-03
            1938     5.02837E-03     40.4823E-03    -97.7510E+06    -143.380E+06    -28.9764E+06     709.739E+03    -227.155E-03     452.805E-03    -225.650E-03     111.117E-03    -229.095E-03     453.973E-03    -225.445E-03     98.1047E-03
            1939     4.30995E-03     40.3410E-03    -107.737E+06    -169.135E+06    -47.9437E+06     647.436E+03    -226.814E-03     452.468E-03    -225.655E-03     97.5342E-03    -228.329E-03     453.140E-03    -225.493E-03     86.2270E-03
            1940     3.59130E-03     40.2186E-03    -117.649E+06    -197.149E+06    -68.3547E+06     1.05937E+06    -226.523E-03     452.166E-03    -225.643E-03     82.8536E-03    -227.644E-03     452.368E-03    -225.528E-03     73.3723E-03
            1941     2.87311E-03     40.1163E-03    -127.033E+06    -222.264E+06    -90.4757E+06     980.939E+03    -226.218E-03     451.820E-03    -225.602E-03     67.4074E-03    -227.000E-03     451.624E-03    -225.548E-03     59.7712E-03
            1942     2.15484E-03     40.0351E-03    -135.618E+06    -244.441E+06    -112.270E+06     434.951E+03    -225.864E-03     451.420E-03    -225.556E-03     51.3515E-03    -226.373E-03     450.906E-03    -225.566E-03     45.5759E-03
            1943     1.43652E-03     39.9764E-03    -142.433E+06    -264.961E+06    -131.017E+06     259.317E+03    -225.617E-03     451.158E-03    -225.541E-03     35.0673E-03    -225.920E-03     450.395E-03    -225.606E-03     31.1429E-03
            1944     718.015E-06     39.9402E-03    -147.040E+06    -279.544E+06    -143.472E+06     57.3559E+03    -225.758E-03     451.130E-03    -225.372E-03     19.2007E-03    -225.935E-03     450.209E-03    -225.471E-03     17.0313E-03
            1945     13.6583E-03     41.2051E-03    -5.29435E+06     81.1533E+06     94.3045E+06     1.09168E+06    -223.870E-03     449.064E-03    -225.194E-03     91.9313E-03    -226.286E-03     451.476E-03    -224.833E-03     75.6821E-03
            1946     12.9341E-03     41.0538E-03    -10.4008E+06     77.2395E+06     94.6581E+06     311.145E+03    -224.388E-03     449.668E-03    -225.281E-03     121.836E-03    -227.761E-03     453.005E-03    -224.904E-03     102.288E-03
            1947     12.2171E-03     40.8965E-03    -16.1719E+06     71.5521E+06     90.8772E+06    -1.35133E+06    -226.102E-03     451.437E-03    -225.334E-03     130.880E-03    -229.619E-03     454.886E-03    -224.960E-03     111.345E-03
            1948     11.4988E-03     40.7134E-03    -22.9868E+06     63.0244E+06     81.8802E+06    -1.42663E+06    -226.927E-03     452.267E-03    -225.340E-03     142.307E-03    -230.764E-03     456.009E-03    -224.989E-03     122.284E-03
            1949     10.7793E-03     40.5201E-03    -30.7883E+06     50.8895E+06     70.3620E+06    -973.302E+03    -227.302E-03     452.649E-03    -225.347E-03     148.325E-03    -231.247E-03     456.461E-03    -225.024E-03     128.405E-03
            1950     10.0605E-03     40.3196E-03    -36.6613E+06     46.4197E+06     63.9766E+06    -386.563E+03    -227.726E-03     453.100E-03    -225.373E-03     151.877E-03    -231.712E-03     456.935E-03    -225.067E-03     132.166E-03
            1951     9.34180E-03     40.1148E-03    -42.2266E+06     41.0301E+06     59.8561E+06     54.5087E+03    -228.035E-03     453.447E-03    -225.412E-03     152.852E-03    -231.977E-03     457.211E-03    -225.111E-03     133.491E-03
            1952     8.62281E-03     39.9101E-03    -50.4264E+06     12.6046E+06     49.1672E+06     233.067E+03    -228.102E-03     453.559E-03    -225.458E-03     151.646E-03    -231.890E-03     457.070E-03    -225.157E-03     132.816E-03
            1953     7.90361E-03     39.7082E-03    -59.6493E+06    -27.5614E+06     34.0627E+06     930.034E+03    -228.006E-03     453.517E-03    -225.511E-03     148.042E-03    -231.536E-03     456.638E-03    -225.214E-03     129.948E-03
            1954     7.18453E-03     39.5127E-03    -69.0859E+06    -60.2803E+06     19.0135E+06     1.18873E+06    -227.898E-03     453.460E-03    -225.561E-03     141.873E-03    -231.099E-03     456.146E-03    -225.279E-03     124.723E-03
            1955     6.46578E-03     39.3271E-03    -78.6273E+06    -88.9537E+06     3.88579E+06     1.18510E+06    -227.812E-03     453.411E-03    -225.599E-03     133.492E-03    -230.622E-03     455.614E-03    -225.337E-03     117.517E-03
            1956     5.74711E-03     39.1536E-03    -88.1418E+06    -116.486E+06    -11.8610E+06     1.05705E+06    -227.629E-03     453.245E-03    -225.617E-03     123.109E-03    -230.009E-03     454.934E-03    -225.379E-03     108.519E-03
            1957     5.02850E-03     38.9951E-03    -97.9126E+06    -142.692E+06    -29.0308E+06     1.09694E+06    -227.288E-03     452.900E-03    -225.612E-03     110.869E-03    -229.226E-03     454.068E-03    -225.409E-03     97.8639E-03
            1958     4.30991E-03     38.8536E-03    -108.143E+06    -168.837E+06    -48.2777E+06     852.028E+03    -226.876E-03     452.468E-03    -225.592E-03     97.2977E-03    -228.389E-03     453.138E-03    -225.431E-03     86.0076E-03
            1959     3.59175E-03     38.7313E-03    -118.128E+06    -197.113E+06    -68.7516E+06     491.990E+03    -226.481E-03     452.046E-03    -225.565E-03     82.8354E-03    -227.602E-03     452.248E-03    -225.451E-03     73.3529E-03
            1960     2.87340E-03     38.6288E-03    -127.283E+06    -221.508E+06    -90.0735E+06     723.345E+03    -226.109E-03     451.636E-03    -225.527E-03     67.5940E-03    -226.894E-03     451.445E-03    -225.472E-03     59.9658E-03
            1961     2.15504E-03     38.5483E-03    -135.827E+06    -243.179E+06    -112.005E+06     753.820E+03    -225.797E-03     451.282E-03    -225.485E-03     51.5257E-03    -226.309E-03     450.774E-03    -225.495E-03     45.7702E-03
            1962     1.43646E-03     38.4896E-03    -142.722E+06    -264.234E+06    -131.026E+06     278.858E+03    -225.594E-03     451.047E-03    -225.454E-03     35.0062E-03    -225.898E-03     450.287E-03    -225.519E-03     31.0995E-03
            1963     718.227E-06     38.4528E-03    -147.562E+06    -279.173E+06    -144.433E+06     130.640E+03    -225.512E-03     450.915E-03    -225.403E-03     19.0226E-03    -225.690E-03     449.998E-03    -225.506E-03     16.8626E-03
            1964     13.6549E-03     39.7218E-03    -3.65149E+06     81.0814E+06     94.3292E+06     617.280E+03    -224.580E-03     449.818E-03    -225.238E-03     89.7771E-03    -226.974E-03     452.213E-03    -224.879E-03     73.3718E-03
            1965     12.9388E-03     39.5682E-03    -7.75202E+06     80.4370E+06     96.8252E+06     408.605E+03    -225.317E-03     450.598E-03    -225.281E-03     120.684E-03    -228.676E-03     453.934E-03    -224.902E-03     101.029E-03
            1966     12.2185E-03     39.4082E-03    -15.4139E+06     72.3445E+06     91.8778E+06    -410.945E+03    -226.129E-03     451.432E-03    -225.303E-03     130.208E-03    -229.652E-03     454.891E-03    -224.926E-03     110.603E-03
            1967     11.4995E-03     39.2272E-03    -23.4301E+06     62.1302E+06     82.0805E+06    -126.233E+03    -226.788E-03     452.096E-03    -225.308E-03     142.219E-03    -230.634E-03     455.841E-03    -224.954E-03     122.195E-03
            1968     10.7805E-03     39.0344E-03    -29.8061E+06     52.7667E+06     71.6576E+06    -183.762E+03    -227.202E-03     452.522E-03    -225.319E-03     148.534E-03    -231.150E-03     456.344E-03    -224.994E-03     128.628E-03
            1969     10.0610E-03     38.8328E-03    -37.8656E+06     46.6338E+06     62.5058E+06    -1.39458E+06    -227.624E-03     452.969E-03    -225.345E-03     152.265E-03    -231.615E-03     456.810E-03    -225.045E-03     132.560E-03
            1970     9.34170E-03     38.6281E-03    -46.4365E+06     37.8215E+06     55.4121E+06    -1.53583E+06    -227.894E-03     453.282E-03    -225.388E-03     153.268E-03    -231.848E-03     457.045E-03    -225.098E-03     133.907E-03
            1971     8.62254E-03     38.4234E-03    -54.0792E+06     10.3802E+06     45.4585E+06    -209.226E+03    -228.048E-03     453.492E-03    -225.444E-03     151.754E-03    -231.846E-03     457.003E-03    -225.153E-03     132.923E-03
            1972     7.90360E-03     38.2218E-03    -62.2788E+06    -28.7038E+06     31.5784E+06     747.976E+03    -228.075E-03     453.572E-03    -225.498E-03     147.846E-03    -231.610E-03     456.693E-03    -225.208E-03     129.746E-03
            1973     7.18467E-03     38.0260E-03    -70.8315E+06    -60.1108E+06     17.8762E+06     1.30495E+06    -227.984E-03     453.524E-03    -225.540E-03     141.614E-03    -231.185E-03     456.208E-03    -225.261E-03     124.477E-03
            1974     6.46573E-03     37.8401E-03    -79.7513E+06    -87.9749E+06     3.35667E+06     1.19196E+06    -227.903E-03     453.468E-03    -225.565E-03     133.217E-03    -230.712E-03     455.671E-03    -225.305E-03     117.254E-03
            1975     5.74722E-03     37.6661E-03    -89.2541E+06    -116.097E+06    -12.4371E+06     828.741E+03    -227.707E-03     453.272E-03    -225.565E-03     122.790E-03    -230.086E-03     454.958E-03    -225.330E-03     108.205E-03
            1976     5.02898E-03     37.5078E-03    -98.9124E+06    -142.492E+06    -29.3349E+06     889.770E+03    -227.308E-03     452.853E-03    -225.545E-03     110.675E-03    -229.247E-03     454.021E-03    -225.342E-03     97.6757E-03
            1977     4.31072E-03     37.3666E-03    -108.681E+06    -167.656E+06    -48.3192E+06     698.278E+03    -226.803E-03     452.319E-03    -225.516E-03     97.2821E-03    -228.317E-03     452.992E-03    -225.357E-03     86.0177E-03
            1978     3.59198E-03     37.2443E-03    -118.593E+06    -196.640E+06    -69.1183E+06     82.0310E+03    -226.344E-03     451.840E-03    -225.496E-03     82.9129E-03    -227.466E-03     452.043E-03    -225.384E-03     73.4419E-03
            1979     2.87329E-03     37.1421E-03    -128.405E+06    -222.246E+06    -90.8389E+06     253.749E+03    -226.018E-03     451.488E-03    -225.470E-03     67.5117E-03    -226.805E-03     451.294E-03    -225.416E-03     59.8909E-03
            1980     2.15477E-03     37.0611E-03    -137.044E+06    -242.377E+06    -112.582E+06     620.629E+03    -225.798E-03     451.215E-03    -225.417E-03     51.2975E-03    -226.314E-03     450.711E-03    -225.430E-03     45.5538E-03
            1981     1.43687E-03     37.0024E-03    -143.701E+06    -263.369E+06    -131.736E+06     511.740E+03    -225.597E-03     450.940E-03    -225.342E-03     34.9218E-03    -225.907E-03     450.186E-03    -225.411E-03     31.0264E-03
            1982     718.631E-06     36.9662E-03    -148.089E+06    -278.373E+06    -145.027E+06     301.120E+03    -225.255E-03     450.635E-03    -225.379E-03     19.0857E-03    -225.435E-03     449.722E-03    -225.486E-03     16.9598E-03
            1983     13.6573E-03     38.2318E-03    -4.63219E+06     81.6478E+06     93.7397E+06    -687.904E+03    -224.985E-03     450.203E-03    -225.218E-03     88.5610E-03    -227.375E-03     452.595E-03    -224.861E-03     72.0768E-03
            1984     12.9371E-03     38.0811E-03    -11.0741E+06     79.2743E+06     94.7877E+06    -406.995E+03    -225.446E-03     450.690E-03    -225.244E-03     121.385E-03    -228.824E-03     454.035E-03    -224.869E-03     101.726E-03
            1985     12.2186E-03     37.9227E-03    -17.3147E+06     71.8991E+06     90.8857E+06     602.385E+03    -225.828E-03     451.103E-03    -225.276E-03     131.322E-03    -229.373E-03     454.579E-03    -224.900E-03     111.763E-03
            1986     11.4991E-03     37.7403E-03    -23.0714E+06     63.0761E+06     82.0662E+06     373.718E+03    -226.555E-03     451.855E-03    -225.300E-03     142.799E-03    -230.405E-03     455.608E-03    -224.947E-03     122.815E-03
            1987     10.7799E-03     37.5478E-03    -30.0932E+06     53.2260E+06     70.8829E+06    -20.6686E+03    -227.289E-03     452.606E-03    -225.317E-03     149.195E-03    -231.248E-03     456.441E-03    -224.996E-03     129.282E-03
            1988     10.0609E-03     37.3466E-03    -37.1040E+06     47.7706E+06     62.2156E+06     842.844E+03    -227.754E-03     453.092E-03    -225.338E-03     152.570E-03    -231.748E-03     456.943E-03    -225.042E-03     132.881E-03
            1989     9.34167E-03     37.1417E-03    -45.6479E+06     37.7725E+06     54.5943E+06     820.913E+03    -227.941E-03     453.315E-03    -225.374E-03     153.038E-03    -231.881E-03     457.068E-03    -225.090E-03     133.728E-03
            1990     8.62267E-03     36.9366E-03    -55.2276E+06     9.20164E+06     44.0196E+06     142.271E+03    -228.127E-03     453.551E-03    -225.424E-03     151.440E-03    -231.918E-03     457.051E-03    -225.137E-03     132.624E-03
            1991     7.90384E-03     36.7348E-03    -64.0850E+06    -29.2688E+06     30.2795E+06     108.675E+03    -228.246E-03     453.709E-03    -225.462E-03     147.518E-03    -231.782E-03     456.826E-03    -225.176E-03     129.396E-03
            1992     7.18511E-03     36.5395E-03    -72.5426E+06    -60.4279E+06     17.0218E+06    -25.5294E+03    -228.190E-03     453.671E-03    -225.481E-03     141.363E-03    -231.391E-03     456.351E-03    -225.204E-03     124.204E-03
            1993     6.46659E-03     36.3529E-03    -81.0295E+06    -87.9166E+06     2.97679E+06     65.4148E+03    -227.986E-03     453.468E-03    -225.482E-03     132.978E-03    -230.791E-03     455.665E-03    -225.222E-03     117.018E-03
            1994     5.74805E-03     36.1791E-03    -89.8493E+06    -116.024E+06    -12.5206E+06     202.359E+03    -227.580E-03     453.054E-03    -225.474E-03     122.510E-03    -229.953E-03     454.732E-03    -225.238E-03     107.955E-03
            1995     5.02928E-03     36.0207E-03    -99.3458E+06    -142.374E+06    -29.7195E+06     77.4617E+03    -227.109E-03     452.571E-03    -225.461E-03     110.553E-03    -229.043E-03     453.733E-03    -225.259E-03     97.5820E-03
            1996     4.31051E-03     35.8796E-03    -108.914E+06    -167.137E+06    -48.3363E+06     115.838E+03    -226.734E-03     452.174E-03    -225.440E-03     97.1451E-03    -228.245E-03     452.845E-03    -225.281E-03     85.8970E-03
            1997     3.59205E-03     35.7577E-03    -118.490E+06    -196.450E+06    -68.8138E+06     230.387E+03    -226.400E-03     451.804E-03    -225.404E-03     82.5223E-03    -227.517E-03     452.003E-03    -225.291E-03     73.0721E-03
            1998     2.87379E-03     35.6551E-03    -128.043E+06    -222.126E+06    -90.8956E+06     118.919E+03    -225.999E-03     451.343E-03    -225.345E-03     67.0785E-03    -226.779E-03     451.144E-03    -225.291E-03     59.4817E-03
            1999     2.15559E-03     35.5744E-03    -136.512E+06    -242.322E+06    -112.398E+06     20.0560E+03    -225.613E-03     450.899E-03    -225.286E-03     51.1123E-03    -226.124E-03     450.392E-03    -225.299E-03     45.3870E-03
            2000     1.43675E-03     35.5157E-03    -143.266E+06    -263.049E+06    -131.411E+06    -1.72158E+03    -225.373E-03     450.627E-03    -225.254E-03     34.8392E-03    -225.680E-03     449.873E-03    -225.322E-03     30.9469E-03
            2001     718.158E-06     35.4799E-03    -147.711E+06    -277.926E+06    -144.658E+06     -18.929E+03    -225.280E-03     450.525E-03    -225.245E-03     18.9097E-03    -225.459E-03     449.613E-03    -225.351E-03     16.7863E-03
            2002     13.6569E-03     36.7466E-03    -5.43124E+06     80.9302E+06     93.6337E+06     117.812E+03    -224.733E-03     449.945E-03    -225.212E-03     89.4499E-03    -227.122E-03     452.330E-03    -224.853E-03     73.0913E-03
            2003     12.9381E-03     36.5948E-03    -10.3966E+06     77.9154E+06     95.1023E+06     124.197E+03    -225.349E-03     450.598E-03    -225.249E-03     121.286E-03    -228.712E-03     453.925E-03    -224.872E-03     101.692E-03
            2004     12.2184E-03     36.4357E-03    -16.6975E+06     72.1226E+06     91.1950E+06     135.821E+03    -225.795E-03     451.076E-03    -225.282E-03     130.811E-03    -229.330E-03     454.544E-03    -224.906E-03     111.246E-03
            2005     11.4993E-03     36.2551E-03    -23.6518E+06     63.2628E+06     80.1170E+06     901.544E+03    -226.498E-03     451.796E-03    -225.299E-03     142.755E-03    -230.339E-03     455.546E-03    -224.955E-03     122.809E-03
            2006     10.7796E-03     36.0611E-03    -31.2756E+06     53.1754E+06     67.1490E+06     998.382E+03    -227.388E-03     452.695E-03    -225.307E-03     148.997E-03    -231.343E-03     456.533E-03    -225.003E-03     129.086E-03
            2007     10.0608E-03     35.8595E-03    -39.0575E+06     46.4765E+06     59.9092E+06     656.459E+03    -227.974E-03     453.298E-03    -225.325E-03     152.213E-03    -231.969E-03     457.146E-03    -225.036E-03     132.490E-03
            2008     9.34216E-03     35.6550E-03    -46.3035E+06     38.2177E+06     55.5831E+06     1.93996E+06    -228.162E-03     453.515E-03    -225.353E-03     152.764E-03    -232.103E-03     457.266E-03    -225.063E-03     133.460E-03
            2009     8.62315E-03     35.4501E-03    -54.1846E+06     11.6416E+06     46.1146E+06     1.85251E+06    -228.253E-03     453.638E-03    -225.385E-03     151.273E-03    -232.039E-03     457.139E-03    -225.092E-03     132.485E-03
            2010     7.90430E-03     35.2477E-03    -62.6066E+06    -27.4995E+06     31.9547E+06     94.7479E+03    -228.380E-03     453.785E-03    -225.405E-03     147.372E-03    -231.904E-03     456.897E-03    -225.115E-03     129.269E-03
            2011     7.18576E-03     35.0524E-03    -70.9553E+06    -60.2193E+06     17.9707E+06    -765.369E+03    -228.364E-03     453.766E-03    -225.401E-03     141.237E-03    -231.551E-03     456.435E-03    -225.121E-03     124.079E-03
            2012     6.46720E-03     34.8658E-03    -79.6344E+06    -88.8117E+06     3.53738E+06    -691.743E+03    -228.023E-03     453.405E-03    -225.382E-03     132.867E-03    -230.814E-03     455.587E-03    -225.120E-03     116.923E-03
            2013     5.74855E-03     34.6925E-03    -88.6192E+06    -116.454E+06    -11.9446E+06    -430.376E+03    -227.509E-03     452.872E-03    -225.363E-03     122.310E-03    -229.867E-03     454.536E-03    -225.125E-03     107.786E-03
            2014     5.02985E-03     34.5343E-03    -98.0559E+06    -142.180E+06    -28.9343E+06    -241.206E+03    -227.093E-03     452.432E-03    -225.339E-03     110.114E-03    -229.010E-03     453.580E-03    -225.135E-03     97.1835E-03
            2015     4.31126E-03     34.3931E-03    -107.892E+06    -167.542E+06    -47.7582E+06    -233.029E+03    -226.757E-03     452.049E-03    -225.292E-03     96.4958E-03    -228.251E-03     452.704E-03    -225.131E-03     85.2740E-03
            2016     3.59296E-03     34.2705E-03    -117.830E+06    -196.576E+06    -68.0316E+06     99.9388E+03    -226.327E-03     451.554E-03    -225.227E-03     81.9081E-03    -227.434E-03     451.742E-03    -225.111E-03     72.4926E-03
            2017     2.87446E-03     34.1690E-03    -127.426E+06    -221.654E+06    -90.0051E+06     30.5739E+03    -225.800E-03     450.953E-03    -225.153E-03     66.7526E-03    -226.575E-03     450.750E-03    -225.097E-03     59.1829E-03
            2018     2.15547E-03     34.0883E-03    -135.865E+06    -242.470E+06    -111.911E+06    -328.694E+03    -225.387E-03     450.486E-03    -225.099E-03     50.9061E-03    -225.894E-03     449.974E-03    -225.110E-03     45.1943E-03
            2019     1.43708E-03     34.0298E-03    -142.897E+06    -263.103E+06    -130.704E+06    -166.410E+03    -225.190E-03     450.262E-03    -225.072E-03     34.5728E-03    -225.494E-03     449.504E-03    -225.137E-03     30.7024E-03
            2020     718.661E-06     33.9934E-03    -147.631E+06    -278.135E+06    -144.681E+06     255.009E+03    -225.203E-03     450.151E-03    -224.948E-03     18.7091E-03    -225.381E-03     449.237E-03    -225.054E-03     16.6087E-03
            2021     13.6558E-03     35.2594E-03    -5.37330E+06     80.7384E+06     92.9157E+06    -365.232E+03    -224.622E-03     449.848E-03    -225.227E-03     89.1232E-03    -227.000E-03     452.225E-03    -224.871E-03     72.7861E-03
            2022     12.9373E-03     35.1065E-03    -10.1479E+06     77.5469E+06     94.9235E+06     144.932E+03    -225.375E-03     450.646E-03    -225.271E-03     121.380E-03    -228.730E-03     453.965E-03    -224.894E-03     101.818E-03
            2023     12.2187E-03     34.9508E-03    -15.2459E+06     71.8658E+06     91.9047E+06     709.230E+03    -225.916E-03     451.220E-03    -225.305E-03     131.278E-03    -229.449E-03     454.688E-03    -224.927E-03     111.730E-03
            2024     11.4988E-03     34.7684E-03    -21.5781E+06     60.1977E+06     81.7633E+06     1.47120E+06    -226.946E-03     452.261E-03    -225.315E-03     143.126E-03    -230.787E-03     456.002E-03    -224.962E-03     123.132E-03
            2025     10.7803E-03     34.5745E-03    -27.7911E+06     52.1476E+06     71.5173E+06     3.49147E+06    -227.673E-03     452.983E-03    -225.310E-03     148.982E-03    -231.612E-03     456.801E-03    -224.988E-03     129.100E-03
            2026     10.0612E-03     34.3726E-03    -35.6771E+06     49.4306E+06     64.1246E+06     4.06967E+06    -228.075E-03     453.383E-03    -225.307E-03     151.998E-03    -232.054E-03     457.225E-03    -225.007E-03     132.342E-03
            2027     9.34226E-03     34.1679E-03     -44.319E+06     39.2763E+06     57.9094E+06     2.08233E+06    -228.316E-03     453.634E-03    -225.318E-03     152.550E-03    -232.247E-03     457.380E-03    -225.022E-03     133.230E-03
            2028     8.62367E-03     33.9631E-03    -51.5937E+06     13.8340E+06     48.6621E+06     941.543E+03    -228.452E-03     453.781E-03    -225.330E-03     151.086E-03    -232.223E-03     457.278E-03    -225.032E-03     132.291E-03
            2029     7.90497E-03     33.7609E-03    -58.9717E+06    -25.1607E+06     34.5178E+06     457.363E+03    -228.516E-03     453.845E-03    -225.329E-03     147.257E-03    -232.014E-03     456.944E-03    -225.034E-03     129.200E-03
            2030     7.18641E-03     33.5650E-03    -67.6277E+06    -59.8526E+06     19.8971E+06     113.361E+03    -228.432E-03     453.740E-03    -225.308E-03     141.004E-03    -231.590E-03     456.388E-03    -225.024E-03     123.900E-03
            2031     6.46794E-03     33.3792E-03    -76.9672E+06    -88.9231E+06     5.12594E+06     44.5409E+03    -228.103E-03     453.372E-03    -225.269E-03     132.386E-03    -230.868E-03     455.533E-03    -225.002E-03     116.480E-03
            2032     5.74929E-03     33.2060E-03    -86.7459E+06    -116.666E+06    -10.6580E+06     34.8984E+03    -227.687E-03     452.902E-03    -225.215E-03     121.696E-03    -230.022E-03     454.546E-03    -224.974E-03     107.209E-03
            2033     5.03083E-03     33.0478E-03    -96.5846E+06    -142.050E+06    -27.6937E+06     47.6957E+03    -227.249E-03     452.390E-03    -225.141E-03     109.494E-03    -229.146E-03     453.521E-03    -224.934E-03     96.6038E-03
            2034     4.31254E-03     32.9064E-03    -106.814E+06    -167.474E+06    -46.8432E+06     134.427E+03    -226.671E-03     451.723E-03    -225.052E-03     96.0113E-03    -228.150E-03     452.364E-03    -224.888E-03     84.8495E-03
            2035     3.59378E-03     32.7848E-03    -117.024E+06    -196.577E+06    -67.5046E+06     210.160E+03    -226.077E-03     451.046E-03    -224.969E-03     81.4224E-03    -227.171E-03     451.222E-03    -224.851E-03     72.0612E-03
            2036     2.87492E-03     32.6833E-03    -126.481E+06    -221.431E+06    -89.2363E+06     60.3485E+03    -225.601E-03     450.483E-03    -224.882E-03     66.1365E-03    -226.366E-03     450.271E-03    -224.823E-03     58.6103E-03
            2037     2.15652E-03     32.6028E-03    -135.221E+06    -242.241E+06    -111.500E+06    -41.2767E+03    -225.202E-03     449.993E-03    -224.791E-03     50.3184E-03    -225.702E-03     449.476E-03    -224.801E-03     44.6463E-03
            2038     1.43755E-03     32.5442E-03    -142.304E+06    -263.847E+06    -130.749E+06    -147.302E+03    -224.925E-03     449.642E-03    -224.717E-03     34.2784E-03    -225.224E-03     448.878E-03    -224.782E-03     30.4298E-03
            2039     718.725E-06     32.5079E-03    -146.349E+06    -278.251E+06    -143.218E+06    -186.450E+03    -224.772E-03     449.403E-03    -224.631E-03     18.5061E-03    -224.944E-03     448.484E-03    -224.731E-03     16.4020E-03
            2040     13.6568E-03     33.7712E-03    -4.91623E+06     81.6930E+06     93.0175E+06     131.146E+03    -224.118E-03     449.358E-03    -225.240E-03     89.7402E-03    -226.504E-03     451.747E-03    -224.886E-03     73.4064E-03
            2041     12.9371E-03     33.6217E-03    -10.6502E+06     77.8267E+06     93.1316E+06    -625.675E+03    -225.125E-03     450.423E-03    -225.299E-03     121.347E-03    -228.483E-03     453.750E-03    -224.930E-03     101.761E-03
            2042     12.2169E-03     33.4631E-03    -16.9887E+06     69.7362E+06     89.1008E+06    -701.733E+03    -226.235E-03     451.566E-03    -225.332E-03     131.381E-03    -229.778E-03     455.039E-03    -224.963E-03     111.757E-03
            2043     11.4991E-03     33.2811E-03    -23.0586E+06     57.4261E+06     80.6528E+06     71.1075E+03    -227.384E-03     452.714E-03    -225.329E-03     143.247E-03    -231.237E-03     456.454E-03    -224.976E-03     123.170E-03
            2044     10.7801E-03     33.0873E-03    -28.8965E+06     48.1849E+06     71.9881E+06     1.69401E+06    -228.002E-03     453.311E-03    -225.309E-03     149.176E-03    -231.944E-03     457.113E-03    -224.977E-03     129.250E-03
            2045     10.0616E-03     32.8854E-03    -33.2329E+06     48.9350E+06     66.9047E+06     3.40686E+06    -228.331E-03     453.619E-03    -225.288E-03     152.124E-03    -232.294E-03     457.444E-03    -224.976E-03     132.474E-03
            2046     9.34303E-03     32.6810E-03    -38.6455E+06     43.8548E+06     61.6754E+06     3.43667E+06    -228.565E-03     453.837E-03    -225.272E-03     152.507E-03    -232.470E-03     457.582E-03    -224.972E-03     133.213E-03
            2047     8.62428E-03     32.4758E-03    -47.2194E+06     16.4926E+06     51.5194E+06     2.22211E+06    -228.764E-03     454.021E-03    -225.257E-03     150.768E-03    -232.508E-03     457.506E-03    -224.955E-03     131.996E-03
            2048     7.90579E-03     32.2741E-03    -57.0010E+06    -24.2368E+06     36.2738E+06     1.72916E+06    -228.781E-03     454.003E-03    -225.222E-03     146.684E-03    -232.254E-03     457.082E-03    -224.923E-03     128.666E-03
            2049     7.18726E-03     32.0780E-03    -66.5869E+06    -58.6042E+06     21.1870E+06     1.60886E+06    -228.570E-03     453.735E-03    -225.164E-03     140.126E-03    -231.702E-03     456.360E-03    -224.877E-03     123.090E-03
            2050     6.46879E-03     31.8924E-03    -76.3000E+06    -88.1800E+06     6.03709E+06     1.13716E+06    -228.255E-03     453.340E-03    -225.084E-03     131.311E-03    -230.994E-03     455.477E-03    -224.816E-03     115.467E-03
            2051     5.75066E-03     31.7192E-03    -85.9319E+06    -115.872E+06     -9.7047E+06     924.581E+03    -227.828E-03     452.809E-03    -224.981E-03     120.720E-03    -230.137E-03     454.430E-03    -224.737E-03     106.303E-03
            2052     5.03243E-03     31.5614E-03    -95.9556E+06    -141.735E+06    -27.0766E+06     578.443E+03    -227.210E-03     452.068E-03    -224.859E-03     108.635E-03    -229.085E-03     453.179E-03    -224.649E-03     95.8183E-03
            2053     4.31365E-03     31.4209E-03    -106.014E+06    -167.399E+06    -46.2467E+06     503.335E+03    -226.511E-03     451.243E-03    -224.732E-03     95.1277E-03    -227.970E-03     451.866E-03    -224.567E-03     84.0418E-03
            2054     3.59496E-03     31.2995E-03    -115.609E+06    -196.162E+06    -66.6987E+06     310.860E+03    -225.903E-03     450.513E-03    -224.610E-03     80.5474E-03    -226.978E-03     450.674E-03    -224.491E-03     71.2550E-03
            2055     2.87639E-03     31.1982E-03    -125.072E+06    -220.811E+06    -88.3575E+06     189.865E+03    -225.361E-03     449.839E-03    -224.478E-03     65.3834E-03    -226.111E-03     449.617E-03    -224.418E-03     57.9205E-03
            2056     2.15723E-03     31.1183E-03    -133.664E+06    -242.219E+06    -110.269E+06     298.698E+03    -224.878E-03     449.222E-03    -224.344E-03     49.7860E-03    -225.366E-03     448.696E-03    -224.350E-03     44.1663E-03
            2057     1.43837E-03     31.0601E-03    -140.033E+06    -263.273E+06    -129.061E+06     98.1295E+03    -224.476E-03     448.717E-03    -224.241E-03     33.9227E-03    -224.764E-03     447.948E-03    -224.301E-03     30.1080E-03
            2058     719.276E-06     31.0238E-03    -144.706E+06    -278.427E+06    -141.942E+06     -254.18E+03    -224.432E-03     448.434E-03    -224.001E-03     18.2579E-03    -224.597E-03     447.509E-03    -224.098E-03     16.1605E-03
            2059     13.6552E-03     32.2860E-03    -4.20135E+06     81.3816E+06     92.9095E+06    -119.163E+03    -223.990E-03     449.245E-03    -225.255E-03     89.8296E-03    -226.373E-03     451.632E-03    -224.902E-03     73.4985E-03
            2060     12.9359E-03     32.1345E-03    -9.82260E+06     77.5232E+06     93.1346E+06     642.647E+03    -225.228E-03     450.544E-03    -225.315E-03     121.160E-03    -228.581E-03     453.867E-03    -224.948E-03     101.586E-03
            2061     12.2182E-03     31.9762E-03    -17.0363E+06     70.0556E+06     88.4347E+06     924.207E+03    -226.410E-03     451.747E-03    -225.337E-03     131.110E-03    -229.952E-03     455.221E-03    -224.972E-03     111.479E-03
            2062     11.4984E-03     31.7934E-03    -24.4550E+06     57.7541E+06     78.5579E+06     377.061E+03    -227.445E-03     452.767E-03    -225.322E-03     143.007E-03    -231.292E-03     456.504E-03    -224.977E-03     122.949E-03
            2063     10.7803E-03     31.5995E-03    -31.0183E+06     47.5592E+06     68.5024E+06    -1.07691E+06    -228.220E-03     453.506E-03    -225.286E-03     148.986E-03    -232.162E-03     457.308E-03    -224.968E-03     128.999E-03
            2064     10.0617E-03     31.3982E-03    -37.4026E+06     45.4927E+06     62.8550E+06    -1.79676E+06    -228.702E-03     453.948E-03    -225.245E-03     151.934E-03    -232.670E-03     457.762E-03    -224.943E-03     132.176E-03
            2065     9.34319E-03     31.1931E-03    -43.9806E+06     41.2709E+06     58.8661E+06    -258.954E+03    -228.976E-03     454.176E-03    -225.200E-03     152.086E-03    -232.883E-03     457.903E-03    -224.902E-03     132.743E-03
            2066     8.62509E-03     30.9884E-03    -50.8140E+06     16.5238E+06     50.4263E+06     1.91242E+06    -229.164E-03     454.307E-03    -225.143E-03     150.069E-03    -232.902E-03     457.777E-03    -224.841E-03     131.299E-03
            2067     7.90709E-03     30.7864E-03    -58.8669E+06    -23.2946E+06     36.0852E+06     2.51824E+06    -229.198E-03     454.251E-03    -225.053E-03     145.730E-03    -232.656E-03     457.313E-03    -224.754E-03     127.737E-03
            2068     7.18915E-03     30.5914E-03    -67.5938E+06    -56.9252E+06     21.3233E+06     1.98549E+06    -228.916E-03     453.848E-03    -224.932E-03     138.994E-03    -232.025E-03     456.452E-03    -224.645E-03     122.006E-03
            2069     6.47107E-03     30.4056E-03    -76.4527E+06    -86.7605E+06     6.41037E+06     1.52849E+06    -228.392E-03     453.183E-03    -224.791E-03     130.134E-03    -231.101E-03     455.294E-03    -224.522E-03     114.375E-03
            2070     5.75270E-03     30.2332E-03    -85.9659E+06    -114.973E+06    -9.63638E+06     1.07656E+06    -227.772E-03     452.408E-03    -224.636E-03     119.562E-03    -230.052E-03     454.003E-03    -224.393E-03     105.241E-03
            2071     5.03410E-03     30.0758E-03    -95.4635E+06    -141.325E+06    -26.7287E+06     671.801E+03    -227.094E-03     451.563E-03    -224.469E-03     107.404E-03    -228.943E-03     452.648E-03    -224.259E-03     94.6750E-03
            2072     4.31570E-03     29.9361E-03    -104.881E+06    -166.847E+06    -45.2818E+06     514.389E+03    -226.338E-03     450.630E-03    -224.292E-03     93.9155E-03    -227.772E-03     451.231E-03    -224.125E-03     82.9115E-03
            2073     3.59694E-03     29.8150E-03    -114.752E+06    -195.454E+06    -65.8894E+06     404.381E+03    -225.587E-03     449.709E-03    -224.121E-03     79.6046E-03    -226.644E-03     449.855E-03    -224.001E-03     70.4030E-03
            2074     2.87771E-03     29.7146E-03    -124.367E+06    -220.572E+06    -87.9600E+06     212.079E+03    -224.925E-03     448.878E-03    -223.954E-03     64.6734E-03    -225.662E-03     448.646E-03    -223.893E-03     57.2809E-03
            2075     2.15865E-03     29.6350E-03    -132.867E+06    -241.858E+06    -109.181E+06     172.304E+03    -224.377E-03     448.176E-03    -223.799E-03     49.2465E-03    -224.857E-03     447.643E-03    -223.802E-03     43.6807E-03
            2076     1.43918E-03     29.5773E-03    -139.770E+06    -262.548E+06    -127.771E+06     373.916E+03    -223.942E-03     447.619E-03    -223.677E-03     33.4817E-03    -224.228E-03     446.847E-03    -223.732E-03     29.7241E-03
            2077     719.418E-06     29.5418E-03    -144.385E+06    -277.692E+06    -141.169E+06     388.384E+03    -224.009E-03     447.275E-03    -223.266E-03     18.2562E-03    -224.174E-03     446.351E-03    -223.360E-03     16.2052E-03
            2078     13.6566E-03     30.8013E-03    -5.28496E+06     81.2638E+06     91.6849E+06    -196.644E+03    -224.498E-03     449.741E-03    -225.243E-03     88.9646E-03    -226.865E-03     452.112E-03    -224.894E-03     72.7026E-03
            2079     12.9371E-03     30.6475E-03    -11.0400E+06     75.9456E+06     92.6331E+06    -204.102E+03    -225.278E-03     450.570E-03    -225.293E-03     120.965E-03    -228.625E-03     453.879E-03    -224.924E-03     101.419E-03
            2080     12.2172E-03     30.4888E-03    -15.4463E+06     68.1511E+06     89.3232E+06     959.611E+03    -226.381E-03     451.697E-03    -225.316E-03     130.809E-03    -229.899E-03     455.143E-03    -224.946E-03     111.239E-03
            2081     11.4994E-03     30.3061E-03    -20.7103E+06     59.0699E+06     79.9647E+06     2.39808E+06    -227.558E-03     452.848E-03    -225.291E-03     142.630E-03    -231.378E-03     456.573E-03    -224.946E-03     122.611E-03
            2082     10.7804E-03     30.1118E-03    -28.3092E+06     52.1377E+06     69.2894E+06     1.32861E+06    -228.449E-03     453.682E-03    -225.233E-03     148.370E-03    -232.374E-03     457.491E-03    -224.921E-03     128.388E-03
            2083     10.0624E-03     29.9099E-03    -36.8119E+06     47.8174E+06      62.678E+06    -716.252E+03    -229.118E-03     454.282E-03    -225.163E-03     151.136E-03    -233.072E-03     458.092E-03    -224.866E-03     131.352E-03
            2084     9.34467E-03     29.7053E-03    -45.2904E+06     37.9413E+06     57.1508E+06    -1.43327E+06    -229.497E-03     454.571E-03    -225.073E-03     151.148E-03    -233.379E-03     458.261E-03    -224.777E-03     131.782E-03
            2085     8.62674E-03     29.5004E-03    -53.4876E+06     12.6188E+06     47.4982E+06    -940.475E+03    -229.639E-03     454.593E-03    -224.954E-03     148.999E-03    -233.348E-03     458.019E-03    -224.657E-03     130.216E-03
            2086     7.90894E-03     29.2987E-03    -60.8330E+06    -23.9004E+06     34.5586E+06     268.422E+03    -229.559E-03     454.362E-03    -224.803E-03     144.568E-03    -232.988E-03     457.390E-03    -224.507E-03     126.592E-03
            2087     7.19126E-03     29.1039E-03    -68.3440E+06    -56.6959E+06     20.9100E+06     854.482E+03    -229.170E-03     453.790E-03    -224.620E-03     137.865E-03    -232.248E-03     456.364E-03    -224.334E-03     120.927E-03
            2088     6.47342E-03     28.9195E-03    -76.6781E+06    -86.1775E+06     6.33497E+06     868.488E+03    -228.544E-03     452.959E-03    -224.415E-03     129.112E-03    -231.222E-03     455.040E-03    -224.147E-03     113.429E-03
            2089     5.75522E-03     28.7478E-03    -85.4663E+06    -114.073E+06    -9.29032E+06     806.811E+03    -227.820E-03     452.014E-03    -224.194E-03     118.407E-03    -230.067E-03     453.579E-03    -223.951E-03     104.185E-03
            2090     5.03698E-03     28.5911E-03    -94.9532E+06    -140.509E+06    -26.4892E+06     733.686E+03    -226.943E-03     450.904E-03    -223.961E-03     106.107E-03    -228.760E-03     451.962E-03    -223.752E-03     93.4955E-03
            2091     4.31817E-03     28.4522E-03    -105.029E+06    -166.519E+06    -45.5711E+06     421.466E+03    -225.974E-03     449.708E-03    -223.734E-03     92.7942E-03    -227.385E-03     450.287E-03    -223.568E-03     81.9058E-03
            2092     3.59896E-03     28.3324E-03    -114.801E+06    -195.125E+06    -65.7951E+06     405.335E+03    -225.121E-03     448.649E-03    -223.528E-03     78.7035E-03    -226.161E-03     448.780E-03    -223.408E-03     69.6068E-03
            2093     2.87968E-03     28.2324E-03    -124.336E+06    -220.010E+06    -87.5120E+06     493.631E+03    -224.403E-03     447.732E-03    -223.330E-03     63.8757E-03    -225.130E-03     447.491E-03    -223.268E-03     56.5746E-03
            2094     2.15988E-03     28.1536E-03    -133.095E+06    -241.089E+06    -109.481E+06     266.626E+03    -223.788E-03     446.929E-03    -223.141E-03     48.5134E-03    -224.263E-03     446.393E-03    -223.146E-03     43.0188E-03
            2095     1.44000E-03     28.0964E-03    -139.991E+06    -262.682E+06    -128.337E+06    -9.48008E+03    -223.313E-03     446.299E-03    -222.986E-03     32.8739E-03    -223.595E-03     445.524E-03    -223.044E-03     29.1619E-03
            2096     720.332E-06     28.0609E-03    -144.606E+06    -277.291E+06    -141.161E+06    -182.748E+03    -223.068E-03     445.858E-03    -222.791E-03     18.0595E-03    -223.233E-03     444.936E-03    -222.885E-03     16.0188E-03
            2097     13.6562E-03     29.3138E-03    -5.39579E+06     81.4308E+06     91.4907E+06     248.073E+03    -224.899E-03     450.130E-03    -225.231E-03     89.3269E-03    -227.277E-03     452.513E-03    -224.884E-03     73.0168E-03
            2098     12.9374E-03     29.1619E-03    -10.7610E+06     77.0464E+06     92.8484E+06    -227.294E+03    -225.521E-03     450.784E-03    -225.264E-03     121.442E-03    -228.885E-03     454.115E-03    -224.895E-03     101.836E-03
            2099     12.2190E-03     29.0019E-03    -16.5441E+06     67.2101E+06     88.9361E+06    -1.25429E+06    -226.374E-03     451.657E-03    -225.282E-03     131.613E-03    -229.908E-03     455.113E-03    -224.911E-03     112.018E-03
            2100     11.4996E-03     28.8184E-03    -21.5165E+06     55.5030E+06     81.1273E+06    -952.172E+03    -227.906E-03     453.164E-03    -225.258E-03     143.268E-03    -231.738E-03     456.882E-03    -224.902E-03     123.169E-03
            2101     10.7819E-03     28.6237E-03    -25.3877E+06     51.2234E+06     73.5949E+06     1.89545E+06    -229.059E-03     454.234E-03    -225.175E-03     148.552E-03    -232.971E-03     458.025E-03    -224.845E-03     128.553E-03
            2102     10.0639E-03     28.4215E-03    -31.6610E+06     51.0586E+06     66.2351E+06     3.42511E+06    -229.732E-03     454.776E-03    -225.044E-03     150.740E-03    -233.652E-03     458.573E-03    -224.741E-03     131.007E-03
            2103     9.34615E-03     28.2165E-03    -40.2523E+06     41.0724E+06     59.2532E+06     2.37819E+06    -230.103E-03     454.993E-03    -224.890E-03     150.490E-03    -233.941E-03     458.662E-03    -224.595E-03     131.184E-03
            2104     8.62900E-03     28.0121E-03    -49.3889E+06     13.5272E+06     49.0850E+06     596.193E+03    -230.216E-03     454.922E-03    -224.706E-03     148.076E-03    -233.876E-03     458.312E-03    -224.408E-03     129.343E-03
            2105     7.91176E-03     27.8112E-03    -58.3802E+06    -24.9333E+06     34.9525E+06    -391.169E+03    -229.953E-03     454.436E-03    -224.483E-03     143.396E-03    -233.328E-03     457.414E-03    -224.187E-03     125.482E-03
            2106     7.19413E-03     27.6172E-03    -67.2006E+06    -57.6175E+06     20.9261E+06    -64.2843E+03    -229.369E-03     453.600E-03    -224.231E-03     136.398E-03    -232.395E-03     456.122E-03    -223.945E-03     119.543E-03
            2107     6.47618E-03     27.4337E-03    -75.9981E+06    -86.1140E+06     6.40158E+06     400.857E+03    -228.676E-03     452.630E-03    -223.953E-03     127.520E-03    -231.305E-03     454.665E-03    -223.686E-03     111.945E-03
            2108     5.75835E-03     27.2625E-03    -85.2748E+06    -113.929E+06    -9.31253E+06     617.064E+03    -227.807E-03     451.464E-03    -223.657E-03     116.852E-03    -230.011E-03     452.987E-03    -223.414E-03     102.760E-03
            2109     5.03991E-03     27.1076E-03    -94.7853E+06    -139.966E+06    -26.6328E+06     693.408E+03    -226.685E-03     450.040E-03    -223.355E-03     104.611E-03    -228.465E-03     451.064E-03    -223.148E-03     92.1429E-03
            2110     4.32088E-03     26.9701E-03    -104.438E+06    -165.661E+06    -45.7005E+06     594.858E+03    -225.592E-03     448.660E-03    -223.068E-03     91.3542E-03    -226.970E-03     449.212E-03    -222.905E-03     80.6160E-03
            2111     3.60150E-03     26.8512E-03    -114.597E+06    -195.169E+06    -65.9650E+06     494.715E+03    -224.657E-03     447.461E-03    -222.804E-03     77.2656E-03    -225.672E-03     447.569E-03    -222.685E-03     68.2978E-03
            2112     2.88165E-03     26.7521E-03    -123.832E+06    -219.474E+06    -87.0623E+06     514.519E+03    -223.780E-03     446.331E-03    -222.551E-03     62.5406E-03    -224.490E-03     446.075E-03    -222.489E-03     55.3514E-03
            2113     2.16172E-03     26.6741E-03    -131.699E+06    -240.231E+06    -108.609E+06     271.224E+03    -223.032E-03     445.356E-03    -222.324E-03     47.4807E-03    -223.493E-03     444.811E-03    -222.328E-03     42.0738E-03
            2114     1.44149E-03     26.6174E-03    -138.227E+06    -262.341E+06    -127.018E+06     45.5781E+03    -222.486E-03     444.640E-03    -222.154E-03     32.2368E-03    -222.757E-03     443.858E-03    -222.208E-03     28.5826E-03
            2115     720.511E-06     26.5831E-03    -143.112E+06    -277.532E+06    -139.945E+06     168.656E+03    -222.184E-03     444.186E-03    -222.002E-03     17.4927E-03    -222.341E-03     443.256E-03    -222.092E-03     15.5065E-03
            2116     13.6558E-03     27.8238E-03    -4.89259E+06     81.3973E+06     92.7398E+06     204.797E+03    -224.645E-03     449.898E-03    -225.253E-03     89.9866E-03    -227.039E-03     452.294E-03    -224.900E-03     73.6071E-03
            2117     12.9378E-03     27.6757E-03    -10.3598E+06     77.7833E+06     93.2197E+06     146.030E+03    -225.646E-03     450.931E-03    -225.285E-03     122.227E-03    -229.040E-03     454.294E-03    -224.916E-03     102.524E-03
            2118     12.2178E-03     27.5148E-03    -16.5341E+06     70.4318E+06     89.2132E+06    -400.602E+03    -227.010E-03     452.292E-03    -225.282E-03     133.321E-03    -230.597E-03     455.812E-03    -224.914E-03     113.565E-03
            2119     11.5000E-03     27.3304E-03    -24.0178E+06     55.8498E+06     78.4833E+06    -2.38211E+06    -228.701E-03     453.912E-03    -225.210E-03     143.848E-03    -232.559E-03     457.655E-03    -224.864E-03     123.619E-03
            2120     10.7820E-03     27.1339E-03    -30.9630E+06     44.4164E+06     67.4986E+06    -3.13834E+06    -229.862E-03     454.931E-03    -225.069E-03     148.437E-03    -233.774E-03     458.696E-03    -224.751E-03     128.328E-03
            2121     10.0652E-03     26.9322E-03    -35.5276E+06     45.9085E+06     62.7255E+06    -139.761E+03    -230.574E-03     455.452E-03    -224.878E-03     150.105E-03    -234.473E-03     459.207E-03    -224.580E-03     130.325E-03
            2122     9.34841E-03     26.7273E-03    -40.6381E+06     42.6215E+06     59.5161E+06     2.41884E+06    -230.778E-03     455.431E-03    -224.653E-03     149.298E-03    -234.583E-03     459.070E-03    -224.358E-03     130.013E-03
            2123     8.63142E-03     26.5231E-03    -48.0856E+06     17.2450E+06     50.8950E+06     2.38871E+06    -230.675E-03     455.071E-03    -224.396E-03     146.645E-03    -234.286E-03     458.425E-03    -224.097E-03     128.013E-03
            2124     7.91452E-03     26.3232E-03    -57.1016E+06    -23.4397E+06     35.8632E+06     1.52865E+06    -230.392E-03     454.487E-03    -224.094E-03     141.800E-03    -233.710E-03     457.414E-03    -223.798E-03     124.006E-03
            2125     7.19749E-03     26.1307E-03    -66.5808E+06    -57.2511E+06     20.9597E+06     818.054E+03    -229.776E-03     453.525E-03    -223.749E-03     134.615E-03    -232.742E-03     455.991E-03    -223.465E-03     117.890E-03
            2126     6.48020E-03     25.9483E-03    -76.1221E+06    -85.7106E+06     6.07620E+06     566.188E+03    -228.849E-03     452.223E-03    -223.373E-03     125.522E-03    -231.420E-03     454.201E-03    -223.108E-03     110.108E-03
            2127     5.76209E-03     25.7788E-03    -85.4152E+06    -113.878E+06    -9.78090E+06     409.486E+03    -227.650E-03     450.638E-03    -222.988E-03     114.611E-03    -229.798E-03     452.107E-03    -222.748E-03     100.695E-03
            2128     5.04348E-03     25.6255E-03    -94.8238E+06    -139.785E+06    -26.8252E+06     393.972E+03    -226.400E-03     449.007E-03    -222.606E-03     102.304E-03    -228.132E-03     449.983E-03    -222.400E-03     90.0133E-03
            2129     4.32443E-03     25.4895E-03    -104.758E+06    -165.760E+06    -45.6670E+06     875.317E+03    -225.251E-03     447.480E-03    -222.230E-03     89.1472E-03    -226.592E-03     447.993E-03    -222.066E-03     78.5800E-03
            2130     3.60485E-03     25.3718E-03    -114.548E+06    -194.058E+06    -66.3769E+06     882.512E+03    -224.105E-03     445.969E-03    -221.864E-03     75.1853E-03    -225.091E-03     446.052E-03    -221.749E-03     66.3777E-03
            2131     2.88484E-03     25.2743E-03    -123.767E+06    -218.345E+06    -87.7682E+06    -6.82487E+03    -222.974E-03     444.503E-03    -221.529E-03     60.7153E-03    -223.663E-03     444.231E-03    -221.471E-03     53.6667E-03
            2132     2.16392E-03     25.1973E-03    -132.091E+06    -240.459E+06    -108.557E+06    -99.4698E+03    -222.014E-03     443.273E-03    -221.259E-03     46.0232E-03    -222.464E-03     442.715E-03    -221.261E-03     40.7334E-03
            2133     1.44255E-03     25.1416E-03    -139.065E+06    -262.126E+06    -127.422E+06     281.551E+03    -221.378E-03     442.451E-03    -221.073E-03     31.2062E-03    -221.647E-03     441.666E-03    -221.128E-03     27.6356E-03
            2134     721.619E-06     25.1072E-03    -142.952E+06    -277.016E+06    -140.359E+06     201.446E+03    -221.238E-03     442.020E-03    -220.782E-03     17.0108E-03    -221.393E-03     441.092E-03    -220.875E-03     15.0801E-03
            2135     13.6560E-03     26.3382E-03    -4.34661E+06     81.1180E+06     93.5042E+06    -97.8504E+03    -224.046E-03     449.354E-03    -225.308E-03     91.5552E-03    -226.461E-03     451.771E-03    -224.952E-03     75.1419E-03
            2136     12.9353E-03     26.1886E-03     -9.2855E+06     77.5936E+06     94.4103E+06     376.041E+03    -226.232E-03     451.579E-03    -225.348E-03     123.229E-03    -229.636E-03     454.952E-03    -224.975E-03     103.486E-03
            2137     12.2179E-03     26.0262E-03    -16.0747E+06     70.9286E+06     89.7015E+06     676.733E+03    -228.398E-03     453.685E-03    -225.287E-03     133.227E-03    -232.002E-03     457.224E-03    -224.919E-03     113.279E-03
            2138     11.5006E-03     25.8397E-03    -22.9030E+06     59.7455E+06     78.6823E+06     585.171E+03    -229.868E-03     454.993E-03    -225.125E-03     142.923E-03    -233.720E-03     458.748E-03    -224.785E-03     122.595E-03
            2139     10.7842E-03     25.6449E-03    -31.1740E+06     47.1517E+06     66.0298E+06    -895.123E+03    -230.792E-03     455.689E-03    -224.897E-03     147.055E-03    -234.679E-03     459.442E-03    -224.590E-03     126.911E-03
            2140     10.0674E-03     25.4411E-03    -40.1342E+06     41.3805E+06     58.8899E+06    -3.80299E+06    -231.305E-03     455.936E-03    -224.632E-03     148.578E-03    -235.172E-03     459.638E-03    -224.339E-03     128.744E-03
            2141     9.35148E-03     25.2376E-03    -46.7752E+06     37.1612E+06     55.4467E+06    -3.35702E+06    -231.435E-03     455.761E-03    -224.326E-03     147.604E-03    -235.199E-03     459.331E-03    -224.035E-03     128.300E-03
            2142     8.63508E-03     25.0346E-03    -52.9174E+06     15.5631E+06     47.8050E+06    -201.419E+03    -231.296E-03     455.270E-03    -223.974E-03     144.504E-03    -234.846E-03     458.549E-03    -223.681E-03     125.970E-03
            2143     7.91842E-03     24.8354E-03    -60.4945E+06    -22.4013E+06     34.1163E+06     977.790E+03    -230.872E-03     454.442E-03    -223.569E-03     139.018E-03    -234.116E-03     457.292E-03    -223.279E-03     121.401E-03
            2144     7.20173E-03     24.6441E-03    -68.4221E+06    -55.9111E+06     20.0034E+06     669.133E+03    -230.147E-03     453.258E-03    -223.111E-03     131.544E-03    -233.031E-03     455.643E-03    -222.830E-03     115.032E-03
            2145     6.48457E-03     24.4636E-03    -76.7271E+06    -85.1711E+06     5.57022E+06     95.3181E+03    -229.039E-03     451.651E-03    -222.612E-03     122.168E-03    -231.526E-03     453.547E-03    -222.349E-03     106.973E-03
            2146     5.76697E-03     24.2964E-03    -85.7536E+06    -113.716E+06    -9.94827E+06     78.6359E+03    -227.580E-03     449.681E-03    -222.101E-03     111.039E-03    -229.650E-03     451.072E-03    -221.861E-03     97.3568E-03
            2147     5.04842E-03     24.1451E-03    -95.5787E+06    -140.049E+06    -27.1002E+06     665.985E+03    -226.101E-03     447.692E-03    -221.591E-03     98.8310E-03    -227.766E-03     448.599E-03    -221.385E-03     86.7950E-03
            2148     4.32918E-03     24.0106E-03    -105.231E+06    -166.204E+06    -45.8592E+06     762.537E+03    -224.667E-03     445.757E-03    -221.091E-03     85.8368E-03    -225.953E-03     446.213E-03    -220.926E-03     75.5086E-03
            2149     3.60926E-03     23.8951E-03    -114.565E+06    -192.073E+06    -65.9805E+06     374.262E+03    -223.198E-03     443.817E-03    -220.619E-03     72.2623E-03    -224.146E-03     443.868E-03    -220.504E-03     63.6742E-03
            2150     2.88836E-03     23.7993E-03    -123.829E+06    -216.903E+06    -87.5354E+06       45.97E+03    -221.865E-03     442.065E-03    -220.200E-03     58.3356E-03    -222.527E-03     441.772E-03    -220.144E-03     51.4869E-03
            2151     2.16703E-03     23.7242E-03    -132.264E+06    -241.138E+06    -108.876E+06    -158.625E+03    -220.801E-03     440.655E-03    -219.855E-03     44.1759E-03    -221.232E-03     440.077E-03    -219.858E-03     39.0448E-03
            2152     1.44517E-03     23.6693E-03    -139.282E+06    -261.978E+06    -127.594E+06    -84.0712E+03    -220.028E-03     439.619E-03    -219.591E-03     29.8930E-03    -220.290E-03     438.826E-03    -219.647E-03     26.4420E-03
            2153     722.329E-06     23.6355E-03    -143.592E+06    -276.733E+06    -140.580E+06     55.6998E+03    -219.498E-03     438.968E-03    -219.470E-03     16.3087E-03    -219.653E-03     438.039E-03    -219.563E-03     14.4457E-03
            2154     13.6528E-03     24.8538E-03    -4.61352E+06     80.8419E+06     92.3229E+06    -60.9427E+03    -224.343E-03     449.677E-03    -225.334E-03     91.8321E-03    -226.763E-03     452.100E-03    -224.983E-03     75.3662E-03
            2155     12.9354E-03     24.6983E-03    -10.8164E+06     76.4767E+06      92.784E+06     265.415E+03    -227.533E-03     452.862E-03    -225.329E-03     122.323E-03    -230.932E-03     456.225E-03    -224.960E-03     102.453E-03
            2156     12.2187E-03     24.5346E-03    -16.8663E+06     70.3953E+06     89.6514E+06     5.22292E+03    -229.536E-03     454.731E-03    -225.195E-03     131.533E-03    -233.117E-03     458.243E-03    -224.825E-03     111.487E-03
            2157     11.5027E-03     24.3492E-03    -22.4729E+06     58.2631E+06     81.4203E+06     561.714E+03    -230.857E-03     455.824E-03    -224.967E-03     141.409E-03    -234.669E-03     459.527E-03    -224.612E-03     121.064E-03
            2158     10.7867E-03     24.1525E-03    -27.4277E+06     50.4565E+06     72.3916E+06      1.4721E+06    -231.709E-03     456.373E-03    -224.664E-03     145.647E-03    -235.543E-03     460.078E-03    -224.335E-03     125.557E-03
            2159     10.0714E-03     23.9513E-03    -34.0960E+06     48.3462E+06     64.4684E+06     640.018E+03    -232.171E-03     456.469E-03    -224.298E-03     146.919E-03    -235.960E-03     460.122E-03    -223.997E-03     127.218E-03
            2160     9.35507E-03     23.7472E-03    -43.7470E+06     35.7741E+06     55.2303E+06    -1.62237E+06    -232.464E-03     456.337E-03    -223.873E-03     145.161E-03    -236.117E-03     459.801E-03    -223.585E-03     126.026E-03
            2161     8.63970E-03     23.5452E-03    -53.1463E+06     10.9493E+06     45.3092E+06    -2.04607E+06    -232.403E-03     455.780E-03    -223.377E-03     141.006E-03    -235.832E-03     458.928E-03    -223.089E-03     122.620E-03
            2162     7.92431E-03     23.3478E-03    -60.5336E+06    -22.6654E+06     33.4612E+06    -1.11399E+06    -231.739E-03     454.546E-03    -222.808E-03     134.696E-03    -234.852E-03     457.268E-03    -222.520E-03     117.300E-03
            2163     7.20814E-03     23.1586E-03    -68.0881E+06    -55.6719E+06     19.8036E+06    -857.155E+03    -230.625E-03     452.802E-03    -222.176E-03     126.499E-03    -233.369E-03     455.049E-03    -221.898E-03     110.288E-03
            2164     6.49157E-03     22.9798E-03    -76.6212E+06    -85.1603E+06     5.50690E+06    -496.985E+03    -229.120E-03     450.628E-03    -221.507E-03     116.610E-03    -231.472E-03     452.389E-03    -221.245E-03     101.766E-03
            2165     5.77402E-03     22.8158E-03    -85.7982E+06    -114.557E+06    -10.0365E+06     -56.371E+03    -227.399E-03     448.223E-03    -220.824E-03     105.533E-03    -229.347E-03     449.489E-03    -220.584E-03     92.2209E-03
            2166     5.05556E-03     22.6669E-03    -94.8368E+06    -140.555E+06    -26.5740E+06     242.757E+03    -225.571E-03     445.713E-03    -220.143E-03     93.6506E-03    -227.128E-03     446.513E-03    -219.934E-03     81.9917E-03
            2167     4.33605E-03     22.5352E-03    -104.074E+06    -165.009E+06    -44.4688E+06     343.258E+03    -223.643E-03     443.137E-03    -219.493E-03     81.0033E-03    -224.842E-03     443.509E-03    -219.326E-03     71.0603E-03
            2168     3.61522E-03     22.4223E-03    -113.716E+06    -190.922E+06    -64.8336E+06     199.924E+03    -221.849E-03     440.750E-03    -218.902E-03     67.9712E-03    -222.732E-03     440.740E-03    -218.784E-03     59.7397E-03
            2169     2.89351E-03     22.3288E-03    -123.231E+06    -216.406E+06    -86.6662E+06     35.6581E+03    -220.357E-03     438.733E-03    -218.375E-03     54.6457E-03    -220.975E-03     438.396E-03    -218.316E-03     48.1014E-03
            2170     2.17080E-03     22.2551E-03    -131.849E+06    -241.251E+06    -108.241E+06    -38.3242E+03    -219.140E-03     437.057E-03    -217.916E-03     41.1636E-03    -219.544E-03     436.450E-03    -217.917E-03     36.2726E-03
            2171     1.44752E-03     22.2018E-03    -138.789E+06    -262.357E+06    -127.154E+06    -3.77312E+03    -218.165E-03     435.701E-03    -217.535E-03     27.7684E-03    -218.412E-03     434.892E-03    -217.590E-03     24.4882E-03
            2172     724.333E-06     22.1689E-03    -142.986E+06    -276.479E+06    -139.896E+06     235.220E+03    -217.217E-03     434.730E-03    -217.514E-03     14.9546E-03    -217.365E-03     433.796E-03    -217.605E-03     13.1952E-03
            2173     13.6558E-03     23.3649E-03    -5.18841E+06     81.2816E+06     91.7506E+06     572.843E+03    -226.190E-03     451.416E-03    -225.225E-03     90.5567E-03    -228.597E-03     453.827E-03    -224.877E-03     74.0022E-03
            2174     12.9383E-03     23.2081E-03    -11.2523E+06     76.9787E+06     91.9623E+06    -507.613E+03    -228.129E-03     453.269E-03    -225.140E-03     120.658E-03    -231.502E-03     456.609E-03    -224.776E-03     100.717E-03
            2175     12.2217E-03     23.0429E-03    -16.6397E+06     70.0441E+06     89.0912E+06    -724.613E+03    -229.841E-03     454.807E-03    -224.966E-03     130.044E-03    -233.367E-03     458.264E-03    -224.597E-03     110.083E-03
            2176     11.5059E-03     22.8570E-03    -22.3274E+06     57.5675E+06     81.0196E+06    -830.966E+03    -231.543E-03     456.232E-03    -224.688E-03     140.084E-03    -235.288E-03     459.867E-03    -224.334E-03     119.825E-03
            2177     10.7906E-03     22.6612E-03    -28.6212E+06     48.2785E+06     70.2521E+06    -1.48507E+06    -232.899E-03     457.193E-03    -224.294E-03     143.695E-03    -236.644E-03     460.805E-03    -223.971E-03     123.681E-03
            2178     10.0749E-03     22.4593E-03    -34.0627E+06     47.9812E+06     63.2176E+06     412.867E+03    -233.832E-03     457.621E-03    -223.788E-03     143.416E-03    -237.496E-03     461.151E-03    -223.492E-03     123.867E-03
            2179     9.36127E-03     22.2561E-03     -40.159E+06     39.5340E+06     57.1411E+06     2.34612E+06    -234.156E-03     457.334E-03    -223.178E-03     140.252E-03    -237.645E-03     460.656E-03    -222.892E-03     121.386E-03
            2180     8.64717E-03     22.0550E-03    -48.4070E+06     13.6681E+06     47.5411E+06     611.130E+03    -233.801E-03     456.269E-03    -222.468E-03     134.937E-03    -237.037E-03     459.244E-03    -222.180E-03     116.885E-03
            2181     7.93276E-03     21.8602E-03    -57.6035E+06    -22.7379E+06     34.5388E+06    -1.02366E+06    -232.845E-03     454.509E-03    -221.664E-03     127.927E-03    -235.759E-03     457.038E-03    -221.375E-03     110.899E-03
            2182     7.21811E-03     21.6734E-03    -66.6374E+06    -56.2502E+06     20.4897E+06    -716.705E+03    -231.251E-03     452.039E-03    -220.788E-03     119.294E-03    -233.798E-03     454.091E-03    -220.507E-03     103.543E-03
            2183     6.50201E-03     21.4988E-03    -75.6130E+06    -85.3075E+06     6.09223E+06    -345.840E+03    -229.187E-03     449.063E-03    -219.876E-03     109.153E-03    -231.349E-03     450.637E-03    -219.613E-03     94.8498E-03
            2184     5.78458E-03     21.3377E-03    -84.3938E+06    -114.650E+06    -9.16829E+06    -400.275E+03    -226.983E-03     445.943E-03    -218.960E-03     98.0787E-03    -228.757E-03     447.037E-03    -218.717E-03     85.3339E-03
            2185     5.06595E-03     21.1924E-03    -93.6508E+06    -140.443E+06    -25.6147E+06    -379.499E+03    -224.620E-03     442.677E-03    -218.056E-03     86.3153E-03    -226.030E-03     443.330E-03    -217.845E-03     75.2197E-03
            2186     4.34558E-03     21.0645E-03    -103.344E+06    -164.655E+06    -43.7424E+06    -163.412E+03    -222.224E-03     439.425E-03    -217.201E-03     74.0808E-03    -223.305E-03     439.681E-03    -217.031E-03     64.6799E-03
            2187     3.62385E-03     20.9548E-03    -112.907E+06    -190.628E+06    -64.1097E+06     46.1231E+03    -220.065E-03     436.482E-03    -216.417E-03     61.6375E-03    -220.859E-03     436.384E-03    -216.297E-03     53.9047E-03
            2188     2.90086E-03     20.8637E-03    -122.165E+06    -215.955E+06    -85.8490E+06     67.8018E+03    -218.184E-03     433.897E-03    -215.714E-03     49.2037E-03    -218.739E-03     433.500E-03    -215.652E-03     43.0912E-03
            2189     2.17707E-03     20.7925E-03    -130.745E+06    -241.280E+06    -107.178E+06     23.3509E+03    -216.611E-03     431.722E-03    -215.111E-03     36.8861E-03    -216.976E-03     431.077E-03    -215.107E-03     32.3343E-03
            2190     1.45221E-03     20.7411E-03    -137.366E+06    -262.130E+06    -125.752E+06     168.750E+03    -215.358E-03     429.988E-03    -214.630E-03     24.7610E-03    -215.584E-03     429.159E-03    -214.679E-03     21.7166E-03
            2191     725.962E-06     20.7097E-03    -141.481E+06    -276.428E+06    -138.809E+06    -48.6172E+03    -214.283E-03     428.827E-03    -214.544E-03     13.3222E-03    -214.421E-03     427.884E-03    -214.632E-03     11.6738E-03
            2192     13.6598E-03     21.8765E-03    -5.14873E+06     81.1682E+06     91.8605E+06    -340.102E+03    -228.035E-03     453.114E-03    -225.079E-03     92.5379E-03    -230.479E-03     455.561E-03    -224.730E-03     75.7574E-03
            2193     12.9426E-03     21.7182E-03    -8.99669E+06     78.2225E+06     94.0008E+06     64.1078E+03    -229.140E-03     454.058E-03    -224.918E-03     122.509E-03    -232.521E-03     457.412E-03    -224.548E-03     102.561E-03
            2194     12.2258E-03     21.5524E-03    -15.3626E+06     70.0126E+06     89.4129E+06     917.063E+03    -230.954E-03     455.624E-03    -224.670E-03     130.630E-03    -234.445E-03     459.050E-03    -224.302E-03     110.756E-03
            2195     11.5097E-03     21.3649E-03    -23.2697E+06     60.6584E+06     78.0752E+06     226.895E+03    -233.417E-03     457.680E-03    -224.263E-03     138.265E-03    -237.087E-03     461.257E-03    -223.927E-03     118.062E-03
            2196     10.7955E-03     21.1677E-03    -31.2474E+06     50.2380E+06     65.6890E+06    -912.780E+03    -235.328E-03     459.008E-03    -223.679E-03     139.205E-03    -238.947E-03     462.503E-03    -223.379E-03     119.281E-03
            2197     10.0838E-03     20.9655E-03    -39.0032E+06     42.9252E+06     57.9100E+06    -1.89803E+06    -236.245E-03     459.185E-03    -222.940E-03     137.085E-03    -239.735E-03     462.521E-03    -222.656E-03     117.696E-03
            2198     9.37125E-03     20.7636E-03    -45.5604E+06     37.2796E+06     54.3444E+06    -1.98660E+06    -236.175E-03     458.240E-03    -222.065E-03     132.792E-03    -239.471E-03     461.350E-03    -221.781E-03     114.174E-03
            2199     8.65902E-03     20.5648E-03    -51.1534E+06     16.0740E+06     47.9148E+06    -931.920E+03    -235.371E-03     456.441E-03    -221.070E-03     126.560E-03    -238.385E-03     459.192E-03    -220.779E-03     108.946E-03
            2200     7.94633E-03     20.3731E-03    -58.1580E+06    -21.9513E+06     34.9238E+06    -606.030E+03    -233.897E-03     453.862E-03    -219.965E-03     118.760E-03    -236.562E-03     456.142E-03    -219.674E-03     102.321E-03
            2201     7.23216E-03     20.1905E-03    -66.3170E+06    -56.5516E+06     20.8274E+06    -706.367E+03    -231.748E-03     450.530E-03    -218.782E-03     109.667E-03    -234.047E-03     452.334E-03    -218.500E-03     94.5757E-03
            2202     6.51678E-03     20.0204E-03    -74.3848E+06    -84.9120E+06     6.99815E+06    -752.561E+03    -229.161E-03     446.719E-03    -217.558E-03     99.4666E-03    -231.091E-03     448.064E-03    -217.292E-03     85.8664E-03
            2203     5.79978E-03     19.8639E-03    -83.1434E+06    -114.144E+06    -8.14776E+06    -662.182E+03    -226.290E-03     442.621E-03    -216.331E-03     88.5397E-03    -227.860E-03     443.515E-03    -216.086E-03     76.5226E-03
            2204     5.08064E-03     19.7236E-03    -92.4354E+06    -140.182E+06    -24.7117E+06    -449.461E+03    -223.275E-03     438.406E-03    -215.131E-03     77.0994E-03    -224.515E-03     438.892E-03    -214.917E-03     66.7108E-03
            2205     4.35967E-03     19.6003E-03    -101.903E+06    -164.558E+06    -42.9046E+06    -413.214E+03    -220.355E-03     434.343E-03    -213.988E-03     65.5543E-03    -221.302E-03     434.469E-03    -213.817E-03     56.7978E-03
            2206     3.63685E-03     19.4946E-03    -111.506E+06    -190.563E+06    -62.9181E+06    -314.687E+03    -217.577E-03     430.514E-03    -212.937E-03     54.1180E-03    -218.272E-03     430.319E-03    -212.814E-03     46.9644E-03
            2207     2.91213E-03     19.4076E-03    -120.657E+06    -215.723E+06    -84.3545E+06    -40.4370E+03    -215.044E-03     427.059E-03    -212.016E-03     42.9934E-03    -215.532E-03     426.597E-03    -211.950E-03     37.3802E-03
            2208     2.18537E-03     19.3392E-03    -128.943E+06    -240.779E+06    -105.725E+06     110.648E+03    -212.971E-03     424.238E-03    -211.267E-03     32.1658E-03    -213.294E-03     423.554E-03    -211.260E-03     28.0095E-03
            2209     1.45753E-03     19.2903E-03    -136.018E+06    -261.860E+06    -124.361E+06     101.697E+03    -211.477E-03     422.190E-03    -210.714E-03     21.5375E-03    -211.681E-03     421.341E-03    -210.759E-03     18.7652E-03
            2210     729.306E-06     19.2607E-03    -140.601E+06    -276.163E+06    -137.460E+06     238.801E+03    -210.460E-03     420.933E-03    -210.473E-03     11.4753E-03    -210.591E-03     419.981E-03    -210.556E-03     9.98762E-03
            2211     13.6577E-03     20.3813E-03    -4.84363E+06     81.2333E+06     92.0551E+06    -917.465E+03    -229.541E-03     454.545E-03    -225.004E-03     93.5139E-03    -232.008E-03     457.016E-03    -224.655E-03     76.5230E-03
            2212     12.9432E-03     20.2272E-03    -10.2348E+06     76.2661E+06     92.7184E+06    -62.8178E+03    -231.681E-03     456.405E-03    -224.724E-03     122.475E-03    -235.066E-03     459.756E-03    -224.356E-03     102.327E-03
            2213     12.2285E-03     20.0588E-03    -15.9511E+06     69.0757E+06     88.8215E+06     736.519E+03    -234.523E-03     458.805E-03    -224.282E-03     129.086E-03    -237.978E-03     462.191E-03    -223.915E-03     108.997E-03
            2214     11.5167E-03     19.8690E-03    -21.4646E+06     61.2341E+06     80.0734E+06     1.53281E+06    -237.204E-03     460.819E-03    -223.615E-03     133.772E-03    -240.765E-03     464.289E-03    -223.272E-03     113.452E-03
            2215     10.8069E-03     19.6708E-03    -27.2978E+06     52.7027E+06     70.2989E+06     2.08195E+06    -238.671E-03     461.404E-03    -222.732E-03     132.935E-03    -242.114E-03     464.733E-03    -222.418E-03     113.123E-03
            2216     10.0963E-03     19.4701E-03    -34.1403E+06     47.3377E+06     63.2752E+06     720.736E+03    -239.105E-03     460.775E-03    -221.669E-03     129.623E-03    -242.374E-03     463.908E-03    -221.372E-03     110.518E-03
            2217     9.38679E-03     19.2703E-03    -41.7221E+06     39.1130E+06     57.2970E+06    -2.08740E+06    -238.565E-03     459.011E-03    -220.446E-03     124.121E-03    -241.602E-03     461.874E-03    -220.156E-03     105.923E-03
            2218     8.67643E-03     19.0752E-03    -50.0131E+06     14.0078E+06     47.9907E+06    -3.40287E+06    -237.178E-03     456.266E-03    -219.087E-03     116.925E-03    -239.918E-03     458.739E-03    -218.795E-03     99.8493E-03
            2219     7.96496E-03     18.8876E-03    -57.0918E+06    -22.9708E+06     35.4032E+06    -2.24657E+06    -235.071E-03     452.682E-03    -217.611E-03     108.264E-03    -237.459E-03     454.684E-03    -217.318E-03     92.4936E-03
            2220     7.25230E-03     18.7110E-03    -64.3012E+06    -55.9319E+06     21.9172E+06    -1.57766E+06    -232.263E-03     448.306E-03    -216.042E-03     98.5205E-03    -234.294E-03     449.847E-03    -215.759E-03     84.1769E-03
            2221     6.53743E-03     18.5462E-03    -72.6001E+06    -85.0628E+06     7.77095E+06    -1.24827E+06    -228.899E-03     443.329E-03    -214.430E-03     88.1751E-03    -230.585E-03     444.434E-03    -214.162E-03     75.3625E-03
            2222     5.82019E-03     18.3963E-03    -81.3642E+06    -114.145E+06    -7.30321E+06    -630.042E+03    -225.199E-03     438.023E-03    -212.824E-03     77.4483E-03    -226.559E-03     438.710E-03    -212.577E-03     66.2284E-03
            2223     5.10050E-03     18.2621E-03    -90.5515E+06    -139.787E+06    -23.6096E+06    -424.254E+03    -221.373E-03     432.637E-03    -211.264E-03     66.7338E-03    -222.440E-03     432.955E-03    -211.048E-03     57.1186E-03
            2224     4.37820E-03     18.1446E-03    -100.170E+06    -164.246E+06    -41.6097E+06    -263.117E+03    -217.613E-03     427.411E-03    -209.798E-03     56.3464E-03    -218.429E-03     427.408E-03    -209.623E-03     48.3025E-03
            2225     3.65322E-03     18.0447E-03    -109.981E+06    -190.177E+06    -61.8158E+06    -48.8432E+03    -214.094E-03     422.565E-03    -208.471E-03     46.2926E-03    -214.696E-03     422.280E-03    -208.345E-03     39.7659E-03
            2226     2.92570E-03     17.9627E-03    -119.517E+06    -215.833E+06    -83.2494E+06     189.783E+03    -210.986E-03     418.311E-03    -207.326E-03     36.5709E-03    -211.412E-03     417.787E-03    -207.256E-03     31.4767E-03
            2227     2.19635E-03     17.8986E-03    -128.320E+06    -240.345E+06    -104.793E+06     622.264E+03    -208.448E-03     414.848E-03    -206.400E-03     27.1204E-03    -208.736E-03     414.130E-03    -206.390E-03     23.3774E-03
            2228     1.46509E-03     17.8525E-03    -135.502E+06    -260.945E+06    -123.780E+06     381.755E+03    -206.651E-03     412.363E-03    -205.712E-03     17.9301E-03    -206.839E-03     411.500E-03    -205.756E-03     15.4527E-03
            2229     732.527E-06     17.8241E-03    -140.081E+06    -275.661E+06    -136.694E+06    -125.986E+03    -205.537E-03     410.796E-03    -205.259E-03     9.34140E-03    -205.662E-03     409.839E-03    -205.340E-03     8.01246E-03
            2230     13.6613E-03     18.8879E-03    -4.94409E+06     81.7479E+06     91.9340E+06     283.707E+03    -232.329E-03     457.250E-03    -224.922E-03     93.7853E-03    -234.824E-03     459.752E-03    -224.573E-03     76.4576E-03
            2231     12.9467E-03     18.7312E-03    -11.2428E+06     76.5639E+06     91.6842E+06    -290.558E+03    -236.161E-03     460.588E-03    -224.427E-03     120.957E-03    -239.560E-03     463.953E-03    -224.063E-03     100.325E-03
            2232     12.2370E-03     18.5582E-03    -16.4533E+06     68.9815E+06     88.8960E+06    -1.75001E+06    -239.548E-03     463.231E-03    -223.682E-03     126.100E-03    -242.977E-03     466.588E-03    -223.314E-03     105.543E-03
            2233     11.5290E-03     18.3683E-03    -21.3470E+06     57.6046E+06     81.4562E+06    -1.70237E+06    -241.696E-03     464.371E-03    -222.675E-03     129.495E-03    -245.158E-03     467.727E-03    -222.321E-03     108.951E-03
            2234     10.8208E-03     18.1713E-03    -25.2975E+06     50.2206E+06     73.6244E+06    -278.423E+03    -242.662E-03     464.095E-03    -221.433E-03     127.380E-03    -245.942E-03     467.251E-03    -221.101E-03     107.594E-03
            2235     10.1142E-03     17.9724E-03    -29.8479E+06     50.0746E+06     67.9275E+06     655.491E+03    -242.646E-03     462.623E-03    -219.976E-03     122.281E-03    -245.700E-03     465.552E-03    -219.666E-03     103.434E-03
            2236     9.40678E-03     17.7761E-03    -36.3886E+06     44.1436E+06     61.3793E+06     541.501E+03    -241.575E-03     459.900E-03    -218.326E-03     115.016E-03    -244.362E-03     462.538E-03    -218.030E-03     97.2734E-03
            2237     8.69875E-03     17.5862E-03    -44.3602E+06     17.0597E+06     50.9050E+06    -851.044E+03    -239.473E-03     455.990E-03    -216.518E-03     106.324E-03    -241.938E-03     458.213E-03    -216.223E-03     89.8370E-03
            2238     7.98931E-03     17.4046E-03    -53.4826E+06    -23.4270E+06     36.4480E+06    -1.95700E+06    -236.477E-03     451.058E-03    -214.581E-03     96.6729E-03    -238.592E-03     452.795E-03    -214.287E-03     81.5799E-03
            2239     7.27764E-03     17.2346E-03    -62.1998E+06    -55.9059E+06     22.6582E+06    -1.55698E+06    -232.731E-03     445.282E-03    -212.551E-03     86.4638E-03    -234.509E-03     446.577E-03    -212.267E-03     72.8762E-03
            2240     6.56348E-03     17.0782E-03    -71.0673E+06    -85.3501E+06     8.13074E+06    -820.094E+03    -228.382E-03     438.866E-03    -210.484E-03     76.0767E-03    -229.842E-03     439.748E-03    -210.217E-03     64.0684E-03
            2241     5.84612E-03     16.9361E-03    -80.2967E+06    -113.866E+06    -7.24886E+06    -358.474E+03    -223.626E-03     432.070E-03    -208.445E-03     65.7461E-03    -224.793E-03     432.570E-03    -208.199E-03     55.3458E-03
            2242     5.12534E-03     16.8102E-03    -89.7401E+06    -139.075E+06    -23.4972E+06    -137.324E+03    -218.741E-03     425.235E-03    -206.494E-03     55.8629E-03    -219.653E-03     425.403E-03    -206.279E-03     47.0469E-03
            2243     4.40085E-03     16.7006E-03    -99.3194E+06    -164.163E+06    -41.4849E+06     122.838E+03    -214.009E-03     418.701E-03    -204.692E-03     46.5269E-03    -214.705E-03     418.581E-03    -204.517E-03     39.2216E-03
            2244     3.67302E-03     16.6077E-03    -108.873E+06    -189.391E+06    -61.3861E+06     444.557E+03    -209.725E-03     412.810E-03    -203.085E-03     37.7167E-03    -210.241E-03     412.443E-03    -202.960E-03     31.8354E-03
            2245     2.94240E-03     16.5317E-03    -118.340E+06    -215.627E+06    -82.5913E+06     648.848E+03    -206.061E-03     407.769E-03    -201.707E-03     29.4422E-03    -206.430E-03     407.189E-03    -201.636E-03     24.8796E-03
            2246     2.20903E-03     16.4726E-03    -126.640E+06    -239.713E+06    -103.436E+06     820.167E+03    -203.122E-03     403.699E-03    -200.577E-03     21.7335E-03    -203.374E-03     402.948E-03    -200.563E-03     18.3982E-03
            2247     1.47399E-03     16.4301E-03    -133.034E+06    -259.195E+06    -121.913E+06     696.935E+03    -200.931E-03     400.640E-03    -199.708E-03     14.3137E-03    -201.098E-03     399.764E-03    -199.749E-03     12.1205E-03
            2248     737.801E-06     16.4041E-03    -137.562E+06    -274.894E+06    -134.876E+06     20.5980E+03    -199.469E-03     398.618E-03    -199.149E-03     7.27638E-03    -199.580E-03     397.654E-03    -199.225E-03     6.09990E-03
            2249     13.6592E-03     17.3869E-03    -4.74241E+06     82.6167E+06     91.7946E+06     540.460E+03    -236.766E-03     461.482E-03    -224.716E-03     92.9706E-03    -239.271E-03     463.997E-03    -224.370E-03     75.2656E-03
            2250     12.9529E-03     17.2255E-03    -9.15711E+06     79.5817E+06     93.7187E+06    -1.38682E+06    -241.003E-03     464.954E-03    -223.952E-03     119.469E-03    -244.413E-03     468.343E-03    -223.585E-03     98.3017E-03
            2251     12.2467E-03     17.0519E-03    -14.8715E+06     70.7756E+06     89.9504E+06    -2.21930E+06    -244.270E-03     467.161E-03    -222.891E-03     124.520E-03    -247.678E-03     470.506E-03    -222.522E-03     103.604E-03
            2252     11.5414E-03     16.8623E-03    -20.9083E+06     57.7825E+06     81.3386E+06    -2.85440E+06    -246.746E-03     468.268E-03    -221.522E-03     126.484E-03    -250.130E-03     471.548E-03    -221.169E-03     105.745E-03
            2253     10.8385E-03     16.6671E-03    -27.7132E+06     47.9084E+06     71.6787E+06    -3.73694E+06    -247.835E-03     467.684E-03    -219.849E-03     121.935E-03    -250.989E-03     470.703E-03    -219.520E-03     102.066E-03
            2254     10.1348E-03     16.4716E-03    -33.8803E+06     46.4969E+06     64.4099E+06    -3.26905E+06    -247.290E-03     465.190E-03    -217.901E-03     114.477E-03    -250.176E-03     467.936E-03    -217.597E-03     95.7126E-03
            2255     9.43124E-03     16.2805E-03    -39.5191E+06     42.5219E+06     58.8051E+06    -2.26503E+06    -245.347E-03     461.078E-03    -215.731E-03     105.109E-03    -247.935E-03     463.508E-03    -215.441E-03     87.6279E-03
            2256     8.72630E-03     16.0971E-03    -45.8487E+06     19.3544E+06     50.4550E+06    -903.846E+03    -242.198E-03     455.588E-03    -213.391E-03     94.9006E-03    -244.451E-03     457.603E-03    -213.100E-03     78.8607E-03
            2257     8.01906E-03     15.9243E-03    -53.4422E+06    -21.1259E+06     36.3473E+06    -357.457E+03    -238.047E-03     448.965E-03    -210.918E-03     84.4434E-03    -239.941E-03     450.491E-03    -210.629E-03     69.9592E-03
            2258     7.30868E-03     15.7636E-03    -62.2910E+06    -55.7407E+06     21.7365E+06    -427.726E+03    -233.087E-03     441.454E-03    -208.367E-03     73.8234E-03    -234.651E-03     442.537E-03    -208.087E-03     60.9490E-03
            2259     6.59462E-03     15.6168E-03    -71.2899E+06    -85.0214E+06     7.32939E+06    -102.487E+03    -227.492E-03     433.296E-03    -205.804E-03     63.3409E-03    -228.758E-03     433.988E-03    -205.541E-03     52.1038E-03
            2260     5.87655E-03     15.4856E-03    -80.2969E+06    -112.790E+06    -8.06122E+06     90.8688E+03    -221.496E-03     424.803E-03    -203.307E-03     53.5443E-03    -222.498E-03     425.144E-03    -203.067E-03     43.9292E-03
            2261     5.15394E-03     15.3698E-03    -89.3606E+06    -138.259E+06    -24.4192E+06     135.058E+03    -215.513E-03     416.461E-03    -200.948E-03     44.5451E-03    -216.292E-03     416.503E-03    -200.740E-03     36.4807E-03
            2262     4.42720E-03     15.2700E-03    -98.8151E+06    -163.904E+06    -42.2865E+06     543.357E+03    -209.846E-03     408.634E-03    -198.788E-03     36.2966E-03    -210.439E-03     408.416E-03    -198.619E-03     29.6862E-03
            2263     3.69632E-03     15.1858E-03    -108.536E+06    -188.875E+06    -61.8902E+06     1.09030E+06    -204.722E-03     401.595E-03    -196.873E-03     28.8921E-03    -205.165E-03     401.160E-03    -196.751E-03     23.6254E-03
            2264     2.96165E-03     15.1170E-03    -117.801E+06    -214.110E+06    -82.6069E+06     1.14021E+06    -200.364E-03     395.606E-03    -195.242E-03     22.1537E-03    -200.686E-03     394.987E-03    -195.174E-03     18.1023E-03
            2265     2.22420E-03     15.0639E-03    -126.283E+06    -238.499E+06    -103.666E+06     810.165E+03    -196.864E-03     390.783E-03    -193.919E-03     16.1741E-03    -197.090E-03     390.011E-03    -193.908E-03     13.2253E-03
            2266     1.48421E-03     15.0253E-03    -133.029E+06    -258.311E+06    -122.133E+06     832.542E+03    -194.253E-03     387.192E-03    -192.940E-03     10.5709E-03    -194.408E-03     386.309E-03    -192.983E-03     8.63404E-03
            2267     742.171E-06     15.0031E-03    -137.010E+06    -272.692E+06    -134.466E+06     854.964E+03    -192.691E-03     385.009E-03    -192.317E-03     5.36042E-03    -192.800E-03     384.050E-03    -192.395E-03     4.33246E-03
            2268     13.6697E-03     15.8802E-03    -3.97127E+06      84.223E+06     93.7759E+06    -605.901E+03    -241.577E-03     466.003E-03    -224.426E-03     95.0057E-03    -244.150E-03     468.590E-03    -224.074E-03     76.8082E-03
            2269     12.9618E-03     15.7162E-03    -9.71801E+06     78.9976E+06     93.7544E+06    -2.20132E+06    -245.769E-03     469.152E-03    -223.383E-03     121.293E-03    -249.261E-03     472.618E-03    -223.015E-03     99.5447E-03
            2270     12.2573E-03     15.5412E-03    -16.1839E+06     70.5088E+06     89.2465E+06    -1.20649E+06    -250.092E-03     472.070E-03    -221.978E-03     123.239E-03    -253.495E-03     475.408E-03    -221.611E-03     101.929E-03
            2271     11.5567E-03     15.3492E-03    -23.6402E+06     62.1184E+06     79.6285E+06    -1.82099E+06    -252.890E-03     473.052E-03    -220.162E-03     121.484E-03    -256.213E-03     476.282E-03    -219.819E-03     100.441E-03
            2272     10.8574E-03     15.1562E-03    -30.8324E+06     50.7649E+06     67.9924E+06    -4.22165E+06    -253.657E-03     471.627E-03    -217.971E-03     114.394E-03    -256.703E-03     474.549E-03    -217.660E-03     94.3367E-03
            2273     10.1596E-03     14.9661E-03    -37.1381E+06     43.9032E+06     60.1148E+06    -5.98846E+06    -252.491E-03     467.962E-03    -215.471E-03     105.215E-03    -255.233E-03     470.556E-03    -215.180E-03     86.3937E-03
            2274     9.46011E-03     14.7822E-03    -43.7001E+06     38.8577E+06     54.3977E+06    -5.62816E+06    -249.438E-03     462.162E-03    -212.724E-03     94.6858E-03    -251.868E-03     464.420E-03    -212.445E-03     77.3153E-03
            2275     8.75815E-03     14.6088E-03    -50.5956E+06     16.1825E+06     45.5336E+06    -3.98114E+06    -245.095E-03     454.896E-03    -209.801E-03     83.6506E-03    -247.183E-03     456.733E-03    -209.523E-03     67.8977E-03
            2276     8.05286E-03     14.4466E-03    -57.5129E+06    -21.4254E+06     32.6927E+06    -1.84772E+06    -239.771E-03     446.523E-03    -206.752E-03     72.3821E-03    -241.502E-03     447.883E-03    -206.474E-03     58.3301E-03
            2277     7.34377E-03     14.2981E-03    -64.8015E+06    -55.0801E+06     18.8634E+06    -581.208E+03    -233.407E-03     437.046E-03    -203.639E-03     61.2702E-03    -234.810E-03     437.972E-03    -203.371E-03     48.9566E-03
            2278     6.63000E-03     14.1640E-03    -72.7129E+06    -84.4781E+06     4.90311E+06    -152.842E+03    -226.325E-03     426.882E-03    -200.557E-03     50.8047E-03    -227.443E-03     427.430E-03    -200.305E-03     40.2037E-03
            2279     5.91075E-03     14.0460E-03    -81.0943E+06    -111.426E+06    -9.72624E+06     57.1260E+03    -219.067E-03     416.657E-03    -197.590E-03     41.3991E-03    -219.944E-03     416.880E-03    -197.360E-03     32.4298E-03
            2280     5.18632E-03     13.9425E-03    -90.1628E+06    -137.772E+06    -26.3526E+06     369.414E+03    -211.933E-03     406.739E-03    -194.806E-03     33.1195E-03    -212.611E-03     406.684E-03    -194.607E-03     25.6795E-03
            2281     4.45650E-03     13.8544E-03    -99.4839E+06    -163.821E+06    -44.3674E+06     1.02509E+06    -205.217E-03     397.488E-03    -192.271E-03     26.0071E-03    -205.732E-03     397.197E-03    -192.111E-03     19.9771E-03
            2282     3.72188E-03     13.7803E-03    -108.740E+06    -188.075E+06    -63.5414E+06     1.55484E+06    -199.198E-03     389.238E-03    -190.039E-03     20.0504E-03    -199.587E-03     388.755E-03    -189.927E-03     15.2937E-03
            2283     2.98310E-03     13.7204E-03    -117.360E+06    -211.859E+06    -83.6472E+06     1.67905E+06    -194.061E-03     382.217E-03    -188.157E-03     15.0131E-03    -194.347E-03     381.574E-03    -188.097E-03     11.3917E-03
            2284     2.24052E-03     13.6740E-03    -125.584E+06    -236.647E+06    -103.391E+06     1.47142E+06    -189.957E-03     376.625E-03    -186.667E-03     10.7433E-03    -190.163E-03     375.841E-03    -186.659E-03     8.13317E-03
            2285     1.49513E-03     13.6412E-03    -132.808E+06    -257.180E+06    -121.330E+06     1.08892E+06    -187.013E-03     372.607E-03    -185.594E-03     6.86874E-03    -187.161E-03     371.718E-03    -185.635E-03     5.16365E-03
            2286     748.259E-06     13.6210E-03    -137.131E+06    -269.938E+06    -134.164E+06     768.214E+03    -185.307E-03     370.231E-03    -184.925E-03     3.36892E-03    -185.418E-03     369.282E-03    -185.005E-03     2.45337E-03
            2287     13.6676E-03     14.3672E-03    -4.49232E+06     84.6384E+06     94.5472E+06    -586.703E+03    -246.797E-03     470.957E-03    -224.160E-03     98.5856E-03    -249.472E-03     473.642E-03    -223.804E-03     79.7034E-03
            2288     12.9664E-03     14.1998E-03    -10.2931E+06     79.2227E+06     94.5543E+06     526.436E+03    -252.938E-03     475.704E-03    -222.766E-03     121.606E-03    -256.495E-03     479.232E-03    -222.393E-03     99.1658E-03
            2289     12.2699E-03     14.0183E-03    -16.8862E+06     71.8913E+06     90.5598E+06    -387.944E+03    -257.536E-03     478.431E-03    -220.895E-03     119.812E-03    -260.945E-03     481.773E-03    -220.522E-03     97.8586E-03
            2290     11.5759E-03     13.8292E-03    -22.5650E+06     64.1668E+06     82.0366E+06    -1.32142E+06    -259.695E-03     478.251E-03    -218.556E-03     115.316E-03    -262.961E-03     481.428E-03    -218.206E-03     93.8294E-03
            2291     10.8823E-03     13.6398E-03    -28.7879E+06     55.7593E+06     69.9633E+06    -2.14129E+06    -259.487E-03     475.297E-03    -215.809E-03     106.594E-03    -262.448E-03     478.153E-03    -215.499E-03     86.2914E-03
            2292     10.1877E-03     13.4556E-03    -37.2304E+06     47.4196E+06     58.8806E+06    -4.23183E+06    -257.339E-03     470.078E-03    -212.740E-03     96.1336E-03    -259.982E-03     472.590E-03    -212.460E-03     77.2109E-03
            2293     9.49163E-03     13.2827E-03    -45.1835E+06     37.6156E+06     51.0571E+06    -6.16870E+06    -253.425E-03     462.842E-03    -209.417E-03     84.4859E-03    -255.740E-03     464.986E-03    -209.151E-03     67.1185E-03
            2294     8.79238E-03     13.1205E-03    -52.3324E+06     12.9477E+06     41.3057E+06    -5.76167E+06    -248.036E-03     453.940E-03    -205.904E-03     72.4347E-03    -249.997E-03     455.645E-03    -205.640E-03     56.8087E-03
            2295     8.08953E-03     12.9720E-03    -59.5491E+06    -24.3481E+06     28.1739E+06    -4.06447E+06    -241.295E-03     443.567E-03    -202.272E-03     60.5371E-03    -242.900E-03     444.797E-03    -202.010E-03     46.7326E-03
            2296     7.38156E-03     12.8382E-03    -66.6809E+06    -55.9971E+06     15.0237E+06    -2.45541E+06    -233.418E-03     432.032E-03    -198.614E-03     49.3756E-03    -234.709E-03     432.848E-03    -198.361E-03     37.3978E-03
            2297     6.66730E-03     12.7206E-03    -74.0540E+06    -84.5344E+06     1.40080E+06    -1.15777E+06    -224.984E-03     420.014E-03    -195.030E-03     39.3422E-03    -226.004E-03     420.470E-03    -194.793E-03     29.1366E-03
            2298     5.94705E-03     12.6173E-03    -82.1507E+06    -110.951E+06    -12.9351E+06    -198.216E+03    -216.460E-03     408.068E-03    -191.608E-03     30.6472E-03    -217.257E-03     408.219E-03    -191.393E-03     22.0983E-03
            2299     5.22044E-03     12.5292E-03    -90.8489E+06    -137.757E+06    -28.5649E+06     663.136E+03    -208.157E-03     396.581E-03    -188.424E-03     23.3642E-03    -208.772E-03     396.468E-03    -188.235E-03     16.3304E-03
            2300     4.48768E-03     12.4545E-03    -99.8295E+06    -163.568E+06    -46.1508E+06     1.49721E+06    -200.403E-03     385.944E-03    -185.541E-03     17.4959E-03    -200.873E-03     385.612E-03    -185.390E-03     11.8386E-03
            2301     3.74920E-03     12.3927E-03    -108.481E+06    -186.669E+06    -65.0193E+06     1.84469E+06    -193.464E-03     376.483E-03    -183.020E-03     12.8584E-03    -193.820E-03     375.979E-03    -182.917E-03     8.42253E-03
            2302     3.00551E-03     12.3428E-03    -117.026E+06    -210.456E+06    -84.7860E+06     2.04777E+06    -187.596E-03     368.510E-03    -180.914E-03     9.24808E-03    -187.862E-03     367.857E-03    -180.863E-03     5.89110E-03
            2303     2.25774E-03     12.3046E-03    -124.894E+06    -234.089E+06    -103.821E+06     1.93607E+06    -182.989E-03     362.247E-03    -179.258E-03     6.32048E-03    -183.184E-03     361.465E-03    -179.257E-03     3.91276E-03
            2304     1.50695E-03     12.2771E-03    -131.270E+06    -254.810E+06    -120.369E+06     1.16313E+06    -179.702E-03     357.767E-03    -178.064E-03     3.95185E-03    -179.843E-03     356.881E-03    -178.106E-03     2.38228E-03
            2305     753.832E-06     12.2605E-03    -135.566E+06    -267.685E+06    -132.277E+06     375.379E+03    -177.737E-03     355.072E-03    -177.335E-03     1.95007E-03    -177.845E-03     354.128E-03    -177.412E-03     1.10117E-03
            2306     13.6738E-03     12.8440E-03    -5.39964E+06     84.6722E+06     93.9696E+06    -946.547E+03    -254.418E-03     478.230E-03    -223.811E-03     99.0283E-03    -257.167E-03     480.987E-03    -223.456E-03     79.2947E-03
            2307     12.9794E-03     12.6696E-03    -10.0219E+06     80.7836E+06     95.5129E+06    -317.655E+03    -260.928E-03     482.897E-03    -221.969E-03     119.604E-03    -264.551E-03     486.494E-03    -221.594E-03     96.2222E-03
            2308     12.2874E-03     12.4885E-03    -14.0953E+06     72.4245E+06     92.0411E+06    -771.582E+03    -264.775E-03     484.377E-03    -219.602E-03     116.584E-03    -268.216E-03     487.759E-03    -219.227E-03     93.8333E-03
            2309     11.5971E-03     12.2996E-03    -19.9535E+06     64.7391E+06     84.2364E+06    -281.549E+03    -266.116E-03     482.872E-03    -216.756E-03     110.686E-03    -269.385E-03     486.057E-03    -216.400E-03     88.6303E-03
            2310     10.9079E-03     12.1173E-03    -26.7993E+06     58.1138E+06     73.1324E+06    -245.983E+03    -265.284E-03     478.764E-03    -213.480E-03     100.310E-03    -268.226E-03     481.607E-03    -213.160E-03     79.6189E-03
            2311     10.2176E-03     11.9426E-03    -32.5972E+06     52.3322E+06     62.6345E+06    -1.37519E+06    -262.244E-03     472.093E-03    -209.849E-03     87.8132E-03    -264.836E-03     474.576E-03    -209.564E-03     68.6269E-03
            2312     9.52479E-03     11.7805E-03    -39.7735E+06     41.0624E+06     52.8641E+06    -2.94150E+06    -257.203E-03     463.153E-03    -205.949E-03     74.3745E-03    -259.435E-03     465.240E-03    -205.687E-03     56.8906E-03
            2313     8.82887E-03     11.6328E-03    -48.4762E+06     12.7029E+06     40.0905E+06    -3.47557E+06    -250.336E-03     452.212E-03    -201.877E-03     61.7309E-03    -252.207E-03     453.845E-03    -201.624E-03     46.1001E-03
            2314     8.12731E-03     11.5010E-03    -57.2256E+06    -25.2865E+06     25.6500E+06    -2.97122E+06    -241.933E-03     439.673E-03    -197.740E-03     50.0848E-03    -243.459E-03     440.836E-03    -197.492E-03     36.3707E-03
            2315     7.41918E-03     11.3855E-03    -65.7383E+06    -57.3535E+06     11.8929E+06    -2.15591E+06    -232.606E-03     426.248E-03    -193.642E-03     39.7311E-03    -233.833E-03     427.008E-03    -193.404E-03     27.9021E-03
            2316     6.70453E-03     11.2857E-03    -74.2599E+06    -85.5069E+06    -2.08341E+06    -979.498E+03    -222.940E-03     412.620E-03    -189.680E-03     31.0198E-03    -223.917E-03     413.039E-03    -189.458E-03     20.9862E-03
            2317     5.98243E-03     11.2007E-03    -83.0150E+06    -111.664E+06    -16.6936E+06     300.357E+03    -213.311E-03     399.249E-03    -185.938E-03     23.8348E-03    -214.083E-03     399.380E-03    -185.739E-03     15.4612E-03
            2318     5.25298E-03     11.1293E-03    -91.9040E+06    -137.553E+06    -32.0281E+06     1.25743E+06    -204.111E-03     386.602E-03    -182.491E-03     18.0517E-03    -204.715E-03     386.486E-03    -182.319E-03     11.1771E-03
            2319     4.51677E-03     11.0701E-03    -100.594E+06    -162.920E+06    -48.1381E+06     1.68442E+06    -195.658E-03     375.055E-03    -179.398E-03     13.5340E-03    -196.125E-03     374.728E-03    -179.256E-03     7.99786E-03
            2320     3.77418E-03     11.0221E-03    -109.570E+06    -185.831E+06    -66.2487E+06     2.18184E+06    -188.166E-03     364.862E-03    -176.695E-03     9.94846E-03    -188.527E-03     364.366E-03    -176.598E-03     5.60254E-03
            2321     3.02621E-03     10.9836E-03    -118.650E+06    -209.106E+06    -86.1212E+06     2.49585E+06    -181.864E-03     356.288E-03    -174.423E-03     7.08897E-03    -182.140E-03     355.648E-03    -174.378E-03     3.79363E-03
            2322     2.27374E-03     10.9541E-03    -126.327E+06    -231.428E+06    -105.555E+06     2.20774E+06    -176.840E-03     349.451E-03    -172.611E-03     4.76289E-03    -177.044E-03     348.689E-03    -172.620E-03     2.38983E-03
            2323     1.51775E-03     10.9331E-03    -132.165E+06    -251.109E+06    -121.946E+06     1.25345E+06    -173.163E-03     344.461E-03    -171.298E-03     2.95033E-03    -173.311E-03     343.600E-03    -171.352E-03     1.39689E-03
            2324     759.544E-06     10.9203E-03    -136.237E+06    -266.404E+06    -133.054E+06    -27.7191E+03    -171.076E-03     341.472E-03    -170.396E-03     1.52922E-03    -171.188E-03     340.538E-03    -170.477E-03     691.343E-06
            2325     13.6813E-03     11.3106E-03    -5.48865E+06     86.2456E+06     94.6981E+06    -948.049E+03    -263.009E-03     486.377E-03    -223.368E-03     102.332E-03    -265.929E-03     489.309E-03    -223.011E-03     81.4934E-03
            2326     12.9901E-03     11.1296E-03    -11.3508E+06     81.3626E+06     94.3048E+06    -2.66832E+06    -268.249E-03     489.321E-03    -221.072E-03     122.436E-03    -272.080E-03     493.127E-03    -220.702E-03     97.8667E-03
            2327     12.3039E-03     10.9483E-03    -17.1332E+06     71.0288E+06     89.9844E+06    -2.76474E+06    -271.888E-03     490.134E-03    -218.246E-03     116.204E-03    -275.463E-03     493.641E-03    -217.874E-03     92.5186E-03
            2328     11.6191E-03     10.7647E-03    -22.5090E+06     62.6237E+06     82.0872E+06    -1.83114E+06    -272.926E-03     487.816E-03    -214.889E-03     107.200E-03    -276.287E-03     491.083E-03    -214.537E-03     84.2893E-03
            2329     10.9339E-03     10.5881E-03    -26.9239E+06     58.6012E+06     71.4994E+06    -1.83981E+06    -271.247E-03     482.307E-03    -211.060E-03     93.3808E-03    -274.224E-03     485.193E-03    -210.748E-03     71.9452E-03
            2330     10.2482E-03     10.4243E-03    -32.2178E+06     52.9665E+06     60.0973E+06    -2.03817E+06    -266.705E-03     473.578E-03    -206.873E-03     78.9667E-03    -269.297E-03     476.074E-03    -206.603E-03     59.2434E-03
            2331     9.55920E-03     10.2770E-03    -38.8227E+06     41.2064E+06     50.5355E+06    -36.3299E+03    -259.658E-03     462.136E-03    -202.479E-03     65.2928E-03    -261.872E-03     464.218E-03    -202.229E-03     47.5507E-03
            2332     8.86409E-03     10.1473E-03    -47.1413E+06     14.9020E+06     38.6591E+06     1.47890E+06    -250.770E-03     448.775E-03    -198.005E-03     53.2933E-03    -252.627E-03     450.410E-03    -197.765E-03     37.5872E-03
            2333     8.16252E-03     10.0352E-03    -56.7056E+06    -22.7136E+06     23.5623E+06     1.36215E+06    -240.662E-03     434.231E-03    -193.569E-03     43.1487E-03    -242.185E-03     435.409E-03    -193.336E-03     29.4558E-03
            2334     7.45356E-03     9.94032E-03    -66.3558E+06    -56.8981E+06     8.61423E+06     1.23078E+06    -229.980E-03     419.259E-03    -189.279E-03     35.0050E-03    -231.219E-03     420.040E-03    -189.057E-03     23.2449E-03
            2335     6.73608E-03     9.86094E-03    -75.9859E+06    -85.6803E+06    -5.85027E+06     1.58140E+06    -219.302E-03     404.524E-03    -185.222E-03     28.6812E-03    -220.309E-03     404.978E-03    -185.017E-03     18.7150E-03
            2336     6.01079E-03     9.79548E-03    -85.4631E+06    -112.040E+06    -20.4975E+06     2.04683E+06    -209.085E-03     390.553E-03    -181.468E-03     23.7334E-03    -209.899E-03     390.727E-03    -181.284E-03     15.3954E-03
            2337     5.27803E-03     9.74232E-03    -94.5704E+06    -136.596E+06    -35.4479E+06     2.29282E+06    -199.668E-03     377.726E-03    -178.058E-03     19.8014E-03    -200.321E-03     377.663E-03    -177.900E-03     12.9263E-03
            2338     4.53811E-03     9.69947E-03    -104.010E+06    -161.608E+06    -51.0685E+06     2.03846E+06    -191.253E-03     366.275E-03    -175.022E-03     16.4368E-03    -191.771E-03     366.000E-03    -174.893E-03     10.8602E-03
            2339     3.79209E-03     9.66541E-03    -113.182E+06    -185.673E+06    -67.9300E+06     1.94685E+06    -183.926E-03     356.297E-03    -172.371E-03     13.3862E-03    -184.331E-03     355.839E-03    -172.277E-03     8.97172E-03
            2340     3.04072E-03     9.63883E-03    -121.285E+06    -207.523E+06    -86.3234E+06     2.13694E+06    -177.700E-03     347.818E-03    -170.118E-03     10.5754E-03    -178.010E-03     347.212E-03    -170.073E-03     7.20915E-03
            2341     2.28481E-03     9.61884E-03    -128.617E+06    -228.792E+06    -105.354E+06     1.68446E+06    -172.662E-03     340.962E-03    -168.300E-03     7.85746E-03    -172.893E-03     340.230E-03    -168.309E-03     5.42299E-03
            2342     1.52533E-03     9.60504E-03    -134.300E+06    -247.584E+06    -122.743E+06     698.549E+03    -168.946E-03     335.898E-03    -166.952E-03     5.28655E-03    -169.114E-03     335.066E-03    -167.012E-03     3.68925E-03
            2343     763.234E-06     9.59627E-03    -138.395E+06    -266.442E+06    -134.913E+06    -213.552E+03    -166.691E-03     332.752E-03    -166.061E-03     3.14887E-03    -166.812E-03     331.827E-03    -166.149E-03     2.29399E-03
            2344     13.6858E-03     9.76434E-03    -4.57516E+06     88.1187E+06     95.1824E+06    -459.242E+03    -270.790E-03     493.754E-03    -222.964E-03     105.382E-03    -273.853E-03     496.837E-03    -222.609E-03     83.5738E-03
            2345     13.0018E-03     9.58048E-03    -9.97395E+06     84.7745E+06     95.4924E+06    -765.668E+03    -276.360E-03     496.586E-03    -220.226E-03     124.037E-03    -280.362E-03     500.577E-03    -219.857E-03     98.4137E-03
            2346     12.3194E-03     9.39888E-03    -16.2207E+06     72.9448E+06     89.6595E+06    -1.97843E+06    -279.898E-03     496.785E-03    -216.887E-03     113.704E-03    -283.601E-03     500.431E-03    -216.521E-03     88.9041E-03
            2347     11.6402E-03     9.21837E-03    -21.7875E+06     61.3945E+06     80.7190E+06    -3.53929E+06    -280.054E-03     493.031E-03    -212.977E-03     101.235E-03    -283.504E-03     496.391E-03    -212.631E-03     77.1809E-03
            2348     10.9619E-03     9.05186E-03    -28.0430E+06     56.4401E+06     68.4720E+06    -3.33227E+06    -276.240E-03     484.851E-03    -208.610E-03     85.7055E-03    -279.286E-03     487.803E-03    -208.309E-03     63.3298E-03
            2349     10.2794E-03     8.90375E-03    -35.4496E+06     49.0880E+06     54.6789E+06    -627.197E+03    -268.844E-03     472.832E-03    -203.988E-03     70.8748E-03    -271.470E-03     475.353E-03    -203.734E-03     50.6488E-03
            2350     9.59047E-03     8.77513E-03    -43.7719E+06     36.5475E+06     43.5401E+06     2.62957E+06    -258.995E-03     458.315E-03    -199.319E-03     58.7454E-03    -261.238E-03     460.411E-03    -199.091E-03     40.8497E-03
            2351     8.89494E-03     8.66683E-03    -52.5628E+06     15.2926E+06     33.3537E+06     5.11495E+06    -247.830E-03     442.584E-03    -194.753E-03     49.3247E-03    -249.737E-03     444.266E-03    -194.532E-03     33.6771E-03
            2352     8.19069E-03     8.57740E-03    -61.5553E+06    -18.6195E+06     20.1093E+06     5.88005E+06    -236.105E-03     426.501E-03    -190.395E-03     42.4891E-03    -237.703E-03     427.760E-03    -190.178E-03     28.9610E-03
            2353     7.47726E-03     8.50513E-03    -70.9470E+06    -53.6492E+06     5.54440E+06     4.95176E+06    -224.571E-03     410.896E-03    -186.326E-03     37.7509E-03    -225.899E-03     411.771E-03    -186.117E-03     26.1564E-03
            2354     6.75566E-03     8.44709E-03    -79.9930E+06    -84.0582E+06    -8.03817E+06     3.99514E+06    -213.690E-03     396.291E-03    -182.600E-03     34.2056E-03    -214.790E-03     396.834E-03    -182.403E-03     24.3656E-03
            2355     6.02573E-03     8.40155E-03    -88.5063E+06    -110.622E+06    -21.1483E+06     3.28867E+06    -203.756E-03     383.004E-03    -179.248E-03     31.3386E-03    -204.658E-03     383.264E-03    -179.065E-03     23.0808E-03
            2356     5.28843E-03     8.36564E-03    -97.0984E+06    -135.381E+06    -34.7382E+06     2.69203E+06    -195.011E-03     371.289E-03    -176.278E-03     28.7795E-03    -195.744E-03     371.299E-03    -176.114E-03     21.9396E-03
            2357     4.54514E-03     8.33814E-03    -105.790E+06    -158.900E+06    -49.6951E+06     1.76323E+06    -187.479E-03     361.156E-03    -173.677E-03     26.1539E-03    -188.066E-03     360.950E-03    -173.542E-03     20.5830E-03
            2358     3.79645E-03     8.31708E-03    -114.215E+06    -184.801E+06    -65.5866E+06     419.369E+03    -181.078E-03     352.527E-03    -171.449E-03     23.2359E-03    -181.536E-03     352.115E-03    -171.343E-03     18.7997E-03
            2359     3.04312E-03     8.30180E-03    -122.522E+06    -207.163E+06    -83.1638E+06    -5.00772E+03    -175.763E-03     345.347E-03    -169.583E-03     19.8466E-03    -176.115E-03     344.770E-03    -169.521E-03     16.4463E-03
            2360     2.28588E-03     8.29080E-03    -130.119E+06    -226.626E+06    -102.849E+06    -629.724E+03    -171.604E-03     339.687E-03    -168.083E-03     15.8253E-03    -171.868E-03     338.983E-03    -168.080E-03     13.3590E-03
            2361     1.52571E-03     8.28357E-03    -136.270E+06    -247.413E+06    -122.724E+06    -1.29622E+06    -168.605E-03     335.560E-03    -166.954E-03     11.1588E-03    -168.793E-03     334.740E-03    -167.012E-03     9.53543E-03
            2362     763.557E-06     8.27926E-03    -140.089E+06    -268.302E+06    -136.543E+06    -654.897E+03    -166.524E-03     332.924E-03    -166.400E-03     6.46494E-03    -166.652E-03     331.998E-03    -166.491E-03     5.60488E-03
            2363     13.6907E-03     8.20505E-03    -4.71402E+06     89.1032E+06     94.9114E+06    -388.184E+03    -279.900E-03     502.494E-03    -222.594E-03     107.514E-03    -283.101E-03     505.719E-03    -222.242E-03     84.5895E-03
            2364     13.0112E-03     8.01935E-03    -9.92952E+06     86.0580E+06     95.3885E+06    -546.503E+03    -285.700E-03     505.043E-03    -219.343E-03     123.099E-03    -289.890E-03     509.227E-03    -218.977E-03     96.0268E-03
            2365     12.3380E-03     7.83527E-03    -15.6313E+06     74.6591E+06     88.4284E+06    -1.01829E+06    -287.889E-03     503.334E-03    -215.445E-03     109.521E-03    -291.764E-03     507.165E-03    -215.089E-03     83.2065E-03
            2366     11.6654E-03     7.66503E-03    -23.0645E+06     63.3631E+06     75.7609E+06    -1.34798E+06    -285.286E-03     496.304E-03    -211.018E-03     94.8048E-03    -288.829E-03     499.775E-03    -210.698E-03     69.7226E-03
            2367     10.9882E-03     7.51129E-03    -31.1000E+06     53.3176E+06     61.9441E+06    -754.538E+03    -277.753E-03     484.055E-03    -206.303E-03     78.6714E-03    -280.823E-03     487.031E-03    -206.025E-03     55.8640E-03
            2368     10.3062E-03     7.38476E-03    -38.2312E+06     41.8350E+06     50.5863E+06     2.54606E+06    -266.565E-03     468.136E-03    -201.571E-03     65.7696E-03    -269.182E-03     470.625E-03    -201.323E-03     45.6577E-03
            2369     9.61552E-03     7.28047E-03    -46.2275E+06     31.2618E+06     39.7035E+06     6.98935E+06    -253.649E-03     450.672E-03    -197.023E-03     57.4585E-03    -255.896E-03     452.757E-03    -196.803E-03     40.0086E-03
            2370     8.91431E-03     7.19651E-03    -54.9228E+06     15.5248E+06     30.7713E+06     9.30004E+06    -240.332E-03     433.152E-03    -192.820E-03     52.2864E-03    -242.273E-03     434.869E-03    -192.609E-03     37.2447E-03
            2371     8.20344E-03     7.13182E-03    -63.5758E+06    -13.4605E+06     21.4517E+06     8.28180E+06    -227.772E-03     416.809E-03    -189.037E-03     49.5697E-03    -229.435E-03     418.141E-03    -188.818E-03     36.6514E-03
            2372     7.48376E-03     7.08156E-03    -71.3187E+06    -49.3333E+06     9.47289E+06     6.28660E+06    -216.493E-03     402.171E-03    -185.678E-03     48.1359E-03    -217.893E-03     403.119E-03    -185.456E-03     37.0988E-03
            2373     6.75562E-03     7.04385E-03    -79.1969E+06    -80.7953E+06    -2.14617E+06     4.58189E+06    -206.620E-03     389.357E-03    -182.737E-03     46.9085E-03    -207.789E-03     389.968E-03    -182.515E-03     37.5497E-03
            2374     6.02072E-03     7.01576E-03    -87.6296E+06    -107.741E+06    -13.9609E+06     2.77972E+06    -198.182E-03     378.374E-03    -180.192E-03     45.3583E-03    -199.150E-03     378.692E-03    -179.979E-03     37.4948E-03
            2375     5.27993E-03     6.99521E-03    -95.8432E+06    -132.857E+06    -26.7607E+06     700.044E+03    -191.081E-03     369.102E-03    -178.021E-03     43.1320E-03    -191.870E-03     369.159E-03    -177.823E-03     36.6030E-03
            2376     4.53382E-03     6.98014E-03    -103.424E+06    -156.445E+06    -41.1909E+06    -1.40123E+06    -185.231E-03     361.431E-03    -176.200E-03     39.9585E-03    -185.859E-03     361.257E-03    -176.029E-03     34.6177E-03
            2377     3.78355E-03     6.96989E-03    -111.259E+06    -184.281E+06    -58.5711E+06    -2.72243E+06    -180.614E-03     355.321E-03    -174.707E-03     35.7159E-03    -181.096E-03     354.923E-03    -174.571E-03     31.4432E-03
            2378     3.03005E-03     6.96295E-03    -119.210E+06    -208.049E+06    -78.7040E+06    -3.56343E+06    -177.084E-03     350.583E-03    -173.499E-03     30.3185E-03    -177.443E-03     350.007E-03    -173.418E-03     27.0102E-03
            2379     2.27432E-03     6.95847E-03    -126.577E+06    -227.916E+06    -100.312E+06    -3.58571E+06    -174.478E-03     347.036E-03    -172.558E-03     23.9512E-03    -174.739E-03     346.326E-03    -172.545E-03     21.5317E-03
            2380     1.51705E-03     6.95567E-03    -133.253E+06    -251.863E+06    -120.771E+06    -2.42460E+06    -172.756E-03     344.630E-03    -171.874E-03     16.7318E-03    -172.932E-03     343.785E-03    -171.919E-03     15.1352E-03
            2381     758.745E-06     6.95456E-03    -137.540E+06    -271.280E+06    -134.638E+06    -385.998E+03    -171.456E-03     343.121E-03    -171.665E-03     9.33269E-03    -171.573E-03     342.173E-03    -171.746E-03     8.49123E-03
            2382     13.6955E-03     6.63446E-03    -3.89169E+06     91.7103E+06     96.5038E+06     62.4214E+03    -290.000E-03     512.292E-03    -222.292E-03     112.310E-03    -293.472E-03     515.795E-03    -221.937E-03     87.8488E-03
            2383     13.0262E-03     6.43919E-03    -9.88113E+06     83.5979E+06     93.1466E+06    -315.161E+03    -295.734E-03     514.226E-03    -218.492E-03     126.295E-03    -300.263E-03     518.747E-03    -218.133E-03     97.3227E-03
            2384     12.3571E-03     6.26519E-03    -17.2012E+06     72.0374E+06     84.8278E+06     475.181E+03    -295.430E-03     509.486E-03    -214.056E-03     106.943E-03    -299.460E-03     513.468E-03    -213.711E-03     79.3564E-03
            2385     11.6860E-03     6.10345E-03    -23.0479E+06     63.1976E+06     75.4688E+06     2.13690E+06    -287.169E-03     496.448E-03    -209.279E-03     87.6027E-03    -290.642E-03     499.852E-03    -208.960E-03     62.4315E-03
            2386     11.0108E-03     5.97526E-03    -29.8073E+06     50.2262E+06     60.0510E+06     4.76332E+06    -273.133E-03     477.676E-03    -204.543E-03     72.6770E-03    -276.038E-03     480.486E-03    -204.272E-03     50.7673E-03
            2387     10.3231E-03     5.87538E-03    -38.9104E+06     37.1966E+06     47.2610E+06     7.49211E+06    -257.594E-03     457.769E-03    -200.175E-03     65.5238E-03    -260.077E-03     460.115E-03    -199.936E-03     46.7494E-03
            2388     9.62427E-03     5.79857E-03    -47.0051E+06     27.1878E+06     41.2634E+06     9.13552E+06    -242.588E-03     438.907E-03    -196.319E-03     63.0125E-03    -244.746E-03     440.881E-03    -196.084E-03     47.0237E-03
            2389     8.91466E-03     5.74217E-03    -53.1850E+06     18.1114E+06     38.3801E+06     9.43025E+06    -228.893E-03     421.902E-03    -193.008E-03     62.5387E-03    -230.772E-03     423.551E-03    -192.765E-03     48.9826E-03
            2390     8.19487E-03     5.69976E-03    -59.0868E+06    -7.45635E+06     32.9833E+06     7.47589E+06    -217.271E-03     407.506E-03    -190.235E-03     62.7619E-03    -218.881E-03     408.789E-03    -189.974E-03     51.2570E-03
            2391     7.46686E-03     5.66963E-03    -66.1834E+06    -45.4863E+06     22.6055E+06     4.89903E+06    -207.779E-03     395.716E-03    -187.937E-03     62.6108E-03    -209.128E-03     396.608E-03    -187.662E-03     52.8485E-03
            2392     6.73261E-03     5.64788E-03    -73.4466E+06    -76.3891E+06     12.1421E+06     2.24876E+06    -200.186E-03     386.237E-03    -186.051E-03     61.5439E-03    -201.310E-03     386.798E-03    -185.774E-03     53.2745E-03
            2393     5.99317E-03     5.63319E-03    -80.2223E+06    -103.792E+06     215.690E+03    -1.01338E+06    -194.286E-03     378.800E-03    -184.514E-03     59.2155E-03    -195.209E-03     379.071E-03    -184.246E-03     52.2233E-03
            2394     5.24980E-03     5.62327E-03    -86.8261E+06    -129.154E+06    -14.6630E+06    -4.37404E+06    -189.745E-03     373.012E-03    -183.267E-03     55.5244E-03    -190.486E-03     373.029E-03    -183.027E-03     49.6456E-03
            2395     4.50366E-03     5.61721E-03    -93.7972E+06    -157.261E+06    -33.2470E+06    -6.33973E+06    -186.352E-03     368.622E-03    -182.270E-03     50.3112E-03    -186.925E-03     368.398E-03    -182.072E-03     45.4284E-03
            2396     3.75532E-03     5.61332E-03    -100.914E+06    -186.785E+06    -54.7496E+06    -6.39621E+06    -183.925E-03     365.407E-03    -181.482E-03     43.7203E-03    -184.345E-03     364.961E-03    -181.338E-03     39.7555E-03
            2397     3.00576E-03     5.61103E-03    -107.946E+06    -211.256E+06    -76.7689E+06    -5.86787E+06    -182.214E-03     363.082E-03    -180.868E-03     36.0629E-03    -182.509E-03     362.461E-03    -180.789E-03     32.9451E-03
            2398     2.25510E-03     5.61020E-03    -114.892E+06    -234.637E+06    -97.2942E+06    -3.90490E+06    -181.082E-03     361.497E-03    -180.415E-03     27.7821E-03    -181.275E-03     360.725E-03    -180.394E-03     25.4799E-03
            2399     1.50363E-03     5.60954E-03    -120.979E+06    -257.690E+06    -112.718E+06    -1.00422E+06    -180.428E-03     360.525E-03    -180.097E-03     18.9101E-03    -180.545E-03     359.618E-03    -180.111E-03     17.3933E-03
            2400     752.026E-06     5.60948E-03    -125.280E+06    -272.909E+06    -122.627E+06     350.746E+03    -179.591E-03     359.857E-03    -180.266E-03     10.1239E-03    -179.662E-03     358.863E-03    -180.301E-03     9.30596E-03
            2401     13.6968E-03     5.04138E-03    -3.72513E+06     91.8169E+06     92.7986E+06    -168.146E+03    -300.619E-03     522.814E-03    -222.195E-03     124.126E-03    -304.425E-03     526.659E-03    -221.859E-03     98.2639E-03
            2402     13.0307E-03     4.84734E-03    -10.5075E+06     77.4139E+06     86.0556E+06     280.659E+03    -308.172E-03     525.982E-03    -217.810E-03     126.299E-03    -312.807E-03     530.607E-03    -217.477E-03     96.1189E-03
            2403     12.3706E-03     4.67484E-03    -13.5752E+06     68.4330E+06     83.0675E+06     3.49271E+06    -299.526E-03     512.436E-03    -212.910E-03     96.1170E-03    -303.260E-03     516.133E-03    -212.574E-03     68.9492E-03
            2404     11.7057E-03     4.54617E-03    -20.8412E+06     60.0027E+06     77.4343E+06     6.49543E+06    -280.517E-03     488.691E-03    -208.174E-03     79.5812E-03    -283.591E-03     491.688E-03    -207.844E-03     56.3457E-03
            2405     11.0208E-03     4.45371E-03    -29.0095E+06     46.7913E+06     64.4949E+06     8.96883E+06    -260.596E-03     464.610E-03    -204.015E-03     73.5152E-03    -263.134E-03     467.033E-03    -203.718E-03     54.3848E-03
            2406     10.3222E-03     4.38581E-03    -35.0843E+06     37.5423E+06     55.8308E+06     9.80475E+06    -243.210E-03     443.782E-03    -200.571E-03     72.5231E-03    -245.352E-03     445.777E-03    -200.296E-03     56.7414E-03
            2407     9.61078E-03     4.33718E-03    -40.5732E+06     30.8007E+06     54.3822E+06     7.97367E+06    -228.680E-03     426.509E-03    -197.829E-03     72.9961E-03    -230.512E-03     428.154E-03    -197.543E-03     59.9368E-03
            2408     8.88938E-03     4.30298E-03    -46.6307E+06     21.8525E+06     54.6945E+06     5.07206E+06    -217.265E-03     412.956E-03    -195.692E-03     73.5522E-03    -218.848E-03     414.298E-03    -195.382E-03     62.6466E-03
            2409     8.16105E-03     4.27939E-03    -52.9871E+06    -4.34283E+06     48.8879E+06     3.29021E+06    -208.596E-03     402.641E-03    -194.045E-03     73.0731E-03    -209.942E-03     403.645E-03    -193.717E-03     63.8930E-03
            2410     7.42747E-03     4.26298E-03    -58.9658E+06    -39.9693E+06     35.9512E+06     186.464E+03    -202.194E-03     394.973E-03    -192.779E-03     71.1540E-03    -203.307E-03     395.633E-03    -192.456E-03     63.3444E-03
            2411     6.68985E-03     4.25229E-03    -63.9398E+06    -71.0407E+06     20.3462E+06    -4.73716E+06    -197.638E-03     389.453E-03    -191.814E-03     67.7904E-03    -198.545E-03     389.821E-03    -191.517E-03     61.0693E-03
            2412     5.94971E-03     4.24508E-03    -68.0817E+06    -101.394E+06     2.63303E+06    -8.46910E+06    -194.515E-03     385.599E-03    -191.084E-03     62.9485E-03    -195.231E-03     385.704E-03    -190.825E-03     57.1422E-03
            2413     5.20797E-03     4.24119E-03    -72.9503E+06    -130.322E+06    -16.8973E+06    -9.41719E+06    -192.454E-03     382.984E-03    -190.529E-03     56.9026E-03    -193.004E-03     382.858E-03    -190.319E-03     51.9190E-03
            2414     4.46509E-03     4.23877E-03    -79.4486E+06    -162.675E+06    -37.6364E+06    -8.22363E+06    -191.123E-03     381.236E-03    -190.113E-03     50.0248E-03    -191.525E-03     380.883E-03    -189.950E-03     45.8121E-03
            2415     3.72185E-03     4.23794E-03    -86.8426E+06    -192.998E+06    -58.0324E+06    -6.13785E+06    -190.244E-03     380.046E-03    -189.802E-03     42.5784E-03    -190.522E-03     379.494E-03    -189.687E-03     39.1041E-03
            2416     2.97776E-03     4.23784E-03    -94.3395E+06    -218.137E+06    -76.1085E+06    -3.38716E+06    -189.715E-03     379.295E-03    -189.581E-03     34.6388E-03    -189.896E-03     378.582E-03    -189.508E-03     31.8838E-03
            2417     2.23345E-03     4.23833E-03    -101.267E+06    -242.309E+06    -90.5143E+06    -355.506E+03    -189.447E-03     378.885E-03    -189.439E-03     26.4405E-03    -189.550E-03     378.026E-03    -189.393E-03     24.3993E-03
            2418     1.48927E-03     4.23836E-03    -106.329E+06    -260.367E+06    -101.117E+06     1.57210E+06    -189.272E-03     378.638E-03    -189.366E-03     18.1028E-03    -189.319E-03     377.670E-03    -189.340E-03     16.7497E-03
            2419     744.730E-06     4.23928E-03    -109.679E+06    -270.623E+06    -108.826E+06     1.61297E+06    -188.952E-03     378.636E-03    -189.684E-03     9.68757E-03    -188.965E-03     377.608E-03    -189.677E-03     8.95799E-03
            2420     13.6882E-03     3.43100E-03    -3.68106E+06     91.1992E+06     89.5044E+06    -215.272E+03    -321.873E-03     544.165E-03    -222.291E-03     128.349E-03    -325.679E-03     548.019E-03    -221.971E-03     101.513E-03
            2421     13.0424E-03     3.21544E-03    -7.10044E+06     73.0466E+06     83.1613E+06     2.29895E+06    -314.173E-03     531.405E-03    -217.232E-03     108.203E-03    -318.057E-03     535.294E-03    -216.912E-03     80.0281E-03
            2422     12.3892E-03     3.09166E-03    -13.9667E+06     61.9961E+06     78.7454E+06     5.94232E+06    -289.557E-03     501.981E-03    -212.424E-03     84.5506E-03    -292.408E-03     504.786E-03    -212.100E-03     61.7780E-03
            2423     11.7045E-03     3.01239E-03    -20.3436E+06     58.6721E+06     79.6715E+06     8.41468E+06    -265.091E-03     473.552E-03    -208.461E-03     79.2283E-03    -267.378E-03     475.753E-03    -208.118E-03     61.2866E-03
            2424     11.0055E-03     2.95609E-03    -25.4548E+06     48.7853E+06     75.1256E+06     7.68800E+06    -245.483E-03     450.838E-03    -205.355E-03     77.1991E-03    -247.301E-03     452.528E-03    -205.014E-03     63.3214E-03
            2425     10.2935E-03     2.91735E-03    -30.1091E+06     41.1057E+06     68.4432E+06     5.26753E+06    -230.319E-03     433.312E-03    -202.992E-03     75.5153E-03    -231.802E-03     434.640E-03    -202.666E-03     64.5081E-03
            2426     9.57258E-03     2.89170E-03    -34.2607E+06     35.7189E+06     62.9437E+06     3.53179E+06    -219.024E-03     420.279E-03    -201.255E-03     73.5950E-03    -220.264E-03     421.345E-03    -200.942E-03     64.6607E-03
            2427     8.84524E-03     2.87301E-03    -39.3705E+06     26.1653E+06     54.0927E+06     1.84446E+06    -211.061E-03     411.060E-03    -199.999E-03     70.7542E-03    -212.111E-03     411.909E-03    -199.710E-03     63.3233E-03
            2428     8.11355E-03     2.86076E-03    -44.7206E+06    -185.593E+03     39.7403E+06    -2.27691E+06    -205.668E-03     404.778E-03    -199.110E-03     66.8942E-03    -206.540E-03     405.376E-03    -198.846E-03     60.5386E-03
            2429     7.37895E-03     2.85242E-03    -48.4319E+06    -33.8477E+06     23.3269E+06    -7.32369E+06    -202.097E-03     400.588E-03    -198.491E-03     62.3926E-03    -202.798E-03     400.928E-03    -198.255E-03     56.8459E-03
            2430     6.64293E-03     2.84680E-03    -52.1972E+06    -68.2207E+06     4.68560E+06    -10.7733E+06    -199.824E-03     397.884E-03    -198.061E-03     57.2107E-03    -200.370E-03     397.988E-03    -197.863E-03     52.3193E-03
            2431     5.90584E-03     2.84336E-03    -57.9201E+06    -105.027E+06    -14.6497E+06    -11.1903E+06    -198.454E-03     396.229E-03    -197.775E-03     51.5314E-03    -198.868E-03     396.105E-03    -197.612E-03     47.2239E-03
            2432     5.16814E-03     2.84136E-03    -64.8874E+06    -138.912E+06    -32.2796E+06    -8.51506E+06    -197.665E-03     395.260E-03    -197.595E-03     45.5429E-03    -197.970E-03     394.933E-03    -197.461E-03     41.8018E-03
            2433     4.43020E-03     2.84077E-03    -71.9755E+06    -171.390E+06    -47.5302E+06    -4.78123E+06    -197.243E-03     394.739E-03    -197.496E-03     39.3932E-03    -197.456E-03     394.223E-03    -197.381E-03     36.2080E-03
            2434     3.69156E-03     2.84097E-03    -78.6369E+06    -200.180E+06    -60.5461E+06    -1.65658E+06    -197.064E-03     394.520E-03    -197.456E-03     33.0766E-03    -197.201E-03     393.839E-03    -197.354E-03     30.4350E-03
            2435     2.95317E-03     2.84145E-03    -84.4984E+06    -225.271E+06    -71.4062E+06     1.14242E+06    -197.084E-03     394.540E-03    -197.456E-03     26.7095E-03    -197.157E-03     393.716E-03    -197.364E-03     24.6109E-03
            2436     2.21486E-03     2.84197E-03    -89.0308E+06    -244.868E+06    -80.7296E+06     2.92841E+06    -197.170E-03     394.647E-03    -197.477E-03     20.1874E-03    -197.190E-03     393.712E-03    -197.397E-03     18.6217E-03
            2437     1.47610E-03     2.84281E-03    -92.2516E+06    -258.902E+06    -87.7095E+06     2.98367E+06    -197.242E-03     394.785E-03    -197.543E-03     13.6316E-03    -197.224E-03     393.770E-03    -197.473E-03     12.5855E-03
            2438     737.484E-06     2.84290E-03    -95.1142E+06    -264.518E+06    -93.4170E+06     2.65764E+06    -197.493E-03     395.130E-03    -197.637E-03     7.36269E-03    -197.458E-03     394.086E-03    -197.583E-03     6.81750E-03
            2439     13.7014E-03     1.74195E-03    -5.31610E+06     89.1536E+06     91.5667E+06    -688.878E+03    -362.178E-03     585.916E-03    -223.739E-03     144.002E-03    -365.533E-03     589.323E-03    -223.402E-03     118.761E-03
            2440     13.0587E-03     1.61286E-03    -7.91065E+06     74.1060E+06     86.9761E+06     4.86485E+06    -316.191E-03     533.949E-03    -217.759E-03     97.9412E-03    -318.444E-03     536.206E-03    -217.420E-03     79.5602E-03
            2441     12.3698E-03     1.54271E-03    -13.5963E+06     62.5669E+06     83.1524E+06     5.56892E+06    -277.892E-03     491.186E-03    -213.294E-03     70.4767E-03    -279.323E-03     492.558E-03    -212.949E-03     58.2807E-03
            2442     11.6759E-03     1.50134E-03    -17.2215E+06     59.9653E+06     82.0481E+06     3.92701E+06    -253.414E-03     463.508E-03    -210.095E-03     60.1857E-03    -254.521E-03     464.536E-03    -209.746E-03     51.0808E-03
            2443     10.9688E-03     1.47580E-03    -20.3808E+06     52.3639E+06     71.1041E+06     3.16379E+06    -236.587E-03     444.324E-03    -207.738E-03     55.4982E-03    -237.440E-03     445.089E-03    -207.428E-03     48.6069E-03
            2444     10.2529E-03     1.45935E-03    -24.2317E+06     44.9565E+06     56.6129E+06     1.90672E+06    -224.846E-03     430.862E-03    -206.016E-03     51.8147E-03    -225.539E-03     431.467E-03    -205.763E-03     46.3536E-03
            2445     9.53037E-03     1.44826E-03    -29.0003E+06     37.3549E+06     41.8599E+06     589.783E+03    -216.832E-03     421.609E-03    -204.777E-03     48.0975E-03    -217.419E-03     422.105E-03    -204.580E-03     43.6169E-03
            2446     8.80360E-03     1.44019E-03    -33.1984E+06     29.2380E+06     25.4648E+06    -874.502E+03    -211.300E-03     415.186E-03    -203.886E-03     44.0841E-03    -211.800E-03     415.598E-03    -203.753E-03     40.3018E-03
            2447     8.07380E-03     1.43457E-03    -37.1146E+06     8.28532E+06     8.92654E+06    -4.51556E+06    -207.578E-03     410.859E-03    -203.281E-03     39.8844E-03    -207.990E-03     411.142E-03    -203.194E-03     36.5703E-03
            2448     7.34232E-03     1.43062E-03    -42.6262E+06    -30.1379E+06    -5.51585E+06    -8.76880E+06    -205.169E-03     408.080E-03    -202.911E-03     35.9286E-03    -205.491E-03     408.158E-03    -202.833E-03     32.9544E-03
            2449     6.60918E-03     1.42795E-03    -49.2247E+06    -72.9709E+06    -17.9208E+06    -8.63507E+06    -203.610E-03     406.317E-03    -202.707E-03     32.1116E-03    -203.852E-03     406.176E-03    -202.619E-03     29.4691E-03
            2450     5.87525E-03     1.42621E-03    -56.4493E+06    -112.698E+06    -29.3376E+06    -5.73727E+06    -202.658E-03     405.274E-03    -202.615E-03     28.4228E-03    -202.835E-03     404.934E-03    -202.517E-03     26.1034E-03
            2451     5.14076E-03     1.42548E-03    -63.3433E+06    -147.744E+06    -39.7376E+06    -3.19350E+06    -202.164E-03     404.769E-03    -202.605E-03     24.8267E-03    -202.286E-03     404.257E-03    -202.498E-03     22.8053E-03
            2452     4.40584E-03     1.42536E-03    -68.5903E+06    -178.634E+06    -48.7907E+06    -1.02729E+06    -202.034E-03     404.683E-03    -202.649E-03     21.2942E-03    -202.106E-03     404.018E-03    -202.535E-03     19.5614E-03
            2453     3.67146E-03     1.42556E-03    -72.4536E+06    -205.505E+06    -56.5967E+06     930.865E+03    -202.145E-03     404.866E-03    -202.721E-03     17.7479E-03    -202.168E-03     404.065E-03    -202.601E-03     16.3057E-03
            2454     2.93684E-03     1.42614E-03    -75.3160E+06    -228.008E+06    -63.4673E+06     2.14466E+06    -202.347E-03     405.145E-03    -202.799E-03     14.2551E-03    -202.328E-03     404.232E-03    -202.676E-03     13.1056E-03
            2455     2.20228E-03     1.42622E-03    -77.1044E+06    -244.147E+06    -69.6846E+06     2.45230E+06    -202.581E-03     405.446E-03    -202.864E-03     10.6034E-03    -202.528E-03     404.452E-03    -202.747E-03     9.73415E-03
            2456     1.46841E-03     1.42697E-03    -78.6465E+06    -255.443E+06    -74.2362E+06     2.51291E+06    -202.813E-03     405.716E-03    -202.903E-03     7.10764E-03    -202.736E-03     404.667E-03    -202.790E-03     6.53297E-03
            2457     734.677E-06     1.42642E-03    -80.0587E+06    -257.714E+06    -77.4982E+06     1.36357E+06    -202.992E-03     405.786E-03    -202.794E-03     4.03662E-03    -202.908E-03     404.728E-03    -202.691E-03     3.74170E-03


