********************************************************************************
Field Output Report, written Tue May 28 21:55:17 2024

Source 1
---------

   ODB: G:/Abaqus_calc_2019/1740/Vel_10/odb/zeides_2a_32_red_150_cal_10_vel_10_fric_025.odb
   Step: Step-1
   Frame: Increment   6208436: Step Time =   0.8120

Loc 1 : Nodal values from source 1

Output sorted by column "Nodal Label".

Field Output reported at nodes for region: DIE_2A_32_D0_36-1.Region_1
   Computation algorithm: EXTRAPOLATE_COMPUTE_AVERAGE
   Averaged at nodes
   Averaging regions: ODB_REGIONS

      Node Label     COORD.COOR1     COORD.COOR2
                          @Loc 1          @Loc 1
-------------------------------------------------
               1     22.6170E-03     117.948E-03


Field Output reported at nodes for region: DIE_2A_32_D0_36-1.Region_2
   Computation algorithm: EXTRAPOLATE_COMPUTE_AVERAGE
   Averaged at nodes
   Averaging regions: ODB_REGIONS

      Node Label     COORD.COOR1     COORD.COOR2
                          @Loc 1          @Loc 1
-------------------------------------------------
               1     22.6170E-03     117.948E-03


Field Output reported at nodes for part: WIRE-1
   Computation algorithm: EXTRAPOLATE_COMPUTE_AVERAGE
   Averaged at nodes
   Averaging regions: ODB_REGIONS

      Node Label     COORD.COOR1     COORD.COOR2           S.S11           S.S22           S.S33           S.S12         PE.PE11         PE.PE22         PE.PE33         PE.PE12         LE.LE11         LE.LE22         LE.LE33         LE.LE12
                          @Loc 1          @Loc 1          @Loc 1          @Loc 1          @Loc 1          @Loc 1          @Loc 1          @Loc 1          @Loc 1          @Loc 1          @Loc 1          @Loc 1          @Loc 1          @Loc 1
-------------------------------------------------------------------------------------------------------------------------------------------------------------------------------------------------------------------------------------------------
               1     4.90796E-09     56.3734E-03    -14.1533E+06    -64.6116E+06    -14.1008E+06     106.438E+03    -15.5040E-03     31.0968E-03    -15.5929E-03     2.00510E-03    -15.4605E-03     30.8149E-03    -15.5492E-03     2.00621E-03
               2     17.7232E-03     57.4211E-03    -2.53625E+06     181.009E+06     87.1578E+06     126.211E+03    -24.9042E-03     40.5800E-03    -15.6758E-03     252.052E-03    -32.4295E-03     48.4861E-03    -15.4988E-03     259.041E-03
               3     17.5013E-03     114.142E-03     17.9345E+06    -12.3353E+06     20.1088E+06     2.80583E+06     11.7952E-03     11.6538E-03    -23.4490E-03     2.23648E-03     11.8542E-03     11.5175E-03    -23.3566E-03     2.27265E-03
               4    -667.705E-09     113.010E-03     20.0690E+06     854.126E+03     17.3350E+06    -1.18707E+06    -18.6143E-03     37.6132E-03    -18.9989E-03    -592.081E-06    -18.5405E-03     37.5631E-03    -18.9426E-03    -607.373E-06
               5     10.6302E-09     617.562E-18    -8.26355E+06    -54.4990E+06    -8.51977E+06    -215.357E+03    -12.9523E-03     25.8528E-03    -12.9005E-03     95.2377E-06    -12.9017E-03     25.6049E-03    -12.8521E-03     92.5892E-06
               6     17.6341E-03     617.562E-18    -9.05080E+06     92.4682E+06     61.6691E+06     12.5221E+06    -57.6367E-03     75.8200E-03    -18.1833E-03     67.6923E-03    -58.0748E-03     76.3760E-03    -17.9959E-03     67.4766E-03
               7     886.145E-06     56.3753E-03    -13.9446E+06    -63.4731E+06    -13.4791E+06        -192.420    -15.5200E-03     31.0891E-03    -15.5691E-03     3.47554E-03    -15.4781E-03     30.8116E-03    -15.5243E-03     3.47505E-03
               8     1.77233E-03     56.3799E-03    -13.2242E+06    -61.9866E+06    -11.4540E+06    -34.0378E+03    -15.5443E-03     31.0940E-03    -15.5497E-03     6.52089E-03    -15.5040E-03     30.8200E-03    -15.4980E-03     6.51950E-03
               9     2.65848E-03     56.3874E-03    -12.1649E+06    -59.9525E+06    -8.54377E+06     62.5407E+03    -15.5585E-03     31.1167E-03    -15.5582E-03     9.74531E-03    -15.5202E-03     30.8471E-03    -15.4963E-03     9.74468E-03
              10     3.54465E-03     56.3980E-03    -11.0884E+06    -57.4960E+06    -5.63394E+06    -27.9135E+03    -15.5751E-03     31.1422E-03    -15.5672E-03     13.0993E-03    -15.5393E-03     30.8793E-03    -15.4959E-03     13.0970E-03
              11     4.43080E-03     56.4118E-03    -9.90030E+06    -59.7645E+06    -2.88575E+06    -279.140E+03    -15.6123E-03     31.1950E-03    -15.5827E-03     16.5749E-03    -15.5715E-03     30.9152E-03    -15.4961E-03     16.5687E-03
              12     5.31696E-03     56.4289E-03    -8.43828E+06    -59.0972E+06    -1.29943E+06    -250.748E+03    -15.6528E-03     31.2411E-03    -15.5883E-03     20.2346E-03    -15.6083E-03     30.9606E-03    -15.4969E-03     20.2281E-03
              13     6.20311E-03     56.4495E-03    -7.20729E+06    -56.3625E+06    -23.8116E+03     206.787E+03    -15.6991E-03     31.2889E-03    -15.5898E-03     24.0752E-03    -15.6546E-03     31.0188E-03    -15.4978E-03     24.0737E-03
              14     7.08928E-03     56.4737E-03    -6.54875E+06    -60.7105E+06     2.06664E+06     477.684E+03    -15.7788E-03     31.3864E-03    -15.6076E-03     28.0354E-03    -15.7284E-03     31.0913E-03    -15.4998E-03     28.0361E-03
              15     7.97538E-03     56.5017E-03    -5.91649E+06    -61.5491E+06     2.97808E+06     230.298E+03    -15.8597E-03     31.4758E-03    -15.6160E-03     32.1751E-03    -15.8073E-03     31.1752E-03    -15.5033E-03     32.1711E-03
              16     8.86153E-03     56.5336E-03    -5.13097E+06    -55.9855E+06     2.39598E+06    -64.4831E+03    -15.9326E-03     31.5402E-03    -15.6076E-03     36.4690E-03    -15.8850E-03     31.2687E-03    -15.5070E-03     36.4590E-03
              17     9.74758E-03     56.5696E-03    -4.62141E+06    -56.3653E+06     1.23508E+06    -103.312E+03    -16.0212E-03     31.6259E-03    -15.6047E-03     40.7830E-03    -15.9713E-03     31.3559E-03    -15.5101E-03     40.7695E-03
              18     10.6338E-03     56.6095E-03    -4.34128E+06    -54.9386E+06    -2.92019E+06    -479.049E+03    -16.1280E-03     31.7125E-03    -15.5845E-03     45.0888E-03    -16.0767E-03     31.4592E-03    -15.5131E-03     45.0662E-03
              19     11.5198E-03     56.6535E-03    -4.21173E+06    -42.6741E+06    -1.18687E+06    -454.323E+03    -16.2147E-03     31.7930E-03    -15.5783E-03     49.5432E-03    -16.1894E-03     31.6046E-03    -15.5162E-03     49.5156E-03
              20     12.4060E-03     56.7016E-03    -3.48059E+06    -36.6133E+06     636.606E+03     616.288E+03    -16.3476E-03     31.9264E-03    -15.5788E-03     56.5566E-03    -16.3422E-03     31.7769E-03    -15.5175E-03     56.5358E-03
              21     13.2921E-03     56.7586E-03    -2.29679E+06    -35.6104E+06    -7.54635E+06     832.823E+03    -16.4284E-03     31.9629E-03    -15.5345E-03     59.3188E-03    -16.4234E-03     31.8452E-03    -15.5172E-03     59.2931E-03
              22     14.1781E-03     56.8121E-03    -2.61382E+06    -19.3784E+06    -10.0470E+06     19.0797E+03    -16.5371E-03     32.0362E-03    -15.4991E-03     63.7785E-03    -16.5863E-03     32.0364E-03    -15.5175E-03     63.7372E-03
              23     15.0646E-03     56.8767E-03    -3.64341E+06     19.5790E+06    -10.5631E+06     79.2288E+03    -17.7918E-03     33.2338E-03    -15.4421E-03     96.0669E-03    -18.0840E-03     33.6133E-03    -15.5180E-03     96.0454E-03
              24     15.9502E-03     56.9913E-03    -4.04269E+06     83.0599E+06    -12.6875E+06     557.745E+03    -20.8685E-03     36.2078E-03    -15.3393E-03     160.372E-03    -22.5982E-03     38.2549E-03    -15.5174E-03     160.906E-03
              25     16.8374E-03     57.1779E-03    -3.34674E+06     151.225E+06     37.6012E+06     356.180E+03    -23.8632E-03     39.3444E-03    -15.4812E-03     225.426E-03    -29.1136E-03     45.0107E-03    -15.5076E-03     229.452E-03
              26     17.7236E-03     58.3995E-03    -2.14754E+06     182.033E+06     87.2571E+06     476.473E+03    -24.9130E-03     40.5856E-03    -15.6726E-03     251.872E-03    -32.4199E-03     48.4781E-03    -15.4971E-03     258.856E-03
              27     17.7235E-03     59.3772E-03    -2.50147E+06     182.367E+06     87.5186E+06     71.8411E+03    -24.7536E-03     40.4306E-03    -15.6770E-03     251.373E-03    -32.2336E-03     48.2954E-03    -15.5002E-03     258.348E-03
              28     17.7233E-03     60.3546E-03    -2.31617E+06     182.326E+06     88.6536E+06    -196.135E+03    -25.0665E-03     40.7433E-03    -15.6768E-03     250.815E-03    -32.5402E-03     48.5990E-03    -15.4945E-03     257.764E-03
              29     17.7234E-03     61.3335E-03    -2.02395E+06     182.442E+06     88.7106E+06     203.462E+03    -25.2887E-03     40.9581E-03    -15.6695E-03     250.918E-03    -32.7681E-03     48.8208E-03    -15.4875E-03     257.865E-03
              30     17.7235E-03     62.3132E-03    -2.34167E+06     182.899E+06     88.5523E+06     372.632E+03    -24.9982E-03     40.6772E-03    -15.6790E-03     251.552E-03    -32.5075E-03     48.5706E-03    -15.4981E-03     258.530E-03
              31     17.7232E-03     63.2901E-03    -2.02860E+06     184.166E+06     87.6359E+06     496.229E+03    -24.7582E-03     40.4347E-03    -15.6765E-03     251.954E-03    -32.2795E-03     48.3484E-03    -15.5024E-03     258.964E-03
              32     17.7239E-03     64.2686E-03    -3.04499E+06     184.448E+06     90.3484E+06     79.7265E+03    -25.1215E-03     40.8201E-03    -15.6987E-03     251.385E-03    -32.6383E-03     48.7189E-03    -15.5099E-03     258.359E-03
              33     17.7214E-03     65.2478E-03    -2.31034E+06     184.654E+06     87.0263E+06     743.448E+03    -24.4612E-03     40.1641E-03    -15.7029E-03     249.805E-03    -31.9540E-03     48.0518E-03    -15.5322E-03     256.817E-03
              34     17.7250E-03     66.2198E-03    -2.64073E+06     185.194E+06     81.7729E+06    -374.098E+03    -25.1860E-03     40.8114E-03    -15.6254E-03     253.148E-03    -32.8081E-03     48.8446E-03    -15.4812E-03     260.200E-03
              35     17.7232E-03     67.2121E-03    -1.44961E+06     186.805E+06     87.4316E+06    -151.108E+03    -25.8828E-03     41.5241E-03    -15.6413E-03     259.424E-03    -33.6818E-03     49.7280E-03    -15.4729E-03     266.406E-03
              36     17.7237E-03     68.1883E-03    -874.854E+03     187.413E+06     87.5769E+06     572.536E+03    -23.6984E-03     39.4134E-03    -15.7149E-03     261.064E-03    -31.5108E-03     47.6346E-03    -15.5475E-03     268.182E-03
              37     17.7235E-03     69.1512E-03    -3.21116E+06     186.264E+06     87.4496E+06    -197.229E+03    -24.6870E-03     40.3633E-03    -15.6764E-03     253.107E-03    -32.2151E-03     48.2881E-03    -15.5046E-03     260.084E-03
              38     17.7232E-03     70.1371E-03    -1.94000E+06     186.996E+06     85.9915E+06     766.898E+03    -25.4913E-03     41.1203E-03    -15.6290E-03     248.303E-03    -32.8323E-03     48.8689E-03    -15.4674E-03     255.123E-03
              39     17.7243E-03     71.1142E-03    -3.00467E+06     187.799E+06     89.9801E+06     569.721E+03    -24.7659E-03     40.4672E-03    -15.7013E-03     251.461E-03    -32.2880E-03     48.3843E-03    -15.5193E-03     258.457E-03
              40     17.7206E-03     72.0928E-03    -2.55456E+06     187.467E+06     86.3614E+06     2.15767E+06    -24.3156E-03     40.0284E-03    -15.7128E-03     249.893E-03    -31.8008E-03     47.9196E-03    -15.5491E-03     256.903E-03
              41     17.7254E-03     73.0656E-03    -3.18244E+06     186.318E+06     80.2302E+06    -844.398E+03    -24.9560E-03     40.5831E-03    -15.6272E-03     251.968E-03    -32.5156E-03     48.5605E-03    -15.4916E-03     258.961E-03
              42     17.7227E-03     74.0539E-03    -2.97503E+06     188.302E+06     87.4518E+06    -1.31604E+06    -26.0187E-03     41.6479E-03    -15.6291E-03     254.728E-03    -33.6782E-03     49.7121E-03    -15.4606E-03     261.664E-03
              43     17.7240E-03     75.0315E-03    -832.182E+03     191.237E+06     88.8188E+06     1.44023E+06    -23.7998E-03     39.5035E-03    -15.7036E-03     255.344E-03    -31.4297E-03     47.5522E-03    -15.5356E-03     262.451E-03
              44     17.7230E-03     75.9989E-03    -2.22726E+06     191.060E+06     92.1923E+06    -517.710E+03    -24.3315E-03     40.0486E-03    -15.7171E-03     251.846E-03    -31.8637E-03     47.9841E-03    -15.5300E-03     258.885E-03
              45     17.7225E-03     76.9830E-03    -1.10016E+06     190.893E+06     87.2615E+06    -509.752E+03    -25.4166E-03     41.0622E-03    -15.6457E-03     247.360E-03    -32.8360E-03     48.9024E-03    -15.4846E-03     254.242E-03
              46     17.7248E-03     77.9570E-03    -2.25275E+06     190.312E+06     79.5301E+06     557.216E+03    -26.0485E-03     41.6262E-03    -15.5777E-03     257.451E-03    -33.8038E-03     49.8186E-03    -15.4527E-03     264.442E-03
              47     17.7237E-03     78.9579E-03    -2.74507E+06     191.311E+06     84.2697E+06     628.656E+03    -26.3118E-03     41.9324E-03    -15.6206E-03     267.224E-03    -34.3655E-03     50.4116E-03    -15.4727E-03     274.218E-03
              48     17.7237E-03     79.9190E-03    -2.16887E+06     192.916E+06     88.4656E+06     124.898E+03    -23.7496E-03     39.4552E-03    -15.7056E-03     259.306E-03    -31.4989E-03     47.6256E-03    -15.5398E-03     266.386E-03
              49     17.7232E-03     80.8843E-03    -2.01487E+06     193.854E+06     89.1167E+06     697.424E+03    -24.8180E-03     40.4761E-03    -15.6581E-03     248.839E-03    -32.1869E-03     48.2679E-03    -15.4907E-03     255.762E-03
              50     17.7238E-03     81.8783E-03    -1.92339E+06     195.220E+06     88.4261E+06     770.364E+03    -25.8335E-03     41.4610E-03    -15.6275E-03     250.214E-03    -33.2839E-03     49.3413E-03    -15.4656E-03     257.058E-03
              51     17.7233E-03     82.8502E-03    -2.67848E+06     196.115E+06     86.9889E+06     256.390E+03    -24.5086E-03     40.1688E-03    -15.6603E-03     252.952E-03    -32.0821E-03     48.1768E-03    -15.5058E-03     259.977E-03
              52     17.7237E-03     83.8279E-03    -2.25205E+06     196.639E+06     87.0058E+06     182.198E+03    -24.9274E-03     40.5693E-03    -15.6419E-03     251.399E-03    -32.4323E-03     48.5120E-03    -15.4888E-03     258.368E-03
              53     17.7235E-03     84.8084E-03    -2.10683E+06     196.812E+06     87.5459E+06     120.423E+03    -25.2007E-03     40.8354E-03    -15.6347E-03     251.376E-03    -32.6955E-03     48.7675E-03    -15.4793E-03     258.294E-03
              54     17.7237E-03     85.7853E-03    -2.11111E+06     197.564E+06     87.0067E+06     324.825E+03    -24.8890E-03     40.5253E-03    -15.6363E-03     251.258E-03    -32.3937E-03     48.4715E-03    -15.4847E-03     258.224E-03
              55     17.7237E-03     86.7630E-03    -2.29524E+06     198.309E+06     85.8800E+06     442.019E+03    -24.9603E-03     40.5810E-03    -15.6207E-03     250.976E-03    -32.4634E-03     48.5309E-03    -15.4755E-03     257.945E-03
              56     17.7239E-03     87.7434E-03    -2.39754E+06     198.592E+06     85.1184E+06     114.914E+03    -24.8916E-03     40.5062E-03    -15.6146E-03     252.510E-03    -32.4508E-03     48.5150E-03    -15.4735E-03     259.498E-03
              57     17.7240E-03     88.7208E-03    -2.40256E+06     198.740E+06     84.6365E+06    -62.3740E+03    -24.8299E-03     40.4376E-03    -15.6077E-03     253.107E-03    -32.4046E-03     48.4639E-03    -15.4692E-03     260.107E-03
              58     17.7242E-03     89.6982E-03    -2.04300E+06     198.697E+06     84.7072E+06    -186.803E+03    -24.7860E-03     40.3811E-03    -15.5952E-03     251.244E-03    -32.2838E-03     48.3314E-03    -15.4568E-03     258.214E-03
              59     17.7244E-03     90.6748E-03    -1.95823E+06     197.848E+06     82.7338E+06    -214.401E+03    -24.7136E-03     40.2824E-03    -15.5688E-03     250.031E-03    -32.1573E-03     48.1815E-03    -15.4392E-03     256.981E-03
              60     17.7249E-03     91.6541E-03    -2.13433E+06     196.891E+06     81.9519E+06    -170.222E+03    -24.8910E-03     40.4368E-03    -15.5458E-03     250.449E-03    -32.3516E-03     48.3511E-03    -15.4185E-03     257.391E-03
              61     17.7248E-03     92.6329E-03    -2.09842E+06     196.398E+06     81.9724E+06    -324.554E+03    -24.8950E-03     40.4246E-03    -15.5295E-03     250.681E-03    -32.3667E-03     48.3483E-03    -15.4014E-03     257.627E-03
              62     17.7257E-03     93.6096E-03    -2.03697E+06     195.762E+06     80.3091E+06    -189.641E+03    -24.9524E-03     40.4446E-03    -15.4922E-03     250.294E-03    -32.3997E-03     48.3467E-03    -15.3715E-03     257.226E-03
              63     17.7259E-03     94.5890E-03    -2.07142E+06     195.015E+06     79.3793E+06    -73.7891E+03    -25.3137E-03     40.7631E-03    -15.4494E-03     250.098E-03    -32.7481E-03     48.6522E-03    -15.3323E-03     256.983E-03
              64     17.7266E-03     95.5677E-03    -2.26831E+06     194.115E+06     80.7059E+06    -464.338E+03    -25.6431E-03     41.0670E-03    -15.4239E-03     249.902E-03    -33.0819E-03     48.9528E-03    -15.2985E-03     256.766E-03
              65     17.7267E-03     96.5461E-03    -2.20380E+06     192.951E+06     81.5260E+06    -446.518E+03    -26.0065E-03     41.4013E-03    -15.3948E-03     249.183E-03    -33.4274E-03     49.2629E-03    -15.2638E-03     256.013E-03
              66     17.7274E-03     97.5261E-03    -2.49889E+06     191.408E+06     83.5744E+06    -656.535E+03    -26.6361E-03     42.0108E-03    -15.3747E-03     249.079E-03    -34.0627E-03     49.8657E-03    -15.2308E-03     255.838E-03
              67     17.7270E-03     98.5068E-03    -2.09690E+06     188.727E+06     79.0973E+06    -1.70525E+06    -26.9312E-03     42.2476E-03    -15.3164E-03     248.202E-03    -34.3434E-03     50.0929E-03    -15.1915E-03     254.905E-03
              68     17.7292E-03     99.4839E-03    -1.61525E+06     185.624E+06     73.3213E+06    -759.627E+03    -28.4612E-03     43.6816E-03    -15.2204E-03     252.615E-03    -36.0127E-03     51.6740E-03    -15.1206E-03     259.235E-03
              69     17.7284E-03     100.480E-03    -2.48581E+06     183.413E+06     80.5441E+06    -861.166E+03    -29.9037E-03     45.1298E-03    -15.2261E-03     258.207E-03    -37.6059E-03     53.2409E-03    -15.0857E-03     264.677E-03
              70     17.7288E-03     101.452E-03    -2.54649E+06     180.772E+06     87.5751E+06    -2.17221E+06    -29.1453E-03     44.4121E-03    -15.2667E-03     251.329E-03    -36.5591E-03     52.2043E-03    -15.0873E-03     257.692E-03
              71     17.7288E-03     102.425E-03    -1.99344E+06     177.185E+06     89.4751E+06    -1.50989E+06    -30.5486E-03     45.7511E-03    -15.2025E-03     242.762E-03    -37.6115E-03     53.1767E-03    -15.0091E-03     248.853E-03
              72     17.7299E-03     103.420E-03    -2.07615E+06     173.029E+06     90.8383E+06    -1.61159E+06    -33.0946E-03     48.2152E-03    -15.1206E-03     245.077E-03    -40.1761E-03     55.6405E-03    -14.9143E-03     250.827E-03
              73     17.7303E-03     104.406E-03    -2.37967E+06     168.639E+06     93.0841E+06    -1.99930E+06    -34.3284E-03     49.4060E-03    -15.0776E-03     249.255E-03    -41.4727E-03     56.8706E-03    -14.8533E-03     254.791E-03
              74     17.7312E-03     105.393E-03    -2.29805E+06     163.652E+06     93.6549E+06    -2.51500E+06    -36.2986E-03     51.2916E-03    -14.9930E-03     249.281E-03    -43.3187E-03     58.6130E-03    -14.7587E-03     254.441E-03
              75     17.7322E-03     106.383E-03    -2.27589E+06     157.775E+06     90.2195E+06    -2.49424E+06    -39.1049E-03     53.9667E-03    -14.8617E-03     249.768E-03    -45.9646E-03     61.1169E-03    -14.6361E-03     254.411E-03
              76     17.7333E-03     107.378E-03    -4.36587E+06     149.962E+06     84.3636E+06    -4.32879E+06    -41.2366E-03     55.9785E-03    -14.7418E-03     250.539E-03    -47.8996E-03     62.9137E-03    -14.5311E-03     254.613E-03
              77     17.7342E-03     108.370E-03    -5.16531E+06     133.610E+06     71.4465E+06    -9.77935E+06    -43.5491E-03     58.1504E-03    -14.6014E-03     252.510E-03    -49.9141E-03     64.7644E-03    -14.4304E-03     255.850E-03
              78     17.7351E-03     109.369E-03    -1.53674E+06     114.802E+06     56.4476E+06    -8.12812E+06    -45.6660E-03     60.1295E-03    -14.4635E-03     256.133E-03    -51.5443E-03     66.2469E-03    -14.3455E-03     258.691E-03
              79     17.7361E-03     110.368E-03    -13.3225E+06     82.9166E+06     21.7990E+06    -18.4572E+06    -39.1289E-03     53.5809E-03    -14.4520E-03     254.089E-03    -43.8670E-03     58.5034E-03    -14.4440E-03     255.885E-03
              80     17.7389E-03     111.337E-03     3.68756E+06     36.0456E+06     2.60772E+06    -25.5276E+06    -19.2275E-03     34.0197E-03    -14.7922E-03     233.879E-03    -21.8021E-03     36.7309E-03    -14.8368E-03     234.932E-03
              81     17.7389E-03     112.270E-03     6.16192E+06     5.43058E+06     5.42439E+06    -7.57229E+06     5.76962E-03     10.3138E-03    -16.0834E-03     171.406E-03     5.05152E-03     11.0647E-03    -16.0731E-03     171.818E-03
              82     17.6861E-03     113.182E-03     -2.2517E+06    -7.57876E+06     8.94655E+06     2.60558E+06     14.8357E-03     5.42227E-03    -20.2580E-03     63.7392E-03     14.7715E-03     5.41076E-03    -20.1990E-03     63.8086E-03
              83     16.6270E-03     113.972E-03     1.02974E+06     14.2379E+06     39.1155E+06     3.14727E+06     7.80916E-03     16.2154E-03    -24.0245E-03     13.3346E-03     7.72941E-03     16.2210E-03    -23.8511E-03     13.3751E-03
              84     15.7273E-03     113.833E-03    -12.6421E+06     5.12841E+06     53.3984E+06    -2.10856E+06    -10.9456E-03     35.6275E-03    -24.6819E-03     23.0384E-03    -11.0996E-03     35.5917E-03    -24.4040E-03     23.0018E-03
              85     14.8741E-03     113.678E-03    -894.192E+03    -8.78941E+06     39.2522E+06    -8.55785E+06    -25.5119E-03     49.8782E-03    -24.3662E-03     14.0192E-03    -25.5741E-03     49.7697E-03    -24.1559E-03     13.8925E-03
              86     14.0165E-03     113.560E-03     9.92894E+06    -4.57507E+06     41.2850E+06    -5.01203E+06    -25.0662E-03     48.8877E-03    -23.8214E-03     3.86441E-03    -25.0778E-03     48.7843E-03    -23.6228E-03     3.78689E-03
              87     13.1498E-03     113.471E-03     12.0633E+06    -1.73595E+06     52.7622E+06    -1.12645E+06    -25.8866E-03     49.3080E-03    -23.4214E-03     328.071E-06    -25.9046E-03     49.2020E-03    -23.1726E-03     302.156E-06
              88     12.2821E-03     113.394E-03     13.0361E+06     725.422E+03     48.1568E+06    -1.82309E+06    -27.5676E-03     50.4577E-03    -22.8901E-03    -1.03746E-03    -27.5765E-03     50.3699E-03    -22.6693E-03    -1.07179E-03
              89     11.4146E-03     113.329E-03     14.3015E+06    -2.38407E+06     46.4160E+06    -1.19998E+06    -27.9196E-03     50.2171E-03    -22.2974E-03    -1.27252E-03    -27.9145E-03     50.1149E-03    -22.0826E-03    -1.29775E-03
              90     10.5449E-03     113.272E-03     14.4586E+06     1.23131E+06     46.8493E+06    -965.126E+03    -27.0681E-03     48.7571E-03    -21.6889E-03    -1.09282E-03    -27.0675E-03     48.6727E-03    -21.4774E-03    -1.11348E-03
              91     9.67338E-03     113.224E-03     14.4289E+06    -1.02602E+06     45.7350E+06    -1.21652E+06    -25.7006E-03     46.8194E-03    -21.1187E-03    -914.465E-06    -25.6949E-03     46.7256E-03    -20.9095E-03    -936.864E-06
              92     8.79969E-03     113.181E-03     14.3979E+06     742.896E+03     43.6991E+06    -1.31829E+06    -24.2045E-03     44.8099E-03    -20.6054E-03    -637.072E-06    -24.1982E-03     44.7283E-03    -20.4089E-03    -659.342E-06
              93     7.92396E-03     113.146E-03     14.5374E+06    -656.807E+03     40.1550E+06    -1.48279E+06    -22.8866E-03     43.0511E-03    -20.1645E-03    -363.100E-06    -22.8722E-03     42.9676E-03    -19.9838E-03    -386.328E-06
              94     7.04658E-03     113.115E-03     14.8949E+06     434.894E+03     37.0382E+06    -1.54096E+06    -21.7571E-03     41.5509E-03    -19.7938E-03    -166.422E-06    -21.7378E-03     41.4770E-03    -19.6308E-03    -189.515E-06
              95     6.16796E-03     113.090E-03     15.2953E+06    -596.410E+03     33.2176E+06    -1.50545E+06    -20.8341E-03     40.3241E-03    -19.4899E-03    -41.5695E-06    -20.8057E-03     40.2501E-03    -19.3452E-03    -63.5306E-06
              96     5.28820E-03     113.068E-03     15.6856E+06     305.390E+03     30.1566E+06    -1.40958E+06    -20.1218E-03     39.3690E-03    -19.2473E-03     14.3495E-06    -20.0881E-03     39.3035E-03    -19.1197E-03    -5.84292E-06
              97     4.40781E-03     113.050E-03     16.2549E+06    -363.233E+03     26.8203E+06    -1.52505E+06    -19.5760E-03     38.6347E-03    -19.0587E-03     32.0497E-06    -19.5337E-03     38.5699E-03    -18.9476E-03     10.8076E-06
              98     3.52669E-03     113.035E-03     17.1439E+06    -185.334E+03     23.5548E+06    -1.34736E+06    -19.1877E-03     38.1048E-03    -18.9170E-03     9.08783E-06    -19.1364E-03     38.0443E-03    -18.8238E-03    -9.48616E-06
              99     2.64528E-03     113.024E-03     17.8815E+06    -510.012E+03     21.2500E+06    -996.507E+03    -18.9407E-03     37.7628E-03    -18.8220E-03    -40.4521E-06    -18.8819E-03     37.7030E-03    -18.7410E-03    -54.1672E-06
             100     1.76346E-03     113.016E-03      18.119E+06    -233.215E+03     20.1504E+06    -630.314E+03    -18.7577E-03     37.5368E-03    -18.7791E-03    -56.1886E-06    -18.6965E-03     37.4796E-03    -18.7043E-03    -64.8849E-06
             101     881.665E-06     113.011E-03     19.1261E+06    -341.896E+03     18.2868E+06    -882.609E+03    -18.6387E-03     37.5242E-03    -18.8854E-03    -323.375E-06    -18.5695E-03     37.4679E-03    -18.8212E-03    -334.964E-06
             102     315.625E-09     112.025E-03     15.4135E+06    -1.08347E+06     16.0943E+06    -400.693E+03    -17.1483E-03     34.4252E-03    -17.2769E-03     209.908E-06    -17.0931E-03     34.3740E-03    -17.2172E-03     204.658E-06
             103    -178.328E-09     111.046E-03     10.9923E+06    -3.50943E+06     11.8765E+06    -485.625E+03    -14.5959E-03     29.0896E-03    -14.4937E-03     1.07111E-03    -14.5530E-03     29.0389E-03    -14.4452E-03     1.06461E-03
             104     233.368E-09     110.073E-03     6.23659E+06    -6.95978E+06     5.95580E+06    -1.38080E+06    -12.7804E-03     25.4878E-03    -12.7074E-03     1.25806E-03    -12.7477E-03     25.4355E-03    -12.6766E-03     1.23997E-03
             105    -161.853E-09     109.101E-03    -3.10584E+06    -11.4022E+06    -2.63659E+06    -1.37348E+06    -11.5611E-03     23.1025E-03    -11.5414E-03     1.51900E-03    -11.5562E-03     23.0540E-03    -11.5335E-03     1.50106E-03
             106     129.889E-09     108.132E-03    -15.0391E+06    -16.8480E+06    -14.8908E+06    -1.97764E+06    -10.8165E-03     21.6418E-03    -10.8253E-03     1.76343E-03    -10.8456E-03     21.6011E-03    -10.8535E-03     1.73774E-03
             107    -113.305E-09     107.163E-03    -30.7999E+06    -24.5536E+06    -30.5161E+06    -2.48958E+06    -10.4776E-03     20.9297E-03    -10.4521E-03     1.96548E-03    -10.5517E-03     20.8960E-03    -10.5244E-03     1.93323E-03
             108     143.628E-09     106.195E-03    -48.6220E+06    -33.1224E+06    -48.5129E+06    -2.89252E+06    -10.4442E-03     20.8633E-03    -10.4191E-03     2.10925E-03    -10.5689E-03     20.8387E-03    -10.5431E-03     2.07183E-03
             109    -130.024E-09     105.227E-03    -65.5667E+06    -42.4271E+06    -65.6729E+06    -2.78545E+06    -10.6309E-03     21.2749E-03    -10.6440E-03     2.20002E-03    -10.8019E-03     21.2532E-03    -10.8158E-03     2.16401E-03
             110     89.6252E-09     104.258E-03    -68.3993E+06    -49.8684E+06    -68.8263E+06    -1.76066E+06    -11.0235E-03     22.0596E-03    -11.0361E-03     2.24634E-03    -11.1934E-03     22.0094E-03    -11.2087E-03     2.22358E-03
             111    -78.7502E-09     103.288E-03    -55.2569E+06    -52.1620E+06    -56.1117E+06     345.914E+03    -11.5583E-03     23.1034E-03    -11.5451E-03     2.24884E-03    -11.6775E-03     23.0042E-03    -11.6699E-03     2.25326E-03
             112     79.2675E-09     102.317E-03    -42.1449E+06    -47.9616E+06    -42.3919E+06     2.20655E+06    -12.1219E-03     24.2246E-03    -12.1026E-03     2.23288E-03    -12.2016E-03     24.1075E-03    -12.1840E-03     2.26130E-03
             113    -50.6865E-09     101.345E-03    -33.2179E+06    -39.8280E+06    -33.3425E+06     2.76772E+06    -12.6731E-03     25.3214E-03    -12.6483E-03     2.22366E-03    -12.7331E-03     25.2189E-03    -12.7091E-03     2.25930E-03
             114     62.5326E-09     100.372E-03    -28.5103E+06    -30.4836E+06    -28.4364E+06     2.85296E+06    -13.1741E-03     26.3363E-03    -13.1621E-03     2.21345E-03    -13.2312E-03     26.2666E-03    -13.2188E-03     2.25016E-03
             115    -54.5805E-09     99.3983E-03    -25.1829E+06    -21.9411E+06    -24.9335E+06     2.26636E+06    -13.6180E-03     27.2422E-03    -13.6242E-03     2.20604E-03    -13.6759E-03     27.2053E-03    -13.6805E-03     2.23517E-03
             116     36.1704E-09     98.4234E-03    -22.1324E+06    -15.6634E+06    -22.0149E+06     1.65071E+06    -14.0164E-03     28.0189E-03    -14.0024E-03     2.19826E-03    -14.0724E-03     28.0047E-03    -14.0577E-03     2.21941E-03
             117     6.04494E-09     97.4479E-03    -17.6106E+06    -11.6843E+06    -17.2772E+06     872.597E+03    -14.3567E-03     28.6997E-03    -14.3430E-03     2.18116E-03    -14.4027E-03     28.6920E-03    -14.3869E-03     2.19224E-03
             118    -22.3842E-09     96.4717E-03    -13.3166E+06    -10.1162E+06    -13.1348E+06    -2.04452E+03    -14.6378E-03     29.2980E-03    -14.6602E-03     2.14951E-03    -14.6706E-03     29.2859E-03    -14.6919E-03     2.14928E-03
             119    -1.07548E-09     95.4949E-03    -11.3956E+06    -11.1802E+06    -11.2568E+06    -629.624E+03    -14.8846E-03     29.7906E-03    -14.9060E-03     2.13397E-03    -14.9090E-03     29.7677E-03    -14.9296E-03     2.12563E-03
             120    -14.0893E-09     94.5178E-03    -9.73767E+06    -14.3528E+06    -9.52586E+06    -1.27876E+06    -15.0834E-03     30.1774E-03    -15.0940E-03     2.13421E-03    -15.0974E-03     30.1337E-03    -15.1067E-03     2.11747E-03
             121     10.6117E-09     93.5404E-03    -9.48005E+06    -18.6693E+06    -9.74760E+06    -1.31349E+06    -15.2431E-03     30.4729E-03    -15.2298E-03     2.13251E-03    -15.2493E-03     30.4076E-03    -15.2377E-03     2.11530E-03
             122     11.2560E-09     92.5626E-03    -8.98862E+06    -21.7812E+06    -9.09616E+06    -647.354E+03    -15.3737E-03     30.7118E-03    -15.3381E-03     2.14230E-03    -15.3738E-03     30.6292E-03    -15.3389E-03     2.13367E-03
             123     26.6399E-09     91.5848E-03    -8.77991E+06    -24.3082E+06    -8.59573E+06    -859.928E+03    -15.4345E-03     30.8855E-03    -15.4510E-03     2.13826E-03    -15.4307E-03     30.7893E-03    -15.4460E-03     2.12687E-03
             124    -93.7298E-09     90.6068E-03    -9.51430E+06    -27.4504E+06    -9.63840E+06    -1.01330E+06    -15.4674E-03     31.0040E-03    -15.5366E-03     2.10048E-03    -15.4611E-03     30.8947E-03    -15.5312E-03     2.08712E-03
             125     34.6140E-09     89.6288E-03    -11.0561E+06    -30.9101E+06    -10.8970E+06    -1.08467E+06    -15.5331E-03     31.0932E-03    -15.5601E-03     2.07263E-03    -15.5277E-03     30.9706E-03    -15.5537E-03     2.05834E-03
             126    -23.5562E-09     88.6505E-03    -11.8191E+06    -34.3387E+06    -11.9880E+06    -1.04239E+06    -15.5874E-03     31.1485E-03    -15.5612E-03     2.08420E-03    -15.5792E-03     31.0115E-03    -15.5542E-03     2.07045E-03
             127     54.9282E-09     87.6725E-03    -12.9784E+06    -37.3791E+06    -12.8869E+06    -894.010E+03    -15.6185E-03     31.1841E-03    -15.5656E-03     2.10129E-03    -15.6104E-03     31.0349E-03    -15.5570E-03     2.08945E-03
             128     6.41534E-09     86.6942E-03    -13.9362E+06    -40.3832E+06    -14.0584E+06    -900.643E+03    -15.6177E-03     31.1987E-03    -15.5810E-03     2.13931E-03    -15.6083E-03     31.0375E-03    -15.5725E-03     2.12738E-03
             129    -6.40476E-09     85.7161E-03    -14.8986E+06    -43.4498E+06    -14.8405E+06    -861.413E+03    -15.5950E-03     31.1978E-03    -15.6028E-03     2.13802E-03    -15.5849E-03     31.0239E-03    -15.5924E-03     2.12660E-03
             130    -9.03730E-09     84.7379E-03    -15.4664E+06    -46.2788E+06    -15.5946E+06    -823.292E+03    -15.6009E-03     31.2113E-03    -15.6103E-03     2.11600E-03    -15.5885E-03     31.0251E-03    -15.5988E-03     2.10507E-03
             131     4.21862E-09     83.7598E-03    -16.1973E+06    -48.4821E+06    -16.0615E+06    -648.770E+03    -15.6194E-03     31.2370E-03    -15.6176E-03     2.12668E-03    -15.6068E-03     31.0415E-03    -15.6041E-03     2.11799E-03
             132     3.23916E-09     82.7815E-03    -16.5790E+06    -50.4111E+06    -16.6831E+06    -566.097E+03    -15.6365E-03     31.2382E-03    -15.6017E-03     2.15505E-03    -15.6220E-03     31.0345E-03    -15.5880E-03     2.14743E-03
             133     47.5201E-09     81.8034E-03    -17.1059E+06    -52.1914E+06    -17.1052E+06    -446.973E+03    -15.6382E-03     31.2247E-03    -15.5865E-03     2.15015E-03    -15.6232E-03     31.0136E-03    -15.5716E-03     2.14407E-03
             134    -8.86627E-09     80.8253E-03    -17.3819E+06    -53.9279E+06    -17.2791E+06    -646.049E+03    -15.6187E-03     31.2220E-03    -15.6033E-03     2.10989E-03    -15.6023E-03     31.0028E-03    -15.5863E-03     2.10124E-03
             135    -3.46804E-09     79.8472E-03    -17.4213E+06    -55.7278E+06    -17.7290E+06    -491.212E+03    -15.5791E-03     31.2151E-03    -15.6360E-03     2.10713E-03    -15.5596E-03     30.9876E-03    -15.6186E-03     2.10049E-03
             136    -90.7653E-09     78.8690E-03    -17.7611E+06    -57.2069E+06    -17.6108E+06    -289.467E+03    -15.5897E-03     31.2199E-03    -15.6302E-03     2.09647E-03    -15.5699E-03     30.9853E-03    -15.6096E-03     2.09244E-03
             137     112.700E-09     77.8909E-03    -17.5445E+06    -58.6193E+06    -17.4932E+06    -494.810E+03    -15.6313E-03     31.2219E-03    -15.5907E-03     2.09778E-03    -15.6085E-03     30.9798E-03    -15.5677E-03     2.09109E-03
             138    -64.2907E-09     76.9129E-03    -17.7302E+06    -60.0420E+06    -17.7904E+06    -320.153E+03    -15.6051E-03     31.2169E-03    -15.6119E-03     2.11816E-03    -15.5808E-03     30.9684E-03    -15.5881E-03     2.11372E-03
             139     890.109E-12     75.9347E-03    -17.2517E+06    -60.7881E+06    -17.2902E+06    -233.430E+03    -15.6035E-03     31.2308E-03    -15.6273E-03     2.08397E-03    -15.5765E-03     30.9771E-03    -15.6006E-03     2.08066E-03
             140     17.7035E-09     74.9567E-03    -16.5940E+06    -61.0057E+06    -16.5692E+06    -97.2113E+03    -15.6217E-03     31.2475E-03    -15.6258E-03     2.09537E-03    -15.5921E-03     30.9907E-03    -15.5961E-03     2.09382E-03
             141    -45.3286E-09     73.9784E-03    -15.7941E+06    -61.1354E+06    -15.8365E+06    -70.4851E+03    -15.6189E-03     31.2654E-03    -15.6465E-03     2.11634E-03    -15.5862E-03     31.0057E-03    -15.6141E-03     2.11513E-03
             142     21.3478E-09     73.0003E-03    -15.2324E+06    -61.6474E+06    -15.2424E+06    -108.594E+03    -15.6280E-03     31.2574E-03    -15.6294E-03     2.11979E-03    -15.5926E-03     30.9935E-03    -15.5941E-03     2.11808E-03
             143    -2.01501E-09     72.0222E-03    -14.9586E+06    -62.1267E+06    -15.0007E+06    -41.3383E+03    -15.6097E-03     31.2431E-03    -15.6334E-03     2.13429E-03    -15.5726E-03     30.9761E-03    -15.5967E-03     2.13345E-03
             144    -62.0809E-09     71.0442E-03    -14.7572E+06    -61.9802E+06    -14.9121E+06     158.082E+03    -15.6070E-03     31.2587E-03    -15.6517E-03     2.09250E-03    -15.5692E-03     30.9920E-03    -15.6150E-03     2.09424E-03
             145     43.0969E-09     70.0660E-03    -14.7858E+06    -61.9190E+06    -14.4229E+06    -142.898E+03    -15.6650E-03     31.2765E-03    -15.6115E-03     2.08644E-03    -15.6282E-03     31.0095E-03    -15.5724E-03     2.08429E-03
             146     72.6592E-09     69.0878E-03    -14.6541E+06    -62.9912E+06    -14.8471E+06    -506.065E+03    -15.6452E-03     31.2500E-03    -15.6048E-03     2.12890E-03    -15.6055E-03     30.9779E-03    -15.5664E-03     2.12206E-03
             147    -121.241E-09     68.1098E-03    -15.1283E+06    -63.7429E+06    -15.3073E+06     122.540E+03    -15.5721E-03     31.2228E-03    -15.6508E-03     2.10630E-03    -15.5330E-03     30.9484E-03    -15.6130E-03     2.10758E-03
             148     26.1049E-09     67.1317E-03    -14.8837E+06    -63.6764E+06    -14.6706E+06    -43.6499E+03    -15.5963E-03     31.2273E-03    -15.6310E-03     2.05383E-03    -15.5570E-03     30.9519E-03    -15.5905E-03     2.05298E-03
             149     7.84563E-09     66.1536E-03    -14.1843E+06    -63.8581E+06    -14.3874E+06    -38.6369E+03    -15.6276E-03     31.2223E-03    -15.5947E-03     2.06422E-03    -15.5850E-03     30.9446E-03    -15.5535E-03     2.06344E-03
             150     12.0922E-09     65.1755E-03    -14.4276E+06    -64.0632E+06    -14.1629E+06    -48.3127E+03    -15.6163E-03     31.2211E-03    -15.6047E-03     2.09608E-03    -15.5750E-03     30.9424E-03    -15.5617E-03     2.09516E-03
             151    -10.5429E-09     64.1974E-03    -14.1713E+06    -64.3907E+06    -14.4307E+06    -113.957E+03    -15.6040E-03     31.2054E-03    -15.6013E-03     2.09984E-03    -15.5606E-03     30.9250E-03    -15.5596E-03     2.09807E-03
             152     8.76400E-09     63.2194E-03    -14.3686E+06    -64.2126E+06    -14.2821E+06     162.418E+03    -15.5830E-03     31.1943E-03    -15.6112E-03     2.08654E-03    -15.5410E-03     30.9149E-03    -15.5687E-03     2.08834E-03
             153    -58.0526E-09     62.2414E-03    -13.9982E+06    -63.9643E+06    -13.9748E+06    -124.605E+03    -15.5468E-03     31.1957E-03    -15.6488E-03     2.06337E-03    -15.5038E-03     30.9166E-03    -15.6057E-03     2.06148E-03
             154    -75.1952E-09     61.2633E-03    -14.0425E+06    -64.3034E+06    -14.1579E+06    -78.3552E+03    -15.5415E-03     31.1886E-03    -15.6471E-03     2.08741E-03    -15.4979E-03     30.9081E-03    -15.6043E-03     2.08610E-03
             155     17.9191E-09     60.2852E-03    -14.0913E+06    -64.6292E+06    -13.9683E+06    -86.8772E+03    -15.5995E-03     31.1711E-03    -15.5716E-03     2.12242E-03    -15.5560E-03     30.8888E-03    -15.5273E-03     2.12100E-03
             156     88.1570E-09     59.3072E-03    -13.5664E+06    -64.7244E+06    -13.7564E+06     85.1155E+03    -15.6394E-03     31.1337E-03    -15.4943E-03     2.12609E-03    -15.5934E-03     30.8499E-03    -15.4496E-03     2.12689E-03
             157     58.5279E-09     58.3293E-03    -13.6262E+06    -64.6305E+06    -13.3924E+06    -2.01752E+03    -15.5947E-03     31.1179E-03    -15.5232E-03     2.08042E-03    -15.5496E-03     30.8341E-03    -15.4767E-03     2.08010E-03
             158    -77.9682E-09     57.3514E-03    -13.6254E+06    -64.7426E+06    -13.7964E+06    -51.0742E+03    -15.5299E-03     31.1099E-03    -15.5799E-03     1.99450E-03    -15.4841E-03     30.8261E-03    -15.5353E-03     1.99357E-03
             159    -90.7496E-09     55.3954E-03    -13.9345E+06    -64.6206E+06    -13.9776E+06    -114.371E+03    -15.4989E-03     31.0772E-03    -15.5783E-03     2.04411E-03    -15.4546E-03     30.7947E-03    -15.5342E-03     2.04234E-03
             160     33.4905E-09     54.4175E-03    -14.1007E+06    -64.7300E+06    -14.1257E+06     13.8539E+03    -15.5315E-03     31.0504E-03    -15.5189E-03     2.05231E-03    -15.4876E-03     30.7679E-03    -15.4752E-03     2.05220E-03
             161     43.8650E-09     53.4397E-03    -14.2639E+06    -64.7033E+06    -14.1979E+06    -20.9873E+03    -15.5508E-03     31.0360E-03    -15.4852E-03     2.07277E-03    -15.5077E-03     30.7540E-03    -15.4417E-03     2.07221E-03
             162    -6.24975E-09     52.4617E-03    -14.2864E+06    -64.8200E+06    -14.3662E+06    -61.5807E+03    -15.5024E-03     31.0010E-03    -15.4987E-03     2.12464E-03    -15.4589E-03     30.7186E-03    -15.4558E-03     2.12353E-03
             163    -27.8690E-09     51.4839E-03    -14.3327E+06    -64.8888E+06    -14.3278E+06    -17.1154E+03    -15.4636E-03     30.9427E-03    -15.4791E-03     2.13296E-03    -15.4203E-03     30.6600E-03    -15.4359E-03     2.13242E-03
             164     32.3407E-09     50.5061E-03    -14.1865E+06    -64.9874E+06    -14.2277E+06     38.3342E+03    -15.4571E-03     30.9005E-03    -15.4434E-03     2.07869E-03    -15.4131E-03     30.6169E-03    -15.3997E-03     2.07889E-03
             165    -15.0825E-09     49.5285E-03    -14.2067E+06    -64.9421E+06    -14.1665E+06    -9.17472E+03    -15.4404E-03     30.8878E-03    -15.4473E-03     2.01601E-03    -15.3967E-03     30.6044E-03    -15.4034E-03     2.01561E-03
             166    -15.9158E-09     48.5507E-03    -14.1248E+06    -64.9399E+06    -14.1614E+06    -66.3007E+03    -15.4157E-03     30.8533E-03    -15.4377E-03     1.99157E-03    -15.3715E-03     30.5698E-03    -15.3938E-03     1.99044E-03
             167     5.58638E-09     47.5730E-03    -14.0995E+06    -64.9418E+06    -14.1765E+06     26.0270E+03    -15.3948E-03     30.7828E-03    -15.3879E-03     2.00851E-03    -15.3505E-03     30.4992E-03    -15.3442E-03     2.00857E-03
             168     14.1107E-09     46.5954E-03    -14.2932E+06    -64.9493E+06    -14.1948E+06    -9.18387E+03    -15.3807E-03     30.7227E-03    -15.3420E-03     1.99699E-03    -15.3373E-03     30.4395E-03    -15.2981E-03     1.99658E-03
             169     33.9139E-09     45.6179E-03    -14.2016E+06    -64.8719E+06    -14.2993E+06    -11.5065E+03    -15.3468E-03     30.6575E-03    -15.3107E-03     1.99690E-03    -15.3029E-03     30.3746E-03    -15.2675E-03     1.99646E-03
             170    -20.9966E-09     44.6403E-03    -14.3203E+06    -64.8262E+06    -14.2842E+06     82.7589E+03    -15.2903E-03     30.5847E-03    -15.2944E-03     2.02767E-03    -15.2471E-03     30.3022E-03    -15.2510E-03     2.02845E-03
             171    -710.683E-12     43.6629E-03    -14.4143E+06    -64.8459E+06    -14.3012E+06    -38.0557E+03    -15.2218E-03     30.4844E-03    -15.2626E-03     2.01650E-03    -15.1791E-03     30.2020E-03    -15.2192E-03     2.01572E-03
             172    -50.5356E-09     42.6856E-03    -14.3043E+06    -64.8534E+06    -14.4040E+06     19.2390E+03    -15.1661E-03     30.3457E-03    -15.1796E-03     2.00962E-03    -15.1226E-03     30.0632E-03    -15.1368E-03     2.00958E-03
             173     74.8521E-09     41.7085E-03    -14.4389E+06    -64.8579E+06    -14.3826E+06      -7.955E+03    -15.1204E-03     30.2178E-03    -15.0973E-03     2.00176E-03    -15.0777E-03     29.9355E-03    -15.0543E-03     2.00137E-03
             174    -59.5606E-09     40.7315E-03    -14.5353E+06    -65.0231E+06    -14.6031E+06     19.0208E+03    -15.0557E-03     30.0782E-03    -15.0225E-03     1.88741E-03    -15.0129E-03     29.7955E-03    -14.9801E-03     1.88739E-03
             175     100.735E-09     39.7547E-03    -14.6043E+06    -64.7845E+06    -14.5043E+06     56.5897E+03    -14.9788E-03     29.9449E-03    -14.9661E-03     1.86450E-03    -14.9368E-03     29.6633E-03    -14.9235E-03     1.86497E-03
             176    -119.884E-09     38.7779E-03    -14.3672E+06    -64.5696E+06    -14.4558E+06    -22.5860E+03    -14.8623E-03     29.7886E-03    -14.9263E-03     1.85883E-03    -14.8195E-03     29.5077E-03    -14.8841E-03     1.85827E-03
             177     22.7978E-09     37.8014E-03    -14.5668E+06    -64.7494E+06    -14.5158E+06    -15.4043E+03    -14.7802E-03     29.5686E-03    -14.7884E-03     1.78321E-03    -14.7380E-03     29.2872E-03    -14.7460E-03     1.78277E-03
             178     58.7381E-09     36.8250E-03    -14.4353E+06    -64.8214E+06    -14.5273E+06    -44.2112E+03    -14.6917E-03     29.3404E-03    -14.6487E-03     1.77769E-03    -14.6488E-03     29.0585E-03    -14.6064E-03     1.77688E-03
             179    -66.4952E-09     35.8489E-03    -14.4111E+06    -65.0510E+06    -14.3350E+06    -45.7216E+03    -14.5330E-03     29.0870E-03    -14.5540E-03     1.73076E-03    -14.4898E-03     28.8036E-03    -14.5105E-03     1.72993E-03
             180     36.2265E-09     34.8730E-03    -14.1520E+06    -65.0803E+06    -14.2197E+06     28.6998E+03    -14.3958E-03     28.8025E-03    -14.4068E-03     1.75215E-03    -14.3515E-03     28.5184E-03    -14.3630E-03     1.75228E-03
             181    -27.7682E-09     33.8974E-03    -13.8989E+06    -64.8301E+06    -13.8155E+06     65.7139E+03    -14.2618E-03     28.5008E-03    -14.2390E-03     1.76862E-03    -14.2171E-03     28.2170E-03    -14.1940E-03     1.76922E-03
             182     59.0350E-09     32.9222E-03    -13.7921E+06    -65.0197E+06    -13.6943E+06    -202.798E+03    -14.0883E-03     28.1489E-03    -14.0606E-03     1.72941E-03    -14.0430E-03     27.8638E-03    -14.0148E-03     1.72655E-03
             183    -41.5693E-09     31.9473E-03    -13.8869E+06    -65.3326E+06    -14.1006E+06     22.5503E+03    -13.8617E-03     27.7655E-03    -13.9038E-03     1.71474E-03    -13.8158E-03     27.4796E-03    -13.8595E-03     1.71479E-03
             184    -54.7416E-09     30.9729E-03    -13.4255E+06    -65.0456E+06    -13.4147E+06     248.923E+03    -13.6759E-03     27.3754E-03    -13.6995E-03     1.66465E-03    -13.6292E-03     27.0892E-03    -13.6528E-03     1.66763E-03
             185     107.880E-09     29.9987E-03    -11.9744E+06    -63.8093E+06    -12.0785E+06     514.081E+03    -13.5086E-03     26.9398E-03    -13.4312E-03     1.62228E-03    -13.4583E-03     26.6558E-03    -13.3817E-03     1.62869E-03
             186    -26.2329E-09     29.0253E-03    -13.4752E+06    -62.4955E+06    -13.2238E+06     351.124E+03    -13.2277E-03     26.4459E-03    -13.2182E-03     1.56099E-03    -13.1852E-03     26.1723E-03    -13.1742E-03     1.56531E-03
             187    -37.0019E-09     28.0519E-03    -13.9479E+06    -61.7018E+06    -14.2022E+06     217.099E+03    -12.9422E-03     25.9259E-03    -12.9838E-03     1.48031E-03    -12.9017E-03     25.6584E-03    -12.9451E-03     1.48292E-03
             188     22.2424E-09     27.0794E-03    -13.1810E+06    -60.6821E+06    -13.0878E+06     429.120E+03    -12.7165E-03     25.4012E-03    -12.6847E-03     1.44250E-03    -12.6754E-03     25.1361E-03    -12.6430E-03     1.44786E-03
             189     49.1107E-09     26.1071E-03    -12.9934E+06    -59.8580E+06    -12.7894E+06     117.088E+03    -12.4462E-03     24.8445E-03    -12.3984E-03     1.40512E-03    -12.4057E-03     24.5828E-03    -12.3567E-03     1.40645E-03
             190    -34.2705E-09     25.1357E-03    -12.3087E+06    -59.0946E+06    -12.5066E+06     297.814E+03    -12.1252E-03     24.2449E-03    -12.1197E-03     1.35205E-03    -12.0828E-03     23.9856E-03    -12.0787E-03     1.35572E-03
             191     25.8528E-09     24.1646E-03    -11.9331E+06    -58.0062E+06    -11.9161E+06     397.586E+03    -11.8337E-03     23.6533E-03    -11.8196E-03     1.22001E-03    -11.7918E-03     23.3980E-03    -11.7778E-03     1.22498E-03
             192     6.88409E-09     23.1945E-03    -11.3136E+06    -56.7370E+06    -11.2892E+06     273.539E+03    -11.5408E-03     23.0719E-03    -11.5311E-03     1.12762E-03    -11.4987E-03     22.8212E-03    -11.4888E-03     1.13100E-03
             193    -22.7390E-09     22.2243E-03    -11.7008E+06    -55.9364E+06    -11.6104E+06     127.686E+03    -11.2569E-03     22.4979E-03    -11.2410E-03     1.15825E-03    -11.2174E-03     22.2522E-03    -11.2009E-03     1.15975E-03
             194     67.2839E-09     21.2552E-03    -10.2543E+06    -55.8664E+06    -10.2680E+06     83.1144E+03    -11.0200E-03     21.9618E-03    -10.9418E-03     1.10189E-03    -10.9752E-03     21.7124E-03    -10.8973E-03     1.10284E-03
             195     26.4532E-09     20.2863E-03    -8.34818E+06    -55.5924E+06    -8.41568E+06     81.9455E+03    -10.7440E-03     21.4611E-03    -10.7171E-03     998.677E-06    -10.6928E-03     21.2076E-03    -10.6664E-03     999.606E-06
             196    -73.6533E-09     19.3182E-03    -8.09665E+06    -55.2726E+06    -8.22243E+06     69.2897E+03    -10.5009E-03     21.0135E-03    -10.5125E-03     898.305E-06    -10.4492E-03     20.7610E-03    -10.4618E-03     899.075E-06
             197     98.1492E-09     18.3501E-03    -6.17467E+06    -53.8004E+06    -6.26276E+06     738.459E+03    -10.3287E-03     20.6036E-03    -10.2750E-03     871.745E-06    -10.2723E-03     20.3529E-03    -10.2193E-03     881.169E-06
             198    -28.5647E-09     17.3826E-03    -3.73357E+06    -51.3980E+06    -3.64851E+06     859.501E+03    -10.0863E-03     20.1763E-03    -10.0900E-03     850.911E-06    -10.0250E-03     19.9303E-03    -10.0283E-03     861.906E-06
             199    -47.3430E-09     16.4155E-03    -641.490E+03    -49.1242E+06    -709.840E+03     500.457E+03    -9.88732E-03     19.7655E-03    -9.87820E-03     709.269E-06    -9.81810E-03     19.5221E-03    -9.80959E-03     715.633E-06
             200     138.221E-09     15.4488E-03     1.27695E+06    -47.0952E+06     1.24811E+06     545.437E+03    -9.66129E-03     19.2641E-03    -9.60281E-03     639.053E-06    -9.58827E-03     19.0252E-03    -9.53013E-03     645.995E-06
             201    -125.618E-09     14.4825E-03     789.580E+03    -45.4399E+06     932.586E+03     374.844E+03    -9.32120E-03     18.5729E-03    -9.25171E-03     555.227E-06    -9.25255E-03     18.3434E-03    -9.18230E-03     559.986E-06
             202     238.246E-09     13.5171E-03    -724.102E+03    -44.6212E+06    -763.790E+03     76.4843E+03    -8.95095E-03     17.7469E-03    -8.79590E-03     353.954E-06    -8.88860E-03     17.5261E-03    -8.73397E-03     354.888E-06
             203    -74.9593E-09     12.5528E-03    -3.54485E+06    -44.7412E+06    -3.46569E+06    -106.695E+03    -8.42066E-03     16.7260E-03    -8.30532E-03     123.023E-06    -8.36833E-03     16.5126E-03    -8.25263E-03     121.596E-06
             204     118.257E-09     11.5891E-03    -6.70969E+06    -45.1908E+06    -6.77248E+06    -169.583E+03    -7.77698E-03     15.4896E-03    -7.71265E-03     54.6132E-06    -7.73504E-03     15.2834E-03    -7.67125E-03     52.3694E-06
             205    -47.4549E-09     10.6269E-03    -9.73775E+06    -45.3319E+06    -9.66594E+06     52.2291E+03    -7.15847E-03     14.2142E-03    -7.05576E-03     114.929E-06    -7.12727E-03     14.0159E-03    -7.02424E-03     115.540E-06
             206     160.938E-09     9.66576E-03    -12.2639E+06    -45.5147E+06    -11.8402E+06     57.0042E+03    -6.71851E-03     13.2637E-03    -6.54524E-03     179.465E-06    -6.69651E-03     13.0713E-03    -6.52066E-03     180.137E-06
             207     40.0803E-09     8.70567E-03    -12.9667E+06    -45.8601E+06    -12.6652E+06    -190.193E+03    -6.59424E-03     13.0759E-03    -6.48161E-03     304.602E-06    -6.57406E-03     12.8839E-03    -6.45964E-03     302.078E-06
             208    -36.4659E-09     7.74493E-03    -11.7440E+06    -46.4490E+06    -11.6590E+06    -429.209E+03    -6.91291E-03     13.8468E-03    -6.93389E-03     451.737E-06    -6.88724E-03     13.6487E-03    -6.90781E-03     446.138E-06
             209    -3.84339E-09     6.78305E-03    -9.30314E+06    -47.5294E+06    -9.47991E+06    -432.042E+03    -7.67201E-03     15.3778E-03    -7.70581E-03     647.095E-06    -7.63574E-03     15.1676E-03    -7.67080E-03     641.473E-06
             210    -18.3857E-09     5.81934E-03    -6.33540E+06    -48.8717E+06    -6.30173E+06    -413.615E+03    -8.66985E-03     17.3531E-03    -8.68328E-03     784.136E-06    -8.62142E-03     17.1273E-03    -8.63474E-03     778.751E-06
             211     16.9435E-09     4.85369E-03    -3.51255E+06    -50.8644E+06    -3.70831E+06    -417.633E+03    -9.73196E-03     19.4810E-03    -9.74906E-03     792.062E-06    -9.67026E-03     19.2373E-03    -9.68875E-03     786.628E-06
             212    -48.3350E-09     3.88599E-03    -567.775E+03    -52.2864E+06    -382.414E+03    -714.763E+03    -10.7686E-03     21.5483E-03    -10.7797E-03     722.870E-06    -10.6949E-03     21.2884E-03    -10.7049E-03     713.597E-06
             213     62.0030E-09     2.91634E-03    -706.572E+03    -53.6480E+06    -944.260E+03    -356.105E+03    -11.6845E-03     23.3549E-03    -11.6705E-03     597.758E-06    -11.6086E-03     23.0893E-03    -11.5964E-03     593.102E-06
             214    -53.8187E-09     1.94516E-03    -4.46904E+06    -54.4535E+06    -4.75291E+06     199.501E+03    -12.3608E-03     24.7263E-03    -12.3655E-03     436.906E-06    -12.2969E-03     24.4676E-03    -12.3038E-03     439.437E-06
             215     33.4638E-09     972.815E-06    -7.53300E+06    -54.4481E+06    -7.17978E+06    -124.110E+03    -12.7928E-03     25.5742E-03    -12.7813E-03     226.826E-06    -12.7407E-03     25.3235E-03    -12.7273E-03     225.280E-06
             216     888.457E-06     617.562E-18    -8.50253E+06    -55.5988E+06    -8.70386E+06    -113.127E+03    -12.9741E-03     25.8993E-03    -12.9252E-03     193.989E-06    -12.9231E-03     25.6463E-03    -12.8758E-03     192.591E-06
             217     1.77673E-03     617.562E-18    -8.66735E+06    -57.1582E+06    -9.54102E+06    -235.067E+03    -13.0387E-03     26.0030E-03    -12.9643E-03     359.457E-06    -12.9852E-03     25.7436E-03    -12.9166E-03     356.403E-06
             218     2.66511E-03     617.562E-18    -8.67369E+06    -58.1025E+06    -11.3046E+06    -380.706E+03    -13.1459E-03     26.1420E-03    -12.9962E-03     539.108E-06    -13.0886E-03     25.8805E-03    -12.9559E-03     534.158E-06
             219     3.55316E-03     617.562E-18    -8.74485E+06    -59.4558E+06    -14.0813E+06    -762.980E+03    -13.2898E-03     26.3239E-03    -13.0341E-03     755.312E-06    -13.2268E-03     26.0597E-03    -13.0056E-03     745.418E-06
             220     4.44127E-03     617.562E-18    -8.46447E+06    -60.6410E+06    -17.5873E+06    -1.21129E+06    -13.4789E-03     26.5585E-03    -13.0796E-03     981.833E-06    -13.4078E-03     26.2930E-03    -13.0673E-03     966.134E-06
             221     5.32903E-03     617.562E-18    -7.98080E+06    -61.5788E+06    -21.1910E+06    -1.45795E+06    -13.7185E-03     26.8562E-03    -13.1376E-03     1.21584E-03    -13.6384E-03     26.5905E-03    -13.1427E-03     1.19695E-03
             222     6.21667E-03     617.562E-18    -7.05151E+06    -64.6949E+06    -23.6942E+06    -2.02996E+06    -14.0124E-03     27.2310E-03    -13.2186E-03     1.48358E-03    -13.9195E-03     26.9521E-03    -13.2330E-03     1.45727E-03
             223     7.10394E-03     617.562E-18    -5.24285E+06    -67.6858E+06    -26.8950E+06    -2.66943E+06    -14.3569E-03     27.6670E-03    -13.3100E-03     1.77068E-03    -14.2460E-03     27.3752E-03    -13.3388E-03     1.73609E-03
             224     7.99094E-03     617.562E-18    -2.42157E+06    -68.5954E+06    -31.8276E+06    -3.69830E+06    -14.7491E-03     28.1526E-03    -13.4035E-03     2.12453E-03    -14.6156E-03     27.8593E-03    -13.4597E-03     2.07661E-03
             225     8.87753E-03     617.562E-18     617.824E+03    -68.1423E+06    -36.7892E+06    -3.51388E+06    -15.2155E-03     28.7265E-03    -13.5110E-03     2.49076E-03    -15.0602E-03     28.4382E-03    -13.5970E-03     2.44516E-03
             226     9.76376E-03     617.562E-18     3.81240E+06    -64.2401E+06    -40.7889E+06    -4.10913E+06    -15.7832E-03     29.4214E-03    -13.6382E-03     3.05798E-03    -15.6118E-03     29.1538E-03    -13.7546E-03     3.00464E-03
             227     10.6490E-03     617.562E-18      7.4622E+06    -55.3314E+06    -43.0318E+06    -4.60756E+06    -16.4009E-03     30.1893E-03    -13.7884E-03     3.57132E-03    -16.2210E-03     29.9643E-03    -13.9342E-03     3.51141E-03
             228     11.5345E-03     617.562E-18     11.4338E+06    -41.3417E+06    -40.8495E+06    -4.31747E+06    -17.1771E-03     31.1555E-03    -13.9785E-03     4.20548E-03    -17.0007E-03     30.9915E-03    -14.1394E-03     4.14904E-03
             229     12.4182E-03     617.562E-18     15.5499E+06    -20.2101E+06    -32.3631E+06    -4.28961E+06    -18.2243E-03     32.4501E-03    -14.2259E-03     4.98900E-03    -18.0703E-03     32.3735E-03    -14.3809E-03     4.93287E-03
             230     13.3016E-03     617.562E-18     18.4204E+06     13.1171E+06    -20.2946E+06    -2.40841E+06    -19.5119E-03     34.0350E-03    -14.5230E-03     6.22213E-03    -19.4095E-03     34.1033E-03    -14.6702E-03     6.18984E-03
             231     14.1823E-03     617.562E-18     16.8998E+06     42.6608E+06    -5.54976E+06     1.78212E+06    -22.1081E-03     37.0410E-03    -14.9329E-03     11.2642E-03    -22.0778E-03     37.2381E-03    -15.0471E-03     11.2844E-03
             232     15.0566E-03     617.562E-18     16.7727E+06     61.1707E+06     19.3411E+06    -3.56353E+06    -24.9028E-03     40.4282E-03    -15.5254E-03     11.9001E-03    -24.9361E-03     40.6823E-03    -15.5417E-03     11.8495E-03
             233     15.9408E-03     617.562E-18     16.3601E+06     79.5624E+06     54.3998E+06    -1.78820E+06    -29.2083E-03     45.5209E-03    -16.3126E-03     17.1636E-03    -29.3252E-03     45.8201E-03    -16.1797E-03     17.1190E-03
             234     16.7973E-03     617.562E-18     2.27125E+06     90.5723E+06     67.2416E+06     10.4427E+06    -45.1201E-03     62.5907E-03    -17.4706E-03     46.7652E-03    -45.4267E-03     63.0314E-03    -17.2690E-03     46.6925E-03
             235     17.6892E-03     1.04358E-03    -1.00519E+06     104.750E+06     62.1435E+06     10.7751E+06    -50.4087E-03     67.6923E-03    -17.2836E-03     75.5637E-03    -50.9222E-03     68.3966E-03    -17.1233E-03     75.3936E-03
             236     17.7079E-03     2.07287E-03     2.86581E+06     122.434E+06     69.3698E+06     8.01002E+06    -49.2291E-03     65.2198E-03    -15.9908E-03     98.9338E-03    -50.0344E-03     66.2743E-03    -15.8256E-03     98.7082E-03
             237     17.7094E-03     3.10389E-03    -275.335E+03     135.695E+06     82.3208E+06     6.62333E+06    -60.0752E-03     75.5237E-03    -15.4485E-03     122.466E-03    -61.3458E-03     77.0422E-03    -15.2332E-03     122.025E-03
             238     17.7119E-03     4.14354E-03    -468.995E+03     146.420E+06     90.2108E+06     3.37054E+06    -64.6587E-03     79.9493E-03    -15.2906E-03     145.570E-03    -66.5778E-03     82.1300E-03    -15.0511E-03     145.069E-03
             239     17.7121E-03     5.17862E-03    -2.20740E+06     151.050E+06      91.944E+06     654.473E+03    -61.6564E-03     76.9718E-03    -15.3154E-03     167.982E-03    -64.2392E-03     79.8196E-03    -15.0715E-03     167.806E-03
             240     17.7149E-03     6.20033E-03    -1.97105E+06     153.519E+06     91.5801E+06     791.522E+03    -55.2194E-03     70.6157E-03    -15.3963E-03     180.955E-03    -58.2657E-03     73.9353E-03    -15.1581E-03     181.396E-03
             241     17.7154E-03     7.20790E-03    -1.89053E+06     155.503E+06     91.2202E+06     876.890E+03    -50.1343E-03     65.5959E-03    -15.4616E-03     187.772E-03    -53.5164E-03     69.2591E-03    -15.2282E-03     188.791E-03
             242     17.7160E-03     8.21701E-03    -2.62990E+06     158.379E+06     89.3930E+06     1.33086E+06    -47.3582E-03     62.8419E-03    -15.4837E-03     194.273E-03    -51.0813E-03     66.8594E-03    -15.2626E-03     195.752E-03
             243     17.7173E-03     9.22272E-03    -4.20140E+06     160.175E+06     89.3626E+06     1.04421E+06    -45.3950E-03     60.9360E-03    -15.5410E-03     202.316E-03    -49.5085E-03     65.3449E-03    -15.3204E-03     204.222E-03
             244     17.7144E-03     10.2276E-03    -2.51058E+06     162.453E+06     86.5735E+06     2.08973E+06    -42.3494E-03     57.9406E-03    -15.5912E-03     207.835E-03    -46.7754E-03     62.6834E-03    -15.3903E-03     210.224E-03
             245     17.7199E-03     11.2178E-03     1.46658E+06     165.221E+06     79.7457E+06     2.15363E+06    -38.1427E-03     53.6816E-03    -15.5390E-03     212.211E-03    -42.7453E-03     58.6447E-03    -15.3819E-03     215.032E-03
             246     17.7202E-03     12.2175E-03    -283.859E+03     165.852E+06     82.9989E+06    -1.14925E+06    -40.2238E-03     55.6777E-03    -15.4539E-03     225.389E-03    -45.3462E-03     61.1489E-03    -15.2790E-03     228.347E-03
             247     17.7195E-03     13.2284E-03    -4.48512E+06     164.590E+06     86.3365E+06    -1.31354E+06    -42.6730E-03     58.1169E-03    -15.4439E-03     235.983E-03    -48.3175E-03     64.0803E-03    -15.2444E-03     239.088E-03
             248     17.7201E-03     14.2155E-03    -4.45817E+06     164.884E+06     84.5533E+06     1.01529E+06    -39.1774E-03     54.6850E-03    -15.5077E-03     235.784E-03    -44.9540E-03     60.7856E-03    -15.3175E-03     239.380E-03
             249     17.7204E-03     15.2051E-03    -2.67196E+06     166.975E+06     84.9170E+06     896.451E+03    -37.6076E-03     53.1219E-03    -15.5143E-03     235.045E-03    -43.4472E-03     59.2986E-03    -15.3280E-03     238.946E-03
             250     17.7210E-03     16.1993E-03    -1.53824E+06     168.067E+06     84.5598E+06     309.216E+03    -37.0997E-03     52.5879E-03    -15.4882E-03     234.449E-03    -42.9784E-03     58.8126E-03    -15.3068E-03     238.469E-03
             251     17.7216E-03     17.1868E-03    -2.08709E+06     167.827E+06     84.6312E+06     22.7847E+03    -36.5040E-03     51.9865E-03    -15.4825E-03     235.283E-03    -42.4713E-03     58.2967E-03    -15.2997E-03     239.473E-03
             252     17.7214E-03     18.1790E-03    -3.12212E+06     167.900E+06     85.9641E+06     315.841E+03    -36.9075E-03     52.3821E-03    -15.4746E-03     235.139E-03    -42.9596E-03     58.7700E-03    -15.2837E-03     239.429E-03
             253     17.7216E-03     19.1699E-03    -1.45342E+06     169.826E+06     85.3621E+06     1.37657E+06    -35.7208E-03     51.2053E-03    -15.4846E-03     237.369E-03    -41.9434E-03     57.7783E-03    -15.3019E-03     241.932E-03
             254     17.7225E-03     20.1605E-03    -2.17287E+06     170.778E+06     86.7377E+06     289.413E+03    -34.5289E-03     50.0498E-03    -15.5208E-03     241.313E-03    -41.0122E-03     56.8802E-03    -15.3316E-03     246.196E-03
             255     17.7209E-03     21.1491E-03    -4.09136E+06     169.797E+06     84.3332E+06     275.974E+03    -33.5567E-03     49.0974E-03    -15.5407E-03     242.619E-03    -40.2070E-03     56.0914E-03    -15.3594E-03     247.726E-03
             256     17.7229E-03     22.1329E-03    -1.76775E+06     171.293E+06     80.4217E+06     1.24589E+06    -32.6624E-03     48.1740E-03    -15.5115E-03     245.926E-03    -39.4436E-03     55.3238E-03    -15.3552E-03     251.227E-03
             257     17.7229E-03     23.1255E-03    -550.821E+03     173.123E+06     83.2709E+06    -295.189E+03    -32.9019E-03     48.4054E-03    -15.5035E-03     251.066E-03    -39.8756E-03     55.7506E-03    -15.3374E-03     256.459E-03
             258     17.7227E-03     24.1104E-03    -2.21837E+06     172.128E+06     84.4745E+06    -692.281E+03    -32.2810E-03     47.8156E-03    -15.5346E-03     251.421E-03    -39.3368E-03     55.2294E-03    -15.3586E-03     256.945E-03
             259     17.7228E-03     25.0899E-03    -2.50088E+06     172.058E+06     85.3296E+06     367.180E+03    -31.4555E-03     47.0113E-03    -15.5558E-03     248.690E-03    -38.4663E-03     54.3765E-03    -15.3750E-03     254.379E-03
             260     17.7226E-03     26.0774E-03    -2.31980E+06     172.724E+06     85.1923E+06     198.504E+03    -30.9094E-03     46.4722E-03    -15.5628E-03     248.024E-03    -37.9385E-03     53.8593E-03    -15.3839E-03     253.831E-03
             261     17.7230E-03     27.0590E-03    -2.20703E+06     173.032E+06     85.0074E+06     23.1122E+03    -29.7978E-03     45.3811E-03    -15.5833E-03     247.965E-03    -36.8440E-03     52.7872E-03    -15.4060E-03     253.916E-03
             262     17.7227E-03     28.0411E-03    -1.87247E+06     173.725E+06     87.7747E+06     497.790E+03    -28.8969E-03     44.5157E-03    -15.6188E-03     245.842E-03    -35.8933E-03     51.8676E-03    -15.4291E-03     251.887E-03
             263     17.7224E-03     29.0212E-03    -1.52923E+06     174.058E+06     84.9206E+06    -32.7022E+03    -28.6028E-03     44.1988E-03    -15.5960E-03     245.022E-03    -35.6303E-03     51.5924E-03    -15.4215E-03     251.141E-03
             264     17.7241E-03     30.0041E-03    -2.53572E+06     173.414E+06     81.7295E+06     130.198E+03    -29.5429E-03     45.0902E-03    -15.5473E-03     251.551E-03    -36.8516E-03     52.7687E-03    -15.3864E-03     257.759E-03
             265     17.7230E-03     31.0010E-03    -2.62922E+06     174.054E+06     84.8919E+06     173.728E+03    -29.1469E-03     44.7415E-03    -15.5945E-03     258.896E-03    -36.7328E-03     52.6900E-03    -15.4186E-03     265.257E-03
             266     17.7233E-03     31.9690E-03    -2.06325E+06     174.500E+06     85.6244E+06    -291.190E+03    -26.7707E-03     42.4228E-03    -15.6521E-03     253.250E-03    -34.1363E-03     50.1523E-03    -15.4741E-03     259.751E-03
             267     17.7231E-03     32.9426E-03    -1.85967E+06     174.307E+06     85.0558E+06     598.714E+03    -26.6062E-03     42.2399E-03    -15.6337E-03     247.018E-03    -33.7392E-03     49.7386E-03    -15.4585E-03     253.482E-03
             268     17.7235E-03     33.9329E-03    -2.11415E+06     174.538E+06     85.1084E+06     82.4062E+03    -27.4034E-03     43.0206E-03    -15.6172E-03     250.791E-03    -34.7107E-03     50.6933E-03    -15.4417E-03     257.269E-03
             269     17.7233E-03     34.9096E-03    -2.59729E+06     174.685E+06     85.9483E+06    -176.755E+03    -27.0859E-03     42.7209E-03    -15.6350E-03     252.231E-03    -34.4832E-03     50.4798E-03    -15.4548E-03     258.809E-03
             270     17.7231E-03     35.8894E-03    -2.09386E+06     175.031E+06     86.5348E+06     201.846E+03    -26.6217E-03     42.2689E-03    -15.6472E-03     250.302E-03    -33.9563E-03     49.9664E-03    -15.4652E-03     256.919E-03
             271     17.7234E-03     36.8687E-03    -2.43310E+06     175.205E+06     88.0602E+06     109.793E+03    -26.6382E-03     42.3003E-03    -15.6621E-03     250.586E-03    -34.0117E-03     50.0317E-03    -15.4723E-03     257.244E-03
             272     17.7225E-03     37.8499E-03    -1.78425E+06     175.588E+06     85.3194E+06    -8.06656E+03    -26.0368E-03     41.6898E-03    -15.6530E-03     249.771E-03    -33.4124E-03     49.4350E-03    -15.4784E-03     256.485E-03
             273     17.7244E-03     38.8248E-03    -2.08415E+06     175.180E+06     81.1931E+06     411.262E+03    -26.6051E-03     42.2091E-03    -15.6041E-03     254.514E-03    -34.1597E-03     50.1429E-03    -15.4491E-03     261.280E-03
             274     17.7233E-03     39.8186E-03    -2.71340E+06     175.164E+06     84.4367E+06    -92.1104E+03    -27.3765E-03     42.9930E-03    -15.6165E-03     259.941E-03    -35.1254E-03     51.1095E-03    -15.4444E-03     266.704E-03
             275     17.7236E-03     40.7887E-03    -2.07710E+06     175.636E+06     87.0236E+06    -472.149E+03    -25.1804E-03     40.8664E-03    -15.6861E-03     254.340E-03    -32.7151E-03     48.7651E-03    -15.5026E-03     261.215E-03
             276     17.7230E-03     41.7578E-03    -2.01378E+06     175.635E+06     86.8548E+06     497.218E+03    -25.0455E-03     40.7232E-03    -15.6777E-03     248.422E-03    -32.3432E-03     48.3855E-03    -15.4951E-03     255.248E-03
             277     17.7236E-03     42.7470E-03    -1.94159E+06     175.763E+06     86.6458E+06     18.8016E+03    -26.1690E-03     41.8170E-03    -15.6480E-03     250.282E-03    -33.5402E-03     49.5541E-03    -15.4669E-03     257.005E-03
             278     17.7233E-03     43.7228E-03    -2.32301E+06     175.741E+06     86.2134E+06    -120.025E+03    -25.6440E-03     41.3069E-03    -15.6629E-03     252.958E-03    -33.1441E-03     49.1726E-03    -15.4833E-03     259.806E-03
             279     17.7235E-03     44.7026E-03    -2.34264E+06     175.951E+06     86.2527E+06     267.788E+03    -25.3240E-03     40.9951E-03    -15.6711E-03     252.416E-03    -32.8088E-03     48.8460E-03    -15.4915E-03     259.307E-03
             280     17.7233E-03     45.6797E-03    -2.26677E+06     176.150E+06     86.7321E+06     51.4426E+03    -25.2669E-03     40.9420E-03    -15.6750E-03     251.548E-03    -32.7273E-03     48.7681E-03    -15.4935E-03     258.440E-03
             281     17.7234E-03     46.6577E-03    -2.23471E+06     176.235E+06     85.8213E+06     14.5388E+03    -25.5196E-03     41.1797E-03    -15.6601E-03     251.249E-03    -32.9742E-03     49.0032E-03    -15.4833E-03     258.132E-03
             282     17.7236E-03     47.6379E-03    -2.30324E+06     176.113E+06     86.4739E+06     68.3260E+03    -25.6300E-03     41.2924E-03    -15.6625E-03     251.940E-03    -33.0992E-03     49.1279E-03    -15.4821E-03     258.808E-03
             283     17.7230E-03     48.6172E-03    -2.14805E+06     176.409E+06     87.0055E+06    -25.9505E+03    -25.2651E-03     40.9439E-03    -15.6788E-03     252.282E-03    -32.7547E-03     48.7998E-03    -15.4964E-03     259.185E-03
             284     17.7237E-03     49.5926E-03    -2.04315E+06     176.633E+06      86.237E+06     122.993E+03    -25.2084E-03     40.8757E-03    -15.6673E-03     250.911E-03    -32.6431E-03     48.6801E-03    -15.4893E-03     257.817E-03
             285     17.7234E-03     50.5726E-03    -2.27936E+06     176.870E+06     86.3802E+06     271.564E+03    -25.2911E-03     40.9537E-03    -15.6626E-03     250.551E-03    -32.7101E-03     48.7420E-03    -15.4839E-03     257.440E-03
             286     17.7235E-03     51.5519E-03    -2.22997E+06     177.599E+06     86.4745E+06     284.166E+03    -25.0996E-03     40.7714E-03    -15.6718E-03     252.382E-03    -32.6075E-03     48.6511E-03    -15.4937E-03     259.334E-03
             287     17.7235E-03     52.5301E-03    -2.46468E+06     178.123E+06     87.3662E+06     211.435E+03    -25.0989E-03     40.7783E-03    -15.6794E-03     252.884E-03    -32.6350E-03     48.6847E-03    -15.4973E-03     259.861E-03
             288     17.7232E-03     53.5080E-03    -1.85541E+06     178.895E+06     87.1118E+06     354.896E+03    -24.8030E-03     40.4832E-03    -15.6801E-03     251.395E-03    -32.2698E-03     48.3258E-03    -15.5013E-03     258.352E-03
             289     17.7237E-03     54.4837E-03    -1.88079E+06     179.197E+06     87.4141E+06     199.136E+03    -25.0408E-03     40.7117E-03    -15.6709E-03     250.486E-03    -32.4708E-03     48.5178E-03    -15.4910E-03     257.411E-03
             290     17.7231E-03     55.4645E-03    -2.37459E+06     179.831E+06      87.733E+06     309.242E+03    -25.5218E-03     41.1839E-03    -15.6621E-03     250.487E-03    -32.9617E-03     48.9994E-03    -15.4808E-03     257.369E-03
             291     17.7237E-03     56.4431E-03    -2.23917E+06     180.602E+06     87.0182E+06     429.933E+03    -25.0646E-03     40.7345E-03    -15.6698E-03     251.507E-03    -32.5525E-03     48.6032E-03    -15.4934E-03     258.453E-03
             292     886.163E-06     57.3532E-03    -13.4924E+06    -63.4552E+06    -13.1647E+06    -6.31298E+03    -15.5418E-03     31.1092E-03    -15.5674E-03     3.46935E-03    -15.4981E-03     30.8307E-03    -15.5217E-03     3.46878E-03
             293     1.77229E-03     57.3578E-03    -12.9255E+06    -61.9431E+06    -11.1018E+06    -42.3443E+03    -15.5576E-03     31.1181E-03    -15.5605E-03     6.52626E-03    -15.5164E-03     30.8433E-03    -15.5074E-03     6.52477E-03
             294     2.65847E-03     57.3654E-03    -11.8196E+06    -60.1396E+06    -8.29547E+06     20.3657E+03    -15.5677E-03     31.1367E-03    -15.5690E-03     9.75447E-03    -15.5277E-03     30.8653E-03    -15.5062E-03     9.75329E-03
             295     3.54460E-03     57.3760E-03    -10.5777E+06    -57.4884E+06    -5.37667E+06     219.952E+03    -15.5842E-03     31.1611E-03    -15.5769E-03     13.1111E-03    -15.5463E-03     30.8971E-03    -15.5051E-03     13.1120E-03
             296     4.43077E-03     57.3898E-03    -9.57048E+06    -59.3706E+06    -2.48969E+06     77.2825E+03    -15.6218E-03     31.2142E-03    -15.5925E-03     16.5941E-03    -15.5805E-03     30.9354E-03    -15.5049E-03     16.5925E-03
             297     5.31690E-03     57.4069E-03    -8.96429E+06    -59.3756E+06    -1.40674E+06     15.5014E+03    -15.6614E-03     31.2593E-03    -15.5979E-03     20.2559E-03    -15.6189E-03     30.9783E-03    -15.5058E-03     20.2528E-03
             298     6.20307E-03     57.4275E-03    -8.38732E+06    -57.0483E+06    -726.050E+03     429.315E+03    -15.7068E-03     31.3051E-03    -15.5982E-03     24.0984E-03    -15.6663E-03     31.0343E-03    -15.5070E-03     24.0998E-03
             299     7.08919E-03     57.4518E-03    -7.18065E+06    -60.5914E+06     1.62976E+06     530.499E+03    -15.7850E-03     31.4005E-03    -15.6155E-03     28.0636E-03    -15.7374E-03     31.1076E-03    -15.5091E-03     28.0650E-03
             300     7.97533E-03     57.4797E-03    -5.72246E+06    -61.0745E+06     2.93635E+06     142.923E+03    -15.8612E-03     31.4849E-03    -15.6237E-03     32.2076E-03    -15.8085E-03     31.1865E-03    -15.5121E-03     32.2024E-03
             301     8.86141E-03     57.5117E-03    -4.72236E+06    -55.9218E+06     2.25634E+06    -57.5462E+03    -15.9270E-03     31.5408E-03    -15.6138E-03     36.5090E-03    -15.8773E-03     31.2692E-03    -15.5146E-03     36.4991E-03
             302     9.74762E-03     57.5476E-03    -3.90050E+06    -56.2544E+06     1.64720E+06    -160.475E+03    -16.0213E-03     31.6332E-03    -15.6119E-03     40.7909E-03    -15.9686E-03     31.3621E-03    -15.5164E-03     40.7766E-03
             303     10.6337E-03     57.5876E-03    -3.56649E+06    -54.4607E+06    -2.51418E+06    -331.281E+03    -16.1291E-03     31.7194E-03    -15.5903E-03     45.0952E-03    -16.0752E-03     31.4668E-03    -15.5187E-03     45.0746E-03
             304     11.5198E-03     57.6315E-03    -3.62542E+06    -43.2246E+06    -1.13084E+06    -225.640E+03    -16.2014E-03     31.7844E-03    -15.5830E-03     49.5748E-03    -16.1724E-03     31.5924E-03    -15.5207E-03     49.5502E-03
             305     12.4059E-03     57.6798E-03    -3.32484E+06    -37.3182E+06     172.456E+03    -145.274E+03    -16.3697E-03     31.9511E-03    -15.5815E-03     56.5788E-03    -16.3619E-03     31.7985E-03    -15.5217E-03     56.5481E-03
             306     13.2920E-03     57.7367E-03    -3.16948E+06    -35.6605E+06    -8.68788E+06    -49.5855E+03    -16.3856E-03     31.9190E-03    -15.5333E-03     59.3407E-03    -16.3832E-03     31.8039E-03    -15.5205E-03     59.3038E-03
             307     14.1786E-03     57.7900E-03    -3.23252E+06    -19.0514E+06    -10.3199E+06     297.424E+03    -16.5434E-03     32.0434E-03    -15.5000E-03     63.9268E-03    -16.5959E-03     32.0467E-03    -15.5193E-03     63.8891E-03
             308     15.0640E-03     57.8555E-03    -3.40937E+06     19.5547E+06    -10.4139E+06     336.098E+03    -17.9042E-03     33.3515E-03    -15.4473E-03     96.2586E-03    -18.1971E-03     33.7319E-03    -15.5228E-03     96.2398E-03
             309     15.9506E-03     57.9691E-03    -3.84905E+06     82.3867E+06    -12.6748E+06     369.742E+03    -20.7887E-03     36.1344E-03    -15.3457E-03     160.326E-03    -22.5165E-03     38.1778E-03    -15.5229E-03     160.860E-03
             310     16.8364E-03     58.1560E-03    -3.13280E+06     151.554E+06     37.7198E+06     505.403E+03    -23.7558E-03     39.2377E-03    -15.4819E-03     225.237E-03    -28.9955E-03     44.8949E-03    -15.5085E-03     229.263E-03
             311     886.128E-06     58.3312E-03    -13.3126E+06    -63.4589E+06    -12.8210E+06    -8.00086E+03    -15.5845E-03     31.1284E-03    -15.5439E-03     3.50886E-03    -15.5404E-03     30.8491E-03    -15.4967E-03     3.50826E-03
             312     1.77230E-03     58.3358E-03    -12.6442E+06    -61.9511E+06    -10.8994E+06     56.8862E+03    -15.5730E-03     31.1438E-03    -15.5708E-03     6.52734E-03    -15.5306E-03     30.8683E-03    -15.5172E-03     6.52713E-03
             313     2.65841E-03     58.3434E-03    -11.7270E+06    -60.1306E+06    -8.24729E+06    -25.8669E+03    -15.5748E-03     31.1541E-03    -15.5794E-03     9.76563E-03    -15.5344E-03     30.8826E-03    -15.5164E-03     9.76386E-03
             314     3.54459E-03     58.3540E-03    -10.3213E+06    -57.8074E+06    -5.42369E+06     37.9229E+03    -15.5898E-03     31.1755E-03    -15.5857E-03     13.1232E-03    -15.5500E-03     30.9096E-03    -15.5140E-03     13.1217E-03
             315     4.43073E-03     58.3678E-03    -8.65317E+06    -59.2069E+06    -1.83935E+06     227.769E+03    -15.6313E-03     31.2336E-03    -15.6023E-03     16.6025E-03    -15.5866E-03     30.9533E-03    -15.5131E-03     16.6028E-03
             316     5.31689E-03     58.3849E-03    -7.29435E+06    -60.0158E+06     631.474E+03     677.992E+03    -15.6811E-03     31.2960E-03    -15.6149E-03     20.2470E-03    -15.6323E-03     31.0064E-03    -15.5142E-03     20.2525E-03
             317     6.20301E-03     58.4055E-03    -6.54244E+06    -57.4149E+06     1.08722E+06     1.02083E+06    -15.7223E-03     31.3362E-03    -15.6139E-03     24.0984E-03    -15.6746E-03     31.0583E-03    -15.5157E-03     24.1074E-03
             318     7.08914E-03     58.4298E-03    -5.93079E+06    -59.8984E+06     1.98632E+06     410.765E+03    -15.7849E-03     31.4073E-03    -15.6223E-03     28.0949E-03    -15.7325E-03     31.1154E-03    -15.5170E-03     28.0948E-03
             319     7.97525E-03     58.4578E-03    -5.16637E+06    -60.9672E+06     2.92803E+06     32.2021E+03    -15.8591E-03     31.4881E-03    -15.6291E-03     32.2433E-03    -15.8037E-03     31.1895E-03    -15.5185E-03     32.2367E-03
             320     8.86143E-03     58.4897E-03    -4.35572E+06    -55.6616E+06     2.68272E+06    -116.817E+03    -15.9292E-03     31.5497E-03    -15.6205E-03     36.5285E-03    -15.8786E-03     31.2783E-03    -15.5201E-03     36.5178E-03
             321     9.74748E-03     58.5257E-03    -3.65453E+06    -56.0771E+06     2.01333E+06    -401.842E+03    -16.0246E-03     31.6429E-03    -15.6183E-03     40.8154E-03    -15.9715E-03     31.3719E-03    -15.5216E-03     40.7979E-03
             322     10.6337E-03     58.5656E-03    -3.26954E+06    -54.5399E+06    -2.54033E+06    -233.393E+03    -16.1327E-03     31.7274E-03    -15.5947E-03     45.1306E-03    -16.0772E-03     31.4740E-03    -15.5236E-03     45.1112E-03
             323     11.5197E-03     58.6096E-03    -3.14126E+06    -43.4186E+06    -1.01903E+06    -75.8363E+03    -16.1839E-03     31.7707E-03    -15.5869E-03     49.5944E-03    -16.1523E-03     31.5769E-03    -15.5245E-03     49.5718E-03
             324     12.4060E-03     58.6578E-03    -3.06591E+06    -37.3675E+06     537.063E+03    -139.382E+03    -16.3316E-03     31.9159E-03    -15.5844E-03     56.5923E-03    -16.3229E-03     31.7621E-03    -15.5230E-03     56.5618E-03
             325     13.2921E-03     58.7148E-03    -3.34204E+06    -35.6248E+06    -8.28900E+06    -98.3154E+03    -16.4621E-03     32.0002E-03    -15.5380E-03     59.2809E-03    -16.4613E-03     31.8851E-03    -15.5230E-03     59.2430E-03
             326     14.1780E-03     58.7678E-03    -3.68083E+06    -19.3881E+06    -10.2634E+06     64.0239E+03    -16.5618E-03     32.0687E-03    -15.5069E-03     63.9719E-03    -16.6163E-03     32.0711E-03    -15.5248E-03     63.9310E-03
             327     15.0647E-03     58.8341E-03    -4.29983E+06     19.3078E+06    -10.8881E+06     480.705E+03    -17.7382E-03     33.1858E-03    -15.4476E-03     96.3532E-03    -18.0331E-03     33.5655E-03    -15.5238E-03     96.3376E-03
             328     15.9501E-03     58.9472E-03    -4.91720E+06     82.3933E+06    -12.9297E+06     386.447E+03    -20.8492E-03     36.1927E-03    -15.3434E-03     160.526E-03    -22.5894E-03     38.2453E-03    -15.5204E-03     161.059E-03
             329     16.8370E-03     59.1342E-03    -3.70444E+06     151.623E+06     37.9194E+06     27.7180E+03    -23.8266E-03     39.3113E-03    -15.4847E-03     225.206E-03    -29.0635E-03     44.9633E-03    -15.5095E-03     229.222E-03
             330     886.167E-06     59.3092E-03    -13.5033E+06    -63.4913E+06    -13.1450E+06     60.2666E+03    -15.6114E-03     31.1450E-03    -15.5337E-03     3.52612E-03    -15.5677E-03     30.8663E-03    -15.4877E-03     3.52640E-03
             331     1.77224E-03     59.3138E-03    -12.8856E+06    -62.0211E+06    -11.1721E+06     12.6938E+03    -15.5808E-03     31.1597E-03    -15.5790E-03     6.52482E-03    -15.5391E-03     30.8846E-03    -15.5262E-03     6.52404E-03
             332     2.65842E-03     59.3214E-03    -11.7980E+06    -60.0254E+06    -8.27583E+06     31.7006E+03    -15.5829E-03     31.1709E-03    -15.5880E-03     9.77627E-03    -15.5430E-03     30.9001E-03    -15.5253E-03     9.77524E-03
             333     3.54453E-03     59.3320E-03    -10.7135E+06    -57.8826E+06    -5.27780E+06    -56.4985E+03    -15.5998E-03     31.1961E-03    -15.5963E-03     13.1341E-03    -15.5621E-03     30.9302E-03    -15.5232E-03     13.1314E-03
             334     4.43070E-03     59.3458E-03    -9.53253E+06    -59.5856E+06    -2.28455E+06     141.791E+03    -15.6372E-03     31.2486E-03    -15.6113E-03     16.6158E-03    -15.5957E-03     30.9683E-03    -15.5225E-03     16.6150E-03
             335     5.31681E-03     59.3630E-03    -7.79040E+06    -60.4989E+06    -46.2400E+03     334.444E+03    -15.6828E-03     31.3046E-03    -15.6218E-03     20.2679E-03    -15.6348E-03     31.0143E-03    -15.5231E-03     20.2689E-03
             336     6.20294E-03     59.3836E-03    -5.57925E+06    -57.9435E+06     1.04157E+06     679.302E+03    -15.7218E-03     31.3422E-03    -15.6204E-03     24.1219E-03    -15.6685E-03     31.0604E-03    -15.5231E-03     24.1265E-03
             337     7.08910E-03     59.4079E-03    -4.53546E+06    -59.4266E+06     2.63240E+06     1.09802E+06    -15.7857E-03     31.4143E-03    -15.6286E-03     28.1154E-03    -15.7280E-03     31.1218E-03    -15.5227E-03     28.1241E-03
             338     7.97526E-03     59.4358E-03    -4.28576E+06    -60.3355E+06     3.83091E+06     353.901E+03    -15.8645E-03     31.5008E-03    -15.6363E-03     32.2536E-03    -15.8069E-03     31.2027E-03    -15.5235E-03     32.2512E-03
             339     8.86132E-03     59.4679E-03    -3.61796E+06    -55.5065E+06     3.32196E+06    -214.538E+03    -15.9306E-03     31.5575E-03    -15.6269E-03     36.5439E-03    -15.8775E-03     31.2849E-03    -15.5246E-03     36.5319E-03
             340     9.74752E-03     59.5038E-03    -3.23589E+06    -55.9578E+06     2.62873E+06    -129.514E+03    -16.0213E-03     31.6457E-03    -15.6244E-03     40.8315E-03    -15.9671E-03     31.3738E-03    -15.5255E-03     40.8176E-03
             341     10.6336E-03     59.5437E-03    -3.30869E+06    -54.7473E+06    -2.03339E+06    -150.383E+03    -16.1294E-03     31.7302E-03    -15.6008E-03     45.1463E-03    -16.0745E-03     31.4752E-03    -15.5268E-03     45.1279E-03
             342     11.5197E-03     59.5877E-03    -3.27904E+06    -43.3958E+06    -566.728E+03    -63.6066E+03    -16.1787E-03     31.7707E-03    -15.5920E-03     49.5813E-03    -16.1485E-03     31.5765E-03    -15.5272E-03     49.5588E-03
             343     12.4059E-03     59.6358E-03    -2.95757E+06    -37.2379E+06     731.737E+03    -110.656E+03    -16.3290E-03     31.9163E-03    -15.5873E-03     56.5527E-03    -16.3202E-03     31.7627E-03    -15.5254E-03     56.5226E-03
             344     13.2921E-03     59.6928E-03    -2.60328E+06    -35.9787E+06    -8.05915E+06    -150.985E+03    -16.4830E-03     32.0242E-03    -15.5412E-03     59.4242E-03    -16.4786E-03     31.9061E-03    -15.5255E-03     59.3856E-03
             345     14.1781E-03     59.7464E-03    -3.29326E+06    -19.8279E+06    -9.92570E+06     326.445E+03    -16.6037E-03     32.1163E-03    -15.5126E-03     64.0736E-03    -16.6564E-03     32.1158E-03    -15.5287E-03     64.0360E-03
             346     15.0639E-03     59.8115E-03    -4.14923E+06     19.2716E+06    -10.3307E+06     677.271E+03    -17.6246E-03     33.0767E-03    -15.4520E-03     96.1859E-03    -17.9186E-03     33.4543E-03    -15.5256E-03     96.1735E-03
             347     15.9512E-03     59.9257E-03    -4.25945E+06     82.7286E+06    -12.7280E+06     418.418E+03    -20.6748E-03     36.0111E-03    -15.3362E-03     160.787E-03    -22.4168E-03     38.0685E-03    -15.5137E-03     161.327E-03
             348     16.8364E-03     60.1129E-03    -3.33689E+06     151.823E+06     38.1122E+06     2.31147E+03    -23.9440E-03     39.4199E-03    -15.4758E-03     225.300E-03    -29.1815E-03     45.0740E-03    -15.5006E-03     229.310E-03
             349     886.093E-06     60.2872E-03    -13.6921E+06    -63.5347E+06    -13.2846E+06    -34.0906E+03    -15.5876E-03     31.1650E-03    -15.5774E-03     3.52768E-03    -15.5446E-03     30.8865E-03    -15.5318E-03     3.52673E-03
             350     1.77227E-03     60.2918E-03    -12.8865E+06    -61.9177E+06    -11.0940E+06    -70.5328E+03    -15.5837E-03     31.1719E-03    -15.5882E-03     6.53000E-03    -15.5423E-03     30.8972E-03    -15.5352E-03     6.52815E-03
             351     2.65836E-03     60.2994E-03    -11.8017E+06    -60.1986E+06    -8.14304E+06    -6.43388E+03    -15.5944E-03     31.1914E-03    -15.5971E-03     9.78167E-03    -15.5544E-03     30.9195E-03    -15.5334E-03     9.78015E-03
             352     3.54453E-03     60.3100E-03    -10.7888E+06    -58.1614E+06    -5.22449E+06     461.716E+03    -15.6071E-03     31.2127E-03    -15.6056E-03     13.1439E-03    -15.5695E-03     30.9454E-03    -15.5317E-03     13.1479E-03
             353     4.43063E-03     60.3239E-03    -10.0960E+06    -59.8736E+06    -3.05506E+06     639.766E+03    -15.6358E-03     31.2521E-03    -15.6163E-03     16.6362E-03    -15.5956E-03     30.9723E-03    -15.5301E-03     16.6419E-03
             354     5.31679E-03     60.3410E-03    -9.41949E+06    -59.9987E+06    -2.29818E+06     101.757E+03    -15.6674E-03     31.2851E-03    -15.6177E-03     20.3123E-03    -15.6250E-03     31.0030E-03    -15.5285E-03     20.3103E-03
             355     6.20294E-03     60.3616E-03    -8.50802E+06    -58.5960E+06    -1.23920E+06    -162.461E+03    -15.7134E-03     31.3316E-03    -15.6181E-03     24.1590E-03    -15.6705E-03     31.0540E-03    -15.5270E-03     24.1527E-03
             356     7.08909E-03     60.3859E-03    -6.36738E+06    -60.0758E+06     1.27453E+06     422.745E+03    -15.7833E-03     31.4125E-03    -15.6292E-03     28.1540E-03    -15.7318E-03     31.1214E-03    -15.5265E-03     28.1540E-03
             357     7.97516E-03     60.4140E-03    -4.40428E+06    -59.2148E+06     3.47463E+06     516.515E+03    -15.8565E-03     31.4927E-03    -15.6363E-03     32.2956E-03    -15.8006E-03     31.2010E-03    -15.5267E-03     32.2953E-03
             358     8.86135E-03     60.4459E-03    -4.17619E+06    -55.8151E+06     3.15026E+06     348.450E+03    -15.9261E-03     31.5558E-03    -15.6297E-03     36.5675E-03    -15.8751E-03     31.2827E-03    -15.5270E-03     36.5628E-03
             359     9.74744E-03     60.4819E-03    -4.31796E+06    -55.7576E+06     2.25866E+06     382.374E+03    -16.0179E-03     31.6438E-03    -15.6259E-03     40.8604E-03    -15.9689E-03     31.3750E-03    -15.5275E-03     40.8531E-03
             360     10.6336E-03     60.5218E-03    -3.92303E+06    -54.2219E+06    -2.12907E+06    -301.059E+03    -16.1220E-03     31.7242E-03    -15.6022E-03     45.1676E-03    -16.0708E-03     31.4728E-03    -15.5286E-03     45.1473E-03
             361     11.5197E-03     60.5658E-03    -3.27834E+06    -43.9355E+06    -1.07423E+06    -319.624E+03    -16.1760E-03     31.7676E-03    -15.5915E-03     49.5985E-03    -16.1444E-03     31.5714E-03    -15.5284E-03     49.5728E-03
             362     12.4059E-03     60.6139E-03    -3.03520E+06    -36.9369E+06     490.168E+03     13.8080E+03    -16.3577E-03     31.9454E-03    -15.5877E-03     56.6252E-03    -16.3495E-03     31.7939E-03    -15.5273E-03     56.5966E-03
             363     13.2919E-03     60.6709E-03    -3.73313E+06    -36.1970E+06    -8.43965E+06    -62.7801E+03    -16.4718E-03     32.0155E-03    -15.5437E-03     59.4575E-03    -16.4722E-03     31.8986E-03    -15.5280E-03     59.4200E-03
             364     14.1782E-03     60.7244E-03    -4.01294E+06    -20.1739E+06    -10.0168E+06     177.451E+03    -16.5331E-03     32.0469E-03    -15.5138E-03     64.0457E-03    -16.5887E-03     32.0456E-03    -15.5288E-03     64.0064E-03
             365     15.0644E-03     60.7902E-03    -3.27754E+06     19.0222E+06    -9.82500E+06     338.744E+03    -17.6583E-03     33.1110E-03    -15.4527E-03     96.1279E-03    -17.9497E-03     33.4868E-03    -15.5247E-03     96.1110E-03
             366     15.9500E-03     60.9027E-03    -3.59468E+06     82.6005E+06    -12.0102E+06     404.707E+03    -20.5973E-03     35.9341E-03    -15.3368E-03     160.839E-03    -22.3358E-03     37.9879E-03    -15.5114E-03     161.383E-03
             367     16.8380E-03     61.0918E-03    -3.15269E+06     152.491E+06     38.8409E+06     325.324E+03    -23.9102E-03     39.3826E-03    -15.4724E-03     225.461E-03    -29.1497E-03     45.0396E-03    -15.4947E-03     229.476E-03
             368     886.130E-06     61.2652E-03    -13.8324E+06    -63.2765E+06    -13.4718E+06    -218.788E+03    -15.5620E-03     31.1813E-03    -15.6193E-03     3.52277E-03    -15.5199E-03     30.9047E-03    -15.5749E-03     3.51944E-03
             369     1.77223E-03     61.2698E-03    -13.0994E+06    -61.9341E+06    -11.3933E+06    -179.265E+03    -15.5895E-03     31.1851E-03    -15.5956E-03     6.54533E-03    -15.5487E-03     30.9110E-03    -15.5438E-03     6.54206E-03
             370     2.65837E-03     61.2774E-03    -12.0820E+06    -60.4141E+06    -8.53686E+06     38.8089E+03    -15.5990E-03     31.2024E-03    -15.6034E-03     9.78888E-03    -15.5596E-03     30.9304E-03    -15.5410E-03     9.78794E-03
             371     3.54447E-03     61.2881E-03    -10.5701E+06    -58.9592E+06    -5.77661E+06     400.374E+03    -15.6073E-03     31.2171E-03    -15.6097E-03     13.1574E-03    -15.5666E-03     30.9463E-03    -15.5378E-03     13.1606E-03
             372     4.43066E-03     61.3019E-03    -8.52988E+06    -59.7760E+06    -2.48841E+06     584.810E+03    -15.6359E-03     31.2564E-03    -15.6206E-03     16.6484E-03    -15.5888E-03     30.9740E-03    -15.5340E-03     16.6534E-03
             373     5.31678E-03     61.3190E-03    -7.06769E+06    -59.7430E+06     194.831E+03     604.651E+03    -15.6805E-03     31.3098E-03    -15.6293E-03     20.3033E-03    -15.6303E-03     31.0219E-03    -15.5315E-03     20.3077E-03
             374     6.20293E-03     61.3397E-03    -6.24971E+06    -58.0161E+06     1.30854E+06     54.2824E+03    -15.7275E-03     31.3577E-03    -15.6302E-03     24.1497E-03    -15.6778E-03     31.0761E-03    -15.5305E-03     24.1462E-03
             375     7.08902E-03     61.3639E-03    -5.39434E+06    -60.3939E+06     1.85442E+06    -760.632E+03    -15.7836E-03     31.4180E-03    -15.6344E-03     28.1622E-03    -15.7276E-03     31.1231E-03    -15.5297E-03     28.1470E-03
             376     7.97525E-03     61.3920E-03    -4.09147E+06    -59.9242E+06     3.23953E+06     57.0085E+03    -15.8526E-03     31.4906E-03    -15.6380E-03     32.3143E-03    -15.7939E-03     31.1952E-03    -15.5290E-03     32.3080E-03
             377     8.86132E-03     61.4240E-03    -3.05030E+06    -56.2908E+06     4.62983E+06     1.18724E+06    -15.9376E-03     31.5758E-03    -15.6382E-03     36.5358E-03    -15.8824E-03     31.2966E-03    -15.5290E-03     36.5419E-03
             378     9.74748E-03     61.4599E-03    -2.62889E+06    -55.0520E+06     4.06063E+06     840.604E+03    -16.0262E-03     31.6601E-03    -15.6339E-03     40.8294E-03    -15.9724E-03     31.3897E-03    -15.5299E-03     40.8280E-03
             379     10.6336E-03     61.4999E-03    -2.68400E+06    -53.1410E+06     74.4197E+03    -124.504E+03    -16.1182E-03     31.7303E-03    -15.6121E-03     45.1218E-03    -16.0656E-03     31.4793E-03    -15.5308E-03     45.1038E-03
             380     11.5197E-03     61.5438E-03    -3.18282E+06    -44.9655E+06     189.704E+03    -139.226E+03    -16.1778E-03     31.7790E-03    -15.6012E-03     49.5378E-03    -16.1460E-03     31.5757E-03    -15.5305E-03     49.5143E-03
             381     12.4059E-03     61.5920E-03    -3.47642E+06    -36.9731E+06     1.04486E+06     444.063E+03    -16.3459E-03     31.9387E-03    -15.5929E-03     56.6340E-03    -16.3407E-03     31.7869E-03    -15.5290E-03     56.6109E-03
             382     13.2920E-03     61.6491E-03    -3.73736E+06    -35.7199E+06    -7.27977E+06     474.542E+03    -16.4818E-03     32.0322E-03    -15.5504E-03     59.5291E-03    -16.4847E-03     31.9161E-03    -15.5296E-03     59.4984E-03
             383     14.1778E-03     61.7025E-03    -4.15948E+06    -19.9121E+06    -9.85313E+06    -171.575E+03    -16.4816E-03     31.9965E-03    -15.5148E-03     63.9619E-03    -16.5383E-03     31.9962E-03    -15.5292E-03     63.9185E-03
             384     15.0644E-03     61.7678E-03    -4.50670E+06     18.6376E+06    -10.2521E+06    -553.180E+03    -17.6251E-03     33.0761E-03    -15.4511E-03     96.0592E-03    -17.9214E-03     33.4524E-03    -15.5228E-03     96.0310E-03
             385     15.9511E-03     61.8815E-03    -4.00804E+06     82.1679E+06    -12.8545E+06     213.752E+03    -20.8103E-03     36.1478E-03    -15.3375E-03     160.662E-03    -22.5475E-03     38.1998E-03    -15.5151E-03     161.195E-03
             386     16.8362E-03     62.0686E-03    -2.86061E+06     152.626E+06     38.3487E+06     622.376E+03    -23.9365E-03     39.4161E-03    -15.4796E-03     225.524E-03    -29.1862E-03     45.0863E-03    -15.5050E-03     229.549E-03
             387     886.097E-06     62.2433E-03    -13.9412E+06    -62.9170E+06    -13.5402E+06    -151.076E+03    -15.5698E-03     31.1923E-03    -15.6225E-03     3.51888E-03    -15.5287E-03     30.9177E-03    -15.5787E-03     3.51643E-03
             388     1.77223E-03     62.2479E-03    -13.4737E+06    -61.8804E+06    -11.8307E+06    -246.843E+03    -15.5949E-03     31.1952E-03    -15.6003E-03     6.55696E-03    -15.5555E-03     30.9226E-03    -15.5502E-03     6.55282E-03
             389     2.65834E-03     62.2555E-03    -12.2943E+06    -60.6523E+06    -9.19379E+06    -136.806E+03    -15.5978E-03     31.2039E-03    -15.6061E-03     9.79765E-03    -15.5581E-03     30.9320E-03    -15.5463E-03     9.79444E-03
             390     3.54449E-03     62.2661E-03    -10.7228E+06    -58.9995E+06    -6.06935E+06    -274.279E+03    -15.6088E-03     31.2213E-03    -15.6125E-03     13.1645E-03    -15.5684E-03     30.9510E-03    -15.5417E-03     13.1590E-03
             391     4.43062E-03     62.2799E-03    -9.10911E+06    -60.2229E+06    -2.63787E+06    -96.9459E+03    -15.6423E-03     31.2677E-03    -15.6254E-03     16.6530E-03    -15.5973E-03     30.9842E-03    -15.5381E-03     16.6491E-03
             392     5.31676E-03     62.2971E-03    -7.28566E+06    -59.9980E+06     38.2039E+03     360.783E+03    -15.6863E-03     31.3203E-03    -15.6339E-03     20.3120E-03    -15.6367E-03     31.0316E-03    -15.5362E-03     20.3133E-03
             393     6.20285E-03     62.3177E-03    -5.51580E+06    -56.8878E+06     1.85655E+06    -40.3864E+03    -15.7285E-03     31.3632E-03    -15.6347E-03     24.1590E-03    -15.6775E-03     31.0854E-03    -15.5350E-03     24.1542E-03
             394     7.08906E-03     62.3420E-03    -4.57268E+06    -60.0877E+06     3.36930E+06    -415.592E+03    -15.7956E-03     31.4405E-03    -15.6449E-03     28.1331E-03    -15.7382E-03     31.1437E-03    -15.5343E-03     28.1223E-03
             395     7.97511E-03     62.3700E-03    -4.19026E+06    -61.3246E+06     3.41330E+06    -135.876E+03    -15.8676E-03     31.5140E-03    -15.6464E-03     32.2918E-03    -15.8075E-03     31.2114E-03    -15.5344E-03     32.2830E-03
             396     8.86129E-03     62.4021E-03    -2.83097E+06    -56.9691E+06     4.30171E+06     490.168E+03    -15.9431E-03     31.5861E-03    -15.6430E-03     36.5305E-03    -15.8854E-03     31.3037E-03    -15.5348E-03     36.5276E-03
             397     9.74736E-03     62.4380E-03    -1.15753E+06    -54.5138E+06     5.06075E+06     742.954E+03    -16.0365E-03     31.6781E-03    -15.6416E-03     40.7928E-03    -15.9776E-03     31.4069E-03    -15.5356E-03     40.7900E-03
             398     10.6335E-03     62.4781E-03    -1.38692E+06    -53.2635E+06     1.87666E+06     1.28056E+06    -16.1218E-03     31.7467E-03    -15.6249E-03     45.0468E-03    -16.0652E-03     31.4906E-03    -15.5363E-03     45.0468E-03
             399     11.5196E-03     62.5219E-03    -2.80669E+06    -44.7595E+06     1.43415E+06     1.24104E+06    -16.1840E-03     31.7960E-03    -15.6120E-03     49.4762E-03    -16.1525E-03     31.5914E-03    -15.5358E-03     49.4705E-03
             400     12.4058E-03     62.5701E-03    -2.83298E+06    -36.7970E+06     1.09280E+06     147.187E+03    -16.3688E-03     31.9667E-03    -15.5979E-03     56.5978E-03    -16.3608E-03     31.8149E-03    -15.5350E-03     56.5708E-03
             401     13.2919E-03     62.6271E-03    -1.84909E+06    -36.0512E+06    -6.74600E+06     163.381E+03    -16.4206E-03     31.9756E-03    -15.5550E-03     59.3809E-03    -16.4142E-03     31.8543E-03    -15.5338E-03     59.3464E-03
             402     14.1783E-03     62.6808E-03    -2.48805E+06    -19.3752E+06    -8.84711E+06     671.729E+03    -16.4528E-03     31.9704E-03    -15.5175E-03     63.8457E-03    -16.5032E-03     31.9688E-03    -15.5300E-03     63.8132E-03
             403     15.0641E-03     62.7456E-03    -3.91482E+06     19.1157E+06    -9.91365E+06    -26.5503E+03    -17.7507E-03     33.2052E-03    -15.4545E-03     96.1234E-03    -18.0460E-03     33.5832E-03    -15.5261E-03     96.1011E-03
             404     15.9502E-03     62.8596E-03    -5.41689E+06     81.2488E+06    -13.5892E+06    -534.954E+03    -20.8999E-03     36.2461E-03    -15.3462E-03     160.731E-03    -22.6434E-03     38.2983E-03    -15.5241E-03     161.254E-03
             405     16.8369E-03     63.0478E-03    -4.24528E+06     152.193E+06     37.4397E+06     104.831E+03    -23.8269E-03     39.3124E-03    -15.4855E-03     225.734E-03    -29.0890E-03     44.9912E-03    -15.5128E-03     229.767E-03
             406     886.114E-06     63.2213E-03    -14.1812E+06    -62.8679E+06    -13.6717E+06     94.8666E+03    -15.5904E-03     31.1951E-03    -15.6047E-03     3.52812E-03    -15.5503E-03     30.9213E-03    -15.5613E-03     3.52884E-03
             407     1.77222E-03     63.2259E-03    -13.6551E+06    -61.5464E+06    -11.8711E+06    -112.207E+03    -15.5970E-03     31.1993E-03    -15.6023E-03     6.55709E-03    -15.5589E-03     30.9286E-03    -15.5526E-03     6.55469E-03
             408     2.65834E-03     63.2335E-03    -12.8168E+06    -60.6488E+06    -9.39511E+06    -330.527E+03    -15.6002E-03     31.2091E-03    -15.6088E-03     9.80054E-03    -15.5629E-03     30.9382E-03    -15.5493E-03     9.79483E-03
             409     3.54447E-03     63.2441E-03    -11.8614E+06    -58.7248E+06    -6.46106E+06    -314.260E+03    -15.6149E-03     31.2309E-03    -15.6159E-03     13.1669E-03    -15.5800E-03     30.9641E-03    -15.5459E-03     13.1609E-03
             410     4.43059E-03     63.2580E-03    -10.5636E+06    -60.4303E+06    -3.65752E+06    -429.288E+03    -15.6468E-03     31.2750E-03    -15.6283E-03     16.6599E-03    -15.6072E-03     30.9940E-03    -15.5436E-03     16.6517E-03
             411     5.31671E-03     63.2751E-03    -8.65020E+06    -59.9694E+06    -1.99175E+06    -685.156E+03    -15.6798E-03     31.3109E-03    -15.6310E-03     20.3380E-03    -15.6341E-03     31.0273E-03    -15.5415E-03     20.3259E-03
             412     6.20290E-03     63.2958E-03    -7.14695E+06    -56.9111E+06     302.014E+03    -262.262E+03    -15.7270E-03     31.3610E-03    -15.6340E-03     24.1741E-03    -15.6819E-03     31.0876E-03    -15.5396E-03     24.1665E-03
             413     7.08895E-03     63.3200E-03    -6.55038E+06    -60.2586E+06     2.75108E+06     329.570E+03    -15.8064E-03     31.4568E-03    -15.6504E-03     28.1340E-03    -15.7578E-03     31.1630E-03    -15.5397E-03     28.1328E-03
             414     7.97511E-03     63.3482E-03    -6.02932E+06    -61.2887E+06     2.40874E+06     178.541E+03    -15.8763E-03     31.5272E-03    -15.6509E-03     32.2966E-03    -15.8241E-03     31.2290E-03    -15.5412E-03     32.2918E-03
             415     8.86118E-03     63.3801E-03    -5.16040E+06    -56.8386E+06     1.53336E+06    -642.666E+03    -15.9369E-03     31.5764E-03    -15.6395E-03     36.5820E-03    -15.8870E-03     31.3020E-03    -15.5419E-03     36.5644E-03
             416     9.74735E-03     63.4162E-03    -3.83551E+06    -55.4450E+06     2.10997E+06    -244.359E+03    -16.0333E-03     31.6720E-03    -15.6387E-03     40.8377E-03    -15.9821E-03     31.4043E-03    -15.5422E-03     40.8222E-03
             417     10.6334E-03     63.4561E-03    -2.28694E+06    -54.9950E+06     850.991E+03     1.51143E+06    -16.1375E-03     31.7680E-03    -15.6305E-03     45.0303E-03    -16.0814E-03     31.5062E-03    -15.5432E-03     45.0332E-03
             418     11.5195E-03     63.5000E-03    -926.097E+03    -43.4999E+06     1.94822E+06     1.69713E+06    -16.2139E-03     31.8318E-03    -15.6179E-03     49.4677E-03    -16.1756E-03     31.6301E-03    -15.5437E-03     49.4678E-03
             419     12.4057E-03     63.5482E-03    -701.191E+03    -35.3877E+06     1.87769E+06     275.628E+03    -16.3892E-03     31.9945E-03    -15.6053E-03     56.6188E-03    -16.3737E-03     31.8455E-03    -15.5436E-03     56.5934E-03
             420     13.2916E-03     63.6055E-03    -2.01895E+06    -37.6345E+06    -7.82968E+06     453.968E+03    -16.4455E-03     32.0069E-03    -15.5614E-03     59.2561E-03    -16.4361E-03     31.8794E-03    -15.5431E-03     59.2253E-03
             421     14.1779E-03     63.6582E-03    -2.87338E+06    -19.5293E+06    -10.0349E+06     1.24553E+06    -16.4774E-03     32.0002E-03    -15.5229E-03     63.5947E-03    -16.5277E-03     32.0001E-03    -15.5405E-03     63.5693E-03
             422     15.0645E-03     63.7244E-03    -3.30494E+06     20.3177E+06    -9.47416E+06     556.707E+03    -17.7547E-03     33.2197E-03    -15.4650E-03     96.1181E-03    -18.0499E-03     33.6027E-03    -15.5370E-03     96.1028E-03
             423     15.9502E-03     63.8379E-03    -3.41109E+06     81.0466E+06    -13.0785E+06     89.5915E+03    -20.7803E-03     36.1333E-03    -15.3530E-03     160.809E-03    -22.5190E-03     38.1856E-03    -15.5310E-03     161.346E-03
             424     16.8365E-03     64.0254E-03    -3.03359E+06     152.323E+06     38.8682E+06     103.746E+03    -23.8836E-03     39.3796E-03    -15.4961E-03     225.428E-03    -29.1393E-03     45.0526E-03    -15.5182E-03     229.453E-03
             425     886.113E-06     64.1994E-03    -13.9650E+06    -63.0114E+06    -13.7399E+06     29.0277E+03    -15.6001E-03     31.2010E-03    -15.6009E-03     3.52185E-03    -15.5586E-03     30.9263E-03    -15.5580E-03     3.52172E-03
             426     1.77222E-03     64.2040E-03    -13.2363E+06    -61.1816E+06    -11.3201E+06    -48.7995E+03    -15.5997E-03     31.2060E-03    -15.6063E-03     6.54549E-03    -15.5609E-03     30.9358E-03    -15.5550E-03     6.54391E-03
             427     2.65834E-03     64.2115E-03    -12.1437E+06    -60.5678E+06    -7.96079E+06    -122.205E+03    -15.6129E-03     31.2314E-03    -15.6185E-03     9.79513E-03    -15.5744E-03     30.9579E-03    -15.5529E-03     9.79210E-03
             428     3.54444E-03     64.2222E-03    -10.9012E+06    -58.7508E+06    -5.61880E+06    -58.2183E+03    -15.6246E-03     31.2485E-03    -15.6239E-03     13.1647E-03    -15.5861E-03     30.9790E-03    -15.5509E-03     13.1619E-03
             429     4.43057E-03     64.2360E-03    -9.66481E+06    -59.6755E+06    -3.49634E+06    -515.607E+03    -15.6507E-03     31.2822E-03    -15.6314E-03     16.6674E-03    -15.6080E-03     31.0034E-03    -15.5484E-03     16.6581E-03
             430     5.31671E-03     64.2532E-03    -9.02519E+06    -59.9474E+06    -2.10689E+06    -727.160E+03    -15.6875E-03     31.3233E-03    -15.6357E-03     20.3401E-03    -15.6435E-03     31.0405E-03    -15.5463E-03     20.3274E-03
             431     6.20280E-03     64.2738E-03    -8.54917E+06    -57.9517E+06    -1.21584E+06    -43.2079E+03    -15.7316E-03     31.3669E-03    -15.6353E-03     24.1905E-03    -15.6898E-03     31.0926E-03    -15.5449E-03     24.1857E-03
             432     7.08898E-03     64.2982E-03    -7.40270E+06    -60.5757E+06     1.50387E+06     552.260E+03    -15.8089E-03     31.4602E-03    -15.6512E-03     28.1530E-03    -15.7623E-03     31.1678E-03    -15.5451E-03     28.1547E-03
             433     7.97502E-03     64.3262E-03    -6.03027E+06    -60.5003E+06     2.71254E+06     159.490E+03    -15.8816E-03     31.5382E-03    -15.6567E-03     32.2967E-03    -15.8309E-03     31.2435E-03    -15.5466E-03     32.2917E-03
             434     8.86116E-03     64.3583E-03    -5.35653E+06    -55.9427E+06     1.34438E+06    -539.853E+03    -15.9408E-03     31.5838E-03    -15.6430E-03     36.5925E-03    -15.8929E-03     31.3144E-03    -15.5474E-03     36.5763E-03
             435     9.74726E-03     64.3942E-03    -5.27905E+06    -56.5919E+06     315.315E+03    -614.896E+03    -16.0344E-03     31.6733E-03    -15.6389E-03     40.8754E-03    -15.9862E-03     31.4046E-03    -15.5476E-03     40.8551E-03
             436     10.6334E-03     64.4343E-03    -4.31561E+06    -56.3409E+06    -1.69975E+06    -165.949E+03    -16.1519E-03     31.7804E-03    -15.6285E-03     45.0761E-03    -16.1003E-03     31.5184E-03    -15.5490E-03     45.0574E-03
             437     11.5194E-03     64.4780E-03    -2.35993E+06    -42.9636E+06     525.298E+03     65.5275E+03    -16.2366E-03     31.8558E-03    -15.6192E-03     49.5730E-03    -16.2042E-03     31.6610E-03    -15.5508E-03     49.5520E-03
             438     12.4055E-03     64.5265E-03    -1.54613E+06    -35.6409E+06     2.04768E+06     1.08809E+06    -16.3497E-03     31.9639E-03    -15.6142E-03     56.5939E-03    -16.3383E-03     31.8145E-03    -15.5500E-03     56.5790E-03
             439     13.2919E-03     64.5833E-03    -1.63298E+06    -37.5137E+06    -6.85101E+06     995.255E+03    -16.5120E-03     32.0843E-03    -15.5723E-03     59.4236E-03    -16.5023E-03     31.9555E-03    -15.5498E-03     59.3996E-03
             440     14.1776E-03     64.6370E-03    -1.26603E+06    -20.1766E+06    -9.96469E+06     596.528E+03    -16.6880E-03     32.2241E-03    -15.5362E-03     63.7253E-03    -16.7302E-03     32.2191E-03    -15.5549E-03     63.6908E-03
             441     15.0634E-03     64.7018E-03    -1.80086E+06     21.0842E+06    -9.35585E+06     1.12812E+06    -17.5384E-03     33.0139E-03    -15.4755E-03     96.0110E-03    -17.8259E-03     33.3970E-03    -15.5502E-03     96.0051E-03
             442     15.9504E-03     64.8164E-03    -3.41360E+06     82.3537E+06    -12.8671E+06     527.224E+03    -20.9265E-03     36.2881E-03    -15.3616E-03     161.081E-03    -22.6702E-03     38.3494E-03    -15.5404E-03     161.617E-03
             443     16.8368E-03     65.0033E-03    -3.27841E+06     151.620E+06     36.6830E+06     457.368E+03    -24.0119E-03     39.5158E-03    -15.5039E-03     224.870E-03    -29.2615E-03     45.1856E-03    -15.5356E-03     228.905E-03
             444     886.079E-06     65.1775E-03    -14.0408E+06    -62.9151E+06    -13.5681E+06    -161.941E+03    -15.6078E-03     31.2138E-03    -15.6060E-03     3.51984E-03    -15.5671E-03     30.9394E-03    -15.5623E-03     3.51725E-03
             445     1.77222E-03     65.1820E-03    -13.3021E+06    -61.1965E+06    -11.4217E+06    -34.8796E+03    -15.6051E-03     31.2172E-03    -15.6121E-03     6.54653E-03    -15.5664E-03     30.9472E-03    -15.5612E-03     6.54512E-03
             446     2.65830E-03     65.1897E-03    -12.2208E+06    -60.4421E+06    -8.39238E+06    -43.0356E+03    -15.6159E-03     31.2378E-03    -15.6219E-03     9.79898E-03    -15.5774E-03     30.9656E-03    -15.5585E-03     9.79697E-03
             447     3.54443E-03     65.2003E-03    -10.5519E+06    -58.4367E+06    -5.78554E+06    -441.434E+03    -15.6273E-03     31.2541E-03    -15.6268E-03     13.1695E-03    -15.5873E-03     30.9859E-03    -15.5557E-03     13.1618E-03
             448     4.43057E-03     65.2141E-03    -8.99156E+06    -59.2622E+06    -2.99237E+06    -498.834E+03    -15.6598E-03     31.2967E-03    -15.6369E-03     16.6671E-03    -15.6151E-03     31.0183E-03    -15.5529E-03     16.6580E-03
             449     5.31667E-03     65.2313E-03    -7.95600E+06    -60.4774E+06    -854.707E+03     33.5424E+03    -15.7048E-03     31.3515E-03    -15.6466E-03     20.3262E-03    -15.6566E-03     31.0627E-03    -15.5517E-03     20.3232E-03
             450     6.20282E-03     65.2519E-03    -7.16479E+06    -58.4087E+06    -296.326E+03     284.691E+03    -15.7447E-03     31.3893E-03    -15.6446E-03     24.1842E-03    -15.6967E-03     31.1094E-03    -15.5510E-03     24.1837E-03
             451     7.08888E-03     65.2763E-03    -6.16645E+06    -60.7818E+06     990.308E+03     197.090E+03    -15.8069E-03     31.4592E-03    -15.6524E-03     28.1803E-03    -15.7529E-03     31.1648E-03    -15.5504E-03     28.1774E-03
             452     7.97502E-03     65.3044E-03    -5.41990E+06    -60.1291E+06     2.57082E+06     348.670E+03    -15.8776E-03     31.5359E-03    -15.6582E-03     32.3215E-03    -15.8242E-03     31.2423E-03    -15.5503E-03     32.3189E-03
             453     8.86111E-03     65.3363E-03    -5.21924E+06    -55.2699E+06     1.70351E+06     88.3319E+03    -15.9455E-03     31.5923E-03    -15.6468E-03     36.6102E-03    -15.8985E-03     31.3256E-03    -15.5506E-03     36.6021E-03
             454     9.74723E-03     65.3724E-03    -5.22394E+06    -56.9250E+06    -85.8925E+03    -32.4230E+03    -16.0384E-03     31.6790E-03    -15.6406E-03     40.9094E-03    -15.9889E-03     31.4091E-03    -15.5509E-03     40.8967E-03
             455     10.6333E-03     65.4123E-03    -5.47272E+06    -55.6274E+06    -3.66255E+06    -810.409E+03    -16.1552E-03     31.7778E-03    -15.6226E-03     45.1621E-03    -16.1076E-03     31.5239E-03    -15.5523E-03     45.1351E-03
             456     11.5194E-03     65.4563E-03    -5.75725E+06    -43.7847E+06    -2.58109E+06    -892.452E+03    -16.2205E-03     31.8333E-03    -15.6128E-03     49.6522E-03    -16.1994E-03     31.6438E-03    -15.5538E-03     49.6189E-03
             457     12.4056E-03     65.5045E-03    -4.76053E+06    -37.1779E+06    -621.126E+03     149.627E+03    -16.4288E-03     32.0421E-03    -15.6133E-03     56.5635E-03    -16.4275E-03     31.8937E-03    -15.5556E-03     56.5363E-03
             458     13.2916E-03     65.5613E-03    -3.60877E+06    -36.6782E+06    -8.39178E+06     388.256E+03    -16.4917E-03     32.0661E-03    -15.5744E-03     59.3353E-03    -16.4910E-03     31.9467E-03    -15.5579E-03     59.3034E-03
             459     14.1778E-03     65.6155E-03    -3.92060E+06    -20.2014E+06    -10.9352E+06    -274.520E+03    -16.6561E-03     32.1977E-03    -15.5416E-03     64.0310E-03    -16.7101E-03     32.1978E-03    -15.5613E-03     63.9855E-03
             460     15.0637E-03     65.6802E-03    -2.86707E+06     21.1149E+06    -9.74695E+06    -138.732E+03    -18.0587E-03     33.5555E-03    -15.4968E-03     95.2801E-03    -18.3556E-03     33.9454E-03    -15.5720E-03     95.2539E-03
             461     15.9508E-03     65.7927E-03    -4.14272E+06     82.5727E+06    -12.5812E+06     1.83861E+06    -20.2797E-03     35.6625E-03    -15.3827E-03     160.791E-03    -22.0014E-03     37.6991E-03    -15.5593E-03     161.360E-03
             462     16.8343E-03     65.9858E-03    -4.73153E+06     151.399E+06     34.1209E+06     1.28056E+06    -23.2955E-03     38.7634E-03    -15.4678E-03     227.334E-03    -28.5846E-03     44.4743E-03    -15.5099E-03     231.426E-03
             463     886.118E-06     66.1555E-03    -14.2359E+06    -62.6779E+06    -13.7970E+06    -51.4995E+03    -15.6198E-03     31.2234E-03    -15.6037E-03     3.51057E-03    -15.5800E-03     30.9508E-03    -15.5611E-03     3.50940E-03
             464     1.77217E-03     66.1601E-03    -13.8240E+06    -61.4827E+06    -12.3282E+06     18.2341E+03    -15.6106E-03     31.2254E-03    -15.6147E-03     6.55273E-03    -15.5728E-03     30.9559E-03    -15.5672E-03     6.55201E-03
             465     2.65831E-03     66.1677E-03    -12.7977E+06    -59.8992E+06    -9.87071E+06    -224.995E+03    -15.6133E-03     31.2329E-03    -15.6196E-03     9.80753E-03    -15.5763E-03     30.9664E-03    -15.5635E-03     9.80317E-03
             466     3.54442E-03     66.1784E-03    -11.6963E+06    -57.8410E+06    -6.56412E+06    -717.615E+03    -15.6309E-03     31.2591E-03    -15.6282E-03     13.1779E-03    -15.5963E-03     30.9967E-03    -15.5602E-03     13.1667E-03
             467     4.43052E-03     66.1922E-03    -10.3942E+06    -59.5477E+06    -3.39472E+06    -628.530E+03    -15.6687E-03     31.3121E-03    -15.6434E-03     16.6678E-03    -15.6300E-03     31.0349E-03    -15.5589E-03     16.6571E-03
             468     5.31664E-03     66.2094E-03    -8.37377E+06    -60.8010E+06    -1.39307E+06    -488.341E+03    -15.7105E-03     31.3624E-03    -15.6519E-03     20.3301E-03    -15.6631E-03     31.0735E-03    -15.5586E-03     20.3205E-03
             469     6.20271E-03     66.2300E-03    -6.10868E+06    -58.6373E+06    -235.645E+03    -237.381E+03    -15.7480E-03     31.3979E-03    -15.6500E-03     24.1909E-03    -15.6945E-03     31.1153E-03    -15.5573E-03     24.1836E-03
             470     7.08889E-03     66.2544E-03    -4.78659E+06    -60.9003E+06     1.33448E+06     109.497E+03    -15.8067E-03     31.4639E-03    -15.6572E-03     28.1857E-03    -15.7463E-03     31.1664E-03    -15.5553E-03     28.1817E-03
             471     7.97501E-03     66.2824E-03    -3.52277E+06    -60.2949E+06     3.24903E+06     156.703E+03    -15.8821E-03     31.5449E-03    -15.6629E-03     32.3284E-03    -15.8199E-03     31.2468E-03    -15.5541E-03     32.3233E-03
             472     8.86113E-03     66.3145E-03    -2.68272E+06    -55.6998E+06     4.19073E+06     928.197E+03    -15.9641E-03     31.6239E-03    -15.6598E-03     36.5678E-03    -15.9074E-03     31.3477E-03    -15.5542E-03     36.5705E-03
             473     9.74723E-03     66.3504E-03    -2.86424E+06    -56.3129E+06     3.12274E+06     826.772E+03    -16.0624E-03     31.7193E-03    -15.6568E-03     40.8333E-03    -16.0067E-03     31.4444E-03    -15.5554E-03     40.8316E-03
             474     10.6333E-03     66.3905E-03    -3.24015E+06    -54.4699E+06    -988.036E+03    -6.41675E+03    -16.1715E-03     31.8080E-03    -15.6365E-03     45.0918E-03    -16.1184E-03     31.5529E-03    -15.5578E-03     45.0751E-03
             475     11.5194E-03     66.4344E-03    -3.76294E+06    -44.5084E+06    -309.124E+03    -148.912E+03    -16.2530E-03     31.8818E-03    -15.6289E-03     49.4891E-03    -16.2242E-03     31.6826E-03    -15.5604E-03     49.4653E-03
             476     12.4055E-03     66.4827E-03    -4.35526E+06    -37.4997E+06     255.437E+03    -198.848E+03    -16.4827E-03     32.1092E-03    -15.6265E-03     56.6495E-03    -16.4803E-03     31.9575E-03    -15.5646E-03     56.6177E-03
             477     13.2912E-03     66.5401E-03    -5.01010E+06    -36.8070E+06    -8.91307E+06     76.6616E+03    -16.5318E-03     32.1175E-03    -15.5857E-03     59.1702E-03    -16.5373E-03     32.0004E-03    -15.5696E-03     59.1341E-03
             478     14.1777E-03     66.5924E-03    -5.60151E+06    -19.3004E+06    -11.7531E+06     89.7405E+03    -16.5418E-03     32.0896E-03    -15.5479E-03     64.0567E-03    -16.6038E-03     32.0974E-03    -15.5705E-03     64.0162E-03
             479     15.0636E-03     66.6601E-03    -7.23692E+06     19.8330E+06    -12.3409E+06    -429.354E+03    -18.3073E-03     33.8100E-03    -15.5027E-03     96.7423E-03    -18.6243E-03     34.2074E-03    -15.5827E-03     96.7112E-03
             480     15.9457E-03     66.7723E-03    -4.61345E+06     80.5447E+06    -16.0557E+06     859.882E+03    -19.9534E-03     35.3360E-03    -15.3827E-03     158.234E-03    -21.6278E-03     37.3264E-03    -15.5730E-03     158.793E-03
             481     16.8433E-03     66.9544E-03    -1.05719E+06     152.876E+06     35.7099E+06     1.15999E+06    -22.9410E-03     38.4109E-03    -15.4699E-03     226.850E-03    -28.2563E-03     44.1617E-03    -15.5115E-03     230.909E-03
             482     886.071E-06     67.1336E-03    -14.5879E+06    -62.6795E+06    -14.3354E+06     28.1141E+03    -15.6045E-03     31.2258E-03    -15.6213E-03     3.50620E-03    -15.5657E-03     30.9545E-03    -15.5810E-03     3.50606E-03
             483     1.77220E-03     67.1382E-03    -13.8334E+06    -61.2861E+06    -12.5110E+06    -171.104E+03    -15.6163E-03     31.2333E-03    -15.6169E-03     6.55405E-03    -15.5786E-03     30.9651E-03    -15.5706E-03     6.55088E-03
             484     2.65829E-03     67.1458E-03    -12.7680E+06    -59.4587E+06    -9.58402E+06    -422.353E+03    -15.6228E-03     31.2481E-03    -15.6252E-03     9.80805E-03    -15.5867E-03     30.9834E-03    -15.5684E-03     9.80114E-03
             485     3.54440E-03     67.1565E-03    -11.7248E+06    -57.5194E+06    -6.48011E+06    -374.442E+03    -15.6383E-03     31.2726E-03    -15.6343E-03     13.1804E-03    -15.6044E-03     31.0117E-03    -15.5663E-03     13.1735E-03
             486     4.43050E-03     67.1703E-03    -10.8943E+06    -59.7045E+06    -3.99851E+06    -358.927E+03    -15.6706E-03     31.3179E-03    -15.6473E-03     16.6752E-03    -15.6333E-03     31.0416E-03    -15.5650E-03     16.6679E-03
             487     5.31658E-03     67.1875E-03    -10.3431E+06    -60.1374E+06    -3.39526E+06    -805.529E+03    -15.7006E-03     31.3496E-03    -15.6489E-03     20.3575E-03    -15.6611E-03     31.0696E-03    -15.5637E-03     20.3438E-03
             488     6.20274E-03     67.2081E-03    -9.70085E+06    -59.1551E+06    -2.81999E+06    -976.949E+03    -15.7392E-03     31.3867E-03    -15.6475E-03     24.2152E-03    -15.6991E-03     31.1104E-03    -15.5618E-03     24.1983E-03
             489     7.08883E-03     67.2325E-03    -7.84260E+06    -60.7806E+06    -378.840E+03    -879.096E+03    -15.8068E-03     31.4647E-03    -15.6579E-03     28.2035E-03    -15.7593E-03     31.1746E-03    -15.5603E-03     28.1868E-03
             490     7.97492E-03     67.2606E-03    -5.90953E+06    -60.6108E+06     1.60417E+06    -742.244E+03    -15.8861E-03     31.5506E-03    -15.6644E-03     32.3472E-03    -15.8331E-03     31.2567E-03    -15.5600E-03     32.3305E-03
             491     8.86103E-03     67.2926E-03    -4.20052E+06    -57.6385E+06     2.72889E+06     510.487E+03    -15.9718E-03     31.6357E-03    -15.6639E-03     36.5814E-03    -15.9177E-03     31.3542E-03    -15.5606E-03     36.5787E-03
             492     9.74708E-03     67.3287E-03    -2.67995E+06    -55.1674E+06     3.18824E+06     1.07665E+06    -16.0750E-03     31.7371E-03    -15.6622E-03     40.8595E-03    -16.0201E-03     31.4676E-03    -15.5623E-03     40.8609E-03
             493     10.6331E-03     67.3686E-03    -2.41642E+06    -54.3117E+06    -1.34920E+06     648.794E+03    -16.1905E-03     31.8312E-03    -15.6407E-03     45.1437E-03    -16.1329E-03     31.5761E-03    -15.5652E-03     45.1355E-03
             494     11.5192E-03     67.4127E-03    -2.78413E+06    -44.5370E+06    -1.10127E+06     667.421E+03    -16.2659E-03     31.8970E-03    -15.6310E-03     49.6281E-03    -16.2310E-03     31.6973E-03    -15.5679E-03     49.6148E-03
             495     12.4051E-03     67.4609E-03    -3.12972E+06    -37.3208E+06    -12.6392E+03     603.927E+03    -16.3830E-03     32.0093E-03    -15.6263E-03     56.8687E-03    -16.3741E-03     31.8569E-03    -15.5677E-03     56.8476E-03
             496     13.2917E-03     67.5182E-03    -3.10914E+06    -36.7327E+06    -8.51495E+06     290.592E+03    -16.5616E-03     32.1458E-03    -15.5842E-03     59.5516E-03    -16.5581E-03     32.0256E-03    -15.5690E-03     59.5183E-03
             497     14.1768E-03     67.5712E-03    -3.32859E+06    -19.4814E+06    -10.8186E+06     650.880E+03    -16.7175E-03     32.2716E-03    -15.5540E-03     64.3095E-03    -16.7702E-03     32.2746E-03    -15.5750E-03     64.2756E-03
             498     15.0637E-03     67.6371E-03    -3.66066E+06     19.4066E+06    -11.5035E+06     1.12838E+06    -17.5469E-03     33.0349E-03    -15.4881E-03     97.2227E-03    -17.8348E-03     33.4121E-03    -15.5684E-03     97.2172E-03
             499     15.9533E-03     67.7533E-03    -5.15637E+06     80.4517E+06    -15.6328E+06     -985.42E+03    -21.0787E-03     36.4606E-03    -15.3819E-03     157.587E-03    -22.7742E-03     38.4685E-03    -15.5692E-03     158.073E-03
             500     16.8284E-03     67.9283E-03    -3.76039E+06     152.483E+06     35.6688E+06    -1.22775E+06    -23.7783E-03     39.3049E-03    -15.5266E-03     226.531E-03    -29.1443E-03     45.0956E-03    -15.5639E-03     230.567E-03
             501     886.111E-06     68.1117E-03    -14.8719E+06    -62.4554E+06    -14.5306E+06    -170.765E+03    -15.5965E-03     31.2297E-03    -15.6333E-03     3.53547E-03    -15.5592E-03     30.9602E-03    -15.5938E-03     3.53275E-03
             502     1.77218E-03     68.1163E-03    -14.1318E+06    -60.8975E+06    -12.3463E+06    -400.324E+03    -15.6246E-03     31.2469E-03    -15.6222E-03     6.55475E-03    -15.5892E-03     30.9808E-03    -15.5752E-03     6.54862E-03
             503     2.65827E-03     68.1239E-03    -13.2169E+06    -59.3213E+06    -9.66040E+06    -335.325E+03    -15.6301E-03     31.2620E-03    -15.6319E-03     9.80641E-03    -15.5964E-03     30.9988E-03    -15.5750E-03     9.80062E-03
             504     3.54437E-03     68.1345E-03    -12.0051E+06    -57.4797E+06    -7.24923E+06    -334.705E+03    -15.6375E-03     31.2745E-03    -15.6371E-03     13.1895E-03    -15.6040E-03     31.0154E-03    -15.5726E-03     13.1832E-03
             505     4.43047E-03     68.1484E-03    -10.1206E+06    -59.3432E+06    -4.02407E+06    -555.513E+03    -15.6688E-03     31.3188E-03    -15.6500E-03     16.6851E-03    -15.6280E-03     31.0431E-03    -15.5694E-03     16.6753E-03
             506     5.31662E-03     68.1655E-03    -8.49563E+06    -60.1176E+06    -1.22056E+06    -257.286E+03    -15.7128E-03     31.3735E-03    -15.6608E-03     20.3390E-03    -15.6672E-03     31.0879E-03    -15.5674E-03     20.3324E-03
             507     6.20269E-03     68.1863E-03    -7.89339E+06    -58.6725E+06    -324.954E+03    -360.246E+03    -15.7570E-03     31.4182E-03    -15.6612E-03     24.1891E-03    -15.7123E-03     31.1381E-03    -15.5663E-03     24.1802E-03
             508     7.08880E-03     68.2105E-03    -8.02898E+06    -60.3000E+06    -294.168E+03    -1.13132E+06    -15.8142E-03     31.4775E-03    -15.6633E-03     28.2117E-03    -15.7684E-03     31.1900E-03    -15.5657E-03     28.1917E-03
             509     7.97491E-03     68.2387E-03    -7.83415E+06    -61.1951E+06    -216.533E+03    -933.278E+03    -15.8829E-03     31.5474E-03    -15.6644E-03     32.3857E-03    -15.8360E-03     31.2560E-03    -15.5654E-03     32.3667E-03
             510     8.86097E-03     68.2707E-03    -6.58666E+06    -58.2889E+06    -452.850E+03    -1.02515E+06    -15.9552E-03     31.6121E-03    -15.6569E-03     36.6723E-03    -15.9074E-03     31.3354E-03    -15.5651E-03     36.6499E-03
             511     9.74713E-03     68.3068E-03    -4.39076E+06    -55.9489E+06     483.864E+03    -395.250E+03    -16.0550E-03     31.7099E-03    -15.6549E-03     40.9915E-03    -16.0035E-03     31.4429E-03    -15.5650E-03     40.9741E-03
             512     10.6332E-03     68.3468E-03    -3.04583E+06    -54.5720E+06    -1.57318E+06     839.603E+03    -16.1672E-03     31.8088E-03    -15.6416E-03     45.2443E-03    -16.1120E-03     31.5536E-03    -15.5659E-03     45.2386E-03
             513     11.5193E-03     68.3908E-03    -2.91049E+06    -44.6328E+06    -1.00028E+06     952.616E+03    -16.2215E-03     31.8514E-03    -15.6298E-03     49.7395E-03    -16.1872E-03     31.6512E-03    -15.5659E-03     49.7300E-03
             514     12.4056E-03     68.4391E-03    -2.71500E+06    -36.9901E+06     224.932E+03     845.080E+03    -16.3253E-03     31.9462E-03    -15.6209E-03     56.7890E-03    -16.3149E-03     31.7942E-03    -15.5622E-03     56.7712E-03
             515     13.2915E-03     68.4961E-03    -3.15902E+06    -36.7369E+06    -8.63642E+06     545.484E+03    -16.4498E-03     32.0225E-03    -15.5727E-03     59.7574E-03    -16.4462E-03     31.9023E-03    -15.5581E-03     59.7278E-03
             516     14.1782E-03     68.5500E-03    -3.38503E+06    -19.5107E+06    -11.0289E+06    -145.520E+03    -16.8406E-03     32.3831E-03    -15.5425E-03     64.6405E-03    -16.8939E-03     32.3872E-03    -15.5645E-03     64.5956E-03
             517     15.0629E-03     68.6156E-03    -2.77429E+06     19.7489E+06    -9.99814E+06    -378.401E+03    -17.4538E-03     32.9409E-03    -15.4870E-03     95.7942E-03    -17.7337E-03     33.3100E-03    -15.5616E-03     95.7682E-03
             518     15.9486E-03     68.7275E-03    -2.24723E+06     81.2064E+06    -13.1165E+06     104.465E+03    -20.4835E-03     35.8415E-03    -15.3579E-03     160.519E-03    -22.2179E-03     37.8941E-03    -15.5380E-03     161.042E-03
             519     16.8398E-03     68.9188E-03    -2.63943E+06     152.867E+06     36.9219E+06     88.1744E+03    -23.9749E-03     39.4563E-03    -15.4814E-03     226.883E-03    -29.2465E-03     45.1544E-03    -15.5146E-03     230.893E-03
             520     886.081E-06     69.0898E-03    -14.4628E+06    -61.8687E+06    -14.1536E+06    -422.293E+03    -15.6357E-03     31.2512E-03    -15.6155E-03     3.54647E-03    -15.5977E-03     30.9835E-03    -15.5756E-03     3.54050E-03
             521     1.77216E-03     69.0944E-03    -13.8798E+06    -60.6639E+06    -12.1668E+06    -389.574E+03    -15.6285E-03     31.2597E-03    -15.6312E-03     6.55512E-03    -15.5923E-03     30.9942E-03    -15.5840E-03     6.54913E-03
             522     2.65825E-03     69.1020E-03    -12.7484E+06    -59.2540E+06    -9.68376E+06    -396.649E+03    -15.6306E-03     31.2677E-03    -15.6371E-03     9.81219E-03    -15.5946E-03     31.0041E-03    -15.5811E-03     9.80562E-03
             523     3.54435E-03     69.1127E-03    -11.4907E+06    -57.2294E+06    -6.91566E+06    -479.321E+03    -15.6396E-03     31.2816E-03    -15.6419E-03     13.1962E-03    -15.6044E-03     31.0224E-03    -15.5768E-03     13.1880E-03
             524     4.43048E-03     69.1265E-03    -10.7434E+06    -58.9946E+06    -3.84564E+06    -608.820E+03    -15.6734E-03     31.3289E-03    -15.6555E-03     16.6892E-03    -15.6365E-03     31.0556E-03    -15.5736E-03     16.6787E-03
             525     5.31653E-03     69.1437E-03    -9.63406E+06    -60.7719E+06    -1.90784E+06    -423.495E+03    -15.7180E-03     31.3829E-03    -15.6649E-03     20.3452E-03    -15.6762E-03     31.0967E-03    -15.5723E-03     20.3363E-03
             526     6.20265E-03     69.1643E-03    -7.86381E+06     -57.995E+06    -577.793E+03    -294.945E+03    -15.7590E-03     31.4231E-03    -15.6640E-03     24.2041E-03    -15.7147E-03     31.1466E-03    -15.5714E-03     24.1961E-03
             527     7.08876E-03     69.1887E-03    -6.30654E+06    -59.7111E+06     884.976E+03    -533.087E+03    -15.8187E-03     31.4890E-03    -15.6703E-03     28.2114E-03    -15.7669E-03     31.2003E-03    -15.5702E-03     28.1990E-03
             528     7.97484E-03     69.2168E-03    -5.35127E+06    -61.4745E+06     827.840E+03    -768.856E+03    -15.8772E-03     31.5467E-03    -15.6695E-03     32.3931E-03    -15.8190E-03     31.2488E-03    -15.5684E-03     32.3761E-03
             529     8.86101E-03     69.2489E-03    -5.20799E+06    -57.3489E+06     429.721E+03    -1.09908E+06    -15.9452E-03     31.6043E-03    -15.6591E-03     36.6982E-03    -15.8932E-03     31.3290E-03    -15.5662E-03     36.6748E-03
             530     9.74709E-03     69.2849E-03    -5.60689E+06    -57.4150E+06     7.86259E+03    -1.11106E+06    -16.0321E-03     31.6880E-03    -15.6559E-03     41.0024E-03    -15.9839E-03     31.4160E-03    -15.5645E-03     40.9758E-03
             531     10.6332E-03     69.3251E-03    -4.98260E+06    -55.6510E+06    -2.32879E+06    -58.9951E+03    -16.1216E-03     31.7609E-03    -15.6393E-03     45.2400E-03    -16.0735E-03     31.5042E-03    -15.5630E-03     45.2228E-03
             532     11.5194E-03     69.3688E-03    -3.51889E+06    -44.2467E+06    -711.296E+03     325.896E+03    -16.2020E-03     31.8288E-03    -15.6269E-03     49.7090E-03    -16.1717E-03     31.6311E-03    -15.5612E-03     49.6914E-03
             533     12.4053E-03     69.4173E-03    -2.17269E+06    -37.3995E+06     311.683E+03     253.977E+03    -16.3098E-03     31.9255E-03    -15.6157E-03     56.6578E-03    -16.2962E-03     31.7705E-03    -15.5567E-03     56.6323E-03
             534     13.2918E-03     69.4740E-03    -1.27978E+06    -36.2145E+06    -7.82058E+06     341.690E+03    -16.4457E-03     32.0130E-03    -15.5673E-03     59.8168E-03    -16.4350E-03     31.8919E-03    -15.5521E-03     59.7844E-03
             535     14.1774E-03     69.5282E-03    -1.90266E+06    -18.8281E+06    -10.1470E+06    -370.692E+03    -16.4513E-03     31.9769E-03    -15.5256E-03     64.8929E-03    -16.4987E-03     31.9801E-03    -15.5462E-03     64.8468E-03
             536     15.0640E-03     69.5949E-03    -2.88309E+06     19.6944E+06    -10.3987E+06    -514.490E+03    -17.4226E-03     32.8772E-03    -15.4546E-03     96.1204E-03    -17.7071E-03     33.2515E-03    -15.5309E-03     96.0929E-03
             537     15.9516E-03     69.7041E-03    -4.17700E+06     80.7476E+06    -12.8270E+06        -185.625    -20.2423E-03     35.5686E-03    -15.3264E-03     160.608E-03    -21.9859E-03     37.6213E-03    -15.5015E-03     161.153E-03
             538     16.8380E-03     69.8933E-03    -3.59269E+06     152.915E+06     37.2611E+06     479.495E+03    -23.7650E-03     39.2100E-03    -15.4449E-03     224.327E-03    -28.9461E-03     44.8131E-03    -15.4752E-03     228.284E-03
             539     886.055E-06     70.0679E-03    -14.5779E+06    -61.1641E+06    -14.1593E+06    -367.663E+03    -15.6441E-03     31.2661E-03    -15.6220E-03     3.53014E-03    -15.6077E-03     31.0020E-03    -15.5830E-03     3.52488E-03
             540     1.77215E-03     70.0725E-03    -13.8986E+06    -60.4089E+06    -12.6415E+06    -534.176E+03    -15.6248E-03     31.2595E-03    -15.6347E-03     6.56738E-03    -15.5885E-03     30.9960E-03    -15.5901E-03     6.55953E-03
             541     2.65824E-03     70.0801E-03    -12.8490E+06    -58.8594E+06    -9.84635E+06    -717.569E+03    -15.6308E-03     31.2700E-03    -15.6391E-03     9.82211E-03    -15.5956E-03     31.0087E-03    -15.5844E-03     9.81139E-03
             542     3.54437E-03     70.0907E-03    -11.5974E+06    -57.4049E+06    -6.56223E+06    -503.038E+03    -15.6478E-03     31.2954E-03    -15.6477E-03     13.1979E-03    -15.6134E-03     31.0351E-03    -15.5804E-03     13.1894E-03
             543     4.43042E-03     70.1047E-03    -10.3685E+06    -59.0667E+06    -3.53813E+06     36.6217E+03    -15.6804E-03     31.3413E-03    -15.6610E-03     16.6916E-03    -15.6420E-03     31.0667E-03    -15.5780E-03     16.6894E-03
             544     5.31656E-03     70.1218E-03    -9.49964E+06    -60.4156E+06    -2.17186E+06    -321.419E+03    -15.7187E-03     31.3856E-03    -15.6670E-03     20.3573E-03    -15.6763E-03     31.1014E-03    -15.5764E-03     20.3498E-03
             545     6.20264E-03     70.1425E-03    -8.40119E+06    -57.5665E+06    -1.67616E+06    -1.03659E+06    -15.7521E-03     31.4140E-03    -15.6618E-03     24.2310E-03    -15.7096E-03     31.1421E-03    -15.5746E-03     24.2133E-03
             546     7.08874E-03     70.1668E-03    -6.83121E+06    -59.5181E+06     11.6161E+03    -1.19481E+06    -15.8070E-03     31.4752E-03    -15.6682E-03     28.2379E-03    -15.7568E-03     31.1894E-03    -15.5720E-03     28.2171E-03
             547     7.97487E-03     70.1949E-03    -5.82008E+06    -61.8441E+06     834.720E+03    -602.905E+03    -15.8750E-03     31.5466E-03    -15.6717E-03     32.3912E-03    -15.8186E-03     31.2476E-03    -15.5694E-03     32.3764E-03
             548     8.86098E-03     70.2269E-03    -5.57812E+06    -56.8192E+06     163.699E+03    -312.332E+03    -15.9346E-03     31.5925E-03    -15.6579E-03     36.7079E-03    -15.8848E-03     31.3208E-03    -15.5666E-03     36.6947E-03
             549     9.74709E-03     70.2632E-03    -5.36367E+06    -57.4636E+06    -609.159E+03    -535.440E+03    -16.0081E-03     31.6594E-03    -15.6513E-03     40.9853E-03    -15.9577E-03     31.3877E-03    -15.5633E-03     40.9661E-03
             550     10.6333E-03     70.3029E-03    -5.02019E+06    -56.1875E+06    -4.87812E+06    -981.325E+03    -16.1104E-03     31.7349E-03    -15.6245E-03     45.2965E-03    -16.0579E-03     31.4793E-03    -15.5601E-03     45.2674E-03
             551     11.5194E-03     70.3472E-03    -4.05209E+06    -43.9549E+06    -3.29301E+06    -1.16215E+06    -16.1702E-03     31.7800E-03    -15.6098E-03     49.7671E-03    -16.1392E-03     31.5881E-03    -15.5566E-03     49.7304E-03
             552     12.4057E-03     70.3952E-03    -2.71375E+06    -37.9859E+06    -1.75883E+06    -1.01737E+06    -16.3174E-03     31.9191E-03    -15.6018E-03     56.6243E-03    -16.3028E-03     31.7652E-03    -15.5515E-03     56.5824E-03
             553     13.2917E-03     70.4521E-03    -2.07399E+06    -36.4928E+06    -9.80076E+06    -499.572E+03    -16.4403E-03     31.9944E-03    -15.5541E-03     60.0283E-03    -16.4306E-03     31.8762E-03    -15.5472E-03     59.9851E-03
             554     14.1780E-03     70.5068E-03    -2.26463E+06    -18.1703E+06    -10.3310E+06     51.6337E+03    -16.1535E-03     31.6647E-03    -15.5112E-03     64.0911E-03    -16.2016E-03     31.6702E-03    -15.5332E-03     64.0518E-03
             555     15.0658E-03     70.5703E-03    -3.05033E+06     19.1886E+06    -10.5788E+06     102.886E+03    -17.4232E-03     32.8585E-03    -15.4353E-03     95.1214E-03    -17.7085E-03     33.2318E-03    -15.5116E-03     95.1016E-03
             556     15.9509E-03     70.6847E-03    -3.97371E+06     80.0037E+06    -14.0800E+06     288.119E+03    -21.1624E-03     36.4939E-03    -15.3316E-03     159.262E-03    -22.8840E-03     38.5263E-03    -15.5122E-03     159.780E-03
             557     16.8350E-03     70.8706E-03    -3.71580E+06     153.257E+06     38.1974E+06     471.078E+03    -24.0677E-03     39.5625E-03    -15.4948E-03     224.549E-03    -29.3147E-03     45.2295E-03    -15.5206E-03     228.564E-03
             558     886.086E-06     71.0461E-03    -14.7825E+06    -60.6350E+06    -14.3076E+06    -58.2541E+03    -15.6160E-03     31.2562E-03    -15.6403E-03     3.53483E-03    -15.5812E-03     30.9954E-03    -15.6025E-03     3.53357E-03
             559     1.77215E-03     71.0507E-03    -14.3677E+06    -59.7037E+06    -12.5177E+06    -627.594E+03    -15.6286E-03     31.2622E-03    -15.6336E-03     6.57022E-03    -15.5958E-03     31.0028E-03    -15.5888E-03     6.56116E-03
             560     2.65826E-03     71.0582E-03    -13.5822E+06    -58.7585E+06    -10.0626E+06    -599.148E+03    -15.6360E-03     31.2770E-03    -15.6409E-03     9.82459E-03    -15.6043E-03     31.0176E-03    -15.5863E-03     9.81540E-03
             561     3.54430E-03     71.0689E-03    -12.8224E+06    -57.7314E+06    -7.51183E+06    -266.221E+03    -15.6490E-03     31.2975E-03    -15.6485E-03     13.2027E-03    -15.6188E-03     31.0386E-03    -15.5837E-03     13.1973E-03
             562     4.43045E-03     71.0827E-03    -11.2899E+06    -59.1415E+06    -4.79153E+06    -341.655E+03    -15.6775E-03     31.3369E-03    -15.6594E-03     16.7045E-03    -15.6418E-03     31.0651E-03    -15.5812E-03     16.6975E-03
             563     5.31651E-03     71.1000E-03    -8.84201E+06    -59.3554E+06    -2.27369E+06    -834.572E+03    -15.7152E-03     31.3815E-03    -15.6662E-03     20.3708E-03    -15.6710E-03     31.1017E-03    -15.5787E-03     20.3566E-03
             564     6.20261E-03     71.1206E-03    -7.02749E+06    -56.8970E+06    -1.25429E+06    -1.43500E+06    -15.7480E-03     31.4099E-03    -15.6619E-03     24.2405E-03    -15.7002E-03     31.1387E-03    -15.5754E-03     24.2178E-03
             565     7.08877E-03     71.1450E-03    -6.63225E+06    -60.0335E+06     17.6673E+03    -1.05243E+06    -15.8065E-03     31.4752E-03    -15.6687E-03     28.2324E-03    -15.7546E-03     31.1866E-03    -15.5720E-03     28.2134E-03
             566     7.97487E-03     71.1730E-03    -6.11459E+06    -62.2362E+06     1.00442E+06    -634.152E+03    -15.8794E-03     31.5531E-03    -15.6737E-03     32.3838E-03    -15.8242E-03     31.2523E-03    -15.5696E-03     32.3686E-03
             567     8.86095E-03     71.2051E-03    -4.78937E+06    -56.7603E+06     160.023E+03    -558.627E+03    -15.9268E-03     31.5834E-03    -15.6566E-03     36.6974E-03    -15.8732E-03     31.3108E-03    -15.5665E-03     36.6810E-03
             568     9.74717E-03     71.2411E-03    -3.56784E+06    -56.9617E+06     129.985E+03    -761.783E+03    -16.0037E-03     31.6543E-03    -15.6506E-03     40.9497E-03    -15.9461E-03     31.3815E-03    -15.5622E-03     40.9276E-03
             569     10.6333E-03     71.2812E-03    -2.83405E+06    -55.4742E+06    -3.40670E+06    -1.32969E+06    -16.1139E-03     31.7400E-03    -15.6261E-03     45.2654E-03    -16.0537E-03     31.4826E-03    -15.5585E-03     45.2318E-03
             570     11.5195E-03     71.3251E-03    -2.84828E+06    -43.9480E+06    -2.02576E+06    -1.63508E+06    -16.1514E-03     31.7634E-03    -15.6120E-03     49.6427E-03    -16.1162E-03     31.5679E-03    -15.5543E-03     49.6000E-03
             571     12.4056E-03     71.3734E-03    -3.21098E+06    -38.2042E+06    -1.03143E+06    -1.36738E+06    -16.3788E-03     31.9846E-03    -15.6058E-03     56.5693E-03    -16.3677E-03     31.8295E-03    -15.5509E-03     56.5227E-03
             572     13.2918E-03     71.4302E-03    -3.31532E+06    -36.9044E+06    -9.61925E+06    -1.25511E+06    -16.3889E-03     31.9469E-03    -15.5580E-03     59.6340E-03    -16.3847E-03     31.8278E-03    -15.5478E-03     59.5813E-03
             573     14.1782E-03     71.4844E-03    -2.61308E+06    -19.5658E+06    -10.7672E+06    -391.034E+03    -16.4221E-03     31.9418E-03    -15.5197E-03     63.4635E-03    -16.4690E-03     31.9412E-03    -15.5414E-03     63.4175E-03
             574     15.0631E-03     71.5483E-03    -2.53351E+06     18.6483E+06    -11.0241E+06     319.465E+03    -17.8784E-03     33.3401E-03    -15.4616E-03     95.5514E-03    -18.1636E-03     33.7144E-03    -15.5401E-03     95.5321E-03
             575     15.9495E-03     71.6636E-03    -3.41277E+06     80.9626E+06    -13.1345E+06    -189.551E+03    -21.2222E-03     36.5958E-03    -15.3736E-03     159.978E-03    -22.9530E-03     38.6399E-03    -15.5517E-03     160.497E-03
             576     16.8375E-03     71.8491E-03    -3.11872E+06     153.711E+06     37.2101E+06     941.494E+03    -23.8452E-03     39.3679E-03    -15.5227E-03     223.876E-03    -29.0795E-03     45.0289E-03    -15.5550E-03     227.903E-03
             577     886.078E-06     72.0242E-03    -14.6361E+06    -60.5421E+06    -14.1509E+06     22.2598E+03    -15.6198E-03     31.2495E-03    -15.6297E-03     3.54819E-03    -15.5847E-03     30.9886E-03    -15.5914E-03     3.54797E-03
             578     1.77218E-03     72.0288E-03    -14.0366E+06    -58.8069E+06    -11.6526E+06    -236.900E+03    -15.6347E-03     31.2692E-03    -15.6345E-03     6.56345E-03    -15.6028E-03     31.0125E-03    -15.5871E-03     6.55943E-03
             579     2.65821E-03     72.0364E-03    -13.2112E+06    -59.2488E+06    -9.04225E+06    -183.746E+03    -15.6430E-03     31.2905E-03    -15.6475E-03     9.82140E-03    -15.6102E-03     31.0267E-03    -15.5876E-03     9.81757E-03
             580     3.54436E-03     72.0470E-03    -12.1185E+06    -57.7844E+06    -7.00143E+06     137.940E+03    -15.6512E-03     31.3030E-03    -15.6518E-03     13.2036E-03    -15.6182E-03     31.0422E-03    -15.5855E-03     13.2034E-03
             581     4.43039E-03     72.0609E-03    -11.1003E+06    -58.1070E+06    -5.21920E+06    -683.224E+03    -15.6717E-03     31.3279E-03    -15.6562E-03     16.7194E-03    -15.6359E-03     31.0616E-03    -15.5820E-03     16.7080E-03
             582     5.31653E-03     72.0780E-03    -10.1665E+06    -58.3747E+06    -4.35388E+06    -1.72077E+06    -15.6991E-03     31.3546E-03    -15.6555E-03     20.4068E-03    -15.6598E-03     31.0846E-03    -15.5779E-03     20.3812E-03
             583     6.20266E-03     72.0988E-03    -9.20134E+06    -56.8133E+06    -2.66476E+06    -1.63696E+06    -15.7427E-03     31.3992E-03    -15.6565E-03     24.2570E-03    -15.7038E-03     31.1337E-03    -15.5741E-03     24.2317E-03
             584     7.08875E-03     72.1230E-03    -7.59087E+06    -60.6415E+06    -191.669E+03    -1.18958E+06    -15.8128E-03     31.4825E-03    -15.6696E-03     28.2372E-03    -15.7646E-03     31.1925E-03    -15.5716E-03     28.2164E-03
             585     7.97484E-03     72.1512E-03    -5.69191E+06    -61.7370E+06     983.243E+03    -1.34591E+06    -15.8769E-03     31.5492E-03    -15.6723E-03     32.3946E-03    -15.8202E-03     31.2503E-03    -15.5696E-03     32.3702E-03
             586     8.86102E-03     72.1831E-03    -4.24629E+06    -56.9999E+06     680.936E+03    -1.47797E+06    -15.9310E-03     31.5898E-03    -15.6587E-03     36.6760E-03    -15.8751E-03     31.3145E-03    -15.5665E-03     36.6477E-03
             587     9.74709E-03     72.2193E-03    -3.24603E+06    -56.5446E+06     711.432E+03    -1.32923E+06    -16.0182E-03     31.6714E-03    -15.6532E-03     40.9511E-03    -15.9605E-03     31.3994E-03    -15.5629E-03     40.9216E-03
             588     10.6333E-03     72.2591E-03    -2.96299E+06    -54.8773E+06    -2.87330E+06    -1.53013E+06    -16.1094E-03     31.7386E-03    -15.6293E-03     45.2393E-03    -16.0514E-03     31.4837E-03    -15.5598E-03     45.2031E-03
             589     11.5193E-03     72.3034E-03    -3.23171E+06    -44.3718E+06    -1.94650E+06    -1.10907E+06    -16.1749E-03     31.7905E-03    -15.6156E-03     49.6139E-03    -16.1412E-03     31.5934E-03    -15.5563E-03     49.5779E-03
             590     12.4056E-03     72.3512E-03    -3.37453E+06    -37.9187E+06    -813.841E+03    -1.01648E+06    -16.4039E-03     32.0142E-03    -15.6103E-03     56.7396E-03    -16.3943E-03     31.8604E-03    -15.5545E-03     56.6975E-03
             591     13.2914E-03     72.4089E-03    -3.76048E+06    -36.4389E+06    -9.03192E+06    -1.33464E+06    -16.4460E-03     32.0131E-03    -15.5671E-03     59.4328E-03    -16.4453E-03     31.8959E-03    -15.5540E-03     59.3790E-03
             592     14.1777E-03     72.4614E-03    -4.20257E+06    -21.1623E+06    -10.7591E+06    -1.28203E+06    -16.4945E-03     32.0286E-03    -15.5340E-03     64.0353E-03    -16.5477E-03     32.0229E-03    -15.5511E-03     63.9775E-03
             593     15.0643E-03     72.5283E-03    -3.80194E+06     18.4917E+06    -10.9924E+06    -532.920E+03    -17.9008E-03     33.3753E-03    -15.4745E-03     96.5214E-03    -18.1951E-03     33.7536E-03    -15.5508E-03     96.4918E-03
             594     15.9504E-03     72.6402E-03    -5.53100E+06     82.0054E+06    -12.1678E+06     1.28018E+06    -20.6187E-03     35.9884E-03    -15.3697E-03     161.492E-03    -22.3552E-03     38.0316E-03    -15.5414E-03     162.055E-03
             595     16.8330E-03     72.8304E-03    -5.41934E+06     152.847E+06     34.8353E+06     654.849E+03    -23.5440E-03     39.0153E-03    -15.4713E-03     226.385E-03    -28.8162E-03     44.7099E-03    -15.5109E-03     230.443E-03
             596     886.090E-06     73.0023E-03    -14.9715E+06    -60.4671E+06    -14.6088E+06    -124.996E+03    -15.6263E-03     31.2548E-03    -15.6286E-03     3.54249E-03    -15.5922E-03     30.9955E-03    -15.5922E-03     3.54037E-03
             597     1.77213E-03     73.0069E-03    -14.1949E+06    -58.6134E+06    -12.2932E+06    -9.55885E+03    -15.6277E-03     31.2610E-03    -15.6332E-03     6.56848E-03    -15.5960E-03     31.0064E-03    -15.5891E-03     6.56740E-03
             598     2.65827E-03     73.0145E-03    -12.8967E+06    -59.3654E+06    -8.60806E+06    -30.1503E+03    -15.6441E-03     31.2933E-03    -15.6492E-03     9.82298E-03    -15.6102E-03     31.0278E-03    -15.5874E-03     9.82112E-03
             599     3.54428E-03     73.0252E-03    -11.0097E+06    -57.6694E+06    -6.47892E+06    -325.179E+03    -15.6503E-03     31.3022E-03    -15.6519E-03     13.2096E-03    -15.6127E-03     31.0396E-03    -15.5847E-03     13.2034E-03
             600     4.43046E-03     73.0390E-03    -9.10622E+06    -56.5778E+06    -4.38386E+06    -913.133E+03    -15.6665E-03     31.3195E-03    -15.6530E-03     16.7278E-03    -15.6242E-03     31.0568E-03    -15.5797E-03     16.7134E-03
             601     5.31655E-03     73.0562E-03    -8.22995E+06    -57.9656E+06    -1.91568E+06    -1.18164E+06    -15.7102E-03     31.3719E-03    -15.6617E-03     20.3895E-03    -15.6653E-03     31.0977E-03    -15.5753E-03     20.3708E-03
             602     6.20266E-03     73.0768E-03    -7.82763E+06    -56.5465E+06    -1.06989E+06    -1.41173E+06    -15.7518E-03     31.4124E-03    -15.6607E-03     24.2485E-03    -15.7087E-03     31.1439E-03    -15.5727E-03     24.2261E-03
             603     7.08875E-03     73.1012E-03    -6.83322E+06    -60.1592E+06     63.4323E+03    -2.15104E+06    -15.8155E-03     31.4837E-03    -15.6682E-03     28.2484E-03    -15.7645E-03     31.1947E-03    -15.5707E-03     28.2152E-03
             604     7.97490E-03     73.1292E-03    -5.45727E+06    -61.6190E+06     999.943E+03    -2.18618E+06    -15.8816E-03     31.5529E-03    -15.6713E-03     32.4015E-03    -15.8240E-03     31.2542E-03    -15.5690E-03     32.3662E-03
             605     8.86094E-03     73.1613E-03    -4.36907E+06    -56.7644E+06     964.696E+03    -2.05972E+06    -15.9403E-03     31.6004E-03    -15.6601E-03     36.6758E-03    -15.8857E-03     31.3261E-03    -15.5667E-03     36.6400E-03
             606     9.74716E-03     73.1972E-03    -3.41080E+06    -56.7832E+06     888.180E+03    -1.93304E+06    -16.0242E-03     31.6798E-03    -15.6556E-03     40.9717E-03    -15.9672E-03     31.4066E-03    -15.5639E-03     40.9344E-03
             607     10.6332E-03     73.2374E-03    -3.24031E+06    -55.1690E+06    -2.23734E+06    -1.01787E+06    -16.1271E-03     31.7623E-03    -15.6352E-03     45.2169E-03    -16.0710E-03     31.5054E-03    -15.5617E-03     45.1873E-03
             608     11.5195E-03     73.2811E-03    -3.45549E+06    -44.4975E+06    -1.10840E+06    -899.027E+03    -16.1952E-03     31.8189E-03    -15.6237E-03     49.6088E-03    -16.1636E-03     31.6203E-03    -15.5597E-03     49.5754E-03
             609     12.4054E-03     73.3298E-03    -3.08616E+06    -37.5086E+06    -200.444E+03    -1.09225E+06    -16.3455E-03     31.9598E-03    -15.6143E-03     56.7924E-03    -16.3359E-03     31.8066E-03    -15.5564E-03     56.7495E-03
             610     13.2919E-03     73.3866E-03    -3.46182E+06    -36.8063E+06    -8.80805E+06    -610.258E+03    -16.4431E-03     32.0110E-03    -15.5679E-03     59.4718E-03    -16.4409E-03     31.8914E-03    -15.5535E-03     59.4272E-03
             611     14.1777E-03     73.4401E-03    -4.93290E+06    -19.7206E+06    -10.5957E+06    -1.04779E+06    -16.5682E-03     32.1039E-03    -15.5357E-03     64.0033E-03    -16.6285E-03     32.1074E-03    -15.5529E-03     63.9479E-03
             612     15.0641E-03     73.5052E-03    -6.48535E+06     17.4867E+06    -11.7350E+06    -778.810E+03    -17.8566E-03     33.3363E-03    -15.4797E-03     96.3353E-03    -18.1604E-03     33.7132E-03    -15.5543E-03     96.3028E-03
             613     15.9493E-03     73.6207E-03    -4.36728E+06     78.8282E+06    -15.8987E+06     1.21284E+06    -19.8484E-03     35.1902E-03    -15.3418E-03     158.719E-03    -21.5164E-03     37.1684E-03    -15.5293E-03     159.276E-03
             614     16.8442E-03     73.8031E-03    -2.29438E+06     153.761E+06     35.9468E+06     502.799E+03    -23.3673E-03     38.8093E-03    -15.4419E-03     225.117E-03    -28.6200E-03     44.4954E-03    -15.4818E-03     229.142E-03
             615     886.044E-06     73.9805E-03    -15.6940E+06    -60.1684E+06    -15.3959E+06    -156.542E+03    -15.6187E-03     31.2558E-03    -15.6371E-03     3.54408E-03    -15.5876E-03     31.0001E-03    -15.6040E-03     3.54155E-03
             616     1.77218E-03     73.9850E-03    -15.2258E+06    -58.8845E+06    -13.7927E+06    -73.0394E+03    -15.6212E-03     31.2509E-03    -15.6297E-03     6.57193E-03    -15.5920E-03     30.9987E-03    -15.5912E-03     6.57003E-03
             617     2.65821E-03     73.9927E-03    -14.0874E+06    -58.7662E+06    -11.0099E+06    -360.639E+03    -15.6283E-03     31.2650E-03    -15.6367E-03     9.83290E-03    -15.5977E-03     31.0077E-03    -15.5861E-03     9.82679E-03
             618     3.54437E-03     74.0033E-03    -12.3502E+06    -56.5990E+06    -7.93810E+06    -1.38024E+06    -15.6377E-03     31.2792E-03    -15.6415E-03     13.2209E-03    -15.6062E-03     31.0259E-03    -15.5812E-03     13.2010E-03
             619     4.43044E-03     74.0171E-03    -10.7713E+06    -56.4853E+06    -4.82849E+06    -1.37654E+06    -15.6654E-03     31.3155E-03    -15.6501E-03     16.7294E-03    -15.6309E-03     31.0562E-03    -15.5767E-03     16.7090E-03
             620     5.31656E-03     74.0343E-03    -9.22149E+06    -57.6644E+06    -2.29841E+06    -1.06940E+06    -15.7079E-03     31.3671E-03    -15.6592E-03     20.3948E-03    -15.6680E-03     31.0964E-03    -15.5737E-03     20.3776E-03
             621     6.20263E-03     74.0550E-03    -7.44241E+06    -55.5212E+06    -1.05388E+06    -1.68232E+06    -15.7485E-03     31.4058E-03    -15.6573E-03     24.2614E-03    -15.7050E-03     31.1418E-03    -15.5712E-03     24.2354E-03
             622     7.08880E-03     74.0793E-03     -6.2861E+06    -59.2042E+06     418.576E+03    -2.26122E+06    -15.8151E-03     31.4813E-03    -15.6662E-03     28.2571E-03    -15.7633E-03     31.1957E-03    -15.5691E-03     28.2224E-03
             623     7.97482E-03     74.1074E-03    -5.69695E+06    -61.6848E+06     938.548E+03    -2.48812E+06    -15.8871E-03     31.5574E-03    -15.6703E-03     32.4015E-03    -15.8305E-03     31.2588E-03    -15.5679E-03     32.3623E-03
             624     8.86104E-03     74.1393E-03    -4.93548E+06    -56.4077E+06     739.672E+03    -2.41892E+06    -15.9477E-03     31.6068E-03    -15.6591E-03     36.6881E-03    -15.8962E-03     31.3354E-03    -15.5665E-03     36.6477E-03
             625     9.74704E-03     74.1755E-03    -4.51288E+06    -57.1647E+06     579.341E+03    -2.11420E+06    -16.0360E-03     31.6932E-03    -15.6573E-03     40.9493E-03    -15.9835E-03     31.4201E-03    -15.5649E-03     40.9096E-03
             626     10.6333E-03     74.2153E-03    -3.68982E+06    -56.2608E+06    -2.86130E+06    -1.41653E+06    -16.1461E-03     31.7829E-03    -15.6368E-03     45.2347E-03    -16.0898E-03     31.5221E-03    -15.5642E-03     45.1999E-03
             627     11.5191E-03     74.2596E-03    -2.46964E+06    -43.5114E+06    -1.28556E+06    -1.33924E+06    -16.2102E-03     31.8336E-03    -15.6234E-03     49.6304E-03    -16.1749E-03     31.6388E-03    -15.5631E-03     49.5913E-03
             628     12.4056E-03     74.3074E-03    -1.72161E+06     -37.825E+06    -245.198E+03    -1.52780E+06    -16.3414E-03     31.9572E-03    -15.6158E-03     56.6995E-03    -16.3244E-03     31.8006E-03    -15.5597E-03     56.6509E-03
             629     13.2915E-03     74.3651E-03    -1.39866E+06    -38.0685E+06    -8.75508E+06    -437.083E+03    -16.4899E-03     32.0609E-03    -15.5710E-03     59.3432E-03    -16.4756E-03     31.9318E-03    -15.5575E-03     59.3007E-03
             630     14.1780E-03     74.4178E-03    -2.63372E+06    -19.4198E+06    -9.93370E+06     939.754E+03    -16.7683E-03     32.3143E-03    -15.5460E-03     63.9738E-03    -16.8195E-03     32.3160E-03    -15.5637E-03     63.9432E-03
             631     15.0630E-03     74.4847E-03    -4.18763E+06     17.1821E+06    -11.2186E+06     557.811E+03    -17.7768E-03     33.2696E-03    -15.4928E-03     96.2111E-03    -18.0646E-03     33.6361E-03    -15.5678E-03     96.1963E-03
             632     15.9507E-03     74.5970E-03    -5.13933E+06     76.7967E+06    -17.1785E+06    -1.63010E+06    -20.8338E-03     36.2133E-03    -15.3795E-03     157.618E-03    -22.5219E-03     38.2053E-03    -15.5693E-03     158.099E-03
             633     16.8298E-03     74.7789E-03    -3.25584E+06     153.770E+06     35.4310E+06    -755.769E+03    -23.4678E-03     38.9808E-03    -15.5130E-03     224.485E-03    -28.7389E-03     44.6835E-03    -15.5541E-03     228.521E-03
             634     886.100E-06     74.9585E-03    -16.4454E+06    -59.9321E+06    -16.1106E+06    -107.016E+03    -15.6215E-03     31.2457E-03    -15.6242E-03     3.53855E-03    -15.5935E-03     30.9934E-03    -15.5940E-03     3.53666E-03
             635     1.77212E-03     74.9632E-03    -15.8785E+06    -58.8495E+06    -14.8094E+06    -209.817E+03    -15.6178E-03     31.2413E-03    -15.6235E-03     6.57621E-03    -15.5905E-03     30.9917E-03    -15.5892E-03     6.57254E-03
             636     2.65827E-03     74.9707E-03    -14.8196E+06    -57.5352E+06    -12.3500E+06    -900.650E+03    -15.6162E-03     31.2426E-03    -15.6264E-03     9.83768E-03    -15.5891E-03     30.9945E-03    -15.5833E-03     9.82460E-03
             637     3.54435E-03     74.9814E-03    -13.7517E+06    -55.2794E+06    -8.75623E+06    -1.65919E+06    -15.6303E-03     31.2645E-03    -15.6342E-03     13.2232E-03    -15.6066E-03     31.0211E-03    -15.5779E-03     13.1998E-03
             638     4.43046E-03     74.9952E-03    -12.4968E+06    -57.0419E+06    -5.76614E+06    -1.57804E+06    -15.6613E-03     31.3076E-03    -15.6463E-03     16.7311E-03    -15.6332E-03     31.0494E-03    -15.5743E-03     16.7081E-03
             639     5.31655E-03     75.0124E-03    -10.8694E+06    -56.7311E+06    -4.36336E+06    -1.79106E+06    -15.6930E-03     31.3405E-03    -15.6475E-03     20.4201E-03    -15.6596E-03     31.0797E-03    -15.5713E-03     20.3936E-03
             640     6.20272E-03     75.0331E-03    -9.29027E+06    -54.5123E+06    -2.47052E+06    -2.45940E+06    -15.7397E-03     31.3883E-03    -15.6486E-03     24.2825E-03    -15.7048E-03     31.1341E-03    -15.5685E-03     24.2465E-03
             641     7.08875E-03     75.0574E-03    -7.82628E+06    -58.9565E+06    -69.0320E+03    -2.44948E+06    -15.8117E-03     31.4751E-03    -15.6634E-03     28.2610E-03    -15.7672E-03     31.1938E-03    -15.5669E-03     28.2240E-03
             642     7.97495E-03     75.0855E-03    -6.63124E+06    -61.0183E+06     652.038E+03    -2.50325E+06    -15.8871E-03     31.5549E-03    -15.6678E-03     32.4040E-03    -15.8357E-03     31.2614E-03    -15.5664E-03     32.3646E-03
             643     8.86092E-03     75.1175E-03    -5.90724E+06    -56.4233E+06    -288.679E+03    -2.63411E+06    -15.9542E-03     31.6090E-03    -15.6548E-03     36.6940E-03    -15.9061E-03     31.3405E-03    -15.5659E-03     36.6507E-03
             644     9.74717E-03     75.1535E-03    -4.98155E+06    -57.3000E+06    -521.052E+03    -2.33240E+06    -16.0497E-03     31.7028E-03    -15.6532E-03     40.9788E-03    -15.9978E-03     31.4314E-03    -15.5655E-03     40.9363E-03
             645     10.6331E-03     75.1936E-03    -4.03712E+06    -56.1717E+06    -4.24407E+06    -2.68663E+06    -16.1437E-03     31.7749E-03    -15.6312E-03     45.2853E-03    -16.0873E-03     31.5170E-03    -15.5651E-03     45.2341E-03
             646     11.5195E-03     75.2375E-03    -2.97034E+06    -43.6234E+06    -2.72937E+06    -2.55742E+06    -16.2412E-03     31.8600E-03    -15.6189E-03     49.7194E-03    -16.2062E-03     31.6676E-03    -15.5650E-03     49.6646E-03
             647     12.4052E-03     75.2859E-03    -2.59925E+06    -38.4794E+06    -846.851E+03    -1.52549E+06    -16.4241E-03     32.0450E-03    -15.6209E-03     56.5947E-03    -16.4098E-03     31.8874E-03    -15.5656E-03     56.5459E-03
             648     13.2917E-03     75.3427E-03    -2.74881E+06    -39.1412E+06    -9.55403E+06    -975.860E+03    -16.5932E-03     32.1755E-03    -15.5823E-03     59.5564E-03    -16.5832E-03     32.0446E-03    -15.5694E-03     59.5066E-03
             649     14.1770E-03     75.3969E-03    -1.46308E+06    -21.4628E+06    -10.3779E+06     254.459E+03    -16.6822E-03     32.2386E-03    -15.5563E-03     64.2098E-03    -16.7236E-03     32.2287E-03    -15.5750E-03     64.1707E-03
             650     15.0640E-03     75.4623E-03    -551.879E+03     17.9272E+06    -8.88971E+06     1.16802E+06    -17.5270E-03     33.0254E-03    -15.4984E-03     95.9844E-03    -17.8004E-03     33.3863E-03    -15.5681E-03     95.9780E-03
             651     15.9492E-03     75.5751E-03    -2.57294E+06     78.4946E+06    -14.4305E+06     382.860E+03    -20.8842E-03     36.2572E-03    -15.3730E-03     161.001E-03    -22.6163E-03     38.3006E-03    -15.5552E-03     161.529E-03
             652     16.8381E-03     75.7637E-03    -3.38022E+06     153.345E+06     37.3648E+06    -379.906E+03    -23.8811E-03     39.3913E-03    -15.5102E-03     226.203E-03    -29.1508E-03     45.0852E-03    -15.5408E-03     230.244E-03
             653     886.055E-06     75.9367E-03    -16.9828E+06    -59.6507E+06    -16.8494E+06    -276.313E+03    -15.6073E-03     31.2270E-03    -15.6198E-03     3.53223E-03    -15.5812E-03     30.9779E-03    -15.5929E-03     3.52815E-03
             654     1.77219E-03     75.9413E-03    -16.0994E+06    -58.1670E+06    -14.8101E+06    -669.205E+03    -15.6142E-03     31.2315E-03    -15.6172E-03     6.57320E-03    -15.5890E-03     30.9855E-03    -15.5836E-03     6.56361E-03
             655     2.65825E-03     75.9488E-03    -15.0019E+06    -56.4047E+06    -11.8277E+06    -1.14309E+06    -15.6190E-03     31.2437E-03    -15.6246E-03     9.83342E-03    -15.5953E-03     31.0007E-03    -15.5802E-03     9.81721E-03
             656     3.54436E-03     75.9595E-03    -13.8838E+06    -54.3866E+06    -9.15656E+06    -1.49015E+06    -15.6252E-03     31.2545E-03    -15.6293E-03     13.2244E-03    -15.6028E-03     31.0163E-03    -15.5761E-03     13.2031E-03
             657     4.43046E-03     75.9734E-03    -12.3962E+06    -56.6182E+06    -6.16928E+06    -1.97639E+06    -15.6563E-03     31.2975E-03    -15.6413E-03     16.7297E-03    -15.6277E-03     31.0419E-03    -15.5720E-03     16.7016E-03
             658     5.31661E-03     75.9905E-03    -10.7417E+06    -55.8076E+06    -3.99804E+06    -2.34384E+06    -15.6942E-03     31.3398E-03    -15.6456E-03     20.4164E-03    -15.6621E-03     31.0830E-03    -15.5691E-03     20.3828E-03
             659     6.20265E-03     76.0112E-03    -9.53760E+06    -53.5853E+06    -2.48723E+06    -2.68423E+06    -15.7356E-03     31.3814E-03    -15.6458E-03     24.2802E-03    -15.7033E-03     31.1322E-03    -15.5667E-03     24.2413E-03
             660     7.08885E-03     76.0355E-03    -8.44417E+06    -58.8712E+06    -469.630E+03    -2.88586E+06    -15.8107E-03     31.4713E-03    -15.6606E-03     28.2559E-03    -15.7689E-03     31.1919E-03    -15.5654E-03     28.2132E-03
             661     7.97483E-03     76.0636E-03    -7.19612E+06    -60.5009E+06     210.558E+03    -2.80904E+06    -15.8825E-03     31.5468E-03    -15.6643E-03     32.4089E-03    -15.8341E-03     31.2574E-03    -15.5650E-03     32.3656E-03
             662     8.86107E-03     76.0956E-03    -6.06704E+06    -56.0996E+06    -738.634E+03    -2.89121E+06    -15.9569E-03     31.6081E-03    -15.6512E-03     36.7155E-03    -15.9094E-03     31.3420E-03    -15.5647E-03     36.6689E-03
             663     9.74702E-03     76.1317E-03    -5.16752E+06    -57.2755E+06    -1.12735E+06    -3.05955E+06    -16.0444E-03     31.6937E-03    -15.6492E-03     40.9940E-03    -15.9926E-03     31.4235E-03    -15.5643E-03     40.9422E-03
             664     10.6333E-03     76.1717E-03    -4.83808E+06    -55.3897E+06    -4.40536E+06    -2.98922E+06    -16.1439E-03     31.7732E-03    -15.6293E-03     45.2925E-03    -16.0923E-03     31.5206E-03    -15.5640E-03     45.2374E-03
             665     11.5191E-03     76.2157E-03    -5.33292E+06    -44.1901E+06    -3.42204E+06    -2.93040E+06    -16.2391E-03     31.8581E-03    -15.6190E-03     49.8512E-03    -16.2141E-03     31.6672E-03    -15.5643E-03     49.7916E-03
             666     12.4055E-03     76.2642E-03      -4.509E+06    -39.2525E+06    -1.79796E+06    -2.39525E+06    -16.4766E-03     32.0981E-03    -15.6215E-03     56.7737E-03    -16.4695E-03     31.9408E-03    -15.5670E-03     56.7136E-03
             667     13.2911E-03     76.3209E-03    -2.78377E+06    -39.7795E+06    -10.1659E+06    -2.08119E+06    -16.5596E-03     32.1416E-03    -15.5821E-03     59.8745E-03    -16.5483E-03     32.0087E-03    -15.5712E-03     59.8105E-03
             668     14.1777E-03     76.3754E-03    -2.15933E+06    -22.8709E+06    -12.0271E+06    -1.64053E+06    -16.4578E-03     32.0022E-03    -15.5444E-03     64.4819E-03    -16.4975E-03     31.9879E-03    -15.5682E-03     64.4195E-03
             669     15.0632E-03     76.4399E-03    -1.20389E+06     16.6197E+06    -10.7994E+06    -261.507E+03    -17.1578E-03     32.6257E-03    -15.4679E-03     95.9397E-03    -17.4330E-03     32.9870E-03    -15.5443E-03     95.9184E-03
             670     15.9516E-03     76.5529E-03    -1.21876E+06     79.3420E+06    -13.4686E+06     2.28083E+06    -20.2676E-03     35.5915E-03    -15.3239E-03     161.159E-03    -21.9719E-03     37.6122E-03    -15.5045E-03     161.730E-03
             671     16.8378E-03     76.7398E-03    -1.53454E+06     154.934E+06     36.7514E+06     1.82566E+06    -24.0556E-03     39.5012E-03    -15.4456E-03     224.171E-03    -29.2399E-03     45.1235E-03    -15.4843E-03     228.177E-03
             672     886.108E-06     76.9148E-03    -17.3477E+06    -58.7743E+06    -16.9402E+06    -623.144E+03    -15.6066E-03     31.2176E-03    -15.6110E-03     3.54503E-03    -15.5836E-03     30.9736E-03    -15.5853E-03     3.53647E-03
             673     1.77216E-03     76.9194E-03    -16.5489E+06    -57.2618E+06    -14.7281E+06    -990.903E+03    -15.6118E-03     31.2270E-03    -15.6152E-03     6.56624E-03    -15.5903E-03     30.9861E-03    -15.5818E-03     6.55249E-03
             674     2.65827E-03     76.9270E-03    -15.4029E+06    -55.5614E+06    -12.1339E+06    -1.29725E+06    -15.6148E-03     31.2361E-03    -15.6214E-03     9.82875E-03    -15.5938E-03     30.9984E-03    -15.5792E-03     9.81055E-03
             675     3.54436E-03     76.9376E-03    -13.8563E+06    -53.4089E+06    -9.31180E+06    -1.80733E+06    -15.6234E-03     31.2494E-03    -15.6260E-03     13.2195E-03    -15.6021E-03     31.0163E-03    -15.5750E-03     13.1942E-03
             676     4.43050E-03     76.9515E-03    -12.3496E+06    -55.6367E+06    -5.96646E+06    -2.27953E+06    -15.6589E-03     31.2991E-03    -15.6402E-03     16.7262E-03    -15.6319E-03     31.0480E-03    -15.5715E-03     16.6941E-03
             677     5.31654E-03     76.9686E-03    -11.0766E+06    -55.0911E+06    -4.10746E+06    -2.62409E+06    -15.6933E-03     31.3378E-03    -15.6445E-03     20.4104E-03    -15.6637E-03     31.0853E-03    -15.5691E-03     20.3732E-03
             678     6.20273E-03     76.9893E-03    -9.78054E+06    -52.8155E+06    -2.94801E+06    -2.83626E+06    -15.7313E-03     31.3740E-03    -15.6427E-03     24.2788E-03    -15.7006E-03     31.1297E-03    -15.5667E-03     24.2380E-03
             679     7.08876E-03     77.0137E-03    -8.55950E+06    -58.2767E+06    -924.017E+03    -3.11999E+06    -15.8020E-03     31.4590E-03    -15.6570E-03     28.2608E-03    -15.7610E-03     31.1834E-03    -15.5647E-03     28.2151E-03
             680     7.97497E-03     77.0417E-03    -7.33237E+06    -60.1869E+06    -12.9905E+03    -3.32731E+06    -15.8792E-03     31.5409E-03    -15.6617E-03     32.4177E-03    -15.8315E-03     31.2536E-03    -15.5639E-03     32.3677E-03
             681     8.86096E-03     77.0737E-03    -6.22816E+06    -55.6498E+06    -599.546E+03    -3.33432E+06    -15.9494E-03     31.5993E-03    -15.6500E-03     36.7286E-03    -15.9035E-03     31.3355E-03    -15.5633E-03     36.6763E-03
             682     9.74720E-03     77.1099E-03    -5.48419E+06    -56.8004E+06    -1.20584E+06    -3.43675E+06    -16.0412E-03     31.6882E-03    -15.6469E-03     40.9832E-03    -15.9916E-03     31.4209E-03    -15.5627E-03     40.9265E-03
             683     10.6331E-03     77.1497E-03    -4.88636E+06    -55.6609E+06    -5.36955E+06    -3.20593E+06    -16.1429E-03     31.7662E-03    -15.6233E-03     45.3154E-03    -16.0898E-03     31.5138E-03    -15.5624E-03     45.2575E-03
             684     11.5195E-03     77.1940E-03    -4.05913E+06    -43.7759E+06    -3.79585E+06    -2.92583E+06    -16.1845E-03     31.7952E-03    -15.6107E-03     49.9000E-03    -16.1531E-03     31.6050E-03    -15.5604E-03     49.8405E-03
             685     12.4054E-03     77.2422E-03    -3.34639E+06    -39.1552E+06    -2.39938E+06    -3.58228E+06    -16.3999E-03     32.0074E-03    -15.6075E-03     57.0701E-03    -16.3861E-03     31.8497E-03    -15.5579E-03     56.9949E-03
             686     13.2917E-03     77.2996E-03    -3.63234E+06    -40.5705E+06    -11.9259E+06    -3.02462E+06    -16.4122E-03     31.9713E-03    -15.5591E-03     59.9171E-03    -16.4012E-03     31.8380E-03    -15.5547E-03     59.8414E-03
             687     14.1776E-03     77.3526E-03    -5.02052E+06    -23.8001E+06    -14.0665E+06    -1.82316E+06    -16.2345E-03     31.7474E-03    -15.5129E-03     64.5061E-03    -16.2831E-03     31.7345E-03    -15.5414E-03     64.4424E-03
             688     15.0650E-03     77.4186E-03    -6.52789E+06     15.2893E+06    -14.0608E+06    -1.83683E+06    -18.1796E-03     33.6406E-03    -15.4610E-03     95.0807E-03    -18.4809E-03     34.0138E-03    -15.5440E-03     95.0316E-03
             689     15.9512E-03     77.5282E-03    -5.92590E+06     79.2412E+06    -15.6010E+06     606.486E+03    -20.0954E-03     35.4503E-03    -15.3550E-03     157.566E-03    -21.7681E-03     37.4288E-03    -15.5393E-03     158.112E-03
             690     16.8360E-03     77.7220E-03    -3.52349E+06     154.904E+06     32.7524E+06     1.82455E+06    -23.0711E-03     38.5023E-03    -15.4313E-03     226.750E-03    -28.3718E-03     44.2458E-03    -15.4870E-03     230.809E-03
             691     886.061E-06     77.8929E-03    -17.4131E+06    -57.5049E+06    -16.8977E+06    -670.311E+03    -15.6192E-03     31.2200E-03    -15.6008E-03     3.53428E-03    -15.5984E-03     30.9824E-03    -15.5767E-03     3.52511E-03
             692     1.77217E-03     77.8975E-03    -16.6837E+06    -56.2663E+06    -15.0196E+06    -1.13153E+06    -15.6073E-03     31.2216E-03    -15.6143E-03     6.56851E-03    -15.5874E-03     30.9863E-03    -15.5837E-03     6.55294E-03
             693     2.65826E-03     77.9051E-03    -15.3983E+06    -54.5024E+06    -12.2093E+06    -1.66910E+06    -15.6121E-03     31.2320E-03    -15.6199E-03     9.82864E-03    -15.5926E-03     30.9997E-03    -15.5796E-03     9.80563E-03
             694     3.54438E-03     77.9157E-03    -14.0516E+06    -52.3322E+06    -9.13990E+06    -2.13633E+06    -15.6268E-03     31.2532E-03    -15.6264E-03     13.2165E-03    -15.6082E-03     31.0255E-03    -15.5758E-03     13.1869E-03
             695     4.43044E-03     77.9296E-03    -12.6356E+06    -54.7647E+06    -6.19931E+06    -2.47487E+06    -15.6583E-03     31.2980E-03    -15.6397E-03     16.7245E-03    -15.6336E-03     31.0520E-03    -15.5730E-03     16.6899E-03
             696     5.31660E-03     77.9467E-03    -11.1521E+06    -54.2013E+06    -4.44237E+06    -2.80915E+06    -15.6909E-03     31.3339E-03    -15.6430E-03     20.4092E-03    -15.6625E-03     31.0864E-03    -15.5705E-03     20.3696E-03
             697     6.20264E-03     77.9674E-03    -9.86707E+06    -52.1192E+06    -3.24830E+06    -3.17597E+06    -15.7257E-03     31.3668E-03    -15.6411E-03     24.2758E-03    -15.6961E-03     31.1265E-03    -15.5674E-03     24.2306E-03
             698     7.08885E-03     77.9918E-03    -8.60347E+06    -57.4776E+06    -1.14246E+06    -3.43235E+06    -15.7953E-03     31.4502E-03    -15.6549E-03     28.2585E-03    -15.7553E-03     31.1789E-03    -15.5647E-03     28.2087E-03
             699     7.97487E-03     78.0198E-03    -7.43108E+06    -59.6071E+06    -82.3161E+03    -3.71391E+06    -15.8728E-03     31.5328E-03    -15.6601E-03     32.4218E-03    -15.8263E-03     31.2487E-03    -15.5633E-03     32.3668E-03
             700     8.86106E-03     78.0519E-03    -6.35292E+06    -55.2921E+06    -813.335E+03    -3.84328E+06    -15.9338E-03     31.5809E-03    -15.6471E-03     36.7321E-03    -15.8887E-03     31.3193E-03    -15.5618E-03     36.6733E-03
             701     9.74709E-03     78.0879E-03    -5.27732E+06    -56.2071E+06    -1.43485E+06    -3.91652E+06    -16.0319E-03     31.6740E-03    -15.6421E-03     41.0238E-03    -15.9818E-03     31.4098E-03    -15.5601E-03     40.9609E-03
             702     10.6333E-03     78.1280E-03    -4.31566E+06    -55.6844E+06    -5.71931E+06    -4.10233E+06    -16.1448E-03     31.7628E-03    -15.6179E-03     45.3329E-03    -16.0884E-03     31.5099E-03    -15.5595E-03     45.2635E-03
             703     11.5193E-03     78.1718E-03    -3.55609E+06    -43.8616E+06    -3.95489E+06    -3.85895E+06    -16.1574E-03     31.7631E-03    -15.6057E-03     49.8068E-03    -16.1231E-03     31.5719E-03    -15.5567E-03     49.7354E-03
             704     12.4057E-03     78.2204E-03    -3.43487E+06    -38.6370E+06    -1.45988E+06    -3.41456E+06    -16.2025E-03     31.8030E-03    -15.6005E-03     56.9716E-03    -16.1909E-03     31.6463E-03    -15.5468E-03     56.8991E-03
             705     13.2919E-03     78.2775E-03    -3.90139E+06    -41.1668E+06    -11.4753E+06    -2.86011E+06    -16.3270E-03     31.8702E-03    -15.5432E-03     59.6963E-03    -16.3165E-03     31.7329E-03    -15.5352E-03     59.6233E-03
             706     14.1786E-03     78.3305E-03    -4.87322E+06    -25.1289E+06    -14.2018E+06    -2.09905E+06    -16.8630E-03     32.3760E-03    -15.5129E-03     63.6895E-03    -16.9101E-03     32.3577E-03    -15.5405E-03     63.6195E-03
             707     15.0645E-03     78.3958E-03    -4.85301E+06     14.9910E+06    -12.9815E+06    -190.705E+03    -18.5441E-03     34.0345E-03    -15.4903E-03     96.6219E-03    -18.8373E-03     34.4011E-03    -15.5699E-03     96.5924E-03
             708     15.9432E-03     78.5146E-03    -4.79507E+06     77.8289E+06    -16.4947E+06    -184.017E+03    -19.8449E-03     35.2258E-03    -15.3808E-03     156.262E-03    -21.4944E-03     37.1826E-03    -15.5692E-03     156.807E-03
             709     16.8414E-03     78.6805E-03    -4.07440E+06     153.898E+06     33.4384E+06    -555.228E+03    -23.1323E-03     38.5930E-03    -15.4607E-03     228.168E-03    -28.5675E-03     44.4637E-03    -15.5108E-03     232.205E-03
             710     886.089E-06     78.8710E-03    -17.4160E+06    -56.1712E+06    -17.0870E+06    -654.695E+03    -15.5969E-03     31.2159E-03    -15.6190E-03     3.53379E-03    -15.5777E-03     30.9851E-03    -15.5977E-03     3.52483E-03
             711     1.77216E-03     78.8756E-03    -16.6195E+06    -54.9015E+06    -15.0437E+06    -1.37237E+06    -15.6087E-03     31.2217E-03    -15.6129E-03     6.56943E-03    -15.5905E-03     30.9932E-03    -15.5844E-03     6.55075E-03
             712     2.65826E-03     78.8832E-03    -15.5199E+06    -53.2928E+06    -12.1562E+06    -1.94780E+06    -15.6165E-03     31.2372E-03    -15.6207E-03     9.83083E-03    -15.5994E-03     31.0111E-03    -15.5817E-03     9.80422E-03
             713     3.54434E-03     78.8938E-03    -14.1418E+06    -51.3133E+06    -9.34182E+06    -2.33891E+06    -15.6264E-03     31.2532E-03    -15.6268E-03     13.2168E-03    -15.6095E-03     31.0310E-03    -15.5786E-03     13.1846E-03
             714     4.43048E-03     78.9077E-03    -12.6121E+06    -53.7456E+06    -6.34002E+06    -2.78036E+06    -15.6578E-03     31.2976E-03    -15.6399E-03     16.7231E-03    -15.6342E-03     31.0569E-03    -15.5754E-03     16.6846E-03
             715     5.31653E-03     78.9248E-03    -11.1203E+06    -53.3402E+06    -4.58799E+06    -3.15552E+06    -15.6873E-03     31.3302E-03    -15.6428E-03     20.4078E-03    -15.6598E-03     31.0871E-03    -15.5723E-03     20.3637E-03
             716     6.20272E-03     78.9455E-03    -9.79943E+06    -51.1918E+06    -3.34534E+06    -3.46302E+06    -15.7232E-03     31.3636E-03    -15.6404E-03     24.2712E-03    -15.6944E-03     31.1280E-03    -15.5687E-03     24.2222E-03
             717     7.08876E-03     78.9698E-03    -8.60030E+06    -56.7431E+06    -1.37236E+06    -3.80969E+06    -15.7933E-03     31.4469E-03    -15.6536E-03     28.2591E-03    -15.7540E-03     31.1796E-03    -15.5657E-03     28.2045E-03
             718     7.97494E-03     78.9980E-03    -7.42526E+06    -58.8531E+06    -383.950E+03    -4.03093E+06    -15.8580E-03     31.5155E-03    -15.6575E-03     32.4215E-03    -15.8122E-03     31.2355E-03    -15.5633E-03     32.3624E-03
             719     8.86101E-03     79.0299E-03    -6.37708E+06    -54.6344E+06    -939.864E+03    -4.38585E+06    -15.9155E-03     31.5595E-03    -15.6440E-03     36.7253E-03    -15.8713E-03     31.3015E-03    -15.5602E-03     36.6595E-03
             720     9.74724E-03     79.0661E-03    -5.36388E+06    -55.6504E+06    -1.43817E+06    -4.67891E+06    -16.0097E-03     31.6479E-03    -15.6383E-03     41.0449E-03    -15.9607E-03     31.3866E-03    -15.5570E-03     40.9722E-03
             721     10.6332E-03     79.1060E-03    -4.77844E+06    -55.1490E+06    -5.56870E+06    -4.78452E+06    -16.1182E-03     31.7321E-03    -15.6138E-03     45.3609E-03    -16.0651E-03     31.4823E-03    -15.5548E-03     45.2827E-03
             722     11.5195E-03     79.1501E-03    -4.38126E+06    -44.0792E+06    -4.56868E+06    -4.64483E+06    -16.1629E-03     31.7619E-03    -15.5990E-03     49.8376E-03    -16.1315E-03     31.5717E-03    -15.5516E-03     49.7561E-03
             723     12.4055E-03     79.1981E-03    -3.47338E+06    -39.2502E+06    -2.34782E+06    -3.84199E+06    -16.1980E-03     31.7907E-03    -15.5927E-03     56.6713E-03    -16.1842E-03     31.6321E-03    -15.5425E-03     56.5934E-03
             724     13.2924E-03     79.2552E-03    -2.89975E+06    -41.6308E+06    -11.4115E+06    -2.94684E+06    -16.4907E-03     32.0347E-03    -15.5439E-03     59.6498E-03    -16.4745E-03     31.8934E-03    -15.5364E-03     59.5753E-03
             725     14.1776E-03     79.3092E-03    -2.79221E+06    -26.3949E+06    -13.7194E+06    -2.04036E+06    -17.1390E-03     32.6663E-03    -15.5272E-03     64.9830E-03    -17.1770E-03     32.6404E-03    -15.5535E-03     64.9126E-03
             726     15.0605E-03     79.3768E-03    -2.52641E+06     13.0358E+06    -12.9701E+06     344.880E+03    -16.9758E-03     32.4397E-03    -15.4639E-03     96.7016E-03    -17.2356E-03     32.7741E-03    -15.5439E-03     96.6903E-03
             727     15.9587E-03     79.4865E-03    -3.00296E+06     76.6997E+06    -16.9733E+06    -178.093E+03    -20.9133E-03     36.2454E-03    -15.3322E-03     157.703E-03    -22.5981E-03     38.2411E-03    -15.5239E-03     158.183E-03
             728     16.8297E-03     79.6694E-03    -2.92706E+06     154.407E+06     35.2333E+06    -1.18710E+06    -24.5780E-03     40.0693E-03    -15.4913E-03     226.584E-03    -29.9237E-03     45.8512E-03    -15.5348E-03     230.581E-03
             729     886.075E-06     79.8491E-03    -17.2833E+06    -54.5935E+06    -16.9962E+06    -865.107E+03    -15.5934E-03     31.2157E-03    -15.6224E-03     3.53930E-03    -15.5759E-03     30.9926E-03    -15.6031E-03     3.52762E-03
             730     1.77217E-03     79.8537E-03    -16.6391E+06    -53.3777E+06    -14.9388E+06    -1.52870E+06    -15.6129E-03     31.2270E-03    -15.6141E-03     6.56972E-03    -15.5972E-03     31.0060E-03    -15.5872E-03     6.54903E-03
             731     2.65823E-03     79.8613E-03    -15.5094E+06    -51.9715E+06    -12.2576E+06    -2.12506E+06    -15.6182E-03     31.2402E-03    -15.6220E-03     9.83068E-03    -15.6028E-03     31.0208E-03    -15.5854E-03     9.80178E-03
             732     3.54435E-03     79.8720E-03    -14.1183E+06    -50.1497E+06    -9.45963E+06    -2.68230E+06    -15.6262E-03     31.2540E-03    -15.6279E-03     13.2166E-03    -15.6106E-03     31.0378E-03    -15.5820E-03     13.1799E-03
             733     4.43042E-03     79.8858E-03    -12.6054E+06    -52.6197E+06    -6.48825E+06    -3.11759E+06    -15.6545E-03     31.2946E-03    -15.6402E-03     16.7242E-03    -15.6323E-03     31.0598E-03    -15.5780E-03     16.6813E-03
             734     5.31657E-03     79.9030E-03    -11.1394E+06    -52.3529E+06    -4.74449E+06    -3.53040E+06    -15.6849E-03     31.3275E-03    -15.6426E-03     20.4059E-03    -15.6586E-03     31.0896E-03    -15.5742E-03     20.3570E-03
             735     6.20264E-03     79.9236E-03    -9.76764E+06    -50.3094E+06    -3.61092E+06    -3.86822E+06    -15.7215E-03     31.3607E-03    -15.6393E-03     24.2759E-03    -15.6934E-03     31.1299E-03    -15.5702E-03     24.2217E-03
             736     7.08881E-03     79.9480E-03    -8.45334E+06    -55.7738E+06    -1.47734E+06    -4.20923E+06    -15.7869E-03     31.4393E-03    -15.6523E-03     28.2608E-03    -15.7482E-03     31.1768E-03    -15.5666E-03     28.2010E-03
             737     7.97489E-03     79.9760E-03    -7.19642E+06    -58.2177E+06    -357.044E+03    -4.48567E+06    -15.8489E-03     31.5053E-03    -15.6564E-03     32.4132E-03    -15.8030E-03     31.2281E-03    -15.5633E-03     32.3482E-03
             738     8.86107E-03     80.0081E-03    -6.29396E+06    -53.7389E+06    -734.067E+03    -4.63128E+06    -15.9059E-03     31.5486E-03    -15.6427E-03     36.7114E-03    -15.8629E-03     31.2946E-03    -15.5594E-03     36.6424E-03
             739     9.74716E-03     80.0440E-03    -5.73895E+06    -54.7909E+06    -1.41124E+06    -5.13051E+06    -15.9831E-03     31.6186E-03    -15.6355E-03     41.0246E-03    -15.9373E-03     31.3621E-03    -15.5548E-03     40.9461E-03
             740     10.6334E-03     80.0842E-03    -4.79739E+06    -54.3647E+06    -5.83758E+06    -5.69976E+06    -16.0777E-03     31.6846E-03    -15.6068E-03     45.3388E-03    -16.0254E-03     31.4391E-03    -15.5502E-03     45.2489E-03
             741     11.5195E-03     80.1279E-03    -3.66594E+06    -44.3011E+06    -4.71541E+06    -5.49311E+06    -16.1626E-03     31.7544E-03    -15.5917E-03     49.7874E-03    -16.1271E-03     31.5623E-03    -15.5458E-03     49.6949E-03
             742     12.4059E-03     80.1765E-03    -3.15458E+06    -40.1799E+06    -2.41106E+06    -4.48258E+06    -16.4118E-03     32.0069E-03    -15.5952E-03     56.5382E-03    -16.3952E-03     31.8435E-03    -15.5444E-03     56.4515E-03
             743     13.2914E-03     80.2327E-03    -3.17715E+06    -42.3720E+06    -11.4905E+06    -3.56103E+06    -16.5330E-03     32.0882E-03    -15.5552E-03     60.0547E-03    -16.5178E-03     31.9447E-03    -15.5466E-03     59.9717E-03
             744     14.1776E-03     80.2888E-03    -2.89447E+06    -27.4412E+06    -14.0760E+06    -2.53558E+06    -16.2239E-03     31.7334E-03    -15.5095E-03     65.3986E-03    -16.2575E-03     31.7001E-03    -15.5359E-03     65.3255E-03
             745     15.0677E-03     80.3533E-03    -3.32712E+06     10.9517E+06    -13.8096E+06    -1.41208E+06    -17.2785E-03     32.7104E-03    -15.4319E-03     94.2120E-03    -17.5350E-03     33.0338E-03    -15.5120E-03     94.1701E-03
             746     15.9459E-03     80.4610E-03    -3.68584E+06     75.6363E+06    -17.3993E+06    -608.884E+03    -20.9201E-03     36.2287E-03    -15.3086E-03     159.778E-03    -22.6546E-03     38.2692E-03    -15.5000E-03     160.278E-03
             747     16.8400E-03     80.6590E-03    -2.62326E+06     155.545E+06     35.7523E+06     252.779E+03    -24.0551E-03     39.5073E-03    -15.4522E-03     225.830E-03    -29.2586E-03     45.1504E-03    -15.4952E-03     229.801E-03
             748     886.077E-06     80.8272E-03    -17.1723E+06    -52.8756E+06    -16.7597E+06    -919.353E+03    -15.6162E-03     31.2239E-03    -15.6077E-03     3.54469E-03    -15.6010E-03     31.0089E-03    -15.5900E-03     3.53230E-03
             749     1.77214E-03     80.8318E-03    -16.5261E+06    -51.7130E+06    -14.8901E+06    -1.63048E+06    -15.6144E-03     31.2316E-03    -15.6172E-03     6.57284E-03    -15.6006E-03     31.0187E-03    -15.5927E-03     6.55084E-03
             750     2.65824E-03     80.8394E-03    -15.3862E+06    -50.4248E+06    -12.1878E+06    -2.39769E+06    -15.6170E-03     31.2412E-03    -15.6242E-03     9.82932E-03    -15.6033E-03     31.0292E-03    -15.5897E-03     9.79691E-03
             751     3.54431E-03     80.8501E-03    -13.9832E+06    -48.7866E+06    -9.44028E+06    -3.01823E+06    -15.6237E-03     31.2526E-03    -15.6289E-03     13.2189E-03    -15.6095E-03     31.0430E-03    -15.5851E-03     13.1779E-03
             752     4.43045E-03     80.8639E-03    -12.4987E+06    -51.4770E+06    -6.59668E+06    -3.49128E+06    -15.6513E-03     31.2912E-03    -15.6400E-03     16.7257E-03    -15.6301E-03     31.0621E-03    -15.5802E-03     16.6780E-03
             753     5.31653E-03     80.8810E-03    -11.0392E+06    -51.2000E+06    -4.86670E+06    -3.89728E+06    -15.6831E-03     31.3248E-03    -15.6417E-03     20.4114E-03    -15.6579E-03     31.0927E-03    -15.5758E-03     20.3577E-03
             754     6.20267E-03     80.9018E-03    -9.75691E+06    -49.3346E+06    -3.68566E+06    -4.30995E+06    -15.7164E-03     31.3548E-03    -15.6385E-03     24.2786E-03    -15.6896E-03     31.1290E-03    -15.5712E-03     24.2187E-03
             755     7.08878E-03     80.9260E-03    -8.57421E+06    -54.8293E+06    -1.59434E+06    -4.60145E+06    -15.7791E-03     31.4299E-03    -15.6508E-03     28.2624E-03    -15.7421E-03     31.1725E-03    -15.5669E-03     28.1976E-03
             756     7.97492E-03     80.9542E-03    -7.34057E+06    -57.2052E+06    -425.898E+03    -5.04922E+06    -15.8444E-03     31.4989E-03    -15.6545E-03     32.4074E-03    -15.8005E-03     31.2271E-03    -15.5631E-03     32.3352E-03
             757     8.86104E-03     80.9860E-03    -5.92828E+06    -53.3704E+06    -925.171E+03    -5.17815E+06    -15.9006E-03     31.5407E-03    -15.6401E-03     36.7151E-03    -15.8561E-03     31.2883E-03    -15.5587E-03     36.6391E-03
             758     9.74722E-03     81.0223E-03    -4.73436E+06    -53.2428E+06    -1.26164E+06    -5.50257E+06    -15.9749E-03     31.6062E-03    -15.6312E-03     40.9984E-03    -15.9266E-03     31.3556E-03    -15.5535E-03     40.9152E-03
             759     10.6334E-03     81.0620E-03    -4.43032E+06    -53.2381E+06    -5.79197E+06    -6.36903E+06    -16.0808E-03     31.6841E-03    -15.6034E-03     45.3085E-03    -16.0283E-03     31.4437E-03    -15.5487E-03     45.2100E-03
             760     11.5195E-03     81.1063E-03    -4.78507E+06    -45.1814E+06    -5.69661E+06    -5.92319E+06    -16.1730E-03     31.7620E-03    -15.5890E-03     49.7572E-03    -16.1403E-03     31.5685E-03    -15.5450E-03     49.6591E-03
             761     12.4056E-03     81.1542E-03    -4.61346E+06    -40.5844E+06    -3.50915E+06    -4.94506E+06    -16.3868E-03     31.9780E-03    -15.5912E-03     56.8324E-03    -16.3754E-03     31.8164E-03    -15.5432E-03     56.7397E-03
             762     13.2916E-03     81.2119E-03    -3.85845E+06    -43.0668E+06    -12.2483E+06    -4.53682E+06    -16.3704E-03     31.9164E-03    -15.5461E-03     60.1574E-03    -16.3566E-03     31.7716E-03    -15.5393E-03     60.0622E-03
             763     14.1786E-03     81.2648E-03    -3.23419E+06    -28.7616E+06    -14.8284E+06    -3.42758E+06    -16.1303E-03     31.6243E-03    -15.4941E-03     64.3950E-03    -16.1606E-03     31.5841E-03    -15.5218E-03     64.3108E-03
             764     15.0627E-03     81.3310E-03    -3.58509E+06     9.93866E+06    -14.4541E+06    -2.51157E+06    -17.6420E-03     33.0654E-03    -15.4233E-03     95.4565E-03    -17.9102E-03     33.3979E-03    -15.5048E-03     95.4003E-03
             765     15.9528E-03     81.4443E-03    -3.99850E+06     74.0933E+06    -18.2771E+06    -776.291E+03    -20.5033E-03     35.8014E-03    -15.2981E-03     159.952E-03    -22.2092E-03     37.8092E-03    -15.4911E-03     160.487E-03
             766     16.8383E-03     81.6257E-03    -2.86263E+06     155.125E+06     34.7667E+06     860.261E+03    -23.8228E-03     39.2490E-03    -15.4262E-03     224.676E-03    -29.0245E-03     44.8906E-03    -15.4732E-03     228.653E-03
             767     886.068E-06     81.8054E-03    -16.9004E+06    -51.1213E+06    -16.5040E+06    -881.556E+03    -15.6283E-03     31.2291E-03    -15.6008E-03     3.56201E-03    -15.6147E-03     31.0220E-03    -15.5847E-03     3.55011E-03
             768     1.77215E-03     81.8100E-03    -16.2537E+06    -49.8892E+06    -14.6054E+06    -1.69884E+06    -15.6160E-03     31.2356E-03    -15.6196E-03     6.57169E-03    -15.6038E-03     31.0309E-03    -15.5967E-03     6.54879E-03
             769     2.65821E-03     81.8176E-03    -15.2632E+06    -48.6073E+06    -12.0178E+06    -2.57667E+06    -15.6137E-03     31.2391E-03    -15.6254E-03     9.83340E-03    -15.6023E-03     31.0358E-03    -15.5929E-03     9.79868E-03
             770     3.54433E-03     81.8282E-03    -13.9211E+06    -47.2048E+06    -9.35434E+06      -3.406E+06    -15.6205E-03     31.2495E-03    -15.6290E-03     13.2181E-03    -15.6084E-03     31.0476E-03    -15.5872E-03     13.1721E-03
             771     4.43042E-03     81.8420E-03    -12.2724E+06    -50.1753E+06    -6.49245E+06    -3.99886E+06    -15.6499E-03     31.2896E-03    -15.6398E-03     16.7266E-03    -15.6296E-03     31.0665E-03    -15.5817E-03     16.6724E-03
             772     5.31654E-03     81.8592E-03    -10.7073E+06    -50.1285E+06    -4.78650E+06    -4.32583E+06    -15.6785E-03     31.3194E-03    -15.6409E-03     20.4133E-03    -15.6533E-03     31.0921E-03    -15.5766E-03     20.3541E-03
             773     6.20266E-03     81.8798E-03    -9.49002E+06    -48.2461E+06    -3.53519E+06    -4.56995E+06    -15.7117E-03     31.3490E-03    -15.6373E-03     24.2776E-03    -15.6853E-03     31.1280E-03    -15.5713E-03     24.2144E-03
             774     7.08879E-03     81.9042E-03    -8.42331E+06    -53.9014E+06    -1.58930E+06    -4.90826E+06    -15.7739E-03     31.4227E-03    -15.6488E-03     28.2589E-03    -15.7375E-03     31.1697E-03    -15.5664E-03     28.1901E-03
             775     7.97492E-03     81.9322E-03    -7.43479E+06    -55.8488E+06    -602.916E+03    -5.39013E+06    -15.8382E-03     31.4891E-03    -15.6509E-03     32.4126E-03    -15.7965E-03     31.2245E-03    -15.5622E-03     32.3360E-03
             776     8.86105E-03     81.9643E-03    -6.20432E+06    -52.3258E+06    -1.10160E+06    -6.34740E+06    -15.8981E-03     31.5351E-03    -15.6371E-03     36.7081E-03    -15.8561E-03     31.2886E-03    -15.5577E-03     36.6170E-03
             777     9.74724E-03     82.0001E-03    -4.47052E+06    -52.3979E+06    -1.24972E+06    -6.67183E+06    -15.9855E-03     31.6148E-03    -15.6293E-03     40.9906E-03    -15.9371E-03     31.3681E-03    -15.5531E-03     40.8922E-03
             778     10.6334E-03     82.0403E-03    -3.90520E+06    -52.8453E+06    -3.92556E+06    -5.89695E+06    -16.0959E-03     31.7081E-03    -15.6121E-03     45.2854E-03    -16.0441E-03     31.4662E-03    -15.5495E-03     45.1928E-03
             779     11.5195E-03     82.0841E-03    -4.22609E+06    -45.2355E+06    -3.87710E+06    -5.67947E+06    -16.1391E-03     31.7365E-03    -15.5974E-03     49.7845E-03    -16.1062E-03     31.5393E-03    -15.5451E-03     49.6896E-03
             780     12.4057E-03     82.1327E-03    -3.69248E+06    -40.5908E+06    -3.28866E+06    -5.91821E+06    -16.2377E-03     31.8222E-03    -15.5845E-03     56.8328E-03    -16.2220E-03     31.6588E-03    -15.5367E-03     56.7279E-03
             781     13.2924E-03     82.1891E-03    -3.15515E+06    -43.4267E+06    -12.1983E+06    -5.36190E+06    -16.3517E-03     31.8857E-03    -15.5341E-03     59.8172E-03    -16.3335E-03     31.7375E-03    -15.5275E-03     59.7115E-03
             782     14.1778E-03     82.2436E-03    -3.40604E+06    -29.9540E+06    -15.6592E+06    -4.19450E+06    -16.3202E-03     31.8065E-03    -15.4863E-03     64.2695E-03    -16.3490E-03     31.7623E-03    -15.5162E-03     64.1748E-03
             783     15.0661E-03     82.3084E-03    -3.62603E+06     8.36522E+06    -15.1798E+06    -2.73588E+06    -17.3298E-03     32.7429E-03    -15.4131E-03     95.8173E-03    -17.5956E-03     33.0695E-03    -15.4959E-03     95.7636E-03
             784     15.9510E-03     82.4205E-03    -4.66630E+06     72.2896E+06    -19.2561E+06    -945.451E+03    -21.1515E-03     36.4502E-03    -15.2986E-03     158.987E-03    -22.8364E-03     38.4309E-03    -15.4930E-03     159.475E-03
             785     16.8348E-03     82.6083E-03    -4.23334E+06     154.105E+06     33.0325E+06     129.533E+03    -24.2178E-03     39.6700E-03    -15.4522E-03     224.874E-03    -29.4625E-03     45.3510E-03    -15.5043E-03     228.884E-03
             786     886.074E-06     82.7836E-03    -16.4105E+06    -49.2871E+06    -16.0791E+06    -918.637E+03    -15.6231E-03     31.2321E-03    -15.6091E-03     3.56058E-03    -15.6104E-03     31.0329E-03    -15.5942E-03     3.54820E-03
             787     1.77213E-03     82.7881E-03    -15.8088E+06    -48.0139E+06    -14.1657E+06    -1.74227E+06    -15.6113E-03     31.2310E-03    -15.6197E-03     6.57077E-03    -15.6002E-03     31.0345E-03    -15.5980E-03     6.54732E-03
             788     2.65823E-03     82.7957E-03    -14.8246E+06    -46.6965E+06    -11.5080E+06    -2.59237E+06    -15.6128E-03     31.2374E-03    -15.6247E-03     9.83423E-03    -15.6027E-03     31.0423E-03    -15.5930E-03     9.79931E-03
             789     3.54431E-03     82.8063E-03    -13.7372E+06    -45.2447E+06    -8.88688E+06    -3.55449E+06    -15.6197E-03     31.2483E-03    -15.6286E-03     13.2201E-03    -15.6103E-03     31.0553E-03    -15.5875E-03     13.1722E-03
             790     4.43042E-03     82.8202E-03    -12.3713E+06    -48.4879E+06    -6.32566E+06    -4.55137E+06    -15.6460E-03     31.2847E-03    -15.6387E-03     16.7287E-03    -15.6290E-03     31.0700E-03    -15.5821E-03     16.6673E-03
             791     5.31653E-03     82.8373E-03    -10.6769E+06    -49.1752E+06    -4.87920E+06    -4.97774E+06    -15.6733E-03     31.3123E-03    -15.6390E-03     20.4140E-03    -15.6491E-03     31.0898E-03    -15.5766E-03     20.3464E-03
             792     6.20266E-03     82.8580E-03    -9.23737E+06    -47.4724E+06    -3.72917E+06    -4.87626E+06    -15.7049E-03     31.3390E-03    -15.6341E-03     24.2795E-03    -15.6782E-03     31.1217E-03    -15.5705E-03     24.2124E-03
             793     7.08880E-03     82.8822E-03    -8.25407E+06    -52.7440E+06    -1.53778E+06    -5.02424E+06    -15.7694E-03     31.4151E-03    -15.6458E-03     28.2564E-03    -15.7339E-03     31.1676E-03    -15.5650E-03     28.1862E-03
             794     7.97492E-03     82.9103E-03    -7.29651E+06    -54.4764E+06    -445.694E+03    -5.63906E+06    -15.8359E-03     31.4840E-03    -15.6480E-03     32.4119E-03    -15.7958E-03     31.2258E-03    -15.5607E-03     32.3321E-03
             795     8.86109E-03     82.9422E-03    -6.70496E+06    -50.1640E+06    -772.071E+03    -6.66237E+06    -15.8977E-03     31.5330E-03    -15.6352E-03     36.7025E-03    -15.8619E-03     31.2975E-03    -15.5566E-03     36.6073E-03
             796     9.74718E-03     82.9783E-03    -6.59261E+06    -51.8839E+06    -2.09310E+06    -7.50574E+06    -15.9867E-03     31.6139E-03    -15.6272E-03     41.0098E-03    -15.9485E-03     31.3741E-03    -15.5529E-03     40.9007E-03
             797     10.6334E-03     83.0182E-03    -5.14862E+06    -53.5169E+06    -5.16651E+06    -7.02535E+06    -16.0803E-03     31.6887E-03    -15.6085E-03     45.3229E-03    -16.0319E-03     31.4471E-03    -15.5492E-03     45.2158E-03
             798     11.5194E-03     83.0624E-03    -2.93501E+06    -44.2011E+06    -3.74975E+06    -6.67542E+06    -16.0946E-03     31.6868E-03    -15.5922E-03     49.7300E-03    -16.0569E-03     31.4927E-03    -15.5426E-03     49.6224E-03
             799     12.4059E-03     83.1102E-03    -1.72921E+06    -40.4390E+06    -3.09132E+06    -6.67830E+06    -16.2792E-03     31.8587E-03    -15.5795E-03     56.7620E-03    -16.2542E-03     31.6930E-03    -15.5339E-03     56.6472E-03
             800     13.2916E-03     83.1676E-03    -1.66828E+06    -44.3504E+06    -12.2215E+06    -5.78707E+06    -16.3597E-03     31.8915E-03    -15.5317E-03     59.6849E-03    -16.3325E-03     31.7363E-03    -15.5261E-03     59.5738E-03
             801     14.1787E-03     83.2211E-03    -2.30772E+06    -30.8190E+06    -15.3726E+06    -4.21652E+06    -16.3103E-03     31.7965E-03    -15.4862E-03     63.7038E-03    -16.3325E-03     31.7457E-03    -15.5151E-03     63.6090E-03
             802     15.0639E-03     83.2856E-03    -3.58108E+06     6.16475E+06    -15.8212E+06    -2.46837E+06    -17.7748E-03     33.1994E-03    -15.4246E-03     95.6424E-03    -18.0376E-03     33.5173E-03    -15.5075E-03     95.5873E-03
             803     15.9504E-03     83.4003E-03    -4.61112E+06     70.1943E+06    -20.0220E+06    -1.18469E+06    -20.9338E-03     36.2462E-03    -15.3124E-03     160.410E-03    -22.6374E-03     38.2407E-03    -15.5076E-03     160.919E-03
             804     16.8379E-03     83.5869E-03    -3.47675E+06     153.883E+06     33.2403E+06    -243.633E+03    -23.8182E-03     39.2647E-03    -15.4464E-03     225.257E-03    -29.0472E-03     44.9312E-03    -15.4983E-03     229.265E-03
             805     886.045E-06     83.7617E-03    -15.9089E+06    -47.4190E+06    -15.5249E+06    -1.01093E+06    -15.6112E-03     31.2266E-03    -15.6155E-03     3.55547E-03    -15.5994E-03     31.0352E-03    -15.6013E-03     3.54191E-03
             806     1.77216E-03     83.7663E-03    -15.2024E+06    -46.0802E+06    -13.6021E+06    -1.78297E+06    -15.6063E-03     31.2227E-03    -15.6164E-03     6.57665E-03    -15.5958E-03     31.0342E-03    -15.5956E-03     6.55268E-03
             807     2.65822E-03     83.7738E-03    -14.2066E+06    -44.8651E+06    -10.8465E+06    -2.60129E+06    -15.6109E-03     31.2327E-03    -15.6217E-03     9.83445E-03    -15.6014E-03     31.0449E-03    -15.5903E-03     9.79941E-03
             808     3.54433E-03     83.7845E-03    -13.0870E+06    -43.2352E+06    -8.12851E+06    -3.40638E+06    -15.6169E-03     31.2430E-03    -15.6261E-03     13.2232E-03    -15.6082E-03     31.0579E-03    -15.5851E-03     13.1772E-03
             809     4.43043E-03     83.7983E-03    -12.0392E+06    -46.1440E+06    -5.60257E+06    -4.60776E+06    -15.6424E-03     31.2786E-03    -15.6362E-03     16.7304E-03    -15.6281E-03     31.0741E-03    -15.5799E-03     16.6683E-03
             810     5.31653E-03     83.8154E-03    -10.9563E+06    -48.0760E+06    -4.78849E+06    -5.48406E+06    -15.6684E-03     31.3046E-03    -15.6362E-03     20.4157E-03    -15.6474E-03     31.0879E-03    -15.5745E-03     20.3415E-03
             811     6.20268E-03     83.8360E-03    -9.83921E+06    -47.1689E+06    -4.24777E+06    -5.24626E+06    -15.6975E-03     31.3272E-03    -15.6297E-03     24.2849E-03    -15.6735E-03     31.1131E-03    -15.5683E-03     24.2130E-03
             812     7.08881E-03     83.8604E-03    -8.60531E+06    -51.3806E+06    -1.78305E+06    -5.31257E+06    -15.7624E-03     31.4030E-03    -15.6406E-03     28.2676E-03    -15.7303E-03     31.1631E-03    -15.5625E-03     28.1936E-03
             813     7.97496E-03     83.8884E-03    -7.21233E+06    -52.8563E+06    -319.935E+03    -6.15306E+06    -15.8299E-03     31.4735E-03    -15.6436E-03     32.4259E-03    -15.7918E-03     31.2231E-03    -15.5581E-03     32.3394E-03
             814     8.86106E-03     83.9204E-03    -6.04860E+06    -48.7161E+06    -863.247E+03    -6.61847E+06    -15.8843E-03     31.5127E-03    -15.6284E-03     36.7336E-03    -15.8472E-03     31.2837E-03    -15.5533E-03     36.6390E-03
             815     9.74728E-03     83.9563E-03    -5.15030E+06    -49.9111E+06    -1.96693E+06    -7.55549E+06    -15.9721E-03     31.5904E-03    -15.6182E-03     41.0797E-03    -15.9297E-03     31.3581E-03    -15.5482E-03     40.9700E-03
             816     10.6333E-03     83.9964E-03    -4.30167E+06    -52.8997E+06    -6.99199E+06    -9.10130E+06    -16.0522E-03     31.6429E-03    -15.5907E-03     45.3977E-03    -15.9978E-03     31.4057E-03    -15.5427E-03     45.2639E-03
             817     11.5197E-03     84.0402E-03    -3.27778E+06    -44.6901E+06    -6.25158E+06    -8.41922E+06    -16.1130E-03     31.6870E-03    -15.5740E-03     49.8182E-03    -16.0727E-03     31.4945E-03    -15.5357E-03     49.6881E-03
             818     12.4057E-03     84.0884E-03    -2.92049E+06    -40.3890E+06    -4.05865E+06    -7.00316E+06    -16.2929E-03     31.8638E-03    -15.5709E-03     56.9525E-03    -16.2726E-03     31.7015E-03    -15.5284E-03     56.8335E-03
             819     13.2923E-03     84.1456E-03    -3.45609E+06    -45.6217E+06    -13.5012E+06    -5.99003E+06    -16.3609E-03     31.8862E-03    -15.5253E-03     59.7312E-03    -16.3388E-03     31.7290E-03    -15.5216E-03     59.6177E-03
             820     14.1780E-03     84.1987E-03    -3.93957E+06    -32.6293E+06    -16.6914E+06    -4.28905E+06    -16.5304E-03     32.0174E-03    -15.4870E-03     64.0000E-03    -16.5573E-03     31.9629E-03    -15.5175E-03     63.9034E-03
             821     15.0648E-03     84.2645E-03    -4.10459E+06     4.92431E+06    -16.5339E+06    -2.84264E+06    -17.7490E-03     33.1795E-03    -15.4305E-03     96.4778E-03    -18.0146E-03     33.4960E-03    -15.5144E-03     96.4195E-03
             822     15.9506E-03     84.3779E-03    -3.82600E+06      68.609E+06    -19.8934E+06    -1.58048E+06    -20.5946E-03     35.9047E-03    -15.3101E-03     160.373E-03    -22.2906E-03     37.8883E-03    -15.5035E-03     160.890E-03
             823     16.8373E-03     84.5637E-03    -2.84432E+06     153.119E+06     33.7366E+06    -415.928E+03    -23.8314E-03     39.2693E-03    -15.4379E-03     224.753E-03    -29.0482E-03     44.9218E-03    -15.4872E-03     228.744E-03
             824     886.095E-06     84.7399E-03    -15.2336E+06    -45.3569E+06    -14.9130E+06    -1.16706E+06    -15.6033E-03     31.2119E-03    -15.6086E-03     3.54829E-03    -15.5921E-03     31.0290E-03    -15.5953E-03     3.53271E-03
             825     1.77214E-03     84.7444E-03    -14.4870E+06    -44.1663E+06    -12.8810E+06    -1.92065E+06    -15.6054E-03     31.2162E-03    -15.6108E-03     6.57689E-03    -15.5952E-03     31.0351E-03    -15.5902E-03     6.55114E-03
             826     2.65825E-03     84.7520E-03    -13.2931E+06    -42.9638E+06    -10.0266E+06    -2.75896E+06    -15.6064E-03     31.2238E-03    -15.6174E-03     9.83376E-03    -15.5962E-03     31.0430E-03    -15.5859E-03     9.79669E-03
             827     3.54434E-03     84.7626E-03    -11.8873E+06    -41.5432E+06    -7.08582E+06    -3.45404E+06    -15.6134E-03     31.2359E-03    -15.6225E-03     13.2191E-03    -15.6026E-03     31.0560E-03    -15.5805E-03     13.1725E-03
             828     4.43046E-03     84.7765E-03    -10.4884E+06    -43.5243E+06    -4.02949E+06    -4.45803E+06    -15.6385E-03     31.2717E-03    -15.6332E-03     16.7259E-03    -15.6225E-03     31.0757E-03    -15.5751E-03     16.6658E-03
             829     5.31658E-03     84.7935E-03    -9.50583E+06    -46.8348E+06    -2.48582E+06    -5.23001E+06    -15.6728E-03     31.3123E-03    -15.6395E-03     20.3928E-03    -15.6497E-03     31.0964E-03    -15.5702E-03     20.3219E-03
             830     6.20270E-03     84.8142E-03    -8.84258E+06    -46.7677E+06    -2.85044E+06    -5.27322E+06    -15.6990E-03     31.3301E-03    -15.6311E-03     24.2695E-03    -15.6725E-03     31.1145E-03    -15.5647E-03     24.1972E-03
             831     7.08885E-03     84.8384E-03    -7.75344E+06    -49.4650E+06    -1.76240E+06    -5.95734E+06    -15.7475E-03     31.3801E-03    -15.6326E-03     28.2903E-03    -15.7140E-03     31.1485E-03    -15.5584E-03     28.2080E-03
             832     7.97497E-03     84.8665E-03    -6.23010E+06    -51.1696E+06    -367.852E+03    -6.99093E+06    -15.8055E-03     31.4388E-03    -15.6334E-03     32.4618E-03    -15.7648E-03     31.1955E-03    -15.5520E-03     32.3646E-03
             833     8.86119E-03     84.8984E-03    -4.46914E+06    -47.6098E+06    -717.918E+03    -7.65238E+06    -15.8623E-03     31.4792E-03    -15.6169E-03     36.7863E-03    -15.8190E-03     31.2532E-03    -15.5450E-03     36.6784E-03
             834     9.74733E-03     84.9344E-03    -2.70758E+06    -47.5490E+06    -576.994E+03    -8.53803E+06    -15.9436E-03     31.5514E-03    -15.6077E-03     41.1281E-03    -15.8944E-03     31.3254E-03    -15.5377E-03     41.0057E-03
             835     10.6336E-03     84.9743E-03    -2.40174E+06    -51.3093E+06    -3.66323E+06    -9.11438E+06    -16.0431E-03     31.6337E-03    -15.5907E-03     45.3450E-03    -15.9863E-03     31.3969E-03    -15.5311E-03     45.2111E-03
             836     11.5197E-03     85.0181E-03    -3.69639E+06    -46.2334E+06    -4.65911E+06    -8.37469E+06    -16.1229E-03     31.6970E-03    -15.5741E-03     49.8463E-03    -16.0848E-03     31.4952E-03    -15.5250E-03     49.7167E-03
             837     12.4061E-03     85.0665E-03    -4.26369E+06    -40.6917E+06    -3.08474E+06    -7.04647E+06    -16.2671E-03     31.8353E-03    -15.5681E-03     56.8849E-03    -16.2545E-03     31.6720E-03    -15.5184E-03     56.7654E-03
             838     13.2922E-03     85.1233E-03    -4.36571E+06    -46.2978E+06    -12.6059E+06    -6.19857E+06    -16.3808E-03     31.9038E-03    -15.5230E-03     59.6676E-03    -16.3636E-03     31.7433E-03    -15.5126E-03     59.5513E-03
             839     14.1786E-03     85.1772E-03    -4.66190E+06    -34.1105E+06    -17.3455E+06    -5.28007E+06    -16.5572E-03     32.0372E-03    -15.4800E-03     64.2573E-03    -16.5853E-03     31.9779E-03    -15.5105E-03     64.1478E-03
             840     15.0642E-03     85.2421E-03    -4.15950E+06     4.23196E+06    -16.4127E+06    -4.12211E+06    -17.6528E-03     33.0769E-03    -15.4241E-03     96.1746E-03    -17.9162E-03     33.3882E-03    -15.5063E-03     96.1008E-03
             841     15.9514E-03     85.3558E-03    -3.93265E+06     66.1026E+06    -20.3865E+06    -2.31323E+06    -20.8106E-03     36.1172E-03    -15.3067E-03     160.515E-03    -22.5104E-03     38.0969E-03    -15.4987E-03     161.013E-03
             842     16.8366E-03     85.5430E-03    -3.13437E+06     151.645E+06     32.7353E+06    -336.203E+03    -23.9715E-03     39.4099E-03    -15.4384E-03     225.299E-03    -29.2008E-03     45.0715E-03    -15.4901E-03     229.303E-03
             843     886.065E-06     85.7180E-03    -14.5596E+06    -42.9126E+06    -14.1679E+06    -1.36740E+06    -15.5984E-03     31.2008E-03    -15.6024E-03     3.55361E-03    -15.5885E-03     31.0280E-03    -15.5899E-03     3.53545E-03
             844     1.77218E-03     85.7226E-03    -13.6414E+06    -42.1429E+06    -12.1179E+06    -2.25167E+06    -15.6010E-03     31.2069E-03    -15.6059E-03     6.56943E-03    -15.5906E-03     31.0336E-03    -15.5856E-03     6.53940E-03
             845     2.65824E-03     85.7302E-03    -12.3849E+06    -40.9407E+06    -9.24937E+06    -3.07489E+06    -15.6010E-03     31.2133E-03    -15.6123E-03     9.83070E-03    -15.5903E-03     31.0401E-03    -15.5812E-03     9.78955E-03
             846     3.54437E-03     85.7408E-03    -10.8955E+06    -39.9007E+06    -6.15329E+06    -3.81767E+06    -15.6078E-03     31.2260E-03    -15.6183E-03     13.2140E-03    -15.5958E-03     31.0516E-03    -15.5754E-03     13.1628E-03
             847     4.43048E-03     85.7546E-03    -9.40030E+06    -41.3401E+06    -2.90148E+06    -4.52327E+06    -15.6318E-03     31.2604E-03    -15.6286E-03     16.7217E-03    -15.6152E-03     31.0721E-03    -15.5696E-03     16.6607E-03
             848     5.31660E-03     85.7717E-03    -8.04753E+06    -45.7214E+06    -713.933E+03    -4.95513E+06    -15.6712E-03     31.3102E-03    -15.6390E-03     20.3748E-03    -15.6450E-03     31.0952E-03    -15.5646E-03     20.3075E-03
             849     6.20272E-03     85.7922E-03    -6.79961E+06    -45.6554E+06    -1.02021E+06    -5.31481E+06    -15.6935E-03     31.3233E-03    -15.6298E-03     24.2581E-03    -15.6611E-03     31.1077E-03    -15.5588E-03     24.1853E-03
             850     7.08888E-03     85.8165E-03    -5.81250E+06    -47.0100E+06    -1.03256E+06    -6.42302E+06    -15.7222E-03     31.3443E-03    -15.6221E-03     28.3098E-03    -15.6835E-03     31.1211E-03    -15.5507E-03     28.2216E-03
             851     7.97510E-03     85.8445E-03    -4.80185E+06    -49.2049E+06      193.45E+03    -7.80593E+06    -15.7790E-03     31.4000E-03    -15.6210E-03     32.4862E-03    -15.7349E-03     31.1636E-03    -15.5417E-03     32.3785E-03
             852     8.86126E-03     85.8765E-03    -3.58442E+06    -45.8629E+06     487.905E+03    -8.92939E+06    -15.8419E-03     31.4493E-03    -15.6074E-03     36.8011E-03    -15.7985E-03     31.2290E-03    -15.5332E-03     36.6768E-03
             853     9.74752E-03     85.9124E-03    -2.96803E+06    -46.3189E+06     301.859E+03    -9.17672E+06    -15.9218E-03     31.5201E-03    -15.5983E-03     41.1180E-03    -15.8769E-03     31.2993E-03    -15.5253E-03     40.9875E-03
             854     10.6336E-03     85.9524E-03    -3.32987E+06    -51.2612E+06    -2.10753E+06    -8.22804E+06    -16.0341E-03     31.6216E-03    -15.5875E-03     45.3255E-03    -15.9843E-03     31.3842E-03    -15.5189E-03     45.2030E-03
             855     11.5199E-03     85.9962E-03    -3.58395E+06    -46.2633E+06    -3.60798E+06    -7.63902E+06    -16.1192E-03     31.6870E-03    -15.5678E-03     49.8457E-03    -16.0820E-03     31.4833E-03    -15.5136E-03     49.7256E-03
             856     12.4061E-03     86.0444E-03    -3.33297E+06    -41.2633E+06    -3.58827E+06    -7.33189E+06    -16.3039E-03     31.8593E-03    -15.5554E-03     56.9067E-03    -16.2851E-03     31.6925E-03    -15.5086E-03     56.7834E-03
             857     13.2923E-03     86.1014E-03    -3.08531E+06    -46.6622E+06    -12.3373E+06    -6.55763E+06    -16.4332E-03     31.9498E-03    -15.5165E-03     59.6453E-03    -16.4096E-03     31.7853E-03    -15.5061E-03     59.5242E-03
             858     14.1783E-03     86.1548E-03    -3.19441E+06    -34.3732E+06    -16.7424E+06    -6.08720E+06    -16.4917E-03     31.9661E-03    -15.4745E-03     64.2564E-03    -16.5125E-03     31.9021E-03    -15.5037E-03     64.1368E-03
             859     15.0650E-03     86.2208E-03    -3.37697E+06     3.03752E+06    -16.2864E+06    -5.07349E+06    -17.7552E-03     33.1747E-03    -15.4196E-03     96.1805E-03    -18.0140E-03     33.4796E-03    -15.5005E-03     96.0932E-03
             860     15.9504E-03     86.3329E-03    -4.15334E+06     63.3814E+06    -21.1011E+06    -2.88014E+06    -20.8293E-03     36.1339E-03    -15.3046E-03     160.708E-03    -22.5279E-03     38.1040E-03    -15.4960E-03     161.205E-03
             861     16.8377E-03     86.5222E-03    -3.62834E+06     149.536E+06     31.5259E+06    -580.705E+03    -23.8476E-03     39.2778E-03    -15.4302E-03     225.383E-03    -29.0749E-03     44.9317E-03    -15.4841E-03     229.392E-03
             862     886.093E-06     86.6962E-03    -13.7352E+06    -40.0672E+06    -13.3482E+06    -1.51095E+06    -15.6041E-03     31.1943E-03    -15.5902E-03     3.55302E-03    -15.5953E-03     31.0333E-03    -15.5789E-03     3.53301E-03
             863     1.77215E-03     86.7008E-03    -12.9562E+06    -39.7576E+06    -11.4031E+06    -2.64167E+06    -15.5915E-03     31.1932E-03    -15.6017E-03     6.56668E-03    -15.5822E-03     31.0298E-03    -15.5823E-03     6.53163E-03
             864     2.65828E-03     86.7083E-03    -11.6913E+06    -38.9085E+06    -8.72937E+06    -3.47101E+06    -15.5920E-03     31.1977E-03    -15.6058E-03     9.83002E-03    -15.5815E-03     31.0330E-03    -15.5760E-03     9.78376E-03
             865     3.54438E-03     86.7189E-03    -10.4481E+06    -38.2141E+06    -5.78078E+06    -4.02751E+06    -15.5979E-03     31.2088E-03    -15.6109E-03     13.2140E-03    -15.5867E-03     31.0416E-03    -15.5692E-03     13.1600E-03
             866     4.43050E-03     86.7327E-03    -9.32026E+06    -39.6487E+06    -3.16914E+06    -4.51854E+06    -15.6153E-03     31.2328E-03    -15.6174E-03     16.7286E-03    -15.6004E-03     31.0532E-03    -15.5623E-03     16.6677E-03
             867     5.31664E-03     86.7498E-03    -7.98186E+06    -44.2274E+06    -1.27708E+06    -5.22357E+06    -15.6475E-03     31.2723E-03    -15.6248E-03     20.3899E-03    -15.6223E-03     31.0654E-03    -15.5555E-03     20.3191E-03
             868     6.20279E-03     86.7703E-03    -6.35745E+06    -44.0970E+06    -734.423E+03    -6.00143E+06    -15.6681E-03     31.2852E-03    -15.6170E-03     24.2698E-03    -15.6362E-03     31.0763E-03    -15.5476E-03     24.1882E-03
             869     7.08899E-03     86.7945E-03    -4.95551E+06    -44.7107E+06    -76.4300E+03    -6.80639E+06    -15.6999E-03     31.3094E-03    -15.6095E-03     28.3189E-03    -15.6617E-03     31.0951E-03    -15.5379E-03     28.2258E-03
             870     7.97518E-03     86.8225E-03    -4.16118E+06    -46.7421E+06     810.056E+03    -8.08267E+06    -15.7577E-03     31.3635E-03    -15.6058E-03     32.5102E-03    -15.7148E-03     31.1376E-03    -15.5280E-03     32.3989E-03
             871     8.86140E-03     86.8545E-03    -3.94628E+06    -43.9957E+06     467.749E+03    -9.12414E+06    -15.8125E-03     31.4029E-03    -15.5904E-03     36.8270E-03    -15.7736E-03     31.1924E-03    -15.5186E-03     36.7002E-03
             872     9.74758E-03     86.8904E-03    -4.20417E+06    -46.4808E+06    -686.479E+03    -8.65581E+06    -15.8977E-03     31.4777E-03    -15.5799E-03     41.1654E-03    -15.8573E-03     31.2593E-03    -15.5099E-03     41.0417E-03
             873     10.6339E-03     86.9304E-03    -4.20523E+06    -51.1489E+06    -2.99612E+06    -8.02481E+06    -16.0154E-03     31.5839E-03    -15.5685E-03     45.4025E-03    -15.9689E-03     31.3495E-03    -15.5032E-03     45.2827E-03
             874     11.5200E-03     86.9741E-03    -3.40134E+06    -45.2511E+06    -3.64352E+06    -8.35113E+06    -16.1148E-03     31.6653E-03    -15.5505E-03     49.9287E-03    -16.0781E-03     31.4665E-03    -15.4981E-03     49.7995E-03
             875     12.4063E-03     87.0225E-03    -2.46811E+06    -41.6255E+06    -3.65789E+06    -7.98193E+06    -16.3275E-03     31.8677E-03    -15.5402E-03     57.0640E-03    -16.3037E-03     31.6981E-03    -15.4946E-03     56.9323E-03
             876     13.2924E-03     87.0794E-03    -2.26626E+06    -47.2300E+06    -12.4771E+06    -6.94195E+06    -16.4542E-03     31.9574E-03    -15.5032E-03     59.8207E-03    -16.4255E-03     31.7892E-03    -15.4938E-03     59.6946E-03
             877     14.1785E-03     87.1330E-03    -2.79706E+06    -34.5093E+06    -17.0445E+06    -6.31365E+06    -16.5146E-03     31.9765E-03    -15.4619E-03     64.3733E-03    -16.5327E-03     31.9116E-03    -15.4930E-03     64.2507E-03
             878     15.0648E-03     87.1980E-03    -3.65033E+06     1.66928E+06    -16.8872E+06    -5.58529E+06    -17.9010E-03     33.3141E-03    -15.4130E-03     96.5148E-03    -18.1608E-03     33.6157E-03    -15.4946E-03     96.4202E-03
             879     15.9511E-03     87.3126E-03    -3.93180E+06     60.1274E+06    -21.4871E+06    -3.25919E+06    -20.8942E-03     36.2023E-03    -15.3081E-03     160.260E-03    -22.5784E-03     38.1483E-03    -15.4970E-03     160.749E-03
             880     16.8369E-03     87.4981E-03    -3.06952E+06     147.799E+06     31.1400E+06    -676.949E+03    -23.7505E-03     39.1815E-03    -15.4310E-03     225.420E-03    -28.9896E-03     44.8441E-03    -15.4851E-03     229.437E-03
             881     886.061E-06     87.6743E-03    -12.7705E+06    -37.0973E+06    -12.2651E+06    -1.47190E+06    -15.6002E-03     31.1788E-03    -15.5786E-03     3.53675E-03    -15.5925E-03     31.0297E-03    -15.5676E-03     3.51725E-03
             882     1.77219E-03     87.6790E-03    -12.1923E+06    -36.9100E+06    -10.5377E+06    -2.76556E+06    -15.5810E-03     31.1743E-03    -15.5934E-03     6.56989E-03    -15.5732E-03     31.0228E-03    -15.5749E-03     6.53324E-03
             883     2.65827E-03     87.6864E-03    -11.2771E+06    -36.8680E+06    -8.36664E+06    -3.75741E+06    -15.5786E-03     31.1742E-03    -15.5956E-03     9.83083E-03    -15.5696E-03     31.0185E-03    -15.5676E-03     9.78088E-03
             884     3.54442E-03     87.6971E-03    -10.1339E+06    -36.7571E+06    -6.06876E+06    -4.10217E+06    -15.5787E-03     31.1755E-03    -15.5967E-03     13.2200E-03    -15.5676E-03     31.0155E-03    -15.5591E-03     13.1651E-03
             885     4.43055E-03     87.7108E-03    -8.77913E+06    -37.7826E+06    -3.65656E+06    -4.71689E+06    -15.5880E-03     31.1867E-03    -15.5987E-03     16.7427E-03    -15.5723E-03     31.0164E-03    -15.5495E-03     16.6792E-03
             886     5.31673E-03     87.7279E-03    -7.27336E+06    -42.2222E+06    -1.41993E+06    -5.72140E+06    -15.6153E-03     31.2197E-03    -15.6044E-03     20.4096E-03    -15.5892E-03     31.0220E-03    -15.5397E-03     20.3325E-03
             887     6.20290E-03     87.7484E-03    -5.96644E+06    -42.2243E+06    -363.942E+03    -6.66823E+06    -15.6399E-03     31.2377E-03    -15.5977E-03     24.2849E-03    -15.6093E-03     31.0370E-03    -15.5297E-03     24.1947E-03
             888     7.08911E-03     87.7726E-03    -4.76501E+06    -42.9448E+06     347.382E+03    -7.41555E+06    -15.6746E-03     31.2646E-03    -15.5900E-03     28.3445E-03    -15.6386E-03     31.0582E-03    -15.5191E-03     28.2435E-03
             889     7.97532E-03     87.8005E-03    -3.78866E+06    -44.3789E+06     809.552E+03    -8.15271E+06    -15.7203E-03     31.3021E-03    -15.5818E-03     32.5652E-03    -15.6790E-03     31.0875E-03    -15.5079E-03     32.4531E-03
             890     8.86157E-03     87.8324E-03    -3.59232E+06    -42.8626E+06     479.083E+03    -8.45043E+06    -15.7740E-03     31.3404E-03    -15.5665E-03     36.8890E-03    -15.7349E-03     31.1351E-03    -15.4967E-03     36.7710E-03
             891     9.74788E-03     87.8683E-03    -3.86816E+06    -46.7960E+06    -479.880E+03    -7.92236E+06    -15.8724E-03     31.4303E-03    -15.5579E-03     41.2442E-03    -15.8301E-03     31.2095E-03    -15.4868E-03     41.1300E-03
             892     10.6341E-03     87.9083E-03    -3.84460E+06    -49.5411E+06    -2.91356E+06    -8.28981E+06    -15.9966E-03     31.5394E-03    -15.5428E-03     45.5162E-03    -15.9506E-03     31.3124E-03    -15.4800E-03     45.3931E-03
             893     11.5203E-03     87.9521E-03    -3.28614E+06    -43.7826E+06    -3.27175E+06    -9.44796E+06    -16.0988E-03     31.6260E-03    -15.5271E-03     50.0549E-03    -16.0642E-03     31.4337E-03    -15.4753E-03     49.9116E-03
             894     12.4065E-03     88.0004E-03    -2.46081E+06    -42.6364E+06    -4.09002E+06    -8.93786E+06    -16.3035E-03     31.8201E-03    -15.5166E-03     57.2627E-03    -16.2776E-03     31.6459E-03    -15.4716E-03     57.1189E-03
             895     13.2927E-03     88.0576E-03    -2.41486E+06    -47.8968E+06    -13.3216E+06    -7.30618E+06    -16.4555E-03     31.9330E-03    -15.4775E-03     59.9460E-03    -16.4252E-03     31.7627E-03    -15.4711E-03     59.8153E-03
             896     14.1791E-03     88.1106E-03    -3.08010E+06    -34.2772E+06    -17.0205E+06    -6.47230E+06    -16.7007E-03     32.1470E-03    -15.4463E-03     64.4543E-03    -16.7211E-03     32.0842E-03    -15.4773E-03     64.3289E-03
             897     15.0649E-03     88.1768E-03    -3.50823E+06     620.323E+03    -16.6003E+06    -5.78474E+06    -17.9579E-03     33.3657E-03    -15.4077E-03     96.7792E-03    -18.2158E-03     33.6615E-03    -15.4866E-03     96.6824E-03
             898     15.9504E-03     88.2905E-03    -4.35569E+06     56.6398E+06    -22.1017E+06    -3.80557E+06    -20.8970E-03     36.2009E-03    -15.3039E-03     160.475E-03    -22.5787E-03     38.1323E-03    -15.4902E-03     160.954E-03
             899     16.8371E-03     88.4765E-03    -3.72934E+06     145.375E+06     30.0653E+06    -1.21046E+06    -23.8339E-03     39.2584E-03    -15.4244E-03     225.761E-03    -29.0811E-03     44.9212E-03    -15.4795E-03     229.774E-03
             900     886.121E-06     88.6525E-03    -11.5926E+06    -34.1958E+06    -11.2995E+06    -1.53679E+06    -15.5780E-03     31.1461E-03    -15.5681E-03     3.52818E-03    -15.5699E-03     31.0084E-03    -15.5582E-03     3.50784E-03
             901     1.77219E-03     88.6571E-03    -10.9579E+06    -33.8741E+06    -9.48171E+06    -2.74621E+06    -15.5653E-03     31.1418E-03    -15.5765E-03     6.57239E-03    -15.5573E-03     31.0021E-03    -15.5589E-03     6.53600E-03
             902     2.65834E-03     88.6646E-03    -10.1189E+06    -34.7320E+06    -7.24464E+06    -3.75534E+06    -15.5608E-03     31.1409E-03    -15.5801E-03     9.83527E-03    -15.5507E-03     30.9926E-03    -15.5513E-03     9.78536E-03
             903     3.54446E-03     88.6751E-03    -9.00334E+06    -35.1475E+06    -5.49988E+06    -4.42985E+06    -15.5539E-03     31.1316E-03    -15.5777E-03     13.2273E-03    -15.5403E-03     30.9772E-03    -15.5411E-03     13.1682E-03
             904     4.43066E-03     88.6889E-03    -7.58768E+06    -35.5011E+06    -3.67259E+06    -5.34312E+06    -15.5534E-03     31.1263E-03    -15.5728E-03     16.7596E-03    -15.5351E-03     30.9656E-03    -15.5287E-03     16.6880E-03
             905     5.31684E-03     88.7059E-03    -6.30382E+06    -40.3038E+06    -1.36593E+06    -6.16221E+06    -15.5793E-03     31.1561E-03    -15.5768E-03     20.4333E-03    -15.5512E-03     30.9666E-03    -15.5161E-03     20.3505E-03
             906     6.20306E-03     88.7264E-03    -5.32894E+06    -40.1883E+06    -258.642E+03    -6.87507E+06    -15.6019E-03     31.1705E-03    -15.5686E-03     24.3225E-03    -15.5711E-03     30.9789E-03    -15.5039E-03     24.2296E-03
             907     7.08929E-03     88.7505E-03    -4.44603E+06    -40.9223E+06     605.358E+03    -7.92554E+06    -15.6287E-03     31.1888E-03    -15.5601E-03     28.3930E-03    -15.5944E-03     30.9917E-03    -15.4913E-03     28.2855E-03
             908     7.97557E-03     88.7784E-03    -3.49912E+06    -42.8806E+06     1.14751E+06    -8.49649E+06    -15.6695E-03     31.2205E-03    -15.5510E-03     32.6280E-03    -15.6294E-03     31.0124E-03    -15.4780E-03     32.5116E-03
             909     8.86188E-03     88.8104E-03    -2.72099E+06    -42.4251E+06     1.36465E+06    -8.15243E+06    -15.7337E-03     31.2710E-03    -15.5373E-03     36.9662E-03    -15.6922E-03     31.0652E-03    -15.4650E-03     36.8522E-03
             910     9.74813E-03     88.8462E-03    -2.20471E+06    -46.7020E+06     1.00147E+06    -7.59066E+06    -15.8367E-03     31.3666E-03    -15.5299E-03     41.3507E-03    -15.7883E-03     31.1417E-03    -15.4540E-03     41.2409E-03
             911     10.6344E-03     88.8862E-03    -2.01763E+06    -47.0195E+06    -1.63970E+06    -8.27265E+06    -15.9663E-03     31.4756E-03    -15.5093E-03     45.6988E-03    -15.9167E-03     31.2566E-03    -15.4464E-03     45.5760E-03
             912     11.5207E-03     88.9300E-03    -2.15507E+06    -42.0054E+06    -1.53799E+06    -9.68462E+06    -16.0886E-03     31.5872E-03    -15.4985E-03     50.2182E-03    -16.0534E-03     31.3996E-03    -15.4422E-03     50.0720E-03
             913     12.4069E-03     88.9784E-03    -2.64829E+06    -44.1797E+06    -3.53937E+06    -9.11101E+06    -16.2879E-03     31.7778E-03    -15.4899E-03     57.3621E-03    -16.2614E-03     31.5953E-03    -15.4397E-03     57.2162E-03
             914     13.2933E-03     89.0354E-03    -3.06402E+06    -48.4687E+06    -13.5316E+06    -7.65980E+06    -16.5633E-03     32.0144E-03    -15.4511E-03     60.1802E-03    -16.5353E-03     31.8427E-03    -15.4440E-03     60.0447E-03
             915     14.1789E-03     89.0891E-03    -2.98250E+06    -33.9755E+06    -16.0827E+06    -7.12396E+06    -16.7888E-03     32.2196E-03    -15.4308E-03     64.7218E-03    -16.8110E-03     32.1573E-03    -15.4577E-03     64.5877E-03
             916     15.0648E-03     89.1550E-03    -3.26160E+06    -1.03078E+06    -16.2107E+06    -6.09234E+06    -17.7643E-03     33.1542E-03    -15.3899E-03     96.9294E-03    -18.0171E-03     33.4387E-03    -15.4647E-03     96.8297E-03
             917     15.9519E-03     89.2683E-03    -3.98106E+06      53.314E+06    -22.2764E+06    -4.00946E+06    -20.9605E-03     36.2413E-03    -15.2808E-03     161.156E-03    -22.6473E-03     38.1678E-03    -15.4637E-03     161.632E-03
             918     16.8376E-03     89.4554E-03    -3.17999E+06     143.350E+06     30.0507E+06    -1.51369E+06    -24.0345E-03     39.4419E-03    -15.4074E-03     225.443E-03    -29.2529E-03     45.0708E-03    -15.4604E-03     229.437E-03
             919     886.094E-06     89.6306E-03    -10.7987E+06    -31.1053E+06    -10.4656E+06    -1.67859E+06    -15.5364E-03     31.0895E-03    -15.5530E-03     3.52478E-03    -15.5301E-03     30.9649E-03    -15.5446E-03     3.50262E-03
             920     1.77226E-03     89.6352E-03    -10.2386E+06    -30.9895E+06    -9.01080E+06    -2.81350E+06    -15.5350E-03     31.0815E-03    -15.5465E-03     6.57941E-03    -15.5283E-03     30.9545E-03    -15.5317E-03     6.54217E-03
             921     2.65839E-03     89.6426E-03    -9.19602E+06    -32.2409E+06    -6.53384E+06    -3.97869E+06    -15.5296E-03     31.0801E-03    -15.5505E-03     9.84359E-03    -15.5195E-03     30.9419E-03    -15.5231E-03     9.79082E-03
             922     3.54458E-03     89.6532E-03    -7.70839E+06    -32.9437E+06    -4.63606E+06    -5.07359E+06    -15.5197E-03     31.0671E-03    -15.5474E-03     13.2402E-03    -15.5041E-03     30.9206E-03    -15.5116E-03     13.1728E-03
             923     4.43077E-03     89.6669E-03    -6.50037E+06    -33.2858E+06    -3.44705E+06    -5.89400E+06    -15.5118E-03     31.0495E-03    -15.5376E-03     16.7843E-03    -15.4916E-03     30.8980E-03    -15.4972E-03     16.7058E-03
             924     5.31703E-03     89.6839E-03    -5.47685E+06    -38.5025E+06    -1.47553E+06    -6.53788E+06    -15.5302E-03     31.0684E-03    -15.5383E-03     20.4738E-03    -15.5004E-03     30.8868E-03    -15.4819E-03     20.3863E-03
             925     6.20326E-03     89.7043E-03    -4.49935E+06    -38.4001E+06    -129.593E+03    -7.04920E+06    -15.5426E-03     31.0708E-03    -15.5282E-03     24.3775E-03    -15.5105E-03     30.8868E-03    -15.4666E-03     24.2826E-03
             926     7.08960E-03     89.7284E-03    -3.89992E+06    -38.4539E+06     1.28255E+06    -7.90924E+06    -15.5661E-03     31.0849E-03    -15.5188E-03     28.4566E-03    -15.5336E-03     30.8983E-03    -15.4510E-03     28.3494E-03
             927     7.97588E-03     89.7563E-03    -3.64030E+06    -41.8747E+06     1.70823E+06    -8.51712E+06    -15.6139E-03     31.1241E-03    -15.5102E-03     32.7053E-03    -15.5767E-03     30.9204E-03    -15.4357E-03     32.5888E-03
             928     8.86223E-03     89.7882E-03    -3.41448E+06    -42.2130E+06     1.28451E+06    -8.18142E+06    -15.6736E-03     31.1675E-03    -15.4938E-03     37.0917E-03    -15.6357E-03     30.9638E-03    -15.4213E-03     36.9774E-03
             929     9.74861E-03     89.8241E-03    -2.63477E+06    -45.9103E+06     1.34249E+06    -8.18048E+06    -15.7768E-03     31.2627E-03    -15.4860E-03     41.5016E-03    -15.7321E-03     31.0418E-03    -15.4089E-03     41.3844E-03
             930     10.6349E-03     89.8640E-03    -1.40641E+06    -44.8695E+06    -792.030E+03    -8.81138E+06    -15.9227E-03     31.3864E-03    -15.4637E-03     45.9137E-03    -15.8743E-03     31.1760E-03    -15.4006E-03     45.7842E-03
             931     11.5212E-03     89.9080E-03    -1.24324E+06    -40.7747E+06     387.179E+03    -9.00355E+06    -16.0760E-03     31.5363E-03    -15.4602E-03     50.3955E-03    -16.0408E-03     31.3508E-03    -15.3974E-03     50.2581E-03
             932     12.4074E-03     89.9561E-03    -1.76298E+06    -44.8196E+06    -1.86906E+06    -8.53833E+06    -16.3479E-03     31.8054E-03    -15.4575E-03     57.5061E-03    -16.3185E-03     31.6161E-03    -15.3993E-03     57.3674E-03
             933     13.2935E-03     90.0134E-03    -2.06832E+06    -49.0619E+06    -13.3463E+06    -7.93310E+06    -16.5667E-03     31.9817E-03    -15.4150E-03     60.6891E-03    -16.5332E-03     31.8054E-03    -15.4076E-03     60.5502E-03
             934     14.1795E-03     90.0678E-03    -2.80233E+06    -34.5276E+06    -15.7054E+06    -7.38392E+06    -16.6851E-03     32.0800E-03    -15.3949E-03     65.1565E-03    -16.7059E-03     32.0139E-03    -15.4193E-03     65.0198E-03
             935     15.0659E-03     90.1325E-03    -3.16502E+06    -1.48209E+06    -15.4847E+06    -6.78556E+06    -17.9228E-03     33.2819E-03    -15.3591E-03     96.8335E-03    -18.1764E-03     33.5639E-03    -15.4298E-03     96.7235E-03
             936     15.9519E-03     90.2462E-03    -3.37906E+06     50.4385E+06    -21.5496E+06    -4.56677E+06    -21.1555E-03     36.4199E-03    -15.2644E-03     161.232E-03    -22.8420E-03     38.3359E-03    -15.4404E-03     161.700E-03
             937     16.8376E-03     90.4350E-03    -2.85006E+06     140.724E+06     29.4161E+06    -1.44528E+06    -23.9825E-03     39.3724E-03    -15.3899E-03     225.046E-03    -29.1742E-03     44.9683E-03    -15.4428E-03     229.032E-03
             938     886.180E-06     90.6087E-03    -9.42512E+06    -27.8750E+06    -9.02151E+06    -1.62532E+06    -15.4850E-03     31.0064E-03    -15.5214E-03     3.53872E-03    -15.4786E-03     30.8939E-03    -15.5124E-03     3.51726E-03
             939     1.77231E-03     90.6132E-03    -9.03130E+06    -28.1951E+06    -7.83103E+06    -2.80174E+06    -15.4937E-03     30.9985E-03    -15.5048E-03     6.58274E-03    -15.4867E-03     30.8820E-03    -15.4899E-03     6.54566E-03
             940     2.65852E-03     90.6207E-03    -8.34601E+06    -29.0729E+06    -6.28772E+06    -4.30191E+06    -15.4788E-03     30.9818E-03    -15.5030E-03     9.85875E-03    -15.4694E-03     30.8578E-03    -15.4802E-03     9.80185E-03
             941     3.54471E-03     90.6311E-03    -7.39934E+06    -30.3196E+06    -4.55226E+06    -5.71836E+06    -15.4657E-03     30.9643E-03    -15.4986E-03     13.2642E-03    -15.4525E-03     30.8303E-03    -15.4667E-03     13.1885E-03
             942     4.43100E-03     90.6448E-03    -6.34515E+06    -31.5392E+06    -3.05850E+06    -6.24773E+06    -15.4560E-03     30.9462E-03    -15.4903E-03     16.8163E-03    -15.4380E-03     30.8027E-03    -15.4506E-03     16.7333E-03
             943     5.31726E-03     90.6617E-03    -5.22594E+06     -36.103E+06    -1.25232E+06    -7.09023E+06    -15.4617E-03     30.9485E-03    -15.4868E-03     20.5245E-03    -15.4345E-03     30.7782E-03    -15.4331E-03     20.4299E-03
             944     6.20362E-03     90.6821E-03    -3.75157E+06    -37.0463E+06    -25.2388E+03    -7.78519E+06    -15.4673E-03     30.9409E-03    -15.4736E-03     24.4426E-03    -15.4335E-03     30.7624E-03    -15.4146E-03     24.3382E-03
             945     7.08996E-03     90.7062E-03    -2.63277E+06    -36.6742E+06     1.84884E+06    -7.74498E+06    -15.4909E-03     30.9527E-03    -15.4618E-03     28.5458E-03    -15.4554E-03     30.7723E-03    -15.3956E-03     28.4409E-03
             946     7.97637E-03     90.7340E-03    -2.69579E+06    -41.1425E+06     3.25450E+06    -7.50528E+06    -15.5471E-03     31.0051E-03    -15.4579E-03     32.7946E-03    -15.5084E-03     30.8013E-03    -15.3781E-03     32.6912E-03
             947     8.86276E-03     90.7658E-03    -3.20190E+06    -41.3386E+06     2.40988E+06    -7.57992E+06    -15.6058E-03     31.0450E-03    -15.4392E-03     37.2161E-03    -15.5697E-03     30.8437E-03    -15.3625E-03     37.1097E-03
             948     9.74918E-03     90.8018E-03    -2.81497E+06    -43.5745E+06     1.96483E+06    -9.00304E+06    -15.7057E-03     31.1320E-03    -15.4263E-03     41.6873E-03    -15.6662E-03     30.9221E-03    -15.3492E-03     41.5597E-03
             949     10.6355E-03     90.8417E-03    -2.16861E+06    -44.2039E+06    -1.53952E+06    -9.60473E+06    -15.8593E-03     31.2591E-03    -15.3998E-03     46.1953E-03    -15.8145E-03     31.0541E-03    -15.3402E-03     46.0558E-03
             950     11.5219E-03     90.8858E-03    -1.67296E+06    -40.5005E+06    -180.945E+03    -8.81864E+06    -16.0500E-03     31.4481E-03    -15.3981E-03     50.7292E-03    -16.0164E-03     31.2653E-03    -15.3378E-03     50.5945E-03
             951     12.4081E-03     90.9341E-03    -1.05444E+06    -44.3168E+06    -1.29765E+06    -8.68063E+06    -16.3654E-03     31.7676E-03    -15.4022E-03     57.8911E-03    -16.3341E-03     31.5790E-03    -15.3429E-03     57.7508E-03
             952     13.2942E-03     90.9915E-03    -1.12250E+06    -49.4607E+06    -13.5300E+06    -8.27717E+06    -16.5225E-03     31.8814E-03    -15.3589E-03     61.0223E-03    -16.4833E-03     31.7018E-03    -15.3532E-03     60.8794E-03
             953     14.1806E-03     91.0454E-03    -1.71571E+06    -34.8779E+06    -15.0044E+06    -7.15995E+06    -16.7506E-03     32.0967E-03    -15.3461E-03     65.2901E-03    -16.7662E-03     32.0259E-03    -15.3681E-03     65.1562E-03
             954     15.0663E-03     91.1111E-03    -2.91220E+06    -917.202E+03    -14.1991E+06    -6.82389E+06    -18.3030E-03     33.6314E-03    -15.3284E-03     97.0775E-03    -18.5610E-03     33.9170E-03    -15.3938E-03     96.9648E-03
             955     15.9515E-03     91.2250E-03    -3.76147E+06     47.2293E+06    -20.9853E+06    -5.07568E+06    -21.2596E-03     36.5113E-03    -15.2517E-03     161.346E-03    -22.9448E-03     38.4117E-03    -15.4197E-03     161.813E-03
             956     16.8384E-03     91.4123E-03    -2.92952E+06     137.049E+06     29.0366E+06    -1.65983E+06    -23.9165E-03     39.2909E-03    -15.3744E-03     225.164E-03    -29.1095E-03     44.8758E-03    -15.4237E-03     229.150E-03
             957     886.192E-06     91.5867E-03    -8.54112E+06    -24.7330E+06    -8.17152E+06    -1.52998E+06    -15.4374E-03     30.8850E-03    -15.4476E-03     3.55805E-03    -15.4324E-03     30.7857E-03    -15.4402E-03     3.53783E-03
             958     1.77243E-03     91.5912E-03    -7.94546E+06    -25.1806E+06    -7.05368E+06    -2.92190E+06    -15.4296E-03     30.8721E-03    -15.4425E-03     6.58996E-03    -15.4226E-03     30.7680E-03    -15.4297E-03     6.55136E-03
             959     2.65866E-03     91.5986E-03    -7.15983E+06    -25.5909E+06    -5.26491E+06    -4.46929E+06    -15.4099E-03     30.8490E-03    -15.4391E-03     9.87731E-03    -15.4011E-03     30.7393E-03    -15.4180E-03     9.81829E-03
             960     3.54497E-03     91.6091E-03    -6.48791E+06    -27.6225E+06    -3.02640E+06    -5.73118E+06    -15.3964E-03     30.8336E-03    -15.4372E-03     13.2876E-03    -15.3847E-03     30.7096E-03    -15.4029E-03     13.2118E-03
             961     4.43125E-03     91.6226E-03    -5.79214E+06    -29.8372E+06    -1.62606E+06    -6.43694E+06    -15.3809E-03     30.8099E-03    -15.4290E-03     16.8480E-03    -15.3647E-03     30.6720E-03    -15.3855E-03     16.7625E-03
             962     5.31764E-03     91.6395E-03    -4.89802E+06    -33.0491E+06    -829.960E+03    -7.52403E+06    -15.3724E-03     30.7889E-03    -15.4165E-03     20.5849E-03    -15.3486E-03     30.6328E-03    -15.3656E-03     20.4848E-03
             963     6.20400E-03     91.6598E-03    -4.13899E+06    -35.6165E+06    -432.495E+03    -8.48902E+06    -15.3751E-03     30.7747E-03    -15.3996E-03     24.5275E-03    -15.3447E-03     30.6044E-03    -15.3441E-03     24.4142E-03
             964     7.09050E-03     91.6838E-03    -3.47086E+06    -36.4318E+06     940.085E+03    -7.87233E+06    -15.3930E-03     30.7778E-03    -15.3849E-03     28.6662E-03    -15.3607E-03     30.6011E-03    -15.3223E-03     28.5598E-03
             965     7.97694E-03     91.7117E-03    -2.73947E+06    -40.8771E+06     3.52057E+06    -6.80227E+06    -15.4524E-03     30.8355E-03    -15.3831E-03     32.9302E-03    -15.4147E-03     30.6327E-03    -15.3022E-03     32.8361E-03
             966     8.86342E-03     91.7434E-03    -1.95788E+06    -39.4866E+06     3.66688E+06    -7.14380E+06    -15.5147E-03     30.8778E-03    -15.3630E-03     37.4018E-03    -15.4768E-03     30.6820E-03    -15.2846E-03     37.3014E-03
             967     9.74990E-03     91.7794E-03    -1.90558E+06    -40.4649E+06     2.91163E+06    -8.72995E+06    -15.6112E-03     30.9567E-03    -15.3455E-03     41.9623E-03    -15.5728E-03     30.7595E-03    -15.2695E-03     41.8385E-03
             968     10.6364E-03     91.8193E-03    -2.18084E+06    -43.7461E+06    -1.42809E+06    -9.70492E+06    -15.7912E-03     31.1105E-03    -15.3193E-03     46.5429E-03    -15.7471E-03     30.9075E-03    -15.2598E-03     46.4024E-03
             969     11.5228E-03     91.8636E-03    -1.81915E+06    -40.4969E+06    -589.673E+03    -9.44458E+06    -16.0003E-03     31.3170E-03    -15.3168E-03     51.1689E-03    -15.9667E-03     31.1349E-03    -15.2584E-03     51.0264E-03
             970     12.4091E-03     91.9120E-03    -1.38599E+06    -43.5238E+06    -667.988E+03    -9.15857E+06    -16.3413E-03     31.6689E-03    -15.3276E-03     58.2865E-03    -16.3136E-03     31.4837E-03    -15.2658E-03     58.1402E-03
             971     13.2953E-03     91.9693E-03    -1.52116E+06    -49.7594E+06    -13.3370E+06    -8.63771E+06    -16.6780E-03     31.9706E-03    -15.2926E-03     61.2802E-03    -16.6409E-03     31.7901E-03    -15.2849E-03     61.1323E-03
             972     14.1810E-03     92.0236E-03    -1.97896E+06    -35.2619E+06    -14.6880E+06    -7.56937E+06    -16.9989E-03     32.2956E-03    -15.2967E-03     65.6717E-03    -17.0164E-03     32.2235E-03    -15.3161E-03     65.5317E-03
             973     15.0668E-03     92.0898E-03    -1.93142E+06    -1.18186E+06    -12.1626E+06    -6.64720E+06    -18.3086E-03     33.6038E-03    -15.2952E-03     97.5978E-03    -18.5647E-03     33.8841E-03    -15.3515E-03     97.4879E-03
             974     15.9530E-03     92.2038E-03    -2.81023E+06     43.6765E+06    -19.8397E+06    -4.66740E+06    -21.4074E-03     36.6320E-03    -15.2246E-03     161.321E-03    -23.0829E-03     38.5101E-03    -15.3831E-03     161.788E-03
             975     16.8384E-03     92.3901E-03    -3.00647E+06     133.977E+06     28.9137E+06    -1.69878E+06    -24.1559E-03     39.5100E-03    -15.3541E-03     225.012E-03    -29.3493E-03     45.0845E-03    -15.3994E-03     228.994E-03
             976     886.287E-06     92.5646E-03    -8.91213E+06    -21.5700E+06    -8.73474E+06    -1.53426E+06    -15.3584E-03     30.7033E-03    -15.3449E-03     3.56972E-03    -15.3590E-03     30.6212E-03    -15.3444E-03     3.54947E-03
             977     1.77256E-03     92.5690E-03    -8.37205E+06    -21.7291E+06    -7.17814E+06    -3.23209E+06    -15.3354E-03     30.6877E-03    -15.3523E-03     6.61193E-03    -15.3354E-03     30.6017E-03    -15.3446E-03     6.56936E-03
             978     2.65891E-03     92.5764E-03    -7.42474E+06    -22.3852E+06    -4.54335E+06    -4.62782E+06    -15.3179E-03     30.6708E-03    -15.3529E-03     9.90601E-03    -15.3162E-03     30.5764E-03    -15.3324E-03     9.84499E-03
             979     3.54523E-03     92.5868E-03    -6.29302E+06    -25.0787E+06    -1.89741E+06    -5.61775E+06    -15.3001E-03     30.6527E-03    -15.3527E-03     13.3225E-03    -15.2927E-03     30.5395E-03    -15.3167E-03     13.2482E-03
             980     4.43166E-03     92.6003E-03    -5.18919E+06    -27.6763E+06    -591.208E+03    -6.45093E+06    -15.2775E-03     30.6194E-03    -15.3418E-03     16.8955E-03    -15.2630E-03     30.4899E-03    -15.2971E-03     16.8099E-03
             981     5.31808E-03     92.6171E-03    -4.46211E+06    -30.0526E+06    -225.014E+03    -7.55556E+06    -15.2618E-03     30.5851E-03    -15.3234E-03     20.6603E-03    -15.2409E-03     30.4424E-03    -15.2744E-03     20.5599E-03
             982     6.20463E-03     92.6374E-03    -4.37004E+06    -34.2930E+06     228.802E+03    -8.00404E+06    -15.2645E-03     30.5722E-03    -15.3077E-03     24.6186E-03    -15.2381E-03     30.4079E-03    -15.2505E-03     24.5116E-03
             983     7.09112E-03     92.6613E-03    -4.58413E+06    -36.4739E+06     393.375E+03     -7.5856E+06    -15.2709E-03     30.5586E-03    -15.2877E-03     28.8024E-03    -15.2432E-03     30.3840E-03    -15.2262E-03     28.6999E-03
             984     7.97775E-03     92.6891E-03    -3.65284E+06    -40.1544E+06     1.83258E+06    -7.56367E+06    -15.3095E-03     30.5845E-03    -15.2750E-03     33.1609E-03    -15.2748E-03     30.3890E-03    -15.2023E-03     33.0573E-03
             985     8.86432E-03     92.7208E-03    -2.20725E+06    -38.2254E+06     3.25994E+06    -7.55339E+06    -15.3749E-03     30.6302E-03    -15.2553E-03     37.6866E-03    -15.3393E-03     30.4416E-03    -15.1803E-03     37.5812E-03
             986     9.75101E-03     92.7567E-03    -1.63089E+06    -37.9239E+06     3.98765E+06    -7.92459E+06    -15.5042E-03     30.7446E-03    -15.2404E-03     42.3006E-03    -15.4696E-03     30.5580E-03    -15.1631E-03     42.1875E-03
             987     10.6375E-03     92.7968E-03    -2.06053E+06    -42.1814E+06     111.497E+03    -9.06739E+06    -15.7242E-03     30.9436E-03    -15.2194E-03     46.9521E-03    -15.6839E-03     30.7459E-03    -15.1546E-03     46.8202E-03
             988     11.5240E-03     92.8411E-03    -2.91608E+06    -40.3086E+06    -202.577E+03    -9.32625E+06    -15.9446E-03     31.1624E-03    -15.2178E-03     51.6195E-03    -15.9172E-03     30.9821E-03    -15.1561E-03     51.4789E-03
             989     12.4103E-03     92.8897E-03    -3.00098E+06    -42.4827E+06     -90.109E+03    -9.45669E+06    -16.3879E-03     31.6234E-03    -15.2355E-03     58.8140E-03    -16.3706E-03     31.4450E-03    -15.1700E-03     58.6640E-03
             990     13.2963E-03     92.9474E-03    -2.57091E+06    -50.0972E+06    -12.9189E+06    -9.42052E+06    -16.8791E-03     32.0939E-03    -15.2148E-03     61.8855E-03    -16.8477E-03     31.9130E-03    -15.2030E-03     61.7271E-03
             991     14.1820E-03     93.0021E-03    -2.49864E+06    -36.2399E+06    -14.4929E+06    -8.22954E+06    -17.1208E-03     32.3532E-03    -15.2323E-03     66.2625E-03    -17.1405E-03     32.2773E-03    -15.2486E-03     66.1137E-03
             992     15.0677E-03     93.0681E-03    -2.42732E+06    -2.72258E+06    -11.3569E+06    -7.18429E+06    -18.4123E-03     33.6565E-03    -15.2442E-03     98.0499E-03    -18.6701E-03     33.9290E-03    -15.2935E-03     97.9323E-03
             993     15.9534E-03     93.1821E-03    -2.77309E+06     40.3568E+06    -18.7239E+06    -4.60056E+06    -21.6337E-03     36.8219E-03    -15.1882E-03     161.589E-03    -23.3105E-03     38.6864E-03    -15.3363E-03     162.052E-03
             994     16.8387E-03     93.3698E-03    -2.67046E+06     132.015E+06     29.0625E+06    -1.28067E+06    -24.3046E-03     39.6270E-03    -15.3224E-03     224.913E-03    -29.4880E-03     45.1853E-03    -15.3646E-03     228.889E-03
             995     886.376E-06     93.5422E-03    -9.11568E+06    -18.2047E+06    -8.79878E+06    -1.84917E+06    -15.2331E-03     30.4658E-03    -15.2327E-03     3.57408E-03    -15.2395E-03     30.4008E-03    -15.2371E-03     3.54978E-03
             996     1.77278E-03     93.5467E-03    -8.51668E+06    -18.2503E+06    -6.45173E+06    -3.12094E+06    -15.2162E-03     30.4542E-03    -15.2379E-03     6.63404E-03    -15.2231E-03     30.3847E-03    -15.2314E-03     6.59295E-03
             997     2.65918E-03     93.5540E-03    -7.92268E+06    -19.5311E+06    -4.05395E+06    -4.32679E+06    -15.1943E-03     30.4327E-03    -15.2384E-03     9.93937E-03    -15.1999E-03     30.3526E-03    -15.2189E-03     9.88229E-03
             998     3.54566E-03     93.5644E-03    -7.15634E+06    -22.3910E+06    -2.13630E+06    -5.47510E+06    -15.1669E-03     30.4005E-03    -15.2335E-03     13.3746E-03    -15.1674E-03     30.3023E-03    -15.2014E-03     13.3022E-03
             999     4.43215E-03     93.5777E-03    -6.10043E+06    -25.2653E+06    -702.310E+03    -6.57947E+06    -15.1415E-03     30.3630E-03    -15.2214E-03     16.9663E-03    -15.1348E-03     30.2470E-03    -15.1795E-03     16.8793E-03
            1000     5.31875E-03     93.5945E-03    -5.33508E+06    -27.8344E+06     194.445E+03    -7.13484E+06    -15.1229E-03     30.3267E-03    -15.2037E-03     20.7513E-03    -15.1103E-03     30.1957E-03    -15.1547E-03     20.6565E-03
            1001     6.20532E-03     93.6146E-03    -5.09842E+06    -33.4087E+06     484.912E+03    -7.14215E+06    -15.1178E-03     30.3044E-03    -15.1865E-03     24.7360E-03    -15.0967E-03     30.1451E-03    -15.1283E-03     24.6403E-03
            1002     7.09204E-03     93.6385E-03    -4.59864E+06    -35.4477E+06     269.257E+03    -7.26824E+06    -15.1090E-03     30.2686E-03    -15.1596E-03     28.9764E-03    -15.0826E-03     30.0993E-03    -15.1002E-03     28.8782E-03
            1003     7.97874E-03     93.6662E-03    -4.09324E+06    -38.3457E+06     1.12063E+06    -8.13191E+06    -15.1313E-03     30.2698E-03    -15.1385E-03     33.4159E-03    -15.1003E-03     30.0849E-03    -15.0714E-03     33.3053E-03
            1004     8.86558E-03     93.6980E-03    -3.37807E+06    -38.1675E+06     2.51151E+06    -8.14580E+06    -15.2155E-03     30.3338E-03    -15.1183E-03     38.0143E-03    -15.1846E-03     30.1481E-03    -15.0455E-03     37.9016E-03
            1005     9.75226E-03     93.7339E-03    -2.56206E+06    -36.4038E+06     4.42851E+06    -7.71678E+06    -15.3818E-03     30.4880E-03    -15.1061E-03     42.7155E-03    -15.3546E-03     30.3095E-03    -15.0275E-03     42.6054E-03
            1006     10.6390E-03     93.7741E-03    -2.71593E+06    -40.8033E+06     2.29889E+06    -7.78478E+06    -15.6383E-03     30.7343E-03    -15.0960E-03     47.4215E-03    -15.6062E-03     30.5411E-03    -15.0214E-03     47.3065E-03
            1007     11.5254E-03     93.8185E-03    -3.26101E+06    -38.9116E+06     1.58191E+06    -8.50135E+06    -15.9306E-03     31.0285E-03    -15.0979E-03     52.1412E-03    -15.9095E-03     30.8530E-03    -15.0288E-03     52.0115E-03
            1008     12.4118E-03     93.8674E-03    -2.76157E+06    -40.4634E+06     1.02565E+06    -10.1074E+06    -16.4337E-03     31.5535E-03    -15.1198E-03     59.5940E-03    -16.4199E-03     31.3832E-03    -15.0520E-03     59.4358E-03
            1009     13.2977E-03     93.9258E-03    -2.34997E+06    -50.9480E+06    -12.5420E+06    -10.1108E+06    -16.9305E-03     32.0395E-03    -15.1090E-03     62.7906E-03    -16.8974E-03     31.8536E-03    -15.0944E-03     62.6236E-03
            1010     14.1832E-03     93.9804E-03    -2.53002E+06    -37.0509E+06    -14.3058E+06    -8.64253E+06    -17.2904E-03     32.4282E-03    -15.1378E-03     66.9335E-03    -17.3100E-03     32.3488E-03    -15.1520E-03     66.7791E-03
            1011     15.0691E-03     94.0465E-03    -3.39157E+06    -3.26131E+06    -10.4370E+06    -7.34528E+06    -18.7889E-03     33.9634E-03    -15.1745E-03     98.7099E-03    -19.0551E-03     34.2362E-03    -15.2170E-03     98.5881E-03
            1012     15.9540E-03     94.1616E-03    -4.30427E+06     36.7394E+06    -17.9557E+06    -5.00387E+06    -21.8234E-03     36.9658E-03    -15.1423E-03     161.819E-03    -23.5078E-03     38.8173E-03    -15.2791E-03     162.279E-03
            1013     16.8403E-03     94.3476E-03    -3.17729E+06     128.784E+06     29.1841E+06    -1.67344E+06    -24.4450E-03     39.7286E-03    -15.2836E-03     224.645E-03    -29.6228E-03     45.2677E-03    -15.3198E-03     228.596E-03
            1014     886.503E-06     94.5197E-03    -9.64093E+06    -14.7544E+06    -8.90814E+06    -1.80044E+06    -15.0778E-03     30.1691E-03    -15.0913E-03     3.58505E-03    -15.0917E-03     30.1223E-03    -15.1005E-03     3.56141E-03
            1015     1.77302E-03     94.5241E-03    -9.20419E+06    -15.5286E+06    -6.99962E+06    -2.63768E+06    -15.0591E-03     30.1474E-03    -15.0883E-03     6.65934E-03    -15.0725E-03     30.0933E-03    -15.0875E-03     6.62453E-03
            1016     2.65958E-03     94.5314E-03    -8.48669E+06    -16.7902E+06    -4.22715E+06    -3.63339E+06    -15.0302E-03     30.1173E-03    -15.0870E-03     9.97608E-03    -15.0423E-03     30.0519E-03    -15.0715E-03     9.92804E-03
            1017     3.54617E-03     94.5416E-03    -7.69070E+06    -19.6217E+06    -1.62570E+06    -4.87021E+06    -15.0012E-03     30.0839E-03    -15.0827E-03     13.4298E-03    -15.0091E-03     29.9996E-03    -15.0512E-03     13.3654E-03
            1018     4.43284E-03     94.5550E-03    -7.27715E+06    -22.8215E+06    -192.898E+03    -5.93353E+06    -14.9722E-03     30.0424E-03    -15.0702E-03     17.0460E-03    -14.9756E-03     29.9395E-03    -15.0275E-03     16.9674E-03
            1019     5.31951E-03     94.5716E-03    -7.15863E+06    -26.5912E+06    -184.670E+03    -6.29011E+06    -14.9407E-03     29.9891E-03    -15.0484E-03     20.8615E-03    -14.9384E-03     29.8675E-03    -15.0004E-03     20.7778E-03
            1020     6.20634E-03     94.5917E-03    -6.74392E+06    -31.8929E+06    -551.356E+03    -6.68379E+06    -14.9189E-03     29.9422E-03    -15.0233E-03     24.8972E-03    -14.9066E-03     29.7943E-03    -14.9700E-03     24.8078E-03
            1021     7.09314E-03     94.6154E-03    -6.25863E+06    -34.1307E+06    -553.845E+03    -7.23733E+06    -14.9041E-03     29.8972E-03    -14.9931E-03     29.1842E-03    -14.8867E-03     29.7380E-03    -14.9373E-03     29.0867E-03
            1022     7.98013E-03     94.6431E-03    -6.14481E+06    -36.4411E+06     723.680E+03    -7.52268E+06    -14.9354E-03     29.9058E-03    -14.9704E-03     33.6899E-03    -14.9167E-03     29.7338E-03    -14.9050E-03     33.5875E-03
            1023     8.86698E-03     94.6747E-03    -6.15703E+06    -37.4192E+06     1.73461E+06    -8.19806E+06    -15.0349E-03     29.9844E-03    -14.9495E-03     38.3946E-03    -15.0177E-03     29.8075E-03    -14.8776E-03     38.2817E-03
            1024     9.75396E-03     94.7109E-03    -5.80209E+06    -36.5738E+06     3.23683E+06    -7.63575E+06    -15.2193E-03     30.1567E-03    -14.9374E-03     43.2267E-03    -15.2061E-03     29.9837E-03    -14.8598E-03     43.1182E-03
            1025     10.6407E-03     94.7511E-03    -5.18736E+06    -39.5109E+06     2.66600E+06    -7.25766E+06    -15.5289E-03     30.4634E-03    -14.9346E-03     48.0270E-03    -15.5114E-03     30.2795E-03    -14.8564E-03     47.9193E-03
            1026     11.5272E-03     94.7959E-03    -3.68389E+06    -35.9479E+06     2.68989E+06    -9.11686E+06    -15.9050E-03     30.8467E-03    -14.9417E-03     52.9028E-03    -15.8918E-03     30.6849E-03    -14.8708E-03     52.7656E-03
            1027     12.4135E-03     94.8450E-03    -2.67281E+06    -38.6789E+06     1.75449E+06    -10.4256E+06    -16.4067E-03     31.3775E-03    -14.9709E-03     60.4730E-03    -16.3960E-03     31.2149E-03    -14.9021E-03     60.3111E-03
            1028     13.2997E-03     94.9037E-03    -3.28354E+06    -51.9129E+06    -12.4899E+06    -9.96049E+06    -17.0059E-03     31.9780E-03    -14.9721E-03     63.7127E-03    -16.9763E-03     31.7886E-03    -14.9545E-03     63.5478E-03
            1029     14.1854E-03     94.9588E-03    -3.99585E+06    -36.7921E+06    -13.9925E+06    -9.46045E+06    -17.6672E-03     32.6897E-03    -15.0225E-03     67.6574E-03    -17.6963E-03     32.6146E-03    -15.0333E-03     67.4913E-03
            1030     15.0700E-03     95.0257E-03    -3.41870E+06    -4.44436E+06    -8.58927E+06    -7.94233E+06    -19.1241E-03     34.2180E-03    -15.0939E-03     99.1228E-03    -19.3932E-03     34.4841E-03    -15.1254E-03     98.9918E-03
            1031     15.9556E-03     95.1405E-03    -3.13027E+06     32.5761E+06    -16.2498E+06    -4.66068E+06    -22.1436E-03     37.2296E-03    -15.0860E-03     161.905E-03    -23.8177E-03     39.0553E-03    -15.2099E-03     162.359E-03
            1032     16.8402E-03     95.3265E-03    -2.97673E+06     125.763E+06     30.4473E+06    -1.68011E+06    -24.8607E-03     40.1085E-03    -15.2477E-03     224.450E-03    -30.0350E-03     45.6304E-03    -15.2736E-03     228.383E-03
            1033     886.661E-06     95.4968E-03    -11.2242E+06    -11.7677E+06    -10.4554E+06    -1.24882E+06    -14.8809E-03     29.7820E-03    -14.9011E-03     3.59947E-03    -14.9048E-03     29.7547E-03    -14.9201E-03     3.58298E-03
            1034     1.77334E-03     95.5012E-03    -10.6721E+06    -13.4082E+06    -8.30883E+06    -2.17995E+06    -14.8627E-03     29.7590E-03    -14.8963E-03     6.69318E-03    -14.8847E-03     29.7196E-03    -14.9029E-03     6.66434E-03
            1035     2.66007E-03     95.5084E-03    -9.94564E+06    -14.5887E+06    -5.14828E+06    -2.80395E+06    -14.8273E-03     29.7220E-03    -14.8948E-03     10.0197E-03    -14.8485E-03     29.6711E-03    -14.8849E-03     9.98246E-03
            1036     3.54685E-03     95.5186E-03     -9.4268E+06    -17.1709E+06    -1.86662E+06    -3.67553E+06    -14.7911E-03     29.6825E-03    -14.8914E-03     13.4928E-03    -14.8108E-03     29.6133E-03    -14.8622E-03     13.4440E-03
            1037     4.43366E-03     95.5318E-03    -9.10589E+06    -20.9482E+06    -155.751E+03    -4.37758E+06    -14.7527E-03     29.6310E-03    -14.8784E-03     17.1351E-03    -14.7680E-03     29.5401E-03    -14.8356E-03     17.0767E-03
            1038     5.32059E-03     95.5484E-03    -8.78840E+06    -24.9554E+06    -228.064E+03    -5.18083E+06    -14.7116E-03     29.5642E-03    -14.8526E-03     20.9818E-03    -14.7197E-03     29.4531E-03    -14.8048E-03     20.9126E-03
            1039     6.20753E-03     95.5683E-03    -8.34106E+06    -29.8442E+06    -645.305E+03    -6.26415E+06    -14.6818E-03     29.5043E-03    -14.8225E-03     25.0626E-03    -14.6802E-03     29.3691E-03    -14.7704E-03     24.9788E-03
            1040     7.09464E-03     95.5920E-03    -8.00012E+06    -33.1219E+06    -376.383E+03    -6.65237E+06    -14.6770E-03     29.4693E-03    -14.7923E-03     29.3946E-03    -14.6699E-03     29.3173E-03    -14.7346E-03     29.3050E-03
            1041     7.98169E-03     95.6194E-03    -7.67382E+06    -35.0980E+06     939.184E+03    -6.82798E+06    -14.7179E-03     29.4854E-03    -14.7675E-03     33.9927E-03    -14.7090E-03     29.3219E-03    -14.7008E-03     33.8996E-03
            1042     8.86887E-03     95.6513E-03    -7.61164E+06    -35.8845E+06     2.18451E+06    -7.15100E+06    -14.8299E-03     29.5770E-03    -14.7470E-03     38.8062E-03    -14.8227E-03     29.4090E-03    -14.6731E-03     38.7072E-03
            1043     9.75586E-03     95.6872E-03    -7.59265E+06    -36.9219E+06     2.63903E+06    -7.27989E+06    -15.0392E-03     29.7731E-03    -14.7339E-03     43.7853E-03    -15.0333E-03     29.6015E-03    -14.6561E-03     43.6819E-03
            1044     10.6429E-03     95.7280E-03    -6.36236E+06    -37.3549E+06     2.47478E+06    -8.02212E+06    -15.3944E-03     30.1262E-03    -14.7318E-03     48.7847E-03    -15.3854E-03     29.9548E-03    -14.6560E-03     48.6678E-03
            1045     11.5295E-03     95.7729E-03    -5.35064E+06    -32.6425E+06     3.34798E+06    -9.89306E+06    -15.8559E-03     30.6057E-03    -14.7498E-03     53.7528E-03    -15.8566E-03     30.4618E-03    -14.6780E-03     53.6060E-03
            1046     12.4159E-03     95.8226E-03    -4.50500E+06    -37.8068E+06     2.43817E+06    -10.8346E+06    -16.4846E-03     31.2815E-03    -14.7969E-03     61.1690E-03    -16.4855E-03     31.1251E-03    -14.7234E-03     61.0019E-03
            1047     13.3020E-03     95.8813E-03    -3.76222E+06    -52.5083E+06    -11.7493E+06    -10.0776E+06    -17.2434E-03     32.0632E-03    -14.8197E-03     64.5778E-03    -17.2170E-03     31.8710E-03    -14.7969E-03     64.4110E-03
            1048     14.1868E-03     95.9382E-03    -4.41561E+06    -36.1371E+06    -12.9248E+06    -9.74082E+06    -17.9281E-03     32.8218E-03    -14.8937E-03     68.6503E-03    -17.9627E-03     32.7499E-03    -14.8995E-03     68.4799E-03
            1049     15.0719E-03     96.0047E-03    -4.60919E+06    -6.45236E+06    -7.92729E+06    -9.12572E+06    -19.4977E-03     34.4907E-03    -14.9929E-03     99.7320E-03    -19.7732E-03     34.7499E-03    -15.0165E-03     99.5831E-03
            1050     15.9566E-03     96.1196E-03    -4.10127E+06     27.7725E+06    -15.9139E+06    -5.34642E+06    -22.6831E-03     37.7002E-03    -15.0171E-03     162.202E-03    -24.3587E-03     39.5060E-03    -15.1310E-03     162.632E-03
            1051     16.8418E-03     96.3065E-03    -3.07766E+06     123.590E+06     31.7684E+06    -1.42301E+06    -25.3113E-03     40.5204E-03    -15.2091E-03     224.176E-03    -30.4776E-03     46.0223E-03    -15.2250E-03     228.082E-03
            1052     886.866E-06     96.4735E-03    -13.4810E+06    -10.0205E+06    -12.4502E+06    -369.233E+03    -14.6362E-03     29.2916E-03    -14.6554E-03     3.62337E-03    -14.6710E-03     29.2792E-03    -14.6836E-03     3.61826E-03
            1053     1.77377E-03     96.4778E-03    -13.5232E+06    -11.5874E+06    -10.1306E+06    -1.14729E+06    -14.6215E-03     29.2766E-03    -14.6551E-03     6.72899E-03    -14.6576E-03     29.2530E-03    -14.6694E-03     6.71354E-03
            1054     2.66067E-03     96.4850E-03    -13.1000E+06    -13.4305E+06    -6.93977E+06    -1.56990E+06    -14.5811E-03     29.2379E-03    -14.6568E-03     10.0709E-03    -14.6171E-03     29.1999E-03    -14.6530E-03     10.0497E-03
            1055     3.54766E-03     96.4951E-03    -12.5178E+06    -15.4131E+06    -3.57064E+06    -1.94860E+06    -14.5285E-03     29.1798E-03    -14.6512E-03     13.5651E-03    -14.5638E-03     29.1263E-03    -14.6286E-03     13.5386E-03
            1056     4.43472E-03     96.5083E-03    -11.8476E+06    -19.3887E+06    -901.835E+03    -2.80934E+06    -14.4808E-03     29.1198E-03    -14.6390E-03     17.2320E-03    -14.5110E-03     29.0417E-03    -14.5982E-03     17.1940E-03
            1057     5.32184E-03     96.5247E-03    -11.2569E+06    -22.8748E+06     8.99512E+03    -3.82640E+06    -14.4372E-03     29.0506E-03    -14.6133E-03     21.1104E-03    -14.4609E-03     28.9531E-03    -14.5638E-03     21.0589E-03
            1058     6.20907E-03     96.5446E-03    -11.3233E+06    -27.8175E+06    -411.279E+03    -4.89304E+06    -14.4125E-03     28.9943E-03    -14.5818E-03     25.2306E-03    -14.4291E-03     28.8731E-03    -14.5271E-03     25.1648E-03
            1059     7.09632E-03     96.5680E-03    -11.3914E+06    -31.9644E+06    -919.545E+03    -5.76289E+06    -14.4139E-03     28.9625E-03    -14.5486E-03     29.6373E-03    -14.4245E-03     28.8219E-03    -14.4904E-03     29.5595E-03
            1060     7.98368E-03     96.5956E-03    -10.7729E+06    -33.5801E+06    -127.001E+03    -6.51114E+06    -14.4595E-03     28.9792E-03    -14.5198E-03     34.3368E-03    -14.4666E-03     28.8292E-03    -14.4561E-03     34.2483E-03
            1061     8.87097E-03     96.6272E-03    -9.87639E+06    -35.5544E+06     1.23557E+06    -6.39777E+06    -14.5958E-03     29.0966E-03    -14.5008E-03     39.2765E-03    -14.5988E-03     28.9348E-03    -14.4288E-03     39.1877E-03
            1062     9.75830E-03     96.6636E-03    -8.72537E+06    -34.7442E+06     2.90210E+06    -7.20042E+06    -14.8491E-03     29.3412E-03    -14.4922E-03     44.4035E-03    -14.8521E-03     29.1816E-03    -14.4146E-03     44.3017E-03
            1063     10.6453E-03     96.7042E-03    -7.54033E+06    -35.4673E+06     2.78713E+06    -8.86927E+06    -15.2622E-03     29.7591E-03    -14.4968E-03     49.5866E-03    -15.2621E-03     29.5982E-03    -14.4205E-03     49.4593E-03
            1064     11.5322E-03     96.7500E-03    -6.44327E+06    -29.8152E+06     4.43373E+06    -9.80953E+06    -15.8543E-03     30.3834E-03    -14.5291E-03     54.6811E-03    -15.8660E-03     30.2536E-03    -14.4544E-03     54.5358E-03
            1065     12.4183E-03     96.7998E-03    -5.43865E+06    -35.8639E+06     3.20964E+06    -11.6399E+06    -16.6886E-03     31.2860E-03    -14.5975E-03     62.1200E-03    -16.6984E-03     31.1400E-03    -14.5215E-03     61.9423E-03
            1066     13.3038E-03     96.8597E-03    -4.36106E+06    -54.0018E+06    -12.5375E+06    -11.5229E+06    -17.4817E-03     32.1250E-03    -14.6433E-03     65.7713E-03    -17.4556E-03     31.9280E-03    -14.6213E-03     65.5855E-03
            1067     14.1894E-03     96.9167E-03    -3.59197E+06    -36.0207E+06    -11.6967E+06    -9.64388E+06    -18.1362E-03     32.8817E-03    -14.7455E-03     69.7174E-03    -18.1695E-03     32.8083E-03    -14.7465E-03     69.5477E-03
            1068     15.0741E-03     96.9843E-03    -4.46096E+06    -6.74603E+06    -5.81508E+06     -8.6108E+06    -20.0162E-03     34.8948E-03    -14.8786E-03     100.496E-03    -20.2978E-03     35.1535E-03    -14.8914E-03     100.350E-03
            1069     15.9580E-03     97.0999E-03    -5.69398E+06     23.8056E+06    -15.5667E+06    -6.27102E+06    -23.3237E-03     38.2636E-03    -14.9399E-03     162.366E-03    -25.0056E-03     40.0550E-03    -15.0440E-03     162.773E-03
            1070     16.8419E-03     97.2858E-03    -4.22281E+06     119.250E+06     32.4237E+06    -2.53994E+06    -25.8733E-03     41.0437E-03    -15.1704E-03     223.876E-03    -31.0416E-03     46.5264E-03    -15.1751E-03     227.726E-03
            1071     887.143E-06     97.4497E-03    -17.6492E+06    -10.5393E+06    -16.1766E+06     1.06654E+06    -14.3459E-03     28.6943E-03    -14.3484E-03     3.64864E-03    -14.3954E-03     28.6907E-03    -14.3884E-03     3.66210E-03
            1072     1.77425E-03     97.4540E-03    -17.6571E+06    -10.6558E+06    -13.0375E+06     843.582E+03    -14.3205E-03     28.6807E-03    -14.3602E-03     6.76291E-03    -14.3745E-03     28.6720E-03    -14.3844E-03     6.77324E-03
            1073     2.66144E-03     97.4611E-03    -17.2026E+06    -12.8679E+06    -9.14911E+06     232.966E+03    -14.2808E-03     28.6474E-03    -14.3666E-03     10.1302E-03    -14.3350E-03     28.6213E-03    -14.3687E-03     10.1324E-03
            1074     3.54866E-03     97.4711E-03    -16.2958E+06    -14.5875E+06    -5.44803E+06    -142.181E+03    -14.2225E-03     28.5841E-03    -14.3616E-03     13.6446E-03    -14.2751E-03     28.5429E-03    -14.3440E-03     13.6416E-03
            1075     4.43599E-03     97.4842E-03    -15.5604E+06    -17.7823E+06    -2.22402E+06    -887.223E+03    -14.1644E-03     28.5135E-03    -14.3491E-03     17.3337E-03    -14.2135E-03     28.4507E-03    -14.3119E-03     17.3208E-03
            1076     5.32339E-03     97.5005E-03    -15.3277E+06    -21.4193E+06    -685.976E+03    -1.76253E+06    -14.1186E-03     28.4439E-03    -14.3253E-03     21.2444E-03    -14.1638E-03     28.3606E-03    -14.2754E-03     21.2197E-03
            1077     6.21085E-03     97.5202E-03    -15.4283E+06    -26.0307E+06    -1.00233E+06    -2.60000E+06    -14.0993E-03     28.3920E-03    -14.2928E-03     25.4180E-03    -14.1381E-03     28.2865E-03    -14.2376E-03     25.3820E-03
            1078     7.09839E-03     97.5437E-03    -15.6968E+06    -29.6624E+06    -2.04625E+06    -4.24127E+06    -14.1075E-03     28.3638E-03    -14.2563E-03     29.9084E-03    -14.1412E-03     28.2425E-03    -14.2008E-03     29.8506E-03
            1079     7.98596E-03     97.5710E-03    -15.7934E+06    -31.8921E+06    -2.27295E+06    -5.75309E+06    -14.1687E-03     28.3941E-03    -14.2254E-03     34.7208E-03    -14.2001E-03     28.2628E-03    -14.1676E-03     34.6424E-03
            1080     8.87357E-03     97.6029E-03    -14.8241E+06    -34.8446E+06    -984.537E+03    -6.69075E+06    -14.3419E-03     28.5524E-03    -14.2105E-03     39.8043E-03    -14.3673E-03     28.4043E-03    -14.1434E-03     39.7122E-03
            1081     9.76100E-03     97.6391E-03    -13.0675E+06    -31.9943E+06     1.46405E+06    -7.79214E+06    -14.6447E-03     28.8526E-03    -14.2079E-03     45.0993E-03    -14.6711E-03     28.7148E-03    -14.1353E-03     44.9905E-03
            1082     10.6483E-03     97.6805E-03    -11.4192E+06    -33.0781E+06     1.91746E+06    -9.39328E+06    -15.1425E-03     29.3679E-03    -14.2253E-03     50.4683E-03    -15.1637E-03     29.2256E-03    -14.1512E-03     50.3347E-03
            1083     11.5350E-03     97.7263E-03    -9.60550E+06    -28.0226E+06     2.88365E+06    -10.7336E+06    -15.8209E-03     30.0890E-03    -14.2681E-03     55.9026E-03    -15.8486E-03     29.9747E-03    -14.1991E-03     55.7459E-03
            1084     12.4213E-03     97.7778E-03    -7.92237E+06    -32.4394E+06     2.74297E+06    -12.2931E+06    -16.8198E-03     31.1784E-03    -14.3585E-03     63.5644E-03    -16.8467E-03     31.0540E-03    -14.2863E-03     63.3783E-03
            1085     13.3070E-03     97.8374E-03    -6.79081E+06    -54.7163E+06    -13.2676E+06    -13.4110E+06    -17.8206E-03     32.2587E-03    -14.4381E-03     67.0305E-03    -17.8054E-03     32.0636E-03    -14.4153E-03     66.8196E-03
            1086     14.1916E-03     97.8959E-03    -4.97092E+06    -37.6804E+06    -12.1185E+06    -11.3938E+06    -18.6715E-03     33.2512E-03    -14.5797E-03     70.8310E-03    -18.7107E-03     33.1741E-03    -14.5784E-03     70.6369E-03
            1087     15.0758E-03     97.9638E-03    -3.25717E+06    -7.96177E+06    -4.36795E+06    -8.73810E+06    -20.4888E-03     35.2439E-03    -14.7551E-03     101.334E-03    -20.7686E-03     35.4965E-03    -14.7606E-03     101.183E-03
            1088     15.9595E-03     98.0810E-03    -3.11180E+06     20.1189E+06    -14.7359E+06    -5.55998E+06    -23.9723E-03     38.8223E-03    -14.8500E-03     162.872E-03    -25.6332E-03     40.5864E-03    -14.9484E-03     163.271E-03
            1089     16.8435E-03     98.2658E-03    -2.72476E+06     116.080E+06     30.6266E+06    -2.43394E+06    -26.5272E-03     41.6330E-03    -15.1057E-03     223.674E-03    -31.6737E-03     47.0930E-03    -15.1170E-03     227.488E-03
            1090     887.400E-06     98.4253E-03    -22.0766E+06    -13.7755E+06    -20.7336E+06     2.41327E+06    -13.9973E-03     28.0019E-03    -14.0047E-03     3.66695E-03    -14.0576E-03     27.9952E-03    -14.0563E-03     3.69783E-03
            1091     1.77488E-03     98.4296E-03    -21.8991E+06    -11.5878E+06    -16.9676E+06     3.19993E+06    -13.9598E-03     27.9706E-03    -14.0108E-03     6.79654E-03    -14.0280E-03     27.9691E-03    -14.0471E-03     6.83735E-03
            1092     2.66233E-03     98.4366E-03    -21.5312E+06    -12.5760E+06    -12.0133E+06     2.70908E+06    -13.9212E-03     27.9394E-03    -14.0182E-03     10.1895E-03    -13.9933E-03     27.9252E-03    -14.0288E-03     10.2237E-03
            1093     3.54988E-03     98.4465E-03    -20.8547E+06    -14.5383E+06    -7.58408E+06     2.10080E+06    -13.8702E-03     27.8881E-03    -14.0179E-03     13.7287E-03    -13.9426E-03     27.8568E-03    -14.0045E-03     13.7548E-03
            1094     4.43747E-03     98.4595E-03    -20.1383E+06    -16.8778E+06    -4.07935E+06     1.65279E+06    -13.8101E-03     27.8171E-03    -14.0069E-03     17.4411E-03    -13.8807E-03     27.7681E-03    -13.9737E-03     17.4611E-03
            1095     5.32518E-03     98.4756E-03    -19.7256E+06    -20.6003E+06    -2.09632E+06     1.00231E+06    -13.7640E-03     27.7499E-03    -13.9859E-03     21.3857E-03    -13.8302E-03     27.6790E-03    -13.9379E-03     21.3969E-03
            1096     6.21295E-03     98.4953E-03    -19.4094E+06    -24.1605E+06    -2.03693E+06    -314.710E+03    -13.7450E-03     27.6984E-03    -13.9534E-03     25.6178E-03    -13.8047E-03     27.6094E-03    -13.9004E-03     25.6117E-03
            1097     7.10079E-03     98.5185E-03    -18.8963E+06    -26.6935E+06    -2.54594E+06    -2.41920E+06    -13.7717E-03     27.6898E-03    -13.9181E-03     30.1862E-03    -13.8249E-03     27.5885E-03    -13.8647E-03     30.1523E-03
            1098     7.98865E-03     98.5460E-03    -18.2879E+06    -29.7598E+06    -2.31301E+06    -4.45512E+06    -13.8795E-03     27.7730E-03    -13.8935E-03     35.1076E-03    -13.9262E-03     27.6559E-03    -13.8354E-03     35.0465E-03
            1099     8.87644E-03     98.5778E-03    -17.4290E+06    -32.1345E+06    -1.23800E+06    -6.69108E+06    -14.0907E-03     27.9745E-03    -13.8838E-03     40.3484E-03    -14.1324E-03     27.8439E-03    -13.8182E-03     40.2569E-03
            1100     9.76411E-03     98.6145E-03    -15.6501E+06    -29.7408E+06     303.463E+03    -8.70467E+06    -14.4446E-03     28.3311E-03    -13.8866E-03     45.8650E-03    -14.4853E-03     28.2098E-03    -13.8192E-03     45.7449E-03
            1101     10.6515E-03     98.6559E-03    -13.6817E+06    -30.6646E+06     1.27455E+06    -9.88514E+06    -15.0152E-03     28.9331E-03    -13.9179E-03     51.4746E-03    -15.0500E-03     28.8068E-03    -13.8473E-03     51.3353E-03
            1102     11.5384E-03     98.7029E-03    -12.5248E+06    -25.6089E+06     2.14288E+06    -11.3913E+06    -15.7674E-03     29.7439E-03    -13.9764E-03     57.1321E-03    -15.8120E-03     29.6469E-03    -13.9104E-03     56.9673E-03
            1103     12.4249E-03     98.7545E-03    -10.9179E+06    -28.9762E+06     2.75463E+06    -13.4922E+06    -16.9125E-03     31.0019E-03    -14.0894E-03     65.0859E-03    -16.9595E-03     30.8993E-03    -14.0178E-03     64.8845E-03
            1104     13.3099E-03     98.8165E-03    -9.36946E+06    -53.2531E+06    -13.4042E+06    -14.9328E+06    -18.1694E-03     32.3701E-03    -14.2008E-03     68.5230E-03    -18.1699E-03     32.1873E-03    -14.1770E-03     68.2918E-03
            1105     14.1943E-03     98.8745E-03    -9.08453E+06    -40.7375E+06    -15.0346E+06    -13.9512E+06    -19.2328E-03     33.6102E-03    -14.3774E-03     72.8208E-03    -19.2863E-03     33.5304E-03    -14.3803E-03     72.5917E-03
            1106     15.0778E-03     98.9452E-03    -7.21659E+06    -10.1938E+06    -6.74895E+06    -11.4488E+06    -21.7784E-03     36.3950E-03    -14.6167E-03     102.635E-03    -22.0806E-03     36.6551E-03    -14.6252E-03     102.440E-03
            1107     15.9617E-03     99.0600E-03    -4.06540E+06     16.9545E+06    -14.8011E+06    -7.11112E+06    -24.2267E-03     39.0002E-03    -14.7735E-03     161.453E-03    -25.8563E-03     40.7185E-03    -14.8662E-03     161.823E-03
            1108     16.8436E-03     99.2497E-03    -2.22385E+06     111.948E+06     28.2978E+06    -2.32906E+06    -26.5695E-03     41.5985E-03    -15.0291E-03     224.508E-03    -31.7422E-03     47.0789E-03    -15.0467E-03     228.276E-03
            1109     887.779E-06     99.4001E-03    -25.2838E+06    -19.6378E+06    -24.0691E+06     3.66292E+06    -13.5977E-03     27.2151E-03    -13.6174E-03     3.68793E-03    -13.6607E-03     27.1885E-03    -13.6726E-03     3.73499E-03
            1110     1.77554E-03     99.4044E-03    -25.4787E+06    -15.0070E+06    -20.9852E+06     5.64027E+06    -13.5532E-03     27.1618E-03    -13.6086E-03     6.83563E-03    -13.6284E-03     27.1542E-03    -13.6549E-03     6.90801E-03
            1111     2.66341E-03     99.4114E-03    -25.4982E+06    -13.2189E+06    -15.7000E+06     5.84172E+06    -13.5089E-03     27.1205E-03    -13.6116E-03     10.2480E-03    -13.5946E-03     27.1143E-03    -13.6340E-03     10.3228E-03
            1112     3.55127E-03     99.4212E-03    -25.0621E+06    -14.9229E+06    -10.0865E+06     5.07382E+06    -13.4669E-03     27.0844E-03    -13.6175E-03     13.8148E-03    -13.5561E-03     27.0609E-03    -13.6100E-03     13.8794E-03
            1113     4.43923E-03     99.4340E-03    -24.2371E+06    -17.0170E+06    -5.86135E+06     4.53655E+06    -13.4214E-03     27.0339E-03    -13.6125E-03     17.5570E-03    -13.5097E-03     26.9928E-03    -13.5820E-03     17.6144E-03
            1114     5.32724E-03     99.4501E-03    -23.2804E+06    -19.9042E+06    -3.40431E+06     3.68496E+06    -13.3855E-03     26.9814E-03    -13.5959E-03     21.5378E-03    -13.4685E-03     26.9210E-03    -13.5503E-03     21.5840E-03
            1115     6.21535E-03     99.4696E-03    -22.1128E+06    -21.6567E+06    -2.46683E+06     1.59710E+06    -13.3741E-03     26.9421E-03    -13.5679E-03     25.8196E-03    -13.4504E-03     26.8701E-03    -13.5168E-03     25.8384E-03
            1116     7.10349E-03     99.4929E-03    -20.9435E+06    -23.8660E+06    -2.46160E+06    -999.033E+03    -13.4287E-03     26.9673E-03    -13.5386E-03     30.4714E-03    -13.4962E-03     26.8829E-03    -13.4859E-03     30.4561E-03
            1117     7.99164E-03     99.5203E-03    -19.7721E+06    -26.8837E+06    -2.12940E+06    -3.47178E+06    -13.5733E-03     27.0938E-03    -13.5205E-03     35.5146E-03    -13.6317E-03     26.9928E-03    -13.4635E-03     35.4665E-03
            1118     8.87966E-03     99.5524E-03    -18.3305E+06    -28.1729E+06    -989.218E+03    -6.38526E+06    -13.8225E-03     27.3399E-03    -13.5174E-03     40.9323E-03    -13.8746E-03     27.2298E-03    -13.4549E-03     40.8452E-03
            1119     9.76757E-03     99.5890E-03    -17.1245E+06    -27.0544E+06    -5.69306E+03    -8.91494E+06    -14.2337E-03     27.7645E-03    -13.5308E-03     46.6973E-03    -14.2850E-03     27.6590E-03    -13.4668E-03     46.5751E-03
            1120     10.6551E-03     99.6314E-03    -16.0063E+06    -28.8807E+06     450.072E+03    -10.1843E+06    -14.8920E-03     28.4686E-03    -13.5766E-03     52.5651E-03    -14.9396E-03     28.3555E-03    -13.5092E-03     52.4225E-03
            1121     11.5422E-03     99.6785E-03    -13.9918E+06    -21.8469E+06     2.42625E+06    -12.0162E+06    -15.7811E-03     29.4377E-03    -13.6566E-03     58.4535E-03    -15.8388E-03     29.3612E-03    -13.5925E-03     58.2811E-03
            1122     12.4282E-03     99.7319E-03    -11.9091E+06    -25.6897E+06     2.87104E+06    -14.6095E+06    -16.9263E-03     30.7163E-03    -13.7900E-03     66.7526E-03    -16.9831E-03     30.6314E-03    -13.7211E-03     66.5374E-03
            1123     13.3138E-03     99.7944E-03    -11.0611E+06    -51.3759E+06    -13.2195E+06    -15.8332E+06    -18.4084E-03     32.3376E-03    -13.9292E-03     70.5802E-03    -18.4209E-03     32.1668E-03    -13.9048E-03     70.3373E-03
            1124     14.1979E-03     99.8544E-03    -10.5015E+06    -41.7703E+06    -15.8753E+06    -16.0173E+06    -20.1523E-03     34.3058E-03    -14.1535E-03     74.4518E-03    -20.2138E-03     34.2279E-03    -14.1571E-03     74.1921E-03
            1125     15.0815E-03     99.9257E-03    -7.91561E+06    -12.8536E+06    -7.83463E+06    -14.0588E+06    -22.5837E-03     37.0345E-03    -14.4508E-03     105.185E-03    -22.8880E-03     37.2877E-03    -14.4598E-03     104.951E-03
            1126     15.9582E-03     100.047E-03    -4.57771E+06     11.8898E+06    -15.8132E+06    -9.39430E+06    -24.8816E-03     39.5397E-03    -14.6580E-03     161.460E-03    -26.4905E-03     41.2205E-03    -14.7477E-03     161.777E-03
            1127     16.8485E-03     100.218E-03    -2.92724E+06     105.957E+06     30.3713E+06    -3.83140E+06    -27.7874E-03     42.7713E-03    -14.9839E-03     225.285E-03    -33.0122E-03     48.2741E-03    -14.9814E-03     228.936E-03
            1128     888.138E-06     100.374E-03    -28.3760E+06    -27.8712E+06    -27.3435E+06     4.69062E+06    -13.1544E-03     26.3157E-03    -13.1614E-03     3.70940E-03    -13.2161E-03     26.2572E-03    -13.2165E-03     3.76976E-03
            1129     1.77638E-03     100.378E-03    -28.2247E+06    -21.1947E+06    -24.0310E+06     7.96560E+06    -13.1080E-03     26.2651E-03    -13.1571E-03     6.88011E-03    -13.1836E-03     26.2350E-03    -13.2056E-03     6.98258E-03
            1130     2.66457E-03     100.385E-03    -28.2231E+06    -15.6019E+06    -18.6943E+06     9.25222E+06    -13.0567E-03     26.2128E-03    -13.1561E-03     10.3070E-03    -13.1482E-03     26.2029E-03    -13.1860E-03     10.4259E-03
            1131     3.55289E-03     100.395E-03    -28.0521E+06    -15.7590E+06    -12.6563E+06     8.61821E+06    -13.0202E-03     26.1839E-03    -13.1636E-03     13.9008E-03    -13.1194E-03     26.1642E-03    -13.1634E-03     14.0113E-03
            1132     4.44119E-03     100.408E-03    -27.2940E+06    -17.5499E+06    -7.53248E+06     7.54735E+06    -12.9991E-03     26.1661E-03    -13.1671E-03     17.6817E-03    -13.0994E-03     26.1291E-03    -13.1397E-03     17.7781E-03
            1133     5.32959E-03     100.424E-03    -25.7340E+06    -18.7603E+06    -4.27028E+06     5.81529E+06    -12.9892E-03     26.1476E-03    -13.1584E-03     21.6978E-03    -13.0848E-03     26.0977E-03    -13.1152E-03     21.7716E-03
            1134     6.21799E-03     100.443E-03    -24.0063E+06    -18.8929E+06    -2.62915E+06     3.19151E+06    -13.0040E-03     26.1437E-03    -13.1398E-03     26.0296E-03    -13.0934E-03     26.0885E-03    -13.0907E-03     26.0692E-03
            1135     7.10648E-03     100.466E-03    -22.5387E+06    -20.9035E+06    -2.51577E+06     278.732E+03    -13.0810E-03     26.2009E-03    -13.1198E-03     30.7603E-03    -13.1607E-03     26.1336E-03    -13.0694E-03     30.7619E-03
            1136     7.99487E-03     100.494E-03    -20.8410E+06    -22.9779E+06    -2.43042E+06    -3.11867E+06    -13.2396E-03     26.3471E-03    -13.1075E-03     35.9303E-03    -13.3084E-03     26.2674E-03    -13.0561E-03     35.8872E-03
            1137     8.88327E-03     100.526E-03    -18.9111E+06    -24.2375E+06    -826.551E+03    -6.36422E+06    -13.5342E-03     26.6498E-03    -13.1156E-03     41.5318E-03    -13.5950E-03     26.5598E-03    -13.0571E-03     41.4455E-03
            1138     9.77135E-03     100.563E-03    -17.4904E+06    -24.5659E+06     620.641E+03    -8.20788E+06    -14.0221E-03     27.1678E-03    -13.1457E-03     47.5144E-03    -14.0794E-03     27.0741E-03    -13.0817E-03     47.4019E-03
            1139     10.6591E-03     100.606E-03    -15.8104E+06    -25.5596E+06     1.19438E+06    -10.6191E+06    -14.7547E-03     27.9607E-03    -13.2060E-03     53.7349E-03    -14.8069E-03     27.8626E-03    -13.1400E-03     53.5874E-03
            1140     11.5461E-03     100.655E-03    -13.4508E+06    -18.0762E+06     2.68492E+06    -13.3765E+06    -15.7217E-03     29.0222E-03    -13.3005E-03     60.0911E-03    -15.7823E-03     28.9631E-03    -13.2414E-03     59.9018E-03
            1141     12.4325E-03     100.708E-03    -11.5369E+06    -22.4292E+06     3.43450E+06    -15.2881E+06    -17.0012E-03     30.4597E-03    -13.4585E-03     68.4418E-03    -17.0619E-03     30.3898E-03    -13.3920E-03     68.2181E-03
            1142     13.3181E-03     100.772E-03    -9.83424E+06    -49.4360E+06    -11.3850E+06    -16.8774E+06    -18.7705E-03     32.4069E-03    -13.6364E-03     72.8397E-03    -18.7831E-03     32.2422E-03    -13.6074E-03     72.5827E-03
            1143     14.2012E-03     100.835E-03    -8.83879E+06    -39.9701E+06    -14.0828E+06    -17.8659E+06    -20.7949E-03     34.6983E-03    -13.9033E-03     77.6725E-03    -20.8574E-03     34.6283E-03    -13.9030E-03     77.3864E-03
            1144     15.0809E-03     100.909E-03    -6.53764E+06    -16.6629E+06    -7.96636E+06    -16.2447E+06    -22.3661E-03     36.5878E-03    -14.2217E-03     106.796E-03    -22.6474E-03     36.8096E-03    -14.2279E-03     106.536E-03
            1145     15.9718E-03     101.025E-03    -4.89236E+06     3.26259E+06    -18.1897E+06    -11.1672E+06    -26.8811E-03     41.3610E-03    -14.4798E-03     163.220E-03    -28.4910E-03     43.0180E-03    -14.5684E-03     163.423E-03
            1146     16.8425E-03     101.209E-03    -4.01394E+06     101.228E+06     32.3014E+06    -5.14291E+06    -29.9904E-03     44.9308E-03    -14.9404E-03     223.712E-03    -35.0981E-03     50.2902E-03    -14.9198E-03     227.206E-03
            1147     888.651E-06     101.347E-03    -32.7186E+06    -37.3672E+06    -31.9878E+06     4.86362E+06    -12.6566E-03     25.3095E-03    -12.6529E-03     3.73478E-03    -12.7196E-03     25.2165E-03    -12.7112E-03     3.79741E-03
            1148     1.77722E-03     101.351E-03    -31.5714E+06    -30.0703E+06    -27.9249E+06     9.23327E+06    -12.6179E-03     25.2740E-03    -12.6562E-03     6.92961E-03    -12.6917E-03     25.2100E-03    -12.7064E-03     7.04851E-03
            1149     2.66595E-03     101.358E-03    -30.6254E+06    -20.4172E+06    -21.7743E+06     12.1952E+06    -12.5698E-03     25.2250E-03    -12.6552E-03     10.3653E-03    -12.6618E-03     25.1990E-03    -12.6901E-03     10.5223E-03
            1150     3.55462E-03     101.368E-03    -29.7317E+06    -16.9914E+06    -14.7921E+06     11.9204E+06    -12.5465E-03     25.2119E-03    -12.6654E-03     13.9863E-03    -12.6492E-03     25.1916E-03    -12.6716E-03     14.1395E-03
            1151     4.44340E-03     101.381E-03    -27.9803E+06    -17.7660E+06    -8.49860E+06     9.98297E+06    -12.5544E-03     25.2329E-03    -12.6785E-03     17.8118E-03    -12.6564E-03     25.1971E-03    -12.6547E-03     17.9398E-03
            1152     5.33211E-03     101.397E-03    -25.9192E+06    -17.2657E+06    -4.37368E+06     7.65122E+06    -12.5819E-03     25.2627E-03    -12.6808E-03     21.8640E-03    -12.6804E-03     25.2206E-03    -12.6401E-03     21.9617E-03
            1153     6.22093E-03     101.416E-03    -24.1766E+06    -16.2954E+06    -2.30059E+06     4.84565E+06    -12.6342E-03     25.3095E-03    -12.6753E-03     26.2429E-03    -12.7286E-03     25.2669E-03    -12.6281E-03     26.3041E-03
            1154     7.10964E-03     101.439E-03    -22.4351E+06    -17.1305E+06    -2.00342E+06     1.25864E+06    -12.7302E-03     25.3975E-03    -12.6673E-03     31.0395E-03    -12.8154E-03     25.3481E-03    -12.6200E-03     31.0540E-03
            1155     7.99844E-03     101.467E-03    -20.5065E+06    -18.1051E+06    -1.60651E+06    -3.02165E+06    -12.9142E-03     25.5813E-03    -12.6671E-03     36.3293E-03    -12.9895E-03     25.5242E-03    -12.6191E-03     36.2878E-03
            1156     8.88701E-03     101.499E-03    -18.7183E+06    -20.9235E+06    -138.135E+03    -6.26685E+06    -13.2549E-03     25.9449E-03    -12.6900E-03     42.0980E-03    -13.3203E-03     25.8700E-03    -12.6333E-03     42.0133E-03
            1157     9.77543E-03     101.537E-03    -16.3614E+06    -21.8497E+06     1.58365E+06    -8.54167E+06    -13.7791E-03     26.5137E-03    -12.7347E-03     48.3417E-03    -13.8358E-03     26.4303E-03    -12.6714E-03     48.2254E-03
            1158     10.6632E-03     101.580E-03    -13.7097E+06    -20.6325E+06     3.05666E+06    -11.5317E+06    -14.5243E-03     27.3314E-03    -12.8071E-03     54.9573E-03    -14.5755E-03     27.2518E-03    -12.7420E-03     54.7988E-03
            1159     11.5508E-03     101.629E-03    -11.8842E+06    -14.9568E+06     4.13249E+06    -14.0616E+06    -15.5959E-03     28.5124E-03    -12.9166E-03     61.7195E-03    -15.6549E-03     28.4642E-03    -12.8570E-03     61.5223E-03
            1160     12.4371E-03     101.685E-03    -10.2857E+06    -19.0679E+06     5.36164E+06    -15.7304E+06    -17.1960E-03     30.2983E-03    -13.1023E-03     70.4098E-03    -17.2581E-03     30.2407E-03    -13.0329E-03     70.1805E-03
            1161     13.3218E-03     101.750E-03    -8.86882E+06    -46.1468E+06    -9.28905E+06    -18.4838E+06    -19.0738E-03     32.3904E-03    -13.3166E-03     75.5560E-03    -19.0908E-03     32.2390E-03    -13.2833E-03     75.2778E-03
            1162     14.2055E-03     101.816E-03    -6.93140E+06    -38.0563E+06    -11.7783E+06    -19.7115E+06    -20.6622E-03     34.2670E-03    -13.6048E-03     80.4067E-03    -20.7203E-03     34.1995E-03    -13.5984E-03     80.0983E-03
            1163     15.0908E-03     101.891E-03    -6.38822E+06    -19.0668E+06    -7.30521E+06    -18.5057E+06    -23.6503E-03     37.6206E-03    -13.9703E-03     107.283E-03    -23.9309E-03     37.8321E-03    -13.9699E-03     106.978E-03
            1164     15.9648E-03     102.006E-03    -6.25768E+06    -5.56204E+06    -20.1545E+06    -13.4958E+06    -28.5285E-03     42.8416E-03    -14.3131E-03     166.053E-03    -30.1501E-03     44.4798E-03    -14.3967E-03     166.192E-03
            1165     16.8495E-03     102.202E-03    -3.65568E+06     94.9495E+06     32.3656E+06    -5.31683E+06    -30.8250E-03     45.6702E-03    -14.8452E-03     222.853E-03    -35.7649E-03     50.8405E-03    -14.8157E-03     226.188E-03
            1166     889.057E-06     102.319E-03    -40.8164E+06    -45.8669E+06    -40.3475E+06     3.68924E+06    -12.1118E-03     24.2206E-03    -12.1088E-03     3.76031E-03    -12.1908E-03     24.1090E-03    -12.1849E-03     3.80782E-03
            1167     1.77824E-03     102.323E-03    -37.1131E+06    -39.5929E+06    -34.8533E+06     7.51272E+06    -12.0895E-03     24.2059E-03    -12.1164E-03     6.97475E-03    -12.1671E-03     24.1123E-03    -12.1795E-03     7.07150E-03
            1168     2.66733E-03     102.330E-03    -32.4548E+06    -28.0970E+06    -26.3022E+06     11.9430E+06    -12.0606E-03     24.1818E-03    -12.1212E-03     10.4180E-03    -12.1441E-03     24.1266E-03    -12.1649E-03     10.5718E-03
            1169     3.55655E-03     102.340E-03    -29.0050E+06    -19.2902E+06    -16.6170E+06     13.6991E+06    -12.0559E-03     24.1931E-03    -12.1372E-03     14.0586E-03    -12.1490E-03     24.1629E-03    -12.1502E-03     14.2350E-03
            1170     4.44566E-03     102.353E-03    -26.8434E+06    -17.2752E+06    -9.03695E+06     11.7449E+06    -12.0967E-03     24.2563E-03    -12.1596E-03     17.9227E-03    -12.1929E-03     24.2221E-03    -12.1408E-03     18.0737E-03
            1171     5.33488E-03     102.369E-03    -24.1627E+06    -15.7378E+06    -3.90220E+06     8.68127E+06    -12.1670E-03     24.3431E-03    -12.1762E-03     22.0152E-03    -12.2596E-03     24.3054E-03    -12.1378E-03     22.1264E-03
            1172     6.22394E-03     102.388E-03    -21.1388E+06    -13.9412E+06    -807.529E+03     5.81166E+06    -12.2574E-03     24.4439E-03    -12.1865E-03     26.4225E-03    -12.3421E-03     24.4064E-03    -12.1397E-03     26.4963E-03
            1173     7.11311E-03     102.411E-03    -18.7952E+06    -12.4921E+06     642.541E+03     2.00200E+06    -12.3916E-03     24.5865E-03    -12.1950E-03     31.2815E-03    -12.4691E-03     24.5511E-03    -12.1464E-03     31.3058E-03
            1174     8.00207E-03     102.439E-03    -17.3527E+06    -13.3006E+06     1.24879E+06    -2.27495E+06    -12.6164E-03     24.8286E-03    -12.2122E-03     36.6784E-03    -12.6869E-03     24.7867E-03    -12.1616E-03     36.6469E-03
            1175     8.89102E-03     102.472E-03    -16.2324E+06    -17.3748E+06     1.65927E+06    -5.72817E+06    -12.9749E-03     25.2231E-03    -12.2483E-03     42.6366E-03    -13.0354E-03     25.1595E-03    -12.1913E-03     42.5594E-03
            1176     9.77952E-03     102.510E-03    -14.6705E+06    -17.3904E+06     2.89141E+06    -9.42696E+06    -13.4727E-03     25.7751E-03    -12.3024E-03     49.1358E-03    -13.5290E-03     25.7092E-03    -12.2414E-03     49.0088E-03
            1177     10.6680E-03     102.554E-03    -12.4301E+06    -16.3165E+06     4.83769E+06    -12.6175E+06    -14.2596E-03     26.6475E-03    -12.3879E-03     56.1151E-03    -14.3127E-03     26.5845E-03    -12.3220E-03     55.9435E-03
            1178     11.5554E-03     102.604E-03    -10.5672E+06    -12.5676E+06     6.34015E+06    -14.0148E+06    -15.4555E-03     27.9712E-03    -12.5157E-03     63.3670E-03    -15.5141E-03     27.9292E-03    -12.4504E-03     63.1713E-03
            1179     12.4418E-03     102.661E-03    -9.13967E+06    -14.9296E+06     7.70232E+06    -16.1537E+06    -17.1660E-03     29.8838E-03    -12.7178E-03     72.7969E-03    -17.2314E-03     29.8414E-03    -12.6444E-03     72.5630E-03
            1180     13.3271E-03     102.729E-03    -7.58077E+06    -41.2949E+06    -5.93615E+06    -19.7208E+06    -19.2445E-03     32.2047E-03    -12.9601E-03     78.3488E-03    -19.2673E-03     32.0712E-03    -12.9189E-03     78.0548E-03
            1181     14.2104E-03     102.796E-03    -6.04010E+06    -37.1282E+06    -9.89671E+06    -21.3250E+06    -21.2747E-03     34.5627E-03    -13.2881E-03     82.4115E-03    -21.3330E-03     34.4966E-03    -13.2749E-03     82.0801E-03
            1182     15.0904E-03     102.872E-03    -4.95227E+06    -19.9077E+06    -5.55658E+06    -20.2693E+06    -25.1395E-03     38.8648E-03    -13.7253E-03     110.978E-03    -25.4326E-03     39.0859E-03    -13.7170E-03     110.638E-03
            1183     15.9730E-03     102.996E-03    -5.02188E+06    -13.5445E+06    -20.1947E+06    -14.5390E+06    -29.4164E-03     43.5565E-03    -14.1401E-03     167.632E-03    -30.9732E-03     45.1061E-03    -14.2141E-03     167.743E-03
            1184     16.8508E-03     103.179E-03    -3.67396E+06     85.7685E+06     31.1076E+06    -5.65276E+06    -31.9486E-03     46.6752E-03    -14.7266E-03     222.546E-03    -36.8194E-03     51.7473E-03    -14.6901E-03     225.703E-03
            1185     889.610E-06     103.290E-03    -53.4332E+06    -50.2270E+06    -53.7121E+06     704.357E+03    -11.5538E-03     23.1042E-03    -11.5504E-03     3.77565E-03    -11.6702E-03     23.0085E-03    -11.6686E-03     3.78466E-03
            1186     1.77911E-03     103.294E-03    -47.8726E+06    -45.4188E+06    -47.0315E+06     1.86255E+06    -11.5468E-03     23.1087E-03    -11.5619E-03     6.99550E-03    -11.6522E-03     23.0192E-03    -11.6618E-03     7.01938E-03
            1187     2.66880E-03     103.301E-03    -39.0023E+06    -36.3580E+06    -36.4278E+06     5.33411E+06    -11.5411E-03     23.1167E-03    -11.5756E-03     10.4419E-03    -11.6306E-03     23.0443E-03    -11.6485E-03     10.5105E-03
            1188     3.55839E-03     103.311E-03    -29.6484E+06    -24.8900E+06    -23.2334E+06     10.1781E+06    -11.5532E-03     23.1504E-03    -11.5971E-03     14.0584E-03    -11.6318E-03     23.1026E-03    -11.6342E-03     14.1894E-03
            1189     4.44810E-03     103.324E-03    -23.5420E+06    -17.6599E+06    -11.1547E+06     11.8928E+06    -11.6225E-03     23.2530E-03    -11.6306E-03     17.9413E-03    -11.6985E-03     23.2151E-03    -11.6266E-03     18.0942E-03
            1190     5.33756E-03     103.340E-03    -20.9298E+06    -13.8050E+06    -3.32857E+06     9.54589E+06    -11.7351E-03     23.3995E-03    -11.6644E-03     22.0773E-03    -11.8151E-03     23.3658E-03    -11.6307E-03     22.1998E-03
            1191     6.22715E-03     103.359E-03    -18.5167E+06    -11.1091E+06     831.256E+03     5.68980E+06    -11.8732E-03     23.5654E-03    -11.6922E-03     26.5140E-03    -11.9513E-03     23.5358E-03    -11.6450E-03     26.5865E-03
            1192     7.11651E-03     103.383E-03    -15.4931E+06    -8.47009E+06     3.37476E+06     2.10442E+06    -12.0505E-03     23.7692E-03    -11.7188E-03     31.4167E-03    -12.1212E-03     23.7451E-03    -11.6671E-03     31.4425E-03
            1193     8.00591E-03     103.411E-03    -13.6998E+06    -9.38239E+06     4.11566E+06    -935.470E+03    -12.3072E-03     24.0594E-03    -11.7523E-03     36.9033E-03    -12.3691E-03     24.0275E-03    -11.6982E-03     36.8893E-03
            1194     8.89496E-03     103.443E-03    -12.5328E+06    -12.1161E+06     4.50306E+06    -5.18847E+06    -12.6562E-03     24.4560E-03    -11.7998E-03     43.0261E-03    -12.7097E-03     24.4089E-03    -11.7415E-03     42.9562E-03
            1195     9.78402E-03     103.482E-03    -11.0236E+06    -12.4154E+06     6.00550E+06    -9.41757E+06    -13.1621E-03     25.0284E-03    -11.8663E-03     49.7486E-03    -13.2115E-03     24.9772E-03    -11.8023E-03     49.6224E-03
            1196     10.6724E-03     103.527E-03    -10.3706E+06    -12.6525E+06     7.41305E+06    -12.2038E+06    -13.9844E-03     25.9476E-03    -11.9632E-03     57.1804E-03    -14.0356E-03     25.8956E-03    -11.8928E-03     57.0150E-03
            1197     11.5603E-03     103.578E-03    -9.48939E+06    -10.2182E+06     8.40788E+06    -14.1808E+06    -15.1818E-03     27.2822E-03    -12.1005E-03     65.0099E-03    -15.2404E-03     27.2466E-03    -12.0298E-03     64.8133E-03
            1198     12.4472E-03     103.637E-03    -7.53827E+06    -9.79211E+06     10.3348E+06    -16.7825E+06    -16.9790E-03     29.2882E-03    -12.3092E-03     75.1237E-03    -17.0469E-03     29.2646E-03    -12.2324E-03     74.8831E-03
            1199     13.3324E-03     103.706E-03    -6.30423E+06    -36.1451E+06    -2.30145E+06    -20.4336E+06    -19.3515E-03     31.9264E-03    -12.5749E-03     81.2092E-03    -19.3798E-03     31.8108E-03    -12.5249E-03     80.9069E-03
            1200     14.2153E-03     103.776E-03    -6.04021E+06    -35.9384E+06    -8.09589E+06    -21.9912E+06    -22.2338E-03     35.1837E-03    -12.9499E-03     86.1217E-03    -22.2999E-03     35.1245E-03    -12.9295E-03     85.7778E-03
            1201     15.0972E-03     103.855E-03    -5.62767E+06    -20.2008E+06    -4.31993E+06    -21.2409E+06    -26.3315E-03     39.7913E-03    -13.4598E-03     114.876E-03    -26.6357E-03     40.0165E-03    -13.4439E-03     114.515E-03
            1202     15.9736E-03     103.982E-03    -5.00926E+06    -22.9067E+06    -20.7060E+06    -15.7097E+06    -30.9005E-03     44.8600E-03    -13.9595E-03     167.643E-03    -32.3644E-03     46.2849E-03    -14.0225E-03     167.661E-03
            1203     16.8516E-03     104.166E-03    -3.61450E+06     75.9646E+06     30.2722E+06    -6.42421E+06    -33.6583E-03     48.2910E-03    -14.6327E-03     222.976E-03    -38.4646E-03     53.2664E-03    -14.5863E-03     225.944E-03
            1204     889.944E-06     104.260E-03    -66.9739E+06    -48.2105E+06    -67.3581E+06    -2.81977E+06    -11.0251E-03     22.0573E-03    -11.0322E-03     3.76157E-03    -11.1924E-03     22.0111E-03    -11.2019E-03     3.72511E-03
            1205     1.78004E-03     104.264E-03    -62.8586E+06    -44.6512E+06    -62.3033E+06    -4.59149E+06    -11.0290E-03     22.0646E-03    -11.0356E-03     6.97163E-03    -11.1882E-03     22.0229E-03    -11.1912E-03     6.91223E-03
            1206     2.66998E-03     104.271E-03    -55.3642E+06    -39.8549E+06    -53.5555E+06    -4.65976E+06    -11.0415E-03     22.0946E-03    -11.0531E-03     10.4085E-03    -11.1830E-03     22.0533E-03    -11.1828E-03     10.3482E-03
            1207     3.56012E-03     104.281E-03    -43.2629E+06    -31.5795E+06    -40.1118E+06    -1.28120E+06    -11.0730E-03     22.1545E-03    -11.0815E-03     13.9748E-03    -11.1854E-03     22.1176E-03    -11.1736E-03     13.9579E-03
            1208     4.45015E-03     104.294E-03    -29.1035E+06    -22.0013E+06    -23.7314E+06     4.03829E+06    -11.1392E-03     22.2608E-03    -11.1216E-03     17.7635E-03    -11.2185E-03     22.2275E-03    -11.1661E-03     17.8152E-03
            1209     5.34030E-03     104.310E-03    -18.4820E+06    -13.8852E+06    -8.49339E+06     7.12207E+06    -11.2644E-03     22.4353E-03    -11.1709E-03     21.8675E-03    -11.3246E-03     22.4052E-03    -11.1664E-03     21.9588E-03
            1210     6.23007E-03     104.330E-03    -14.2020E+06    -8.26023E+06     1.62954E+06     6.07489E+06    -11.4600E-03     22.6820E-03    -11.2219E-03     26.3747E-03    -11.5218E-03     22.6592E-03    -11.1812E-03     26.4523E-03
            1211     7.11989E-03     104.353E-03    -13.4735E+06    -5.32196E+06     5.48574E+06     3.01974E+06    -11.6972E-03     22.9639E-03    -11.2667E-03     31.3324E-03    -11.7654E-03     22.9495E-03    -11.2120E-03     31.3701E-03
            1212     8.00945E-03     104.381E-03    -11.8178E+06    -5.40539E+06     6.42809E+06    -734.469E+03    -11.9690E-03     23.2813E-03    -11.3122E-03     36.8798E-03    -12.0306E-03     23.2630E-03    -11.2551E-03     36.8686E-03
            1213     8.89900E-03     104.414E-03    -9.41846E+06    -6.14659E+06     7.57428E+06    -5.06945E+06    -12.3110E-03     23.6797E-03    -11.3688E-03     43.0954E-03    -12.3618E-03     23.6534E-03    -11.3083E-03     43.0275E-03
            1214     9.78815E-03     104.453E-03    -8.38519E+06    -8.43850E+06     9.02599E+06    -8.53995E+06    -12.8418E-03     24.2887E-03    -11.4469E-03     50.0810E-03    -12.8878E-03     24.2488E-03    -11.3774E-03     49.9668E-03
            1215     10.6771E-03     104.499E-03    -7.50390E+06    -8.72364E+06     10.4863E+06    -11.1461E+06    -13.6349E-03     25.1846E-03    -11.5497E-03     57.9026E-03    -13.6812E-03     25.1429E-03    -11.4738E-03     57.7519E-03
            1216     11.5652E-03     104.551E-03    -6.72097E+06    -6.98476E+06     11.3386E+06    -13.5652E+06    -14.8436E-03     26.5338E-03    -11.6902E-03     66.2780E-03    -14.8962E-03     26.5049E-03    -11.6136E-03     66.0908E-03
            1217     12.4524E-03     104.611E-03    -7.09090E+06    -5.17158E+06     12.5157E+06    -15.9258E+06    -16.7365E-03     28.6374E-03    -11.9009E-03     77.1756E-03    -16.8101E-03     28.6313E-03    -11.8206E-03     76.9478E-03
            1218     13.3379E-03     104.684E-03    -8.18079E+06    -29.8667E+06     1.13551E+06    -19.7963E+06    -19.3689E-03     31.5565E-03    -12.1876E-03     84.0854E-03    -19.4188E-03     31.4681E-03    -12.1268E-03     83.7927E-03
            1219     14.2213E-03     104.756E-03    -7.59605E+06    -32.7675E+06    -5.63318E+06    -23.5983E+06    -22.9492E-03     35.5495E-03    -12.6003E-03     90.0689E-03    -23.0322E-03     35.5058E-03    -12.5699E-03     89.7019E-03
            1220     15.0995E-03     104.841E-03    -5.09437E+06    -22.0620E+06    -3.01798E+06    -22.6839E+06    -27.5593E-03     40.7342E-03    -13.1748E-03     118.426E-03    -27.8577E-03     40.9451E-03    -13.1506E-03     118.034E-03
            1221     15.9779E-03     104.969E-03    -4.61658E+06    -33.1240E+06    -21.9943E+06    -16.2443E+06    -32.3790E-03     46.1280E-03    -13.7491E-03     170.728E-03    -33.7792E-03     47.4583E-03    -13.8043E-03     170.670E-03
            1222     16.8542E-03     105.154E-03    -3.80885E+06      66.605E+06     28.0455E+06    -7.16642E+06    -35.4865E-03     49.9841E-03    -14.4976E-03     224.822E-03    -40.1774E-03     54.8167E-03    -14.4484E-03     227.537E-03
            1223     890.406E-06     105.229E-03    -65.2546E+06    -40.9870E+06    -65.0599E+06    -4.54864E+06    -10.6336E-03     21.2736E-03    -10.6400E-03     3.68391E-03    -10.8060E-03     21.2577E-03    -10.8113E-03     3.62512E-03
            1224     1.78067E-03     105.233E-03    -64.0353E+06    -38.6384E+06    -62.6735E+06    -7.89405E+06    -10.6470E-03     21.2895E-03    -10.6425E-03     6.82588E-03    -10.8203E-03     21.2801E-03    -10.8070E-03     6.72384E-03
            1225     2.67112E-03     105.240E-03    -61.3854E+06    -36.3806E+06    -57.7496E+06    -10.6596E+06    -10.6798E-03     21.3425E-03    -10.6627E-03     10.2034E-03    -10.8503E-03     21.3334E-03    -10.8097E-03     10.0656E-03
            1226     3.56137E-03     105.250E-03    -56.2734E+06    -32.8326E+06    -51.0414E+06    -11.7242E+06    -10.7157E-03     21.4036E-03    -10.6879E-03     13.7138E-03    -10.8756E-03     21.3952E-03    -10.8139E-03     13.5621E-03
            1227     4.45176E-03     105.263E-03    -46.5283E+06    -26.5663E+06    -42.4051E+06    -9.61363E+06    -10.7474E-03     21.4560E-03    -10.7086E-03     17.4053E-03    -10.8802E-03     21.4523E-03    -10.8147E-03     17.2807E-03
            1228     5.34209E-03     105.279E-03    -32.1883E+06    -18.0088E+06    -28.4745E+06    -4.78721E+06    -10.8221E-03     21.5651E-03    -10.7430E-03     21.3779E-03    -10.9159E-03     21.5633E-03    -10.8126E-03     21.3155E-03
            1229     6.23265E-03     105.299E-03    -18.1983E+06    -9.99515E+06    -10.3173E+06     575.402E+03    -10.9983E-03     21.8044E-03    -10.8061E-03     25.7825E-03    -11.0602E-03     21.7961E-03    -10.8168E-03     25.7891E-03
            1230     7.12272E-03     105.323E-03    -9.88831E+06    -3.63636E+06     4.16629E+06     2.63244E+06    -11.2766E-03     22.1547E-03    -10.8781E-03     30.7654E-03    -11.3274E-03     22.1454E-03    -10.8376E-03     30.7982E-03
            1231     8.01268E-03     105.351E-03    -7.43605E+06    -347.325E+03     10.0413E+06    -235.871E+03    -11.6006E-03     22.5396E-03    -10.9390E-03     36.3930E-03    -11.6527E-03     22.5350E-03    -10.8775E-03     36.3884E-03
            1232     8.90238E-03     105.385E-03    -6.81024E+06    -1.11270E+06     11.1097E+06    -4.61684E+06    -11.9759E-03     22.9763E-03    -11.0004E-03     42.7007E-03    -12.0259E-03     22.9660E-03    -10.9334E-03     42.6390E-03
            1233     9.79204E-03     105.424E-03    -5.32023E+06    -4.76739E+06     12.1689E+06    -7.86529E+06    -12.4882E-03     23.5690E-03    -11.0808E-03     49.8930E-03    -12.5282E-03     23.5379E-03    -11.0053E-03     49.7881E-03
            1234     10.6811E-03     105.470E-03    -4.08547E+06    -4.80584E+06     13.5549E+06    -10.4774E+06    -13.2361E-03     24.4174E-03    -11.1813E-03     58.0414E-03    -13.2746E-03     24.3850E-03    -11.1006E-03     57.9005E-03
            1235     11.5698E-03     105.524E-03    -3.48647E+06    -4.06993E+06     14.9013E+06    -12.2042E+06    -14.4699E-03     25.7927E-03    -11.3228E-03     67.1075E-03    -14.5142E-03     25.7669E-03    -11.2373E-03     66.9396E-03
            1236     12.4572E-03     105.586E-03    -4.06825E+06    -2.32739E+06     15.9959E+06    -12.7407E+06    -16.4241E-03     27.9558E-03    -11.5317E-03     78.7579E-03    -16.4892E-03     27.9518E-03    -11.4424E-03     78.5734E-03
            1237     13.3432E-03     105.660E-03    -5.42831E+06    -20.6316E+06     7.67611E+06    -17.3537E+06    -19.3495E-03     31.1813E-03    -11.8318E-03     86.9751E-03    -19.4058E-03     31.1229E-03    -11.7557E-03     86.7157E-03
            1238     14.2255E-03     105.738E-03    -6.88921E+06    -26.9169E+06    -1.08135E+06    -23.9059E+06    -23.2362E-03     35.4991E-03    -12.2630E-03     94.7761E-03    -23.3292E-03     35.4755E-03    -12.2194E-03     94.4050E-03
            1239     15.1058E-03     105.827E-03    -7.83514E+06    -25.1724E+06    -2.08105E+06    -24.6591E+06    -28.0584E-03     40.9254E-03    -12.8670E-03     122.762E-03    -28.3617E-03     41.1178E-03    -12.8296E-03     122.338E-03
            1240     15.9827E-03     105.956E-03    -5.91514E+06    -42.5316E+06    -21.1358E+06    -18.1833E+06    -33.6661E-03     47.1642E-03    -13.4981E-03     173.525E-03    -34.9792E-03     48.3668E-03    -13.5335E-03     173.363E-03
            1241     16.8580E-03     106.144E-03    -3.20199E+06     55.7810E+06     25.5189E+06    -7.77234E+06    -37.8422E-03     52.1621E-03    -14.3198E-03     226.262E-03    -42.3613E-03     56.7940E-03    -14.2685E-03     228.638E-03
            1242     890.545E-06     106.197E-03    -48.5375E+06    -32.1661E+06    -47.9126E+06    -4.55627E+06    -10.4507E-03     20.8814E-03    -10.4308E-03     3.51691E-03    -10.5772E-03     20.8605E-03    -10.5533E-03     3.45798E-03
            1243     1.78123E-03     106.201E-03    -48.3658E+06    -30.7756E+06    -46.1153E+06    -7.84806E+06    -10.4795E-03     20.9342E-03    -10.4547E-03     6.51276E-03    -10.6099E-03     20.9174E-03    -10.5706E-03     6.41123E-03
            1244     2.67167E-03     106.208E-03    -48.2636E+06    -29.4895E+06    -43.9056E+06    -10.9956E+06    -10.5253E-03     21.0045E-03    -10.4792E-03     9.75391E-03    -10.6603E-03     20.9908E-03    -10.5860E-03     9.61163E-03
            1245     3.56225E-03     106.218E-03    -47.8981E+06    -27.7345E+06    -41.8765E+06    -14.0150E+06    -10.5722E-03     21.0749E-03    -10.5027E-03     13.1271E-03    -10.7109E-03     21.0666E-03    -10.6025E-03     12.9457E-03
            1246     4.45269E-03     106.231E-03    -46.3937E+06     -24.861E+06    -39.6797E+06    -16.4719E+06    -10.6121E-03     21.1340E-03    -10.5219E-03     16.6881E-03    -10.7508E-03     21.1348E-03    -10.6170E-03     16.4748E-03
            1247     5.34326E-03     106.248E-03    -41.9486E+06    -20.5958E+06    -35.5622E+06    -16.2602E+06    -10.6409E-03     21.1802E-03    -10.5393E-03     20.5079E-03    -10.7695E-03     21.1899E-03    -10.6264E-03     20.2972E-03
            1248     6.23364E-03     106.268E-03    -31.9159E+06    -14.8806E+06    -26.2545E+06    -12.6029E+06    -10.6909E-03     21.2574E-03    -10.5666E-03     24.7165E-03    -10.7912E-03     21.2678E-03    -10.6300E-03     24.5529E-03
            1249     7.12441E-03     106.292E-03    -17.6484E+06    -6.59166E+06    -10.9153E+06    -6.92916E+06    -10.8401E-03     21.4541E-03    -10.6140E-03     29.5210E-03    -10.9036E-03     21.4631E-03    -10.6334E-03     29.4304E-03
            1250     8.01482E-03     106.321E-03    -6.22079E+06     1.41439E+06     5.55957E+06    -2.92891E+06    -11.1469E-03     21.8306E-03    -10.6837E-03     35.0816E-03    -11.1890E-03     21.8395E-03    -10.6489E-03     35.0424E-03
            1251     8.90496E-03     106.354E-03    -1.98294E+06     2.98067E+06     14.4574E+06    -3.45993E+06    -11.5883E-03     22.3454E-03    -10.7571E-03     41.4929E-03    -11.6249E-03     22.3436E-03    -10.6863E-03     41.4463E-03
            1252     9.79462E-03     106.394E-03    -2.28871E+06    -900.020E+03     15.4478E+06    -6.44140E+06    -12.0970E-03     22.9253E-03    -10.8283E-03     48.8329E-03    -12.1318E-03     22.9040E-03    -10.7464E-03     48.7470E-03
            1253     10.6843E-03     106.441E-03    -2.46718E+06    -847.114E+03     16.3881E+06    -9.43435E+06    -12.8050E-03     23.7222E-03    -10.9173E-03     57.3466E-03    -12.8441E-03     23.7021E-03    -10.8305E-03     57.2202E-03
            1254     11.5732E-03     106.495E-03    -1.48629E+06    -1.93715E+06     18.4361E+06    -11.4698E+06    -14.0212E-03     25.0729E-03    -11.0517E-03     67.0700E-03    -14.0617E-03     25.0477E-03    -10.9545E-03     66.9134E-03
            1255     12.4613E-03     106.559E-03     57.2832E+03    -2.14879E+06     20.2266E+06    -10.9359E+06    -16.0393E-03     27.2911E-03    -11.2518E-03     79.5771E-03    -16.0867E-03     27.2724E-03    -11.1476E-03     79.4187E-03
            1256     13.3472E-03     106.636E-03    -628.411E+03    -10.5356E+06     15.7760E+06    -13.4745E+06    -19.0133E-03     30.5589E-03    -11.5456E-03     89.4997E-03    -19.0674E-03     30.5276E-03    -11.4505E-03     89.2937E-03
            1257     14.2310E-03     106.718E-03    -4.01705E+06    -18.3575E+06     5.75726E+06    -20.5595E+06    -22.9736E-03     34.9397E-03    -11.9661E-03     98.4244E-03    -23.0680E-03     34.9382E-03    -11.9049E-03     98.0999E-03
            1258     15.1107E-03     106.811E-03    -6.28653E+06    -25.3370E+06     2.83014E+06    -23.6514E+06    -28.4323E-03     41.0162E-03    -12.5838E-03     126.102E-03    -28.7182E-03     41.1818E-03    -12.5238E-03     125.686E-03
            1259     15.9870E-03     106.945E-03    -7.52843E+06    -50.9773E+06    -16.7774E+06    -20.0743E+06    -35.2638E-03     48.5467E-03    -13.2829E-03     175.995E-03    -36.4671E-03     49.5913E-03    -13.2820E-03     175.719E-03
            1260     16.8608E-03     107.135E-03    -6.27176E+06     42.0646E+06     23.2108E+06    -10.5343E+06    -40.0533E-03     54.2284E-03    -14.1751E-03     227.567E-03    -44.3712E-03     58.6063E-03    -14.1109E-03     229.551E-03
            1261     890.705E-06     107.165E-03    -30.8417E+06    -24.0912E+06    -30.0839E+06    -3.89260E+06    -10.4940E-03     20.9618E-03    -10.4677E-03     3.26466E-03    -10.5697E-03     20.9297E-03    -10.5385E-03     3.21423E-03
            1262     1.78118E-03     107.169E-03    -30.8965E+06    -23.4865E+06    -28.9338E+06    -6.68666E+06    -10.5366E-03     21.0340E-03    -10.4973E-03     6.04370E-03    -10.6151E-03     21.0033E-03    -10.5632E-03     5.95705E-03
            1263     2.67183E-03     107.177E-03    -30.6813E+06    -22.2833E+06    -27.2669E+06    -9.71946E+06    -10.5980E-03     21.1243E-03    -10.5264E-03     9.05699E-03    -10.6796E-03     21.0970E-03    -10.5859E-03     8.93100E-03
            1264     3.56227E-03     107.187E-03    -30.1824E+06    -20.7358E+06    -24.6768E+06    -12.8998E+06    -10.6775E-03     21.2401E-03    -10.5627E-03     12.1775E-03    -10.7627E-03     21.2162E-03    -10.6122E-03     12.0103E-03
            1265     4.45276E-03     107.200E-03    -30.1073E+06    -19.0087E+06    -21.8079E+06    -15.5929E+06    -10.7524E-03     21.3553E-03    -10.6029E-03     15.4703E-03    -10.8440E-03     21.3358E-03    -10.6407E-03     15.2681E-03
            1266     5.34304E-03     107.216E-03    -30.4330E+06    -17.5065E+06    -20.3600E+06    -17.8730E+06    -10.7946E-03     21.4287E-03    -10.6341E-03     19.0450E-03    -10.8923E-03     21.4153E-03    -10.6663E-03     18.8131E-03
            1267     6.23359E-03     107.236E-03    -29.8439E+06    -14.8435E+06    -19.9360E+06    -19.3855E+06    -10.7917E-03     21.4398E-03    -10.6482E-03     23.0041E-03    -10.8911E-03     21.4384E-03    -10.6830E-03     22.7525E-03
            1268     7.12394E-03     107.260E-03    -25.7293E+06    -10.6110E+06    -16.6318E+06    -17.9732E+06    -10.7659E-03     21.4225E-03    -10.6567E-03     27.4755E-03    -10.8558E-03     21.4317E-03    -10.6871E-03     27.2420E-03
            1269     8.01472E-03     107.289E-03    -16.1403E+06    -2.34950E+06    -7.35390E+06    -13.0334E+06    -10.8203E-03     21.4926E-03    -10.6723E-03     32.7206E-03    -10.8879E-03     21.5158E-03    -10.6822E-03     32.5507E-03
            1270     8.90530E-03     107.323E-03    -5.44961E+06     2.22286E+06     5.31346E+06    -7.42627E+06    -11.0986E-03     21.8119E-03    -10.7133E-03     38.9866E-03    -11.1380E-03     21.8244E-03    -10.6820E-03     38.8889E-03
            1271     9.79567E-03     107.363E-03     979.417E+03     2.62871E+06     16.0164E+06    -6.09027E+06    -11.6148E-03     22.3926E-03    -10.7778E-03     46.4129E-03    -11.6388E-03     22.3830E-03    -10.7029E-03     46.3319E-03
            1272     10.6853E-03     107.410E-03      3.1854E+06     2.73536E+06     21.0309E+06    -8.31063E+06    -12.3785E-03     23.2313E-03    -10.8528E-03     55.2562E-03    -12.4003E-03     23.2132E-03    -10.7563E-03     55.1454E-03
            1273     11.5749E-03     107.466E-03     2.14291E+06    -910.797E+03     22.6414E+06    -8.70397E+06    -13.5569E-03     24.5230E-03    -10.9661E-03     65.4919E-03    -13.5846E-03     24.4895E-03    -10.8547E-03     65.3729E-03
            1274     12.4630E-03     107.532E-03     55.2642E+03    -1.02794E+06     23.8685E+06    -9.41779E+06    -15.4720E-03     26.6131E-03    -11.1411E-03     78.9226E-03    -15.5216E-03     26.5901E-03    -11.0204E-03     78.7872E-03
            1275     13.3501E-03     107.611E-03    -1.04096E+06    -6.08416E+06     21.2473E+06    -10.0962E+06    -18.2980E-03     29.7035E-03    -11.4055E-03     90.2952E-03    -18.3608E-03     29.6794E-03    -11.2889E-03     90.1379E-03
            1276     14.2338E-03     107.697E-03    -3.80263E+06    -6.75940E+06     13.7790E+06    -14.7604E+06    -22.4592E-03     34.2535E-03    -11.7943E-03     100.853E-03    -22.5693E-03     34.2864E-03    -11.7101E-03     100.608E-03
            1277     15.1140E-03     107.796E-03    -7.00673E+06    -22.5242E+06     7.44704E+06    -21.5655E+06    -28.4817E-03     40.8781E-03    -12.3963E-03     129.207E-03    -28.7549E-03     41.0250E-03    -12.3163E-03     128.815E-03
            1278     15.9907E-03     107.934E-03    -8.59102E+06    -57.5105E+06    -14.0934E+06    -19.9658E+06    -36.1580E-03     49.2749E-03    -13.1169E-03     179.697E-03    -37.2287E-03     50.1521E-03    -13.0915E-03     179.347E-03
            1279     16.8619E-03     108.129E-03    -7.28645E+06     31.3155E+06     18.8576E+06    -13.3680E+06    -41.9463E-03     55.9791E-03    -14.0328E-03     230.772E-03    -46.0054E-03     60.0691E-03    -13.9734E-03     232.316E-03
            1280     890.309E-06     108.134E-03    -15.1154E+06    -17.3098E+06    -14.7455E+06    -3.13740E+06    -10.8358E-03     21.6657E-03    -10.8298E-03     2.92846E-03    -10.8649E-03     21.6225E-03    -10.8565E-03     2.88770E-03
            1281     1.78078E-03     108.138E-03    -15.1579E+06    -17.0091E+06    -13.9326E+06    -5.81656E+06    -10.8941E-03     21.7423E-03    -10.8482E-03     5.41964E-03    -10.9251E-03     21.6995E-03    -10.8712E-03     5.34406E-03
            1282     2.67098E-03     108.145E-03    -15.1394E+06    -15.6735E+06    -12.1179E+06    -8.66805E+06    -10.9826E-03     21.8667E-03    -10.8841E-03     8.10607E-03    -11.0181E-03     21.8279E-03    -10.9000E-03     7.99341E-03
            1283     3.56125E-03     108.155E-03    -15.5524E+06    -14.5458E+06    -10.0218E+06    -11.1109E+06    -11.0799E-03     22.0102E-03    -10.9303E-03     10.8830E-03    -11.1223E-03     21.9748E-03    -10.9368E-03     10.7385E-03
            1284     4.45129E-03     108.169E-03    -16.0579E+06    -13.3745E+06    -8.17272E+06    -13.2983E+06    -11.1760E-03     22.1547E-03    -10.9787E-03     13.8181E-03    -11.2254E-03     22.1233E-03    -10.9768E-03     13.6451E-03
            1285     5.34147E-03     108.185E-03    -16.2627E+06    -12.0132E+06    -5.79778E+06    -15.4778E+06    -11.2596E-03     22.2881E-03    -11.0285E-03     16.9886E-03    -11.3156E-03     22.2605E-03    -11.0165E-03     16.7870E-03
            1286     6.23132E-03     108.205E-03    -16.9143E+06    -10.5500E+06    -3.66377E+06    -17.4274E+06    -11.2892E-03     22.3611E-03    -11.0719E-03     20.5077E-03    -11.3540E-03     22.3389E-03    -11.0504E-03     20.2807E-03
            1287     7.12148E-03     108.229E-03    -18.2180E+06    -9.34762E+06    -3.14522E+06    -18.9349E+06    -11.2326E-03     22.3276E-03    -11.0951E-03     24.5464E-03    -11.3065E-03     22.3129E-03    -11.0708E-03     24.2998E-03
            1288     8.01151E-03     108.258E-03    -18.6600E+06    -4.91721E+06    -4.34907E+06    -18.8437E+06    -11.0911E-03     22.1745E-03    -11.0834E-03     29.3003E-03    -11.1722E-03     22.1845E-03    -11.0710E-03     29.0548E-03
            1289     8.90215E-03     108.292E-03    -14.7098E+06    -2.49062E+06    -1.07940E+06    -15.3576E+06    -11.0126E-03     22.0841E-03    -11.0715E-03     34.9998E-03    -11.0824E-03     22.0959E-03    -11.0520E-03     34.7993E-03
            1290     9.79281E-03     108.332E-03    -7.68405E+06     2.28080E+06     8.27710E+06    -10.7331E+06    -11.2024E-03     22.2810E-03    -11.0786E-03     42.0437E-03    -11.2578E-03     22.2933E-03    -11.0294E-03     41.9029E-03
            1291     10.6833E-03     108.380E-03    -3.36732E+06     4.21347E+06     16.8085E+06    -8.29383E+06    -11.8325E-03     22.9438E-03    -11.1113E-03     50.9877E-03    -11.8822E-03     22.9478E-03    -11.0285E-03     50.8777E-03
            1292     11.5727E-03     108.436E-03    -880.235E+03    -1.28870E+06     22.5205E+06    -7.39697E+06    -13.0163E-03     24.2080E-03    -11.1917E-03     61.7625E-03    -13.0562E-03     24.1750E-03    -11.0760E-03     61.6623E-03
            1293     12.4616E-03     108.503E-03     338.305E+03     364.351E+03     26.5203E+06    -6.24679E+06    -14.8217E-03     26.1468E-03    -11.3251E-03     75.7901E-03    -14.8705E-03     26.1213E-03    -11.1936E-03     75.6994E-03
            1294     13.3488E-03     108.585E-03    -640.945E+03    -3.80764E+06     25.7007E+06    -7.16343E+06    -17.3299E-03     28.8695E-03    -11.5396E-03     88.4216E-03    -17.3906E-03     28.8400E-03    -11.4047E-03     88.3086E-03
            1295     14.2342E-03     108.675E-03    -2.00233E+06     901.261E+03     21.2290E+06    -9.21715E+06    -21.3262E-03     33.1896E-03    -11.8634E-03     101.316E-03    -21.4321E-03     33.2302E-03    -11.7557E-03     101.153E-03
            1296     15.1153E-03     108.779E-03    -6.05771E+06    -12.3794E+06     14.5637E+06    -15.7829E+06    -27.6323E-03     40.0286E-03    -12.3963E-03     130.776E-03    -27.8852E-03     40.1741E-03    -12.2967E-03     130.466E-03
            1297     15.9917E-03     108.922E-03    -6.11787E+06    -58.3069E+06    -11.3065E+06    -23.0666E+06    -35.6435E-03     48.7019E-03    -13.0584E-03     181.908E-03    -36.5283E-03     49.3910E-03    -13.0215E-03     181.472E-03
            1298     16.8670E-03     109.123E-03    -2.18806E+06     17.7627E+06     12.0400E+06    -16.1238E+06    -42.7881E-03     56.7103E-03    -13.9222E-03     234.123E-03    -46.4354E-03     60.3785E-03    -13.8846E-03     235.183E-03
            1299     889.831E-06     109.103E-03    -2.93952E+06    -11.5879E+06    -2.34516E+06    -2.65208E+06    -11.5847E-03     23.1423E-03    -11.5576E-03     2.52697E-03    -11.5791E-03     23.0921E-03    -11.5483E-03     2.49237E-03
            1300     1.77946E-03     109.108E-03    -2.91534E+06    -11.2121E+06    -1.51672E+06    -5.03022E+06    -11.6573E-03     23.2506E-03    -11.5933E-03     4.65454E-03    -11.6535E-03     23.2010E-03    -11.5804E-03     4.58892E-03
            1301     2.66919E-03     109.115E-03    -3.41004E+06    -10.2403E+06    -304.840E+03    -7.10083E+06    -11.7580E-03     23.3959E-03    -11.6379E-03     6.92366E-03    -11.7599E-03     23.3502E-03    -11.6197E-03     6.83095E-03
            1302     3.55866E-03     109.125E-03    -3.81293E+06    -9.48447E+06     1.20036E+06    -9.05824E+06    -11.8730E-03     23.5648E-03    -11.6918E-03     9.27176E-03    -11.8803E-03     23.5214E-03    -11.6665E-03     9.15339E-03
            1303     4.44819E-03     109.139E-03    -4.23312E+06    -8.54476E+06     3.20124E+06    -10.9370E+06    -12.0027E-03     23.7560E-03    -11.7533E-03     11.7490E-03    -12.0165E-03     23.7151E-03    -11.7188E-03     11.6059E-03
            1304     5.33739E-03     109.155E-03    -5.30919E+06    -7.49904E+06     5.21901E+06    -12.4876E+06    -12.1142E-03     23.9325E-03    -11.8182E-03     14.4197E-03    -12.1381E-03     23.8956E-03    -11.7736E-03     14.2562E-03
            1305     6.22677E-03     109.175E-03    -6.78017E+06    -6.48935E+06     6.84867E+06    -13.6851E+06    -12.1798E-03     24.0583E-03    -11.8785E-03     17.3927E-03    -12.2152E-03     24.0266E-03    -11.8250E-03     17.2133E-03
            1306     7.11589E-03     109.199E-03    -8.16299E+06    -5.38728E+06     8.51048E+06    -14.9928E+06    -12.1818E-03     24.1108E-03    -11.9289E-03     20.8098E-03    -12.2284E-03     24.0844E-03    -11.8667E-03     20.6131E-03
            1307     8.00534E-03     109.228E-03    -9.99466E+06    -3.72432E+06     10.0603E+06    -15.5114E+06    -12.0924E-03     24.0552E-03    -11.9628E-03     24.8379E-03    -12.1531E-03     24.0378E-03    -11.8926E-03     24.6343E-03
            1308     8.89464E-03     109.261E-03    -12.9088E+06    -3.68519E+06     9.16094E+06    -15.5019E+06    -11.8914E-03     23.8571E-03    -11.9656E-03     29.7122E-03    -11.9657E-03     23.8457E-03    -11.8958E-03     29.5088E-03
            1309     9.78454E-03     109.301E-03    -14.2197E+06    -1.22953E+06     8.50827E+06    -13.4036E+06    -11.6899E-03     23.6294E-03    -11.9396E-03     35.8255E-03    -11.7735E-03     23.6334E-03    -11.8746E-03     35.6493E-03
            1310     10.6748E-03     109.349E-03    -11.8471E+06     2.74675E+06     14.7017E+06    -9.76736E+06    -11.7975E-03     23.7273E-03    -11.9298E-03     43.9006E-03    -11.8842E-03     23.7390E-03    -11.8431E-03     43.7715E-03
            1311     11.5652E-03     109.406E-03    -8.11079E+06    -279.354E+03     21.8922E+06    -9.05513E+06    -12.5890E-03     24.5447E-03    -11.9557E-03     54.4686E-03    -12.6642E-03     24.5266E-03    -11.8341E-03     54.3479E-03
            1312     12.4539E-03     109.474E-03    -3.69572E+06    -3.12370E+06     26.4483E+06    -6.90020E+06    -13.9626E-03     25.9814E-03    -12.0188E-03     68.6532E-03    -14.0214E-03     25.9394E-03    -11.8767E-03     68.5577E-03
            1313     13.3419E-03     109.558E-03    -980.094E+03    -845.206E+03     29.9708E+06    -4.46505E+06    -16.0912E-03     28.2393E-03    -12.1481E-03     82.6426E-03    -16.1537E-03     28.2086E-03    -11.9956E-03     82.5716E-03
            1314     14.2280E-03     109.651E-03    -2.02809E+06     2.71334E+06     28.4600E+06    -5.35934E+06    -19.7833E-03     32.1666E-03    -12.3833E-03     97.3629E-03    -19.8815E-03     32.1849E-03    -12.2420E-03     97.2614E-03
            1315     15.1110E-03     109.761E-03    -3.88221E+06     547.548E+03     27.8266E+06    -8.95834E+06    -25.9289E-03     38.7478E-03    -12.8189E-03     127.576E-03    -26.1526E-03     38.8792E-03    -12.6749E-03     127.373E-03
            1316     15.9901E-03     109.909E-03    -8.63636E+06    -44.3723E+06     720.313E+03    -20.9662E+06    -34.8136E-03     48.2191E-03    -13.4055E-03     177.390E-03    -35.5281E-03     48.7436E-03    -13.3250E-03     176.951E-03
            1317     16.8637E-03     110.113E-03    -12.9804E+06    -1.15375E+06    -3.17257E+06    -24.2108E+06    -39.5031E-03     53.5826E-03    -14.0795E-03     230.036E-03    -42.4251E-03     56.4640E-03    -14.0749E-03     230.636E-03
            1318     888.707E-06     110.074E-03     5.89399E+06     -6.8402E+06     6.33256E+06    -2.16191E+06    -12.8185E-03     25.5655E-03    -12.7469E-03     2.06300E-03    -12.7884E-03     25.5136E-03    -12.7139E-03     2.03464E-03
            1319     1.77746E-03     110.079E-03     5.33628E+06    -6.53598E+06     7.06502E+06    -3.80610E+06    -12.9025E-03     25.7160E-03    -12.8135E-03     3.73375E-03    -12.8768E-03     25.6654E-03    -12.7765E-03     3.68374E-03
            1320     2.66594E-03     110.086E-03     5.00782E+06    -6.04343E+06     7.94480E+06    -5.43411E+06    -13.0136E-03     25.8838E-03    -12.8703E-03     5.50653E-03    -12.9915E-03     25.8349E-03    -12.8291E-03     5.43506E-03
            1321     3.55449E-03     110.097E-03     4.31615E+06    -5.38570E+06     9.35222E+06    -6.94621E+06    -13.1579E-03     26.0947E-03    -12.9368E-03     7.34757E-03    -13.1424E-03     26.0481E-03    -12.8885E-03     7.25609E-03
            1322     4.44268E-03     110.110E-03     3.15895E+06    -4.93148E+06     10.8803E+06    -8.14658E+06    -13.3117E-03     26.3246E-03    -13.0130E-03     9.28891E-03    -13.3050E-03     26.2799E-03    -12.9560E-03     9.18142E-03
            1323     5.33096E-03     110.127E-03     2.04632E+06    -4.17549E+06     12.4686E+06    -9.12075E+06    -13.4647E-03     26.5585E-03    -13.0939E-03     11.3816E-03    -13.4671E-03     26.5170E-03    -13.0284E-03     11.2609E-03
            1324     6.21889E-03     110.147E-03     1.11105E+06    -3.44487E+06     14.8980E+06    -10.0848E+06    -13.6187E-03     26.8002E-03    -13.1815E-03     13.6850E-03    -13.6307E-03     26.7605E-03    -13.1037E-03     13.5513E-03
            1325     7.10692E-03     110.171E-03    -361.671E+03    -2.55322E+06     17.6480E+06    -10.6220E+06    -13.7514E-03     27.0235E-03    -13.2721E-03     16.2991E-03    -13.7763E-03     26.9866E-03    -13.1797E-03     16.1579E-03
            1326     7.99462E-03     110.200E-03    -2.18711E+06    -2.38607E+06     19.5098E+06    -10.5540E+06    -13.8248E-03     27.1808E-03    -13.3560E-03     19.3716E-03    -13.8622E-03     27.1451E-03    -13.2518E-03     19.2307E-03
            1327     8.88259E-03     110.233E-03    -3.35633E+06    -1.87280E+06     21.1421E+06    -10.3514E+06    -13.8147E-03     27.2417E-03    -13.4270E-03     23.0981E-03    -13.8615E-03     27.2082E-03    -13.3137E-03     22.9595E-03
            1328     9.77048E-03     110.272E-03    -3.96870E+06    -1.99023E+06     22.4213E+06    -10.7581E+06    -13.7069E-03     27.1866E-03    -13.4797E-03     27.8239E-03    -13.7588E-03     27.1518E-03    -13.3590E-03     27.6798E-03
            1329     10.6587E-03     110.320E-03    -3.94171E+06     13.0679E+03     25.3565E+06    -9.41159E+06    -13.5297E-03     27.0454E-03    -13.5157E-03     34.1654E-03    -13.5890E-03     27.0167E-03    -13.3832E-03     34.0387E-03
            1330     11.5472E-03     110.376E-03    -3.99576E+06     1.07764E+06     29.0769E+06    -7.67729E+06    -13.5051E-03     27.0454E-03    -13.5404E-03     42.9185E-03    -13.5720E-03     27.0172E-03    -13.3907E-03     42.8144E-03
            1331     12.4363E-03     110.446E-03    -3.58793E+06    -5.05673E+06     29.8776E+06    -7.90596E+06    -13.6788E-03     27.2301E-03    -13.5513E-03     55.0895E-03    -13.7367E-03     27.1703E-03    -13.3893E-03     54.9825E-03
            1332     13.3253E-03     110.529E-03     660.841E+03    -3.51323E+06     33.6217E+06    -5.54759E+06    -14.7553E-03     28.3325E-03    -13.5772E-03     69.6454E-03    -14.8028E-03     28.2724E-03    -13.4050E-03     69.5664E-03
            1333     14.2119E-03     110.626E-03     5.50374E+06     3.30142E+06     39.3166E+06    -2.45242E+06    -17.8761E-03     31.5727E-03    -13.6966E-03     86.0938E-03    -17.9328E-03     31.5468E-03    -13.5127E-03     86.0425E-03
            1334     15.0958E-03     110.738E-03     4.26725E+06     5.66088E+06     40.3531E+06    -1.82562E+06    -24.2928E-03     38.2969E-03    -14.0041E-03     117.118E-03    -24.4407E-03     38.3632E-03    -13.8167E-03     117.028E-03
            1335     15.9745E-03     110.894E-03    -56.5929E+03    -20.2533E+06     25.3607E+06    -11.0215E+06    -32.7971E-03     47.3091E-03    -14.5120E-03     166.986E-03    -33.2888E-03     47.6557E-03    -14.3558E-03     166.684E-03
            1336     16.8460E-03     111.103E-03     912.010E+03    -5.56479E+06     6.83044E+06    -22.9021E+06    -28.1296E-03     42.9292E-03    -14.7996E-03     214.342E-03    -29.7942E-03     44.5595E-03    -14.7587E-03     214.630E-03
            1337     887.281E-06     111.049E-03     10.9789E+06    -3.27827E+06     11.7594E+06    -1.23684E+06    -14.6320E-03     29.1737E-03    -14.5417E-03     1.52554E-03    -14.5895E-03     29.1243E-03    -14.4941E-03     1.50908E-03
            1338     1.77426E-03     111.053E-03     10.8243E+06    -3.15320E+06     12.2267E+06    -2.60557E+06    -14.7292E-03     29.3528E-03    -14.6236E-03     2.55162E-03    -14.6885E-03     29.3035E-03    -14.5736E-03     2.51701E-03
            1339     2.66134E-03     111.061E-03     10.3015E+06    -2.92431E+06     13.5559E+06    -3.76008E+06    -14.8675E-03     29.5636E-03    -14.6961E-03     3.71813E-03    -14.8317E-03     29.5143E-03    -14.6390E-03     3.66812E-03
            1340     3.54806E-03     111.072E-03     9.62977E+06    -2.63569E+06     15.0474E+06    -4.55206E+06    -15.0299E-03     29.8083E-03    -14.7784E-03     4.93425E-03    -15.0001E-03     29.7593E-03    -14.7133E-03     4.87349E-03
            1341     4.43482E-03     111.085E-03     9.00148E+06    -2.28455E+06     16.9015E+06    -5.36529E+06    -15.2267E-03     30.0993E-03    -14.8726E-03     6.22876E-03    -15.2033E-03     30.0504E-03    -14.7979E-03     6.15692E-03
            1342     5.32118E-03     111.102E-03     8.38465E+06    -1.91178E+06     19.6635E+06    -6.13482E+06    -15.4845E-03     30.4697E-03    -14.9852E-03     7.62310E-03    -15.4689E-03     30.4196E-03    -14.8963E-03     7.54068E-03
            1343     6.20748E-03     111.123E-03     7.48168E+06    -1.31342E+06     22.9623E+06    -6.56954E+06    -15.8055E-03     30.9240E-03    -15.1185E-03     9.12049E-03    -15.8003E-03     30.8736E-03    -15.0126E-03     9.03172E-03
            1344     7.09324E-03     111.147E-03     6.67223E+06    -1.39298E+06     25.9478E+06    -6.51011E+06    -16.1675E-03     31.4375E-03    -15.2699E-03     10.7676E-03    -16.1709E-03     31.3837E-03    -15.1479E-03     10.6788E-03
            1345     7.97888E-03     111.176E-03     6.31493E+06    -1.01177E+06     28.8486E+06    -6.60250E+06    -16.5459E-03     31.9824E-03    -15.4365E-03     12.6611E-03    -16.5561E-03     31.9270E-03    -15.2999E-03     12.5702E-03
            1346     8.86398E-03     111.209E-03     6.08254E+06    -1.03942E+06     31.5784E+06    -6.71707E+06    -16.9262E-03     32.5427E-03    -15.6166E-03     14.9532E-03    -16.9419E-03     32.4839E-03    -15.4660E-03     14.8598E-03
            1347     9.74882E-03     111.248E-03     5.37007E+06    -270.994E+03     34.0904E+06    -6.68847E+06    -17.2660E-03     33.0713E-03    -15.8054E-03     17.9079E-03    -17.2906E-03     33.0141E-03    -15.6423E-03     17.8138E-03
            1348     10.6334E-03     111.295E-03     4.63403E+06    -1.39028E+06     35.8168E+06    -6.51889E+06    -17.4432E-03     33.4375E-03    -15.9943E-03     21.9533E-03    -17.4731E-03     33.3737E-03    -15.8199E-03     21.8605E-03
            1349     11.5180E-03     111.351E-03     5.25204E+06     178.317E+03     37.6647E+06    -5.08547E+06    -17.1773E-03     33.3349E-03    -16.1576E-03     27.5166E-03    -17.2097E-03     33.2756E-03    -15.9771E-03     27.4422E-03
            1350     12.4031E-03     111.418E-03     5.74881E+06    -2.47417E+06     38.3135E+06    -5.19821E+06    -16.3691E-03     32.6389E-03    -16.2698E-03     35.2431E-03    -16.3965E-03     32.5649E-03    -16.0830E-03     35.1679E-03
            1351     13.2897E-03     111.500E-03     6.39963E+06    -5.84020E+06     39.9027E+06    -7.33350E+06    -15.3859E-03     31.7037E-03    -16.3178E-03     46.3940E-03    -15.4078E-03     31.6103E-03    -16.1191E-03     46.2923E-03
            1352     14.1779E-03     111.599E-03     10.9801E+06    -1.15632E+06     45.0477E+06    -4.31584E+06    -16.0320E-03     32.3725E-03    -16.3406E-03     62.4495E-03    -16.0496E-03     32.2938E-03    -16.1296E-03     62.3834E-03
            1353     15.0626E-03     111.716E-03     19.0379E+06     3.79357E+06     49.1678E+06     1.25217E+06    -21.5346E-03     38.0114E-03    -16.4768E-03     95.8771E-03    -21.5650E-03     37.9809E-03    -16.2640E-03     95.8525E-03
            1354     15.9403E-03     111.877E-03     25.8010E+06     603.398E+03     53.1350E+06    -5.77434E+06    -26.4649E-03     43.2423E-03    -16.7774E-03     143.661E-03    -26.6384E-03     43.3564E-03    -16.5500E-03     143.489E-03
            1355     16.8238E-03     112.082E-03     17.1964E+06    -638.240E+03     30.5740E+06    -10.9663E+06    -10.6183E-03     27.1397E-03    -16.5214E-03     169.426E-03    -11.1245E-03     27.6203E-03    -16.3925E-03     169.475E-03
            1356     884.911E-06     112.027E-03     15.6541E+06    -1.06777E+06     16.2806E+06    -731.773E+03    -17.1717E-03     34.4174E-03    -17.2457E-03     458.616E-06    -17.1157E-03     34.3655E-03    -17.1855E-03     448.837E-06
            1357     1.76992E-03     112.032E-03     15.6251E+06    -1.00960E+06     17.1334E+06    -1.39482E+06    -17.2817E-03     34.5184E-03    -17.2367E-03     908.999E-06    -17.2274E-03     34.4655E-03    -17.1722E-03     890.220E-06
            1358     2.65452E-03     112.040E-03     15.0686E+06    -1.06685E+06     18.5861E+06    -1.87981E+06    -17.4502E-03     34.7491E-03    -17.2988E-03     1.32733E-03    -17.4007E-03     34.6946E-03    -17.2262E-03     1.30190E-03
            1359     3.53917E-03     112.051E-03     14.6325E+06    -939.931E+03     20.5495E+06    -2.41519E+06    -17.6572E-03     35.0485E-03    -17.3913E-03     1.78412E-03    -17.6130E-03     34.9925E-03    -17.3084E-03     1.75134E-03
            1360     4.42343E-03     112.064E-03     14.2262E+06    -701.599E+03     23.5393E+06    -2.79859E+06    -17.9680E-03     35.4832E-03    -17.5152E-03     2.26810E-03    -17.9305E-03     35.4246E-03    -17.4171E-03     2.22989E-03
            1361     5.30750E-03     112.082E-03     13.6190E+06    -401.973E+03     27.0254E+06    -3.08768E+06    -18.4038E-03     36.0802E-03    -17.6765E-03     2.76328E-03    -18.3749E-03     36.0190E-03    -17.5605E-03     2.72078E-03
            1362     6.19092E-03     112.103E-03     13.0867E+06    -526.979E+03     30.2474E+06    -3.05117E+06    -18.9734E-03     36.8509E-03    -17.8775E-03     3.26054E-03    -18.9519E-03     36.7851E-03    -17.7444E-03     3.21784E-03
            1363     7.07389E-03     112.128E-03     12.7680E+06    -399.036E+03     33.6363E+06    -3.21422E+06    -19.6871E-03     37.8108E-03    -18.1236E-03     3.75807E-03    -19.6724E-03     37.7412E-03    -17.9734E-03     3.71246E-03
            1364     7.95595E-03     112.157E-03     12.4642E+06    -370.163E+03     36.9501E+06    -3.19916E+06    -20.5405E-03     38.9588E-03    -18.4183E-03     4.28472E-03    -20.5324E-03     38.8851E-03    -18.2511E-03     4.23830E-03
            1365     8.83723E-03     112.191E-03     12.0615E+06    -91.5764E+03     39.9385E+06    -3.20663E+06    -21.5097E-03     40.2716E-03    -18.7619E-03     4.92369E-03    -21.5087E-03     40.1955E-03    -18.5796E-03     4.87594E-03
            1366     9.71751E-03     112.231E-03     11.8281E+06    -285.821E+03     42.3849E+06    -2.81598E+06    -22.5676E-03     41.7218E-03    -19.1542E-03     5.80182E-03    -22.5715E-03     41.6415E-03    -18.9590E-03     5.75766E-03
            1367     10.5966E-03     112.278E-03     11.6641E+06    -65.8369E+03     43.8959E+06    -2.90778E+06    -23.5004E-03     43.0844E-03    -19.5841E-03     7.04869E-03    -23.5081E-03     43.0032E-03    -19.3814E-03     7.00186E-03
            1368     11.4746E-03     112.334E-03     11.2953E+06    -1.64612E+06     43.4899E+06    -2.76306E+06    -23.8676E-03     43.8891E-03    -20.0215E-03     8.79867E-03    -23.8750E-03     43.8011E-03    -19.8180E-03     8.75253E-03
            1369     12.3527E-03     112.400E-03     11.7705E+06    -64.0831E+03     45.5149E+06    -2.70705E+06    -23.1846E-03     43.6125E-03    -20.4279E-03     11.5400E-03    -23.1956E-03     43.5286E-03    -20.2173E-03     11.4943E-03
            1370     13.2311E-03     112.478E-03     10.7435E+06    -3.36496E+06     48.6655E+06    -4.10705E+06    -21.2823E-03     42.0352E-03    -20.7530E-03     16.2276E-03    -21.2989E-03     41.9315E-03    -20.5203E-03     16.1644E-03
            1371     14.1122E-03     112.572E-03     8.21506E+06    -5.04178E+06     42.7274E+06    -6.08264E+06    -20.1813E-03     41.1323E-03    -20.9510E-03     25.3222E-03    -20.2014E-03     41.0319E-03    -20.7419E-03     25.2335E-03
            1372     14.9972E-03     112.689E-03     10.7017E+06    -3.50829E+06     45.9214E+06    -4.98243E+06    -22.4649E-03     43.7099E-03    -21.2449E-03     47.8980E-03    -22.4916E-03     43.6181E-03    -21.0257E-03     47.8129E-03
            1373     15.8789E-03     112.856E-03     11.9410E+06     7.01606E+06     59.0371E+06    -3.82214E+06    -16.4297E-03     37.9030E-03    -21.4733E-03     74.6504E-03    -16.5192E-03     37.8850E-03    -21.2056E-03     74.5663E-03
            1374     16.7650E-03     113.042E-03     3.80937E+06     7.20967E+06     35.9137E+06    -1.40667E+06     3.29437E-03     17.5701E-03    -20.8645E-03     74.3487E-03     3.18663E-03     17.6078E-03    -20.7009E-03     74.3290E-03
            1375     16.8358E-03     56.1997E-03    -3.54830E+06     151.161E+06     37.8555E+06     450.399E+03    -23.9425E-03     39.4168E-03    -15.4744E-03     225.077E-03    -29.1771E-03     45.0657E-03    -15.4991E-03     229.083E-03
            1376     15.9511E-03     56.0121E-03    -4.41175E+06     83.0038E+06    -12.3432E+06     292.310E+03    -20.8091E-03     36.1400E-03    -15.3309E-03     160.159E-03    -22.5414E-03     38.1870E-03    -15.5065E-03     160.692E-03
            1377     15.0644E-03     55.8996E-03    -3.98077E+06     19.9661E+06    -10.3727E+06     25.2012E+03    -17.6989E-03     33.1340E-03    -15.4352E-03     95.9817E-03    -17.9933E-03     33.5153E-03    -15.5102E-03     95.9603E-03
            1378     14.1783E-03     55.8335E-03    -4.25757E+06    -19.5804E+06    -10.4157E+06    -5.73067E+03    -16.4967E-03     31.9919E-03    -15.4952E-03     63.7012E-03    -16.5531E-03     31.9939E-03    -15.5127E-03     63.6598E-03
            1379     13.2924E-03     55.7807E-03    -3.54467E+06    -36.2576E+06    -7.62006E+06     367.633E+03    -16.4473E-03     31.9793E-03    -15.5319E-03     59.2712E-03    -16.4476E-03     31.8604E-03    -15.5123E-03     59.2394E-03
            1380     12.4060E-03     55.7235E-03    -1.69513E+06    -35.6454E+06     2.00668E+06     389.006E+03    -16.3553E-03     31.9308E-03    -15.5755E-03     56.6232E-03    -16.3444E-03     31.7816E-03    -15.5114E-03     56.5995E-03
            1381     11.5199E-03     55.6752E-03    -1.72966E+06    -42.5900E+06     1.11627E+06     417.333E+03    -16.2030E-03     31.7832E-03    -15.5802E-03     49.4764E-03    -16.1687E-03     31.5883E-03    -15.5104E-03     49.4601E-03
            1382     10.6337E-03     55.6315E-03    -3.41191E+06    -54.9286E+06    -1.12209E+06     397.950E+03    -16.1454E-03     31.7312E-03    -15.5858E-03     45.0251E-03    -16.0921E-03     31.4740E-03    -15.5068E-03     45.0138E-03
            1383     9.74775E-03     55.5915E-03    -4.45292E+06    -55.9887E+06     1.80759E+06    -278.083E+03    -16.0328E-03     31.6313E-03    -15.5986E-03     40.7546E-03    -15.9834E-03     31.3622E-03    -15.5019E-03     40.7388E-03
            1384     8.86158E-03     55.5556E-03    -4.89175E+06    -56.4558E+06     2.67340E+06    -281.771E+03    -15.9307E-03     31.5305E-03    -15.5998E-03     36.4417E-03    -15.8817E-03     31.2559E-03    -15.4975E-03     36.4288E-03
            1385     7.97549E-03     55.5236E-03    -5.47701E+06    -61.7841E+06     3.07201E+06     67.9642E+03    -15.8530E-03     31.4593E-03    -15.6063E-03     32.1565E-03    -15.7982E-03     31.1568E-03    -15.4934E-03     32.1504E-03
            1386     7.08933E-03     55.4957E-03    -6.37510E+06    -60.6947E+06     2.08352E+06     90.7632E+03    -15.7699E-03     31.3674E-03    -15.5974E-03     28.0177E-03    -15.7188E-03     31.0720E-03    -15.4898E-03     28.0135E-03
            1387     6.20319E-03     55.4715E-03    -7.32966E+06    -55.9864E+06     56.0954E+03     63.2306E+03    -15.6906E-03     31.2701E-03    -15.5795E-03     24.0557E-03    -15.6474E-03     31.0020E-03    -15.4875E-03     24.0524E-03
            1388     5.31702E-03     55.4509E-03    -8.36031E+06    -58.8422E+06    -1.17914E+06    -61.6601E+03    -15.6439E-03     31.2216E-03    -15.5777E-03     20.2151E-03    -15.5995E-03     30.9421E-03    -15.4862E-03     20.2110E-03
            1389     4.43086E-03     55.4338E-03    -9.68960E+06    -59.9016E+06    -2.94656E+06    -223.847E+03    -15.6016E-03     31.1731E-03    -15.5715E-03     16.5584E-03    -15.5595E-03     30.8925E-03    -15.4853E-03     16.5529E-03
            1390     3.54468E-03     55.4201E-03    -11.0943E+06    -57.7322E+06    -5.91707E+06    -218.091E+03    -15.5606E-03     31.1167E-03    -15.5561E-03     13.0869E-03    -15.5241E-03     30.8531E-03    -15.4859E-03     13.0821E-03
            1391     2.65850E-03     55.4095E-03    -12.2425E+06    -59.9802E+06    -8.67064E+06    -88.1525E+03    -15.5462E-03     31.0950E-03    -15.5488E-03     9.73671E-03    -15.5080E-03     30.8256E-03    -15.4875E-03     9.73414E-03
            1392     1.77234E-03     55.4020E-03    -13.1549E+06    -61.9656E+06    -11.3725E+06     4.09959E+03    -15.5371E-03     31.0785E-03    -15.5413E-03     6.50873E-03    -15.4967E-03     30.8043E-03    -15.4893E-03     6.50784E-03
            1393     886.163E-06     55.3973E-03    -13.7445E+06    -63.4885E+06    -13.3634E+06    -37.0207E+03    -15.5147E-03     31.0722E-03    -15.5574E-03     3.48563E-03    -15.4720E-03     30.7941E-03    -15.5123E-03     3.48466E-03
            1394     16.8387E-03     55.2217E-03    -3.12097E+06     150.968E+06     38.1839E+06     512.854E+03    -23.9702E-03     39.4317E-03    -15.4614E-03     224.798E-03    -29.1805E-03     45.0560E-03    -15.4849E-03     228.782E-03
            1395     15.9505E-03     55.0347E-03    -3.90049E+06     83.4225E+06    -12.1412E+06     477.431E+03    -20.6020E-03     35.9229E-03    -15.3209E-03     160.496E-03    -22.3350E-03     37.9734E-03    -15.4969E-03     161.039E-03
            1396     15.0647E-03     54.9208E-03    -3.86270E+06     20.2212E+06    -10.1181E+06     460.919E+03    -17.7194E-03     33.1512E-03    -15.4319E-03     96.0103E-03    -18.0143E-03     33.5336E-03    -15.5062E-03     95.9941E-03
            1397     14.1786E-03     54.8559E-03    -3.73273E+06    -19.5858E+06    -10.4800E+06     495.678E+03    -16.4772E-03     31.9674E-03    -15.4902E-03     63.7959E-03    -16.5308E-03     31.9685E-03    -15.5088E-03     63.7611E-03
            1398     13.2919E-03     54.8025E-03    -3.30139E+06    -35.7280E+06    -8.32258E+06    -613.855E+03    -16.4359E-03     31.9603E-03    -15.5244E-03     59.4210E-03    -16.4347E-03     31.8447E-03    -15.5095E-03     59.3766E-03
            1399     12.4063E-03     54.7454E-03    -3.24472E+06    -36.3219E+06     206.772E+03    -700.902E+03    -16.3929E-03     31.9587E-03    -15.5657E-03     56.6477E-03    -16.3862E-03     31.8109E-03    -15.5073E-03     56.6099E-03
            1400     11.5200E-03     54.6973E-03    -3.29855E+06    -43.5670E+06     161.626E+03     824.754E+03    -16.2109E-03     31.7837E-03    -15.5728E-03     49.5136E-03    -16.1816E-03     31.5875E-03    -15.5040E-03     49.5026E-03
            1401     10.6340E-03     54.6533E-03    -2.85268E+06    -53.7778E+06    -255.389E+03     858.587E+03    -16.1555E-03     31.7353E-03    -15.5798E-03     44.9945E-03    -16.1023E-03     31.4818E-03    -15.4990E-03     44.9891E-03
            1402     9.74779E-03     54.6135E-03    -3.15583E+06    -55.4110E+06     2.44101E+06    -1.42932E+03    -16.0371E-03     31.6271E-03    -15.5900E-03     40.7303E-03    -15.9830E-03     31.3580E-03    -15.4929E-03     40.7180E-03
            1403     8.86170E-03     54.5775E-03    -4.29748E+06    -56.8746E+06     2.67196E+06    -145.846E+03    -15.9257E-03     31.5158E-03    -15.5901E-03     36.4271E-03    -15.8731E-03     31.2382E-03    -15.4880E-03     36.4161E-03
            1404     7.97554E-03     54.5457E-03    -5.40305E+06    -61.8646E+06     3.06798E+06    -24.3000E+03    -15.8472E-03     31.4437E-03    -15.5966E-03     32.1392E-03    -15.7919E-03     31.1407E-03    -15.4837E-03     32.1319E-03
            1405     7.08942E-03     54.5177E-03    -6.34526E+06    -60.6573E+06     2.02878E+06     7.55699E+03    -15.7645E-03     31.3513E-03    -15.5868E-03     28.0003E-03    -15.7131E-03     31.0562E-03    -15.4795E-03     27.9950E-03
            1406     6.20325E-03     54.4936E-03    -7.34272E+06    -55.9409E+06     7.82516E+03    -26.0428E+03    -15.6815E-03     31.2501E-03    -15.5686E-03     24.0377E-03    -15.6384E-03     30.9823E-03    -15.4768E-03     24.0332E-03
            1407     5.31708E-03     54.4729E-03    -8.47573E+06    -58.7032E+06    -1.20755E+06    -68.3898E+03    -15.6323E-03     31.1990E-03    -15.5667E-03     20.2018E-03    -15.5886E-03     30.9204E-03    -15.4754E-03     20.1976E-03
            1408     4.43090E-03     54.4559E-03    -9.76361E+06    -59.8375E+06    -3.00097E+06    -140.372E+03    -15.5907E-03     31.1511E-03    -15.5604E-03     16.5468E-03    -15.5490E-03     30.8710E-03    -15.4744E-03     16.5424E-03
            1409     3.54472E-03     54.4421E-03    -11.0887E+06    -57.8421E+06    -6.04116E+06    -196.658E+03    -15.5502E-03     31.0948E-03    -15.5447E-03     13.0723E-03    -15.5133E-03     30.8308E-03    -15.4749E-03     13.0678E-03
            1410     2.65853E-03     54.4316E-03    -12.3533E+06    -60.1511E+06    -8.91219E+06    -167.225E+03    -15.5318E-03     31.0695E-03    -15.5377E-03     9.72437E-03    -15.4936E-03     30.7998E-03    -15.4772E-03     9.72079E-03
            1411     1.77234E-03     54.4240E-03    -13.3368E+06    -62.0294E+06    -11.6171E+06    -79.3725E+03    -15.5270E-03     31.0579E-03    -15.5309E-03     6.50068E-03    -15.4870E-03     30.7840E-03    -15.4797E-03     6.49871E-03
            1412     886.181E-06     54.4195E-03    -13.9101E+06    -63.5081E+06    -13.5397E+06    -15.6718E+03    -15.5293E-03     31.0519E-03    -15.5225E-03     3.48374E-03    -15.4872E-03     30.7742E-03    -15.4780E-03     3.48304E-03
            1413     16.8364E-03     54.2441E-03    -3.06861E+06     150.676E+06     38.1749E+06     332.021E+03    -24.0242E-03     39.4953E-03    -15.4711E-03     224.910E-03    -29.2331E-03     45.1175E-03    -15.4943E-03     228.902E-03
            1414     15.9511E-03     54.0565E-03    -4.11880E+06     83.6451E+06    -12.0811E+06     654.517E+03    -20.8427E-03     36.1661E-03    -15.3234E-03     160.591E-03    -22.5782E-03     38.2189E-03    -15.4991E-03     161.125E-03
            1415     15.0646E-03     53.9427E-03    -3.45576E+06     20.1137E+06    -9.91942E+06     459.201E+03    -17.6214E-03     33.0527E-03    -15.4313E-03     95.9939E-03    -17.9130E-03     33.4322E-03    -15.5050E-03     95.9783E-03
            1416     14.1781E-03     53.8780E-03    -2.31051E+06    -19.2067E+06    -9.62446E+06     92.1087E+03    -16.5019E-03     31.9950E-03    -15.4930E-03     63.8355E-03    -16.5502E-03     31.9947E-03    -15.5100E-03     63.7953E-03
            1417     13.2925E-03     53.8243E-03    -2.55604E+06    -34.9970E+06    -7.24861E+06     439.619E+03    -16.4734E-03     32.0006E-03    -15.5272E-03     59.4749E-03    -16.4712E-03     31.8861E-03    -15.5090E-03     59.4439E-03
            1418     12.4059E-03     53.7674E-03    -4.44329E+06    -36.9351E+06     330.124E+03     379.558E+03    -16.4027E-03     31.9694E-03    -15.5667E-03     56.6277E-03    -16.4013E-03     31.8202E-03    -15.5051E-03     56.6037E-03
            1419     11.5201E-03     53.7191E-03    -5.06680E+06    -43.8352E+06    -1.68866E+06    -327.152E+03    -16.2532E-03     31.8147E-03    -15.5615E-03     49.5126E-03    -16.2297E-03     31.6225E-03    -15.4991E-03     49.4867E-03
            1420     10.6339E-03     53.6753E-03    -4.03003E+06    -53.5517E+06    -1.83298E+06    -301.404E+03    -16.1542E-03     31.7201E-03    -15.5659E-03     45.0086E-03    -16.1049E-03     31.4717E-03    -15.4916E-03     44.9884E-03
            1421     9.74790E-03     53.6354E-03    -3.64689E+06    -55.3668E+06     2.36464E+06     237.232E+03    -16.0329E-03     31.6150E-03    -15.5821E-03     40.6895E-03    -15.9812E-03     31.3470E-03    -15.4847E-03     40.6803E-03
            1422     8.86175E-03     53.5996E-03    -4.30753E+06    -56.7209E+06     2.74037E+06     241.334E+03    -15.9238E-03     31.5052E-03    -15.5813E-03     36.3976E-03    -15.8715E-03     31.2283E-03    -15.4791E-03     36.3915E-03
            1423     7.97563E-03     53.5676E-03    -5.23470E+06    -61.8996E+06     3.13646E+06     28.2347E+03    -15.8443E-03     31.4313E-03    -15.5871E-03     32.1157E-03    -15.7881E-03     31.1278E-03    -15.4741E-03     32.1091E-03
            1424     7.08948E-03     53.5398E-03    -6.30105E+06    -60.6064E+06     2.03976E+06    -6.93221E+03    -15.7580E-03     31.3345E-03    -15.5765E-03     27.9771E-03    -15.7065E-03     31.0396E-03    -15.4693E-03     27.9716E-03
            1425     6.20332E-03     53.5155E-03    -7.36885E+06    -55.9147E+06    -31.6849E+03    -44.0879E+03    -15.6728E-03     31.2305E-03    -15.5578E-03     24.0179E-03    -15.6298E-03     30.9629E-03    -15.4662E-03     24.0132E-03
            1426     5.31713E-03     53.4950E-03    -8.47225E+06    -58.6564E+06    -1.23516E+06    -73.4632E+03    -15.6218E-03     31.1774E-03    -15.5557E-03     20.1828E-03    -15.5781E-03     30.8991E-03    -15.4645E-03     20.1786E-03
            1427     4.43095E-03     53.4779E-03    -9.75652E+06    -59.7823E+06    -2.98755E+06    -123.686E+03    -15.5810E-03     31.1303E-03    -15.5493E-03     16.5304E-03    -15.5393E-03     30.8504E-03    -15.4634E-03     16.5262E-03
            1428     3.54476E-03     53.4642E-03    -11.1198E+06    -57.8932E+06    -6.03027E+06    -136.199E+03    -15.5430E-03     31.0760E-03    -15.5331E-03     13.0531E-03    -15.5062E-03     30.8118E-03    -15.4632E-03     13.0494E-03
            1429     2.65857E-03     53.4536E-03    -12.3659E+06    -60.2503E+06    -8.97531E+06    -112.853E+03    -15.5230E-03     31.0475E-03    -15.5245E-03     9.70495E-03    -15.4846E-03     30.7774E-03    -15.4641E-03     9.70207E-03
            1430     1.77238E-03     53.4461E-03    -13.4017E+06    -62.1476E+06    -11.7143E+06    -101.932E+03    -15.5102E-03     31.0281E-03    -15.5179E-03     6.49288E-03    -15.4702E-03     30.7539E-03    -15.4669E-03     6.49062E-03
            1431     886.172E-06     53.4415E-03    -14.0572E+06    -63.5700E+06    -13.6247E+06    -51.8668E+03    -15.5280E-03     31.0277E-03    -15.4998E-03     3.49582E-03    -15.4863E-03     30.7501E-03    -15.4553E-03     3.49466E-03
            1432     16.8366E-03     53.2642E-03    -3.41818E+06     150.371E+06     38.0094E+06     297.921E+03    -23.9787E-03     39.4612E-03    -15.4826E-03     224.709E-03    -29.1973E-03     45.0913E-03    -15.5056E-03     228.709E-03
            1433     15.9510E-03     53.0782E-03    -4.37473E+06     83.1903E+06    -11.9876E+06     285.141E+03    -20.9552E-03     36.2880E-03    -15.3328E-03     159.967E-03    -22.6821E-03     38.3295E-03    -15.5071E-03     160.490E-03
            1434     15.0646E-03     52.9653E-03    -3.43512E+06     20.8504E+06    -9.42868E+06     256.811E+03    -17.6791E-03     33.1136E-03    -15.4345E-03     96.0824E-03    -17.9732E-03     33.4968E-03    -15.5069E-03     96.0641E-03
            1435     14.1785E-03     52.8993E-03    -3.71601E+06    -19.1200E+06    -9.81496E+06     220.382E+03    -16.5066E-03     32.0006E-03    -15.4939E-03     63.8441E-03    -16.5616E-03     32.0029E-03    -15.5099E-03     63.8056E-03
            1436     13.2920E-03     52.8465E-03    -3.63017E+06    -35.8709E+06    -7.56826E+06     784.836E+03    -16.5174E-03     32.0437E-03    -15.5263E-03     59.4459E-03    -16.5189E-03     31.9269E-03    -15.5069E-03     59.4193E-03
            1437     12.4063E-03     52.7890E-03    -2.42483E+06    -35.8561E+06     1.96558E+06     762.007E+03    -16.4542E-03     32.0189E-03    -15.5647E-03     56.5374E-03    -16.4466E-03     31.8698E-03    -15.4994E-03     56.5183E-03
            1438     11.5201E-03     52.7411E-03    -2.41073E+06    -42.9636E+06    -200.739E+03    -364.894E+03    -16.2548E-03     31.8109E-03    -15.5562E-03     49.3751E-03    -16.2214E-03     31.6170E-03    -15.4914E-03     49.3487E-03
            1439     10.6341E-03     52.6971E-03    -3.39556E+06    -54.3402E+06    -1.73955E+06    -589.011E+03    -16.1567E-03     31.7151E-03    -15.5585E-03     44.9478E-03    -16.1032E-03     31.4617E-03    -15.4834E-03     44.9238E-03
            1440     9.74796E-03     52.6574E-03    -4.00865E+06    -55.8396E+06     2.42936E+06     6.94810E+03    -16.0250E-03     31.6000E-03    -15.5750E-03     40.6412E-03    -15.9745E-03     31.3300E-03    -15.4761E-03     40.6291E-03
            1441     8.86184E-03     52.6215E-03    -4.39639E+06    -56.4301E+06     2.83999E+06     192.597E+03    -15.9205E-03     31.4929E-03    -15.5724E-03     36.3663E-03    -15.8692E-03     31.2175E-03    -15.4700E-03     36.3596E-03
            1442     7.97570E-03     52.5897E-03    -5.13207E+06    -61.8319E+06     3.21270E+06     96.4282E+03    -15.8404E-03     31.4178E-03    -15.5774E-03     32.0857E-03    -15.7839E-03     31.1143E-03    -15.4642E-03     32.0800E-03
            1443     7.08956E-03     52.5617E-03    -6.13682E+06    -60.5623E+06     2.16525E+06     47.1907E+03    -15.7508E-03     31.3173E-03    -15.5665E-03     27.9489E-03    -15.6988E-03     31.0222E-03    -15.4590E-03     27.9441E-03
            1444     6.20338E-03     52.5376E-03    -7.23530E+06    -55.8548E+06     50.3567E+03        -819.618    -15.6655E-03     31.2126E-03    -15.5471E-03     23.9917E-03    -15.6220E-03     30.9450E-03    -15.4554E-03     23.9875E-03
            1445     5.31719E-03     52.5171E-03    -8.43489E+06    -58.6345E+06    -1.23664E+06    -53.4815E+03    -15.6150E-03     31.1592E-03    -15.5442E-03     20.1600E-03    -15.5712E-03     30.8809E-03    -15.4531E-03     20.1561E-03
            1446     4.43101E-03     52.5001E-03      -9.767E+06    -59.7520E+06    -3.03972E+06    -69.7819E+03    -15.5711E-03     31.1081E-03    -15.5370E-03     16.5115E-03    -15.5294E-03     30.8284E-03    -15.4514E-03     16.5080E-03
            1447     3.54480E-03     52.4863E-03    -11.1260E+06    -57.9428E+06    -6.01456E+06    -83.9322E+03    -15.5328E-03     31.0535E-03    -15.5207E-03     13.0383E-03    -15.4961E-03     30.7890E-03    -15.4506E-03     13.0352E-03
            1448     2.65861E-03     52.4758E-03    -12.3907E+06    -60.2992E+06    -8.88173E+06    -68.3948E+03    -15.5166E-03     31.0275E-03    -15.5109E-03     9.68899E-03    -15.4785E-03     30.7570E-03    -15.4499E-03     9.68669E-03
            1449     1.77240E-03     52.4683E-03    -13.4421E+06    -62.2084E+06    -11.6836E+06    -56.8831E+03    -15.4980E-03     30.9994E-03    -15.5014E-03     6.47480E-03    -15.4581E-03     30.7249E-03    -15.4501E-03     6.47313E-03
            1450     886.196E-06     52.4637E-03    -14.0903E+06    -63.6753E+06    -13.7160E+06    -68.3860E+03    -15.4940E-03     30.9916E-03    -15.4976E-03     3.51297E-03    -15.4522E-03     30.7136E-03    -15.4534E-03     3.51158E-03
            1451     16.8372E-03     52.2856E-03    -3.38426E+06     149.973E+06     37.9593E+06     321.032E+03    -23.8839E-03     39.3667E-03    -15.4828E-03     225.228E-03    -29.1265E-03     45.0196E-03    -15.5055E-03     229.245E-03
            1452     15.9502E-03     52.1002E-03    -4.21667E+06     83.5375E+06    -12.1002E+06     298.156E+03    -20.8301E-03     36.1688E-03    -15.3386E-03     159.761E-03    -22.5489E-03     38.2042E-03    -15.5142E-03     160.289E-03
            1453     15.0645E-03     51.9865E-03    -4.46054E+06     20.7442E+06    -9.93935E+06     479.529E+03    -17.8816E-03     33.3194E-03    -15.4378E-03     95.9132E-03    -18.1808E-03     33.7052E-03    -15.5111E-03     95.8962E-03
            1454     14.1783E-03     51.9220E-03    -4.05467E+06    -18.9752E+06    -9.90084E+06     651.512E+03    -16.6006E-03     32.0891E-03    -15.4885E-03     63.7097E-03    -16.6572E-03     32.0927E-03    -15.5046E-03     63.6764E-03
            1455     13.2925E-03     51.8678E-03    -2.99610E+06    -35.5771E+06    -8.10255E+06    -104.933E+03    -16.5398E-03     32.0525E-03    -15.5127E-03     59.3998E-03    -16.5377E-03     31.9370E-03    -15.4973E-03     59.3617E-03
            1456     12.4063E-03     51.8111E-03    -2.54122E+06    -35.8335E+06     1.01427E+06    -314.319E+03    -16.4502E-03     31.9993E-03    -15.5492E-03     56.4169E-03    -16.4418E-03     31.8518E-03    -15.4885E-03     56.3839E-03
            1457     11.5203E-03     51.7629E-03    -2.54152E+06    -42.3656E+06    -292.886E+03     170.793E+03    -16.2243E-03     31.7687E-03    -15.5444E-03     49.3265E-03    -16.1922E-03     31.5781E-03    -15.4808E-03     49.3071E-03
            1458     10.6342E-03     51.7192E-03    -2.89096E+06    -54.4969E+06    -1.89562E+06     59.4922E+03    -16.1410E-03     31.6886E-03    -15.5476E-03     44.9034E-03    -16.0845E-03     31.4338E-03    -15.4738E-03     44.8878E-03
            1459     9.74807E-03     51.6793E-03    -3.49476E+06    -56.2149E+06     2.47517E+06    -28.0803E+03    -16.0200E-03     31.5857E-03    -15.5657E-03     40.6140E-03    -15.9665E-03     31.3131E-03    -15.4668E-03     40.6015E-03
            1460     8.86193E-03     51.6436E-03    -4.25761E+06    -56.3698E+06     2.92365E+06     105.124E+03    -15.9153E-03     31.4782E-03    -15.5629E-03     36.3362E-03    -15.8635E-03     31.2027E-03    -15.4604E-03     36.3284E-03
            1461     7.97578E-03     51.6117E-03    -5.10030E+06    -61.7482E+06     3.25790E+06     110.463E+03    -15.8345E-03     31.4018E-03    -15.5673E-03     32.0508E-03    -15.7781E-03     31.0986E-03    -15.4541E-03     32.0453E-03
            1462     7.08963E-03     51.5839E-03    -6.10238E+06    -60.5317E+06     2.16288E+06     82.1385E+03    -15.7454E-03     31.3010E-03    -15.5556E-03     27.9171E-03    -15.6932E-03     31.0060E-03    -15.4482E-03     27.9129E-03
            1463     6.20345E-03     51.5597E-03    -7.17114E+06    -55.7951E+06     76.2201E+03     69.3321E+03    -15.6601E-03     31.1955E-03    -15.5355E-03     23.9601E-03    -15.6164E-03     30.9281E-03    -15.4438E-03     23.9569E-03
            1464     5.31726E-03     51.5392E-03    -8.35129E+06    -58.5956E+06    -1.18050E+06     38.7807E+03    -15.6080E-03     31.1398E-03    -15.5318E-03     20.1293E-03    -15.5639E-03     30.8614E-03    -15.4406E-03     20.1266E-03
            1465     4.43106E-03     51.5222E-03    -9.71757E+06    -59.7394E+06    -2.98928E+06     6.11874E+03    -15.5607E-03     31.0846E-03    -15.5239E-03     16.4844E-03    -15.5189E-03     30.8049E-03    -15.4382E-03     16.4819E-03
            1466     3.54485E-03     51.5085E-03    -11.1037E+06    -57.9251E+06    -5.95583E+06    -22.2871E+03    -15.5194E-03     31.0268E-03    -15.5073E-03     13.0221E-03    -15.4827E-03     30.7622E-03    -15.4370E-03     13.0199E-03
            1467     2.65863E-03     51.4979E-03    -12.3786E+06    -60.3320E+06    -8.79976E+06    -45.6562E+03    -15.5054E-03     31.0026E-03    -15.4972E-03     9.67380E-03    -15.4672E-03     30.7318E-03    -15.4358E-03     9.67179E-03
            1468     1.77244E-03     51.4904E-03    -13.4335E+06    -62.2344E+06    -11.6545E+06    -33.9047E+03    -15.4923E-03     30.9763E-03    -15.4840E-03     6.45406E-03    -15.4524E-03     30.7016E-03    -15.4325E-03     6.45270E-03
            1469     886.219E-06     51.4859E-03    -14.1059E+06    -63.7525E+06    -13.7123E+06    -16.7460E+03    -15.4732E-03     30.9507E-03    -15.4775E-03     3.50750E-03    -15.4314E-03     30.6723E-03    -15.4332E-03     3.50678E-03
            1470     16.8363E-03     51.3075E-03    -3.54182E+06     149.651E+06     37.6038E+06     230.161E+03    -23.8569E-03     39.3350E-03    -15.4781E-03     224.992E-03    -29.0904E-03     44.9782E-03    -15.5019E-03     228.997E-03
            1471     15.9508E-03     51.1218E-03    -4.54236E+06     83.3387E+06    -12.2352E+06     513.678E+03    -20.8209E-03     36.1556E-03    -15.3348E-03     159.537E-03    -22.5425E-03     38.1925E-03    -15.5102E-03     160.070E-03
            1472     15.0644E-03     51.0083E-03    -4.04724E+06     20.8434E+06    -9.78113E+06     662.968E+03    -17.8853E-03     33.3180E-03    -15.4328E-03     95.4928E-03    -18.1809E-03     33.7016E-03    -15.5060E-03     95.4778E-03
            1473     14.1788E-03     50.9435E-03    -3.37222E+06    -18.0439E+06    -9.47751E+06     151.418E+03    -16.6587E-03     32.1391E-03    -15.4804E-03     63.6615E-03    -16.7141E-03     32.1459E-03    -15.4967E-03     63.6216E-03
            1474     13.2926E-03     50.8900E-03    -2.72297E+06    -35.0396E+06    -8.14782E+06    -294.437E+03    -16.5755E-03     32.0754E-03    -15.4998E-03     59.4955E-03    -16.5728E-03     31.9622E-03    -15.4858E-03     59.4549E-03
            1475     12.4065E-03     50.8327E-03    -2.93829E+06    -36.5033E+06     711.134E+03    -239.997E+03    -16.3951E-03     31.9329E-03    -15.5377E-03     56.3715E-03    -16.3871E-03     31.7828E-03    -15.4770E-03     56.3396E-03
            1476     11.5204E-03     50.7850E-03    -3.33832E+06    -42.5781E+06    -492.510E+03     61.0117E+03    -16.1992E-03     31.7345E-03    -15.5354E-03     49.3202E-03    -16.1704E-03     31.5442E-03    -15.4712E-03     49.2995E-03
            1477     10.6343E-03     50.7410E-03    -3.30991E+06    -54.2136E+06    -1.95277E+06     143.496E+03    -16.1319E-03     31.6702E-03    -15.5383E-03     44.8903E-03    -16.0777E-03     31.4175E-03    -15.4647E-03     44.8759E-03
            1478     9.74816E-03     50.7014E-03    -3.56776E+06    -56.3237E+06     2.34759E+06     116.699E+03    -16.0174E-03     31.5731E-03    -15.5557E-03     40.5827E-03    -15.9638E-03     31.3002E-03    -15.4572E-03     40.5721E-03
            1479     8.86201E-03     50.6655E-03    -4.23727E+06    -56.3963E+06     2.82949E+06     147.564E+03    -15.9113E-03     31.4635E-03    -15.5522E-03     36.2997E-03    -15.8593E-03     31.1880E-03    -15.4501E-03     36.2925E-03
            1480     7.97588E-03     50.6338E-03    -5.09913E+06    -61.6936E+06     3.20221E+06     156.048E+03    -15.8293E-03     31.3852E-03    -15.5560E-03     32.0099E-03    -15.7728E-03     31.0824E-03    -15.4431E-03     32.0050E-03
            1481     7.08971E-03     50.6059E-03    -6.14974E+06    -60.4997E+06     2.12888E+06     139.358E+03    -15.7419E-03     31.2854E-03    -15.5435E-03     27.8769E-03    -15.6899E-03     30.9907E-03    -15.4363E-03     27.8734E-03
            1482     6.20354E-03     50.5818E-03    -7.25019E+06    -55.7520E+06     48.5916E+03     118.315E+03    -15.6547E-03     31.1770E-03    -15.5223E-03     23.9202E-03    -15.6114E-03     30.9099E-03    -15.4307E-03     23.9176E-03
            1483     5.31733E-03     50.5613E-03    -8.40831E+06    -58.5388E+06    -1.15495E+06     93.6029E+03    -15.5986E-03     31.1164E-03    -15.5177E-03     20.0922E-03    -15.5550E-03     30.8384E-03    -15.4264E-03     20.0902E-03
            1484     4.43114E-03     50.5443E-03    -9.70618E+06    -59.6983E+06    -2.89031E+06     65.2741E+03    -15.5506E-03     31.0597E-03    -15.5091E-03     16.4507E-03    -15.5089E-03     30.7800E-03    -15.4229E-03     16.4490E-03
            1485     3.54490E-03     50.5306E-03    -11.0587E+06    -57.8717E+06    -5.90411E+06     28.3125E+03    -15.5061E-03     30.9974E-03    -15.4913E-03     12.9918E-03    -15.4692E-03     30.7329E-03    -15.4209E-03     12.9902E-03
            1486     2.65869E-03     50.5201E-03    -12.3184E+06    -60.3209E+06    -8.81485E+06    -24.2723E+03    -15.4853E-03     30.9666E-03    -15.4813E-03     9.65123E-03    -15.4468E-03     30.6958E-03    -15.4200E-03     9.64950E-03
            1487     1.77245E-03     50.5126E-03    -13.3671E+06    -62.2677E+06    -11.5818E+06    -34.5081E+03    -15.4789E-03     30.9478E-03    -15.4689E-03     6.44038E-03    -15.4388E-03     30.6727E-03    -15.4171E-03     6.43901E-03
            1488     886.253E-06     50.5081E-03    -14.0000E+06    -63.7786E+06    -13.5890E+06     12.4072E+03    -15.4677E-03     30.9196E-03    -15.4520E-03     3.47634E-03    -15.4255E-03     30.6409E-03    -15.4071E-03     3.47601E-03
            1489     16.8378E-03     50.3303E-03    -3.24945E+06     149.400E+06     37.5715E+06     471.145E+03    -23.9656E-03     39.4295E-03    -15.4640E-03     224.628E-03    -29.1629E-03     45.0367E-03    -15.4880E-03     228.604E-03
            1490     15.9506E-03     50.1430E-03    -4.10893E+06     83.6093E+06    -11.9911E+06     663.411E+03    -20.7455E-03     36.0650E-03    -15.3195E-03     159.749E-03    -22.4731E-03     38.1096E-03    -15.4947E-03     160.283E-03
            1491     15.0651E-03     50.0303E-03    -3.80369E+06     21.3523E+06    -9.57285E+06     361.952E+03    -17.7526E-03     33.1756E-03    -15.4231E-03     95.4708E-03    -18.0460E-03     33.5592E-03    -15.4964E-03     95.4526E-03
            1492     14.1783E-03     49.9654E-03    -3.53548E+06    -17.5696E+06    -9.66145E+06    -31.4874E+03    -16.6523E-03     32.1253E-03    -15.4729E-03     63.8526E-03    -16.7091E-03     32.1352E-03    -15.4907E-03     63.8103E-03
            1493     13.2927E-03     49.9115E-03    -3.22254E+06    -35.0258E+06    -8.17418E+06    -204.144E+03    -16.5976E-03     32.0910E-03    -15.4933E-03     59.3288E-03    -16.5973E-03     31.9785E-03    -15.4787E-03     59.2892E-03
            1494     12.4066E-03     49.8550E-03    -2.99887E+06    -36.8739E+06     727.671E+03    -113.266E+03    -16.3749E-03     31.9055E-03    -15.5306E-03     56.3711E-03    -16.3666E-03     31.7536E-03    -15.4691E-03     56.3410E-03
            1495     11.5204E-03     49.8068E-03    -3.10785E+06    -42.8406E+06    -781.882E+03     52.1170E+03    -16.2013E-03     31.7275E-03    -15.5263E-03     49.3405E-03    -16.1705E-03     31.5359E-03    -15.4635E-03     49.3197E-03
            1496     10.6344E-03     49.7631E-03    -3.34820E+06    -54.1789E+06    -2.26273E+06     100.784E+03    -16.1409E-03     31.6690E-03    -15.5280E-03     44.8620E-03    -16.0866E-03     31.4170E-03    -15.4559E-03     44.8471E-03
            1497     9.74824E-03     49.7233E-03    -3.75039E+06    -56.3469E+06     2.12907E+06     168.868E+03    -16.0203E-03     31.5652E-03    -15.5448E-03     40.5489E-03    -15.9674E-03     31.2926E-03    -15.4470E-03     40.5390E-03
            1498     8.86213E-03     49.6876E-03    -4.41663E+06    -56.3916E+06     2.69096E+06     189.412E+03    -15.9102E-03     31.4505E-03    -15.5403E-03     36.2509E-03    -15.8588E-03     31.1755E-03    -15.4387E-03     36.2443E-03
            1499     7.97595E-03     49.6558E-03    -5.24868E+06    -61.6381E+06     3.12196E+06     167.083E+03    -15.8266E-03     31.3697E-03    -15.5431E-03     31.9624E-03    -15.7709E-03     31.0675E-03    -15.4305E-03     31.9576E-03
            1500     7.08982E-03     49.6280E-03    -6.20397E+06    -60.4871E+06     2.15122E+06     168.435E+03    -15.7375E-03     31.2673E-03    -15.5298E-03     27.8282E-03    -15.6858E-03     30.9726E-03    -15.4223E-03     27.8250E-03
            1501     6.20362E-03     49.6039E-03    -7.25931E+06    -55.6807E+06     147.385E+03     160.066E+03    -15.6470E-03     31.1545E-03    -15.5075E-03     23.8738E-03    -15.6041E-03     30.8877E-03    -15.4155E-03     23.8717E-03
            1502     5.31743E-03     49.5835E-03    -8.41780E+06    -58.4820E+06    -1.08146E+06     110.891E+03    -15.5900E-03     31.0915E-03    -15.5015E-03     20.0485E-03    -15.5465E-03     30.8137E-03    -15.4099E-03     20.0466E-03
            1503     4.43120E-03     49.5665E-03    -9.73304E+06    -59.6468E+06    -2.89250E+06     84.2119E+03    -15.5401E-03     31.0312E-03    -15.4911E-03     16.4126E-03    -15.4986E-03     30.7518E-03    -15.4049E-03     16.4112E-03
            1504     3.54499E-03     49.5528E-03    -11.0715E+06    -57.8018E+06    -5.92832E+06     42.0320E+03    -15.4902E-03     30.9620E-03    -15.4718E-03     12.9554E-03    -15.4535E-03     30.6980E-03    -15.4016E-03     12.9540E-03
            1505     2.65873E-03     49.5423E-03    -12.2955E+06    -60.2849E+06    -8.81768E+06         543.893    -15.4624E-03     30.9245E-03    -15.4620E-03     9.62509E-03    -15.4239E-03     30.6538E-03    -15.4009E-03     9.62369E-03
            1506     1.77249E-03     49.5348E-03    -13.3366E+06    -62.2929E+06    -11.5855E+06    -17.9057E+03    -15.4524E-03     30.9054E-03    -15.4530E-03     6.43009E-03    -15.4121E-03     30.6302E-03    -15.4013E-03     6.42893E-03
            1507     886.239E-06     49.5303E-03    -14.0105E+06    -63.7929E+06    -13.5647E+06    -18.3424E+03    -15.4461E-03     30.8935E-03    -15.4474E-03     3.44051E-03    -15.4040E-03     30.6146E-03    -15.4024E-03     3.43978E-03
            1508     16.8370E-03     49.3528E-03    -3.30651E+06     148.960E+06     37.4416E+06     497.938E+03    -24.1421E-03     39.6079E-03    -15.4658E-03     224.989E-03    -29.3479E-03     45.2222E-03    -15.4898E-03     228.968E-03
            1509     15.9514E-03     49.1644E-03    -3.45711E+06     83.8316E+06    -11.4372E+06     610.173E+03    -20.8474E-03     36.1643E-03    -15.3169E-03     159.950E-03    -22.5726E-03     38.2079E-03    -15.4906E-03     160.478E-03
            1510     15.0644E-03     49.0528E-03    -2.54114E+06     21.7361E+06    -8.95255E+06     311.333E+03    -17.7668E-03     33.1839E-03    -15.4170E-03     95.5667E-03    -18.0551E-03     33.5662E-03    -15.4896E-03     95.5482E-03
            1511     14.1789E-03     48.9866E-03    -2.80214E+06    -17.5026E+06    -9.59003E+06     289.380E+03    -16.6966E-03     32.1600E-03    -15.4634E-03     63.7233E-03    -16.7499E-03     32.1690E-03    -15.4819E-03     63.6850E-03
            1512     13.2928E-03     48.9337E-03    -2.76822E+06    -34.9291E+06    -8.17044E+06     2.82238E+03    -16.5022E-03     31.9871E-03    -15.4850E-03     59.1325E-03    -16.4993E-03     31.8742E-03    -15.4712E-03     59.0960E-03
            1513     12.4066E-03     48.8767E-03    -3.00811E+06    -37.1117E+06     364.393E+03    -81.4347E+03    -16.3910E-03     31.9146E-03    -15.5236E-03     56.3567E-03    -16.3818E-03     31.7619E-03    -15.4636E-03     56.3270E-03
            1514     11.5206E-03     48.8289E-03    -3.55340E+06    -42.8359E+06    -1.23357E+06     152.114E+03    -16.2271E-03     31.7441E-03    -15.5170E-03     49.2996E-03    -16.1979E-03     31.5538E-03    -15.4559E-03     49.2800E-03
            1515     10.6344E-03     48.7850E-03    -3.76586E+06    -54.1777E+06    -2.38815E+06     126.069E+03    -16.1469E-03     31.6651E-03    -15.5182E-03     44.8128E-03    -16.0944E-03     31.4138E-03    -15.4461E-03     44.7982E-03
            1516     9.74838E-03     48.7454E-03    -4.01239E+06    -56.3787E+06     2.02330E+06     112.132E+03    -16.0268E-03     31.5600E-03    -15.5332E-03     40.4908E-03    -15.9749E-03     31.2878E-03    -15.4355E-03     40.4801E-03
            1517     8.86221E-03     48.7096E-03    -4.48803E+06    -56.3665E+06     2.68776E+06     126.039E+03    -15.9126E-03     31.4397E-03    -15.5271E-03     36.1939E-03    -15.8616E-03     31.1648E-03    -15.4254E-03     36.1865E-03
            1518     7.97611E-03     48.6779E-03    -5.23311E+06    -61.6179E+06     3.23122E+06     149.646E+03    -15.8259E-03     31.3544E-03    -15.5285E-03     31.9041E-03    -15.7703E-03     31.0521E-03    -15.4155E-03     31.8991E-03
            1519     7.08991E-03     48.6501E-03    -6.23795E+06    -60.4581E+06     2.17057E+06     151.042E+03    -15.7307E-03     31.2440E-03    -15.5134E-03     27.7713E-03    -15.6792E-03     30.9495E-03    -15.4058E-03     27.7680E-03
            1520     6.20375E-03     48.6261E-03    -7.26312E+06    -55.6377E+06     191.044E+03     144.041E+03    -15.6381E-03     31.1279E-03    -15.4898E-03     23.8196E-03    -15.5953E-03     30.8612E-03    -15.3976E-03     23.8174E-03
            1521     5.31751E-03     48.6056E-03    -8.39720E+06    -58.4025E+06    -1.04664E+06     134.141E+03    -15.5793E-03     31.0615E-03    -15.4822E-03     19.9976E-03    -15.5359E-03     30.7840E-03    -15.3906E-03     19.9961E-03
            1522     4.43132E-03     48.5887E-03    -9.69496E+06    -59.6079E+06    -2.85226E+06     89.9507E+03    -15.5245E-03     30.9949E-03    -15.4705E-03     16.3704E-03    -15.4829E-03     30.7156E-03    -15.3842E-03     16.3690E-03
            1523     3.54504E-03     48.5750E-03    -11.0338E+06    -57.7212E+06    -5.88927E+06     55.4396E+03    -15.4710E-03     30.9213E-03    -15.4503E-03     12.9176E-03    -15.4342E-03     30.6575E-03    -15.3801E-03     12.9164E-03
            1524     2.65880E-03     48.5646E-03    -12.2762E+06    -60.2569E+06    -8.77150E+06     14.0601E+03    -15.4444E-03     30.8840E-03    -15.4395E-03     9.59626E-03    -15.4059E-03     30.6134E-03    -15.3782E-03     9.59504E-03
            1525     1.77252E-03     48.5571E-03    -13.2941E+06    -62.2927E+06    -11.5685E+06     4.91025E+03    -15.4278E-03     30.8577E-03    -15.4300E-03     6.40326E-03    -15.3872E-03     30.5824E-03    -15.3782E-03     6.40240E-03
            1526     886.255E-06     48.5526E-03    -13.9192E+06    -63.7868E+06    -13.5661E+06    -29.9331E+03    -15.4174E-03     30.8485E-03    -15.4311E-03     3.40893E-03    -15.3748E-03     30.5695E-03    -15.3863E-03     3.40807E-03
            1527     16.8365E-03     48.3714E-03    -3.19915E+06     148.499E+06     37.5500E+06         256.789    -24.1513E-03     39.6244E-03    -15.4732E-03     224.595E-03    -29.3670E-03     45.2471E-03    -15.4961E-03     228.564E-03
            1528     15.9508E-03     48.1877E-03    -4.05604E+06     83.4446E+06    -12.2287E+06     247.093E+03    -20.9587E-03     36.2732E-03    -15.3145E-03     159.200E-03    -22.6710E-03     38.3028E-03    -15.4908E-03     159.719E-03
            1529     15.0651E-03     48.0735E-03    -3.20438E+06     22.1657E+06    -9.39508E+06     310.474E+03    -17.8706E-03     33.2777E-03    -15.4071E-03     95.7254E-03    -18.1634E-03     33.6651E-03    -15.4816E-03     95.7063E-03
            1530     14.1791E-03     48.0089E-03    -2.18342E+06    -17.6155E+06    -9.49908E+06     313.064E+03    -16.6337E-03     32.0875E-03    -15.4537E-03     63.6237E-03    -16.6835E-03     32.0945E-03    -15.4725E-03     63.5860E-03
            1531     13.2927E-03     47.9555E-03    -2.23947E+06    -34.9246E+06    -7.25169E+06     879.708E+03    -16.4859E-03     31.9674E-03    -15.4814E-03     59.1521E-03    -16.4817E-03     31.8523E-03    -15.4638E-03     59.1270E-03
            1532     12.4068E-03     47.8988E-03    -3.44604E+06    -36.4416E+06     1.01378E+06     701.012E+03    -16.4115E-03     31.9298E-03    -15.5183E-03     56.2609E-03    -16.4065E-03     31.7802E-03    -15.4554E-03     56.2412E-03
            1533     11.5206E-03     47.8507E-03    -4.06096E+06    -42.7184E+06    -1.23537E+06    -68.0762E+03    -16.2368E-03     31.7438E-03    -15.5071E-03     49.2174E-03    -16.2103E-03     31.5548E-03    -15.4454E-03     49.1951E-03
            1534     10.6346E-03     47.8071E-03    -3.80054E+06    -54.2407E+06    -2.16105E+06    -110.016E+03    -16.1539E-03     31.6610E-03    -15.5072E-03     44.7454E-03    -16.1018E-03     31.4092E-03    -15.4338E-03     44.7277E-03
            1535     9.74847E-03     47.7673E-03    -3.89822E+06    -56.3929E+06     2.11667E+06    -9.75494E+03    -16.0281E-03     31.5476E-03    -15.5196E-03     40.4272E-03    -15.9757E-03     31.2751E-03    -15.4215E-03     40.4149E-03
            1536     8.86240E-03     47.7317E-03    -4.46252E+06    -56.3978E+06     2.64654E+06     8.51953E+03    -15.9162E-03     31.4274E-03    -15.5112E-03     36.1304E-03    -15.8650E-03     31.1524E-03    -15.4097E-03     36.1214E-03
            1537     7.97621E-03     47.6999E-03    -5.23935E+06    -61.6962E+06     3.17162E+06     118.538E+03    -15.8240E-03     31.3347E-03    -15.5107E-03     31.8394E-03    -15.7682E-03     31.0321E-03    -15.3978E-03     31.8340E-03
            1538     7.09009E-03     47.6722E-03    -6.20567E+06    -60.3929E+06     2.18645E+06     169.728E+03    -15.7244E-03     31.2182E-03    -15.4939E-03     27.7067E-03    -15.6729E-03     30.9240E-03    -15.3864E-03     27.7036E-03
            1539     6.20385E-03     47.6482E-03    -7.29437E+06    -55.5955E+06     106.865E+03     127.294E+03    -15.6279E-03     31.0961E-03    -15.4682E-03     23.7614E-03    -15.5852E-03     30.8298E-03    -15.3765E-03     23.7590E-03
            1540     5.31766E-03     47.6278E-03    -8.40768E+06    -58.3568E+06    -1.03846E+06     102.386E+03    -15.5640E-03     31.0235E-03    -15.4595E-03     19.9398E-03    -15.5207E-03     30.7462E-03    -15.3679E-03     19.9379E-03
            1541     4.43139E-03     47.6109E-03    -9.68160E+06    -59.5554E+06    -2.79893E+06     94.8866E+03    -15.5045E-03     30.9513E-03    -15.4469E-03     16.3161E-03    -15.4630E-03     30.6722E-03    -15.3605E-03     16.3148E-03
            1542     3.54516E-03     47.5973E-03    -11.0067E+06    -57.6507E+06    -5.82075E+06     59.4721E+03    -15.4497E-03     30.8755E-03    -15.4258E-03     12.8705E-03    -15.4130E-03     30.6120E-03    -15.3554E-03     12.8693E-03
            1543     2.65885E-03     47.5868E-03    -12.2580E+06    -60.2130E+06    -8.74628E+06     31.3743E+03    -15.4228E-03     30.8364E-03    -15.4137E-03     9.56505E-03    -15.3842E-03     30.5660E-03    -15.3523E-03     9.56407E-03
            1544     1.77260E-03     47.5794E-03    -13.2969E+06    -62.2910E+06    -11.5287E+06     1.79907E+03    -15.4064E-03     30.8082E-03    -15.4018E-03     6.38595E-03    -15.3659E-03     30.5328E-03    -15.3498E-03     6.38506E-03
            1545     886.298E-06     47.5749E-03    -13.9138E+06    -63.7771E+06    -13.5333E+06     8.39437E+03    -15.3968E-03     30.7881E-03    -15.3914E-03     3.40907E-03    -15.3542E-03     30.5091E-03    -15.3464E-03     3.40870E-03
            1546     16.8377E-03     47.3941E-03    -3.05605E+06     148.645E+06     38.0888E+06    -12.4052E+03    -24.1057E-03     39.5671E-03    -15.4614E-03     224.244E-03    -29.3013E-03     45.1691E-03    -15.4821E-03     228.198E-03
            1547     15.9512E-03     47.2087E-03    -4.22356E+06     83.4501E+06    -11.8969E+06     105.308E+03    -20.8163E-03     36.1223E-03    -15.3059E-03     159.032E-03    -22.5204E-03     38.1421E-03    -15.4803E-03     159.551E-03
            1548     15.0651E-03     47.0957E-03    -4.32525E+06     21.8487E+06    -9.96068E+06     123.214E+03    -17.8542E-03     33.2535E-03    -15.3993E-03     95.6605E-03    -18.1517E-03     33.6421E-03    -15.4745E-03     95.6385E-03
            1549     14.1787E-03     47.0306E-03    -4.04688E+06    -18.0484E+06    -9.83554E+06     303.631E+03    -16.5703E-03     32.0201E-03    -15.4498E-03     63.5414E-03    -16.6278E-03     32.0278E-03    -15.4670E-03     63.5039E-03
            1550     13.2931E-03     46.9774E-03    -3.67991E+06    -35.3877E+06    -7.70054E+06     931.829E+03    -16.5488E-03     32.0242E-03    -15.4754E-03     59.1545E-03    -16.5507E-03     31.9097E-03    -15.4572E-03     59.1299E-03
            1551     12.4069E-03     46.9206E-03    -2.79153E+06    -35.2567E+06     1.72700E+06     754.388E+03    -16.4479E-03     31.9563E-03    -15.5084E-03     56.2248E-03    -16.4423E-03     31.8106E-03    -15.4446E-03     56.2058E-03
            1552     11.5209E-03     46.8727E-03    -2.66806E+06    -42.1041E+06    -592.514E+03    -2.94117E+03    -16.2471E-03     31.7413E-03    -15.4941E-03     49.1452E-03    -16.2154E-03     31.5523E-03    -15.4322E-03     49.1236E-03
            1553     10.6347E-03     46.8290E-03    -3.17841E+06    -54.6415E+06    -2.30855E+06    -134.762E+03    -16.1572E-03     31.6486E-03    -15.4914E-03     44.6880E-03    -16.1011E-03     31.3940E-03    -15.4191E-03     44.6700E-03
            1554     9.74868E-03     46.7894E-03    -3.70575E+06    -56.3134E+06     2.06982E+06     26.5694E+03    -16.0329E-03     31.5355E-03    -15.5026E-03     40.3681E-03    -15.9796E-03     31.2631E-03    -15.4053E-03     40.3564E-03
            1555     8.86251E-03     46.7537E-03    -4.44952E+06    -56.5034E+06     2.49146E+06     47.8252E+03    -15.9169E-03     31.4092E-03    -15.4923E-03     36.0590E-03    -15.8652E-03     31.1339E-03    -15.3914E-03     36.0506E-03
            1556     7.97642E-03     46.7221E-03    -5.32274E+06    -61.7332E+06     3.03898E+06     88.0587E+03    -15.8220E-03     31.3119E-03    -15.4899E-03     31.7649E-03    -15.7663E-03     31.0094E-03    -15.3775E-03     31.7591E-03
            1557     7.09020E-03     46.6943E-03    -6.26146E+06    -60.4038E+06     2.15115E+06     113.914E+03    -15.7178E-03     31.1890E-03    -15.4713E-03     27.6366E-03    -15.6665E-03     30.8949E-03    -15.3639E-03     27.6328E-03
            1558     6.20404E-03     46.6704E-03    -7.23258E+06    -55.5119E+06     190.428E+03     127.944E+03    -15.6156E-03     31.0595E-03    -15.4439E-03     23.6932E-03    -15.5728E-03     30.7934E-03    -15.3520E-03     23.6908E-03
            1559     5.31776E-03     46.6500E-03    -8.39226E+06    -58.3329E+06    -1.04546E+06     91.2723E+03    -15.5468E-03     30.9800E-03    -15.4332E-03     19.8752E-03    -15.5035E-03     30.7028E-03    -15.3417E-03     19.8732E-03
            1560     4.43155E-03     46.6332E-03    -9.70329E+06    -59.5145E+06    -2.77730E+06     84.7473E+03    -15.4828E-03     30.9020E-03    -15.4192E-03     16.2531E-03    -15.4415E-03     30.6230E-03    -15.3328E-03     16.2517E-03
            1561     3.54523E-03     46.6196E-03    -11.0546E+06    -57.5971E+06    -5.83133E+06     66.8815E+03    -15.4235E-03     30.8205E-03    -15.3970E-03     12.8242E-03    -15.3871E-03     30.5573E-03    -15.3266E-03     12.8231E-03
            1562     2.65896E-03     46.6092E-03    -12.2938E+06    -60.1598E+06    -8.73450E+06     27.8003E+03    -15.3957E-03     30.7798E-03    -15.3840E-03     9.52786E-03    -15.3575E-03     30.5096E-03    -15.3226E-03     9.52684E-03
            1563     1.77261E-03     46.6017E-03    -13.3375E+06    -62.2671E+06    -11.5411E+06     11.8733E+03    -15.3764E-03     30.7477E-03    -15.3714E-03     6.35597E-03    -15.3361E-03     30.4725E-03    -15.3194E-03     6.35522E-03
            1564     886.321E-06     46.5973E-03    -14.0465E+06    -63.7879E+06    -13.5722E+06    -4.91458E+03    -15.3734E-03     30.7265E-03    -15.3531E-03     3.39422E-03    -15.3314E-03     30.4477E-03    -15.3081E-03     3.39367E-03
            1565     16.8376E-03     46.4163E-03    -3.28518E+06     148.747E+06     38.3081E+06     269.559E+03    -24.2396E-03     39.7002E-03    -15.4606E-03     224.431E-03    -29.4320E-03     45.2979E-03    -15.4800E-03     228.387E-03
            1566     15.9511E-03     46.2303E-03    -4.32516E+06     83.4691E+06    -11.1080E+06     196.200E+03    -20.9156E-03     36.2182E-03    -15.3026E-03     159.212E-03    -22.6214E-03     38.2372E-03    -15.4729E-03     159.724E-03
            1567     15.0651E-03     46.1175E-03    -4.36007E+06     21.5541E+06    -9.92202E+06     383.167E+03    -17.7608E-03     33.1533E-03    -15.3925E-03     95.3706E-03    -18.0562E-03     33.5385E-03    -15.4671E-03     95.3522E-03
            1568     14.1793E-03     46.0526E-03    -4.36482E+06    -18.2831E+06    -10.0143E+06     604.951E+03    -16.5824E-03     32.0261E-03    -15.4438E-03     63.5935E-03    -16.6409E-03     32.0334E-03    -15.4610E-03     63.5598E-03
            1569     13.2929E-03     45.9993E-03    -3.54077E+06    -35.1927E+06    -8.15144E+06    -185.173E+03    -16.5849E-03     32.0496E-03    -15.4647E-03     59.1625E-03    -16.5857E-03     31.9365E-03    -15.4493E-03     59.1233E-03
            1570     12.4070E-03     45.9424E-03    -2.48714E+06    -35.3817E+06     1.19899E+06    -244.703E+03    -16.4802E-03     31.9748E-03    -15.4946E-03     56.1641E-03    -16.4720E-03     31.8287E-03    -15.4337E-03     56.1322E-03
            1571     11.5210E-03     45.8947E-03    -2.41751E+06    -41.9230E+06    -524.574E+03     443.065E+03    -16.2632E-03     31.7435E-03    -15.4802E-03     49.0653E-03    -16.2306E-03     31.5549E-03    -15.4186E-03     49.0495E-03
            1572     10.6349E-03     45.8510E-03    -2.98824E+06    -54.4398E+06    -2.36660E+06     371.090E+03    -16.1714E-03     31.6459E-03    -15.4745E-03     44.6452E-03    -16.1146E-03     31.3921E-03    -15.4031E-03     44.6338E-03
            1573     9.74882E-03     45.8114E-03    -3.62080E+06    -56.3851E+06     2.07165E+06     162.857E+03    -16.0455E-03     31.5293E-03    -15.4839E-03     40.2808E-03    -15.9916E-03     31.2564E-03    -15.3865E-03     40.2708E-03
            1574     8.86275E-03     45.7758E-03    -4.34011E+06    -56.4138E+06     2.58255E+06     186.099E+03    -15.9171E-03     31.3882E-03    -15.4710E-03     35.9704E-03    -15.8651E-03     31.1130E-03    -15.3700E-03     35.9638E-03
            1575     7.97655E-03     45.7442E-03    -5.22794E+06    -61.7484E+06     3.08243E+06     111.762E+03    -15.8178E-03     31.2841E-03    -15.4663E-03     31.6753E-03    -15.7617E-03     30.9813E-03    -15.3538E-03     31.6699E-03
            1576     7.09043E-03     45.7166E-03    -6.26856E+06    -60.3716E+06     2.15717E+06     93.4677E+03    -15.7090E-03     31.1543E-03    -15.4453E-03     27.5530E-03    -15.6578E-03     30.8602E-03    -15.3379E-03     27.5490E-03
            1577     6.20417E-03     45.6926E-03    -7.36104E+06    -55.5112E+06     130.081E+03     84.7329E+03    -15.6001E-03     31.0157E-03    -15.4156E-03     23.6137E-03    -15.5578E-03     30.7499E-03    -15.3238E-03     23.6107E-03
            1578     5.31797E-03     45.6724E-03    -8.46560E+06    -58.2620E+06    -1.04808E+06     99.6620E+03    -15.5266E-03     30.9297E-03    -15.4031E-03     19.8035E-03    -15.4837E-03     30.6530E-03    -15.3116E-03     19.8016E-03
            1579     4.43165E-03     45.6555E-03    -9.76650E+06     -59.497E+06    -2.82912E+06     65.2333E+03    -15.4595E-03     30.8466E-03    -15.3871E-03     16.1826E-03    -15.4184E-03     30.5678E-03    -15.3008E-03     16.1810E-03
            1580     3.54538E-03     45.6420E-03    -11.0908E+06    -57.5436E+06    -5.83517E+06     58.2927E+03    -15.3955E-03     30.7587E-03    -15.3632E-03     12.7650E-03    -15.3594E-03     30.4959E-03    -15.2929E-03     12.7638E-03
            1581     2.65901E-03     45.6316E-03    -12.3427E+06    -60.1135E+06    -8.76301E+06     28.9603E+03    -15.3633E-03     30.7121E-03    -15.3489E-03     9.48296E-03    -15.3253E-03     30.4423E-03    -15.2876E-03     9.48196E-03
            1582     1.77273E-03     45.6242E-03    -13.3873E+06    -62.2633E+06    -11.5854E+06     7.28854E+03    -15.3400E-03     30.6758E-03    -15.3359E-03     6.31933E-03    -15.2999E-03     30.4008E-03    -15.2841E-03     6.31852E-03
            1583     886.337E-06     45.6197E-03    -14.0134E+06    -63.7384E+06    -13.6598E+06     9.69955E+03    -15.3362E-03     30.6559E-03    -15.3197E-03     3.38451E-03    -15.2940E-03     30.3774E-03    -15.2752E-03     3.38416E-03
            1584     16.8365E-03     45.4370E-03    -3.52052E+06     148.334E+06     38.0686E+06     180.422E+03    -24.2311E-03     39.7017E-03    -15.4706E-03     224.225E-03    -29.4236E-03     45.2978E-03    -15.4902E-03     228.179E-03
            1585     15.9517E-03     45.2518E-03    -4.40426E+06     83.6506E+06    -11.5231E+06     348.103E+03    -21.0579E-03     36.3641E-03    -15.3062E-03     158.988E-03    -22.7613E-03     38.3822E-03    -15.4787E-03     159.497E-03
            1586     15.0654E-03     45.1398E-03    -3.82521E+06     21.3201E+06    -9.99470E+06     510.573E+03    -17.8711E-03     33.2612E-03    -15.3901E-03     95.4947E-03    -18.1633E-03     33.6445E-03    -15.4654E-03     95.4774E-03
            1587     14.1788E-03     45.0743E-03    -2.81547E+06    -17.9857E+06    -9.77494E+06     308.916E+03    -16.6898E-03     32.1241E-03    -15.4343E-03     63.5793E-03    -16.7413E-03     32.1301E-03    -15.4530E-03     63.5414E-03
            1588     13.2933E-03     45.0211E-03    -2.28981E+06    -34.1048E+06    -7.60637E+06    -275.447E+03    -16.6116E-03     32.0629E-03    -15.4513E-03     59.0377E-03    -16.6082E-03     31.9524E-03    -15.4366E-03     58.9974E-03
            1589     12.4072E-03     44.9643E-03    -3.17966E+06    -36.4117E+06     426.902E+03    -189.624E+03    -16.4672E-03     31.9462E-03    -15.4790E-03     55.9941E-03    -16.4597E-03     31.7969E-03    -15.4195E-03     55.9630E-03
            1590     11.5211E-03     44.9166E-03    -3.81084E+06    -42.4171E+06    -1.13244E+06     434.474E+03    -16.2674E-03     31.7318E-03    -15.4644E-03     48.9603E-03    -16.2400E-03     31.5436E-03    -15.4030E-03     48.9445E-03
            1591     10.6351E-03     44.8730E-03    -3.64946E+06    -53.8068E+06    -2.24892E+06     465.986E+03    -16.1970E-03     31.6534E-03    -15.4564E-03     44.5441E-03    -16.1445E-03     31.4035E-03    -15.3844E-03     44.5339E-03
            1592     9.74908E-03     44.8334E-03    -3.79009E+06    -56.4566E+06     2.05846E+06     211.139E+03    -16.0521E-03     31.5140E-03    -15.4618E-03     40.1747E-03    -15.9990E-03     31.2409E-03    -15.3642E-03     40.1654E-03
            1593     8.86292E-03     44.7979E-03    -4.39728E+06    -56.3240E+06     2.67699E+06     232.640E+03    -15.9168E-03     31.3631E-03    -15.4463E-03     35.8659E-03    -15.8653E-03     31.0883E-03    -15.3449E-03     35.8599E-03
            1594     7.97683E-03     44.7664E-03    -5.21822E+06    -61.6388E+06     3.09577E+06     159.700E+03    -15.8101E-03     31.2487E-03    -15.4385E-03     31.5809E-03    -15.7541E-03     30.9464E-03    -15.3261E-03     31.5762E-03
            1595     7.09060E-03     44.7388E-03    -6.20989E+06    -60.3850E+06     2.20264E+06     112.342E+03    -15.6985E-03     31.1137E-03    -15.4153E-03     27.4520E-03    -15.6470E-03     30.8195E-03    -15.3077E-03     27.4483E-03
            1596     6.20442E-03     44.7149E-03    -7.27083E+06    -55.4573E+06     221.177E+03     109.642E+03    -15.5817E-03     30.9650E-03    -15.3833E-03     23.5166E-03    -15.5392E-03     30.6992E-03    -15.2912E-03     23.5140E-03
            1597     5.31810E-03     44.6947E-03    -8.47127E+06    -58.2551E+06    -1.03749E+06     75.2604E+03    -15.5016E-03     30.8702E-03    -15.3686E-03     19.7202E-03    -15.4588E-03     30.5935E-03    -15.2770E-03     19.7180E-03
            1598     4.43185E-03     44.6779E-03    -9.79355E+06    -59.4325E+06    -2.84781E+06     83.4031E+03    -15.4325E-03     30.7830E-03    -15.3505E-03     16.1073E-03    -15.3917E-03     30.5047E-03    -15.2643E-03     16.1059E-03
            1599     3.54549E-03     44.6644E-03    -11.1771E+06    -57.5063E+06    -5.94878E+06     43.6358E+03    -15.3665E-03     30.6904E-03    -15.3239E-03     12.7027E-03    -15.3307E-03     30.4280E-03    -15.2541E-03     12.7014E-03
            1600     2.65917E-03     44.6541E-03    -12.4110E+06    -60.0666E+06     -8.8635E+06     27.9354E+03    -15.3227E-03     30.6310E-03    -15.3083E-03     9.43340E-03    -15.2850E-03     30.3616E-03    -15.2475E-03     9.43239E-03
            1601     1.77273E-03     44.6467E-03    -13.4435E+06    -62.2597E+06    -11.6674E+06        -468.369    -15.2949E-03     30.5919E-03    -15.2969E-03     6.29165E-03    -15.2550E-03     30.3170E-03    -15.2455E-03     6.29074E-03
            1602     886.397E-06     44.6423E-03    -14.1113E+06    -63.7019E+06    -13.6694E+06     22.0504E+03    -15.2883E-03     30.5812E-03    -15.2929E-03     3.39560E-03    -15.2467E-03     30.3031E-03    -15.2484E-03     3.39540E-03
            1603     16.8375E-03     44.4576E-03    -3.52104E+06     148.184E+06     37.7539E+06     138.294E+03    -24.1682E-03     39.6379E-03    -15.4696E-03     224.396E-03    -29.3644E-03     45.2381E-03    -15.4906E-03     228.345E-03
            1604     15.9505E-03     44.2739E-03    -4.15041E+06     83.3130E+06    -11.6501E+06     159.794E+03    -21.1106E-03     36.4163E-03    -15.3058E-03     158.286E-03    -22.8021E-03     38.4227E-03    -15.4788E-03     158.788E-03
            1605     15.0648E-03     44.1607E-03    -3.08695E+06     21.6155E+06    -9.34370E+06     91.2162E+03    -17.9948E-03     33.3793E-03    -15.3845E-03     94.7847E-03    -18.2824E-03     33.7597E-03    -15.4580E-03     94.7605E-03
            1606     14.1798E-03     44.0965E-03    -2.64985E+06    -17.7101E+06    -9.50813E+06    -62.3810E+03    -16.6925E-03     32.1147E-03    -15.4222E-03     63.4760E-03    -16.7436E-03     32.1210E-03    -15.4402E-03     63.4334E-03
            1607     13.2933E-03     44.0426E-03    -2.78664E+06    -34.3964E+06    -7.29140E+06     624.895E+03    -16.6355E-03     32.0748E-03    -15.4392E-03     59.0454E-03    -16.6347E-03     31.9631E-03    -15.4218E-03     59.0167E-03
            1608     12.4075E-03     43.9864E-03    -3.53463E+06    -36.1471E+06     1.07170E+06     799.266E+03    -16.4756E-03     31.9406E-03    -15.4650E-03     55.8526E-03    -16.4710E-03     31.7921E-03    -15.4021E-03     55.8343E-03
            1609     11.5213E-03     43.9385E-03    -4.05141E+06    -42.3854E+06    -1.16634E+06     35.7041E+03    -16.2820E-03     31.7266E-03    -15.4446E-03     48.9203E-03    -16.2558E-03     31.5389E-03    -15.3831E-03     48.8994E-03
            1610     10.6354E-03     43.8950E-03    -3.77569E+06    -53.8559E+06    -2.10251E+06     18.1895E+03    -16.2112E-03     31.6456E-03    -15.4344E-03     44.4263E-03    -16.1595E-03     31.3954E-03    -15.3613E-03     44.4103E-03
            1611     9.74928E-03     43.8555E-03    -3.88017E+06    -56.3222E+06     2.08472E+06     199.406E+03    -16.0550E-03     31.4907E-03    -15.4357E-03     40.0567E-03    -16.0025E-03     31.2184E-03    -15.3380E-03     40.0473E-03
            1612     8.86323E-03     43.8200E-03    -4.40669E+06    -56.3756E+06     2.66158E+06     123.230E+03    -15.9131E-03     31.3305E-03    -15.4173E-03     35.7577E-03    -15.8616E-03     31.0554E-03    -15.3159E-03     35.7504E-03
            1613     7.97702E-03     43.7886E-03    -5.12753E+06    -61.5287E+06     3.18366E+06     179.362E+03    -15.8056E-03     31.2122E-03    -15.4067E-03     31.4725E-03    -15.7494E-03     30.9102E-03    -15.2941E-03     31.4680E-03
            1614     7.09090E-03     43.7610E-03    -6.14995E+06    -60.3626E+06     2.19449E+06     149.627E+03    -15.6824E-03     31.0626E-03    -15.3802E-03     27.3396E-03    -15.6306E-03     30.7683E-03    -15.2728E-03     27.3363E-03
            1615     6.20461E-03     43.7373E-03    -7.27146E+06    -55.4390E+06     224.095E+03     147.998E+03    -15.5600E-03     30.9059E-03    -15.3459E-03     23.4145E-03    -15.5175E-03     30.6401E-03    -15.2539E-03     23.4124E-03
            1616     5.31836E-03     43.7171E-03    -8.45572E+06    -58.1798E+06    -1.03350E+06     130.010E+03    -15.4735E-03     30.8024E-03    -15.3289E-03     19.6249E-03    -15.4307E-03     30.5260E-03    -15.2374E-03     19.6234E-03
            1617     4.43200E-03     43.7004E-03    -9.81108E+06     -59.414E+06    -2.85554E+06     82.7176E+03    -15.3988E-03     30.7078E-03    -15.3089E-03     16.0268E-03    -15.3581E-03     30.4296E-03    -15.2228E-03     16.0254E-03
            1618     3.54567E-03     43.6869E-03    -11.1509E+06    -57.4272E+06    -5.94951E+06     71.7183E+03    -15.3312E-03     30.6115E-03    -15.2803E-03     12.6292E-03    -15.2954E-03     30.3495E-03    -15.2106E-03     12.6283E-03
            1619     2.65925E-03     43.6766E-03    -12.4069E+06    -60.0352E+06    -8.91345E+06     16.1830E+03    -15.2839E-03     30.5462E-03    -15.2622E-03     9.36477E-03    -15.2462E-03     30.2771E-03    -15.2017E-03     9.36362E-03
            1620     1.77287E-03     43.6693E-03    -13.4485E+06    -62.2375E+06    -11.6706E+06     5.34687E+03    -15.2511E-03     30.4999E-03    -15.2488E-03     6.24204E-03    -15.2112E-03     30.2252E-03    -15.1974E-03     6.24122E-03
            1621     886.390E-06     43.6648E-03    -14.1576E+06    -63.7092E+06    -13.6867E+06    -6.10955E+03    -15.2302E-03     30.4825E-03    -15.2524E-03     3.36869E-03    -15.1887E-03     30.2045E-03    -15.2079E-03     3.36814E-03
            1622     16.8366E-03     43.4803E-03    -3.34901E+06     148.153E+06     37.8780E+06     208.662E+03    -24.4242E-03     39.8786E-03    -15.4544E-03     224.105E-03    -29.6120E-03     45.4706E-03    -15.4749E-03     228.032E-03
            1623     15.9518E-03     43.2940E-03    -4.31895E+06     83.0998E+06    -11.6757E+06     244.672E+03    -20.9949E-03     36.2793E-03    -15.2844E-03     157.617E-03    -22.6706E-03     38.2685E-03    -15.4570E-03     158.118E-03
            1624     15.0665E-03     43.1833E-03    -4.11908E+06     22.1296E+06    -9.44205E+06    -141.853E+03    -17.8125E-03     33.1814E-03    -15.3688E-03     94.8184E-03    -18.1052E-03     33.5654E-03    -15.4422E-03     94.7932E-03
            1625     14.1790E-03     43.1181E-03    -3.85917E+06    -17.8888E+06    -9.60244E+06     84.1691E+03    -16.7240E-03     32.1351E-03    -15.4111E-03     63.5774E-03    -16.7807E-03     32.1424E-03    -15.4276E-03     63.5365E-03
            1626     13.2937E-03     43.0645E-03    -3.54235E+06    -35.6124E+06    -7.56165E+06     736.335E+03    -16.6421E-03     32.0679E-03    -15.4258E-03     58.9440E-03    -16.6428E-03     31.9515E-03    -15.4068E-03     58.9167E-03
            1627     12.4076E-03     43.0082E-03    -2.86151E+06    -35.1207E+06     1.79663E+06     700.685E+03    -16.5184E-03     31.9665E-03    -15.4481E-03     55.7459E-03    -16.5130E-03     31.8210E-03    -15.3840E-03     55.7263E-03
            1628     11.5217E-03     42.9605E-03    -2.71606E+06    -41.7395E+06    -422.671E+03     38.8851E+03    -16.3267E-03     31.7493E-03    -15.4226E-03     48.8516E-03    -16.2958E-03     31.5618E-03    -15.3603E-03     48.8307E-03
            1629     10.6356E-03     42.9169E-03    -3.17557E+06    -54.3955E+06    -2.08115E+06    -27.8336E+03    -16.2194E-03     31.6271E-03    -15.4077E-03     44.3167E-03    -16.1639E-03     31.3732E-03    -15.3346E-03     44.3002E-03
            1630     9.74965E-03     42.8776E-03    -3.62704E+06    -56.1626E+06     2.19568E+06     198.367E+03    -16.0593E-03     31.4652E-03    -15.4059E-03     39.9262E-03    -16.0058E-03     31.1931E-03    -15.3082E-03     39.9168E-03
            1631     8.86345E-03     42.8422E-03    -4.33182E+06    -56.3551E+06     2.55897E+06     133.927E+03    -15.9163E-03     31.2997E-03    -15.3834E-03     35.6452E-03    -15.8642E-03     31.0247E-03    -15.2826E-03     35.6380E-03
            1632     7.97738E-03     42.8108E-03    -5.20032E+06    -61.5799E+06     3.02355E+06     145.015E+03    -15.7967E-03     31.1659E-03    -15.3692E-03     31.3406E-03    -15.7406E-03     30.8640E-03    -15.2573E-03     31.3357E-03
            1633     7.09113E-03     42.7834E-03    -6.16795E+06    -60.3059E+06     2.11596E+06     219.916E+03    -15.6637E-03     31.0036E-03    -15.3398E-03     27.2139E-03    -15.6120E-03     30.7097E-03    -15.2328E-03     27.2116E-03
            1634     6.20490E-03     42.7596E-03    -7.24892E+06    -55.3964E+06     164.909E+03     187.518E+03    -15.5362E-03     30.8389E-03    -15.3027E-03     23.2921E-03    -15.4936E-03     30.5734E-03    -15.2110E-03     23.2905E-03
            1635     5.31856E-03     42.7396E-03    -8.43570E+06    -58.0975E+06    -978.219E+03     161.412E+03    -15.4421E-03     30.7255E-03    -15.2834E-03     19.5093E-03    -15.3994E-03     30.4495E-03    -15.1918E-03     19.5082E-03
            1636     4.43224E-03     42.7229E-03    -9.77862E+06    -59.3611E+06    -2.80327E+06     127.493E+03    -15.3602E-03     30.6214E-03    -15.2612E-03     15.9309E-03    -15.3194E-03     30.3433E-03    -15.1750E-03     15.9301E-03
            1637     3.54582E-03     42.7095E-03    -11.1882E+06    -57.3727E+06    -5.94847E+06     80.3131E+03    -15.2864E-03     30.5172E-03    -15.2307E-03     12.5435E-03    -15.2509E-03     30.2555E-03    -15.1611E-03     12.5427E-03
            1638     2.65942E-03     42.6993E-03    -12.4384E+06    -59.9545E+06    -8.89919E+06     44.5788E+03    -15.2422E-03     30.4523E-03    -15.2101E-03     9.29619E-03    -15.2047E-03     30.1836E-03    -15.1496E-03     9.29542E-03
            1639     1.77294E-03     42.6920E-03    -13.4897E+06    -62.2297E+06    -11.7315E+06     12.9424E+03    -15.2087E-03     30.3994E-03    -15.1907E-03     6.20020E-03    -15.1690E-03     30.1249E-03    -15.1395E-03     6.19949E-03
            1640     886.522E-06     42.6876E-03    -14.1224E+06    -63.6987E+06    -13.7745E+06     14.8089E+03    -15.1789E-03     30.3587E-03    -15.1798E-03     3.34883E-03    -15.1371E-03     30.0807E-03    -15.1358E-03     3.34855E-03
            1641     16.8384E-03     42.4988E-03    -3.55511E+06     147.806E+06     37.6026E+06     183.312E+03    -24.1526E-03     39.5964E-03    -15.4438E-03     224.057E-03    -29.3049E-03     45.1518E-03    -15.4649E-03     227.951E-03
            1642     15.9524E-03     42.3178E-03    -4.69238E+06     83.1131E+06    -12.0088E+06     275.130E+03    -20.9545E-03     36.2386E-03    -15.2841E-03     159.189E-03    -22.6613E-03     38.2587E-03    -15.4578E-03     159.716E-03
            1643     15.0643E-03     42.2042E-03    -3.79106E+06     22.5439E+06    -9.01674E+06     309.189E+03    -18.3333E-03     33.6927E-03    -15.3594E-03     94.3576E-03    -18.6257E-03     34.0779E-03    -15.4317E-03     94.3318E-03
            1644     14.1804E-03     42.1400E-03    -3.74541E+06    -17.9889E+06    -9.55491E+06     352.721E+03    -16.6499E-03     32.0357E-03    -15.3859E-03     62.8791E-03    -16.7044E-03     32.0407E-03    -15.4021E-03     62.8420E-03
            1645     13.2937E-03     42.0864E-03    -3.25509E+06    -35.7152E+06    -8.33574E+06    -234.071E+03    -16.5622E-03     31.9612E-03    -15.3990E-03     58.9036E-03    -16.5598E-03     31.8446E-03    -15.3841E-03     58.8643E-03
            1646     12.4080E-03     42.0300E-03    -2.27003E+06    -35.2161E+06     1.29103E+06    -224.351E+03    -16.5502E-03     31.9723E-03    -15.4221E-03     55.5835E-03    -16.5407E-03     31.8260E-03    -15.3613E-03     55.5520E-03
            1647     11.5219E-03     41.9825E-03    -2.33687E+06    -41.5930E+06    -453.041E+03     504.202E+03    -16.3479E-03     31.7430E-03    -15.3951E-03     48.6823E-03    -16.3151E-03     31.5556E-03    -15.3337E-03     48.6675E-03
            1648     10.6360E-03     41.9389E-03    -2.93521E+06    -54.3002E+06    -2.34061E+06     451.905E+03    -16.2237E-03     31.5996E-03    -15.3759E-03     44.1731E-03    -16.1667E-03     31.3461E-03    -15.3046E-03     44.1629E-03
            1649     9.74986E-03     41.8998E-03    -3.60263E+06    -56.2273E+06     1.99361E+06     274.818E+03    -16.0668E-03     31.4383E-03    -15.3715E-03     39.8037E-03    -16.0128E-03     31.1661E-03    -15.2747E-03     39.7953E-03
            1650     8.86388E-03     41.8643E-03    -4.33126E+06    -56.2005E+06     2.49223E+06     321.800E+03    -15.9236E-03     31.2686E-03    -15.3450E-03     35.4962E-03    -15.8716E-03     30.9945E-03    -15.2448E-03     35.4915E-03
            1651     7.97766E-03     41.8331E-03    -5.30719E+06    -61.5671E+06     2.86875E+06     226.061E+03    -15.7851E-03     31.1116E-03    -15.3265E-03     31.1919E-03    -15.7293E-03     30.8100E-03    -15.2152E-03     31.1881E-03
            1652     7.09150E-03     41.8057E-03    -6.34510E+06    -60.3107E+06     1.98406E+06     195.943E+03    -15.6470E-03     30.9405E-03    -15.2935E-03     27.0692E-03    -15.5960E-03     30.6471E-03    -15.1869E-03     27.0666E-03
            1653     6.20520E-03     41.7821E-03    -7.36253E+06    -55.2929E+06     90.8362E+03     206.383E+03    -15.5080E-03     30.7607E-03    -15.2527E-03     23.1507E-03    -15.4660E-03     30.4960E-03    -15.1614E-03     23.1494E-03
            1654     5.31887E-03     41.7621E-03    -8.49602E+06    -58.0369E+06    -1.06895E+06     153.419E+03    -15.4050E-03     30.6352E-03    -15.2302E-03     19.3808E-03    -15.3626E-03     30.3597E-03    -15.1391E-03     19.3796E-03
            1655     4.43246E-03     41.7456E-03    -9.82045E+06    -59.3105E+06    -2.76252E+06     154.260E+03    -15.3149E-03     30.5209E-03    -15.2061E-03     15.8205E-03    -15.2745E-03     30.2431E-03    -15.1196E-03     15.8201E-03
            1656     3.54604E-03     41.7322E-03    -11.1943E+06    -57.2763E+06    -5.88232E+06     117.815E+03    -15.2339E-03     30.4077E-03    -15.1738E-03     12.4498E-03    -15.1986E-03     30.1464E-03    -15.1039E-03     12.4495E-03
            1657     2.65954E-03     41.7220E-03    -12.4951E+06    -59.9024E+06    -8.90910E+06     54.3669E+03    -15.1855E-03     30.3374E-03    -15.1519E-03     9.22556E-03    -15.1484E-03     30.0691E-03    -15.0915E-03     9.22493E-03
            1658     1.77308E-03     41.7148E-03    -13.5322E+06    -62.1797E+06    -11.7375E+06     37.6107E+03    -15.1527E-03     30.2838E-03    -15.1311E-03     6.14964E-03    -15.1132E-03     30.0096E-03    -15.0800E-03     6.14925E-03
            1659     886.510E-06     41.7104E-03    -14.2060E+06    -63.6857E+06    -13.7728E+06     8.89373E+03    -15.1289E-03     30.2372E-03    -15.1084E-03     3.31988E-03    -15.0876E-03     29.9595E-03    -15.0643E-03     3.31952E-03
            1660     16.8382E-03     41.5282E-03    -3.20612E+06     148.219E+06     38.4009E+06    -201.623E+03    -24.5118E-03     39.9771E-03    -15.4653E-03     223.864E-03    -29.6413E-03     45.5103E-03    -15.4836E-03     227.749E-03
            1661     15.9480E-03     41.3350E-03    -4.55076E+06     83.1428E+06    -11.7036E+06    -261.497E+03    -21.6730E-03     36.9460E-03    -15.2731E-03     158.003E-03    -23.3810E-03     38.9670E-03    -15.4455E-03     158.470E-03
            1662     15.0684E-03     41.2255E-03    -3.58571E+06     21.1088E+06    -9.88905E+06     767.297E+03    -17.9459E-03     33.2772E-03    -15.3313E-03     92.9251E-03    -18.2214E-03     33.6435E-03    -15.4062E-03     92.9059E-03
            1663     14.1801E-03     41.1628E-03    -2.19469E+06    -17.4305E+06    -9.55144E+06     565.429E+03    -16.6321E-03     31.9986E-03    -15.3665E-03     63.6934E-03    -16.6804E-03     32.0050E-03    -15.3858E-03     63.6591E-03
            1664     13.2943E-03     41.1080E-03    -2.21808E+06    -34.4289E+06    -8.21756E+06    -314.133E+03    -16.7165E-03     32.0920E-03    -15.3755E-03     59.1578E-03    -16.7111E-03     31.9804E-03    -15.3635E-03     59.1170E-03
            1665     12.4083E-03     41.0521E-03    -3.06146E+06    -36.3442E+06     261.885E+03    -123.113E+03    -16.5409E-03     31.9338E-03    -15.3929E-03     55.5214E-03    -16.5320E-03     31.7843E-03    -15.3345E-03     55.4915E-03
            1666     11.5224E-03     41.0042E-03    -3.71121E+06    -41.9921E+06    -1.31504E+06     596.255E+03    -16.3526E-03     31.7168E-03    -15.3642E-03     48.6027E-03    -16.3248E-03     31.5306E-03    -15.3045E-03     48.5892E-03
            1667     10.6363E-03     40.9611E-03    -3.67290E+06    -53.7984E+06    -2.61516E+06     627.011E+03    -16.2454E-03     31.5869E-03    -15.3415E-03     44.0338E-03    -16.1923E-03     31.3374E-03    -15.2713E-03     44.0259E-03
            1668     9.75034E-03     40.9217E-03    -3.88265E+06    -56.2175E+06     1.80870E+06     376.930E+03    -16.0845E-03     31.4168E-03    -15.3323E-03     39.6552E-03    -16.0316E-03     31.1453E-03    -15.2361E-03     39.6482E-03
            1669     8.86418E-03     40.8866E-03    -4.48089E+06    -56.1507E+06     2.44819E+06     343.621E+03    -15.9225E-03     31.2237E-03    -15.3012E-03     35.3097E-03    -15.8712E-03     30.9501E-03    -15.2011E-03     35.3054E-03
            1670     7.97809E-03     40.8554E-03    -5.23279E+06    -61.4173E+06     3.00209E+06     341.525E+03    -15.7776E-03     31.0560E-03    -15.2784E-03     31.0116E-03    -15.7218E-03     30.7549E-03    -15.1667E-03     31.0094E-03
            1671     7.09185E-03     40.8282E-03    -6.30614E+06    -60.2272E+06     2.00297E+06     250.337E+03    -15.6227E-03     30.8633E-03    -15.2406E-03     26.9021E-03    -15.5716E-03     30.5702E-03    -15.1341E-03     26.9002E-03
            1672     6.20556E-03     40.8046E-03    -7.42683E+06    -55.2472E+06     75.4689E+03     184.370E+03    -15.4737E-03     30.6698E-03    -15.1961E-03     23.0005E-03    -15.4320E-03     30.4054E-03    -15.1049E-03     22.9990E-03
            1673     5.31918E-03     40.7848E-03    -8.60191E+06    -57.9517E+06    -1.10965E+06     178.004E+03    -15.3634E-03     30.5335E-03    -15.1701E-03     19.2448E-03    -15.3215E-03     30.2586E-03    -15.0791E-03     19.2440E-03
            1674     4.43276E-03     40.7683E-03    -9.93392E+06    -59.2656E+06    -2.85316E+06     120.169E+03    -15.2636E-03     30.4064E-03    -15.1428E-03     15.6984E-03    -15.2237E-03     30.1291E-03    -15.0567E-03     15.6975E-03
            1675     3.54626E-03     40.7550E-03    -11.2734E+06    -57.1972E+06    -5.89347E+06     109.401E+03    -15.1726E-03     30.2814E-03    -15.1089E-03     12.3499E-03    -15.1377E-03     30.0206E-03    -15.0391E-03     12.3495E-03
            1676     2.65975E-03     40.7449E-03    -12.5473E+06    -59.8282E+06    -8.92721E+06     90.2805E+03    -15.1200E-03     30.2062E-03    -15.0862E-03     9.14815E-03    -15.0832E-03     29.9383E-03    -15.0259E-03     9.14800E-03
            1677     1.77315E-03     40.7377E-03    -13.6440E+06    -62.1091E+06    -11.7701E+06     29.1655E+03    -15.0881E-03     30.1527E-03    -15.0646E-03     6.08527E-03    -15.0492E-03     29.8791E-03    -15.0136E-03     6.08479E-03
            1678     886.628E-06     40.7333E-03    -14.3161E+06    -63.6913E+06    -13.8897E+06     15.4092E+03    -15.0650E-03     30.1023E-03    -15.0374E-03     3.23519E-03    -15.0240E-03     29.8249E-03    -14.9937E-03     3.23494E-03
            1679     16.8332E-03     40.5417E-03    -2.61890E+06     148.479E+06     38.7833E+06    -841.358E+03    -25.2859E-03     40.7401E-03    -15.4543E-03     224.039E-03    -30.4857E-03     46.3455E-03    -15.4718E-03     227.915E-03
            1680     15.9587E-03     40.3578E-03    -2.48624E+06     82.7500E+06    -11.0093E+06     331.895E+03    -21.4089E-03     36.6544E-03    -15.2456E-03     156.491E-03    -23.0582E-03     38.6207E-03    -15.4170E-03     156.944E-03
            1681     15.0641E-03     40.2494E-03    -2.56022E+06     20.6109E+06    -9.77455E+06     1.08487E+06    -17.3097E-03     32.6362E-03    -15.3265E-03     94.6911E-03    -17.5790E-03     32.9978E-03    -15.4016E-03     94.6843E-03
            1682     14.1795E-03     40.1831E-03    -2.71964E+06    -17.4149E+06    -9.84562E+06     290.357E+03    -17.1040E-03     32.4718E-03    -15.3678E-03     63.6381E-03    -17.1563E-03     32.4812E-03    -15.3879E-03     63.5984E-03
            1683     13.2945E-03     40.1302E-03    -2.66292E+06    -34.2984E+06    -7.58524E+06     821.916E+03    -16.8471E-03     32.2080E-03    -15.3609E-03     58.6532E-03    -16.8447E-03     32.0963E-03    -15.3452E-03     58.6268E-03
            1684     12.4086E-03     40.0738E-03    -3.86256E+06    -36.2259E+06     505.643E+03     839.411E+03    -16.5573E-03     31.9270E-03    -15.3697E-03     55.5295E-03    -16.5529E-03     31.7788E-03    -15.3090E-03     55.5120E-03
            1685     11.5226E-03     40.0264E-03    -4.31239E+06    -42.1683E+06    -1.48864E+06     181.016E+03    -16.4078E-03     31.7417E-03    -15.3339E-03     48.4893E-03    -16.3824E-03     31.5556E-03    -15.2740E-03     48.4704E-03
            1686     10.6367E-03     39.9830E-03    -3.95533E+06    -53.7044E+06    -2.45564E+06     228.775E+03    -16.2943E-03     31.5990E-03    -15.3047E-03     43.8527E-03    -16.2429E-03     31.3500E-03    -15.2334E-03     43.8397E-03
            1687     9.75072E-03     39.9440E-03    -3.98754E+06    -56.0794E+06     1.81836E+06     350.239E+03    -16.1043E-03     31.3917E-03    -15.2874E-03     39.4576E-03    -16.0521E-03     31.1210E-03    -15.1912E-03     39.4503E-03
            1688     8.86469E-03     39.9088E-03    -4.53994E+06    -56.1106E+06     2.44443E+06     285.932E+03    -15.9194E-03     31.1700E-03    -15.2506E-03     35.1136E-03    -15.8684E-03     30.8966E-03    -15.1504E-03     35.1085E-03
            1689     7.97851E-03     39.8778E-03    -5.31290E+06    -61.3738E+06     3.00117E+06     291.576E+03    -15.7617E-03     30.9845E-03    -15.2228E-03     30.8153E-03    -15.7064E-03     30.6837E-03    -15.1111E-03     30.8124E-03
            1690     7.09229E-03     39.8507E-03    -6.20081E+06    -60.1072E+06     2.12997E+06     302.680E+03    -15.5946E-03     30.7753E-03    -15.1807E-03     26.7133E-03    -15.5433E-03     30.4824E-03    -15.0739E-03     26.7122E-03
            1691     6.20595E-03     39.8273E-03    -7.28233E+06    -55.1615E+06     138.330E+03     250.397E+03    -15.4329E-03     30.5649E-03    -15.1320E-03     22.8241E-03    -15.3907E-03     30.3006E-03    -15.0407E-03     22.8234E-03
            1692     5.31954E-03     39.8075E-03    -8.50592E+06    -57.8926E+06    -1.00183E+06     201.537E+03    -15.3150E-03     30.4177E-03    -15.1028E-03     19.0880E-03    -15.2728E-03     30.1428E-03    -15.0115E-03     19.0875E-03
            1693     4.43307E-03     39.7911E-03    -9.90026E+06    -59.1511E+06    -2.85523E+06     178.712E+03    -15.2068E-03     30.2784E-03    -15.0717E-03     15.5561E-03    -15.1668E-03     30.0016E-03    -14.9858E-03     15.5561E-03
            1694     3.54652E-03     39.7780E-03    -11.3722E+06    -57.1502E+06    -5.99244E+06     101.228E+03    -15.1061E-03     30.1411E-03    -15.0351E-03     12.2335E-03    -15.0717E-03     29.8809E-03    -14.9657E-03     12.2330E-03
            1695     2.65991E-03     39.7679E-03    -12.6294E+06    -59.7324E+06    -8.93153E+06     55.9511E+03    -15.0471E-03     30.0583E-03    -15.0112E-03     9.06192E-03    -15.0108E-03     29.7911E-03    -14.9510E-03     9.06134E-03
            1696     1.77333E-03     39.7607E-03    -13.6375E+06    -62.0818E+06    -11.8719E+06     46.7583E+03    -15.0084E-03     29.9984E-03    -14.9901E-03     6.02870E-03    -14.9694E-03     29.7251E-03    -14.9396E-03     6.02844E-03
            1697     886.652E-06     39.7564E-03    -14.3539E+06    -63.6368E+06    -13.9429E+06     47.4757E+03    -14.9842E-03     29.9566E-03    -14.9725E-03     3.20311E-03    -14.9434E-03     29.6796E-03    -14.9291E-03     3.20327E-03
            1698     16.8421E-03     39.5560E-03    -3.20039E+06     147.452E+06     36.7397E+06    -401.986E+03    -24.4014E-03     39.8170E-03    -15.4156E-03     225.621E-03    -29.6681E-03     45.4895E-03    -15.4410E-03     229.508E-03
            1699     15.9470E-03     39.3836E-03    -4.45246E+06     83.0335E+06    -11.8872E+06     159.980E+03    -20.4283E-03     35.6943E-03    -15.2660E-03     156.044E-03    -22.0611E-03     37.6407E-03    -15.4394E-03     156.550E-03
            1700     15.0664E-03     39.2693E-03    -5.23651E+06     22.1359E+06    -10.0862E+06     215.504E+03    -18.4894E-03     33.8300E-03    -15.3406E-03     94.8949E-03    -18.7870E-03     34.2167E-03    -15.4155E-03     94.8690E-03
            1701     14.1811E-03     39.2048E-03    -5.05194E+06    -18.0427E+06    -10.6737E+06     33.5452E+03    -17.1439E-03     32.4885E-03    -15.3446E-03     62.7321E-03    -17.2046E-03     32.4982E-03    -15.3645E-03     62.6890E-03
            1702     13.2948E-03     39.1518E-03    -4.19075E+06    -35.3119E+06    -8.20327E+06     916.907E+03    -16.7622E-03     32.0986E-03    -15.3364E-03     58.3279E-03    -16.7647E-03     31.9846E-03    -15.3201E-03     58.3031E-03
            1703     12.4089E-03     39.0959E-03    -3.11008E+06    -35.2124E+06     1.31891E+06     777.391E+03    -16.6653E-03     32.0079E-03    -15.3426E-03     55.4077E-03    -16.6598E-03     31.8626E-03    -15.2805E-03     55.3892E-03
            1704     11.5231E-03     39.0481E-03    -2.93891E+06    -41.6746E+06    -730.346E+03     128.015E+03    -16.4806E-03     31.7778E-03    -15.2972E-03     48.2320E-03    -16.4502E-03     31.5911E-03    -15.2362E-03     48.2123E-03
            1705     10.6372E-03     39.0052E-03    -3.30405E+06    -54.1266E+06    -2.40850E+06     70.4261E+03    -16.3210E-03     31.5805E-03    -15.2594E-03     43.6182E-03    -16.2658E-03     31.3283E-03    -15.1882E-03     43.6031E-03
            1706     9.75125E-03     38.9661E-03    -3.71481E+06    -56.0184E+06     1.83891E+06     350.707E+03    -16.1146E-03     31.3504E-03    -15.2358E-03     39.2380E-03    -16.0610E-03     31.0795E-03    -15.1400E-03     39.2308E-03
            1707     8.86518E-03     38.9312E-03    -4.42548E+06    -56.0071E+06     2.45845E+06     368.165E+03    -15.9154E-03     31.1089E-03    -15.1934E-03     34.9092E-03    -15.8640E-03     30.8358E-03    -15.0935E-03     34.9052E-03
            1708     7.97901E-03     38.9002E-03    -5.32493E+06    -61.3034E+06     3.00496E+06     270.409E+03    -15.7451E-03     30.9054E-03    -15.1602E-03     30.6077E-03    -15.6899E-03     30.6049E-03    -15.0486E-03     30.6046E-03
            1709     7.09277E-03     38.8733E-03    -6.35077E+06    -60.1108E+06     2.08517E+06     266.467E+03    -15.5662E-03     30.6790E-03    -15.1128E-03     26.5034E-03    -15.5155E-03     30.3863E-03    -15.0060E-03     26.5018E-03
            1710     6.20640E-03     38.8501E-03    -7.40049E+06    -55.0555E+06     91.8383E+03     297.053E+03    -15.3909E-03     30.4497E-03    -15.0588E-03     22.6281E-03    -15.3494E-03     30.1862E-03    -14.9677E-03     22.6281E-03
            1711     5.31995E-03     38.8304E-03    -8.57378E+06    -57.8061E+06    -1.12498E+06     252.083E+03    -15.2575E-03     30.2824E-03    -15.0249E-03     18.9049E-03    -15.2157E-03     30.0082E-03    -14.9343E-03     18.9052E-03
            1712     4.43342E-03     38.8141E-03    -9.92525E+06    -59.0600E+06    -2.78227E+06     212.176E+03    -15.1408E-03     30.1320E-03    -14.9912E-03     15.3904E-03    -15.1013E-03     29.8556E-03    -14.9051E-03     15.3908E-03
            1713     3.54683E-03     38.8011E-03    -11.2758E+06    -56.9795E+06    -5.91151E+06     133.473E+03    -15.0346E-03     29.9857E-03    -14.9511E-03     12.0940E-03    -15.0001E-03     29.7260E-03    -14.8816E-03     12.0940E-03
            1714     2.66018E-03     38.7910E-03    -12.5802E+06    -59.6953E+06    -9.03323E+06     42.6974E+03    -14.9631E-03     29.8877E-03    -14.9245E-03     8.96038E-03    -14.9265E-03     29.6207E-03    -14.8649E-03     8.95965E-03
            1715     1.77343E-03     38.7839E-03    -13.6832E+06    -62.0868E+06    -11.8885E+06     55.2133E+03    -14.9162E-03     29.8216E-03    -14.9054E-03     5.94799E-03    -14.8774E-03     29.5483E-03    -14.8550E-03     5.94786E-03
            1716     886.722E-06     38.7797E-03    -14.2556E+06    -63.5102E+06    -13.8815E+06     27.9142E+03    -14.8795E-03     29.7908E-03    -14.9113E-03     3.16051E-03    -14.8386E-03     29.5142E-03    -14.8679E-03     3.16042E-03
            1717     16.8362E-03     38.5884E-03    -3.88425E+06     147.395E+06     35.9954E+06     964.502E+03    -24.2030E-03     39.6219E-03    -15.4189E-03     224.193E-03    -29.3850E-03     45.2091E-03    -15.4470E-03     228.086E-03
            1718     15.9531E-03     38.4009E-03    -5.82007E+06     83.1139E+06    -11.5628E+06     335.771E+03    -20.8985E-03     36.1631E-03    -15.2646E-03     155.975E-03    -22.5455E-03     38.1180E-03    -15.4345E-03     156.472E-03
            1719     15.0666E-03     38.2909E-03    -5.82383E+06     22.2220E+06    -10.7283E+06    -441.165E+03    -18.5569E-03     33.8731E-03    -15.3162E-03     93.7776E-03    -18.8559E-03     34.2614E-03    -15.3936E-03     93.7418E-03
            1720     14.1804E-03     38.2262E-03    -5.16251E+06    -17.9112E+06    -10.6210E+06     89.7693E+03    -16.9982E-03     32.3204E-03    -15.3222E-03     62.9951E-03    -17.0590E-03     32.3301E-03    -15.3418E-03     62.9535E-03
            1721     13.2951E-03     38.1740E-03    -3.82538E+06    -35.3273E+06    -8.65979E+06    -294.812E+03    -16.9412E-03     32.2495E-03    -15.3083E-03     58.3079E-03    -16.9415E-03     32.1359E-03    -15.2948E-03     58.2668E-03
            1722     12.4094E-03     38.1172E-03    -2.72517E+06    -35.3521E+06     797.033E+03    -234.389E+03    -16.7892E-03     32.0910E-03    -15.3018E-03     55.1964E-03    -16.7808E-03     31.9451E-03    -15.2426E-03     55.1646E-03
            1723     11.5236E-03     38.0702E-03    -2.69765E+06    -41.4986E+06    -676.462E+03     468.025E+03    -16.5012E-03     31.7515E-03    -15.2503E-03     47.9646E-03    -16.4697E-03     31.5650E-03    -15.1896E-03     47.9494E-03
            1724     10.6378E-03     38.0271E-03    -3.18474E+06    -54.1480E+06    -2.52830E+06     423.650E+03    -16.3252E-03     31.5320E-03    -15.2068E-03     43.3922E-03    -16.2691E-03     31.2796E-03    -15.1363E-03     43.3818E-03
            1725     9.75181E-03     37.9884E-03    -3.67672E+06    -56.2330E+06     1.54754E+06     404.479E+03    -16.1142E-03     31.2917E-03    -15.1775E-03     39.0039E-03    -16.0597E-03     31.0200E-03    -15.0829E-03     38.9974E-03
            1726     8.86571E-03     37.9535E-03    -4.34638E+06    -55.8571E+06     2.24742E+06     556.014E+03    -15.9147E-03     31.0435E-03    -15.1288E-03     34.6716E-03    -15.8627E-03     30.7713E-03    -15.0303E-03     34.6702E-03
            1727     7.97959E-03     37.9229E-03    -5.34158E+06    -61.0632E+06     3.01214E+06     414.524E+03    -15.7312E-03     30.8213E-03    -15.0901E-03     30.3580E-03    -15.6763E-03     30.5219E-03    -14.9787E-03     30.3568E-03
            1728     7.09329E-03     37.8960E-03    -6.43559E+06    -60.1001E+06     2.14664E+06     254.160E+03    -15.5371E-03     30.5739E-03    -15.0368E-03     26.2636E-03    -15.4870E-03     30.2813E-03    -14.9295E-03     26.2620E-03
            1729     6.20693E-03     37.8729E-03    -7.49159E+06    -55.0280E+06     204.952E+03     260.765E+03    -15.3478E-03     30.3246E-03    -14.9767E-03     22.4000E-03    -15.3069E-03     30.0611E-03    -14.8850E-03     22.3995E-03
            1730     5.32042E-03     37.8534E-03    -8.63116E+06    -57.6704E+06    -1.01583E+06     257.686E+03    -15.1964E-03     30.1335E-03    -14.9370E-03     18.6947E-03    -15.1552E-03     29.8598E-03    -14.8460E-03     18.6951E-03
            1731     4.43384E-03     37.8372E-03    -9.92868E+06    -58.9869E+06    -2.85149E+06     184.227E+03    -15.0629E-03     29.9613E-03    -14.8984E-03     15.2110E-03    -15.0233E-03     29.6854E-03    -14.8127E-03     15.2111E-03
            1732     3.54716E-03     37.8243E-03    -11.3474E+06    -56.8680E+06    -6.08806E+06     189.247E+03    -14.9488E-03     29.8036E-03    -14.8548E-03     11.9485E-03    -14.9145E-03     29.5448E-03    -14.7864E-03     11.9492E-03
            1733     2.66041E-03     37.8144E-03    -12.6905E+06    -59.5374E+06    -9.08255E+06     123.634E+03    -14.8730E-03     29.6991E-03    -14.8261E-03     8.84370E-03    -14.8371E-03     29.4331E-03    -14.7667E-03     8.84403E-03
            1734     1.77365E-03     37.8073E-03    -13.7332E+06    -62.0368E+06    -11.7944E+06    -44.8439E+03    -14.8225E-03     29.6264E-03    -14.8039E-03     5.87184E-03    -14.7842E-03     29.3533E-03    -14.7530E-03     5.87043E-03
            1735     886.835E-06     37.8031E-03    -14.3515E+06    -63.5568E+06    -13.8420E+06    -59.1840E+03    -14.7918E-03     29.5823E-03    -14.7905E-03     3.09821E-03    -14.7513E-03     29.3055E-03    -14.7468E-03     3.09702E-03
            1736     16.8384E-03     37.6060E-03    -2.59896E+06     147.252E+06     36.7476E+06     1.19144E+06    -24.9729E-03     40.3981E-03    -15.4252E-03     222.395E-03    -30.0774E-03     45.9096E-03    -15.4512E-03     226.246E-03
            1737     15.9523E-03     37.4235E-03    -2.85038E+06     82.8252E+06    -11.6029E+06     1.30485E+06    -21.4239E-03     36.6504E-03    -15.2265E-03     156.861E-03    -23.0710E-03     38.6150E-03    -15.4004E-03     157.351E-03
            1738     15.0663E-03     37.3122E-03    -2.39020E+06     22.0985E+06    -9.11787E+06     486.039E+03    -18.0495E-03     33.3364E-03    -15.2869E-03     93.7383E-03    -18.3286E-03     33.7119E-03    -15.3611E-03     93.7176E-03
            1739     14.1810E-03     37.2481E-03    -2.48319E+06    -17.0347E+06    -9.47034E+06     89.9931E+03    -17.1227E-03     32.4228E-03    -15.3001E-03     62.4419E-03    -17.1726E-03     32.4309E-03    -15.3192E-03     62.3999E-03
            1740     13.2955E-03     37.1950E-03    -2.59263E+06    -34.4893E+06    -7.88752E+06    -659.744E+03    -17.0975E-03     32.3726E-03    -15.2751E-03     57.8922E-03    -17.0939E-03     32.2602E-03    -15.2607E-03     57.8460E-03
            1741     12.4101E-03     37.1393E-03    -3.25762E+06    -36.6168E+06     201.388E+03    -293.004E+03    -16.8461E-03     32.1028E-03    -15.2567E-03     54.8947E-03    -16.8374E-03     31.9520E-03    -15.1979E-03     54.8621E-03
            1742     11.5242E-03     37.0920E-03    -3.72374E+06    -41.9026E+06    -1.39858E+06     458.190E+03    -16.5148E-03     31.7121E-03    -15.1973E-03     47.7457E-03    -16.4866E-03     31.5260E-03    -15.1381E-03     47.7305E-03
            1743     10.6384E-03     37.0494E-03    -3.65887E+06    -53.6856E+06    -2.75271E+06     559.678E+03    -16.3410E-03     31.4890E-03    -15.1480E-03     43.1376E-03    -16.2874E-03     31.2399E-03    -15.0786E-03     43.1291E-03
            1744     9.75239E-03     37.0106E-03    -3.90441E+06    -56.4539E+06     1.26230E+06     438.174E+03    -16.1243E-03     31.2363E-03    -15.1120E-03     38.7363E-03    -16.0701E-03     30.9641E-03    -15.0181E-03     38.7304E-03
            1745     8.86639E-03     36.9761E-03    -4.44365E+06    -55.8898E+06     1.83262E+06     616.521E+03    -15.9099E-03     30.9649E-03    -15.0549E-03     34.3848E-03    -15.8578E-03     30.6932E-03    -14.9583E-03     34.3843E-03
            1746     7.98018E-03     36.9454E-03    -5.24085E+06    -60.7069E+06     3.03876E+06     606.524E+03    -15.7130E-03     30.7233E-03    -15.0103E-03     30.0758E-03    -15.6582E-03     30.4256E-03    -14.8995E-03     30.0772E-03
            1747     7.09394E-03     36.9189E-03    -6.35019E+06    -59.8138E+06     2.56028E+06     270.530E+03    -15.5078E-03     30.4593E-03    -14.9516E-03     25.9837E-03    -15.4582E-03     30.1674E-03    -14.8428E-03     25.9823E-03
            1748     6.20749E-03     36.8959E-03    -7.38735E+06    -55.1038E+06     486.644E+03     124.498E+03    -15.2967E-03     30.1810E-03    -14.8843E-03     22.1370E-03    -15.2556E-03     29.9166E-03    -14.7912E-03     22.1348E-03
            1749     5.32097E-03     36.8765E-03    -8.48678E+06    -57.6477E+06    -981.692E+03     265.768E+03    -15.1268E-03     29.9640E-03    -14.8372E-03     18.4604E-03    -15.0849E-03     29.6902E-03    -14.7463E-03     18.4609E-03
            1750     4.43430E-03     36.8606E-03    -10.0147E+06    -58.9061E+06    -3.00156E+06     354.808E+03    -14.9777E-03     29.7709E-03    -14.7932E-03     15.0070E-03    -14.9385E-03     29.4957E-03    -14.7083E-03     15.0093E-03
            1751     3.54754E-03     36.8477E-03    -11.5466E+06    -56.6746E+06    -6.07339E+06     227.850E+03    -14.8513E-03     29.5980E-03    -14.7467E-03     11.7819E-03    -14.8183E-03     29.3404E-03    -14.6781E-03     11.7831E-03
            1752     2.66072E-03     36.8379E-03    -12.6997E+06    -59.2847E+06    -8.89327E+06    -32.6104E+03    -14.7697E-03     29.4849E-03    -14.7152E-03     8.70989E-03    -14.7345E-03     29.2199E-03    -14.6552E-03     8.70823E-03
            1753     1.77383E-03     36.8309E-03    -13.6066E+06    -62.0607E+06    -11.7403E+06    -141.211E+03    -14.7125E-03     29.4025E-03    -14.6900E-03     5.79845E-03    -14.6736E-03     29.1290E-03    -14.6390E-03     5.79581E-03
            1754     886.928E-06     36.8267E-03    -14.2411E+06    -63.7186E+06    -13.8674E+06    -92.4822E+03    -14.6900E-03     29.3532E-03    -14.6632E-03     3.08137E-03    -14.6487E-03     29.0755E-03    -14.6195E-03     3.07975E-03
            1755     16.8377E-03     36.6271E-03    -3.56473E+06     146.461E+06     37.4318E+06     69.4475E+03    -25.0674E-03     40.4898E-03    -15.4225E-03     222.235E-03    -30.1647E-03     45.9859E-03    -15.4425E-03     226.041E-03
            1756     15.9528E-03     36.4444E-03    -3.46987E+06     82.7006E+06    -12.2807E+06     313.676E+03    -21.5112E-03     36.7192E-03    -15.2080E-03     156.063E-03    -23.1524E-03     38.6773E-03    -15.3843E-03     156.537E-03
            1757     15.0676E-03     36.3341E-03    -2.05987E+06     22.8031E+06    -8.75331E+06     606.337E+03    -18.4067E-03     33.6610E-03    -15.2543E-03     93.3280E-03    -18.6848E-03     34.0381E-03    -15.3281E-03     93.3060E-03
            1758     14.1816E-03     36.2693E-03    -1.46024E+06    -16.7631E+06    -9.23658E+06     469.602E+03    -17.1188E-03     32.3719E-03    -15.2531E-03     62.2801E-03    -17.1634E-03     32.3787E-03    -15.2729E-03     62.2431E-03
            1759     13.2962E-03     36.2167E-03    -1.98630E+06    -34.4788E+06    -7.40243E+06     751.188E+03    -17.0272E-03     32.2569E-03    -15.2297E-03     57.7248E-03    -17.0207E-03     32.1424E-03    -15.2138E-03     57.6972E-03
            1760     12.4105E-03     36.1609E-03    -3.53581E+06    -36.8944E+06     346.927E+03     786.777E+03    -16.8783E-03     32.0871E-03    -15.2088E-03     54.5277E-03    -16.8706E-03     31.9349E-03    -15.1484E-03     54.5092E-03
            1761     11.5249E-03     36.1141E-03    -4.31709E+06    -41.9028E+06    -1.81809E+06     258.759E+03    -16.5551E-03     31.6942E-03    -15.1392E-03     47.4433E-03    -16.5290E-03     31.5094E-03    -15.0812E-03     47.4256E-03
            1762     10.6390E-03     36.0714E-03     -4.2363E+06    -53.5953E+06    -2.78477E+06     207.547E+03    -16.3721E-03     31.4552E-03    -15.0831E-03     42.8535E-03    -16.3213E-03     31.2072E-03    -15.0132E-03     42.8406E-03
            1763     9.75320E-03     36.0330E-03    -4.15893E+06    -56.4976E+06     1.14192E+06     333.072E+03    -16.1444E-03     31.1817E-03    -15.0373E-03     38.4075E-03    -16.0911E-03     30.9098E-03    -14.9437E-03     38.4003E-03
            1764     8.86707E-03     35.9985E-03    -4.46238E+06    -56.0448E+06     1.44676E+06     432.992E+03    -15.8971E-03     30.8675E-03    -14.9704E-03     34.0637E-03    -15.8442E-03     30.5956E-03    -14.8754E-03     34.0608E-03
            1765     7.98094E-03     35.9682E-03    -5.01086E+06    -60.6293E+06     2.58108E+06     649.487E+03    -15.6882E-03     30.6054E-03    -14.9172E-03     29.7657E-03    -15.6316E-03     30.3083E-03    -14.8091E-03     29.7677E-03
            1766     7.09460E-03     35.9418E-03    -6.12668E+06    -59.1720E+06     2.74626E+06     501.346E+03    -15.4658E-03     30.3191E-03    -14.8532E-03     25.6725E-03    -15.4163E-03     30.0298E-03    -14.7448E-03     25.6742E-03
            1767     6.20819E-03     35.9191E-03    -7.55129E+06    -55.0921E+06     675.775E+03     99.0594E+03    -15.2360E-03     30.0162E-03    -14.7801E-03     21.8417E-03    -15.1960E-03     29.7518E-03    -14.6859E-03     21.8393E-03
            1768     5.32153E-03     35.8999E-03    -8.84724E+06    -57.9371E+06    -1.16005E+06     257.688E+03    -15.0466E-03     29.7722E-03    -14.7256E-03     18.2006E-03    -15.0058E-03     29.4977E-03    -14.6345E-03     18.2010E-03
            1769     4.43483E-03     35.8841E-03    -10.0291E+06    -58.6735E+06    -2.60067E+06     366.853E+03    -14.8870E-03     29.5642E-03    -14.6773E-03     14.7821E-03    -14.8487E-03     29.2896E-03    -14.5906E-03     14.7846E-03
            1770     3.54798E-03     35.8714E-03    -11.1750E+06    -56.2674E+06    -5.56568E+06     38.5855E+03    -14.7457E-03     29.3710E-03    -14.6253E-03     11.6003E-03    -14.7122E-03     29.1142E-03    -14.5553E-03     11.5991E-03
            1771     2.66105E-03     35.8616E-03    -12.3400E+06    -59.2110E+06    -8.88905E+06    -147.280E+03    -14.6499E-03     29.2386E-03    -14.5887E-03     8.57022E-03    -14.6130E-03     28.9735E-03    -14.5294E-03     8.56710E-03
            1772     1.77407E-03     35.8548E-03    -13.4507E+06    -62.1799E+06    -11.8029E+06    -86.3214E+03    -14.5877E-03     29.1502E-03    -14.5625E-03     5.69751E-03    -14.5477E-03     28.8760E-03    -14.5119E-03     5.69560E-03
            1773     887.035E-06     35.8506E-03    -14.1682E+06    -63.8554E+06    -13.7953E+06    -32.9948E+03    -14.5470E-03     29.0989E-03    -14.5520E-03     3.01956E-03    -14.5052E-03     28.8203E-03    -14.5078E-03     3.01872E-03
            1774     16.8382E-03     35.6474E-03    -3.49042E+06     147.204E+06     37.9602E+06    -230.307E+03    -25.2323E-03     40.6431E-03    -15.4108E-03     221.490E-03    -30.3002E-03     46.1111E-03    -15.4293E-03     225.254E-03
            1775     15.9529E-03     35.4655E-03    -4.54228E+06     82.0780E+06    -12.5218E+06    -592.195E+03    -21.7460E-03     36.9269E-03    -15.1810E-03     155.234E-03    -23.3746E-03     38.8671E-03    -15.3560E-03     155.678E-03
            1776     15.0677E-03     35.3548E-03    -3.69577E+06     22.5247E+06    -9.81771E+06    -77.7485E+03    -18.4270E-03     33.6390E-03    -15.2120E-03     92.9410E-03    -18.7074E-03     34.0148E-03    -15.2884E-03     92.9095E-03
            1777     14.1827E-03     35.2914E-03    -3.23456E+06    -17.4205E+06    -9.85571E+06     858.246E+03    -17.1095E-03     32.3198E-03    -15.2103E-03     62.3895E-03    -17.1605E-03     32.3260E-03    -15.2296E-03     62.3578E-03
            1778     13.2966E-03     35.2382E-03    -3.05618E+06    -35.7239E+06    -7.30616E+06     1.90737E+06    -17.0991E-03     32.2841E-03    -15.1850E-03     57.7627E-03    -17.0960E-03     32.1645E-03    -15.1653E-03     57.7500E-03
            1779     12.4114E-03     35.1827E-03    -3.13131E+06    -35.1784E+06     1.78741E+06     1.56198E+06    -16.9258E-03     32.0818E-03    -15.1561E-03     54.1078E-03    -16.9203E-03     31.9351E-03    -15.0916E-03     54.0994E-03
            1780     11.5256E-03     35.1361E-03    -3.42729E+06    -41.3679E+06    -1.12854E+06     252.580E+03    -16.6044E-03     31.6792E-03    -15.0748E-03     47.1099E-03    -16.5754E-03     31.4945E-03    -15.0155E-03     47.0923E-03
            1781     10.6399E-03     35.0936E-03    -3.61610E+06    -53.7963E+06    -2.47354E+06     68.4358E+03    -16.4188E-03     31.4273E-03    -15.0085E-03     42.5238E-03    -16.3650E-03     31.1769E-03    -14.9376E-03     42.5092E-03
            1782     9.75395E-03     35.0554E-03    -3.87269E+06    -56.3802E+06     1.47641E+06     83.9205E+03    -16.1556E-03     31.1085E-03    -14.9529E-03     38.0307E-03    -16.1014E-03     30.8361E-03    -14.8581E-03     38.0204E-03
            1783     8.86798E-03     35.0212E-03    -4.13624E+06    -56.3394E+06     1.66454E+06     152.820E+03    -15.8910E-03     30.7676E-03    -14.8765E-03     33.6992E-03    -15.8363E-03     30.4933E-03    -14.7805E-03     33.6928E-03
            1784     7.98172E-03     34.9910E-03    -4.51519E+06    -60.7813E+06     2.23043E+06     459.603E+03    -15.6531E-03     30.4645E-03    -14.8114E-03     29.4147E-03    -15.5932E-03     30.1663E-03    -14.7055E-03     29.4144E-03
            1785     7.09542E-03     34.9649E-03    -4.86111E+06    -58.5536E+06     3.10967E+06     320.010E+03    -15.4102E-03     30.1516E-03    -14.7414E-03     25.3272E-03    -15.3557E-03     29.8630E-03    -14.6339E-03     25.3265E-03
            1786     6.20886E-03     34.9424E-03    -5.64148E+06    -55.2560E+06     2.59055E+06     352.330E+03    -15.1742E-03     29.8432E-03    -14.6691E-03     21.4975E-03    -15.1271E-03     29.5724E-03    -14.5678E-03     21.4984E-03
            1787     5.32224E-03     34.9235E-03    -7.35747E+06    -58.1403E+06     868.304E+03     647.418E+03    -14.9664E-03     29.5748E-03    -14.6083E-03     17.8881E-03    -14.9209E-03     29.2941E-03    -14.5090E-03     17.8936E-03
            1788     4.43540E-03     34.9078E-03    -9.24090E+06    -57.9908E+06    -2.09637E+06     304.713E+03    -14.7792E-03     29.3253E-03    -14.5461E-03     14.5390E-03    -14.7387E-03     29.0522E-03    -14.4591E-03     14.5407E-03
            1789     3.54848E-03     34.8953E-03    -10.7631E+06    -56.1805E+06    -5.70510E+06    -16.9475E+03    -14.6260E-03     29.1141E-03    -14.4881E-03     11.3997E-03    -14.5904E-03     28.8574E-03    -14.4196E-03     11.3978E-03
            1790     2.66143E-03     34.8857E-03    -12.1595E+06    -59.1893E+06    -9.01941E+06     69.2149E+03    -14.5203E-03     28.9689E-03    -14.4486E-03     8.42210E-03    -14.4824E-03     28.7038E-03    -14.3902E-03     8.42180E-03
            1791     1.77432E-03     34.8789E-03    -13.2781E+06    -62.2527E+06    -11.7176E+06     48.0230E+03    -14.4503E-03     28.8715E-03    -14.4212E-03     5.59732E-03    -14.4095E-03     28.5966E-03    -14.3703E-03     5.59716E-03
            1792     887.179E-06     34.8748E-03    -13.9438E+06    -63.8471E+06    -13.5757E+06     41.3832E+03    -14.4077E-03     28.8154E-03    -14.4077E-03     2.98583E-03    -14.3651E-03     28.5362E-03    -14.3628E-03     2.98596E-03
            1793     16.8384E-03     34.6672E-03    -2.93557E+06     147.300E+06     38.0776E+06    -144.382E+03    -25.6248E-03     41.0143E-03    -15.3895E-03     221.254E-03    -30.6901E-03     46.4817E-03    -15.4084E-03     224.989E-03
            1794     15.9542E-03     34.4864E-03    -3.55528E+06     82.5137E+06    -11.5275E+06     48.0984E+03    -21.6476E-03     36.8002E-03    -15.1526E-03     154.337E-03    -23.2415E-03     38.7078E-03    -15.3247E-03     154.778E-03
            1795     15.0688E-03     34.3765E-03    -4.35126E+06     21.8901E+06    -10.0099E+06     278.181E+03    -18.3043E-03     33.4892E-03    -15.1849E-03     93.1999E-03    -18.5860E-03     33.8622E-03    -15.2604E-03     93.1746E-03
            1796     14.1824E-03     34.3131E-03    -4.82185E+06    -18.3334E+06    -10.5070E+06     801.863E+03    -17.3863E-03     32.5621E-03    -15.1758E-03     62.3163E-03    -17.4431E-03     32.5672E-03    -15.1948E-03     62.2828E-03
            1797     13.2976E-03     34.2594E-03    -3.78480E+06    -36.1489E+06    -8.53821E+06     1.00680E+06    -17.2460E-03     32.3749E-03    -15.1289E-03     57.5514E-03    -17.2440E-03     32.2558E-03    -15.1136E-03     57.5269E-03
            1798     12.4120E-03     34.2046E-03    -2.19554E+06    -34.1037E+06     1.56416E+06     878.989E+03    -16.9855E-03     32.0744E-03    -15.0889E-03     53.7934E-03    -16.9762E-03     31.9317E-03    -15.0285E-03     53.7763E-03
            1799     11.5265E-03     34.1580E-03    -2.15234E+06    -40.6083E+06    -480.324E+03     822.343E+03    -16.6908E-03     31.6920E-03    -15.0012E-03     46.7830E-03    -16.6573E-03     31.5081E-03    -14.9416E-03     46.7728E-03
            1800     10.6408E-03     34.1158E-03    -3.05811E+06    -53.9075E+06    -2.76271E+06     569.068E+03    -16.4575E-03     31.3783E-03    -14.9208E-03     42.1386E-03    -16.4001E-03     31.1267E-03    -14.8520E-03     42.1306E-03
            1801     9.75496E-03     34.0778E-03    -3.96251E+06    -55.8455E+06     1.31027E+06     255.836E+03    -16.1633E-03     31.0186E-03    -14.8553E-03     37.6549E-03    -16.1100E-03     30.7492E-03    -14.7621E-03     37.6470E-03
            1802     8.86888E-03     34.0439E-03    -4.97946E+06    -56.8708E+06     1.34141E+06     178.134E+03    -15.8843E-03     30.6546E-03    -14.7703E-03     33.3036E-03    -15.8324E-03     30.3793E-03    -14.6739E-03     33.2977E-03
            1803     7.98272E-03     34.0141E-03    -5.60356E+06    -60.2838E+06     1.29235E+06    -38.4511E+03    -15.6067E-03     30.2976E-03    -14.6909E-03     29.0365E-03    -15.5516E-03     30.0048E-03    -14.5889E-03     29.0299E-03
            1804     7.09628E-03     33.9881E-03    -5.87149E+06    -58.4716E+06     1.53135E+06    -459.569E+03    -15.3355E-03     29.9457E-03    -14.6102E-03     24.9784E-03    -15.2839E-03     29.6612E-03    -14.5092E-03     24.9678E-03
            1805     6.20974E-03     33.9659E-03    -6.46165E+06    -56.2595E+06     1.46642E+06     310.466E+03    -15.0862E-03     29.6205E-03    -14.5343E-03     21.1508E-03    -15.0401E-03     29.3475E-03    -14.4360E-03     21.1513E-03
            1806     5.32296E-03     33.9472E-03    -7.48625E+06    -57.8425E+06     569.293E+03     928.070E+03    -14.8638E-03     29.3319E-03    -14.4681E-03     17.5754E-03    -14.8189E-03     29.0534E-03    -14.3705E-03     17.5846E-03
            1807     4.43607E-03     33.9318E-03    -8.96260E+06    -57.3443E+06    -2.13866E+06     682.014E+03    -14.6584E-03     29.0587E-03    -14.4003E-03     14.2677E-03    -14.6174E-03     28.7885E-03    -14.3148E-03     14.2744E-03
            1808     3.54898E-03     33.9194E-03    -10.7628E+06    -56.0083E+06    -6.01589E+06     380.793E+03    -14.4883E-03     28.8263E-03    -14.3380E-03     11.1804E-03    -14.4524E-03     28.5708E-03    -14.2713E-03     11.1837E-03
            1809     2.66183E-03     33.9100E-03    -12.1634E+06    -59.1445E+06    -8.86553E+06     197.988E+03    -14.3771E-03     28.6751E-03    -14.2981E-03     8.26208E-03    -14.3394E-03     28.4100E-03    -14.2390E-03     8.26347E-03
            1810     1.77460E-03     33.9032E-03    -13.1223E+06    -62.1098E+06    -11.5285E+06     149.983E+03    -14.2982E-03     28.5670E-03    -14.2688E-03     5.49015E-03    -14.2571E-03     28.2923E-03    -14.2174E-03     5.49133E-03
            1811     887.291E-06     33.8992E-03    -13.7235E+06    -63.7611E+06    -13.3830E+06     49.1172E+03    -14.2631E-03     28.5103E-03    -14.2472E-03     2.95249E-03    -14.2198E-03     28.2309E-03    -14.2017E-03     2.95271E-03
            1812     16.8387E-03     33.6838E-03    -3.73212E+06     146.644E+06     37.2072E+06     4.09408E+03    -25.2784E-03     40.6613E-03    -15.3829E-03     221.229E-03    -30.3191E-03     46.1015E-03    -15.4041E-03     224.939E-03
            1813     15.9544E-03     33.5093E-03    -4.97392E+06     82.4588E+06    -11.9252E+06     194.097E+03    -21.8821E-03     37.0335E-03    -15.1514E-03     154.721E-03    -23.5002E-03     38.9613E-03    -15.3234E-03     155.181E-03
            1814     15.0674E-03     33.3975E-03    -4.08966E+06     22.2121E+06    -9.75379E+06     717.009E+03    -19.0395E-03     34.1941E-03    -15.1546E-03     92.1860E-03    -19.3202E-03     34.5675E-03    -15.2297E-03     92.1584E-03
            1815     14.1839E-03     33.3339E-03    -3.50000E+06    -18.2859E+06    -10.1481E+06     585.310E+03    -17.3395E-03     32.4600E-03    -15.1204E-03     61.5170E-03    -17.3887E-03     32.4612E-03    -15.1396E-03     61.4809E-03
            1816     13.2982E-03     33.2813E-03    -2.85615E+06    -35.5053E+06    -8.84539E+06    -240.621E+03    -17.2667E-03     32.3329E-03    -15.0662E-03     57.3403E-03    -17.2601E-03     32.2157E-03    -15.0548E-03     57.2998E-03
            1817     12.4129E-03     33.2261E-03    -2.41747E+06    -34.9891E+06     697.128E+03     109.917E+03    -17.1053E-03     32.1229E-03    -15.0176E-03     53.4633E-03    -17.0941E-03     31.9769E-03    -14.9599E-03     53.4362E-03
            1818     11.5274E-03     33.1800E-03    -2.60516E+06    -40.8153E+06    -905.183E+03     1.34101E+06    -16.7668E-03     31.6847E-03    -14.9180E-03     46.3495E-03    -16.7345E-03     31.5009E-03    -14.8595E-03     46.3460E-03
            1819     10.6418E-03     33.1380E-03    -3.03692E+06    -53.1872E+06    -3.03037E+06     1.34541E+06    -16.4897E-03     31.3138E-03    -14.8242E-03     41.7177E-03    -16.4327E-03     31.0661E-03    -14.7578E-03     41.7198E-03
            1820     9.75593E-03     33.1005E-03    -4.01787E+06    -55.6246E+06     996.812E+03     1.01429E+06    -16.1796E-03     30.9274E-03    -14.7478E-03     37.2419E-03    -16.1263E-03     30.6595E-03    -14.6563E-03     37.2439E-03
            1821     8.86996E-03     33.0667E-03     -5.2865E+06    -56.4847E+06     1.22582E+06     699.033E+03    -15.8717E-03     30.5239E-03    -14.6522E-03     32.8581E-03    -15.8216E-03     30.2510E-03    -14.5565E-03     32.8590E-03
            1822     7.98371E-03     33.0373E-03    -6.42634E+06    -59.3226E+06     585.843E+03    -232.637E+03    -15.5569E-03     30.1161E-03    -14.5592E-03     28.6097E-03    -15.5062E-03     29.8303E-03    -14.4609E-03     28.6007E-03
            1823     7.09728E-03     33.0115E-03    -7.72291E+06    -58.8797E+06    -808.879E+03    -447.630E+03    -15.2518E-03     29.7166E-03    -14.4648E-03     24.5932E-03    -15.2054E-03     29.4361E-03    -14.3723E-03     24.5829E-03
            1824     6.21060E-03     32.9896E-03    -8.95023E+06    -57.2156E+06    -1.64951E+06    -6.60858E+03    -14.9770E-03     29.3566E-03    -14.3796E-03     20.7940E-03    -14.9374E-03     29.0869E-03    -14.2919E-03     20.7904E-03
            1825     5.32376E-03     32.9712E-03    -9.49642E+06    -57.6255E+06    -1.64687E+06     197.420E+03    -14.7398E-03     29.0489E-03    -14.3091E-03     17.2514E-03    -14.7020E-03     28.7775E-03    -14.2200E-03     17.2512E-03
            1826     4.43674E-03     32.9560E-03    -9.93911E+06    -57.3979E+06    -2.56463E+06     491.910E+03    -14.5265E-03     28.7695E-03    -14.2430E-03     13.9717E-03    -14.4897E-03     28.5010E-03    -14.1582E-03     13.9759E-03
            1827     3.54958E-03     32.9439E-03    -10.7978E+06    -55.4297E+06    -5.57432E+06     576.439E+03    -14.3424E-03     28.5196E-03    -14.1773E-03     10.9411E-03    -14.3081E-03     28.2665E-03    -14.1091E-03     10.9469E-03
            1828     2.66226E-03     32.9345E-03    -11.9615E+06    -58.9587E+06    -8.69192E+06     224.881E+03    -14.2173E-03     28.3500E-03    -14.1327E-03     8.07768E-03    -14.1791E-03     28.0853E-03    -14.0733E-03     8.07944E-03
            1829     1.77489E-03     32.9280E-03    -12.9266E+06    -61.9435E+06    -11.2053E+06     122.107E+03    -14.1375E-03     28.2387E-03    -14.1012E-03     5.36781E-03    -14.0961E-03     27.9640E-03    -14.0487E-03     5.36865E-03
            1830     887.462E-06     32.9239E-03    -13.5335E+06    -63.6239E+06    -13.0886E+06     8.58035E+03    -14.0968E-03     28.1700E-03    -14.0732E-03     2.89103E-03    -14.0532E-03     27.8906E-03    -14.0268E-03     2.89074E-03
            1831     16.8396E-03     32.7127E-03    -3.43320E+06     146.950E+06     37.9043E+06     80.9959E+03    -25.5948E-03     40.9866E-03    -15.3918E-03     220.337E-03    -30.5694E-03     46.3609E-03    -15.4103E-03     223.997E-03
            1832     15.9505E-03     32.5244E-03    -5.88050E+06     82.2820E+06    -12.3954E+06    -160.534E+03    -22.5632E-03     37.6884E-03    -15.1252E-03     153.317E-03    -24.1919E-03     39.6244E-03    -15.2980E-03     153.730E-03
            1833     15.0722E-03     32.4188E-03    -4.35063E+06     21.1800E+06    -11.1291E+06     476.812E+03    -18.9100E-03     34.0126E-03    -15.1027E-03     90.5525E-03    -19.1756E-03     34.3702E-03    -15.1827E-03     90.5205E-03
            1834     14.1844E-03     32.3564E-03    -2.05696E+06    -17.2727E+06    -10.0772E+06     462.593E+03    -17.3969E-03     32.4643E-03    -15.0675E-03     62.4472E-03    -17.4408E-03     32.4688E-03    -15.0898E-03     62.4095E-03
            1835     13.2989E-03     32.3023E-03    -2.31304E+06    -34.6687E+06    -9.04266E+06    -24.8941E+03    -17.4907E-03     32.4924E-03    -15.0017E-03     57.2250E-03    -17.4820E-03     32.3787E-03    -14.9933E-03     57.1869E-03
            1836     12.4139E-03     32.2480E-03    -2.95724E+06    -36.6175E+06    -399.678E+03     448.033E+03    -17.2042E-03     32.1418E-03    -14.9376E-03     52.9993E-03    -17.1913E-03     31.9896E-03    -14.8822E-03     52.9768E-03
            1837     11.5284E-03     32.2018E-03    -3.50478E+06    -41.4558E+06    -1.67206E+06     1.30804E+06    -16.8216E-03     31.6475E-03    -14.8259E-03     45.9120E-03    -16.7915E-03     31.4627E-03    -14.7691E-03     45.9082E-03
            1838     10.6429E-03     32.1605E-03    -3.38399E+06    -52.5746E+06    -2.95809E+06     1.54245E+06    -16.5409E-03     31.2616E-03    -14.7207E-03     41.2452E-03    -16.4865E-03     31.0171E-03    -14.6543E-03     41.2500E-03
            1839     9.75711E-03     32.1230E-03    -3.40151E+06    -55.5202E+06     1.27157E+06     1.45350E+06    -16.2022E-03     30.8331E-03    -14.6310E-03     36.7542E-03    -16.1462E-03     30.5643E-03    -14.5392E-03     36.7619E-03
            1840     8.87109E-03     32.0898E-03    -3.71245E+06    -55.3134E+06     1.98723E+06     909.375E+03    -15.8516E-03     30.3742E-03    -14.5226E-03     32.3476E-03    -15.7964E-03     30.1037E-03    -14.4271E-03     32.3513E-03
            1841     7.98484E-03     32.0605E-03    -4.58556E+06    -58.7798E+06     2.08322E+06     383.820E+03    -15.5110E-03     29.9339E-03    -14.4229E-03     28.1039E-03    -15.4540E-03     29.6459E-03    -14.3206E-03     28.1030E-03
            1842     7.09833E-03     32.0353E-03    -6.15581E+06    -59.2072E+06     367.334E+03     434.023E+03    -15.1795E-03     29.4979E-03    -14.3184E-03     24.1097E-03    -15.1264E-03     29.2117E-03    -14.2218E-03     24.1109E-03
            1843     6.21159E-03     32.0136E-03    -7.57239E+06    -56.8743E+06    -904.263E+03     40.5908E+03    -14.8735E-03     29.0950E-03    -14.2215E-03     20.3670E-03    -14.8285E-03     28.8239E-03    -14.1326E-03     20.3641E-03
            1844     5.32466E-03     31.9954E-03    -8.84214E+06    -57.8285E+06    -1.26343E+06    -330.658E+03    -14.6104E-03     28.7544E-03    -14.1441E-03     16.8658E-03    -14.5695E-03     28.4806E-03    -14.0537E-03     16.8589E-03
            1845     4.43751E-03     31.9805E-03    -10.1268E+06    -57.7729E+06    -2.87965E+06    -95.6062E+03    -14.3788E-03     28.4490E-03    -14.0701E-03     13.6464E-03    -14.3419E-03     28.1793E-03    -13.9861E-03     13.6431E-03
            1846     3.55020E-03     31.9686E-03    -11.1409E+06    -55.2750E+06    -5.92018E+06     193.972E+03    -14.1830E-03     28.1814E-03    -13.9984E-03     10.6797E-03    -14.1502E-03     27.9300E-03    -13.9317E-03     10.6807E-03
            1847     2.66277E-03     31.9595E-03    -12.0767E+06    -58.6558E+06    -8.82919E+06     319.834E+03    -14.0487E-03     27.9978E-03    -13.9491E-03     7.88168E-03    -14.0114E-03     27.7350E-03    -13.8907E-03     7.88470E-03
            1848     1.77522E-03     31.9529E-03    -13.1849E+06    -61.7678E+06    -11.6137E+06     182.951E+03    -13.9571E-03     27.8690E-03    -13.9119E-03     5.23432E-03    -13.9167E-03     27.5962E-03    -13.8613E-03     5.23596E-03
            1849     887.635E-06     31.9491E-03    -13.8236E+06    -63.4903E+06    -13.5977E+06     49.7383E+03    -13.8893E-03     27.7878E-03    -13.8985E-03     2.83261E-03    -13.8466E-03     27.5102E-03    -13.8544E-03     2.83286E-03
            1850     16.8355E-03     31.7268E-03    -2.99816E+06     146.492E+06     37.2580E+06    -194.201E+03    -26.7385E-03     42.1160E-03    -15.3774E-03     221.140E-03    -31.7800E-03     47.5590E-03    -15.3992E-03     224.769E-03
            1851     15.9606E-03     31.5460E-03    -2.57892E+06     82.0971E+06    -11.6647E+06     677.525E+03    -22.5448E-03     37.6275E-03    -15.0827E-03     151.717E-03    -24.1073E-03     39.5062E-03    -15.2563E-03     152.099E-03
            1852     15.0673E-03     31.4414E-03    -2.43067E+06     21.5737E+06    -10.0113E+06     866.606E+03    -18.3669E-03     33.4430E-03    -15.0760E-03     91.4417E-03    -18.6213E-03     33.7942E-03    -15.1538E-03     91.4221E-03
            1853     14.1842E-03     31.3764E-03    -3.02084E+06    -17.3766E+06    -10.7205E+06     165.889E+03    -18.1703E-03     33.1981E-03    -15.0278E-03     61.9475E-03    -18.2194E-03     33.2058E-03    -15.0518E-03     61.9030E-03
            1854     13.3003E-03     31.3239E-03    -2.89425E+06    -34.9658E+06    -8.79768E+06     883.579E+03    -17.7065E-03     32.6362E-03    -14.9297E-03     56.2924E-03    -17.6998E-03     32.5206E-03    -14.9188E-03     56.2657E-03
            1855     12.4149E-03     31.2695E-03    -3.90203E+06    -36.7690E+06    -497.736E+03     1.24308E+06    -17.2131E-03     32.0625E-03    -14.8494E-03     52.5104E-03    -17.2041E-03     31.9106E-03    -14.7929E-03     52.4984E-03
            1856     11.5296E-03     31.2240E-03    -4.08762E+06    -41.6939E+06    -2.14597E+06     753.458E+03    -16.8929E-03     31.6171E-03    -14.7242E-03     45.4239E-03    -16.8645E-03     31.4324E-03    -14.6685E-03     45.4131E-03
            1857     10.6441E-03     31.1827E-03    -3.46546E+06    -52.7465E+06    -3.05438E+06     1.03528E+06    -16.6024E-03     31.2074E-03    -14.6051E-03     40.7014E-03    -16.5478E-03     30.9622E-03    -14.5388E-03     40.6997E-03
            1858     9.75839E-03     31.1458E-03    -3.09600E+06    -55.1024E+06     1.21880E+06     1.11325E+06    -16.2109E-03     30.7104E-03    -14.4996E-03     36.1961E-03    -16.1538E-03     30.4432E-03    -14.4091E-03     36.1997E-03
            1859     8.87236E-03     31.1128E-03    -3.26955E+06    -54.5404E+06     2.04418E+06     764.467E+03    -15.8174E-03     30.1959E-03    -14.3785E-03     31.8071E-03    -15.7611E-03     29.9285E-03    -14.2845E-03     31.8091E-03
            1860     7.98608E-03     31.0841E-03    -4.06447E+06    -59.0529E+06     2.93628E+06     981.451E+03    -15.4585E-03     29.7309E-03    -14.2723E-03     27.5560E-03    -15.3997E-03     29.4394E-03    -14.1661E-03     27.5629E-03
            1861     7.09952E-03     31.0592E-03    -5.29763E+06    -58.9458E+06     1.86973E+06     1.18643E+06    -15.0987E-03     29.2569E-03    -14.1582E-03     23.5833E-03    -15.0438E-03     28.9686E-03    -14.0557E-03     23.5943E-03
            1862     6.21272E-03     31.0379E-03    -6.77658E+06    -55.7557E+06    -137.688E+03     520.890E+03    -14.7526E-03     28.7993E-03    -14.0467E-03     19.9044E-03    -14.7063E-03     28.5315E-03    -13.9567E-03     19.9079E-03
            1863     5.32562E-03     31.0200E-03    -8.25533E+06    -57.7947E+06    -1.17416E+06    -166.971E+03    -14.4639E-03     28.4243E-03    -13.9604E-03     16.4627E-03    -14.4203E-03     28.1496E-03    -13.8705E-03     16.4579E-03
            1864     4.43837E-03     31.0054E-03    -9.56435E+06    -58.0496E+06    -2.97051E+06    -269.793E+03    -14.2164E-03     28.0967E-03    -13.8804E-03     13.3039E-03    -14.1761E-03     27.8250E-03    -13.7972E-03     13.2984E-03
            1865     3.55089E-03     30.9937E-03    -10.7806E+06    -55.5936E+06    -6.27495E+06    -31.7564E+03    -14.0067E-03     27.8098E-03    -13.8032E-03     10.4027E-03    -13.9711E-03     27.5568E-03    -13.7383E-03     10.4009E-03
            1866     2.66328E-03     30.9847E-03    -11.8051E+06    -58.6410E+06    -8.93829E+06     290.142E+03    -13.8633E-03     27.6142E-03    -13.7509E-03     7.68247E-03    -13.8245E-03     27.3512E-03    -13.6934E-03     7.68515E-03
            1867     1.77560E-03     30.9784E-03    -12.5405E+06    -61.4422E+06    -11.3497E+06     397.126E+03    -13.7611E-03     27.4734E-03    -13.7123E-03     5.10338E-03    -13.7183E-03     27.2009E-03    -13.6618E-03     5.10781E-03
            1868     887.797E-06     30.9745E-03    -13.1380E+06    -63.1896E+06    -13.1290E+06     304.558E+03    -13.6950E-03     27.3911E-03    -13.6961E-03     2.75263E-03    -13.6500E-03     27.1134E-03    -13.6511E-03     2.75618E-03
            1869     16.8408E-03     30.7361E-03    -2.58738E+06     145.618E+06     35.4856E+06     107.150E+03    -26.1553E-03     41.4858E-03    -15.3305E-03     221.364E-03    -31.2354E-03     46.9710E-03    -15.3605E-03     224.970E-03
            1870     15.9512E-03     30.5713E-03    -3.60945E+06     82.2260E+06    -13.3198E+06     596.172E+03    -21.8635E-03     36.9309E-03    -15.0674E-03     149.789E-03    -23.3765E-03     38.7618E-03    -15.2480E-03     150.206E-03
            1871     15.0711E-03     30.4606E-03    -4.85114E+06     23.2298E+06    -10.2585E+06     599.539E+03    -19.6395E-03     34.6821E-03    -15.0426E-03     91.2196E-03    -19.9190E-03     35.0566E-03    -15.1206E-03     91.1874E-03
            1872     14.1867E-03     30.3969E-03    -4.97615E+06    -17.9583E+06    -11.5971E+06     318.460E+03    -18.2708E-03     33.2187E-03    -14.9479E-03     60.5442E-03    -18.3254E-03     33.2255E-03    -14.9726E-03     60.5015E-03
            1873     13.3013E-03     30.3453E-03    -4.31707E+06    -36.2833E+06    -9.71723E+06     984.710E+03    -17.6852E-03     32.5249E-03    -14.8397E-03     55.6193E-03    -17.6816E-03     32.4053E-03    -14.8294E-03     55.5943E-03
            1874     12.4163E-03     30.2914E-03    -3.11851E+06    -35.7688E+06     34.4410E+03     1.00853E+06    -17.3149E-03     32.0644E-03    -14.7496E-03     52.0983E-03    -17.3039E-03     31.9153E-03    -14.6930E-03     52.0833E-03
            1875     11.5309E-03     30.2459E-03    -2.65549E+06    -41.4764E+06    -1.72602E+06     488.365E+03    -16.9649E-03     31.5739E-03    -14.6090E-03     44.8697E-03    -16.9298E-03     31.3872E-03    -14.5537E-03     44.8556E-03
            1876     10.6455E-03     30.2052E-03    -2.73437E+06    -53.2824E+06    -3.25231E+06     656.576E+03    -16.6334E-03     31.1079E-03    -14.4745E-03     40.0863E-03    -16.5739E-03     30.8589E-03    -14.4095E-03     40.0799E-03
            1877     9.75978E-03     30.1686E-03    -2.96640E+06    -54.7360E+06     1.14838E+06     938.151E+03    -16.1997E-03     30.5554E-03    -14.3557E-03     35.5907E-03    -16.1422E-03     30.2897E-03    -14.2663E-03     35.5922E-03
            1878     8.87376E-03     30.1362E-03    -3.73723E+06    -54.4046E+06     1.73573E+06     974.388E+03    -15.7802E-03     30.0019E-03    -14.2217E-03     31.2219E-03    -15.7259E-03     29.7362E-03    -14.1287E-03     31.2268E-03
            1879     7.98741E-03     30.1078E-03    -4.70245E+06    -59.4541E+06     2.55497E+06     1.21723E+06    -15.3915E-03     29.4949E-03    -14.1035E-03     26.9822E-03    -15.3346E-03     29.2029E-03    -13.9977E-03     26.9923E-03
            1880     7.10083E-03     30.0834E-03    -5.61015E+06    -58.5832E+06     2.00615E+06     1.38789E+06    -14.9962E-03     28.9750E-03    -13.9788E-03     23.0396E-03    -14.9436E-03     28.6887E-03    -13.8757E-03     23.0533E-03
            1881     6.21387E-03     30.0625E-03    -6.60387E+06    -54.5700E+06     244.722E+03     962.907E+03    -14.6192E-03     28.4759E-03    -13.8567E-03     19.4113E-03    -14.5743E-03     28.2131E-03    -13.7668E-03     19.4205E-03
            1882     5.32671E-03     30.0450E-03    -7.92806E+06    -57.2040E+06    -1.12161E+06     146.315E+03    -14.3050E-03     28.0664E-03    -13.7614E-03     16.0288E-03    -14.2607E-03     27.7941E-03    -13.6726E-03     16.0282E-03
            1883     4.43924E-03     30.0306E-03    -9.39543E+06    -58.2053E+06    -3.13293E+06    -221.941E+03    -14.0374E-03     27.7129E-03    -13.6755E-03     12.9403E-03    -13.9958E-03     27.4404E-03    -13.5931E-03     12.9355E-03
            1884     3.55164E-03     30.0191E-03    -10.5780E+06    -55.9474E+06    -6.30717E+06    -64.1452E+03    -13.8174E-03     27.4114E-03    -13.5940E-03     10.1115E-03    -13.7802E-03     27.1563E-03    -13.5290E-03     10.1093E-03
            1885     2.66385E-03     30.0104E-03    -11.3576E+06    -58.7503E+06    -8.96408E+06     138.169E+03    -13.6582E-03     27.1957E-03    -13.5375E-03     7.45352E-03    -13.6170E-03     26.9316E-03    -13.4806E-03     7.45428E-03
            1886     1.77594E-03     30.0041E-03    -11.8569E+06    -61.3472E+06    -10.7549E+06     329.280E+03    -13.5516E-03     27.0512E-03    -13.4996E-03     4.94718E-03    -13.5064E-03     26.7773E-03    -13.4472E-03     4.95075E-03
            1887     887.998E-06     30.0005E-03    -12.0138E+06    -62.5196E+06    -11.8047E+06     483.088E+03    -13.5100E-03     26.9670E-03    -13.4569E-03     2.67464E-03    -13.4623E-03     26.6890E-03    -13.4079E-03     2.68051E-03
            1888     16.8413E-03     29.7684E-03    -3.84123E+06     145.673E+06     36.1486E+06     825.713E+03    -26.0144E-03     41.3148E-03    -15.3004E-03     219.311E-03    -30.9656E-03     46.6649E-03    -15.3253E-03     222.860E-03
            1889     15.9558E-03     29.5866E-03    -4.83107E+06     82.4177E+06    -11.6585E+06     781.330E+03    -22.1145E-03     37.1475E-03    -15.0330E-03     150.127E-03    -23.6367E-03     38.9790E-03    -15.2038E-03     150.551E-03
            1890     15.0718E-03     29.4811E-03    -5.25252E+06     23.0284E+06    -10.8004E+06     339.567E+03    -20.1013E-03     35.0739E-03    -14.9727E-03     89.8637E-03    -20.3814E-03     35.4485E-03    -15.0524E-03     89.8234E-03
            1891     14.1869E-03     29.4181E-03    -5.04176E+06    -17.6337E+06    -11.4635E+06     692.129E+03    -18.1145E-03     32.9790E-03    -14.8645E-03     60.4712E-03    -18.1682E-03     32.9855E-03    -14.8889E-03     60.4344E-03
            1892     13.3024E-03     29.3668E-03    -3.28144E+06    -36.4116E+06    -10.5807E+06     100.454E+03    -17.8137E-03     32.5590E-03    -14.7454E-03     55.3592E-03    -17.8030E-03     32.4381E-03    -14.7407E-03     55.3228E-03
            1893     12.4175E-03     29.3130E-03    -2.31305E+06    -35.9546E+06    -808.191E+03     79.2861E+03    -17.5354E-03     32.1720E-03    -14.6365E-03     51.5752E-03    -17.5186E-03     32.0216E-03    -14.5851E-03     51.5480E-03
            1894     11.5325E-03     29.2681E-03    -2.36110E+06    -41.2671E+06    -1.74521E+06     809.679E+03    -17.0282E-03     31.5087E-03    -14.4805E-03     44.2876E-03    -16.9916E-03     31.3223E-03    -14.4260E-03     44.2779E-03
            1895     10.6470E-03     29.2276E-03    -2.75287E+06    -53.4912E+06    -3.61698E+06     876.021E+03    -16.6294E-03     30.9606E-03    -14.3313E-03     39.4601E-03    -16.5688E-03     30.7109E-03    -14.2678E-03     39.4569E-03
            1896     9.76131E-03     29.1917E-03    -3.15554E+06    -54.8607E+06     769.532E+03     1.07057E+06    -16.1882E-03     30.3875E-03    -14.1993E-03     34.9522E-03    -16.1307E-03     30.1218E-03    -14.1113E-03     34.9556E-03
            1897     8.87523E-03     29.1597E-03    -3.75826E+06    -54.3769E+06     1.48236E+06     1.36373E+06    -15.7403E-03     29.7917E-03    -14.0514E-03     30.5737E-03    -15.6856E-03     29.5263E-03    -13.9597E-03     30.5838E-03
            1898     7.98891E-03     29.1318E-03    -4.63125E+06    -59.4105E+06     2.32128E+06     1.38953E+06    -15.3095E-03     29.2297E-03    -13.9202E-03     26.3623E-03    -15.2519E-03     28.9380E-03    -13.8157E-03     26.3747E-03
            1899     7.10216E-03     29.1078E-03    -5.55092E+06    -58.3456E+06     2.10146E+06     1.30503E+06    -14.8834E-03     28.6688E-03    -13.7854E-03     22.4470E-03    -14.8309E-03     28.3834E-03    -13.6823E-03     22.4597E-03
            1900     6.21518E-03     29.0874E-03    -6.46606E+06    -53.6492E+06     687.638E+03     1.00914E+06    -14.4754E-03     28.1291E-03    -13.6537E-03     18.8712E-03    -14.4317E-03     27.8701E-03    -13.5631E-03     18.8812E-03
            1901     5.32780E-03     29.0702E-03    -7.59237E+06    -56.3985E+06    -630.053E+03     454.371E+03    -14.1360E-03     27.6858E-03    -13.5498E-03     15.5581E-03    -14.0918E-03     27.4163E-03    -13.4602E-03     15.5616E-03
            1902     4.44026E-03     29.0562E-03    -9.06203E+06    -58.1523E+06    -2.78041E+06     60.7137E+03    -13.8500E-03     27.3070E-03    -13.4570E-03     12.5410E-03    -13.8073E-03     27.0337E-03    -13.3734E-03     12.5399E-03
            1903     3.55242E-03     29.0450E-03    -10.5138E+06    -56.1000E+06    -6.15898E+06    -36.0959E+03    -13.6108E-03     26.9800E-03    -13.3692E-03     9.79297E-03    -13.5733E-03     26.7239E-03    -13.3034E-03     9.79113E-03
            1904     2.66448E-03     29.0364E-03    -11.6681E+06    -58.9263E+06    -8.85789E+06     92.4824E+03    -13.4419E-03     26.7496E-03    -13.3077E-03     7.20739E-03    -13.4020E-03     26.4848E-03    -13.2496E-03     7.20760E-03
            1905     1.77640E-03     29.0305E-03    -12.5979E+06    -61.3757E+06    -11.2226E+06     303.103E+03    -13.3223E-03     26.5841E-03    -13.2618E-03     4.79026E-03    -13.2801E-03     26.3118E-03    -13.2106E-03     4.79353E-03
            1906     888.219E-06     29.0266E-03    -13.2383E+06    -61.8225E+06    -12.8845E+06     361.722E+03    -13.2493E-03     26.4782E-03    -13.2289E-03     2.59516E-03    -13.2071E-03     26.2070E-03    -13.1845E-03     2.59948E-03
            1907     16.8393E-03     28.7861E-03    -3.07707E+06     145.411E+06     36.4216E+06     804.447E+03    -27.1469E-03     42.4474E-03    -15.3005E-03     217.079E-03    -31.9820E-03     47.6822E-03    -15.3248E-03     220.540E-03
            1908     15.9567E-03     28.6078E-03    -3.60187E+06     81.3945E+06    -12.4200E+06     1.38628E+06    -23.1658E-03     38.1303E-03    -14.9645E-03     151.101E-03    -24.6986E-03     39.9753E-03    -15.1394E-03     151.493E-03
            1909     15.0721E-03     28.5003E-03    -2.33113E+06     22.9275E+06    -9.47512E+06     1.20651E+06    -19.5641E-03     34.4596E-03    -14.8955E-03     88.8081E-03    -19.8209E-03     34.8170E-03    -14.9727E-03     88.7818E-03
            1910     14.1886E-03     28.4396E-03    -2.16551E+06    -16.3102E+06    -9.92568E+06     551.465E+03    -18.2685E-03     33.0600E-03    -14.7915E-03     59.5101E-03    -18.3107E-03     33.0654E-03    -14.8144E-03     59.4712E-03
            1911     13.3035E-03     28.3876E-03    -2.31033E+06    -35.7768E+06    -10.1639E+06    -169.171E+03    -18.0730E-03     32.7238E-03    -14.6507E-03     54.9604E-03    -18.0585E-03     32.6035E-03    -14.6463E-03     54.9202E-03
            1912     12.4191E-03     28.3347E-03    -2.74996E+06    -37.0417E+06    -1.38025E+06     207.213E+03    -17.6992E-03     32.2179E-03    -14.5187E-03     50.7863E-03    -17.6817E-03     32.0631E-03    -14.4679E-03     50.7607E-03
            1913     11.5340E-03     28.2901E-03    -3.07055E+06    -41.6085E+06    -1.97459E+06     847.708E+03    -17.0910E-03     31.4357E-03    -14.3447E-03     43.6279E-03    -17.0567E-03     31.2485E-03    -14.2898E-03     43.6190E-03
            1914     10.6487E-03     28.2504E-03    -2.93023E+06    -53.2590E+06    -3.73531E+06     1.06123E+06    -16.6570E-03     30.8351E-03    -14.1780E-03     38.8003E-03    -16.5973E-03     30.5867E-03    -14.1152E-03     38.7997E-03
            1915     9.76291E-03     28.2147E-03    -3.09145E+06    -55.2548E+06     360.159E+03     1.23557E+06    -16.1755E-03     30.2050E-03    -14.0295E-03     34.2381E-03    -16.1164E-03     29.9377E-03    -13.9431E-03     34.2439E-03
            1916     8.87692E-03     28.1834E-03    -3.67617E+06    -54.3400E+06     1.06156E+06     1.58880E+06    -15.6840E-03     29.5505E-03    -13.8665E-03     29.8719E-03    -15.6282E-03     29.2857E-03    -13.7771E-03     29.8852E-03
            1917     7.99041E-03     28.1560E-03    -4.42374E+06    -59.0285E+06     2.32676E+06     1.55679E+06    -15.2213E-03     28.9447E-03    -13.7235E-03     25.6808E-03    -15.1631E-03     28.6546E-03    -13.6198E-03     25.6956E-03
            1918     7.10371E-03     28.1326E-03    -5.32898E+06    -57.9870E+06     2.21362E+06     1.28495E+06    -14.7555E-03     28.3329E-03    -13.5774E-03     21.8049E-03    -14.7026E-03     28.0487E-03    -13.4745E-03     21.8175E-03
            1919     6.21649E-03     28.1126E-03    -6.33188E+06    -52.9909E+06     974.513E+03     963.113E+03    -14.3169E-03     27.7530E-03    -13.4361E-03     18.2976E-03    -14.2739E-03     27.4966E-03    -13.3452E-03     18.3071E-03
            1920     5.32906E-03     28.0959E-03    -7.46590E+06    -55.7433E+06    -149.790E+03     558.702E+03    -13.9569E-03     27.2810E-03    -13.3241E-03     15.0560E-03    -13.9137E-03     27.0138E-03    -13.2332E-03     15.0609E-03
            1921     4.44127E-03     28.0822E-03    -8.76538E+06    -57.9586E+06    -2.24926E+06     297.246E+03    -13.6510E-03     26.8746E-03    -13.2236E-03     12.1154E-03    -13.6078E-03     26.6011E-03    -13.1381E-03     12.1175E-03
            1922     3.55333E-03     28.0713E-03    -10.1818E+06    -56.0624E+06    -5.58856E+06     247.127E+03    -13.3885E-03     26.5183E-03    -13.1298E-03     9.45380E-03    -13.3502E-03     26.2610E-03    -13.0617E-03     9.45568E-03
            1923     2.66511E-03     28.0630E-03    -11.6062E+06    -59.1239E+06    -8.48438E+06     328.026E+03    -13.2063E-03     26.2699E-03    -13.0636E-03     6.96310E-03    -13.1664E-03     26.0035E-03    -13.0035E-03     6.96640E-03
            1924     1.77684E-03     28.0571E-03    -12.8761E+06    -61.2683E+06    -11.1409E+06     561.129E+03    -13.0795E-03     26.0915E-03    -13.0119E-03     4.62600E-03    -13.0390E-03     25.8200E-03    -12.9601E-03     4.63263E-03
            1925     888.430E-06     28.0536E-03    -13.7074E+06    -61.0358E+06    -13.4419E+06     468.848E+03    -12.9815E-03     25.9661E-03    -12.9846E-03     2.49125E-03    -12.9420E-03     25.7004E-03    -12.9435E-03     2.49698E-03
            1926     16.8399E-03     27.8022E-03    -3.35976E+06     145.076E+06     37.8172E+06     83.5041E+03    -27.7023E-03     43.0014E-03    -15.2991E-03     215.792E-03    -32.4996E-03     48.1922E-03    -15.3155E-03     219.169E-03
            1927     15.9581E-03     27.6273E-03    -4.31087E+06     80.2551E+06    -13.7344E+06     688.601E+03    -23.8244E-03     38.7347E-03    -14.9103E-03     148.946E-03    -25.3300E-03     40.5499E-03    -15.0891E-03     149.292E-03
            1928     15.0745E-03     27.5211E-03    -2.29330E+06     23.1176E+06    -9.84620E+06     1.31020E+06    -19.7350E-03     34.5455E-03    -14.8105E-03     87.9710E-03    -19.9856E-03     34.8986E-03    -14.8899E-03     87.9439E-03
            1929     14.1890E-03     27.4605E-03    -1.58448E+06    -14.8075E+06    -9.38867E+06     755.836E+03    -18.3316E-03     33.0261E-03    -14.6945E-03     58.9492E-03    -18.3724E-03     33.0359E-03    -14.7177E-03     58.9130E-03
            1930     13.3052E-03     27.4085E-03    -2.35169E+06    -35.6326E+06    -10.5484E+06     473.693E+03    -18.2318E-03     32.7687E-03    -14.5369E-03     54.3335E-03    -18.2164E-03     32.6491E-03    -14.5346E-03     54.3016E-03
            1931     12.4206E-03     27.3561E-03    -2.47777E+06    -37.6717E+06    -1.47735E+06     633.775E+03    -17.7620E-03     32.1519E-03    -14.3899E-03     49.9250E-03    -17.7414E-03     31.9931E-03    -14.3391E-03     49.9053E-03
            1932     11.5357E-03     27.3125E-03    -2.82725E+06    -41.8604E+06    -2.12747E+06     962.660E+03    -17.1764E-03     31.3745E-03    -14.1981E-03     42.8603E-03    -17.1399E-03     31.1856E-03    -14.1440E-03     42.8531E-03
            1933     10.6504E-03     27.2730E-03    -3.08613E+06    -53.1457E+06    -3.95817E+06     1.09013E+06    -16.6962E-03     30.7088E-03    -14.0126E-03     38.0470E-03    -16.6368E-03     30.4613E-03    -13.9508E-03     38.0470E-03
            1934     9.76479E-03     27.2382E-03    -3.29350E+06    -55.5380E+06     2.64832E+03     1.31854E+06    -16.1533E-03     30.0004E-03    -13.8471E-03     33.4754E-03    -16.0940E-03     29.7323E-03    -13.7618E-03     33.4825E-03
            1935     8.87857E-03     27.2073E-03    -3.55836E+06    -54.4577E+06     582.561E+03     1.61731E+06    -15.6217E-03     29.2895E-03    -13.6678E-03     29.1318E-03    -15.5643E-03     29.0245E-03    -13.5808E-03     29.1457E-03
            1936     7.99219E-03     27.1806E-03    -4.13003E+06    -58.5884E+06     2.04788E+06     1.73480E+06    -15.1159E-03     28.6272E-03    -13.5112E-03     24.9488E-03    -15.0564E-03     28.3391E-03    -13.4101E-03     24.9660E-03
            1937     7.10521E-03     27.1577E-03    -5.20845E+06    -57.4183E+06     2.37455E+06     1.45962E+06    -14.6138E-03     27.9694E-03    -13.3556E-03     21.1297E-03    -14.5612E-03     27.6876E-03    -13.2530E-03     21.1447E-03
            1938     6.21799E-03     27.1382E-03    -6.32946E+06    -52.2893E+06     1.10959E+06     929.720E+03    -14.1499E-03     27.3535E-03    -13.2036E-03     17.6861E-03    -14.1081E-03     27.1004E-03    -13.1131E-03     17.6952E-03
            1939     5.33031E-03     27.1220E-03    -7.36751E+06    -55.2591E+06    -19.9969E+03     481.054E+03    -13.7622E-03     26.8445E-03    -13.0823E-03     14.5219E-03    -13.7194E-03     26.5794E-03    -12.9916E-03     14.5259E-03
            1940     4.44243E-03     27.1087E-03    -8.61850E+06    -57.9145E+06    -2.01140E+06     405.211E+03    -13.4321E-03     26.4074E-03    -12.9754E-03     11.6701E-03    -13.3886E-03     26.1336E-03    -12.8889E-03     11.6737E-03
            1941     3.55419E-03     27.0981E-03    -10.0010E+06    -56.0056E+06    -5.43149E+06     525.008E+03    -13.1547E-03     26.0297E-03    -12.8750E-03     9.09930E-03    -13.1158E-03     25.7723E-03    -12.8064E-03     9.10482E-03
            1942     2.66584E-03     27.0900E-03    -11.3293E+06    -59.1304E+06    -8.22513E+06     682.426E+03    -12.9579E-03     25.7623E-03    -12.8045E-03     6.69674E-03    -12.9169E-03     25.4951E-03    -12.7434E-03     6.70466E-03
            1943     1.77728E-03     27.0843E-03    -12.4634E+06    -60.8877E+06    -10.5936E+06     685.294E+03    -12.8196E-03     25.5705E-03    -12.7510E-03     4.43724E-03    -12.7783E-03     25.2996E-03    -12.6976E-03     4.44550E-03
            1944     888.697E-06     27.0808E-03    -13.0520E+06    -60.1171E+06    -12.5219E+06     499.334E+03    -12.7383E-03     25.4427E-03    -12.7044E-03     2.39533E-03    -12.6982E-03     25.1793E-03    -12.6609E-03     2.40147E-03
            1945     16.8405E-03     26.8196E-03    -3.75223E+06     144.851E+06     37.5771E+06     343.723E+03    -28.1549E-03     43.4187E-03    -15.2638E-03     215.561E-03    -32.9360E-03     48.5918E-03    -15.2805E-03     218.875E-03
            1946     15.9581E-03     26.6449E-03    -4.57888E+06     80.0419E+06    -12.8278E+06     244.686E+03    -23.9023E-03     38.7637E-03    -14.8614E-03     146.812E-03    -25.3629E-03     40.5294E-03    -15.0350E-03     147.129E-03
            1947     15.0749E-03     26.5421E-03    -3.97603E+06     22.8723E+06    -11.0724E+06     420.544E+03    -20.0864E-03     34.8182E-03    -14.7318E-03     87.1851E-03    -20.3395E-03     35.1706E-03    -14.8146E-03     87.1444E-03
            1948     14.1915E-03     26.4811E-03    -3.33218E+06    -14.4709E+06    -10.4653E+06     1.06211E+06    -18.6660E-03     33.2539E-03    -14.5879E-03     58.7311E-03    -18.7137E-03     33.2687E-03    -14.6144E-03     58.6980E-03
            1949     13.3069E-03     26.4296E-03    -2.35986E+06    -35.3435E+06    -10.6340E+06     976.654E+03    -18.2926E-03     32.7047E-03    -14.4121E-03     53.7367E-03    -18.2766E-03     32.5857E-03    -14.4106E-03     53.7115E-03
            1950     12.4224E-03     26.3779E-03    -2.48513E+06    -37.9281E+06    -1.78828E+06     969.095E+03    -17.8328E-03     32.0829E-03    -14.2501E-03     49.2065E-03    -17.8107E-03     31.9225E-03    -14.2004E-03     49.1915E-03
            1951     11.5375E-03     26.3347E-03    -2.92988E+06    -42.0252E+06    -2.45283E+06     1.33121E+06    -17.2672E-03     31.3072E-03    -14.0400E-03     42.0315E-03    -17.2302E-03     31.1177E-03    -13.9871E-03     42.0292E-03
            1952     10.6524E-03     26.2960E-03    -3.29149E+06    -52.9061E+06    -4.32794E+06     1.47073E+06    -16.7118E-03     30.5467E-03    -13.8349E-03     37.2315E-03    -16.6529E-03     30.3009E-03    -13.7751E-03     37.2367E-03
            1953     9.76654E-03     26.2617E-03    -3.54340E+06    -55.4274E+06    -104.511E+03     1.15333E+06    -16.1358E-03     29.7895E-03    -13.6537E-03     32.6718E-03    -16.0776E-03     29.5223E-03    -13.5687E-03     32.6770E-03
            1954     8.88057E-03     26.2315E-03    -3.54780E+06    -54.8734E+06     321.025E+03     1.30055E+06    -15.5510E-03     29.0089E-03    -13.4580E-03     28.3201E-03    -15.4924E-03     28.7420E-03    -13.3716E-03     28.3300E-03
            1955     7.99387E-03     26.2054E-03    -3.81767E+06    -58.5104E+06     1.57619E+06     1.86147E+06    -14.9922E-03     28.2780E-03    -13.2858E-03     24.1908E-03    -14.9305E-03     27.9905E-03    -13.1876E-03     24.2098E-03
            1956     7.10695E-03     26.1831E-03    -4.59320E+06    -56.4651E+06     2.90312E+06     1.64482E+06    -14.4696E-03     27.5911E-03    -13.1215E-03     20.4132E-03    -14.4160E-03     27.3124E-03    -13.0185E-03     20.4307E-03
            1957     6.21948E-03     26.1642E-03    -5.58832E+06    -51.4860E+06     1.71313E+06     895.250E+03    -13.9694E-03     26.9283E-03    -12.9589E-03     17.0383E-03    -13.9259E-03     26.6772E-03    -12.8676E-03     17.0470E-03
            1958     5.33172E-03     26.1484E-03    -6.77839E+06    -54.9677E+06     78.6189E+03     544.661E+03    -13.5505E-03     26.3779E-03    -12.8274E-03     13.9688E-03    -13.5052E-03     26.1132E-03    -12.7375E-03     13.9738E-03
            1959     4.44354E-03     26.1356E-03    -8.22545E+06    -57.9966E+06    -2.02625E+06     617.006E+03    -13.2041E-03     25.9178E-03    -12.7137E-03     11.2082E-03    -13.1584E-03     25.6429E-03    -12.6278E-03     11.2146E-03
            1960     3.55519E-03     26.1254E-03    -9.70931E+06    -55.9636E+06    -5.27306E+06     824.478E+03    -12.9135E-03     25.5209E-03    -12.6074E-03     8.72339E-03    -12.8734E-03     25.2629E-03    -12.5385E-03     8.73285E-03
            1961     2.66654E-03     26.1176E-03    -10.9842E+06    -58.8312E+06    -7.71316E+06     823.162E+03    -12.7014E-03     25.2332E-03    -12.5317E-03     6.41223E-03    -12.6599E-03     24.9662E-03    -12.4691E-03     6.42201E-03
            1962     1.77782E-03     26.1120E-03    -11.9278E+06    -60.2770E+06    -10.0248E+06     623.648E+03    -12.5463E-03     25.0198E-03    -12.4735E-03     4.24592E-03    -12.5041E-03     24.7503E-03    -12.4189E-03     4.25343E-03
            1963     888.891E-06     26.1087E-03    -12.6674E+06    -59.3261E+06    -12.1588E+06     332.526E+03    -12.4618E-03     24.8831E-03    -12.4214E-03     2.30277E-03    -12.4214E-03     24.6226E-03    -12.3778E-03     2.30677E-03
            1964     16.8414E-03     25.8347E-03    -3.02690E+06     144.676E+06     37.4718E+06     445.972E+03    -28.5535E-03     43.7814E-03    -15.2279E-03     214.587E-03    -33.2914E-03     48.9134E-03    -15.2459E-03     217.819E-03
            1965     15.9600E-03     25.6651E-03    -3.64901E+06     80.5837E+06    -12.7910E+06     491.710E+03    -23.9441E-03     38.7509E-03    -14.8068E-03     145.112E-03    -25.3660E-03     40.4831E-03    -14.9824E-03     145.417E-03
            1966     15.0760E-03     25.5614E-03    -3.73688E+06     22.5218E+06    -11.5870E+06     302.007E+03    -20.4508E-03     35.1080E-03    -14.6573E-03     86.0265E-03    -20.6963E-03     35.4539E-03    -14.7424E-03     85.9807E-03
            1967     14.1923E-03     25.5016E-03    -3.27756E+06    -15.1861E+06    -10.9296E+06     820.319E+03    -18.9258E-03     33.4144E-03    -14.4886E-03     58.1541E-03    -18.9705E-03     33.4252E-03    -14.5165E-03     58.1172E-03
            1968     13.3085E-03     25.4509E-03    -2.76014E+06    -35.1140E+06    -11.0304E+06     1.31754E+06    -18.5102E-03     32.7994E-03    -14.2892E-03     53.3002E-03    -18.4954E-03     32.6821E-03    -14.2894E-03     53.2793E-03
            1969     12.4241E-03     25.3995E-03    -2.88898E+06    -38.0704E+06    -2.54737E+06     1.36659E+06    -17.9901E-03     32.0929E-03    -14.1028E-03     48.4898E-03    -17.9679E-03     31.9327E-03    -14.0561E-03     48.4802E-03
            1970     11.5395E-03     25.3569E-03    -3.14272E+06    -42.2856E+06    -2.85281E+06     1.66155E+06    -17.3324E-03     31.2059E-03    -13.8735E-03     41.1863E-03    -17.2950E-03     31.0155E-03    -13.8219E-03     41.1886E-03
            1971     10.6542E-03     25.3192E-03    -3.30836E+06    -52.5597E+06    -4.73008E+06     1.77478E+06    -16.7521E-03     30.3999E-03    -13.6478E-03     36.3667E-03    -16.6929E-03     30.1561E-03    -13.5904E-03     36.3761E-03
            1972     9.76870E-03     25.2854E-03    -3.73256E+06    -54.7267E+06    -641.308E+03     1.39489E+06    -16.1070E-03     29.5540E-03    -13.4470E-03     31.8157E-03    -16.0498E-03     29.2911E-03    -13.3654E-03     31.8243E-03
            1973     8.88242E-03     25.2561E-03    -4.70053E+06    -55.3673E+06    -229.306E+03     1.28688E+06    -15.4679E-03     28.7059E-03    -13.2380E-03     27.4524E-03    -15.4135E-03     28.4389E-03    -13.1520E-03     27.4624E-03
            1974     7.99585E-03     25.2306E-03    -5.03387E+06    -58.3248E+06     388.344E+03     1.32293E+06    -14.8661E-03     27.9134E-03    -13.0473E-03     23.3998E-03    -14.8089E-03     27.6302E-03    -12.9535E-03     23.4121E-03
            1975     7.10865E-03     25.2089E-03    -4.60335E+06    -55.6064E+06     1.95722E+06     929.592E+03    -14.2977E-03     27.1674E-03    -12.8696E-03     19.6886E-03    -14.2440E-03     26.8943E-03    -12.7726E-03     19.6970E-03
            1976     6.22114E-03     25.1906E-03    -4.84859E+06    -51.2727E+06     1.78615E+06     952.703E+03    -13.7710E-03     26.4736E-03    -12.7026E-03     16.3705E-03    -13.7242E-03     26.2224E-03    -12.6123E-03     16.3801E-03
            1977     5.33307E-03     25.1754E-03    -6.29397E+06    -54.6506E+06    -131.423E+03     1.12327E+06    -13.3310E-03     25.8929E-03    -12.5619E-03     13.3986E-03    -13.2835E-03     25.6294E-03    -12.4742E-03     13.4111E-03
            1978     4.44480E-03     25.1630E-03    -8.06633E+06    -57.9363E+06    -1.97774E+06     1.03578E+06    -12.9718E-03     25.4142E-03    -12.4424E-03     10.7305E-03    -12.9255E-03     25.1394E-03    -12.3566E-03     10.7423E-03
            1979     3.55615E-03     25.1532E-03    -9.44050E+06    -55.6775E+06    -4.76386E+06     925.719E+03    -12.6623E-03     24.9924E-03    -12.3301E-03     8.33665E-03    -12.6221E-03     24.7348E-03    -12.2595E-03     8.34746E-03
            1980     2.66735E-03     25.1456E-03    -10.4304E+06    -58.3918E+06    -7.26259E+06     778.581E+03    -12.4319E-03     24.6792E-03    -12.2473E-03     6.12207E-03    -12.3890E-03     24.4130E-03    -12.1838E-03     6.13132E-03
            1981     1.77830E-03     25.1403E-03    -11.4583E+06    -59.6964E+06    -9.74647E+06     670.285E+03    -12.2677E-03     24.4504E-03    -12.1827E-03     4.05028E-03    -12.2243E-03     24.1827E-03    -12.1283E-03     4.05841E-03
            1982     889.224E-06     25.1370E-03    -12.1564E+06    -58.5616E+06    -11.8635E+06     425.355E+03    -12.1614E-03     24.2966E-03    -12.1352E-03     2.19812E-03    -12.1200E-03     24.0387E-03    -12.0920E-03     2.20333E-03
            1983     16.8423E-03     24.8535E-03    -3.11056E+06     144.535E+06     38.3712E+06    -157.326E+03    -29.2633E-03     44.4656E-03    -15.2024E-03     213.163E-03    -33.9588E-03     49.5520E-03    -15.2156E-03     216.295E-03
            1984     15.9589E-03     24.6821E-03    -2.61521E+06     81.0948E+06    -11.5242E+06     164.795E+03    -24.2343E-03     38.9789E-03    -14.7447E-03     142.390E-03    -25.6104E-03     40.6672E-03    -14.9161E-03     142.659E-03
            1985     15.0779E-03     24.5815E-03    -2.32278E+06     22.0718E+06    -11.2137E+06     1.18342E+06    -20.3182E-03     34.8955E-03    -14.5773E-03     85.0160E-03    -20.5474E-03     35.2272E-03    -14.6620E-03     84.9818E-03
            1986     14.1940E-03     24.5223E-03    -3.31008E+06    -15.9794E+06    -11.3404E+06     1.23140E+06    -19.1987E-03     33.5948E-03    -14.3961E-03     57.8197E-03    -19.2408E-03     33.6013E-03    -14.4248E-03     57.7874E-03
            1987     13.3099E-03     24.4715E-03    -2.93370E+06    -35.0339E+06    -11.4268E+06     1.39311E+06    -18.8956E-03     33.0621E-03    -14.1665E-03     52.4316E-03    -18.8803E-03     32.9452E-03    -14.1686E-03     52.4111E-03
            1988     12.4262E-03     24.4211E-03    -2.68244E+06    -38.3361E+06    -2.73697E+06     1.78836E+06    -18.1548E-03     32.1064E-03    -13.9516E-03     47.4833E-03    -18.1302E-03     31.9441E-03    -13.9058E-03     47.4794E-03
            1989     11.5413E-03     24.3794E-03    -2.97157E+06    -42.2335E+06    -3.14337E+06     1.89082E+06    -17.4124E-03     31.1114E-03    -13.6990E-03     40.2909E-03    -17.3734E-03     30.9210E-03    -13.6491E-03     40.2965E-03
            1990     10.6564E-03     24.3422E-03    -3.02842E+06    -52.3641E+06    -4.91077E+06     1.93545E+06    -16.7882E-03     30.2410E-03    -13.4528E-03     35.3856E-03    -16.7273E-03     29.9977E-03    -13.3971E-03     35.3974E-03
            1991     9.77064E-03     24.3095E-03    -3.58601E+06    -54.3814E+06    -1.03680E+06     2.18886E+06    -16.0631E-03     29.2956E-03    -13.2324E-03     30.8664E-03    -16.0049E-03     29.0346E-03    -13.1536E-03     30.8855E-03
            1992     8.88452E-03     24.2807E-03    -4.65508E+06    -54.8256E+06    -171.403E+03     1.95991E+06    -15.3834E-03     28.3929E-03    -13.0095E-03     26.5519E-03    -15.3294E-03     28.1283E-03    -12.9241E-03     26.5708E-03
            1993     7.99776E-03     24.2562E-03    -5.63000E+06    -57.3433E+06    -32.6804E+03     869.731E+03    -14.7305E-03     27.5327E-03    -12.8022E-03     22.5529E-03    -14.6770E-03     27.2558E-03    -12.7111E-03     22.5596E-03
            1994     7.11053E-03     24.2351E-03    -6.21267E+06    -55.0385E+06    -692.502E+03    -18.1391E+03    -14.1005E-03     26.7050E-03    -12.6045E-03     18.9588E-03    -14.0518E-03     26.4409E-03    -12.5192E-03     18.9552E-03
            1995     6.22270E-03     24.2175E-03    -6.25924E+06    -52.2314E+06    -219.710E+03     369.626E+03    -13.5609E-03     25.9950E-03    -12.4340E-03     15.7032E-03    -13.5168E-03     25.7438E-03    -12.3503E-03     15.7055E-03
            1996     5.33458E-03     24.2028E-03    -6.46870E+06    -54.6017E+06    -150.132E+03     1.38877E+06    -13.1107E-03     25.4017E-03    -12.2911E-03     12.8065E-03    -13.0640E-03     25.1387E-03    -12.2033E-03     12.8225E-03
            1997     4.44600E-03     24.1910E-03    -7.44336E+06    -57.2482E+06    -1.30221E+06     1.30675E+06    -12.7259E-03     24.8908E-03    -12.1649E-03     10.2391E-03    -12.6784E-03     24.6174E-03    -12.0776E-03     10.2545E-03
            1998     3.55722E-03     24.1814E-03    -8.68360E+06    -55.3427E+06    -4.28255E+06     933.467E+03    -12.3999E-03     24.4456E-03    -12.0458E-03     7.94867E-03    -12.3570E-03     24.1879E-03    -11.9743E-03     7.95965E-03
            1999     2.66809E-03     24.1743E-03    -9.97816E+06    -57.9920E+06    -7.17889E+06     959.828E+03    -12.1548E-03     24.1114E-03    -11.9566E-03     5.82801E-03    -12.1103E-03     23.8464E-03    -11.8939E-03     5.83964E-03
            2000     1.77887E-03     24.1691E-03    -11.0543E+06    -59.0747E+06     -9.5957E+06     842.813E+03    -11.9802E-03     23.8689E-03    -11.8888E-03     3.86730E-03    -11.9359E-03     23.6035E-03    -11.8350E-03     3.87768E-03
            2001     889.432E-06     24.1661E-03    -11.6921E+06    -57.5852E+06    -11.5149E+06     604.387E+03    -11.8704E-03     23.7076E-03    -11.8372E-03     2.07489E-03    -11.8286E-03     23.4534E-03    -11.7943E-03     2.08243E-03
            2002     16.8410E-03     23.8641E-03    -1.91152E+06     144.778E+06     38.3125E+06    -519.457E+03    -29.7598E-03     44.9290E-03    -15.1692E-03     211.955E-03    -34.4186E-03     49.9839E-03    -15.1848E-03     214.988E-03
            2003     15.9646E-03     23.7027E-03    -3.79849E+06     79.5996E+06    -12.8484E+06     795.215E+03    -24.2520E-03     38.9423E-03    -14.6904E-03     140.154E-03    -25.5731E-03     40.5699E-03    -14.8645E-03     140.414E-03
            2004     15.0776E-03     23.6018E-03    -4.78878E+06     21.3009E+06    -12.8613E+06     1.80150E+06    -20.6436E-03     35.1480E-03    -14.5044E-03     85.1905E-03    -20.8791E-03     35.4794E-03    -14.5926E-03     85.1633E-03
            2005     14.1946E-03     23.5419E-03    -3.41704E+06    -14.9697E+06    -11.2039E+06     1.36107E+06    -19.7739E-03     34.0667E-03    -14.2928E-03     56.8741E-03    -19.8170E-03     34.0770E-03    -14.3222E-03     56.8418E-03
            2006     13.3121E-03     23.4920E-03    -3.02045E+06    -35.4719E+06    -11.6275E+06     1.26494E+06    -19.1122E-03     33.1409E-03    -14.0287E-03     51.0378E-03    -19.0952E-03     33.0210E-03    -14.0311E-03     51.0157E-03
            2007     12.4279E-03     23.4430E-03    -2.48395E+06    -38.5668E+06    -2.77672E+06     1.73361E+06    -18.2727E-03     32.0628E-03    -13.7901E-03     46.3598E-03    -18.2459E-03     31.8983E-03    -13.7444E-03     46.3555E-03
            2008     11.5436E-03     23.4018E-03    -2.22228E+06    -41.9836E+06    -2.74257E+06     1.97545E+06    -17.4981E-03     31.0144E-03    -13.5163E-03     39.2531E-03    -17.4558E-03     30.8232E-03    -13.4659E-03     39.2601E-03
            2009     10.6584E-03     23.3656E-03    -2.18404E+06    -52.4416E+06    -4.08258E+06     2.14461E+06    -16.7761E-03     30.0291E-03    -13.2531E-03     34.3241E-03    -16.7117E-03     29.7827E-03    -13.1943E-03     34.3389E-03
            2010     9.77291E-03     23.3337E-03    -2.07334E+06    -54.5902E+06    -211.638E+03     2.51693E+06    -16.0161E-03     29.0312E-03    -13.0151E-03     29.8437E-03    -15.9510E-03     28.7656E-03    -12.9340E-03     29.8673E-03
            2011     8.88657E-03     23.3059E-03    -2.12053E+06    -53.6178E+06     366.488E+03     2.37588E+06    -15.2765E-03     28.0489E-03    -12.7725E-03     25.6203E-03    -15.2122E-03     27.7858E-03    -12.6898E-03     25.6448E-03
            2012     7.99978E-03     23.2820E-03    -3.11919E+06    -56.1922E+06     1.69303E+06     1.76030E+06    -14.5833E-03     27.1425E-03    -12.5592E-03     21.6556E-03    -14.5214E-03     26.8651E-03    -12.4647E-03     21.6738E-03
            2013     7.11231E-03     23.2619E-03    -5.29302E+06    -53.9415E+06     194.327E+03     798.867E+03    -13.9228E-03     26.2714E-03    -12.3487E-03     18.1526E-03    -13.8722E-03     26.0101E-03    -12.2618E-03     18.1597E-03
            2014     6.22442E-03     23.2448E-03    -7.27782E+06    -52.9156E+06    -1.31847E+06     53.1287E+03    -13.3475E-03     25.5115E-03    -12.1639E-03     15.0241E-03    -13.3059E-03     25.2599E-03    -12.0833E-03     15.0223E-03
            2015     5.33602E-03     23.2308E-03    -7.93084E+06    -55.3135E+06    -1.62195E+06     515.830E+03    -12.8707E-03     24.8825E-03    -12.0118E-03     12.2283E-03    -12.8282E-03     24.6202E-03    -11.9282E-03     12.2332E-03
            2016     4.44732E-03     23.2193E-03    -8.07146E+06    -56.4922E+06    -2.72918E+06     986.236E+03    -12.4636E-03     24.3402E-03    -11.8766E-03     9.76891E-03    -12.4183E-03     24.0736E-03    -11.7966E-03     9.78026E-03
            2017     3.55818E-03     23.2103E-03    -8.92102E+06    -55.3758E+06    -4.93412E+06     1.16821E+06    -12.1276E-03     23.8854E-03    -11.7578E-03     7.56436E-03    -12.0849E-03     23.6288E-03    -11.6892E-03     7.57843E-03
            2018     2.66890E-03     23.2033E-03    -10.0555E+06    -57.2490E+06    -7.14690E+06     1.17519E+06    -11.8750E-03     23.5419E-03    -11.6669E-03     5.53121E-03    -11.8320E-03     23.2807E-03    -11.6050E-03     5.54566E-03
            2019     1.77934E-03     23.1986E-03    -10.9600E+06    -58.4128E+06    -9.15053E+06     815.818E+03    -11.6910E-03     23.2890E-03    -11.5981E-03     3.67015E-03    -11.6478E-03     23.0262E-03    -11.5432E-03     3.68022E-03
            2020     889.736E-06     23.1954E-03    -11.3346E+06    -56.5282E+06    -10.8328E+06     485.529E+03    -11.5747E-03     23.1223E-03    -11.5476E-03     1.96219E-03    -11.5336E-03     22.8719E-03    -11.5034E-03     1.96821E-03
            2021     16.8448E-03     22.8791E-03    -3.16590E+06     142.527E+06     34.9022E+06     555.559E+03    -29.3348E-03     44.4809E-03    -15.1461E-03     210.932E-03    -33.9164E-03     49.4562E-03    -15.1736E-03     213.916E-03
            2022     15.9583E-03     22.7212E-03    -5.80095E+06     78.8132E+06    -14.9653E+06     1.62302E+06    -24.6849E-03     39.3527E-03    -14.6678E-03     138.648E-03    -25.9787E-03     40.9491E-03    -14.8485E-03     138.913E-03
            2023     15.0796E-03     22.6206E-03    -5.57761E+06     23.6231E+06    -12.3995E+06     967.386E+03    -22.0927E-03     36.5193E-03    -14.4266E-03     83.4181E-03    -22.3396E-03     36.8663E-03    -14.5148E-03     83.3690E-03
            2024     14.1978E-03     22.5610E-03    -4.55790E+06    -14.8659E+06    -11.9879E+06     452.969E+03    -19.9480E-03     34.1023E-03    -14.1543E-03     55.2145E-03    -19.9930E-03     34.1132E-03    -14.1861E-03     55.1706E-03
            2025     13.3139E-03     22.5132E-03    -3.22607E+06    -35.9665E+06    -12.3296E+06     930.664E+03    -19.1135E-03     32.9863E-03    -13.8728E-03     49.9535E-03    -19.0944E-03     32.8639E-03    -13.8777E-03     49.9278E-03
            2026     12.4303E-03     22.4643E-03    -2.55610E+06     -38.946E+06    -3.23286E+06     1.35046E+06    -18.3984E-03     32.0160E-03    -13.6176E-03     45.2707E-03    -18.3701E-03     31.8497E-03    -13.5736E-03     45.2617E-03
            2027     11.5458E-03     22.4245E-03    -2.18758E+06    -41.9928E+06    -2.79050E+06     1.78635E+06    -17.5143E-03     30.8393E-03    -13.3250E-03     38.1906E-03    -17.4711E-03     30.6475E-03    -13.2749E-03     38.1957E-03
            2028     10.6608E-03     22.3891E-03    -1.77534E+06    -52.4971E+06    -3.99892E+06     2.07823E+06    -16.7530E-03     29.7979E-03    -13.0449E-03     33.3074E-03    -16.6863E-03     29.5502E-03    -12.9862E-03     33.3217E-03
            2029     9.77504E-03     22.3582E-03    -1.42296E+06    -54.5362E+06    -92.9905E+03     2.13579E+06    -15.9463E-03     28.7370E-03    -12.7907E-03     28.8284E-03    -15.8780E-03     28.4703E-03    -12.7100E-03     28.8473E-03
            2030     8.88876E-03     22.3313E-03    -1.13422E+06    -53.1292E+06     458.165E+03     2.15682E+06    -15.1513E-03     27.6846E-03    -12.5333E-03     24.6541E-03    -15.0829E-03     27.4222E-03    -12.4523E-03     24.6760E-03
            2031     8.00170E-03     22.3084E-03    -1.11092E+06    -55.7326E+06     2.97775E+06     2.40368E+06    -14.4248E-03     26.7382E-03    -12.3134E-03     20.7449E-03    -14.3553E-03     26.4582E-03    -12.2160E-03     20.7717E-03
            2032     7.11422E-03     22.2889E-03    -1.99673E+06    -52.7804E+06     3.82079E+06     2.36523E+06    -13.7471E-03     25.8486E-03    -12.1015E-03     17.3046E-03    -13.6870E-03     25.5829E-03    -12.0030E-03     17.3320E-03
            2033     6.22608E-03     22.2727E-03    -4.08240E+06    -51.8133E+06     1.16227E+06     1.39195E+06    -13.1355E-03     25.0381E-03    -11.9026E-03     14.3132E-03    -13.0830E-03     24.7838E-03    -11.8158E-03     14.3289E-03
            2034     5.33752E-03     22.2592E-03    -6.22190E+06    -55.5761E+06    -1.54399E+06     342.074E+03    -12.6277E-03     24.3647E-03    -11.7370E-03     11.6496E-03    -12.5764E-03     24.0984E-03    -11.6551E-03     11.6523E-03
            2035     4.44848E-03     22.2484E-03    -7.56200E+06    -56.9011E+06    -3.21587E+06     740.073E+03    -12.2075E-03     23.8044E-03    -11.5969E-03     9.29283E-03    -12.1584E-03     23.5357E-03    -11.5195E-03     9.30108E-03
            2036     3.55924E-03     22.2396E-03    -8.48163E+06    -55.2008E+06    -4.86182E+06     1.28943E+06    -11.8580E-03     23.3349E-03    -11.4769E-03     7.18246E-03    -11.8134E-03     23.0783E-03    -11.4088E-03     7.19815E-03
            2037     2.66961E-03     22.2331E-03    -9.39725E+06    -56.4912E+06    -6.29332E+06     1.16914E+06    -11.5991E-03     22.9855E-03    -11.3863E-03     5.25379E-03    -11.5551E-03     22.7258E-03    -11.3223E-03     5.26821E-03
            2038     1.77992E-03     22.2284E-03    -10.4430E+06    -57.4537E+06    -8.30025E+06     757.372E+03    -11.4093E-03     22.7247E-03    -11.3154E-03     3.47426E-03    -11.3662E-03     22.4646E-03    -11.2585E-03     3.48360E-03
            2039     889.956E-06     22.2258E-03    -11.3608E+06    -55.7597E+06    -10.7022E+06     251.253E+03    -11.2887E-03     22.5491E-03    -11.2604E-03     1.88976E-03    -11.2490E-03     22.3024E-03    -11.2166E-03     1.89277E-03
            2040     16.8410E-03     21.9002E-03    -4.59476E+06     141.681E+06     35.0858E+06     1.33862E+06    -29.9946E-03     45.1380E-03    -15.1434E-03     207.824E-03    -34.4622E-03     49.9906E-03    -15.1667E-03     210.721E-03
            2041     15.9629E-03     21.7361E-03    -5.62751E+06     80.1472E+06    -13.0854E+06     881.513E+03    -25.7624E-03     40.3711E-03    -14.6087E-03     136.335E-03    -27.0304E-03     41.9417E-03    -14.7822E-03     136.546E-03
            2042     15.0821E-03     21.6373E-03    -3.65439E+06     24.6024E+06    -12.0765E+06     557.432E+03    -22.3566E-03     36.6651E-03    -14.3086E-03     80.6607E-03    -22.5883E-03     37.0063E-03    -14.3993E-03     80.6033E-03
            2043     14.1992E-03     21.5824E-03    -3.49833E+06    -15.0106E+06    -12.0807E+06     636.427E+03    -19.9663E-03     33.9836E-03    -14.0173E-03     54.3523E-03    -20.0030E-03     33.9897E-03    -14.0509E-03     54.3116E-03
            2044     13.3159E-03     21.5332E-03    -2.97697E+06    -36.5117E+06    -12.9204E+06     630.524E+03    -19.2537E-03     32.9736E-03    -13.7199E-03     49.4245E-03    -19.2307E-03     32.8479E-03    -13.7272E-03     49.3953E-03
            2045     12.4325E-03     21.4864E-03    -2.32601E+06    -39.5238E+06    -3.97458E+06     1.16405E+06    -18.5025E-03     31.9459E-03    -13.4434E-03     44.1361E-03    -18.4702E-03     31.7766E-03    -13.4026E-03     44.1252E-03
            2046     11.5480E-03     21.4471E-03    -2.17099E+06    -42.0684E+06    -3.58770E+06     1.57958E+06    -17.5372E-03     30.6679E-03    -13.1308E-03     37.1921E-03    -17.4921E-03     30.4763E-03    -13.0846E-03     37.1950E-03
            2047     10.6629E-03     21.4129E-03    -1.83067E+06    -52.6084E+06    -4.37214E+06     1.78884E+06    -16.7346E-03     29.5702E-03    -12.8355E-03     32.2503E-03    -16.6672E-03     29.3222E-03    -12.7785E-03     32.2613E-03
            2048     9.77731E-03     21.3829E-03    -1.66545E+06    -54.1716E+06     216.909E+03     1.91740E+06    -15.8622E-03     28.4309E-03    -12.5686E-03     27.7654E-03    -15.7959E-03     28.1657E-03    -12.4866E-03     27.7818E-03
            2049     8.89082E-03     21.3571E-03    -2.02205E+06    -53.3268E+06     186.391E+03     2.06716E+06    -15.0156E-03     27.3127E-03    -12.2971E-03     23.6564E-03    -14.9508E-03     27.0509E-03    -12.2159E-03     23.6773E-03
            2050     8.00380E-03     21.3350E-03    -2.56516E+06    -55.5369E+06     1.24040E+06     2.30688E+06    -14.2403E-03     26.3004E-03    -12.0601E-03     19.8755E-03    -14.1757E-03     26.0260E-03    -11.9697E-03     19.9012E-03
            2051     7.11600E-03     21.3165E-03    -2.67913E+06    -52.2331E+06     2.82922E+06     2.25877E+06    -13.5335E-03     25.3766E-03    -11.8431E-03     16.5391E-03    -13.4761E-03     25.1160E-03    -11.7493E-03     16.5653E-03
            2052     6.22774E-03     21.3009E-03    -2.46766E+06    -50.4079E+06     2.61639E+06     2.01026E+06    -12.9159E-03     24.5617E-03    -11.6458E-03     13.6238E-03    -12.8594E-03     24.3100E-03    -11.5561E-03     13.6476E-03
            2053     5.33891E-03     21.2882E-03    -3.49915E+06    -55.0251E+06     772.470E+03     1.66118E+06    -12.3971E-03     23.8760E-03    -11.4789E-03     11.0616E-03    -12.3363E-03     23.6051E-03    -11.3901E-03     11.0814E-03
            2054     4.44977E-03     21.2777E-03    -5.71378E+06    -57.3803E+06    -1.68855E+06     1.61108E+06    -11.9581E-03     23.2920E-03    -11.3339E-03     8.80890E-03    -11.9012E-03     23.0160E-03    -11.2508E-03     8.82846E-03
            2055     3.56016E-03     21.2696E-03    -7.50143E+06    -54.5217E+06    -4.44433E+06     1.53663E+06    -11.5924E-03     22.7986E-03    -11.2062E-03     6.81495E-03    -11.5446E-03     22.5434E-03    -11.1385E-03     6.83389E-03
            2056     2.67039E-03     21.2633E-03    -8.57959E+06    -55.8350E+06    -6.18763E+06     1.18267E+06    -11.3256E-03     22.4406E-03    -11.1150E-03     4.99163E-03    -11.2786E-03     22.1829E-03    -11.0526E-03     5.00626E-03
            2057     1.78033E-03     21.2590E-03    -9.38131E+06    -56.3490E+06    -7.95323E+06     826.190E+03    -11.1420E-03     22.1878E-03    -11.0459E-03     3.29675E-03    -11.0956E-03     21.9312E-03    -10.9903E-03     3.30701E-03
            2058     890.225E-06     21.2563E-03    -9.98785E+06    -55.1095E+06    -9.74414E+06     350.825E+03    -11.0435E-03     22.0202E-03    -10.9767E-03     1.79036E-03    -10.9994E-03     21.7733E-03    -10.9310E-03     1.79467E-03
            2059     16.8440E-03     20.9122E-03    -3.05133E+06     142.868E+06     38.8524E+06     905.672E+03    -31.2435E-03     46.3679E-03    -15.1244E-03     205.597E-03    -35.6153E-03     51.1234E-03    -15.1329E-03     208.367E-03
            2060     15.9649E-03     20.7528E-03    -2.51188E+06     79.8583E+06    -11.7699E+06     1.37699E+06    -26.2598E-03     40.7827E-03    -14.5230E-03     135.590E-03    -27.4828E-03     42.3146E-03    -14.6940E-03     135.779E-03
            2061     15.0827E-03     20.6561E-03    -2.84063E+06     23.2952E+06    -12.0657E+06     1.29427E+06    -22.1710E-03     36.3774E-03    -14.2065E-03     79.4910E-03    -22.3868E-03     36.7009E-03    -14.2965E-03     79.4445E-03
            2062     14.2007E-03     20.6020E-03    -2.29835E+06    -13.9800E+06    -11.2031E+06     1.02026E+06    -20.3189E-03     34.2207E-03    -13.9018E-03     52.9570E-03    -20.3503E-03     34.2269E-03    -13.9342E-03     52.9207E-03
            2063     13.3180E-03     20.5541E-03    -1.83238E+06    -36.8118E+06    -12.8282E+06     780.380E+03    -19.4905E-03     33.0639E-03    -13.5735E-03     48.4118E-03    -19.4602E-03     32.9337E-03    -13.5816E-03     48.3847E-03
            2064     12.4344E-03     20.5079E-03    -1.62230E+06    -40.1141E+06    -4.18806E+06     1.08725E+06    -18.5702E-03     31.8443E-03    -13.2741E-03     42.8927E-03    -18.5323E-03     31.6704E-03    -13.2345E-03     42.8813E-03
            2065     11.5502E-03     20.4702E-03    -1.44542E+06    -42.2706E+06    -3.64900E+06     1.60671E+06    -17.5950E-03     30.5374E-03    -12.9424E-03     36.0213E-03    -17.5455E-03     30.3433E-03    -12.8972E-03     36.0249E-03
            2066     10.6652E-03     20.4367E-03    -1.51599E+06    -52.6286E+06    -4.47206E+06     1.91226E+06    -16.6918E-03     29.3216E-03    -12.6298E-03     31.1381E-03    -16.6222E-03     29.0728E-03    -12.5737E-03     31.1510E-03
            2067     9.77943E-03     20.4081E-03    -1.95005E+06    -54.2366E+06    -30.6657E+03     2.18528E+06    -15.7625E-03     28.1121E-03    -12.3496E-03     26.6805E-03    -15.6968E-03     27.8471E-03    -12.2683E-03     26.7007E-03
            2068     8.89295E-03     20.3831E-03    -2.88590E+06    -53.5165E+06    -498.203E+03     2.74928E+06    -14.8655E-03     26.9317E-03    -12.0662E-03     22.6631E-03    -14.8036E-03     26.6710E-03    -11.9869E-03     22.6931E-03
            2069     8.00562E-03     20.3622E-03    -3.66878E+06    -54.4534E+06     329.373E+03     2.27640E+06    -14.0489E-03     25.8675E-03    -11.8186E-03     18.9926E-03    -13.9900E-03     25.6013E-03    -11.7326E-03     19.0181E-03
            2070     7.11775E-03     20.3443E-03    -3.54055E+06    -51.4084E+06     1.33131E+06     1.00200E+06    -13.3141E-03     24.9074E-03    -11.5933E-03     15.7816E-03    -13.2599E-03     24.6543E-03    -11.5069E-03     15.7917E-03
            2071     6.22923E-03     20.3297E-03    -3.33753E+06    -50.9138E+06     1.68780E+06     1.32698E+06    -12.6875E-03     24.0846E-03    -11.3970E-03     12.9630E-03    -12.6333E-03     23.8329E-03    -11.3099E-03     12.9780E-03
            2072     5.34030E-03     20.3175E-03    -4.01264E+06    -54.8711E+06     1.07396E+06     2.63034E+06    -12.1611E-03     23.3925E-03    -11.2314E-03     10.4966E-03    -12.1035E-03     23.1227E-03    -11.1406E-03     10.5290E-03
            2073     4.45083E-03     20.3078E-03    -5.35223E+06    -56.6812E+06    -978.697E+03     2.75311E+06    -11.7143E-03     22.7980E-03    -11.0837E-03     8.35279E-03    -11.6576E-03     22.5239E-03    -10.9986E-03     8.38717E-03
            2074     3.56112E-03     20.2999E-03    -6.73070E+06    -53.4613E+06    -4.09803E+06     2.13699E+06    -11.3422E-03     22.2939E-03    -10.9517E-03     6.45669E-03    -11.2925E-03     22.0424E-03    -10.8849E-03     6.48344E-03
            2075     2.67102E-03     20.2941E-03    -7.84598E+06    -54.8011E+06    -6.47869E+06     1.49655E+06    -11.0718E-03     21.9293E-03    -10.8574E-03     4.72155E-03    -11.0223E-03     21.6761E-03    -10.7990E-03     4.74028E-03
            2076     1.78081E-03     20.2899E-03    -8.56727E+06    -55.3270E+06    -7.85887E+06     851.652E+03    -10.8926E-03     21.6825E-03    -10.7899E-03     3.12201E-03    -10.8438E-03     21.4297E-03    -10.7365E-03     3.13262E-03
            2077     890.438E-06     20.2875E-03    -8.58101E+06    -54.3410E+06    -8.56278E+06     320.639E+03    -10.7815E-03     21.5184E-03    -10.7368E-03     1.67506E-03    -10.7332E-03     21.2716E-03    -10.6884E-03     1.67900E-03
            2078     16.8436E-03     19.9257E-03    -3.59412E+06     141.363E+06     37.9381E+06     485.340E+03    -31.5580E-03     46.6418E-03    -15.0838E-03     203.843E-03    -35.8205E-03     51.2834E-03    -15.0939E-03     206.489E-03
            2079     15.9639E-03     19.7687E-03    -3.85353E+06     78.7177E+06    -13.1415E+06     1.10056E+06    -26.4266E-03     40.8855E-03    -14.4590E-03     132.879E-03    -27.6174E-03     42.3804E-03    -14.6332E-03     133.055E-03
            2080     15.0844E-03     19.6740E-03    -2.95477E+06     24.4325E+06    -11.1360E+06     1.35024E+06    -22.6309E-03     36.7504E-03    -14.1194E-03     76.9799E-03    -22.8404E-03     37.0684E-03    -14.2063E-03     76.9306E-03
            2081     14.2027E-03     19.6214E-03    -2.73104E+06    -13.4428E+06    -10.9398E+06     960.023E+03    -20.5496E-03     34.3310E-03    -13.7814E-03     51.5012E-03    -20.5818E-03     34.3376E-03    -13.8127E-03     51.4640E-03
            2082     13.3199E-03     19.5747E-03    -1.78892E+06    -36.8273E+06    -12.8056E+06     741.499E+03    -19.6874E-03     33.1149E-03    -13.4275E-03     47.2258E-03    -19.6558E-03     32.9835E-03    -13.4356E-03     47.1984E-03
            2083     12.4366E-03     19.5298E-03    -1.17043E+06    -40.6618E+06    -3.96371E+06     1.18009E+06    -18.6534E-03     31.7606E-03    -13.1072E-03     41.5927E-03    -18.6118E-03     31.5821E-03    -13.0664E-03     41.5831E-03
            2084     11.5524E-03     19.4931E-03    -990.518E+03    -42.5444E+06    -3.26065E+06     1.67886E+06    -17.5791E-03     30.3380E-03    -12.7589E-03     34.7781E-03    -17.5269E-03     30.1407E-03    -12.7121E-03     34.7831E-03
            2085     10.6673E-03     19.4611E-03    -455.015E+03    -52.4882E+06    -4.10558E+06     1.81320E+06    -16.6321E-03     29.0633E-03    -12.4312E-03     29.9893E-03    -16.5577E-03     28.8128E-03    -12.3749E-03     30.0014E-03
            2086     9.78149E-03     19.4333E-03    -247.326E+03    -55.2940E+06     1.55918E+06     2.75040E+06    -15.6527E-03     27.7994E-03    -12.1467E-03     25.5330E-03    -15.5791E-03     27.5242E-03    -12.0584E-03     25.5608E-03
            2087     8.89481E-03     19.4098E-03    -734.710E+03    -53.1164E+06     2.23679E+06     3.38568E+06    -14.7192E-03     26.5767E-03    -11.8575E-03     21.6016E-03    -14.6509E-03     26.3108E-03    -11.7683E-03     21.6401E-03
            2088     8.00750E-03     19.3895E-03    -775.780E+03    -51.9926E+06     2.92449E+06     1.86826E+06    -13.8680E-03     25.4667E-03    -11.5987E-03     18.0693E-03    -13.8019E-03     25.2048E-03    -11.5076E-03     18.0897E-03
            2089     7.11939E-03     19.3729E-03    -1.12128E+06    -50.9186E+06     2.57905E+06     698.698E+03    -13.1089E-03     24.4753E-03    -11.3664E-03     14.9837E-03    -13.0451E-03     24.2193E-03    -11.2781E-03     14.9900E-03
            2090     6.23071E-03     19.3588E-03    -2.38111E+06    -52.4669E+06     1.30527E+06     1.59673E+06    -12.4625E-03     23.6282E-03    -11.1658E-03     12.2945E-03    -12.4006E-03     23.3679E-03    -11.0797E-03     12.3131E-03
            2091     5.34147E-03     19.3474E-03    -3.55154E+06    -55.2544E+06     1.04493E+06     2.83360E+06    -11.9335E-03     22.9340E-03    -11.0005E-03     9.93787E-03    -11.8730E-03     22.6617E-03    -10.9100E-03     9.97298E-03
            2092     4.45191E-03     19.3381E-03    -4.37674E+06    -55.4829E+06    -40.7334E+03     3.09503E+06    -11.4882E-03     22.3420E-03    -10.8538E-03     7.89240E-03    -11.4297E-03     22.0711E-03    -10.7672E-03     7.93126E-03
            2093     3.56191E-03     19.3309E-03    -5.33668E+06    -52.2598E+06    -2.82105E+06     2.72772E+06    -11.1168E-03     21.8386E-03    -10.7218E-03     6.09999E-03    -11.0637E-03     21.5892E-03    -10.6524E-03     6.13441E-03
            2094     2.67169E-03     19.3253E-03     -6.3818E+06    -53.2474E+06    -4.94229E+06     2.07354E+06    -10.8494E-03     21.4753E-03    -10.6260E-03     4.46391E-03    -10.7970E-03     21.2255E-03    -10.5642E-03     4.49013E-03
            2095     1.78123E-03     19.3214E-03    -7.27257E+06    -53.9720E+06    -6.55187E+06     1.11583E+06    -10.6552E-03     21.2124E-03    -10.5572E-03     2.95996E-03    -10.6038E-03     20.9626E-03    -10.5012E-03     2.97400E-03
            2096     890.656E-06     19.3190E-03    -7.87047E+06    -53.5834E+06    -7.94689E+06     354.872E+03    -10.5339E-03     21.0522E-03    -10.5183E-03     1.57124E-03    -10.4840E-03     20.8074E-03    -10.4689E-03     1.57563E-03
            2097     16.8451E-03     18.9406E-03    -3.19677E+06     141.328E+06     38.9984E+06     731.562E+03    -32.4670E-03     47.4935E-03    -15.0264E-03     199.857E-03    -36.5670E-03     51.9709E-03    -15.0317E-03     202.312E-03
            2098     15.9668E-03     18.7833E-03    -4.57424E+06     78.1097E+06    -12.9082E+06     282.717E+03    -26.5305E-03     40.8859E-03    -14.3554E-03     128.995E-03    -27.6785E-03     42.3325E-03    -14.5266E-03     129.134E-03
            2099     15.0863E-03     18.6921E-03    -3.33382E+06     24.2588E+06    -11.9920E+06     924.530E+03    -22.3919E-03     36.3896E-03    -13.9978E-03     74.4689E-03    -22.5890E-03     36.6959E-03    -14.0881E-03     74.4160E-03
            2100     14.2042E-03     18.6410E-03    -2.78734E+06    -12.2566E+06    -10.2472E+06     935.229E+03    -20.6365E-03     34.2945E-03    -13.6580E-03     50.3101E-03    -20.6691E-03     34.3035E-03    -13.6874E-03     50.2732E-03
            2101     13.3218E-03     18.5950E-03    -2.51830E+06    -36.8109E+06    -12.8305E+06     580.045E+03    -19.8453E-03     33.1298E-03    -13.2845E-03     45.8746E-03    -19.8161E-03     32.9982E-03    -13.2916E-03     45.8453E-03
            2102     12.4387E-03     18.5517E-03    -1.89344E+06    -41.3131E+06    -4.42343E+06     1.07250E+06    -18.6821E-03     31.6260E-03    -12.9439E-03     40.2499E-03    -18.6415E-03     31.4450E-03    -12.9034E-03     40.2395E-03
            2103     11.5544E-03     18.5164E-03    -1.42107E+06    -42.4276E+06    -3.00915E+06     1.37759E+06    -17.5373E-03     30.1210E-03    -12.5837E-03     33.6260E-03    -17.4872E-03     29.9240E-03    -12.5352E-03     33.6278E-03
            2104     10.6694E-03     18.4853E-03    -1.05983E+06    -52.7460E+06    -3.80054E+06     1.60081E+06    -16.5559E-03     28.8014E-03    -12.2455E-03     28.8134E-03    -16.4842E-03     28.5497E-03    -12.1865E-03     28.8233E-03
            2105     9.78347E-03     18.4591E-03    -774.933E+03    -56.5715E+06     1.64994E+06     2.45664E+06    -15.5405E-03     27.4918E-03    -11.9513E-03     24.4134E-03    -15.4676E-03     27.2106E-03    -11.8599E-03     24.4377E-03
            2106     8.89676E-03     18.4364E-03     523.357E+03    -51.7139E+06     3.15218E+06     2.26808E+06    -14.5619E-03     26.2143E-03    -11.6523E-03     20.5744E-03    -14.4906E-03     25.9521E-03    -11.5623E-03     20.5987E-03
            2107     8.00915E-03     18.4175E-03     1.64471E+06    -50.1397E+06     3.51073E+06     1.24912E+06    -13.6809E-03     25.0663E-03    -11.3855E-03     17.1685E-03    -13.6060E-03     24.8092E-03    -11.2976E-03     17.1811E-03
            2108     7.12091E-03     18.4015E-03     993.419E+03    -51.8053E+06     3.43399E+06     1.79823E+06    -12.9143E-03     24.0712E-03    -11.1569E-03     14.1718E-03    -12.8398E-03     23.8064E-03    -11.0661E-03     14.1925E-03
            2109     6.23201E-03     18.3885E-03    -862.527E+03    -53.2957E+06     2.15931E+06     3.02090E+06    -12.2590E-03     23.2148E-03    -10.9558E-03     11.5987E-03    -12.1896E-03     22.9469E-03    -10.8665E-03     11.6359E-03
            2110     5.34265E-03     18.3776E-03    -2.50011E+06    -54.9851E+06     778.692E+03     3.21769E+06    -11.7196E-03     22.5035E-03    -10.7839E-03     9.37009E-03    -11.6537E-03     22.2313E-03    -10.6966E-03     9.41025E-03
            2111     4.45282E-03     18.3690E-03    -3.45327E+06    -54.6072E+06     153.756E+03     3.07299E+06    -11.2751E-03     21.9143E-03    -10.6392E-03     7.42384E-03    -11.2135E-03     21.6462E-03    -10.5543E-03     7.46249E-03
            2112     3.56268E-03     18.3621E-03    -4.08887E+06    -51.1114E+06    -1.16532E+06     2.91663E+06    -10.9113E-03     21.4242E-03    -10.5128E-03     5.72877E-03    -10.8561E-03     21.1763E-03    -10.4386E-03     5.76568E-03
            2113     2.67223E-03     18.3569E-03    -4.71288E+06    -51.4889E+06    -2.94346E+06     2.40883E+06    -10.6374E-03     21.0537E-03    -10.4163E-03     4.18403E-03    -10.5821E-03     20.8074E-03    -10.3495E-03     4.21460E-03
            2114     1.78161E-03     18.3533E-03    -5.39755E+06    -52.2852E+06    -4.75000E+06     1.56601E+06    -10.4400E-03     20.7878E-03    -10.3478E-03     2.77072E-03    -10.3843E-03     20.5411E-03    -10.2879E-03     2.79060E-03
            2115     890.806E-06     18.3511E-03    -5.96977E+06    -52.3395E+06    -6.07718E+06     893.194E+03    -10.3424E-03     20.6383E-03    -10.2960E-03     1.49045E-03    -10.2874E-03     20.3942E-03    -10.2418E-03     1.50180E-03
            2116     16.8472E-03     17.9509E-03    -2.82500E+06     140.824E+06     40.1238E+06     436.614E+03    -33.4113E-03     48.3968E-03    -14.9855E-03     197.694E-03    -37.3809E-03     52.7401E-03    -14.9850E-03     199.983E-03
            2117     15.9697E-03     17.8004E-03    -2.57910E+06     78.6570E+06    -11.5871E+06     1.07605E+06    -26.8975E-03     41.1662E-03    -14.2687E-03     127.330E-03    -27.9913E-03     42.5638E-03    -14.4369E-03     127.445E-03
            2118     15.0878E-03     17.7108E-03    -3.62764E+06     24.1461E+06    -12.1189E+06     1.28907E+06    -22.5086E-03     36.3944E-03    -13.8858E-03     73.2136E-03    -22.6994E-03     36.6933E-03    -13.9762E-03     73.1649E-03
            2119     14.2061E-03     17.6602E-03    -3.98066E+06    -11.6058E+06    -10.6524E+06     820.815E+03    -20.7131E-03     34.2426E-03    -13.5296E-03     49.0373E-03    -20.7494E-03     34.2546E-03    -13.5602E-03     48.9997E-03
            2120     13.3239E-03     17.6154E-03    -3.35075E+06    -36.5546E+06    -13.2524E+06     749.277E+03    -19.7946E-03     32.9391E-03    -13.1445E-03     44.5659E-03    -19.7675E-03     32.8088E-03    -13.1529E-03     44.5399E-03
            2121     12.4405E-03     17.5739E-03    -2.85116E+06    -41.5273E+06    -5.67962E+06     534.931E+03    -18.6782E-03     31.4688E-03    -12.7906E-03     38.9938E-03    -18.6393E-03     31.2888E-03    -12.7546E-03     38.9773E-03
            2122     11.5564E-03     17.5396E-03    -2.02199E+06    -42.7089E+06    -3.63223E+06     737.075E+03    -17.5314E-03     29.9516E-03    -12.4202E-03     32.4443E-03    -17.4824E-03     29.7544E-03    -12.3735E-03     32.4384E-03
            2123     10.6712E-03     17.5102E-03    -1.55222E+06    -53.4982E+06    -4.25476E+06     1.73747E+06    -16.4838E-03     28.5556E-03    -12.0717E-03     27.6324E-03    -16.4125E-03     28.3011E-03    -12.0132E-03     27.6445E-03
            2124     9.78525E-03     17.4849E-03    -1.01829E+06    -56.0113E+06     353.635E+03     1.40265E+06    -15.4314E-03     27.1936E-03    -11.7622E-03     23.2885E-03    -15.3585E-03     26.9172E-03    -11.6778E-03     23.2996E-03
            2125     8.89837E-03     17.4637E-03     7.62453E+03    -50.5245E+06     1.34998E+06     296.895E+03    -14.4169E-03     25.8703E-03    -11.4535E-03     19.5320E-03    -14.3471E-03     25.6173E-03    -11.3735E-03     19.5310E-03
            2126     8.01071E-03     17.4456E-03     708.844E+03    -50.6467E+06     1.98544E+06     846.868E+03    -13.5100E-03     24.6964E-03    -11.1865E-03     16.1974E-03    -13.4368E-03     24.4403E-03    -11.1041E-03     16.2050E-03
            2127     7.12227E-03     17.4308E-03     489.270E+03    -53.4757E+06     2.88776E+06     2.67274E+06    -12.7348E-03     23.6955E-03    -10.9607E-03     13.3023E-03    -12.6596E-03     23.4238E-03    -10.8694E-03     13.3344E-03
            2128     6.23326E-03     17.4184E-03     16.6374E+03    -53.3416E+06     2.88475E+06     3.89190E+06    -12.0792E-03     22.8379E-03    -10.7587E-03     10.8513E-03    -12.0063E-03     22.5674E-03    -10.6670E-03     10.8998E-03
            2129     5.34369E-03     17.4084E-03    -713.426E+03    -53.9309E+06     2.04222E+06     3.93355E+06    -11.5302E-03     22.1145E-03    -10.5843E-03     8.73261E-03    -11.4588E-03     21.8431E-03    -10.4948E-03     8.78210E-03
            2130     4.45371E-03     17.4002E-03    -1.77285E+06    -53.4544E+06     1.28361E+06     3.29073E+06    -11.0823E-03     21.5197E-03    -10.4374E-03     6.90009E-03    -11.0156E-03     21.2533E-03    -10.3509E-03     6.94162E-03
            2131     3.56339E-03     17.3938E-03    -2.50648E+06    -50.0477E+06     98.7749E+03     2.72607E+06    -10.7135E-03     21.0243E-03    -10.3108E-03     5.30311E-03    -10.6537E-03     20.7776E-03    -10.2341E-03     5.33761E-03
            2132     2.67279E-03     17.3889E-03    -2.93781E+06    -49.9790E+06    -1.62295E+06     2.46150E+06    -10.4334E-03     20.6472E-03    -10.2138E-03     3.86597E-03    -10.3733E-03     20.4040E-03    -10.1452E-03     3.89727E-03
            2133     1.78195E-03     17.3856E-03    -3.38927E+06    -50.4545E+06    -3.00988E+06     1.93353E+06    -10.2478E-03     20.3928E-03    -10.1450E-03     2.55374E-03    -10.1873E-03     20.1498E-03    -10.0820E-03     2.57838E-03
            2134     891.036E-06     17.3835E-03    -3.67442E+06    -50.4307E+06    -3.65199E+06     1.21404E+06    -10.1306E-03     20.2330E-03    -10.1024E-03     1.39088E-03    -10.0705E-03     19.9916E-03    -10.0422E-03     1.40639E-03
            2135     16.8450E-03     16.9616E-03    -3.63698E+06     139.185E+06     38.8920E+06     202.927E+03    -33.5562E-03     48.5485E-03    -14.9923E-03     195.150E-03    -37.4257E-03     52.7866E-03    -14.9944E-03     197.353E-03
            2136     15.9673E-03     16.8148E-03    -4.69380E+06     78.3585E+06    -12.5874E+06     1.17350E+06    -27.6592E-03     41.9017E-03    -14.2425E-03     123.408E-03    -28.6956E-03     43.2362E-03    -14.4122E-03     123.487E-03
            2137     15.0896E-03     16.7285E-03    -4.25563E+06     25.3364E+06    -12.8639E+06     1.54531E+06    -23.0950E-03     36.9028E-03    -13.8078E-03     71.5047E-03    -23.2832E-03     37.2032E-03    -13.9026E-03     71.4563E-03
            2138     14.2082E-03     16.6797E-03    -3.94124E+06    -11.5902E+06    -11.0970E+06     1.12793E+06    -20.8948E-03     34.3180E-03    -13.4231E-03     48.2873E-03    -20.9279E-03     34.3281E-03    -13.4561E-03     48.2541E-03
            2139     13.3252E-03     16.6364E-03    -2.96630E+06    -36.1039E+06    -13.4251E+06     776.688E+03    -19.8474E-03     32.8701E-03    -13.0227E-03     43.5434E-03    -19.8171E-03     32.7401E-03    -13.0331E-03     43.5188E-03
            2140     12.4422E-03     16.5958E-03    -2.24636E+06    -40.8700E+06    -6.51301E+06     183.149E+03    -18.7346E-03     31.3855E-03    -12.6509E-03     37.6423E-03    -18.6913E-03     31.2081E-03    -12.6210E-03     37.6220E-03
            2141     11.5579E-03     16.5633E-03    -2.06391E+06    -43.8478E+06    -4.94518E+06     472.437E+03    -17.5493E-03     29.8164E-03    -12.2671E-03     31.0679E-03    -17.4963E-03     29.6148E-03    -12.2253E-03     31.0592E-03
            2142     10.6729E-03     16.5349E-03    -1.11965E+06    -53.6962E+06    -5.39294E+06     920.377E+03    -16.4499E-03     28.3544E-03    -11.9045E-03     26.2711E-03    -16.3741E-03     28.0997E-03    -11.8520E-03     26.2730E-03
            2143     9.78688E-03     16.5112E-03     365.291E+03    -54.4831E+06     360.168E+03     269.843E+03    -15.3494E-03     26.9358E-03    -11.5864E-03     21.9626E-03    -15.2715E-03     26.6648E-03    -11.5061E-03     21.9594E-03
            2144     8.89995E-03     16.4910E-03     593.884E+03       -50.5E+06     1.56356E+06    -56.3552E+03    -14.3119E-03     25.5851E-03    -11.2732E-03     18.2380E-03    -14.2394E-03     25.3309E-03    -11.1930E-03     18.2327E-03
            2145     8.01216E-03     16.4743E-03    -241.547E+03    -52.4391E+06     1.41085E+06     1.07331E+06    -13.3812E-03     24.3801E-03    -10.9990E-03     15.0131E-03    -13.3092E-03     24.1171E-03    -10.9155E-03     15.0238E-03
            2146     7.12362E-03     16.4603E-03    -715.454E+03    -54.8349E+06     2.10145E+06     2.61308E+06    -12.5820E-03     23.3467E-03    -10.7647E-03     12.2673E-03    -12.5096E-03     23.0710E-03    -10.6736E-03     12.2988E-03
            2147     6.23445E-03     16.4488E-03    -728.739E+03    -53.4331E+06     2.13718E+06     3.63869E+06    -11.9052E-03     22.4598E-03    -10.5546E-03     9.94631E-03    -11.8348E-03     22.1909E-03    -10.4654E-03     9.99166E-03
            2148     5.34476E-03     16.4393E-03    -630.436E+03    -52.8192E+06     2.45106E+06     3.90807E+06    -11.3470E-03     21.7251E-03    -10.3781E-03     7.95893E-03    -11.2773E-03     21.4586E-03    -10.2884E-03     8.00819E-03
            2149     4.45464E-03     16.4318E-03    -530.673E+03    -51.6464E+06     2.24835E+06     3.20318E+06    -10.8854E-03     21.1131E-03    -10.2276E-03     6.27261E-03    -10.8166E-03     20.8525E-03    -10.1407E-03     6.31308E-03
            2150     3.56412E-03     16.4258E-03    -696.860E+03    -49.1857E+06     1.07048E+06     2.57476E+06    -10.5106E-03     20.6104E-03    -10.0998E-03     4.79285E-03    -10.4444E-03     20.3640E-03    -10.0221E-03     4.82546E-03
            2151     2.67331E-03     16.4214E-03    -978.120E+03    -48.7257E+06     36.0081E+03     2.40947E+06    -10.2310E-03     20.2348E-03    -10.0039E-03     3.48090E-03    -10.1653E-03     19.9926E-03    -9.93162E-03     3.51156E-03
            2152     1.78234E-03     16.4182E-03    -1.04823E+06    -48.5825E+06    -475.125E+03     1.89654E+06    -10.0386E-03     19.9754E-03    -9.93671E-03     2.31497E-03    -9.97276E-03     19.7347E-03    -9.86712E-03     2.33917E-03
            2153     891.206E-06     16.4163E-03    -825.837E+03    -48.2117E+06    -768.604E+03     1.01083E+06    -9.92421E-03     19.8168E-03    -9.89259E-03     1.23536E-03    -9.85724E-03     19.5782E-03    -9.82533E-03     1.24825E-03
            2154     16.8453E-03     15.9698E-03    -3.08364E+06     138.690E+06     39.0161E+06     959.366E+03    -33.7997E-03     48.7881E-03    -14.9885E-03     191.622E-03    -37.5562E-03     52.9131E-03    -14.9900E-03     193.726E-03
            2155     15.9708E-03     15.8298E-03    -4.85109E+06     77.1843E+06    -13.6081E+06     1.53447E+06    -27.8120E-03     42.0239E-03    -14.2119E-03     118.969E-03    -28.7724E-03     43.2807E-03    -14.3848E-03     119.028E-03
            2156     15.0894E-03     15.7456E-03    -4.07784E+06     25.9076E+06    -13.2663E+06     1.19066E+06    -23.4755E-03     37.2259E-03    -13.7505E-03     68.8492E-03    -23.6537E-03     37.5203E-03    -13.8485E-03     68.7938E-03
            2157     14.2082E-03     15.6992E-03    -2.74754E+06    -10.6787E+06    -10.7130E+06     601.989E+03    -21.2019E-03     34.5412E-03    -13.3393E-03     46.3688E-03    -21.2278E-03     34.5506E-03    -13.3734E-03     46.3290E-03
            2158     13.3269E-03     15.6566E-03    -1.84281E+06    -35.8098E+06    -13.6772E+06     281.074E+03    -20.0857E-03     32.9966E-03    -12.9109E-03     42.0245E-03    -20.0484E-03     32.8654E-03    -12.9247E-03     41.9939E-03
            2159     12.4437E-03     15.6182E-03    -1.25296E+06    -40.6973E+06    -6.71162E+06     455.451E+03    -18.8676E-03     31.3847E-03    -12.5171E-03     35.8854E-03    -18.8182E-03     31.2059E-03    -12.4898E-03     35.8693E-03
            2160     11.5597E-03     15.5866E-03    -1.20848E+06    -44.3835E+06    -4.64394E+06     637.288E+03    -17.5849E-03     29.7037E-03    -12.1188E-03     29.3721E-03    -17.5266E-03     29.4971E-03    -12.0759E-03     29.3661E-03
            2161     10.6746E-03     15.5602E-03    -863.018E+03    -52.8659E+06    -5.72708E+06     7.74736E+03    -16.4576E-03     28.1935E-03    -11.7359E-03     24.5977E-03    -16.3808E-03     27.9426E-03    -11.6866E-03     24.5883E-03
            2162     9.78857E-03     15.5374E-03    -370.499E+03    -53.9542E+06    -432.959E+03    -585.393E+03    -15.3217E-03     26.7231E-03    -11.4014E-03     20.3152E-03    -15.2468E-03     26.4566E-03    -11.3248E-03     20.3014E-03
            2163     8.90162E-03     15.5188E-03    -223.552E+03    -51.6156E+06     1.65074E+06     222.356E+03    -14.2422E-03     25.3222E-03    -11.0800E-03     16.6005E-03    -14.1721E-03     25.0633E-03    -10.9966E-03     16.5991E-03
            2164     8.01374E-03     15.5031E-03    -432.150E+03    -53.8322E+06     1.51597E+06     1.54047E+06    -13.2847E-03     24.0760E-03    -10.7912E-03     13.4928E-03    -13.2117E-03     23.8060E-03    -10.7050E-03     13.5098E-03
            2165     7.12517E-03     15.4902E-03    -879.389E+03    -55.6148E+06     2.34655E+06     2.49537E+06    -12.4426E-03     22.9866E-03    -10.5440E-03     10.9088E-03    -12.3701E-03     22.7068E-03    -10.4504E-03     10.9390E-03
            2166     6.23585E-03     15.4795E-03    -993.822E+03    -53.4323E+06     2.08771E+06     3.01449E+06    -11.7213E-03     22.0429E-03    -10.3217E-03     8.78580E-03    -11.6520E-03     21.7745E-03    -10.2323E-03     8.82325E-03
            2167     5.34601E-03     15.4708E-03    -503.690E+03    -51.7615E+06     2.39882E+06     2.86332E+06    -11.1332E-03     21.2697E-03    -10.1365E-03     6.98934E-03    -11.0642E-03     21.0083E-03    -10.0487E-03     7.02524E-03
            2168     4.45565E-03     15.4638E-03     104.854E+03    -50.1792E+06     2.56422E+06     2.37428E+06    -10.6538E-03     20.6364E-03    -9.98258E-03     5.46962E-03    -10.5844E-03     20.3817E-03    -9.89715E-03     5.49950E-03
            2169     3.56496E-03     15.4583E-03     457.264E+03    -48.5433E+06     2.35763E+06     2.16588E+06    -10.2801E-03     20.1368E-03    -9.85673E-03     4.16306E-03    -10.2109E-03     19.8901E-03    -9.77522E-03     4.19046E-03
            2170     2.67399E-03     15.4542E-03     660.183E+03    -47.5073E+06     2.10101E+06     1.98333E+06    -10.0023E-03     19.7601E-03    -9.75776E-03     2.99748E-03    -9.93318E-03     19.5185E-03    -9.67933E-03     3.02270E-03
            2171     1.78276E-03     15.4513E-03     906.054E+03    -46.8535E+06     1.64773E+06     1.33226E+06    -9.79145E-03     19.4760E-03    -9.68454E-03     1.96641E-03    -9.72137E-03     19.2380E-03    -9.60968E-03     1.98336E-03
            2172     891.394E-06     15.4495E-03     1.15563E+06    -46.4594E+06     1.28103E+06     710.600E+03    -9.67957E-03     19.3077E-03    -9.62815E-03     1.06399E-03    -9.60820E-03     19.0720E-03    -9.55606E-03     1.07302E-03
            2173     16.8476E-03     14.9810E-03    -4.02665E+06     137.682E+06     39.9137E+06     1.24421E+06    -34.6344E-03     49.6291E-03    -14.9946E-03     190.299E-03    -38.3230E-03     53.6765E-03    -14.9889E-03     192.300E-03
            2174     15.9677E-03     14.8434E-03    -4.38229E+06     78.0569E+06    -12.4823E+06     1.38087E+06    -28.6604E-03     42.8222E-03    -14.1619E-03     114.197E-03    -29.5584E-03     44.0182E-03    -14.3311E-03     114.209E-03
            2175     15.0912E-03     14.7622E-03    -2.94260E+06     27.0243E+06    -12.9222E+06     622.108E+03    -23.5299E-03     37.1861E-03    -13.6561E-03     64.2623E-03    -23.6899E-03     37.4692E-03    -13.7557E-03     64.1989E-03
            2176     14.2108E-03     14.7185E-03    -2.36228E+06    -10.6378E+06    -11.2816E+06    -67.1004E+03    -21.1318E-03     34.3635E-03    -13.2317E-03     44.3327E-03    -21.1517E-03     34.3701E-03    -13.2693E-03     44.2856E-03
            2177     13.3280E-03     14.6771E-03    -1.76370E+06    -35.9284E+06    -14.3911E+06    -12.0431E+03    -20.3317E-03     33.1194E-03    -12.7877E-03     40.2529E-03    -20.2912E-03     32.9868E-03    -12.8050E-03     40.2188E-03
            2178     12.4456E-03     14.6401E-03    -1.01735E+06    -41.2889E+06    -6.91874E+06     534.972E+03    -19.0292E-03     31.4007E-03    -12.3715E-03     33.7685E-03    -18.9763E-03     31.2177E-03    -12.3447E-03     33.7541E-03
            2179     11.5616E-03     14.6105E-03    -571.956E+03    -44.0871E+06    -4.07832E+06     714.741E+03    -17.6918E-03     29.6433E-03    -11.9514E-03     27.4366E-03    -17.6309E-03     29.4357E-03    -11.9071E-03     27.4322E-03
            2180     10.6766E-03     14.5851E-03    -333.968E+03    -51.6272E+06    -4.92258E+06     45.7790E+03    -16.5416E-03     28.0861E-03    -11.5445E-03     22.5783E-03    -16.4646E-03     27.8390E-03    -11.4937E-03     22.5699E-03
            2181     9.79070E-03     14.5641E-03    -400.264E+03    -53.9032E+06     69.7795E+03    -646.379E+03    -15.3603E-03     26.5462E-03    -11.1858E-03     18.2598E-03    -15.2861E-03     26.2790E-03    -11.1068E-03     18.2455E-03
            2182     8.90370E-03     14.5466E-03    -536.385E+03    -53.3515E+06     2.34485E+06    -15.1992E+03    -14.2156E-03     25.0597E-03    -10.8442E-03     14.6107E-03    -14.1453E-03     24.7914E-03    -10.7543E-03     14.6065E-03
            2183     8.01589E-03     14.5323E-03    -643.789E+03    -54.9971E+06     2.34709E+06     1.55984E+06    -13.1858E-03     23.7195E-03    -10.5336E-03     11.6615E-03    -13.1133E-03     23.4426E-03    -10.4412E-03     11.6789E-03
            2184     7.12713E-03     14.5204E-03    -739.170E+03    -55.6917E+06     3.39775E+06     2.25920E+06    -12.2751E-03     22.5429E-03    -10.2678E-03     9.28054E-03    -12.2033E-03     22.2610E-03    -10.1690E-03     9.30782E-03
            2185     6.23769E-03     14.5107E-03    -446.449E+03    -52.9113E+06     3.08969E+06     2.01330E+06    -11.4964E-03     21.5270E-03    -10.0306E-03     7.40154E-03    -11.4266E-03     21.2588E-03    -9.93780E-03     7.42623E-03
            2186     5.34759E-03     14.5026E-03     7.07273E+03    -51.0799E+06     2.81446E+06     1.81447E+06    -10.8660E-03     20.6996E-03    -9.83360E-03     5.83036E-03    -10.7961E-03     20.4403E-03    -9.74547E-03     5.85285E-03
            2187     4.45704E-03     14.4963E-03     30.7503E+03    -49.3738E+06     2.34096E+06     1.73623E+06    -10.3661E-03     20.0374E-03    -9.67124E-03     4.50476E-03    -10.2978E-03     19.7871E-03    -9.58799E-03     4.52650E-03
            2188     3.56606E-03     14.4913E-03    -50.6189E+03    -47.8607E+06     2.02295E+06     1.41962E+06    -9.97767E-03     19.5187E-03    -9.54105E-03     3.41357E-03    -9.91149E-03     19.2766E-03    -9.46146E-03     3.43142E-03
            2189     2.67480E-03     14.4875E-03     290.221E+03    -46.5030E+06     1.80353E+06     1.03393E+06    -9.69154E-03     19.1293E-03    -9.43778E-03     2.45503E-03    -9.62530E-03     18.8938E-03    -9.36176E-03     2.46806E-03
            2190     1.78339E-03     14.4849E-03     718.045E+03    -45.7120E+06     1.28586E+06     722.739E+03    -9.48375E-03     18.8410E-03    -9.35727E-03     1.59549E-03    -9.41575E-03     18.6096E-03    -9.28560E-03     1.60462E-03
            2191     891.757E-06     14.4833E-03     836.305E+03    -45.4275E+06     1.01236E+06     465.063E+03    -9.35743E-03     18.6449E-03    -9.28746E-03     874.019E-06    -9.28877E-03     18.4152E-03    -9.21774E-03     879.906E-06
            2192     16.8420E-03     13.9882E-03    -4.09721E+06     138.078E+06     43.5804E+06     723.481E+03    -35.8996E-03     50.8614E-03    -14.9617E-03     185.382E-03    -39.4783E-03     54.7893E-03    -14.9381E-03     187.190E-03
            2193     15.9742E-03     13.8538E-03    -3.45620E+06     78.7001E+06    -8.82425E+06     179.366E+03    -28.2223E-03     42.3085E-03    -14.0862E-03     107.212E-03    -29.0292E-03     43.4085E-03    -14.2394E-03     107.183E-03
            2194     15.0944E-03     13.7817E-03    -2.66245E+06     26.2648E+06    -13.7517E+06     546.692E+03    -22.9413E-03     36.5153E-03    -13.5740E-03     63.4130E-03    -23.0870E-03     36.7848E-03    -13.6770E-03     63.3546E-03
            2195     14.2109E-03     13.7376E-03    -2.26102E+06    -9.73760E+06    -11.4958E+06     750.061E+03    -21.8387E-03     34.9782E-03    -13.1395E-03     44.1748E-03    -21.8582E-03     34.9884E-03    -13.1796E-03     44.1369E-03
            2196     13.3304E-03     13.6970E-03    -2.25611E+06    -35.6701E+06    -14.5935E+06     183.304E+03    -20.7881E-03     33.4397E-03    -12.6516E-03     38.1300E-03    -20.7483E-03     33.3076E-03    -12.6696E-03     38.0985E-03
            2197     12.4475E-03     13.6625E-03    -1.74165E+06    -42.1308E+06    -7.55680E+06     212.637E+03    -19.2665E-03     31.4647E-03    -12.1982E-03     31.4932E-03    -19.2138E-03     31.2783E-03    -12.1724E-03     31.4754E-03
            2198     11.5639E-03     13.6339E-03    -1.10261E+06    -43.8537E+06    -3.68844E+06     538.910E+03    -17.9434E-03     29.6900E-03    -11.7466E-03     25.1162E-03    -17.8853E-03     29.4831E-03    -11.6999E-03     25.1101E-03
            2199     10.6792E-03     13.6104E-03    -644.228E+03    -50.3629E+06    -4.33883E+06     65.6935E+03    -16.6971E-03     27.9991E-03    -11.3021E-03     20.2221E-03    -16.6238E-03     27.7574E-03    -11.2498E-03     20.2144E-03
            2200     9.79332E-03     13.5907E-03    -323.913E+03    -53.6999E+06     910.491E+03    -639.630E+03    -15.4360E-03     26.3467E-03    -10.9107E-03     15.8692E-03    -15.3627E-03     26.0790E-03    -10.8278E-03     15.8553E-03
            2201     8.90654E-03     13.5749E-03    -694.002E+03    -55.1210E+06     3.62484E+06     72.8016E+03    -14.1874E-03     24.7297E-03    -10.5423E-03     12.3345E-03    -14.1170E-03     24.4508E-03    -10.4433E-03     12.3316E-03
            2202     8.01853E-03     13.5618E-03    -1.19333E+06    -56.0333E+06     3.13285E+06     1.27170E+06    -13.0553E-03     23.2567E-03    -10.2014E-03     9.59775E-03    -12.9850E-03     22.9742E-03    -10.1028E-03     9.61164E-03
            2203     7.12972E-03     13.5512E-03    -1.24123E+06    -55.2891E+06     4.01859E+06     1.59464E+06    -12.0629E-03     21.9730E-03    -9.91012E-03     7.44500E-03    -11.9950E-03     21.6928E-03    -9.80806E-03     7.46388E-03
            2204     6.24000E-03     13.5423E-03    -1.54975E+06    -52.3319E+06     3.06943E+06     1.40921E+06    -11.2163E-03     20.8685E-03    -9.65221E-03     5.79590E-03    -11.1528E-03     20.6048E-03    -9.55873E-03     5.81293E-03
            2205     5.34968E-03     13.5352E-03    -2.04858E+06    -50.7359E+06     1.18656E+06     1.26610E+06    -10.5280E-03     19.9632E-03    -9.43520E-03     4.47347E-03    -10.4664E-03     19.7108E-03    -9.35273E-03     4.48900E-03
            2206     4.45876E-03     13.5294E-03    -1.95683E+06    -48.8112E+06     579.955E+03     1.06191E+06    -9.99172E-03     19.2539E-03    -9.26217E-03     3.39870E-03    -9.93162E-03     19.0119E-03    -9.18566E-03     3.41184E-03
            2207     3.56752E-03     13.5249E-03    -1.52327E+06    -47.0337E+06     255.204E+03     645.246E+03    -9.57577E-03     18.7009E-03    -9.12511E-03     2.53739E-03    -9.51559E-03     18.4676E-03    -9.05343E-03     2.54533E-03
            2208     2.67590E-03     13.5215E-03    -1.36544E+06    -46.0144E+06    -437.134E+03     273.544E+03    -9.26300E-03     18.2839E-03    -9.02086E-03     1.82056E-03    -9.20249E-03     18.0564E-03    -8.95434E-03     1.82382E-03
            2209     1.78401E-03     13.5192E-03    -1.21532E+06    -45.3216E+06    -796.490E+03     182.142E+03    -9.06502E-03     18.0111E-03    -8.94607E-03     1.18174E-03    -9.00423E-03     17.7874E-03    -8.88257E-03     1.18392E-03
            2210     892.062E-06     13.5178E-03    -908.973E+03    -44.8299E+06    -834.570E+03     145.462E+03    -8.97299E-03     17.8282E-03    -8.85521E-03     620.713E-06    -8.91124E-03     17.6067E-03    -8.79306E-03     622.502E-06
            2211     16.8541E-03     12.9891E-03    -1.96489E+06     137.468E+06     43.0484E+06    -289.046E+03    -35.7208E-03     50.6054E-03    -14.8847E-03     182.356E-03    -39.1519E-03     54.3934E-03    -14.8659E-03     183.954E-03
            2212     15.9730E-03     12.8735E-03    -1.36983E+06     76.5162E+06    -10.3522E+06     1.38089E+06    -26.5727E-03     40.6211E-03    -14.0485E-03     104.813E-03    -27.2959E-03     41.6414E-03    -14.2092E-03     104.830E-03
            2213     15.0891E-03     12.7988E-03    -3.43949E+06     27.1125E+06    -13.0708E+06     2.00369E+06    -24.0932E-03     37.6468E-03    -13.5536E-03     62.5927E-03    -24.2438E-03     37.9194E-03    -13.6533E-03     62.5479E-03
            2214     14.2130E-03     12.7539E-03    -3.79477E+06    -7.65551E+06    -10.9783E+06     1.22467E+06    -22.9404E-03     35.9839E-03    -13.0435E-03     41.0633E-03    -22.9685E-03     36.0033E-03    -13.0818E-03     41.0293E-03
            2215     13.3322E-03     12.7178E-03    -3.77177E+06    -35.5608E+06    -14.8867E+06     366.357E+03    -21.3230E-03     33.8128E-03    -12.4898E-03     35.3323E-03    -21.2883E-03     33.6818E-03    -12.5072E-03     35.3034E-03
            2216     12.4502E-03     12.6839E-03    -3.38158E+06    -42.2075E+06    -7.86809E+06     125.703E+03    -19.7728E-03     31.7573E-03    -11.9845E-03     28.8783E-03    -19.7266E-03     31.5721E-03    -11.9577E-03     28.8597E-03
            2217     11.5670E-03     12.6578E-03    -2.84806E+06    -43.7539E+06    -4.08091E+06    -129.901E+03    -18.2893E-03     29.7692E-03    -11.4800E-03     22.3762E-03    -18.2387E-03     29.5651E-03    -11.4328E-03     22.3619E-03
            2218     10.6824E-03     12.6355E-03    -1.65082E+06    -49.2463E+06    -4.33044E+06    -704.043E+03    -16.8882E-03     27.8755E-03    -10.9873E-03     17.4886E-03    -16.8211E-03     27.6404E-03    -10.9352E-03     17.4715E-03
            2219     9.79693E-03     12.6177E-03    -1.19124E+06    -54.2880E+06     1.35566E+06    -571.977E+03    -15.4673E-03     26.0266E-03    -10.5592E-03     13.1909E-03    -15.3978E-03     25.7562E-03    -10.4720E-03     13.1783E-03
            2220     8.90994E-03     12.6034E-03    -2.04188E+06    -56.5312E+06     4.71923E+06     515.630E+03    -14.1104E-03     24.2708E-03    -10.1604E-03     9.84093E-03    -14.0461E-03     23.9850E-03    -10.0519E-03     9.84406E-03
            2221     8.02203E-03     12.5919E-03    -2.97268E+06    -56.3329E+06     3.30670E+06     1.07668E+06    -12.8733E-03     22.6560E-03    -9.78266E-03     7.36207E-03    -12.8116E-03     22.3742E-03    -9.68013E-03     7.37364E-03
            2222     7.13291E-03     12.5825E-03    -3.65130E+06    -55.0061E+06     2.58075E+06     1.08615E+06    -11.7922E-03     21.2487E-03    -9.45650E-03     5.49739E-03    -11.7346E-03     20.9754E-03    -9.35854E-03     5.50986E-03
            2223     6.24305E-03     12.5748E-03    -4.03693E+06    -52.0584E+06     1.35594E+06     1.08926E+06    -10.8796E-03     20.0537E-03    -9.17410E-03     4.11089E-03    -10.8264E-03     19.7974E-03    -9.08599E-03     4.12390E-03
            2224     5.35235E-03     12.5685E-03    -4.10924E+06    -50.0808E+06    -359.817E+03     740.038E+03    -10.1287E-03     19.0657E-03    -8.93701E-03     3.05785E-03    -10.0762E-03     18.8219E-03    -8.86024E-03     3.06668E-03
            2225     4.46112E-03     12.5634E-03    -3.96111E+06    -48.2404E+06    -1.38685E+06     100.476E+03    -9.52867E-03     18.2763E-03    -8.74759E-03     2.25346E-03    -9.47655E-03     18.0428E-03    -8.67883E-03     2.25426E-03
            2226     3.56936E-03     12.5595E-03    -3.77010E+06    -46.7659E+06    -2.11068E+06    -94.8551E+03    -9.07127E-03     17.6726E-03    -8.60132E-03     1.62453E-03    -9.01927E-03     17.4473E-03    -8.53860E-03     1.62296E-03
            2227     2.67728E-03     12.5565E-03    -3.61865E+06    -45.8116E+06    -2.80995E+06    -84.5302E+03    -8.74061E-03     17.2344E-03    -8.49377E-03     1.13631E-03    -8.68821E-03     17.0146E-03    -8.43615E-03     1.13499E-03
            2228     1.78499E-03     12.5544E-03    -3.59208E+06    -45.2691E+06    -3.34484E+06    -150.903E+03    -8.52750E-03     16.9484E-03    -8.42092E-03     724.898E-06    -8.47498E-03     16.7321E-03    -8.36680E-03     722.810E-06
            2229     892.537E-06     12.5530E-03    -3.57178E+06    -44.8563E+06    -3.44055E+06    -147.838E+03    -8.43519E-03     16.7843E-03    -8.34915E-03     331.427E-06    -8.38295E-03     16.5703E-03    -8.29613E-03     329.444E-06
            2230     16.8464E-03     12.0046E-03    -3.43822E+06     132.987E+06     35.6558E+06    -278.813E+03    -34.4176E-03     49.3347E-03    -14.9171E-03     177.495E-03    -37.5694E-03     52.8436E-03    -14.9267E-03     179.006E-03
            2231     15.9674E-03     11.8879E-03    -6.37046E+06     76.1706E+06    -16.6270E+06     2.18737E+06    -28.5347E-03     42.5915E-03    -14.0568E-03     102.476E-03    -29.2500E-03     43.6029E-03    -14.2412E-03     102.478E-03
            2232     15.0967E-03     11.8115E-03    -6.47389E+06     30.9892E+06    -14.2788E+06     2.52549E+06    -26.1171E-03     39.5741E-03    -13.4571E-03     57.6665E-03    -26.2803E-03     39.8660E-03    -13.5640E-03     57.6167E-03
            2233     14.2154E-03     11.7730E-03    -5.90926E+06    -7.71545E+06    -12.1233E+06     1.18260E+06    -23.1775E-03     36.0477E-03    -12.8703E-03     37.7794E-03    -23.2094E-03     36.0666E-03    -12.9111E-03     37.7470E-03
            2234     13.3347E-03     11.7362E-03    -4.62850E+06    -34.6951E+06    -14.8861E+06     653.648E+03    -21.9743E-03     34.2478E-03    -12.2735E-03     32.3197E-03    -21.9429E-03     34.1202E-03    -12.2909E-03     32.2950E-03
            2235     12.4538E-03     11.7059E-03    -4.18252E+06    -42.0896E+06    -7.52016E+06     148.374E+03    -20.4037E-03     32.1098E-03    -11.7061E-03     25.4772E-03    -20.3609E-03     31.9246E-03    -11.6766E-03     25.4591E-03
            2236     11.5708E-03     11.6809E-03    -3.85959E+06    -42.6534E+06    -4.11199E+06    -701.585E+03    -18.6356E-03     29.7719E-03    -11.1363E-03     19.2543E-03    -18.5908E-03     29.5741E-03    -11.0894E-03     19.2333E-03
            2237     10.6869E-03     11.6611E-03    -3.80674E+06    -49.1020E+06    -4.89589E+06    -1.29294E+06    -16.9869E-03     27.5809E-03    -10.5940E-03     14.4592E-03    -16.9296E-03     27.3501E-03    -10.5418E-03     14.4349E-03
            2238     9.80110E-03     11.6450E-03    -3.99579E+06    -55.5960E+06    -195.355E+03    -531.574E+03    -15.3824E-03     25.5074E-03    -10.1250E-03     10.4881E-03    -15.3224E-03     25.2366E-03    -10.0396E-03     10.4764E-03
            2239     8.91431E-03     11.6325E-03    -4.25698E+06    -57.5098E+06     4.53544E+06     477.370E+03    -13.9231E-03     23.6229E-03    -9.69976E-03     7.42174E-03    -13.8681E-03     23.3355E-03    -9.58752E-03     7.42462E-03
            2240     8.02602E-03     11.6226E-03    -4.92432E+06    -56.3641E+06     3.62936E+06     1.04428E+06    -12.5965E-03     21.8913E-03    -9.29486E-03     5.27496E-03    -12.5449E-03     21.6117E-03    -9.18784E-03     5.28626E-03
            2241     7.13681E-03     11.6146E-03    -5.75799E+06    -54.5074E+06     1.11187E+06     901.235E+03    -11.4394E-03     20.3745E-03    -8.93511E-03     3.77884E-03    -11.3910E-03     20.1089E-03    -8.84216E-03     3.78901E-03
            2242     6.24649E-03     11.6081E-03    -6.19003E+06    -51.6947E+06    -378.518E+03     322.188E+03    -10.4749E-03     19.1051E-03    -8.63017E-03     2.72183E-03    -10.4305E-03     18.8562E-03    -8.54813E-03     2.72500E-03
            2243     5.35551E-03     11.6027E-03    -6.08244E+06    -49.4099E+06    -1.81049E+06    -154.540E+03    -9.67900E-03     18.0525E-03    -8.37350E-03     1.92906E-03    -9.63520E-03     17.8169E-03    -8.30209E-03     1.92637E-03
            2244     4.46377E-03     11.5985E-03    -6.12442E+06    -47.9365E+06    -3.45594E+06    -417.680E+03    -9.02344E-03     17.1873E-03    -8.16382E-03     1.34373E-03    -8.97958E-03     16.9615E-03    -8.10272E-03     1.33785E-03
            2245     3.57158E-03     11.5951E-03    -6.36552E+06    -46.8971E+06    -4.84663E+06    -530.099E+03    -8.51881E-03     16.5203E-03    -8.00154E-03     914.544E-06    -8.47563E-03     16.3021E-03    -7.94854E-03     907.362E-06
            2246     2.67898E-03     11.5926E-03    -6.50943E+06    -45.9750E+06    -5.64625E+06    -410.966E+03    -8.16300E-03     16.0453E-03    -7.88226E-03     614.217E-06    -8.12071E-03     15.8330E-03    -7.83439E-03     608.684E-06
            2247     1.78612E-03     11.5907E-03    -6.55204E+06    -45.3745E+06    -6.23062E+06    -235.120E+03    -7.91735E-03     15.7180E-03    -7.80069E-03     370.421E-06    -7.87530E-03     15.5097E-03    -7.75655E-03     367.244E-06
            2248     893.069E-06     11.5896E-03    -6.63653E+06    -45.1663E+06    -6.62575E+06    -180.152E+03    -7.79611E-03     15.5371E-03    -7.74095E-03     150.465E-06    -7.75412E-03     15.3305E-03    -7.69896E-03     148.061E-06
            2249     16.8445E-03     11.0212E-03    -4.12929E+06     133.225E+06     38.1556E+06     2.22250E+06    -35.8436E-03     50.8254E-03    -14.9818E-03     169.873E-03    -38.7220E-03     54.0515E-03    -14.9782E-03     171.267E-03
            2250     15.9737E-03     10.8917E-03    -9.35706E+06     76.7491E+06    -11.8011E+06     1.61929E+06    -31.0199E-03     45.0294E-03    -14.0095E-03     97.5366E-03    -31.7179E-03     46.0012E-03    -14.1662E-03     97.4703E-03
            2251     15.0957E-03     10.8288E-03    -7.43104E+06     30.2348E+06    -13.4337E+06     1.09829E+06    -26.4916E-03     39.7847E-03    -13.2931E-03     52.7090E-03    -26.6460E-03     40.0593E-03    -13.3933E-03     52.6404E-03
            2252     14.2179E-03     10.7898E-03    -5.77987E+06    -7.08345E+06    -11.0938E+06     1.11263E+06    -24.0307E-03     36.6790E-03    -12.6483E-03     35.2150E-03    -24.0612E-03     36.6962E-03    -12.6851E-03     35.1815E-03
            2253     13.3391E-03     10.7552E-03    -5.40958E+06    -33.8573E+06    -13.9574E+06     633.049E+03    -22.7416E-03     34.7215E-03    -11.9799E-03     28.7424E-03    -22.7145E-03     34.5956E-03    -11.9928E-03     28.7178E-03
            2254     12.4581E-03     10.7268E-03    -4.69211E+06    -41.5144E+06    -6.59887E+06    -81.0772E+03    -20.8392E-03     32.1839E-03    -11.3447E-03     21.6396E-03    -20.7998E-03     31.9998E-03    -11.3107E-03     21.6191E-03
            2255     11.5762E-03     10.7045E-03    -4.60414E+06    -41.4922E+06    -2.82893E+06    -727.883E+03    -18.7805E-03     29.5033E-03    -10.7228E-03     15.9079E-03    -18.7424E-03     29.3099E-03    -10.6701E-03     15.8872E-03
            2256     10.6917E-03     10.6868E-03    -5.08364E+06    -49.4875E+06    -3.36409E+06    -931.607E+03    -16.8721E-03     27.0183E-03    -10.1462E-03     11.4737E-03    -16.8225E-03     26.7848E-03    -10.0839E-03     11.4545E-03
            2257     9.80618E-03     10.6730E-03    -5.63904E+06    -56.4024E+06     56.5471E+03    -628.592E+03    -15.1058E-03     24.7519E-03    -9.64612E-03     7.98878E-03    -15.0531E-03     24.4789E-03    -9.55587E-03     7.97604E-03
            2258     8.91878E-03     10.6623E-03    -6.35383E+06    -58.4860E+06     3.41895E+06     51.2239E+03    -13.5355E-03     22.7338E-03    -9.19825E-03     5.41739E-03    -13.4879E-03     22.4461E-03    -9.08713E-03     5.41495E-03
            2259     8.03039E-03     10.6541E-03    -7.00232E+06    -56.5472E+06     3.05612E+06     690.888E+03    -12.1671E-03     20.9504E-03    -8.78325E-03     3.67005E-03    -12.1248E-03     20.6737E-03    -8.67582E-03     3.67686E-03
            2260     7.14060E-03     10.6476E-03    -7.38793E+06    -53.6211E+06     401.025E+03     394.625E+03    -10.9882E-03     19.3985E-03    -8.41030E-03     2.58813E-03    -10.9481E-03     19.1407E-03    -8.31983E-03     2.59178E-03
            2261     6.25002E-03     10.6423E-03    -7.60922E+06    -51.0449E+06    -1.66176E+06    -406.175E+03    -10.0080E-03     18.1004E-03    -8.09239E-03     1.84914E-03    -9.96973E-03     17.8587E-03    -8.01565E-03     1.84289E-03
            2262     5.35850E-03     10.6380E-03    -8.07742E+06    -49.3063E+06    -3.77499E+06    -748.685E+03    -9.19706E-03     17.0202E-03    -7.82315E-03     1.29529E-03    -9.16054E-03     16.7909E-03    -7.75882E-03     1.28491E-03
            2263     4.46644E-03     10.6346E-03    -8.51904E+06    -48.0275E+06    -5.64032E+06    -706.044E+03    -8.53612E-03     16.1360E-03    -7.59983E-03     890.425E-06    -8.50094E-03     15.9164E-03    -7.54604E-03     880.788E-06
            2264     3.57374E-03     10.6319E-03    -8.87400E+06    -47.0923E+06    -7.32135E+06    -599.358E+03    -8.01202E-03     15.4313E-03    -7.41927E-03     599.478E-06    -7.97752E-03     15.2193E-03    -7.37473E-03     591.365E-06
            2265     2.68065E-03     10.6297E-03    -9.27863E+06    -46.2993E+06    -8.42421E+06    -493.013E+03    -7.61546E-03     14.8962E-03    -7.28070E-03     384.047E-06    -7.58252E-03     14.6903E-03    -7.24223E-03     377.423E-06
            2266     1.78728E-03     10.6283E-03    -9.58142E+06    -45.7390E+06    -9.16276E+06    -307.734E+03    -7.32897E-03     14.5112E-03    -7.18219E-03     190.414E-06    -7.29727E-03     14.3096E-03    -7.14779E-03     186.274E-06
            2267     893.699E-06     10.6273E-03    -9.70059E+06    -45.4252E+06    -9.57906E+06    -70.7792E+03    -7.18436E-03     14.2837E-03    -7.09929E-03     103.344E-06    -7.15304E-03     14.0846E-03    -7.06725E-03     102.336E-06
            2268     16.8472E-03     10.0203E-03    -2.93833E+06     134.509E+06     45.3267E+06     3.27556E+06    -38.6932E-03     53.6327E-03    -14.9395E-03     164.759E-03    -41.4280E-03     56.7035E-03    -14.9037E-03     165.918E-03
            2269     15.9755E-03     9.90505E-03    -3.05977E+06     77.2213E+06    -5.25960E+06     2.66431E+06    -31.6211E-03     45.4688E-03    -13.8477E-03     91.6711E-03    -32.2371E-03     46.3637E-03    -13.9815E-03     91.5871E-03
            2270     15.1000E-03     9.84212E-03    -4.05576E+06     29.2325E+06    -10.0753E+06     1.39691E+06    -27.0390E-03     40.1073E-03    -13.0682E-03     47.5349E-03    -27.1666E-03     40.3536E-03    -13.1551E-03     47.4699E-03
            2271     14.2230E-03     9.80608E-03    -5.54943E+06    -6.18337E+06    -9.44716E+06     1.50509E+06    -25.1120E-03     37.4569E-03    -12.3449E-03     31.0976E-03    -25.1424E-03     37.4732E-03    -12.3751E-03     31.0674E-03
            2272     13.3441E-03     9.77351E-03    -5.68383E+06    -32.6999E+06    -11.4592E+06     712.435E+03    -23.2450E-03     34.8492E-03    -11.6042E-03     24.7979E-03    -23.2224E-03     34.7237E-03    -11.6058E-03     24.7749E-03
            2273     12.4642E-03     9.74803E-03    -6.06502E+06    -40.5675E+06    -5.22162E+06    -93.7480E+03    -20.8838E-03     31.7986E-03    -10.9149E-03     17.8821E-03    -20.8534E-03     31.6181E-03    -10.8734E-03     17.8624E-03
            2274     11.5813E-03     9.72858E-03    -6.45536E+06    -41.1862E+06    -1.48915E+06    -666.083E+03    -18.5503E-03     28.8153E-03    -10.2651E-03     12.7946E-03    -18.5232E-03     28.6236E-03    -10.2034E-03     12.7753E-03
            2275     10.6974E-03     9.71321E-03    -6.63591E+06    -49.3515E+06    -1.30091E+06    -931.724E+03    -16.4454E-03     26.1237E-03    -9.67826E-03     8.92460E-03    -16.4065E-03     25.8899E-03    -9.60359E-03     8.90586E-03
            2276     9.81097E-03     9.70189E-03    -7.09148E+06    -57.2259E+06     856.507E+03    -621.397E+03    -14.5366E-03     23.7100E-03    -9.17337E-03     6.09484E-03    -14.4911E-03     23.4337E-03    -9.07583E-03     6.08243E-03
            2277     8.92335E-03     9.69308E-03    -8.01338E+06    -59.0566E+06     2.11549E+06    -26.3421E+03    -12.9137E-03     21.6394E-03    -8.72567E-03     4.13822E-03    -12.8716E-03     21.3531E-03    -8.61784E-03     4.13491E-03
            2278     8.03412E-03     9.68666E-03    -8.70208E+06    -56.4429E+06     1.42690E+06    -171.901E+03    -11.5637E-03     19.8871E-03    -8.32342E-03     2.86144E-03    -11.5277E-03     19.6157E-03    -8.22183E-03     2.85715E-03
            2279     7.14403E-03     9.68155E-03    -8.72960E+06    -52.9393E+06    -546.475E+03    -634.116E+03    -10.4430E-03     18.4098E-03    -7.96689E-03     2.17843E-03    -10.4092E-03     18.1588E-03    -7.88020E-03     2.16878E-03
            2280     6.25284E-03     9.67750E-03    -9.05406E+06    -50.8273E+06    -3.19272E+06    -800.321E+03    -9.50954E-03     17.1676E-03    -7.65803E-03     1.71547E-03    -9.47658E-03     16.9313E-03    -7.58716E-03     1.70409E-03
            2281     5.36098E-03     9.67422E-03    -9.70898E+06    -49.3991E+06    -5.61492E+06    -833.667E+03    -8.74268E-03     16.1379E-03    -7.39526E-03     1.33965E-03    -8.71153E-03     15.9132E-03    -7.33763E-03     1.32811E-03
            2282     4.46839E-03     9.67165E-03    -10.4241E+06    -48.3589E+06    -7.63454E+06    -773.501E+03    -8.12270E-03     15.2961E-03    -7.17336E-03     1.03599E-03    -8.09367E-03     15.0805E-03    -7.12630E-03     1.02543E-03
            2283     3.57541E-03     9.66957E-03    -11.0511E+06    -47.4102E+06    -9.15651E+06    -561.499E+03    -7.61766E-03     14.6059E-03    -6.98821E-03     790.553E-06    -7.59092E-03     14.3981E-03    -6.94923E-03     782.883E-06
            2284     2.68198E-03     9.66803E-03    -11.4833E+06    -46.6082E+06    -10.4047E+06    -413.610E+03    -7.20514E-03     14.0440E-03    -6.83890E-03     583.116E-06    -7.17990E-03     13.8427E-03    -6.80669E-03     577.480E-06
            2285     1.78819E-03     9.66687E-03    -11.7877E+06    -46.0927E+06    -11.3615E+06    -329.080E+03    -6.89988E-03     13.6277E-03    -6.72779E-03     357.176E-06    -6.87551E-03     13.4308E-03    -6.70067E-03     352.735E-06
            2286     894.149E-06     9.66630E-03    -12.0999E+06    -45.7013E+06    -11.7810E+06    -105.497E+03    -6.74790E-03     13.3616E-03    -6.61370E-03     209.393E-06    -6.72497E-03     13.1678E-03    -6.58879E-03     207.926E-06
            2287     16.8509E-03     9.02610E-03    -4.31513E+06     132.053E+06     46.3347E+06     1.79627E+06    -40.5475E-03     55.3682E-03    -14.8207E-03     158.538E-03    -43.0771E-03     58.2175E-03    -14.7742E-03     159.418E-03
            2288     15.9790E-03     8.91363E-03    -3.81808E+06     77.4632E+06    -3.32482E+06     3.03659E+06    -32.7833E-03     46.4072E-03    -13.6239E-03     85.2389E-03    -33.3479E-03     47.2432E-03    -13.7473E-03     85.1324E-03
            2289     15.1054E-03     8.85597E-03    -3.84217E+06     30.8261E+06    -7.05304E+06     3.04657E+06    -28.1563E-03     40.9124E-03    -12.7561E-03     43.0417E-03    -28.2782E-03     41.1508E-03    -12.8305E-03     42.9958E-03
            2290     14.2283E-03     8.82176E-03    -4.72101E+06    -5.29064E+06    -6.81287E+06     2.53428E+06    -25.5454E-03     37.5040E-03    -11.9585E-03     27.6349E-03    -25.5734E-03     37.5163E-03    -11.9781E-03     27.6192E-03
            2291     13.3508E-03     8.79177E-03    -5.73444E+06    -31.2460E+06    -8.17296E+06     1.74306E+06    -23.2537E-03     34.4314E-03    -11.1777E-03     21.0294E-03    -23.2361E-03     34.3065E-03    -11.1650E-03     21.0214E-03
            2292     12.4698E-03     8.77020E-03    -6.81010E+06    -39.2503E+06    -2.46411E+06     426.517E+03    -20.4781E-03     30.9454E-03    -10.4672E-03     14.6112E-03    -20.4564E-03     30.7674E-03    -10.4128E-03     14.5998E-03
            2293     11.5874E-03     8.75313E-03    -7.57155E+06    -40.2985E+06     1.11377E+06    -803.258E+03    -17.8587E-03     27.6815E-03    -9.82274E-03     10.3238E-03    -17.8420E-03     27.4916E-03    -9.74776E-03     10.3037E-03
            2294     10.7020E-03     8.74095E-03    -8.05324E+06    -49.4556E+06     635.970E+03    -1.39548E+06    -15.5935E-03     24.8531E-03    -9.25954E-03     7.26132E-03    -15.5642E-03     24.6178E-03    -9.17297E-03     7.23715E-03
            2295     9.81523E-03     8.73173E-03    -8.51085E+06    -58.2191E+06     1.40469E+06    -824.091E+03    -13.6757E-03     22.4626E-03    -8.78693E-03     5.17071E-03    -13.6365E-03     22.1826E-03    -8.68315E-03     5.15598E-03
            2296     8.92654E-03     8.72515E-03    -8.86729E+06    -59.0409E+06     1.51921E+06    -514.869E+03    -12.0915E-03     20.4674E-03    -8.37587E-03     3.85948E-03    -12.0529E-03     20.1833E-03    -8.26981E-03     3.85003E-03
            2297     8.03683E-03     8.72014E-03    -9.04891E+06    -55.8314E+06    -201.687E+03    -1.05541E+06    -10.8489E-03     18.8625E-03    -8.01366E-03     3.04441E-03    -10.8131E-03     18.5971E-03    -7.92059E-03     3.02878E-03
            2298     7.14591E-03     8.71650E-03    -9.65978E+06    -53.0967E+06    -2.46651E+06    -1.26033E+06    -9.85434E-03     17.5559E-03    -7.70155E-03     2.63396E-03    -9.82227E-03     17.3082E-03    -7.62289E-03     2.61622E-03
            2299     6.25434E-03     8.71346E-03    -10.3262E+06    -51.0220E+06    -4.60358E+06    -1.05264E+06    -9.03814E-03     16.4727E-03    -7.43452E-03     2.35106E-03    -9.00924E-03     16.2393E-03    -7.36859E-03     2.33638E-03
            2300     5.36202E-03     8.71119E-03    -10.9344E+06    -49.6924E+06    -6.84976E+06    -845.958E+03    -8.37636E-03     15.5819E-03    -7.20557E-03     2.09089E-03    -8.34913E-03     15.3594E-03    -7.15191E-03     2.07915E-03
            2301     4.46928E-03     8.70929E-03    -11.5743E+06    -48.6558E+06    -8.64091E+06    -654.807E+03    -7.83821E-03     14.8502E-03    -7.01195E-03     1.82430E-03    -7.81305E-03     14.6363E-03    -6.96782E-03     1.81524E-03
            2302     3.57599E-03     8.70794E-03    -12.1369E+06    -47.7242E+06    -10.0571E+06    -581.814E+03    -7.39284E-03     14.2433E-03    -6.85049E-03     1.54232E-03    -7.36977E-03     14.0369E-03    -6.81398E-03     1.53437E-03
            2303     2.68234E-03     8.70684E-03    -12.4858E+06    -46.8984E+06    -11.1775E+06    -502.384E+03    -7.03277E-03     13.7543E-03    -6.72156E-03     1.23130E-03    -7.01100E-03     13.5542E-03    -6.69134E-03     1.22451E-03
            2304     1.78840E-03     8.70619E-03    -12.7320E+06    -46.4395E+06    -12.1229E+06    -360.755E+03    -6.77360E-03     13.3988E-03    -6.62524E-03     864.077E-06    -6.75234E-03     13.2027E-03    -6.60006E-03     859.225E-06
            2305     894.289E-06     8.70570E-03    -12.9075E+06    -46.0778E+06    -12.5976E+06    -228.137E+03    -6.63385E-03     13.1672E-03    -6.53337E-03     492.941E-06    -6.61323E-03     12.9739E-03    -6.51083E-03     489.890E-06
            2306     16.8514E-03     8.02820E-03    -3.79012E+06     130.740E+06     48.3769E+06     2.00080E+06    -42.7268E-03     57.4329E-03    -14.7061E-03     152.040E-03    -45.0216E-03     60.0387E-03    -14.6483E-03     152.675E-03
            2307     15.9843E-03     7.92082E-03    -5.62328E+06     76.3683E+06    -1.47183E+06     2.73267E+06    -34.6682E-03     48.0477E-03    -13.3795E-03     79.2972E-03    -35.1893E-03     48.8249E-03    -13.4895E-03     79.1536E-03
            2308     15.1109E-03     7.86959E-03    -5.32078E+06     31.3627E+06    -6.41260E+06     3.08381E+06    -29.0541E-03     41.4535E-03    -12.3995E-03     38.2747E-03    -29.1725E-03     41.6835E-03    -12.4693E-03     38.2304E-03
            2309     14.2354E-03     7.83684E-03    -5.34238E+06    -4.34603E+06    -4.17011E+06     3.49394E+06    -25.6092E-03     37.1634E-03    -11.5542E-03     24.5625E-03    -25.6421E-03     37.1743E-03    -11.5610E-03     24.5621E-03
            2310     13.3564E-03     7.81156E-03    -6.53970E+06    -29.5042E+06    -4.32081E+06     2.94918E+06    -22.7047E-03     33.4696E-03    -10.7650E-03     17.7398E-03    -22.6975E-03     33.3472E-03    -10.7343E-03     17.7502E-03
            2311     12.4758E-03     7.79252E-03    -7.39053E+06    -36.7527E+06     1.18702E+06     839.900E+03    -19.4936E-03     29.5678E-03    -10.0742E-03     12.1804E-03    -19.4828E-03     29.3971E-03    -10.0043E-03     12.1765E-03
            2312     11.5916E-03     7.77975E-03    -8.03639E+06    -38.8893E+06     4.70775E+06    -1.33678E+06    -16.6665E-03     26.1484E-03    -9.48194E-03     8.97096E-03    -16.6590E-03     25.9609E-03    -9.39036E-03     8.94515E-03
            2313     10.7055E-03     7.76963E-03    -8.40677E+06    -49.8320E+06     3.73988E+06    -1.86036E+06    -14.3901E-03     23.3782E-03    -8.98812E-03     6.77971E-03    -14.3664E-03     23.1370E-03    -8.88498E-03     6.75017E-03
            2314     9.81739E-03     7.76317E-03    -8.92153E+06    -59.1730E+06     3.00557E+06    -1.36600E+06    -12.5854E-03     21.1721E-03    -8.58671E-03     5.39618E-03    -12.5493E-03     20.8856E-03    -8.47295E-03     5.37479E-03
            2315     8.92799E-03     7.75810E-03    -9.35713E+06    -58.5266E+06     1.17586E+06    -1.41605E+06    -11.1822E-03     19.4249E-03    -8.24269E-03     4.65387E-03    -11.1463E-03     19.1447E-03    -8.13838E-03     4.63296E-03
            2316     8.03730E-03     7.75471E-03    -9.84804E+06    -55.8292E+06    -1.77571E+06    -1.58874E+06    -10.1308E-03     18.0819E-03    -7.95113E-03     4.18333E-03    -10.0968E-03     17.8200E-03    -7.86477E-03     4.16088E-03
            2317     7.14599E-03     7.75200E-03    -10.3585E+06    -53.4039E+06    -3.77820E+06    -1.46892E+06    -9.32385E-03     17.0353E-03    -7.71146E-03     3.90990E-03    -9.29295E-03     16.7890E-03    -7.63789E-03     3.88948E-03
            2318     6.25392E-03     7.75004E-03    -10.9114E+06    -51.4894E+06    -5.60141E+06    -1.32068E+06    -8.67398E-03     16.1858E-03    -7.51186E-03     3.70330E-03    -8.64591E-03     15.9525E-03    -7.44939E-03     3.68517E-03
            2319     5.36138E-03     7.74840E-03    -11.3688E+06    -50.1408E+06    -7.30060E+06    -1.00775E+06    -8.16263E-03     15.5093E-03    -7.34668E-03     3.44666E-03    -8.13629E-03     15.2858E-03    -7.29399E-03     3.43285E-03
            2320     4.46835E-03     7.74721E-03    -11.6777E+06    -48.8881E+06    -8.46199E+06    -867.515E+03    -7.75823E-03     14.9711E-03    -7.21285E-03     3.10012E-03    -7.73354E-03     14.7559E-03    -7.16734E-03     3.08833E-03
            2321     3.57506E-03     7.74630E-03    -11.8170E+06    -47.9483E+06    -9.52065E+06    -880.928E+03    -7.44204E-03     14.5480E-03    -7.10598E-03     2.65130E-03    -7.41784E-03     14.3393E-03    -7.06693E-03     2.63951E-03
            2322     2.68151E-03     7.74567E-03    -11.9058E+06    -47.2811E+06    -10.4292E+06    -813.096E+03    -7.20485E-03     14.2301E-03    -7.02521E-03     2.11906E-03    -7.18073E-03     14.0261E-03    -6.99154E-03     2.10829E-03
            2323     1.78776E-03     7.74522E-03    -11.9757E+06    -46.9766E+06    -11.2364E+06    -578.256E+03    -7.04672E-03     14.0153E-03    -6.96853E-03     1.49982E-03    -7.02220E-03     13.8140E-03    -6.93923E-03     1.49218E-03
            2324     893.887E-06     7.74499E-03    -11.8756E+06    -46.6421E+06    -11.5966E+06    -435.921E+03    -6.94890E-03     13.8889E-03    -6.94001E-03     816.198E-06    -6.92377E-03     13.6898E-03    -6.91314E-03     810.476E-06
            2325     16.8549E-03     7.02772E-03    -2.92902E+06     128.563E+06     51.4960E+06     2.20661E+06    -45.6238E-03     60.2264E-03    -14.6026E-03     144.396E-03    -47.6928E-03     62.5928E-03    -14.5273E-03     144.773E-03
            2326     15.9875E-03     6.92593E-03    -4.16028E+06     76.6333E+06     384.303E+03     3.59404E+06    -36.4429E-03     49.5589E-03    -13.1159E-03     70.7850E-03    -36.8943E-03     50.2674E-03    -13.2191E-03     70.6227E-03
            2327     15.1171E-03     6.88198E-03    -6.42019E+06     31.3236E+06    -7.48078E+06     4.06205E+06    -29.2733E-03     41.3166E-03    -12.0433E-03     32.9894E-03    -29.3834E-03     41.5373E-03    -12.1168E-03     32.9634E-03
            2328     14.2403E-03     6.85369E-03    -8.58571E+06    -3.71304E+06    -4.11222E+06     4.42032E+06    -25.1218E-03     36.3106E-03    -11.1888E-03     21.8900E-03    -25.1690E-03     36.3264E-03    -11.1916E-03     21.9061E-03
            2329     13.3620E-03     6.83115E-03    -8.96200E+06    -26.6057E+06    -2.51962E+06     3.09270E+06    -21.4732E-03     31.9079E-03    -10.4347E-03     15.1618E-03    -21.4833E-03     31.7993E-03    -10.3957E-03     15.1780E-03
            2330     12.4791E-03     6.81785E-03    -8.95791E+06    -33.7349E+06     4.02840E+06     325.171E+03    -17.8504E-03     27.6749E-03    -9.82449E-03     10.9339E-03    -17.8554E-03     27.5168E-03    -9.74244E-03     10.9258E-03
            2331     11.5938E-03     6.80696E-03    -9.24019E+06    -37.2716E+06     8.30196E+06    -1.98504E+06    -15.0401E-03     24.3817E-03    -9.34163E-03     8.99046E-03    -15.0461E-03     24.1986E-03    -9.23268E-03     8.95756E-03
            2332     10.7062E-03     6.80054E-03    -10.1788E+06    -50.6418E+06     6.13873E+06    -2.46866E+06    -12.9710E-03     21.9296E-03    -8.95866E-03     7.68139E-03    -12.9585E-03     21.6835E-03    -8.83978E-03     7.64467E-03
            2333     9.81696E-03     6.79532E-03    -10.8231E+06    -59.5074E+06     3.09090E+06    -2.19834E+06    -11.4463E-03     20.1024E-03    -8.65611E-03     6.94180E-03    -11.4194E-03     19.8169E-03    -8.53868E-03     6.91007E-03
            2334     8.92651E-03     6.79228E-03    -11.0770E+06    -58.3854E+06         486.328    -2.31659E+06    -10.3518E-03     18.7604E-03    -8.40859E-03     6.51130E-03    -10.3231E-03     18.4851E-03    -8.30787E-03     6.47898E-03
            2335     8.03532E-03     6.78958E-03    -11.0109E+06    -56.2195E+06    -2.95388E+06    -2.37988E+06    -9.56651E-03     17.7787E-03    -8.21216E-03     6.18998E-03    -9.53613E-03     17.5182E-03    -8.12945E-03     6.15746E-03
            2336     7.14343E-03     6.78797E-03    -10.8881E+06    -53.9101E+06    -4.50139E+06    -2.09808E+06    -8.98986E-03     17.0522E-03    -8.06237E-03     5.86842E-03    -8.95986E-03     16.8053E-03    -7.99092E-03     5.83999E-03
            2337     6.25115E-03     6.78649E-03    -10.9279E+06    -51.9983E+06    -5.50131E+06    -1.76392E+06    -8.56512E-03     16.5125E-03    -7.94742E-03     5.53559E-03    -8.53656E-03     16.2765E-03    -7.88369E-03     5.51183E-03
            2338     5.35852E-03     6.78551E-03    -10.8812E+06    -50.5272E+06    -6.38733E+06    -1.72956E+06    -8.24510E-03     16.1045E-03    -7.85941E-03     5.05291E-03    -8.21710E-03     15.8770E-03    -7.80230E-03     5.02985E-03
            2339     4.46568E-03     6.78461E-03    -10.4711E+06    -49.2095E+06    -7.01590E+06    -1.72651E+06    -8.01166E-03     15.8067E-03    -7.79502E-03     4.46039E-03    -7.98257E-03     15.5860E-03    -7.74356E-03     4.43758E-03
            2340     3.57266E-03     6.78404E-03    -10.0575E+06    -48.3967E+06    -7.71778E+06    -1.59182E+06    -7.86198E-03     15.6115E-03    -7.74956E-03     3.72720E-03    -7.83096E-03     15.3953E-03    -7.70339E-03     3.70629E-03
            2341     2.67952E-03     6.78358E-03    -9.87420E+06    -47.9503E+06    -8.39827E+06    -1.33021E+06    -7.76977E-03     15.4887E-03    -7.71890E-03     2.91337E-03    -7.73748E-03     15.2754E-03    -7.67705E-03     2.89595E-03
            2342     1.78636E-03     6.78328E-03    -9.66214E+06    -47.7537E+06    -9.00551E+06    -1.04335E+06    -7.71621E-03     15.4160E-03    -7.69975E-03     2.01093E-03    -7.68225E-03     15.2042E-03    -7.66153E-03     1.99731E-03
            2343     893.190E-06     6.78309E-03    -9.38685E+06    -47.5675E+06    -9.32129E+06    -663.564E+03    -7.68437E-03     15.3839E-03    -7.69949E-03     1.09146E-03    -7.64877E-03     15.1732E-03    -7.66351E-03     1.08282E-03
            2344     16.8552E-03     6.01930E-03    -3.59927E+06     125.365E+06     54.6916E+06     1.93635E+06    -48.8839E-03     63.3388E-03    -14.4549E-03     133.830E-03    -50.7186E-03     65.4485E-03    -14.3580E-03     133.905E-03
            2345     15.9954E-03     5.93115E-03    -6.93224E+06     74.7139E+06     4.45819E+06     5.12382E+06    -36.8586E-03     49.7041E-03    -12.8455E-03     59.6286E-03    -37.2474E-03     50.3217E-03    -12.9215E-03     59.4831E-03
            2346     15.1211E-03     5.89599E-03    -9.46155E+06     32.4949E+06    -4.73915E+06     7.04148E+06    -28.3695E-03     40.1165E-03    -11.7470E-03     27.4506E-03    -28.4895E-03     40.3325E-03    -11.8041E-03     27.4733E-03
            2347     14.2452E-03     5.86992E-03    -12.1689E+06    -1.17866E+06    -2.15263E+06     5.66853E+06    -23.3998E-03     34.3453E-03    -10.9455E-03     19.2289E-03    -23.4684E-03     34.3730E-03    -10.9369E-03     19.2680E-03
            2348     13.3640E-03     5.85430E-03    -13.8047E+06    -22.8676E+06    -1.09701E+06     2.28844E+06    -19.2257E-03     29.5268E-03    -10.3011E-03     13.9808E-03    -19.2661E-03     29.4404E-03    -10.2534E-03     13.9914E-03
            2349     12.4798E-03     5.84387E-03    -13.3741E+06    -30.1197E+06     6.03666E+06    -1.55635E+06    -15.7044E-03     25.5412E-03    -9.83681E-03     11.5933E-03    -15.7393E-03     25.4043E-03    -9.74356E-03     11.5633E-03
            2350     11.5924E-03     5.83709E-03    -12.9882E+06    -36.6063E+06     10.3238E+06    -3.44461E+06    -13.2334E-03     22.7399E-03    -9.50651E-03     10.8887E-03    -13.2620E-03     22.5626E-03    -9.38297E-03     10.8382E-03
            2351     10.7031E-03     5.83193E-03    -13.0010E+06    -51.3579E+06     8.11804E+06    -3.50980E+06    -11.6591E-03     20.9228E-03    -9.26371E-03     10.0631E-03    -11.6625E-03     20.6743E-03    -9.12980E-03     10.0137E-03
            2352     9.81290E-03     5.82891E-03    -13.0163E+06    -59.4244E+06     3.24401E+06    -3.68815E+06    -10.5791E-03     19.6520E-03    -9.07293E-03     9.48132E-03    -10.5635E-03     19.3699E-03    -8.95167E-03     9.43083E-03
            2353     8.92177E-03     5.82636E-03    -12.2962E+06    -58.6386E+06    -1.03892E+06    -4.07027E+06    -9.85226E-03     18.7784E-03    -8.92617E-03     9.06277E-03    -9.82774E-03     18.5051E-03    -8.82851E-03     9.00814E-03
            2354     8.03019E-03     5.82474E-03    -11.3511E+06    -56.9212E+06    -3.63483E+06    -3.86750E+06    -9.38823E-03     18.2132E-03    -8.82494E-03     8.50449E-03    -9.35755E-03     17.9507E-03    -8.74412E-03     8.45301E-03
            2355     7.13825E-03     5.82341E-03    -10.5709E+06    -54.8174E+06    -4.39023E+06    -3.35789E+06    -9.07472E-03     17.8348E-03    -8.76012E-03     7.88833E-03    -9.04198E-03     17.5827E-03    -8.68725E-03     7.84383E-03
            2356     6.24613E-03     5.82240E-03    -9.66568E+06    -52.4962E+06    -4.05453E+06    -3.07595E+06    -8.87889E-03     17.5992E-03    -8.72026E-03     7.19461E-03    -8.84540E-03     17.3567E-03    -8.65040E-03     7.15404E-03
            2357     5.35390E-03     5.82155E-03    -8.74044E+06    -50.8768E+06    -4.22208E+06    -3.09813E+06    -8.74951E-03     17.4434E-03    -8.69393E-03     6.36882E-03    -8.71345E-03     17.2079E-03    -8.62859E-03     6.32820E-03
            2358     4.46157E-03     5.82092E-03    -8.02923E+06    -49.9198E+06    -4.79066E+06    -3.05301E+06    -8.67504E-03     17.3542E-03    -8.67912E-03     5.46786E-03    -8.63595E-03     17.1232E-03    -8.61905E-03     5.42800E-03
            2359     3.56920E-03     5.82034E-03    -7.40747E+06    -49.4493E+06    -5.41341E+06    -2.61414E+06    -8.65170E-03     17.3248E-03    -8.67309E-03     4.45398E-03    -8.60926E-03     17.0961E-03    -8.61772E-03     4.41992E-03
            2360     2.67691E-03     5.81996E-03    -6.88904E+06    -48.9870E+06    -5.62732E+06    -2.06265E+06    -8.65642E-03     17.3288E-03    -8.67237E-03     3.39509E-03    -8.61173E-03     17.1020E-03    -8.61949E-03     3.36825E-03
            2361     1.78459E-03     5.81962E-03    -6.58479E+06    -48.9549E+06    -6.15572E+06    -1.51402E+06    -8.66190E-03     17.3338E-03    -8.67189E-03     2.30214E-03    -8.61495E-03     17.1074E-03    -8.62213E-03     2.28245E-03
            2362     892.286E-06     5.81948E-03    -6.42412E+06    -48.9929E+06    -6.43685E+06    -813.694E+03    -8.66629E-03     17.3437E-03    -8.67741E-03     1.26587E-03    -8.61800E-03     17.1175E-03    -8.62924E-03     1.25529E-03
            2363     16.8653E-03     5.01072E-03    -4.52272E+06     121.960E+06     57.3504E+06     3.28315E+06    -51.7391E-03     66.0343E-03    -14.2952E-03     119.899E-03    -53.2751E-03     67.8236E-03    -14.1788E-03     119.705E-03
            2364     15.9975E-03     4.93782E-03    -9.79611E+06     71.4459E+06     9.23236E+06      8.1759E+06    -35.5372E-03     48.1647E-03    -12.6275E-03     49.1318E-03    -35.8638E-03     48.6847E-03    -12.6707E-03     49.0550E-03
            2365     15.1266E-03     4.90965E-03    -14.9070E+06     32.7947E+06    -2.60935E+06     10.6991E+06    -25.8640E-03     37.4653E-03    -11.6014E-03     24.0225E-03    -26.0057E-03     37.6787E-03    -11.6403E-03     24.1069E-03
            2366     14.2460E-03     4.89103E-03    -18.4067E+06     3.99619E+06    -355.292E+03     7.88419E+06    -20.1698E-03     31.1266E-03    -10.9568E-03     19.4443E-03    -20.2772E-03     31.1841E-03    -10.9377E-03     19.5210E-03
            2367     13.3622E-03     4.87879E-03    -19.7508E+06    -15.4985E+06     2.31723E+06     506.499E+03    -16.2523E-03     26.7709E-03    -10.5186E-03     15.9396E-03    -16.3372E-03     26.7242E-03    -10.4559E-03     15.9323E-03
            2368     12.4749E-03     4.87303E-03    -18.4331E+06    -27.2750E+06     7.51967E+06    -5.26230E+06    -13.6183E-03     23.8582E-03    -10.2399E-03     14.7182E-03    -13.6846E-03     23.7406E-03    -10.1360E-03     14.6426E-03
            2369     11.5858E-03     4.86782E-03    -16.7474E+06    -37.5712E+06     11.0213E+06    -6.13052E+06    -11.9836E-03     22.0471E-03    -10.0635E-03     14.2858E-03    -12.0305E-03     21.8693E-03    -9.92965E-03     14.2018E-03
            2370     10.6958E-03     4.86439E-03    -15.8982E+06    -51.5125E+06     9.21644E+06    -5.91937E+06    -10.9670E-03     20.9103E-03    -9.94333E-03     13.1505E-03    -10.9862E-03     20.6635E-03    -9.79950E-03     13.0707E-03
            2371     9.80503E-03     4.86206E-03    -14.4162E+06    -59.4001E+06     3.63955E+06    -6.65012E+06    -10.3506E-03     20.1970E-03    -9.84634E-03     12.2411E-03    -10.3426E-03     19.9163E-03    -9.72111E-03     12.1529E-03
            2372     8.91390E-03     4.86031E-03    -12.5836E+06    -59.4003E+06    -1.46672E+06    -6.73501E+06    -10.0005E-03     19.7744E-03    -9.77385E-03     11.3753E-03    -9.97565E-03     19.4982E-03    -9.67681E-03     11.2866E-03
            2373     8.02253E-03     4.85880E-03    -10.8402E+06    -58.2271E+06    -3.72212E+06    -6.14729E+06    -9.80520E-03     19.5409E-03    -9.73567E-03     10.3087E-03    -9.76991E-03     19.2711E-03    -9.65414E-03     10.2281E-03
            2374     7.13113E-03     4.85780E-03    -8.82884E+06    -55.7900E+06    -3.41240E+06    -5.70136E+06    -9.71091E-03     19.4323E-03    -9.72144E-03     9.26089E-03    -9.66945E-03     19.1713E-03    -9.64480E-03     9.18632E-03
            2375     6.23966E-03     4.85675E-03    -6.77014E+06    -53.4176E+06    -2.75494E+06    -5.40489E+06    -9.66303E-03     19.3805E-03    -9.71748E-03     8.17137E-03    -9.61561E-03     19.1273E-03    -9.64399E-03     8.10088E-03
            2376     5.34818E-03     4.85606E-03    -5.16268E+06    -51.9813E+06    -2.53759E+06    -4.78890E+06    -9.65696E-03     19.3757E-03    -9.71873E-03     7.02136E-03    -9.60385E-03     19.1270E-03    -9.64856E-03     6.95901E-03
            2377     4.45676E-03     4.85532E-03    -4.37440E+06    -51.1772E+06    -2.51016E+06    -4.06439E+06    -9.66837E-03     19.3919E-03    -9.72357E-03     5.86513E-03    -9.61250E-03     19.1460E-03    -9.65558E-03     5.81227E-03
            2378     3.56539E-03     4.85481E-03    -4.08036E+06    -50.8948E+06    -2.94247E+06    -3.51753E+06    -9.68619E-03     19.4146E-03    -9.72841E-03     4.70509E-03    -9.62860E-03     19.1703E-03    -9.66340E-03     4.65940E-03
            2379     2.67397E-03     4.85429E-03    -3.74719E+06    -50.6809E+06    -3.16969E+06    -2.75654E+06    -9.70787E-03     19.4418E-03    -9.73389E-03     3.53861E-03    -9.64858E-03     19.1984E-03    -9.67082E-03     3.50283E-03
            2380     1.78265E-03     4.85402E-03    -3.51524E+06    -50.6690E+06    -3.31764E+06    -1.77878E+06    -9.72761E-03     19.4660E-03    -9.73840E-03     2.37530E-03    -9.66695E-03     19.2225E-03    -9.67642E-03     2.35221E-03
            2381     891.311E-06     4.85379E-03    -3.48871E+06    -50.7702E+06    -3.50801E+06    -859.733E+03    -9.73457E-03     19.4794E-03    -9.74481E-03     1.29780E-03    -9.67326E-03     19.2357E-03    -9.68367E-03     1.28663E-03
            2382     16.8630E-03     4.00080E-03    -4.93439E+06     116.483E+06     59.4634E+06     5.67831E+06    -51.8933E-03     66.1630E-03    -14.2696E-03     101.756E-03    -53.0465E-03     67.5436E-03    -14.1341E-03     101.448E-03
            2383     16.0028E-03     3.94590E-03    -12.6615E+06     65.9578E+06     16.7367E+06     12.5934E+06    -32.0349E-03     44.7333E-03    -12.6985E-03     41.9859E-03    -32.3162E-03     45.1569E-03    -12.6920E-03     42.0149E-03
            2384     15.1228E-03     3.92844E-03    -19.5299E+06     34.1624E+06     4.17278E+06     16.1254E+06    -21.8262E-03     33.7004E-03    -11.8742E-03     25.4434E-03    -21.9963E-03     33.9108E-03    -11.8745E-03     25.6154E-03
            2385     14.2398E-03     3.91444E-03    -23.3244E+06     15.8164E+06     4.20039E+06     7.87530E+06    -16.8567E-03     28.2982E-03    -11.4415E-03     23.4328E-03    -17.0106E-03     28.4136E-03    -11.4096E-03     23.5171E-03
            2386     13.3525E-03     3.90694E-03    -21.1619E+06    -5.93378E+06     5.34519E+06    -4.25897E+06    -14.1359E-03     25.3361E-03    -11.2002E-03     20.4233E-03    -14.2452E-03     25.3338E-03    -11.1342E-03     20.3585E-03
            2387     12.4637E-03     3.90247E-03    -18.0499E+06    -26.4380E+06     7.35675E+06    -9.22024E+06    -12.7715E-03     23.8367E-03    -11.0653E-03     18.5143E-03    -12.8364E-03     23.7224E-03    -10.9640E-03     18.3894E-03
            2388     11.5746E-03     3.89863E-03    -16.9338E+06    -39.0348E+06     8.27537E+06    -9.19183E+06    -11.8728E-03     22.8508E-03    -10.9780E-03     17.1745E-03    -11.9143E-03     22.6695E-03    -10.8554E-03     17.0520E-03
            2389     10.6846E-03     3.89608E-03    -15.5190E+06    -51.5271E+06     5.63616E+06    -9.62420E+06    -11.2799E-03     22.1976E-03    -10.9178E-03     15.4426E-03    -11.2918E-03     21.9551E-03    -10.7924E-03     15.3158E-03
            2390     9.79430E-03     3.89423E-03    -13.3479E+06    -59.5316E+06     576.139E+03    -10.4968E+06    -11.0312E-03     21.8978E-03    -10.8666E-03     13.9654E-03    -11.0131E-03     21.6192E-03    -10.7580E-03     13.8280E-03
            2391     8.90396E-03     3.89252E-03    -10.6306E+06    -61.3510E+06    -3.80716E+06    -10.2797E+06    -10.9138E-03     21.7369E-03    -10.8231E-03     12.4407E-03    -10.8729E-03     21.4514E-03    -10.7378E-03     12.3066E-03
            2392     8.01357E-03     3.89132E-03    -7.49706E+06    -59.8662E+06    -5.28925E+06    -9.30214E+06    -10.8358E-03     21.6333E-03    -10.7975E-03     10.9515E-03    -10.7791E-03     21.3527E-03    -10.7263E-03     10.8304E-03
            2393     7.12312E-03     3.89009E-03    -4.74920E+06    -57.3267E+06    -4.29545E+06    -8.54901E+06    -10.8111E-03     21.5998E-03    -10.7887E-03     9.53999E-03    -10.7457E-03     21.3263E-03    -10.7202E-03     9.42884E-03
            2394     6.23273E-03     3.88925E-03    -2.80728E+06    -55.3253E+06    -2.92924E+06    -7.50302E+06    -10.8011E-03     21.5869E-03    -10.7858E-03     8.18570E-03    -10.7308E-03     21.3186E-03    -10.7162E-03     8.08824E-03
            2395     5.34233E-03     3.88833E-03    -1.59658E+06    -54.2275E+06    -2.12428E+06    -6.13073E+06    -10.7988E-03     21.5821E-03    -10.7833E-03     6.88509E-03    -10.7252E-03     21.3163E-03    -10.7129E-03     6.80548E-03
            2396     4.45196E-03     3.88771E-03    -757.131E+03    -53.1333E+06    -968.912E+03    -4.75725E+06    -10.7972E-03     21.5802E-03    -10.7830E-03     5.65136E-03    -10.7226E-03     21.3170E-03    -10.7097E-03     5.58959E-03
            2397     3.56154E-03     3.88706E-03    -448.624E+03    -52.6010E+06    -619.295E+03    -3.69925E+06    -10.7883E-03     21.5690E-03    -10.7807E-03     4.47773E-03    -10.7134E-03     21.3075E-03    -10.7069E-03     4.42971E-03
            2398     2.67119E-03     3.88664E-03    -633.509E+03    -52.7310E+06    -1.00737E+06    -2.85928E+06    -10.7806E-03     21.5583E-03    -10.7777E-03     3.34133E-03    -10.7059E-03     21.2970E-03    -10.7054E-03     3.30424E-03
            2399     1.78076E-03     3.88626E-03    -748.190E+03    -52.7972E+06    -1.05248E+06    -1.81734E+06    -10.7817E-03     21.5582E-03    -10.7765E-03     2.22979E-03    -10.7074E-03     21.2968E-03    -10.7041E-03     2.20621E-03
            2400     890.414E-06     3.88607E-03    -643.453E+03    -52.5171E+06    -692.571E+03    -958.310E+03    -10.7760E-03     21.5537E-03    -10.7777E-03     1.20305E-03    -10.7020E-03     21.2931E-03    -10.7040E-03     1.19062E-03
            2401     16.8660E-03     2.99181E-03    -4.10267E+06     107.089E+06     58.9801E+06     9.54858E+06    -46.8643E-03     61.4428E-03    -14.5785E-03     84.4012E-03    -47.6509E-03     62.4278E-03    -14.4329E-03     84.1936E-03
            2402     15.9906E-03     2.96106E-03    -12.6457E+06     60.5135E+06     26.6103E+06     17.3263E+06    -27.0494E-03     40.3663E-03    -13.3169E-03     38.3676E-03    -27.2960E-03     40.7070E-03    -13.2532E-03     38.5084E-03
            2403     15.1105E-03     2.94924E-03    -16.2349E+06     42.2832E+06     19.0024E+06     16.6453E+06    -18.7009E-03     31.4525E-03    -12.7515E-03     29.9294E-03    -18.8836E-03     31.6728E-03    -12.6943E-03     30.1209E-03
            2404     14.2239E-03     2.94095E-03    -12.4905E+06     31.9845E+06     14.4336E+06     3.20879E+06    -15.8855E-03     28.3316E-03    -12.4461E-03     27.1639E-03    -16.0216E-03     28.4950E-03    -12.4022E-03     27.1927E-03
            2405     13.3363E-03     2.93420E-03    -10.4634E+06     1.39494E+06     5.70571E+06    -7.23687E+06    -14.3397E-03     26.5977E-03    -12.2579E-03     22.8927E-03    -14.4054E-03     26.6144E-03    -12.2162E-03     22.7922E-03
            2406     12.4490E-03     2.93093E-03    -11.7046E+06    -26.3261E+06     1.17120E+06    -10.9325E+06    -13.5489E-03     25.6986E-03    -12.1497E-03     19.8557E-03    -13.5726E-03     25.5837E-03    -12.0886E-03     19.7101E-03
            2407     11.5604E-03     2.92778E-03    -11.1371E+06    -39.9894E+06    -2.15596E+06    -12.2623E+06    -12.9575E-03     25.0175E-03    -12.0600E-03     17.5866E-03    -12.9530E-03     24.8377E-03    -11.9967E-03     17.4253E-03
            2408     10.6716E-03     2.92597E-03    -9.00842E+06    -51.9549E+06    -6.79988E+06    -12.7671E+06    -12.6236E-03     24.6084E-03    -11.9848E-03     15.4076E-03    -12.5841E-03     24.3720E-03    -11.9304E-03     15.2408E-03
            2409     9.78275E-03     2.92393E-03    -7.11553E+06    -60.2698E+06    -11.1011E+06    -13.1779E+06    -12.4803E-03     24.3992E-03    -11.9189E-03     13.4421E-03    -12.4129E-03     24.1246E-03    -11.8767E-03     13.2705E-03
            2410     8.89379E-03     2.92264E-03    -5.24782E+06    -63.6967E+06    -12.1030E+06    -12.9222E+06    -12.3338E-03     24.2027E-03    -11.8689E-03     11.6211E-03    -12.2504E-03     23.9095E-03    -11.8294E-03     11.4532E-03
            2411     8.00470E-03     2.92129E-03    -3.37008E+06    -62.5115E+06    -11.6243E+06    -11.6470E+06    -12.2149E-03     24.0404E-03    -11.8256E-03     10.0153E-03    -12.1244E-03     23.7497E-03    -11.7882E-03     9.86416E-03
            2412     7.11555E-03     2.92033E-03    -1.80682E+06    -59.9046E+06    -10.1130E+06    -9.90184E+06    -12.1105E-03     23.9009E-03    -11.7904E-03     8.54185E-03    -12.0181E-03     23.6187E-03    -11.7515E-03     8.41338E-03
            2413     6.22629E-03     2.91930E-03    -926.733E+03    -58.3081E+06    -7.23091E+06    -8.08761E+06    -12.0210E-03     23.7894E-03    -11.7684E-03     7.20775E-03    -11.9307E-03     23.5097E-03    -11.7187E-03     7.10285E-03
            2414     5.33700E-03     2.91863E-03    -468.980E+03    -56.8850E+06    -4.60807E+06    -6.39810E+06    -11.9409E-03     23.6900E-03    -11.7490E-03     5.99617E-03    -11.8542E-03     23.4129E-03    -11.6889E-03     5.91319E-03
            2415     4.44758E-03     2.91787E-03    -185.971E+03    -55.7063E+06    -2.68701E+06    -4.95934E+06    -11.8677E-03     23.5976E-03    -11.7299E-03     4.86983E-03    -11.7841E-03     23.3233E-03    -11.6623E-03     4.80552E-03
            2416     3.55820E-03     2.91741E-03    -10.3068E+03    -54.8016E+06    -1.45845E+06    -3.45751E+06    -11.8019E-03     23.5136E-03    -11.7117E-03     3.81343E-03    -11.7204E-03     23.2417E-03    -11.6395E-03     3.76858E-03
            2417     2.66864E-03     2.91692E-03    -130.230E+03    -54.6086E+06    -1.18250E+06    -2.27551E+06    -11.7459E-03     23.4410E-03    -11.6951E-03     2.82714E-03    -11.6657E-03     23.1699E-03    -11.6217E-03     2.79761E-03
            2418     1.77917E-03     2.91663E-03    -499.125E+03    -54.7152E+06    -1.21846E+06    -1.47995E+06    -11.7049E-03     23.3889E-03    -11.6840E-03     1.89030E-03    -11.6264E-03     23.1178E-03    -11.6100E-03     1.87109E-03
            2419     889.547E-06     2.91643E-03    -706.604E+03    -54.1359E+06    -1.10394E+06    -737.902E+03    -11.6871E-03     23.3622E-03    -11.6751E-03     1.01753E-03    -11.6104E-03     23.0942E-03    -11.6011E-03     1.00793E-03
            2420     16.8439E-03     1.98902E-03    -3.09420E+06     94.0110E+06     53.4745E+06     14.2991E+06    -38.4338E-03     53.8149E-03    -15.3811E-03     69.9429E-03    -38.9598E-03     54.5120E-03    -15.2456E-03     69.9244E-03
            2421     15.9736E-03     1.97966E-03    -8.18507E+06     61.0898E+06     38.4300E+06     17.6661E+06    -24.5379E-03     39.0342E-03    -14.4963E-03     35.7466E-03    -24.7545E-03     39.3276E-03    -14.3809E-03     35.9245E-03
            2422     15.0871E-03     1.97151E-03    -2.07444E+06      56.828E+06     33.8368E+06     7.32936E+06    -19.7348E-03     33.7457E-03    -14.0109E-03     29.2735E-03    -19.8847E-03     33.9915E-03    -13.9211E-03     29.3505E-03
            2423     14.2042E-03     1.96319E-03     3.40984E+06     41.5115E+06     15.8359E+06    -1.37382E+06    -17.4631E-03     31.1008E-03    -13.6377E-03     24.9210E-03    -17.5327E-03     31.2838E-03    -13.6237E-03     24.8941E-03
            2424     13.3200E-03     1.95987E-03     1.82754E+06     5.81943E+06    -2.85911E+06    -5.30100E+06    -16.2912E-03     29.6703E-03    -13.3791E-03     20.2369E-03    -16.2879E-03     29.7023E-03    -13.4045E-03     20.1635E-03
            2425     12.4333E-03     1.95622E-03     50.8687E+03    -23.8034E+06    -12.6160E+06    -10.2005E+06    -15.3857E-03     28.5885E-03    -13.2029E-03     17.0929E-03    -15.3335E-03     28.4885E-03    -13.2315E-03     16.9579E-03
            2426     11.5470E-03     1.95476E-03    -194.420E+03    -40.7542E+06    -19.0692E+06    -12.7916E+06    -14.8630E-03     27.9168E-03    -13.0537E-03     14.4724E-03    -14.7778E-03     27.7413E-03    -13.0897E-03     14.3052E-03
            2427     10.6599E-03     1.95256E-03    -402.536E+03    -53.3015E+06    -23.9561E+06    -12.7727E+06    -14.4475E-03     27.3716E-03    -12.9241E-03     12.3430E-03    -14.3378E-03     27.1406E-03    -12.9660E-03     12.1766E-03
            2428     9.77281E-03     1.95135E-03    -614.122E+03    -61.5028E+06    -26.4079E+06    -12.3917E+06    -14.0889E-03     26.9042E-03    -12.8153E-03     10.4937E-03    -13.9648E-03     26.6360E-03    -12.8573E-03     10.3326E-03
            2429     8.88518E-03     1.95003E-03    -1.26435E+06    -66.0629E+06    -24.5116E+06    -11.8145E+06    -13.7924E-03     26.5279E-03    -12.7356E-03     8.95196E-03    -13.6675E-03     26.2351E-03    -12.7605E-03     8.79863E-03
            2430     7.99742E-03     1.94915E-03    -1.98346E+06    -65.5427E+06    -21.6033E+06    -10.6210E+06    -13.5255E-03     26.1888E-03    -12.6633E-03     7.59239E-03    -13.4092E-03     25.8954E-03    -12.6734E-03     7.45466E-03
            2431     7.10937E-03     1.94820E-03    -2.39161E+06    -63.3823E+06    -18.7040E+06    -8.79056E+06    -13.2787E-03     25.8764E-03    -12.5977E-03     6.41453E-03    -13.1717E-03     25.5901E-03    -12.5958E-03     6.30057E-03
            2432     6.22115E-03     1.94757E-03    -2.66778E+06    -61.4335E+06    -14.7870E+06    -6.73433E+06    -13.0659E-03     25.6127E-03    -12.5468E-03     5.36009E-03    -12.9688E-03     25.3308E-03    -12.5278E-03     5.27279E-03
            2433     5.33271E-03     1.94684E-03    -3.03959E+06    -59.3332E+06    -11.3069E+06    -5.29613E+06    -12.8860E-03     25.3882E-03    -12.5022E-03     4.42014E-03    -12.7988E-03     25.1124E-03    -12.4683E-03     4.35148E-03
            2434     4.44421E-03     1.94640E-03    -3.37555E+06    -58.2021E+06    -8.58417E+06    -4.06649E+06    -12.7321E-03     25.1953E-03    -12.4633E-03     3.56378E-03    -12.6521E-03     24.9217E-03    -12.4169E-03     3.51107E-03
            2435     3.55546E-03     1.94592E-03    -3.67013E+06    -57.1261E+06    -6.82094E+06    -2.79891E+06    -12.6019E-03     25.0299E-03    -12.4279E-03     2.78043E-03    -12.5276E-03     24.7594E-03    -12.3739E-03     2.74413E-03
            2436     2.66678E-03     1.94563E-03    -3.77643E+06    -56.3547E+06    -5.53891E+06    -1.58437E+06    -12.4968E-03     24.8965E-03    -12.3997E-03     2.04978E-03    -12.4259E-03     24.6282E-03    -12.3402E-03     2.02921E-03
            2437     1.77782E-03     1.94538E-03    -3.88653E+06    -55.9853E+06    -4.64208E+06    -776.071E+03    -12.4203E-03     24.8010E-03    -12.3807E-03     1.37005E-03    -12.3518E-03     24.5334E-03    -12.3171E-03     1.35996E-03
            2438     888.965E-06     1.94521E-03    -4.22786E+06    -55.2715E+06    -4.44484E+06    -190.293E+03    -12.3763E-03     24.7465E-03    -12.3702E-03     740.365E-06    -12.3107E-03     24.4828E-03    -12.3061E-03     737.858E-06
            2439     16.8274E-03     1.00489E-03    -315.718E+03     88.7486E+06     58.8224E+06     13.3989E+06    -39.5272E-03     56.2229E-03    -16.6957E-03     54.1093E-03    -39.8869E-03     56.7273E-03    -16.5298E-03     54.1050E-03
            2440     15.9419E-03     988.364E-06     5.68138E+06     71.1191E+06     49.8433E+06     6.90167E+06    -26.8527E-03     42.6121E-03    -15.7594E-03     25.6879E-03    -27.0126E-03     42.8999E-03    -15.6216E-03     25.7473E-03
            2441     15.0721E-03     989.491E-06     12.4649E+06     63.3185E+06     29.6110E+06    -1.29337E+06    -23.3058E-03     38.4066E-03    -15.1007E-03     19.1999E-03    -23.3812E-03     38.6647E-03    -15.0625E-03     19.1728E-03
            2442     14.1891E-03     983.338E-06     12.5639E+06     42.9541E+06     3.06724E+06    -434.764E+03    -20.3502E-03     34.9249E-03    -14.5747E-03     16.3613E-03    -20.3553E-03     35.1181E-03    -14.6398E-03     16.3507E-03
            2443     13.3057E-03     980.893E-06     11.8816E+06     10.2498E+06    -15.2158E+06    -3.12221E+06    -18.4945E-03     32.7108E-03    -14.2164E-03     11.8990E-03    -18.4284E-03     32.7674E-03    -14.3245E-03     11.8561E-03
            2444     12.4224E-03     979.564E-06     11.3498E+06    -20.8198E+06    -26.8019E+06    -6.81625E+06    -17.3631E-03     31.3171E-03    -13.9540E-03     9.78485E-03    -17.2376E-03     31.2356E-03    -14.0743E-03     9.69519E-03
            2445     11.5373E-03     977.876E-06     8.63163E+06    -41.3157E+06    -34.7181E+06    -8.05420E+06    -16.5536E-03     30.2908E-03    -13.7371E-03     8.08684E-03    -16.4004E-03     30.1221E-03    -13.8633E-03     7.98170E-03
            2446     10.6523E-03     977.169E-06     5.47207E+06    -54.7341E+06    -37.5680E+06    -8.13652E+06    -15.8869E-03     29.4506E-03    -13.5637E-03     6.81443E-03    -15.7258E-03     29.2236E-03    -13.6801E-03     6.70856E-03
            2447     9.76596E-03     976.255E-06     2.63209E+06    -63.2516E+06    -36.9576E+06    -7.46275E+06    -15.3089E-03     28.7325E-03    -13.4236E-03     5.76630E-03    -15.1505E-03     28.4660E-03    -13.5205E-03     5.66938E-03
            2448     8.87953E-03     975.620E-06     89.9350E+03    -67.7067E+06    -33.7994E+06    -6.82629E+06    -14.8431E-03     28.1525E-03    -13.3094E-03     4.85089E-03    -14.6955E-03     27.8628E-03    -13.3803E-03     4.76233E-03
            2449     7.99260E-03     975.011E-06    -2.21899E+06    -67.7590E+06    -29.4343E+06    -6.35816E+06    -14.4297E-03     27.6404E-03    -13.2107E-03     4.09115E-03    -14.2999E-03     27.3475E-03    -13.2564E-03     4.00873E-03
            2450     7.10535E-03     974.606E-06    -4.16617E+06    -66.4629E+06    -24.8143E+06    -5.15036E+06    -14.0747E-03     27.2003E-03    -13.1255E-03     3.43878E-03    -13.9632E-03     26.9100E-03    -13.1472E-03     3.37204E-03
            2451     6.21779E-03     974.136E-06    -5.65417E+06    -63.8061E+06    -21.1720E+06    -3.79181E+06    -13.7673E-03     26.8139E-03    -13.0466E-03     2.86163E-03    -13.6724E-03     26.5338E-03    -13.0517E-03     2.81248E-03
            2452     5.33004E-03     973.832E-06    -6.53367E+06    -60.9927E+06    -18.3457E+06    -2.92276E+06    -13.5035E-03     26.4793E-03    -12.9758E-03     2.34802E-03    -13.4211E-03     26.2104E-03    -12.9696E-03     2.31014E-03
            2453     4.44195E-03     973.501E-06    -7.08613E+06    -60.0061E+06    -14.9825E+06    -2.27617E+06    -13.2875E-03     26.2105E-03    -12.9229E-03     1.88744E-03    -13.2142E-03     25.9424E-03    -12.9006E-03     1.85794E-03
            2454     3.55385E-03     973.308E-06    -7.37972E+06    -58.8104E+06    -12.1637E+06    -1.50236E+06    -13.1127E-03     25.9916E-03    -12.8789E-03     1.46569E-03    -13.0467E-03     25.7259E-03    -12.8438E-03     1.44621E-03
            2455     2.66541E-03     973.117E-06    -7.54341E+06    -57.6757E+06    -9.95600E+06    -845.243E+03    -12.9775E-03     25.8208E-03    -12.8434E-03     1.07640E-03    -12.9171E-03     25.5578E-03    -12.7986E-03     1.06542E-03
            2456     1.77709E-03     972.993E-06    -7.43042E+06    -56.8076E+06    -8.26283E+06    -295.193E+03    -12.8797E-03     25.6958E-03    -12.8161E-03     715.221E-06    -12.8225E-03     25.4345E-03    -12.7643E-03     711.372E-06
            2457     888.513E-06     972.897E-06    -7.41388E+06    -55.6126E+06    -7.36041E+06    -52.3180E+03    -12.8153E-03     25.6084E-03    -12.7931E-03     384.482E-06    -12.7608E-03     25.3519E-03    -12.7385E-03     383.825E-06


