********************************************************************************
Field Output Report, written Tue May 28 23:04:54 2024

Source 1
---------

   ODB: G:/Abaqus_calc_2019/1740/Vel_10/odb/zeides_2a_8_red_500_cal_75_vel_10_fric_050.odb
   Step: Step-1
   Frame: Increment   7734048: Step Time =   0.9829

Loc 1 : Nodal values from source 1

Output sorted by column "Nodal Label".

Field Output reported at nodes for region: DIE_2A_8_D0_36-1.Region_1
   Computation algorithm: EXTRAPOLATE_COMPUTE_AVERAGE
   Averaged at nodes
   Averaging regions: ODB_REGIONS

      Node Label     COORD.COOR1     COORD.COOR2
                          @Loc 1          @Loc 1
-------------------------------------------------
               1     18.2928E-03     121.415E-03


Field Output reported at nodes for region: DIE_2A_8_D0_36-1.Region_2
   Computation algorithm: EXTRAPOLATE_COMPUTE_AVERAGE
   Averaged at nodes
   Averaging regions: ODB_REGIONS

      Node Label     COORD.COOR1     COORD.COOR2
                          @Loc 1          @Loc 1
-------------------------------------------------
               1     18.2928E-03     121.415E-03


Field Output reported at nodes for part: WIRE-1
   Computation algorithm: EXTRAPOLATE_COMPUTE_AVERAGE
   Averaged at nodes
   Averaging regions: ODB_REGIONS

      Node Label     COORD.COOR1     COORD.COOR2           S.S11           S.S22           S.S33           S.S12         PE.PE11         PE.PE22         PE.PE33         PE.PE12         LE.LE11         LE.LE22         LE.LE33         LE.LE12
                          @Loc 1          @Loc 1          @Loc 1          @Loc 1          @Loc 1          @Loc 1          @Loc 1          @Loc 1          @Loc 1          @Loc 1          @Loc 1          @Loc 1          @Loc 1          @Loc 1
-------------------------------------------------------------------------------------------------------------------------------------------------------------------------------------------------------------------------------------------------
               1     41.8162E-09     60.4550E-03    -87.7664E+06    -194.262E+06    -87.8002E+06    -35.0724E+03    -51.7544E-03     103.391E-03    -51.6365E-03     5.24523E-03    -51.7847E-03     102.675E-03    -51.6666E-03     5.22561E-03
               2     17.0977E-03     61.2411E-03    -2.04860E+06     110.531E+06     80.1377E+06     20.3592E+03    -50.8341E-03     102.509E-03    -51.6752E-03     8.22970E-03    -51.1517E-03     102.980E-03    -51.4318E-03     7.96208E-03
               3     17.1034E-03     122.532E-03    -15.1054E+06     17.6798E+06     18.3196E+06    -8.72755E+06    -55.7887E-03     106.659E-03    -50.8707E-03     12.2929E-03    -55.9147E-03     106.750E-03    -50.7828E-03     12.1339E-03
               4    -2.33067E-06     121.097E-03     40.6119E+06    -4.88282E+06     36.8464E+06    -1.83505E+06    -49.2596E-03     100.264E-03    -51.0041E-03    -2.21490E-03    -49.1084E-03     100.121E-03    -50.8717E-03    -2.24479E-03
               5    -77.3257E-09     41.6334E-18    -53.3506E+06    -160.332E+06    -54.1535E+06    -589.324E+03    -54.9310E-03     110.013E-03    -55.0823E-03     414.674E-06    -54.8867E-03     109.368E-03    -55.0432E-03     406.050E-06
               6     17.0073E-03     41.6334E-18    -485.991E+03     102.441E+06     80.1219E+06     996.289E+03    -58.4748E-03     114.050E-03    -55.5753E-03     42.2042E-03    -58.7908E-03     114.492E-03    -55.3225E-03     41.9812E-03
               7     854.636E-06     60.4602E-03    -86.6502E+06    -192.048E+06    -84.4043E+06    -17.8341E+03    -51.7305E-03     103.404E-03    -51.6732E-03     8.68667E-03    -51.7642E-03     102.693E-03    -51.6911E-03     8.65427E-03
               8     1.70928E-03     60.4724E-03    -83.5377E+06    -186.097E+06    -75.5919E+06    -5.12970E+03    -51.7181E-03     103.441E-03    -51.7231E-03     15.8036E-03    -51.7607E-03     102.746E-03    -51.7101E-03     15.7431E-03
               9     2.56396E-03     60.4918E-03    -78.9328E+06    -177.369E+06    -63.2659E+06    -10.3545E+03    -51.7482E-03     103.501E-03    -51.7527E-03     23.0351E-03    -51.8035E-03     102.830E-03    -51.6974E-03     22.9428E-03
              10     3.41867E-03     60.5184E-03    -73.3423E+06    -167.134E+06    -49.4893E+06         62.3092    -51.7965E-03     103.580E-03    -51.7831E-03     29.9333E-03    -51.8663E-03     102.939E-03    -51.6819E-03     29.8063E-03
              11     4.27341E-03     60.5516E-03    -67.2762E+06    -156.923E+06    -36.5026E+06    -1.37193E+03    -51.8661E-03     103.674E-03    -51.8080E-03     36.3465E-03    -51.9496E-03     103.068E-03    -51.6655E-03     36.1814E-03
              12     5.12817E-03     60.5909E-03    -61.2301E+06    -143.926E+06    -25.7423E+06    -23.7858E+03    -51.9423E-03     103.760E-03    -51.8179E-03     42.1855E-03    -52.0433E-03     103.208E-03    -51.6491E-03     41.9789E-03
              13     5.98296E-03     60.6357E-03    -55.5255E+06    -128.349E+06    -17.1549E+06    -20.5990E+03    -52.0160E-03     103.830E-03    -51.8138E-03     47.3657E-03    -52.1400E-03     103.351E-03    -51.6330E-03     47.1156E-03
              14     6.83778E-03     60.6854E-03    -50.2461E+06    -112.819E+06    -9.59750E+06    -6.33789E+03    -52.0835E-03     103.889E-03    -51.8059E-03     51.7991E-03    -52.2339E-03     103.489E-03    -51.6174E-03     51.5039E-03
              15     7.69262E-03     60.7390E-03    -45.3288E+06    -96.1868E+06    -2.55267E+06     10.5366E+03    -52.1312E-03     103.926E-03    -51.7948E-03     55.4047E-03    -52.3130E-03     103.613E-03    -51.6024E-03     55.0645E-03
              16     8.54748E-03     60.7958E-03    -40.6832E+06    -79.0272E+06     4.38425E+06     24.8179E+03    -52.1529E-03     103.936E-03    -51.7833E-03     58.0765E-03    -52.3692E-03     103.715E-03    -51.5878E-03     57.6931E-03
              17     9.40236E-03     60.8547E-03    -36.2401E+06    -59.4254E+06     11.3891E+06     56.1711E+03    -52.1355E-03     103.904E-03    -51.7690E-03     59.7122E-03    -52.3904E-03     103.787E-03    -51.5733E-03     59.2910E-03
              18     10.2573E-03     60.9147E-03    -31.9503E+06    -41.0467E+06     18.3251E+06     73.0535E+03    -52.0856E-03     103.842E-03    -51.7563E-03     60.0806E-03    -52.3743E-03     103.818E-03    -51.5588E-03     59.6296E-03
              19     11.1122E-03     60.9743E-03    -27.7717E+06    -19.5250E+06     24.7418E+06     125.232E+03    -51.9847E-03     103.721E-03    -51.7365E-03     58.9730E-03    -52.3046E-03     103.801E-03    -51.5442E-03     58.5041E-03
              20     11.9672E-03     61.0321E-03    -23.6566E+06     3.15857E+06     32.0226E+06     205.556E+03    -51.8348E-03     103.554E-03    -51.7191E-03     56.1454E-03    -52.1797E-03     103.733E-03    -51.5293E-03     55.6710E-03
              21     12.8222E-03     61.0860E-03    -19.7328E+06     26.8268E+06     36.9187E+06     219.018E+03    -51.6527E-03     103.341E-03    -51.6884E-03     51.5420E-03    -52.0117E-03     103.618E-03    -51.5141E-03     51.0715E-03
              22     13.6772E-03     61.1344E-03    -15.9228E+06     69.4215E+06     46.9289E+06     249.043E+03    -51.3728E-03     103.027E-03    -51.6543E-03     45.6405E-03    -51.7732E-03     103.481E-03    -51.4972E-03     45.1827E-03
              23     14.5323E-03     61.1765E-03    -12.0592E+06     101.528E+06     55.0193E+06     148.621E+03    -51.1221E-03     102.746E-03    -51.6234E-03     38.2132E-03    -51.5386E-03     103.320E-03    -51.4780E-03     37.7740E-03
              24     15.3874E-03     61.2101E-03    -8.22367E+06     108.796E+06     63.0307E+06    -4.67897E+03    -50.9502E-03     102.578E-03    -51.6278E-03     28.7781E-03    -51.3458E-03     103.148E-03    -51.4584E-03     28.3514E-03
              25     16.2427E-03     61.2332E-03    -4.18311E+06     110.932E+06     76.2509E+06    -4.17559E+03    -50.8437E-03     102.510E-03    -51.6668E-03     15.9008E-03    -51.1989E-03     103.024E-03    -51.4403E-03     15.5548E-03
              26     17.0978E-03     62.2922E-03    -2.05796E+06     110.540E+06     80.2134E+06     6.67955E+03    -50.8047E-03     102.477E-03    -51.6721E-03     8.23241E-03    -51.1224E-03     102.947E-03    -51.4283E-03     7.96464E-03
              27     17.0979E-03     63.3433E-03    -2.07739E+06     110.535E+06     80.3826E+06     10.9814E+03    -50.7785E-03     102.450E-03    -51.6712E-03     8.21355E-03    -51.0967E-03     102.920E-03    -51.4266E-03     7.94572E-03
              28     17.0979E-03     64.3944E-03    -2.05772E+06     110.549E+06     80.4663E+06     1.54160E+03    -50.7852E-03     102.457E-03    -51.6718E-03     8.20679E-03    -51.1034E-03     102.927E-03    -51.4267E-03     7.93867E-03
              29     17.0978E-03     65.4454E-03    -2.07546E+06     110.556E+06     80.4427E+06    -5.40632E+03    -50.7934E-03     102.465E-03    -51.6720E-03     8.21293E-03    -51.1117E-03     102.936E-03    -51.4271E-03     7.94468E-03
              30     17.0979E-03     66.4965E-03    -2.06621E+06     110.487E+06     80.4107E+06    -27.6325E+03    -50.7978E-03     102.470E-03    -51.6717E-03     8.20110E-03    -51.1159E-03     102.939E-03    -51.4268E-03     7.93252E-03
              31     17.0979E-03     67.5476E-03    -2.01708E+06     110.465E+06     80.4308E+06     22.0233E+03    -50.7955E-03     102.467E-03    -51.6715E-03     8.19945E-03    -51.1133E-03     102.937E-03    -51.4266E-03     7.93152E-03
              32     17.0979E-03     68.5986E-03    -2.07466E+06     110.562E+06     80.4140E+06     65.2949E+03    -50.7922E-03     102.464E-03    -51.6714E-03     8.20461E-03    -51.1105E-03     102.934E-03    -51.4266E-03     7.93725E-03
              33     17.0979E-03     69.6497E-03    -2.00860E+06     110.771E+06     80.4771E+06     116.864E+03    -50.7891E-03     102.460E-03    -51.6713E-03     8.20799E-03    -51.1074E-03     102.931E-03    -51.4266E-03     7.94130E-03
              34     17.0979E-03     70.7007E-03    -2.07650E+06     111.115E+06     80.6689E+06     176.469E+03    -50.7828E-03     102.455E-03    -51.6719E-03     8.20931E-03    -51.1023E-03     102.927E-03    -51.4267E-03     7.94341E-03
              35     17.0979E-03     71.7518E-03    -2.14719E+06     111.414E+06     80.8222E+06     73.1188E+03    -50.7729E-03     102.446E-03    -51.6726E-03     8.21154E-03    -51.0934E-03     102.920E-03    -51.4269E-03     7.94431E-03
              36     17.0979E-03     72.8028E-03    -2.06080E+06     111.487E+06     80.8254E+06    -5.56980E+03    -50.7533E-03     102.425E-03    -51.6720E-03     8.21993E-03    -51.0734E-03     102.900E-03    -51.4266E-03     7.95171E-03
              37     17.0979E-03     73.8539E-03    -2.09494E+06     111.441E+06     80.7900E+06     7.83772E+03    -50.7594E-03     102.431E-03    -51.6714E-03     8.21857E-03    -51.0796E-03     102.905E-03    -51.4260E-03     7.95054E-03
              38     17.0978E-03     74.9050E-03    -2.07684E+06     111.394E+06     80.7250E+06    -44.8083E+03    -50.7751E-03     102.448E-03    -51.6728E-03     8.20112E-03    -51.0950E-03     102.922E-03    -51.4276E-03     7.93239E-03
              39     17.0978E-03     75.9560E-03    -2.04246E+06     111.351E+06     80.6588E+06    -19.9338E+03    -50.7666E-03     102.443E-03    -51.6763E-03     8.19508E-03    -51.0862E-03     102.917E-03    -51.4316E-03     7.92669E-03
              40     17.0977E-03     77.0071E-03    -2.06036E+06     111.377E+06     80.7249E+06     42.6736E+03    -50.7785E-03     102.459E-03    -51.6804E-03     8.19977E-03    -51.0983E-03     102.933E-03    -51.4353E-03     7.93220E-03
              41     17.0977E-03     78.0581E-03    -2.01814E+06     111.557E+06     80.8049E+06     102.286E+03    -50.7861E-03     102.469E-03    -51.6825E-03     8.22565E-03    -51.1061E-03     102.943E-03    -51.4373E-03     7.95901E-03
              42     17.0977E-03     79.1092E-03    -2.13668E+06     111.771E+06     80.9205E+06     91.5667E+03    -50.7637E-03     102.447E-03    -51.6832E-03     8.23608E-03    -51.0847E-03     102.923E-03    -51.4376E-03     7.96952E-03
              43     17.0977E-03     80.1603E-03    -2.09485E+06     111.856E+06     81.0558E+06     2.51426E+03    -50.7421E-03     102.426E-03    -51.6839E-03     8.23532E-03    -51.0633E-03     102.902E-03    -51.4378E-03     7.96769E-03
              44     17.0977E-03     81.2113E-03    -2.03773E+06     111.904E+06     80.9418E+06     35.2258E+03    -50.7284E-03     102.412E-03    -51.6838E-03     8.25394E-03    -51.0492E-03     102.888E-03    -51.4384E-03     7.98682E-03
              45     17.0977E-03     82.2623E-03    -2.13016E+06     111.943E+06     80.7488E+06     14.7795E+03    -50.7224E-03     102.406E-03    -51.6838E-03     8.25436E-03    -51.0434E-03     102.883E-03    -51.4393E-03     7.98706E-03
              46     17.0977E-03     83.3133E-03    -2.13543E+06     111.791E+06     80.5462E+06    -138.189E+03    -50.7241E-03     102.409E-03    -51.6848E-03     8.24508E-03    -51.0446E-03     102.885E-03    -51.4411E-03     7.97583E-03
              47     17.0976E-03     84.3643E-03    -1.94474E+06     111.507E+06     80.3357E+06    -113.623E+03    -50.6884E-03     102.374E-03    -51.6853E-03     8.25291E-03    -51.0073E-03     102.849E-03    -51.4424E-03     7.98409E-03
              48     17.0977E-03     85.4152E-03    -2.03877E+06     111.422E+06     80.3229E+06     100.404E+03    -50.6644E-03     102.348E-03    -51.6841E-03     8.26624E-03    -50.9836E-03     102.823E-03    -51.4410E-03     8.00030E-03
              49     17.0977E-03     86.4662E-03    -2.12514E+06     111.523E+06     80.4853E+06     26.6478E+03    -50.6634E-03     102.347E-03    -51.6833E-03     8.24787E-03    -50.9834E-03     102.822E-03    -51.4395E-03     7.98110E-03
              50     17.0977E-03     87.5172E-03    -2.16047E+06     111.361E+06     80.2376E+06    -184.002E+03    -50.6169E-03     102.301E-03    -51.6840E-03     8.22391E-03    -50.9364E-03     102.775E-03    -51.4411E-03     7.95455E-03
              51     17.0976E-03     88.5680E-03    -1.98606E+06     110.908E+06     79.7919E+06    -197.477E+03    -50.5965E-03     102.283E-03    -51.6861E-03     8.19302E-03    -50.9139E-03     102.755E-03    -51.4450E-03     7.92351E-03
              52     17.0976E-03     89.6189E-03    -2.05508E+06     110.480E+06     79.4128E+06    -164.321E+03    -50.5848E-03     102.273E-03    -51.6885E-03     8.19862E-03    -50.9013E-03     102.744E-03    -51.4486E-03     7.92973E-03
              53     17.0976E-03     90.6697E-03    -1.80321E+06     110.385E+06     79.0624E+06     107.554E+03    -50.5510E-03     102.239E-03    -51.6880E-03     8.19577E-03    -50.8657E-03     102.710E-03    -51.4501E-03     7.93081E-03
              54     17.0976E-03     91.7206E-03    -2.08468E+06     110.843E+06     79.3627E+06     292.021E+03    -50.4874E-03     102.178E-03    -51.6902E-03     8.15773E-03    -50.8045E-03     102.651E-03    -51.4510E-03     7.89549E-03
              55     17.0976E-03     92.7713E-03    -2.22978E+06     111.181E+06     79.9764E+06    -2.32434E+03    -50.3810E-03     102.076E-03    -51.6948E-03     8.15130E-03    -50.7001E-03     102.550E-03    -51.4529E-03     7.88565E-03
              56     17.0976E-03     93.8219E-03    -2.03179E+06     110.958E+06     80.0110E+06    -168.699E+03    -50.2890E-03     101.985E-03    -51.6961E-03     8.14926E-03    -50.6069E-03     102.458E-03    -51.4540E-03     7.88197E-03
              57     17.0976E-03     94.8723E-03    -2.13032E+06     110.461E+06     80.1333E+06    -235.565E+03    -50.2241E-03     101.920E-03    -51.6956E-03     8.16329E-03    -50.5418E-03     102.390E-03    -51.4520E-03     7.89557E-03
              58     17.0978E-03     95.9228E-03    -2.16146E+06     109.557E+06     80.4853E+06    -447.813E+03    -50.1649E-03     101.858E-03    -51.6931E-03     8.18862E-03    -50.4821E-03     102.323E-03    -51.4464E-03     7.91847E-03
              59     17.0979E-03     96.9732E-03    -1.97341E+06     108.404E+06     80.6113E+06    -436.551E+03    -50.1168E-03     101.804E-03    -51.6871E-03     8.23081E-03    -50.4315E-03     102.263E-03    -51.4384E-03     7.96099E-03
              60     17.0981E-03     98.0235E-03    -2.17074E+06     107.260E+06     80.4330E+06    -436.285E+03    -50.0989E-03     101.776E-03    -51.6774E-03     8.30472E-03    -50.4128E-03     102.230E-03    -51.4276E-03     8.03491E-03
              61     17.0983E-03     99.0739E-03    -2.13121E+06     105.848E+06     80.2118E+06    -644.271E+03    -50.1140E-03     101.777E-03    -51.6635E-03     8.41927E-03    -50.4254E-03     102.224E-03    -51.4128E-03     8.14652E-03
              62     17.0987E-03     100.124E-03    -2.15386E+06     103.975E+06     79.7466E+06    -820.629E+03    -50.1878E-03     101.830E-03    -51.6426E-03     8.59723E-03    -50.4961E-03     102.269E-03    -51.3915E-03     8.32156E-03
              63     17.0991E-03     101.175E-03    -2.09280E+06     101.625E+06     79.3722E+06     -987.98E+03    -50.3492E-03     101.962E-03    -51.6126E-03     8.86074E-03    -50.6535E-03     102.389E-03    -51.3600E-03     8.58169E-03
              64     17.0998E-03     102.225E-03    -1.98529E+06     99.1130E+06     79.6809E+06    -915.786E+03    -50.6371E-03     102.209E-03    -51.5724E-03     9.23564E-03    -50.9380E-03     102.624E-03    -51.3148E-03     8.95541E-03
              65     17.1005E-03     103.276E-03    -2.58394E+06     96.0064E+06     79.1838E+06    -1.38571E+06    -51.1961E-03     102.712E-03    -51.5163E-03     9.70830E-03    -51.4953E-03     103.114E-03    -51.2558E-03     9.41830E-03
              66     17.1013E-03     104.328E-03    -2.41078E+06     91.0969E+06     75.9779E+06    -2.38730E+06    -52.2662E-03     103.706E-03    -51.4402E-03     10.2468E-03    -52.5536E-03     104.088E-03    -51.1889E-03     9.93730E-03
              67     17.1017E-03     105.381E-03    -1.12832E+06     85.6026E+06     72.6156E+06    -1.89777E+06    -53.8686E-03     105.230E-03    -51.3610E-03     10.9202E-03    -54.1379E-03     105.588E-03    -51.1204E-03     10.6073E-03
              68     17.1021E-03     106.437E-03    -2.02961E+06     81.5503E+06     70.7861E+06    -1.22077E+06    -55.7788E-03     107.072E-03    -51.2927E-03     11.7714E-03    -56.0456E-03     107.415E-03    -51.0541E-03     11.4548E-03
              69     17.1021E-03     107.494E-03    -1.73036E+06     78.1241E+06     70.3026E+06    -1.44850E+06    -57.8051E-03     109.037E-03    -51.2323E-03     12.8724E-03    -58.0664E-03     109.366E-03    -50.9916E-03     12.5388E-03
              70     17.1024E-03     108.554E-03    -2.01362E+06     74.1728E+06     70.0542E+06    -1.66673E+06    -59.8757E-03     111.051E-03    -51.1758E-03     14.1474E-03    -60.1342E-03     111.363E-03    -50.9301E-03     13.7960E-03
              71     17.1024E-03     109.615E-03    -1.67097E+06     69.7540E+06     70.0134E+06    -1.80395E+06    -62.0263E-03     113.144E-03    -51.1182E-03     15.5023E-03    -62.2788E-03     113.436E-03    -50.8668E-03     15.1325E-03
              72     17.1027E-03     110.679E-03    -2.32441E+06     64.5842E+06     69.9298E+06    -2.33937E+06    -64.2384E-03     115.297E-03    -51.0584E-03     16.8558E-03    -64.4888E-03     115.566E-03    -50.7991E-03     16.4609E-03
              73     17.1028E-03     111.745E-03    -653.339E+03     58.4909E+06     69.9090E+06    -2.40499E+06    -66.6796E-03     117.667E-03    -50.9876E-03     18.3357E-03    -66.9153E-03     117.906E-03    -50.7219E-03     17.9201E-03
              74     17.1033E-03     112.814E-03    -1.10027E+06     53.5092E+06     70.0698E+06    -1.44216E+06    -69.3054E-03     120.212E-03    -50.9069E-03     20.0129E-03    -69.5392E-03     120.429E-03    -50.6325E-03     19.5856E-03
              75     17.1038E-03     113.886E-03     12.2150E+06     43.9968E+06     72.0579E+06    -4.87525E+06    -72.0213E-03     122.826E-03    -50.8049E-03     21.9092E-03    -72.1789E-03     122.974E-03    -50.5262E-03     21.4007E-03
              76     17.1051E-03     114.960E-03    -19.6725E+06     22.9952E+06     49.2328E+06    -8.96973E+06    -76.2331E-03     126.871E-03    -50.6375E-03     25.1374E-03    -76.4782E-03     126.984E-03    -50.3961E-03     24.5650E-03
              77     17.1037E-03     116.043E-03    -29.2807E+06     14.1517E+06     47.4473E+06       2.627E+06    -79.2360E-03     129.793E-03    -50.5565E-03     25.4318E-03    -79.5151E-03     129.879E-03    -50.2973E-03     25.0175E-03
              78     17.1068E-03     117.119E-03     4.87946E+06     22.9443E+06     74.2048E+06     1.91203E+06    -80.7885E-03     131.324E-03    -50.5358E-03     26.6379E-03    -80.9594E-03     131.379E-03    -50.2051E-03     26.2070E-03
              79     17.1057E-03     118.205E-03     10.0614E+06     28.7334E+06     76.0776E+06    -40.8695E+03    -83.9268E-03     134.314E-03    -50.3877E-03     29.7105E-03    -84.0809E-03     134.387E-03    -50.0635E-03     29.2620E-03
              80     17.1090E-03     119.294E-03     7.11848E+06     30.6432E+06     70.2521E+06    -627.526E+03    -86.0644E-03     136.304E-03    -50.2395E-03     32.2703E-03    -86.2221E-03     136.392E-03    -49.9430E-03     31.8521E-03
              81     17.1081E-03     120.381E-03     6.45165E+06     25.8392E+06     59.8321E+06    -4.23940E+06    -87.0909E-03     137.224E-03    -50.1329E-03     33.7426E-03    -87.2167E-03     137.291E-03    -49.8805E-03     33.3759E-03
              82     17.1093E-03     121.473E-03     3.22365E+06     19.0966E+06     36.1942E+06    -2.71688E+06    -71.7847E-03     122.256E-03    -50.4709E-03     22.4722E-03    -71.8591E-03     122.309E-03    -50.3223E-03     22.2940E-03
              83     16.2295E-03     122.482E-03    -10.5086E+06    -6.32282E+06     21.8824E+06    -4.97228E+06    -52.4956E-03     103.318E-03    -50.8220E-03     10.1849E-03    -52.5685E-03     103.279E-03    -50.6882E-03     10.0575E-03
              84     15.3579E-03     122.392E-03     1.81839E+06    -5.72744E+06     44.7262E+06     1.12941E+06    -45.9335E-03     96.7726E-03    -50.8391E-03     5.63704E-03    -45.9805E-03     96.6866E-03    -50.6098E-03     5.57376E-03
              85     14.4951E-03     122.286E-03     8.53478E+06     5.24811E+06     64.5035E+06     670.256E+03    -41.1756E-03     92.2145E-03    -51.0390E-03     2.56088E-03    -41.2356E-03     92.1435E-03    -50.7364E-03     2.49225E-03
              86     13.6299E-03     122.173E-03     10.6101E+06    -431.015E+03     69.4007E+06    -3.45555E+06    -39.2918E-03     90.6234E-03    -51.3316E-03     217.083E-06    -39.3412E-03     90.5125E-03    -50.9994E-03     94.9107E-06
              87     12.7697E-03     122.056E-03     14.9091E+06    -1.74313E+06     73.4912E+06    -2.40240E+06    -39.8195E-03     91.4568E-03    -51.6373E-03    -2.58032E-03    -39.8524E-03     91.3244E-03    -51.2889E-03    -2.68929E-03
              88     11.9113E-03     121.942E-03     16.6900E+06    -1.07834E+06     76.0512E+06    -594.298E+03    -42.0225E-03     93.8785E-03    -51.8560E-03    -5.25412E-03    -42.0511E-03     93.7411E-03    -51.4984E-03    -5.34269E-03
              89     11.0572E-03     121.830E-03     17.6927E+06     874.398E+03      76.772E+06    -1.25599E+06    -44.2846E-03     96.2171E-03    -51.9326E-03    -7.78233E-03    -44.3125E-03     96.0843E-03    -51.5756E-03    -7.88118E-03
              90     10.2056E-03     121.724E-03     19.2439E+06    -996.572E+03     76.1075E+06    -1.77933E+06    -46.0532E-03     97.9447E-03    -51.8915E-03    -9.17515E-03    -46.0699E-03     97.7993E-03    -51.5375E-03    -9.27979E-03
              91     9.35554E-03     121.625E-03     21.0333E+06    -457.366E+03     75.1484E+06    -1.56049E+06    -47.3870E-03     99.1519E-03    -51.7649E-03    -9.82875E-03    -47.3942E-03     99.0067E-03    -51.4190E-03    -9.92651E-03
              92     8.50595E-03     121.534E-03     22.0118E+06    -397.462E+03     73.2140E+06    -1.42918E+06    -48.3488E-03     99.9309E-03    -51.5820E-03    -10.0750E-03    -48.3482E-03     99.7866E-03    -51.2473E-03    -10.1652E-03
              93     7.65666E-03     121.451E-03     23.0237E+06     368.861E+03     70.9474E+06    -2.26877E+06    -49.0345E-03     100.397E-03    -51.3628E-03    -9.99660E-03    -49.0267E-03     100.258E-03    -51.0420E-03    -10.0911E-03
              94     6.80726E-03     121.378E-03     24.5726E+06    -799.389E+03     67.1397E+06     -2.6282E+06    -49.4566E-03     100.578E-03    -51.1216E-03    -9.60966E-03    -49.4339E-03     100.436E-03    -50.8204E-03    -9.70172E-03
              95     5.95755E-03     121.312E-03     26.2239E+06    -122.287E+03     62.8911E+06    -2.74606E+06    -49.6737E-03     100.551E-03    -50.8773E-03    -8.96712E-03    -49.6376E-03     100.416E-03    -50.6007E-03    -9.05338E-03
              96     5.10739E-03     121.256E-03     28.0852E+06    -486.217E+03     58.1216E+06    -3.01425E+06    -49.7529E-03     100.402E-03    -50.6496E-03    -8.14531E-03    -49.7001E-03     100.270E-03    -50.3990E-03    -8.22782E-03
              97     4.25672E-03     121.208E-03     30.4613E+06    -286.775E+03     53.4534E+06    -3.31617E+06    -49.7678E-03     100.219E-03    -50.4516E-03    -7.20309E-03    -49.6968E-03     100.091E-03    -50.2281E-03    -7.28243E-03
              98     3.40564E-03     121.170E-03     33.2383E+06    -859.777E+03     48.3564E+06    -3.34597E+06    -49.7631E-03     100.057E-03    -50.2937E-03    -6.16265E-03    -49.6701E-03     99.9293E-03    -50.0989E-03    -6.23542E-03
              99     2.55421E-03     121.139E-03     36.0291E+06    -1.08548E+06     44.5967E+06    -2.95029E+06    -49.7744E-03     99.9692E-03    -50.1948E-03    -5.04123E-03    -49.6619E-03     99.8419E-03    -50.0225E-03    -5.10201E-03
             100     1.70254E-03     121.117E-03     38.2059E+06    -980.012E+03     41.8463E+06    -2.24632E+06    -49.8786E-03     100.033E-03    -50.1544E-03    -3.86988E-03    -49.7516E-03     99.9070E-03    -49.9991E-03    -3.91474E-03
             101     850.818E-06     121.104E-03     39.8302E+06    -1.83124E+06     38.8605E+06    -1.84280E+06    -49.6125E-03     100.187E-03    -50.5747E-03    -2.74494E-03    -49.4723E-03     100.059E-03    -50.4355E-03    -2.77805E-03
             102     854.449E-09     120.049E-03     33.3861E+06    -5.23922E+06     33.1888E+06    -1.26504E+06    -45.0782E-03     90.4856E-03    -45.4074E-03    -130.507E-06    -44.9556E-03     90.3592E-03    -45.2823E-03    -153.164E-06
             103     111.993E-09     119.022E-03     17.1136E+06    -11.0113E+06     18.9993E+06    -2.29410E+06    -37.6788E-03     74.7606E-03    -37.0819E-03     2.40854E-03    -37.6063E-03     74.6520E-03    -36.9957E-03     2.37223E-03
             104    -13.4205E-09     118.006E-03    -4.33403E+06    -21.8079E+06    -3.82918E+06    -3.45091E+06    -32.7679E-03     65.4249E-03    -32.6570E-03     3.57876E-03    -32.7531E-03     65.3275E-03    -32.6383E-03     3.52825E-03
             105     113.142E-09     116.997E-03    -30.4818E+06    -34.6385E+06    -29.7684E+06    -3.86170E+06    -30.4423E-03     60.8199E-03    -30.3777E-03     4.79270E-03    -30.5015E-03     60.7342E-03    -30.4321E-03     4.73874E-03
             106    -101.488E-09     115.991E-03    -59.1204E+06    -48.7598E+06    -58.7089E+06    -4.26281E+06    -30.1381E-03     60.2550E-03    -30.1169E-03     5.68879E-03    -30.2780E-03     60.1822E-03    -30.2540E-03     5.63117E-03
             107     117.383E-09     114.984E-03    -89.0041E+06    -62.8744E+06    -88.6179E+06    -4.09706E+06    -31.5555E-03     63.0648E-03    -31.5092E-03     6.32723E-03    -31.7811E-03     63.0079E-03    -31.7321E-03     6.27275E-03
             108    -64.2599E-09     113.971E-03    -119.508E+06    -76.4709E+06    -119.720E+06    -3.66112E+06    -34.2014E-03     68.3139E-03    -34.1126E-03     6.63956E-03    -34.5149E-03     68.2782E-03    -34.4270E-03     6.59086E-03
             109     147.266E-09     112.953E-03    -134.406E+06    -88.0498E+06    -134.584E+06    -2.91107E+06    -37.5450E-03     74.9674E-03    -37.4224E-03     6.65123E-03    -37.8948E-03     74.9168E-03    -37.7727E-03     6.61121E-03
             110    -34.8338E-09     111.928E-03    -119.233E+06    -96.9637E+06    -119.649E+06    -1.97769E+06    -41.0774E-03     82.0249E-03    -40.9474E-03     6.46328E-03    -41.3601E-03     81.8862E-03    -41.2322E-03     6.43335E-03
             111     127.967E-09     110.895E-03    -97.2638E+06    -103.103E+06    -97.3756E+06    -1.39767E+06    -44.3232E-03     88.5252E-03    -44.2019E-03     6.19677E-03    -44.5194E-03     88.2918E-03    -44.3983E-03     6.17176E-03
             112    -27.5633E-09     109.856E-03    -84.2063E+06    -108.802E+06    -84.2536E+06    -1.68341E+06    -47.0109E-03     93.9105E-03    -46.8996E-03     5.92675E-03    -47.1524E-03     93.6109E-03    -47.0411E-03     5.89521E-03
             113     103.938E-09     108.812E-03    -77.9287E+06    -115.512E+06    -78.0114E+06    -1.99331E+06    -49.0781E-03     98.0504E-03    -48.9723E-03     5.69091E-03    -49.1876E-03     97.6992E-03    -49.0819E-03     5.65265E-03
             114    -13.2655E-09     107.764E-03    -75.5043E+06    -123.208E+06    -75.6203E+06    -2.17433E+06    -50.5672E-03     101.031E-03    -50.4636E-03     5.50743E-03    -50.6568E-03     100.634E-03    -50.5535E-03     5.46449E-03
             115     85.7221E-09     106.714E-03    -75.1708E+06    -131.145E+06    -75.2828E+06    -2.14787E+06    -51.5717E-03     103.039E-03    -51.4677E-03     5.37457E-03    -51.6487E-03     102.602E-03    -51.5449E-03     5.33012E-03
             116     5.85484E-09     105.663E-03    -76.2589E+06    -139.077E+06    -76.3461E+06    -2.13657E+06    -52.1968E-03     104.288E-03    -52.0908E-03     5.28586E-03    -52.2661E-03     103.814E-03    -52.1603E-03     5.24019E-03
             117     70.4948E-09     104.610E-03    -78.1043E+06    -146.538E+06    -78.2559E+06    -1.90344E+06    -52.5433E-03     104.979E-03    -52.4357E-03     5.23284E-03    -52.6083E-03     104.474E-03    -52.5012E-03     5.18927E-03
             118     23.3047E-09     103.557E-03    -80.6621E+06    -153.625E+06    -80.6045E+06    -1.92158E+06    -52.6986E-03     105.287E-03    -52.5888E-03     5.20572E-03    -52.7627E-03     104.754E-03    -52.6521E-03     5.16134E-03
             119     59.1943E-09     102.504E-03    -83.1223E+06    -160.457E+06    -83.3132E+06    -1.76533E+06    -52.7283E-03     105.345E-03    -52.6165E-03     5.19461E-03    -52.7909E-03     104.784E-03    -52.6799E-03     5.15195E-03
             120     35.3024E-09     101.451E-03    -85.6828E+06    -166.497E+06    -85.6833E+06    -1.49899E+06    -52.6826E-03     105.252E-03    -52.5691E-03     5.19404E-03    -52.7458E-03     104.668E-03    -52.6318E-03     5.15469E-03
             121     52.1867E-09     100.398E-03    -87.8221E+06    -171.781E+06    -87.9112E+06    -1.36017E+06    -52.5965E-03     105.078E-03    -52.4817E-03     5.19961E-03    -52.6595E-03     104.475E-03    -52.5448E-03     5.16202E-03
             122     43.5750E-09     99.3458E-03    -89.8886E+06    -176.388E+06    -89.9412E+06    -1.13326E+06    -52.4939E-03     104.872E-03    -52.3780E-03     5.20787E-03    -52.5576E-03     104.251E-03    -52.4416E-03     5.17326E-03
             123     45.9350E-09     98.2934E-03    -91.5591E+06    -180.184E+06    -91.5890E+06    -933.251E+03    -52.3887E-03     104.661E-03    -52.2721E-03     5.21698E-03    -52.4528E-03     104.026E-03    -52.3360E-03     5.18504E-03
             124     51.4068E-09     97.2413E-03    -93.1846E+06    -183.679E+06    -93.1425E+06    -971.293E+03    -52.2894E-03     104.462E-03    -52.1723E-03     5.22698E-03    -52.3544E-03     103.814E-03    -52.2365E-03     5.19463E-03
             125     39.8320E-09     96.1894E-03    -93.6327E+06    -186.969E+06    -93.7705E+06    -824.324E+03    -52.2057E-03     104.294E-03    -52.0881E-03     5.23550E-03    -52.2673E-03     103.631E-03    -52.1501E-03     5.20513E-03
             126     56.2848E-09     95.1377E-03    -93.8830E+06    -189.606E+06    -93.8593E+06    -623.778E+03    -52.1338E-03     104.150E-03    -52.0158E-03     5.24116E-03    -52.1927E-03     103.474E-03    -52.0740E-03     5.21346E-03
             127     37.3978E-09     94.0861E-03    -94.7142E+06    -191.645E+06    -94.7574E+06    -520.063E+03    -52.0684E-03     104.018E-03    -51.9500E-03     5.24737E-03    -52.1271E-03     103.335E-03    -52.0086E-03     5.22108E-03
             128     58.4458E-09     93.0347E-03    -94.3265E+06    -193.228E+06    -94.3503E+06    -380.158E+03    -52.0234E-03     103.928E-03    -51.9051E-03     5.25498E-03    -52.0785E-03     103.236E-03    -51.9598E-03     5.23056E-03
             129     35.4361E-09     91.9833E-03    -93.5056E+06    -194.380E+06    -93.5811E+06    -246.440E+03    -51.9908E-03     103.863E-03    -51.8725E-03     5.25875E-03    -52.0412E-03     103.163E-03    -51.9229E-03     5.23611E-03
             130     59.7828E-09     90.9321E-03    -94.0776E+06    -195.261E+06    -94.0064E+06    -237.173E+03    -51.9582E-03     103.798E-03    -51.8398E-03     5.26232E-03    -52.0096E-03     103.095E-03    -51.8903E-03     5.23985E-03
             131     35.7521E-09     89.8808E-03    -93.6330E+06    -196.135E+06    -93.6139E+06    -301.817E+03    -51.9370E-03     103.755E-03    -51.8184E-03     5.26574E-03    -51.9854E-03     103.047E-03    -51.8663E-03     5.24244E-03
             132     59.2309E-09     88.8297E-03    -92.9178E+06    -196.846E+06    -93.0257E+06    -145.502E+03    -51.9210E-03     103.723E-03    -51.8022E-03     5.26582E-03    -51.9657E-03     103.009E-03    -51.8472E-03     5.24457E-03
             133     35.2696E-09     87.7785E-03    -92.8421E+06    -197.220E+06    -92.8538E+06    -14.9691E+03    -51.9037E-03     103.689E-03    -51.7852E-03     5.26698E-03    -51.9477E-03     102.973E-03    -51.8289E-03     5.24746E-03
             134     60.1784E-09     86.7274E-03    -92.1573E+06    -197.354E+06    -92.1741E+06    -27.0554E+03    -51.8923E-03     103.666E-03    -51.7739E-03     5.26998E-03    -51.9337E-03     102.947E-03    -51.8150E-03     5.25032E-03
             135     34.0823E-09     85.6763E-03    -91.5204E+06    -197.288E+06    -91.5536E+06    -1.52986E+03    -51.8839E-03     103.649E-03    -51.7654E-03     5.27116E-03    -51.9231E-03     102.929E-03    -51.8044E-03     5.25184E-03
             136     61.4547E-09     84.6253E-03    -91.0696E+06    -197.194E+06    -91.0564E+06     45.0306E+03    -51.8750E-03     103.632E-03    -51.7565E-03     5.27085E-03    -51.9128E-03     102.910E-03    -51.7938E-03     5.25214E-03
             137     33.2195E-09     83.5742E-03    -90.5438E+06    -197.207E+06    -90.6145E+06     5.15664E+03    -51.8639E-03     103.609E-03    -51.7456E-03     5.26949E-03    -51.8997E-03     102.887E-03    -51.7814E-03     5.25027E-03
             138     61.2290E-09     82.5232E-03    -90.2262E+06    -197.016E+06    -90.2408E+06     105.870E+03    -51.8493E-03     103.580E-03    -51.7309E-03     5.26693E-03    -51.8844E-03     102.857E-03    -51.7657E-03     5.24902E-03
             139     34.1616E-09     81.4722E-03    -89.8813E+06    -196.769E+06    -89.8103E+06     31.9225E+03    -51.8338E-03     103.549E-03    -51.7155E-03     5.26688E-03    -51.8681E-03     102.827E-03    -51.7489E-03     5.24802E-03
             140     61.2093E-09     80.4213E-03    -89.6108E+06    -196.557E+06    -89.5806E+06        -782.082    -51.8205E-03     103.522E-03    -51.7019E-03     5.26778E-03    -51.8541E-03     102.800E-03    -51.7349E-03     5.24852E-03
             141     34.1084E-09     79.3703E-03    -89.2256E+06    -196.191E+06    -89.3061E+06     145.516E+03    -51.8103E-03     103.502E-03    -51.6915E-03     5.26741E-03    -51.8429E-03     102.780E-03    -51.7242E-03     5.25006E-03
             142     60.3720E-09     78.3195E-03    -88.9848E+06    -195.879E+06    -88.9858E+06     117.993E+03    -51.8025E-03     103.487E-03    -51.6841E-03     5.26830E-03    -51.8349E-03     102.766E-03    -51.7160E-03     5.25061E-03
             143     35.1872E-09     77.2686E-03    -88.7627E+06    -195.625E+06    -88.7574E+06     97.2464E+03    -51.7967E-03     103.475E-03    -51.6785E-03     5.26818E-03    -51.8286E-03     102.755E-03    -51.7099E-03     5.25023E-03
             144     59.0802E-09     76.2177E-03    -88.4934E+06    -195.341E+06    -88.5111E+06     111.827E+03    -51.7918E-03     103.465E-03    -51.6735E-03     5.26699E-03    -51.8231E-03     102.746E-03    -51.7045E-03     5.24923E-03
             145     36.3179E-09     75.1668E-03    -88.3306E+06    -195.114E+06    -88.2702E+06     47.6307E+03    -51.7872E-03     103.456E-03    -51.6687E-03     5.26647E-03    -51.8184E-03     102.737E-03    -51.6991E-03     5.24789E-03
             146     59.1513E-09     74.1159E-03    -88.1631E+06    -194.941E+06    -88.1446E+06     16.1600E+03    -51.7831E-03     103.448E-03    -51.6646E-03     5.26547E-03    -51.8139E-03     102.729E-03    -51.6948E-03     5.24647E-03
             147     35.9231E-09     73.0651E-03    -87.9250E+06    -194.716E+06    -87.9844E+06     33.0935E+03    -51.7797E-03     103.441E-03    -51.6614E-03     5.26359E-03    -51.8098E-03     102.723E-03    -51.6915E-03     5.24482E-03
             148     58.2797E-09     72.0142E-03    -87.8804E+06    -194.592E+06    -87.8924E+06     28.4646E+03    -51.7755E-03     103.433E-03    -51.6570E-03     5.26190E-03    -51.8057E-03     102.715E-03    -51.6869E-03     5.24308E-03
             149     37.5655E-09     70.9634E-03    -87.8572E+06    -194.545E+06    -87.8673E+06     26.8586E+03    -51.7708E-03     103.423E-03    -51.6523E-03     5.26085E-03    -51.8011E-03     102.706E-03    -51.6821E-03     5.24202E-03
             150     56.8152E-09     69.9126E-03    -87.7465E+06    -194.425E+06    -87.7230E+06     30.9918E+03    -51.7675E-03     103.417E-03    -51.6491E-03     5.25964E-03    -51.7976E-03     102.699E-03    -51.6786E-03     5.24087E-03
             151     39.0984E-09     68.8617E-03    -87.7223E+06    -194.384E+06    -87.7164E+06    -8.62184E+03    -51.7668E-03     103.416E-03    -51.6490E-03     5.26012E-03    -51.7969E-03     102.699E-03    -51.6785E-03     5.24083E-03
             152     54.1643E-09     67.8109E-03    -87.6172E+06    -194.282E+06    -87.6639E+06     25.9094E+03    -51.7706E-03     103.423E-03    -51.6529E-03     5.26048E-03    -51.8003E-03     102.707E-03    -51.6825E-03     5.24165E-03
             153     40.9343E-09     66.7600E-03    -87.7304E+06    -194.317E+06    -87.6570E+06    -7.30745E+03    -51.7751E-03     103.432E-03    -51.6569E-03     5.25933E-03    -51.8053E-03     102.715E-03    -51.6862E-03     5.24006E-03
             154     54.4672E-09     65.7092E-03    -87.6829E+06    -194.292E+06    -87.6935E+06    -33.4404E+03    -51.7774E-03     103.436E-03    -51.6591E-03     5.25698E-03    -51.8074E-03     102.720E-03    -51.6887E-03     5.23736E-03
             155     39.9751E-09     64.6583E-03    -87.6644E+06    -194.247E+06    -87.6634E+06     6.62532E+03    -51.7771E-03     103.436E-03    -51.6589E-03     5.25405E-03    -51.8071E-03     102.720E-03    -51.6885E-03     5.23494E-03
             156     55.2731E-09     63.6075E-03    -87.7004E+06    -194.233E+06    -87.6507E+06    -59.5210E+03    -51.7741E-03     103.430E-03    -51.6561E-03     5.25173E-03    -51.8044E-03     102.714E-03    -51.6855E-03     5.23176E-03
             157     39.6075E-09     62.5566E-03    -87.6366E+06    -194.206E+06    -87.7146E+06    -4.94927E+03    -51.7689E-03     103.420E-03    -51.6510E-03     5.24964E-03    -51.7988E-03     102.704E-03    -51.6809E-03     5.23039E-03
             158     54.0832E-09     61.5058E-03    -87.7768E+06    -194.261E+06    -87.7467E+06     17.3095E+03    -51.7622E-03     103.406E-03    -51.6443E-03     5.24759E-03    -51.7926E-03     102.690E-03    -51.6741E-03     5.22865E-03
             159     51.2336E-09     59.4042E-03    -87.7744E+06    -194.255E+06    -87.8086E+06     20.5633E+03    -51.7459E-03     103.374E-03    -51.6281E-03     5.24223E-03    -51.7762E-03     102.658E-03    -51.6582E-03     5.22333E-03
             160     44.4118E-09     58.3534E-03    -87.7888E+06    -194.208E+06    -87.7398E+06     37.5618E+03    -51.7361E-03     103.355E-03    -51.6185E-03     5.23937E-03    -51.7667E-03     102.639E-03    -51.6483E-03     5.22072E-03
             161     49.2579E-09     57.3027E-03    -87.8296E+06    -194.141E+06    -87.8569E+06     30.9136E+03    -51.7239E-03     103.330E-03    -51.6065E-03     5.23679E-03    -51.7546E-03     102.615E-03    -51.6369E-03     5.21807E-03
             162     45.3013E-09     56.2519E-03    -87.8588E+06    -194.145E+06    -87.8589E+06    -11.7802E+03    -51.7109E-03     103.305E-03    -51.5941E-03     5.23412E-03    -51.7418E-03     102.590E-03    -51.6245E-03     5.21486E-03
             163     47.7523E-09     55.2013E-03    -87.8435E+06    -194.088E+06    -87.8802E+06    -15.0220E+03    -51.6963E-03     103.276E-03    -51.5797E-03     5.22930E-03    -51.7271E-03     102.561E-03    -51.6103E-03     5.21002E-03
             164     46.0458E-09     54.1506E-03    -87.9855E+06    -194.156E+06    -87.9118E+06         205.857    -51.6802E-03     103.243E-03    -51.5625E-03     5.22467E-03    -51.7116E-03     102.528E-03    -51.5930E-03     5.20560E-03
             165     50.1335E-09     53.1000E-03    -87.8328E+06    -194.209E+06    -87.8554E+06    -23.8580E+03    -51.6632E-03     103.209E-03    -51.5454E-03     5.22064E-03    -51.6938E-03     102.493E-03    -51.5757E-03     5.20128E-03
             166     42.6786E-09     52.0494E-03    -87.8420E+06    -194.221E+06    -87.9087E+06     41.8596E+03    -51.6434E-03     103.170E-03    -51.5265E-03     5.21399E-03    -51.6739E-03     102.454E-03    -51.5570E-03     5.19551E-03
             167     51.5449E-09     50.9988E-03    -88.0219E+06    -194.320E+06    -87.9684E+06     8.21007E+03    -51.6214E-03     103.126E-03    -51.5046E-03     5.20824E-03    -51.6526E-03     102.410E-03    -51.5351E-03     5.18935E-03
             168     42.4154E-09     49.9483E-03    -87.9516E+06    -194.291E+06    -87.9928E+06    -55.1087E+03    -51.5976E-03     103.079E-03    -51.4811E-03     5.20219E-03    -51.6285E-03     102.363E-03    -51.5118E-03     5.18250E-03
             169     50.4390E-09     48.8979E-03    -88.0124E+06    -194.309E+06    -88.0278E+06    -15.4022E+03    -51.5707E-03     103.025E-03    -51.4541E-03     5.19504E-03    -51.6018E-03     102.309E-03    -51.4848E-03     5.17589E-03
             170     44.0200E-09     47.8475E-03    -88.0589E+06    -194.322E+06    -88.0458E+06    -11.8497E+03    -51.5408E-03     102.965E-03    -51.4238E-03     5.18859E-03    -51.5721E-03     102.249E-03    -51.4545E-03     5.16951E-03
             171     49.8233E-09     46.7972E-03    -88.0915E+06    -194.379E+06    -88.1089E+06    -23.7694E+03    -51.5076E-03     102.899E-03    -51.3912E-03     5.18132E-03    -51.5388E-03     102.183E-03    -51.4222E-03     5.16212E-03
             172     43.1901E-09     45.7469E-03    -88.1034E+06    -194.376E+06    -88.1208E+06     43.7424E+03    -51.4707E-03     102.825E-03    -51.3541E-03     5.17207E-03    -51.5020E-03     102.109E-03    -51.3851E-03     5.15378E-03
             173     51.1168E-09     44.6967E-03    -88.2120E+06    -194.343E+06    -88.2038E+06     26.9057E+03    -51.4298E-03     102.742E-03    -51.3119E-03     5.16290E-03    -51.4616E-03     102.026E-03    -51.3432E-03     5.14444E-03
             174     44.4659E-09     43.6467E-03    -88.2822E+06    -194.383E+06    -88.2535E+06    -62.8044E+03    -51.3857E-03     102.654E-03    -51.2683E-03     5.15215E-03    -51.4177E-03     101.938E-03    -51.2997E-03     5.13258E-03
             175     49.2665E-09     42.5967E-03    -88.2141E+06    -194.394E+06    -88.2593E+06    -38.2877E+03    -51.3369E-03     102.558E-03    -51.2210E-03     5.13742E-03    -51.3686E-03     101.842E-03    -51.2525E-03     5.11822E-03
             176     43.0491E-09     41.5468E-03    -88.2291E+06    -194.379E+06    -88.2564E+06     48.3541E+03    -51.2812E-03     102.447E-03    -51.1657E-03     5.12046E-03    -51.3130E-03     101.731E-03    -51.1972E-03     5.10247E-03
             177     50.3078E-09     40.4971E-03    -88.1851E+06    -194.360E+06    -88.2062E+06     49.8093E+03    -51.2161E-03     102.317E-03    -51.1009E-03     5.10028E-03    -51.2477E-03     101.601E-03    -51.1323E-03     5.08238E-03
             178     41.5132E-09     39.4475E-03    -88.2313E+06    -194.379E+06    -88.2553E+06    -3.30179E+03    -51.1377E-03     102.162E-03    -51.0246E-03     5.07702E-03    -51.1694E-03     101.447E-03    -51.0561E-03     5.05854E-03
             179     48.3594E-09     38.3981E-03    -88.1910E+06    -194.265E+06    -88.1712E+06    -7.55754E+03    -51.0443E-03     101.977E-03    -50.9323E-03     5.04900E-03    -51.0762E-03     101.262E-03    -50.9636E-03     5.03058E-03
             180     42.3220E-09     37.3489E-03    -88.1305E+06    -194.209E+06    -88.1767E+06         19.7100    -50.9340E-03     101.755E-03    -50.8213E-03     5.01872E-03    -50.9656E-03     101.040E-03    -50.8528E-03     5.00053E-03
             181     48.2056E-09     36.2999E-03    -88.1530E+06    -194.200E+06    -88.1530E+06     40.9327E+03    -50.8073E-03     101.501E-03    -50.6938E-03     4.98651E-03    -50.8390E-03     100.786E-03    -50.7252E-03     4.96897E-03
             182     44.3912E-09     35.2512E-03    -88.1531E+06    -194.141E+06    -88.1323E+06    -3.07477E+03    -50.6641E-03     101.216E-03    -50.5515E-03     4.95143E-03    -50.6960E-03     100.501E-03    -50.5828E-03     4.93347E-03
             183     45.1549E-09     34.2029E-03    -88.0501E+06    -193.988E+06    -88.0322E+06    -10.2969E+03    -50.5051E-03     100.898E-03    -50.3927E-03     4.91156E-03    -50.5368E-03     100.184E-03    -50.4239E-03     4.89368E-03
             184     47.2600E-09     33.1549E-03    -88.0091E+06    -193.950E+06    -88.0508E+06    -11.8969E+03    -50.3284E-03     100.544E-03    -50.2153E-03     4.86928E-03    -50.3600E-03     99.8297E-03    -50.2467E-03     4.85158E-03
             185     42.9758E-09     32.1073E-03    -88.0212E+06    -193.925E+06    -88.0943E+06     2.28839E+03    -50.1364E-03     100.158E-03    -50.0215E-03     4.82063E-03    -50.1680E-03     99.4441E-03    -50.0532E-03     4.80332E-03
             186     52.3887E-09     31.0601E-03    -88.1401E+06    -193.929E+06    -88.1426E+06     66.9189E+03    -49.9344E-03     99.7498E-03    -49.8154E-03     4.77205E-03    -49.9665E-03     99.0362E-03    -49.8471E-03     4.75579E-03
             187     45.9963E-09     30.0134E-03    -88.2210E+06    -193.913E+06    -88.2057E+06        -305.314    -49.7254E-03     99.3286E-03    -49.6032E-03     4.72116E-03    -49.7578E-03     98.6153E-03    -49.6352E-03     4.70425E-03
             188     55.1666E-09     28.9671E-03    -88.2630E+06    -193.868E+06    -88.2991E+06    -11.6877E+03    -49.5097E-03     98.8942E-03    -49.3844E-03     4.66361E-03    -49.5423E-03     98.1812E-03    -49.4168E-03     4.64676E-03
             189     48.4314E-09     27.9213E-03    -88.3818E+06    -193.840E+06    -88.4000E+06     35.5632E+03    -49.2881E-03     98.4473E-03    -49.1593E-03     4.60641E-03    -49.3211E-03     97.7349E-03    -49.1921E-03     4.59040E-03
             190     59.1170E-09     26.8759E-03    -88.3651E+06    -193.611E+06    -88.3421E+06     33.7619E+03    -49.0642E-03     97.9945E-03    -48.9302E-03     4.54047E-03    -49.0976E-03     97.2831E-03    -48.9631E-03     4.52466E-03
             191     54.1903E-09     25.8311E-03    -88.3625E+06    -193.446E+06    -88.4189E+06     11.7486E+03    -48.8373E-03     97.5377E-03    -48.7003E-03     4.47455E-03    -48.8708E-03     96.8271E-03    -48.7338E-03     4.45869E-03
             192     58.0021E-09     24.7867E-03    -88.4289E+06    -193.257E+06    -88.4341E+06     70.8184E+03    -48.6062E-03     97.0731E-03    -48.4668E-03     4.39467E-03    -48.6403E-03     96.3636E-03    -48.5006E-03     4.37984E-03
             193     60.3018E-09     23.7428E-03    -88.3161E+06    -192.835E+06    -88.3716E+06     107.932E+03    -48.3643E-03     96.5855E-03    -48.2212E-03     4.29979E-03    -48.3985E-03     95.8779E-03    -48.2554E-03     4.28575E-03
             194     58.1899E-09     22.6994E-03    -88.0873E+06    -192.126E+06    -88.1646E+06     252.297E+03    -48.1017E-03     96.0638E-03    -47.9621E-03     4.19318E-03    -48.1360E-03     95.3591E-03    -47.9967E-03     4.18135E-03
             195     54.1533E-09     21.6566E-03    -87.6412E+06    -191.100E+06    -87.6435E+06     341.972E+03    -47.7987E-03     95.4639E-03    -47.6651E-03     4.05359E-03    -47.8331E-03     94.7629E-03    -47.6992E-03     4.04335E-03
             196     55.5942E-09     20.6145E-03    -86.8232E+06    -189.646E+06    -86.9418E+06     379.578E+03    -47.4228E-03     94.7137E-03    -47.2909E-03     3.88184E-03    -47.4561E-03     94.0178E-03    -47.3248E-03     3.87259E-03
             197     53.1576E-09     19.5732E-03    -86.2306E+06    -188.012E+06    -86.2815E+06     497.516E+03    -46.9404E-03     93.7525E-03    -46.8121E-03     3.67335E-03    -46.9741E-03     93.0629E-03    -46.8459E-03     3.66627E-03
             198     52.0322E-09     18.5332E-03    -85.0018E+06    -185.842E+06    -85.1608E+06     707.086E+03    -46.3143E-03     92.5154E-03    -46.2011E-03     3.42123E-03    -46.3466E-03     91.8332E-03    -46.2342E-03     3.41765E-03
             199     30.5462E-09     17.4945E-03    -83.4520E+06    -183.018E+06    -83.4920E+06     833.399E+03    -45.4848E-03     90.8608E-03    -45.3760E-03     3.08666E-03    -45.5159E-03     90.1880E-03    -45.4071E-03     3.08582E-03
             200     69.8235E-09     16.4579E-03    -81.4114E+06    -179.698E+06    -81.6495E+06     985.843E+03    -44.3737E-03     88.6266E-03    -44.2529E-03     2.69898E-03    -44.4020E-03     87.9647E-03    -44.2825E-03     2.70140E-03
             201     32.7044E-09     15.4239E-03    -78.6057E+06    -175.788E+06    -78.7069E+06     1.13852E+06    -42.8941E-03     85.7020E-03    -42.8079E-03     2.27562E-03    -42.9183E-03     85.0512E-03    -42.8326E-03     2.28135E-03
             202     11.0283E-09     14.3932E-03    -77.0494E+06    -172.717E+06    -76.9142E+06     497.704E+03    -40.9645E-03     81.8837E-03    -40.9193E-03     1.72434E-03    -40.9880E-03     81.2434E-03    -40.9417E-03     1.72331E-03
             203     25.5073E-09     13.3672E-03    -76.7920E+06    -170.676E+06    -77.2444E+06     706.131E+03    -38.6330E-03     77.1814E-03    -38.5484E-03     1.20434E-03    -38.6578E-03     76.5513E-03    -38.5758E-03     1.20737E-03
             204     81.6551E-09     12.3462E-03    -75.9720E+06    -167.377E+06    -75.7967E+06     1.13038E+06    -36.1045E-03     72.0630E-03    -35.9585E-03     835.542E-06    -36.1321E-03     71.4461E-03    -35.9847E-03     844.820E-06
             205     69.2458E-09     11.3306E-03    -69.9647E+06    -163.996E+06    -69.7189E+06     636.963E+03    -33.7215E-03     67.2702E-03    -33.5487E-03     634.483E-06    -33.7327E-03     66.6526E-03    -33.5580E-03     637.648E-06
             206     85.4739E-09     10.3196E-03    -65.4373E+06    -162.446E+06    -64.9236E+06     179.624E+03    -32.0035E-03     63.8474E-03    -31.8439E-03     766.811E-06    -32.0011E-03     63.2243E-03    -31.8381E-03     764.113E-06
             207     44.3709E-09     9.31103E-03    -66.5593E+06    -163.095E+06    -65.8595E+06    -505.706E+03    -31.5274E-03     62.9514E-03    -31.4239E-03     1.22640E-03    -31.5284E-03     62.3280E-03    -31.4202E-03     1.21495E-03
             208     13.9376E-09     8.30167E-03    -67.0017E+06    -164.980E+06    -66.8629E+06    -457.770E+03    -32.6066E-03     65.1676E-03    -32.5610E-03     1.81108E-03    -32.6057E-03     64.5368E-03    -32.5589E-03     1.80048E-03
             209     9.27353E-09     7.28842E-03    -65.2328E+06    -165.480E+06    -65.1274E+06     197.663E+03    -35.0701E-03     70.1335E-03    -35.0634E-03     2.29182E-03    -35.0624E-03     69.4949E-03    -35.0545E-03     2.28979E-03
             210    -17.9124E-09     6.26886E-03    -60.9001E+06    -164.250E+06    -60.8723E+06     581.113E+03    -38.4524E-03     76.9212E-03    -38.4688E-03     2.55985E-03    -38.4312E-03     76.2761E-03    -38.4467E-03     2.56267E-03
             211     1.35573E-09     5.24162E-03    -56.8074E+06    -163.520E+06    -56.3129E+06    -192.792E+03    -42.2702E-03     84.5789E-03    -42.3087E-03     2.61915E-03    -42.2362E-03     83.9248E-03    -42.2708E-03     2.61175E-03
             212    -42.3414E-09     4.20641E-03    -53.9744E+06    -164.454E+06    -54.5240E+06    -263.923E+03    -46.1284E-03     92.3231E-03    -46.1948E-03     2.47250E-03    -46.0814E-03     91.6577E-03    -46.1507E-03     2.46419E-03
             213    -33.5577E-09     3.16301E-03    -54.7341E+06    -162.768E+06    -55.3188E+06     1.27641E+06    -49.6380E-03     99.3697E-03    -49.7317E-03     2.10818E-03    -49.5959E-03     98.7151E-03    -49.6929E-03     2.12031E-03
             214    -55.1102E-09     2.11306E-03    -54.7699E+06    -159.318E+06    -54.2808E+06     658.458E+03    -52.4555E-03     105.032E-03    -52.5764E-03     1.54631E-03    -52.4199E-03     104.393E-03    -52.5374E-03     1.55138E-03
             215    -55.9950E-09     1.05786E-03    -53.0177E+06    -159.312E+06    -53.3241E+06    -611.681E+03    -54.2956E-03     108.733E-03    -54.4373E-03     818.334E-06    -54.2524E-03     108.090E-03    -54.3960E-03     808.473E-06
             216     851.601E-06     41.6334E-18    -52.8872E+06    -159.823E+06    -53.6323E+06    -806.704E+03    -54.9717E-03     110.016E-03    -55.0447E-03     698.107E-06    -54.9266E-03     109.372E-03    -55.0044E-03     685.925E-06
             217     1.70316E-03     41.6334E-18    -52.3397E+06    -158.825E+06    -52.2289E+06    -179.005E+03    -55.0262E-03     110.040E-03    -55.0139E-03     1.28825E-03    -54.9819E-03     109.398E-03    -54.9689E-03     1.28272E-03
             218     2.55475E-03     41.6334E-18    -52.4357E+06    -157.981E+06    -50.4567E+06     718.120E+03    -55.0585E-03     110.090E-03    -55.0318E-03     1.90206E-03    -55.0185E-03     109.450E-03    -54.9790E-03     1.90650E-03
             219     3.40624E-03     41.6334E-18    -52.6165E+06    -157.709E+06    -49.7182E+06     485.646E+03    -55.0873E-03     110.137E-03    -55.0493E-03     2.51925E-03    -55.0497E-03     109.496E-03    -54.9929E-03     2.51882E-03
             220     4.25777E-03     41.6334E-18    -52.3664E+06    -157.759E+06    -49.9992E+06     36.3862E+03    -55.1008E-03     110.161E-03    -55.0607E-03     3.11967E-03    -55.0615E-03     109.521E-03    -55.0060E-03     3.11131E-03
             221     5.10928E-03     41.6334E-18    -51.5184E+06    -157.172E+06    -49.8137E+06    -541.678E+03    -55.0984E-03     110.167E-03    -55.0689E-03     3.71751E-03    -55.0560E-03     109.529E-03    -55.0154E-03     3.69935E-03
             222     5.96078E-03     41.6334E-18    -49.6971E+06    -149.571E+06    -50.1435E+06    -1.54276E+06    -55.0590E-03     110.116E-03    -55.0575E-03     4.30907E-03    -55.0181E-03     109.514E-03    -55.0192E-03     4.27531E-03
             223     6.81240E-03     41.6334E-18    -46.9610E+06    -134.117E+06    -51.2988E+06    -2.15224E+06    -54.9849E-03     110.007E-03    -55.0218E-03     4.90411E-03    -54.9512E-03     109.479E-03    -55.0158E-03     4.85957E-03
             224     7.66398E-03     41.6334E-18    -43.6739E+06    -116.188E+06    -51.5654E+06    -2.74956E+06    -54.9026E-03     109.882E-03    -54.9794E-03     5.53656E-03    -54.8781E-03     109.439E-03    -55.0054E-03     5.48124E-03
             225     8.51570E-03     41.6334E-18    -39.6147E+06    -95.5939E+06    -50.9465E+06    -3.48017E+06    -54.8292E-03     109.761E-03    -54.9317E-03     6.20048E-03    -54.8154E-03     109.415E-03    -54.9904E-03     6.13213E-03
             226     9.36737E-03     41.6334E-18    -34.6610E+06    -71.8305E+06    -49.5648E+06    -4.09728E+06    -54.7866E-03     109.667E-03    -54.8805E-03     6.96793E-03    -54.7846E-03     109.431E-03    -54.9739E-03     6.88783E-03
             227     10.2190E-03     41.6334E-18    -28.8244E+06    -44.4605E+06     -46.755E+06    -4.85343E+06    -54.7824E-03     109.614E-03    -54.8320E-03     7.84116E-03    -54.7953E-03     109.503E-03    -54.9595E-03     7.74662E-03
             228     11.0706E-03     41.6334E-18    -22.3351E+06    -11.6863E+06    -43.1129E+06    -4.98210E+06    -54.8371E-03     109.622E-03    -54.7845E-03     8.87609E-03    -54.8707E-03     109.659E-03    -54.9507E-03     8.77441E-03
             229     11.9219E-03     41.6334E-18    -17.3993E+06     31.6167E+06    -36.2658E+06    -2.76389E+06    -54.9595E-03     109.710E-03    -54.7503E-03     10.2544E-03    -55.0416E-03     109.948E-03    -54.9523E-03     10.1747E-03
             230     12.7728E-03     41.6334E-18    -14.9725E+06     65.7484E+06    -19.2816E+06    -1.12948E+06    -55.1425E-03     109.940E-03    -54.7978E-03     11.9105E-03    -55.2874E-03     110.321E-03    -54.9678E-03     11.8422E-03
             231     13.6234E-03     41.6334E-18    -11.3235E+06     82.2127E+06     6.59588E+06    -2.27832E+06    -55.4754E-03     110.407E-03    -54.9317E-03     14.4411E-03    -55.6651E-03     110.829E-03    -55.0015E-03     14.3429E-03
             232     14.4726E-03     41.6334E-18    -5.75712E+06     95.5492E+06     39.2361E+06    -1.01877E+06    -55.7582E-03     110.877E-03    -55.1192E-03     18.5890E-03    -55.9893E-03     111.313E-03    -55.0532E-03     18.4907E-03
             233     15.3202E-03     41.6334E-18    -1.72880E+06     102.800E+06     69.7103E+06     1.28263E+06    -56.2728E-03     111.601E-03    -55.3280E-03     25.5673E-03    -56.5467E-03     112.030E-03    -55.1260E-03     25.4564E-03
             234     16.1667E-03     41.6334E-18    -458.561E+03     103.346E+06     80.7838E+06     1.29517E+06    -57.6022E-03     113.103E-03    -55.5006E-03     36.1340E-03    -57.9069E-03     113.536E-03    -55.2458E-03     35.9513E-03
             235     17.0519E-03     1.06460E-03    -1.83309E+06     102.547E+06     79.1069E+06      3.2204E+06    -56.2694E-03     110.826E-03    -54.5568E-03     38.2896E-03    -56.5934E-03     111.277E-03    -54.3073E-03     38.0817E-03
             236     17.0787E-03     2.11989E-03    -2.86356E+06     104.230E+06     79.2558E+06     4.50983E+06    -58.8996E-03     111.739E-03    -52.8397E-03     26.8223E-03    -59.2291E-03     112.200E-03    -52.5904E-03     26.5757E-03
             237     17.0906E-03     3.18745E-03    -2.20102E+06     107.424E+06     81.3930E+06     2.03855E+06    -67.1415E-03     118.959E-03    -51.8174E-03     15.5531E-03    -67.4692E-03     119.425E-03    -51.5630E-03     15.1950E-03
             238     17.0947E-03     4.26133E-03    -1.90633E+06     109.185E+06     82.4705E+06     40.6477E+03    -71.4927E-03     122.885E-03    -51.3922E-03     10.8170E-03    -71.8213E-03     123.355E-03    -51.1354E-03     10.3837E-03
             239     17.0958E-03     5.33593E-03    -1.89041E+06     108.927E+06     82.3467E+06    -556.064E+03    -72.0938E-03     123.371E-03    -51.2770E-03     9.41057E-03    -72.4200E-03     123.838E-03    -51.0205E-03     8.96350E-03
             240     17.0962E-03     6.40881E-03    -1.92667E+06     108.092E+06     81.8057E+06    -539.301E+03    -70.9319E-03     122.208E-03    -51.2762E-03     8.58271E-03    -71.2532E-03     122.669E-03    -51.0211E-03     8.15286E-03
             241     17.0963E-03     7.47937E-03    -1.96573E+06     107.207E+06     81.0835E+06    -332.039E+03    -69.2285E-03     120.536E-03    -51.3077E-03     7.48846E-03    -69.5444E-03     120.990E-03    -51.0549E-03     7.08384E-03
             242     17.0963E-03     8.54812E-03    -1.95159E+06     106.468E+06     80.0950E+06    -226.597E+03    -67.3664E-03     118.714E-03    -51.3473E-03     6.27951E-03    -67.6766E-03     119.163E-03    -51.0983E-03     5.89851E-03
             243     17.0964E-03     9.61484E-03    -1.96822E+06     105.948E+06     79.1034E+06    -162.345E+03    -65.3407E-03     116.732E-03    -51.3914E-03     5.18832E-03    -65.6462E-03     117.177E-03    -51.1467E-03     4.83030E-03
             244     17.0964E-03     10.6794E-03    -2.05527E+06     105.395E+06     78.2842E+06    -252.077E+03    -63.1997E-03     114.640E-03    -51.4401E-03     4.14785E-03    -63.5013E-03     115.081E-03    -51.1985E-03     3.81027E-03
             245     17.0964E-03     11.7417E-03    -1.85828E+06     104.811E+06     77.6846E+06    -214.168E+03    -61.0049E-03     112.497E-03    -51.4925E-03     3.15350E-03    -61.3017E-03     112.934E-03    -51.2534E-03     2.83727E-03
             246     17.0964E-03     12.8018E-03    -2.04030E+06     104.423E+06     77.1818E+06    -98.6013E+03    -58.8810E-03     110.426E-03    -51.5453E-03     2.25019E-03    -59.1757E-03     110.861E-03    -51.3079E-03     1.95448E-03
             247     17.0964E-03     13.8597E-03    -1.95991E+06     104.249E+06     76.9068E+06        -269.359    -57.0732E-03     108.664E-03    -51.5904E-03     1.57390E-03    -57.3656E-03     109.096E-03    -51.3542E-03     1.29467E-03
             248     17.0964E-03     14.9161E-03    -2.01717E+06     104.353E+06     76.8323E+06     212.498E+03    -55.8275E-03     107.447E-03    -51.6194E-03     1.24470E-03    -56.1195E-03     107.879E-03    -51.3836E-03     977.894E-06
             249     17.0965E-03     15.9717E-03    -2.00966E+06     104.815E+06     76.9937E+06     355.033E+03    -55.2292E-03     106.858E-03    -51.6289E-03     1.28147E-03    -55.5221E-03     107.293E-03    -51.3930E-03     1.02023E-03
             250     17.0967E-03     17.0273E-03    -2.02554E+06     105.512E+06     77.4218E+06     391.547E+03    -55.1235E-03     106.748E-03    -51.6244E-03     1.60683E-03    -55.4185E-03     107.186E-03    -51.3873E-03     1.34523E-03
             251     17.0968E-03     18.0832E-03    -2.12805E+06     106.077E+06     77.7090E+06     195.911E+03    -55.2461E-03     106.859E-03    -51.6131E-03     2.11018E-03    -55.5437E-03     107.300E-03    -51.3753E-03     1.84296E-03
             252     17.0970E-03     19.1393E-03    -1.83752E+06     106.443E+06     77.8604E+06     166.986E+03    -55.3773E-03     106.979E-03    -51.6015E-03     2.68806E-03    -55.6752E-03     107.422E-03    -51.3639E-03     2.41704E-03
             253     17.0971E-03     20.1955E-03    -1.97342E+06     107.026E+06     78.2426E+06     323.459E+03    -55.3934E-03     106.989E-03    -51.5952E-03     3.26358E-03    -55.6943E-03     107.436E-03    -51.3563E-03     2.99183E-03
             254     17.0972E-03     21.2516E-03    -2.13241E+06     107.622E+06     78.6501E+06     160.057E+03    -55.2947E-03     106.888E-03    -51.5932E-03     3.79627E-03    -55.5988E-03     107.338E-03    -51.3530E-03     3.52058E-03
             255     17.0972E-03     22.3075E-03    -1.97857E+06     107.838E+06     78.6587E+06     14.3281E+03    -55.1174E-03     106.710E-03    -51.5928E-03     4.26892E-03    -55.4217E-03     107.162E-03    -51.3530E-03     3.99039E-03
             256     17.0973E-03     23.3631E-03    -1.87932E+06     108.076E+06     78.7395E+06     178.190E+03    -54.8622E-03     106.458E-03    -51.5954E-03     4.68202E-03    -55.1673E-03     106.911E-03    -51.3557E-03     4.40544E-03
             257     17.0974E-03     24.4185E-03    -2.14449E+06     108.505E+06     79.0047E+06     170.116E+03    -54.5464E-03     106.148E-03    -51.6013E-03     5.05639E-03    -54.8544E-03     106.604E-03    -51.3605E-03     4.77995E-03
             258     17.0974E-03     25.4734E-03    -2.03575E+06     108.716E+06     79.1004E+06         644.937    -54.2190E-03     105.826E-03    -51.6074E-03     5.40225E-03    -54.5275E-03     106.284E-03    -51.3666E-03     5.12412E-03
             259     17.0974E-03     26.5280E-03    -2.02066E+06     108.700E+06     79.0768E+06    -14.8992E+03    -53.8942E-03     105.508E-03    -51.6137E-03     5.71164E-03    -54.2031E-03     105.966E-03    -51.3730E-03     5.43403E-03
             260     17.0975E-03     27.5822E-03    -2.05751E+06     108.619E+06     79.0206E+06    -50.8988E+03    -53.5790E-03     105.199E-03    -51.6201E-03     5.98199E-03    -53.8884E-03     105.658E-03    -51.3795E-03     5.70475E-03
             261     17.0975E-03     28.6361E-03    -1.86850E+06     108.681E+06     78.9658E+06     98.8779E+03    -53.2830E-03     104.909E-03    -51.6261E-03     6.22017E-03    -53.5918E-03     105.368E-03    -51.3861E-03     5.94576E-03
             262     17.0975E-03     29.6897E-03    -2.00300E+06     109.198E+06     79.1551E+06     320.980E+03    -53.0043E-03     104.637E-03    -51.6329E-03     6.42959E-03    -53.3152E-03     105.099E-03    -51.3926E-03     6.15895E-03
             263     17.0975E-03     30.7430E-03    -2.18189E+06     109.805E+06     79.3223E+06     177.661E+03    -52.7552E-03     104.395E-03    -51.6397E-03     6.61041E-03    -53.0684E-03     104.860E-03    -51.3991E-03     6.33871E-03
             264     17.0975E-03     31.7961E-03    -2.01570E+06     110.052E+06     79.1021E+06     5.26751E+03    -52.5264E-03     104.171E-03    -51.6443E-03     6.77548E-03    -52.8391E-03     104.638E-03    -51.4054E-03     6.50227E-03
             265     17.0975E-03     32.8489E-03    -2.04811E+06     110.057E+06     79.0888E+06     5.25696E+03    -52.3148E-03     103.964E-03    -51.6488E-03     6.93200E-03    -52.6279E-03     104.431E-03    -51.4099E-03     6.65946E-03
             266     17.0975E-03     33.9015E-03    -2.03344E+06     110.022E+06     79.4530E+06    -12.8334E+03    -52.1306E-03     103.784E-03    -51.6531E-03     7.06399E-03    -52.4443E-03     104.250E-03    -51.4124E-03     6.79176E-03
             267     17.0976E-03     34.9539E-03    -2.01487E+06     110.062E+06     79.5087E+06     44.5872E+03    -51.9900E-03     103.644E-03    -51.6540E-03     7.19838E-03    -52.3040E-03     104.111E-03    -51.4131E-03     6.92748E-03
             268     17.0976E-03     36.0062E-03    -2.06840E+06     110.093E+06     79.7884E+06     29.8926E+03    -51.8678E-03     103.523E-03    -51.6552E-03     7.29760E-03    -52.1827E-03     103.990E-03    -51.4129E-03     7.02691E-03
             269     17.0977E-03     37.0584E-03    -2.05422E+06     110.112E+06     80.3835E+06    -3.90518E+03    -51.7143E-03     103.373E-03    -51.6590E-03     7.39652E-03    -52.0302E-03     103.840E-03    -51.4138E-03     7.12585E-03
             270     17.0977E-03     38.1104E-03    -2.06636E+06     110.172E+06     80.3999E+06     40.6904E+03    -51.6027E-03     103.264E-03    -51.6613E-03     7.48228E-03    -51.9189E-03     103.731E-03    -51.4160E-03     7.21253E-03
             271     17.0977E-03     39.1623E-03    -2.08503E+06     110.189E+06     80.2189E+06    -12.4501E+03    -51.5341E-03     103.197E-03    -51.6631E-03     7.55620E-03    -51.8503E-03     103.665E-03    -51.4187E-03     7.28595E-03
             272     17.0977E-03     40.2141E-03    -2.03815E+06     110.161E+06     80.2043E+06    -20.6206E+03    -51.4576E-03     103.123E-03    -51.6653E-03     7.64816E-03    -51.7737E-03     103.590E-03    -51.4210E-03     7.37813E-03
             273     17.0977E-03     41.2659E-03    -2.05100E+06     110.138E+06     80.1190E+06     10.7928E+03    -51.3946E-03     103.061E-03    -51.6665E-03     7.70564E-03    -51.7107E-03     103.529E-03    -51.4226E-03     7.43617E-03
             274     17.0977E-03     42.3176E-03    -2.05921E+06     110.145E+06     80.0934E+06     5.19294E+03    -51.3370E-03     103.005E-03    -51.6677E-03     7.76529E-03    -51.6532E-03     103.472E-03    -51.4240E-03     7.49588E-03
             275     17.0977E-03     43.3692E-03    -2.05399E+06     110.149E+06     80.0592E+06         674.636    -51.2819E-03     102.951E-03    -51.6688E-03     7.81812E-03    -51.5982E-03     103.418E-03    -51.4252E-03     7.54882E-03
             276     17.0977E-03     44.4208E-03    -1.99779E+06     110.221E+06     80.0740E+06     66.2794E+03    -51.2308E-03     102.901E-03    -51.6697E-03     7.86486E-03    -51.5470E-03     103.369E-03    -51.4263E-03     7.59658E-03
             277     17.0977E-03     45.4723E-03    -2.06217E+06     110.451E+06     80.3190E+06     129.536E+03    -51.1768E-03     102.848E-03    -51.6717E-03     7.90683E-03    -51.4941E-03     103.318E-03    -51.4273E-03     7.63952E-03
             278     17.0977E-03     46.5238E-03    -2.11462E+06     110.686E+06     80.5429E+06     70.2954E+03    -51.1277E-03     102.801E-03    -51.6735E-03     7.94564E-03    -51.4460E-03     103.271E-03    -51.4282E-03     7.67769E-03
             279     17.0977E-03     47.5752E-03    -2.06211E+06     110.786E+06     80.5669E+06     18.4010E+03    -51.0888E-03     102.763E-03    -51.6743E-03     7.98113E-03    -51.4071E-03     103.234E-03    -51.4291E-03     7.71261E-03
             280     17.0977E-03     48.6266E-03    -2.07888E+06     110.808E+06     80.5579E+06     7.32003E+03    -51.0533E-03     102.728E-03    -51.6751E-03     8.01117E-03    -51.3717E-03     103.199E-03    -51.4300E-03     7.74264E-03
             281     17.0977E-03     49.6779E-03    -2.06547E+06     110.801E+06     80.5590E+06    -5.92583E+03    -51.0202E-03     102.696E-03    -51.6760E-03     8.03971E-03    -51.3386E-03     103.167E-03    -51.4308E-03     7.77110E-03
             282     17.0977E-03     50.7292E-03    -2.06557E+06     110.781E+06     80.5358E+06    -3.90033E+03    -50.9912E-03     102.668E-03    -51.6766E-03     8.06528E-03    -51.3096E-03     103.139E-03    -51.4316E-03     7.79678E-03
             283     17.0977E-03     51.7805E-03    -2.06648E+06     110.761E+06     80.5160E+06    -5.34449E+03    -50.9647E-03     102.642E-03    -51.6772E-03     8.08706E-03    -51.2831E-03     103.113E-03    -51.4323E-03     7.81864E-03
             284     17.0977E-03     52.8317E-03    -2.06666E+06     110.735E+06     80.5094E+06    -7.80112E+03    -50.9408E-03     102.619E-03    -51.6778E-03     8.10787E-03    -51.2592E-03     103.089E-03    -51.4329E-03     7.83949E-03
             285     17.0977E-03     53.8830E-03    -2.06492E+06     110.705E+06     80.5207E+06    -9.31388E+03    -50.9195E-03     102.598E-03    -51.6784E-03     8.12619E-03    -51.2378E-03     103.068E-03    -51.4334E-03     7.85786E-03
             286     17.0977E-03     54.9342E-03    -2.07557E+06     110.659E+06     80.5139E+06    -20.1437E+03    -50.9011E-03     102.580E-03    -51.6790E-03     8.14168E-03    -51.2194E-03     103.050E-03    -51.4338E-03     7.87327E-03
             287     17.0977E-03     55.9854E-03    -2.05307E+06     110.603E+06     80.4966E+06    -20.0844E+03    -50.8837E-03     102.563E-03    -51.6793E-03     8.15674E-03    -51.2019E-03     103.033E-03    -51.4342E-03     7.88839E-03
             288     17.0977E-03     57.0365E-03    -2.05532E+06     110.574E+06     80.4461E+06     9.71588E+03    -50.8724E-03     102.552E-03    -51.6794E-03     8.16900E-03    -51.1905E-03     103.022E-03    -51.4345E-03     7.90107E-03
             289     17.0977E-03     58.0877E-03    -2.07552E+06     110.585E+06     80.3580E+06     8.27446E+03    -50.8773E-03     102.557E-03    -51.6799E-03     8.17359E-03    -51.1953E-03     103.027E-03    -51.4354E-03     7.90568E-03
             290     17.0976E-03     59.1389E-03    -2.05129E+06     110.589E+06     80.2886E+06    -25.2236E+03    -50.8580E-03     102.539E-03    -51.6806E-03     8.18646E-03    -51.1758E-03     103.009E-03    -51.4365E-03     7.91813E-03
             291     17.0977E-03     60.1900E-03    -2.05422E+06     110.553E+06     80.2104E+06     10.0631E+03    -50.8335E-03     102.513E-03    -51.6791E-03     8.21410E-03    -51.1512E-03     102.983E-03    -51.4354E-03     7.94629E-03
             292     854.624E-06     61.5111E-03    -86.6374E+06    -192.047E+06    -84.3739E+06     3.14672E+03    -51.7380E-03     103.419E-03    -51.6808E-03     8.69063E-03    -51.7718E-03     102.708E-03    -51.6986E-03     8.65849E-03
             293     1.70927E-03     61.5232E-03    -83.5174E+06    -186.097E+06    -75.5726E+06    -13.4202E+03    -51.7252E-03     103.456E-03    -51.7306E-03     15.8109E-03    -51.7677E-03     102.760E-03    -51.7175E-03     15.7504E-03
             294     2.56394E-03     61.5426E-03    -78.9224E+06    -177.377E+06    -63.2489E+06    -11.5046E+03    -51.7550E-03     103.515E-03    -51.7599E-03     23.0456E-03    -51.8103E-03     102.844E-03    -51.7045E-03     22.9532E-03
             295     3.41864E-03     61.5692E-03    -73.3252E+06    -167.159E+06    -49.5006E+06    -7.45204E+03    -51.8027E-03     103.593E-03    -51.7900E-03     29.9470E-03    -51.8723E-03     102.952E-03    -51.6888E-03     29.8199E-03
             296     4.27338E-03     61.6024E-03    -67.2623E+06    -156.913E+06    -36.5110E+06    -13.4579E+03    -51.8712E-03     103.686E-03    -51.8146E-03     36.3643E-03    -51.9546E-03     103.079E-03    -51.6721E-03     36.1989E-03
             297     5.12814E-03     61.6418E-03    -61.2301E+06    -143.916E+06    -25.7287E+06    -20.7760E+03    -51.9464E-03     103.771E-03    -51.8241E-03     42.2066E-03    -52.0475E-03     103.218E-03    -51.6553E-03     42.0000E-03
             298     5.98293E-03     61.6866E-03    -55.5418E+06    -128.385E+06    -17.1391E+06    -14.7480E+03    -52.0192E-03     103.839E-03    -51.8198E-03     47.3893E-03    -52.1433E-03     103.360E-03    -51.6388E-03     47.1392E-03
             299     6.83774E-03     61.7363E-03    -50.2658E+06    -112.844E+06    -9.58400E+06     1.80497E+03    -52.0854E-03     103.897E-03    -51.8113E-03     51.8253E-03    -52.2359E-03     103.496E-03    -51.6227E-03     51.5301E-03
             300     7.69258E-03     61.7899E-03    -45.3479E+06    -96.2114E+06    -2.54673E+06     5.21473E+03    -52.1317E-03     103.931E-03    -51.7997E-03     55.4338E-03    -52.3136E-03     103.618E-03    -51.6072E-03     55.0934E-03
             301     8.54744E-03     61.8467E-03    -40.7079E+06    -79.0440E+06     4.37272E+06         577.658    -52.1515E-03     103.939E-03    -51.7875E-03     58.1090E-03    -52.3680E-03     103.718E-03    -51.5920E-03     57.7253E-03
             302     9.40232E-03     61.9057E-03    -36.2507E+06    -59.4845E+06     11.3700E+06     3.50136E+03    -52.1322E-03     103.905E-03    -51.7724E-03     59.7479E-03    -52.3871E-03     103.787E-03    -51.5768E-03     59.3259E-03
             303     10.2572E-03     61.9657E-03    -31.9301E+06    -41.0642E+06     18.3115E+06     15.7681E+03    -52.0797E-03     103.839E-03    -51.7589E-03     60.1215E-03    -52.3683E-03     103.815E-03    -51.5615E-03     59.6698E-03
             304     11.1122E-03     62.0253E-03    -27.7408E+06    -19.6176E+06     24.7306E+06     16.0543E+03    -51.9764E-03     103.715E-03    -51.7384E-03     59.0195E-03    -52.2960E-03     103.795E-03    -51.5461E-03     58.5493E-03
             305     11.9672E-03     62.0831E-03    -23.6193E+06     3.05177E+06     31.9831E+06     47.2328E+03    -51.8224E-03     103.542E-03    -51.7199E-03     56.2022E-03    -52.1669E-03     103.721E-03    -51.5301E-03     55.7260E-03
             306     12.8222E-03     62.1370E-03    -19.6284E+06     26.6909E+06     36.9755E+06     182.736E+03    -51.6378E-03     103.326E-03    -51.6884E-03     51.6050E-03    -51.9962E-03     103.602E-03    -51.5138E-03     51.1342E-03
             307     13.6772E-03     62.1855E-03    -15.7324E+06     69.3384E+06     46.9811E+06     284.271E+03    -51.3619E-03     103.015E-03    -51.6532E-03     45.7052E-03    -51.7614E-03     103.469E-03    -51.4960E-03     45.2482E-03
             308     14.5324E-03     62.2276E-03    -11.8626E+06     101.683E+06     54.9934E+06     279.409E+03    -51.1138E-03     102.735E-03    -51.6209E-03     38.2152E-03    -51.5295E-03     103.310E-03    -51.4762E-03     37.7774E-03
             309     15.3875E-03     62.2611E-03    -8.05967E+06     108.897E+06     62.9526E+06     196.685E+03    -50.9394E-03     102.564E-03    -51.6247E-03     28.7466E-03    -51.3343E-03     103.134E-03    -51.4561E-03     28.3221E-03
             310     16.2427E-03     62.2843E-03    -4.11076E+06     110.964E+06     76.1986E+06     66.3342E+03    -50.8227E-03     102.486E-03    -51.6634E-03     15.9032E-03    -51.1775E-03     102.999E-03    -51.4373E-03     15.5582E-03
             311     854.625E-06     62.5619E-03    -86.5611E+06    -192.035E+06    -84.3685E+06    -10.5939E+03    -51.7446E-03     103.432E-03    -51.6873E-03     8.69408E-03    -51.7780E-03     102.721E-03    -51.7052E-03     8.66174E-03
             312     1.70926E-03     62.5740E-03    -83.4969E+06    -186.101E+06    -75.5561E+06    -13.1970E+03    -51.7312E-03     103.468E-03    -51.7369E-03     15.8177E-03    -51.7737E-03     102.773E-03    -51.7238E-03     15.7571E-03
             313     2.56393E-03     62.5935E-03    -78.8967E+06    -177.380E+06     -63.233E+06    -8.71693E+03    -51.7605E-03     103.527E-03    -51.7660E-03     23.0557E-03    -51.8157E-03     102.855E-03    -51.7106E-03     22.9633E-03
             314     3.41862E-03     62.6200E-03    -73.3055E+06    -167.172E+06    -49.4992E+06    -11.9758E+03    -51.8076E-03     103.603E-03    -51.7958E-03     29.9604E-03    -51.8771E-03     102.963E-03    -51.6946E-03     29.8331E-03
             315     4.27335E-03     62.6533E-03    -67.2529E+06    -156.914E+06    -36.4815E+06    -15.0808E+03    -51.8751E-03     103.695E-03    -51.8202E-03     36.3814E-03    -51.9585E-03     103.089E-03    -51.6775E-03     36.2159E-03
             316     5.12811E-03     62.6926E-03    -61.2270E+06    -143.934E+06    -25.7046E+06    -3.31032E+03    -51.9490E-03     103.778E-03    -51.8293E-03     42.2274E-03    -52.0502E-03     103.226E-03    -51.6603E-03     42.0209E-03
             317     5.98290E-03     62.7375E-03    -55.5364E+06    -128.401E+06    -17.1250E+06     3.03978E+03    -52.0204E-03     103.845E-03    -51.8243E-03     47.4140E-03    -52.1445E-03     103.366E-03    -51.6433E-03     47.1640E-03
             318     6.83771E-03     62.7872E-03    -50.2530E+06    -112.872E+06    -9.57332E+06     3.29522E+03    -52.0849E-03     103.900E-03    -51.8152E-03     51.8543E-03    -52.2353E-03     103.499E-03    -51.6266E-03     51.5591E-03
             319     7.69255E-03     62.8409E-03    -45.3253E+06    -96.2122E+06    -2.52375E+06     2.65120E+03    -52.1292E-03     103.932E-03    -51.8029E-03     55.4676E-03    -52.3110E-03     103.619E-03    -51.6103E-03     55.1272E-03
             320     8.54742E-03     62.8977E-03    -40.6830E+06    -79.0431E+06     4.40254E+06    -13.7271E+03    -52.1467E-03     103.937E-03    -51.7900E-03     58.1474E-03    -52.3632E-03     103.715E-03    -51.5943E-03     57.7635E-03
             321     9.40231E-03     62.9566E-03    -36.2489E+06    -59.4799E+06     11.4064E+06    -41.5179E+03    -52.1249E-03     103.899E-03    -51.7741E-03     59.7914E-03    -52.3799E-03     103.781E-03    -51.5783E-03     59.3690E-03
             322     10.2572E-03     63.0167E-03    -31.9586E+06    -41.0978E+06     18.3464E+06    -51.2071E+03    -52.0700E-03     103.830E-03    -51.7597E-03     60.1684E-03    -52.3588E-03     103.806E-03    -51.5621E-03     59.7160E-03
             323     11.1122E-03     63.0763E-03    -27.8075E+06    -19.6057E+06     24.7996E+06    -57.7878E+03    -51.9650E-03     103.703E-03    -51.7384E-03     59.0665E-03    -52.2851E-03     103.783E-03    -51.5457E-03     58.5955E-03
             324     11.9672E-03     63.1341E-03    -23.7985E+06     2.94265E+06     31.9803E+06    -34.4203E+03    -51.8114E-03     103.530E-03    -51.7191E-03     56.2409E-03    -52.1568E-03     103.709E-03    -51.5289E-03     55.7637E-03
             325     12.8222E-03     63.1880E-03    -19.9126E+06     26.4459E+06     36.8807E+06     86.0188E+03    -51.6298E-03     103.317E-03    -51.6870E-03     51.6292E-03    -51.9892E-03     103.592E-03    -51.5120E-03     51.1572E-03
             326     13.6773E-03     63.2365E-03    -16.0017E+06     69.2220E+06     46.8812E+06     231.146E+03    -51.3624E-03     103.014E-03    -51.6514E-03     45.7219E-03    -51.7629E-03     103.467E-03    -51.4941E-03     45.2641E-03
             327     14.5324E-03     63.2787E-03    -12.0606E+06     101.555E+06     54.9994E+06     382.667E+03    -51.1234E-03     102.743E-03    -51.6200E-03     38.1902E-03    -51.5401E-03     103.318E-03    -51.4748E-03     37.7534E-03
             328     15.3875E-03     63.3122E-03    -8.20850E+06     109.064E+06     63.1045E+06     372.422E+03    -50.9400E-03     102.564E-03    -51.6245E-03     28.7127E-03    -51.3362E-03     103.136E-03    -51.4552E-03     28.2901E-03
             329     16.2427E-03     63.3353E-03    -4.18765E+06     111.200E+06     76.3614E+06     141.362E+03    -50.8041E-03     102.467E-03    -51.6627E-03     15.8926E-03    -51.1599E-03     102.981E-03    -51.4360E-03     15.5485E-03
             330     854.613E-06     63.6127E-03    -86.5625E+06    -192.034E+06    -84.3115E+06    -22.2197E+03    -51.7497E-03     103.442E-03    -51.6924E-03     8.69749E-03    -51.7832E-03     102.731E-03    -51.7100E-03     8.66499E-03
             331     1.70925E-03     63.6249E-03    -83.4562E+06    -186.105E+06    -75.5476E+06         275.248    -51.7358E-03     103.478E-03    -51.7418E-03     15.8244E-03    -51.7781E-03     102.782E-03    -51.7287E-03     15.7640E-03
             332     2.56391E-03     63.6443E-03    -78.8799E+06    -177.396E+06    -63.2324E+06    -9.59339E+03    -51.7644E-03     103.535E-03    -51.7706E-03     23.0663E-03    -51.8194E-03     102.864E-03    -51.7152E-03     22.9739E-03
             333     3.41861E-03     63.6709E-03    -73.2962E+06    -167.161E+06    -49.4559E+06    -10.4280E+03    -51.8106E-03     103.611E-03    -51.8003E-03     29.9745E-03    -51.8802E-03     102.970E-03    -51.6989E-03     29.8473E-03
             334     4.27333E-03     63.7041E-03    -67.2402E+06    -156.936E+06    -36.4304E+06    -6.73763E+03    -51.8770E-03     103.701E-03    -51.8243E-03     36.3995E-03    -51.9604E-03     103.095E-03    -51.6814E-03     36.2341E-03
             335     5.12809E-03     63.7435E-03    -61.1993E+06    -143.967E+06    -25.6708E+06     8.79190E+03    -51.9491E-03     103.782E-03    -51.8328E-03     42.2504E-03    -52.0502E-03     103.229E-03    -51.6636E-03     42.0441E-03
             336     5.98288E-03     63.7884E-03    -55.4914E+06    -128.403E+06    -17.0885E+06     8.78495E+03    -52.0185E-03     103.846E-03    -51.8271E-03     47.4418E-03    -52.1425E-03     103.366E-03    -51.6459E-03     47.1919E-03
             337     6.83770E-03     63.8381E-03    -50.1999E+06    -112.890E+06    -9.51040E+06     2.33793E+03    -52.0813E-03     103.899E-03    -51.8173E-03     51.8859E-03    -52.2316E-03     103.498E-03    -51.6284E-03     51.5907E-03
             338     7.69254E-03     63.8918E-03    -45.2735E+06    -96.2141E+06    -2.43936E+06    -1.57675E+03    -52.1237E-03     103.928E-03    -51.8043E-03     55.5024E-03    -52.3055E-03     103.615E-03    -51.6113E-03     55.1619E-03
             339     8.54742E-03     63.9486E-03    -40.6437E+06    -79.0366E+06     4.50841E+06    -6.51769E+03    -52.1400E-03     103.931E-03    -51.7906E-03     58.1824E-03    -52.3565E-03     103.709E-03    -51.5945E-03     57.7986E-03
             340     9.40232E-03     64.0076E-03    -36.2479E+06    -59.4484E+06     11.5117E+06    -23.3701E+03    -52.1179E-03     103.892E-03    -51.7740E-03     59.8231E-03    -52.3732E-03     103.774E-03    -51.5777E-03     59.4009E-03
             341     10.2573E-03     64.0676E-03    -32.0220E+06    -41.0926E+06     18.4169E+06    -51.4252E+03    -52.0645E-03     103.824E-03    -51.7591E-03     60.1923E-03    -52.3538E-03     103.800E-03    -51.5610E-03     59.7398E-03
             342     11.1122E-03     64.1273E-03    -27.9449E+06    -19.6208E+06     24.8124E+06    -45.6508E+03    -51.9627E-03     103.700E-03    -51.7374E-03     59.0777E-03    -52.2837E-03     103.780E-03    -51.5444E-03     58.6067E-03
             343     11.9672E-03     64.1851E-03    -23.9790E+06     2.84380E+06     31.9274E+06     15.2868E+03    -51.8144E-03     103.532E-03    -51.7181E-03     56.2367E-03    -52.1606E-03     103.711E-03    -51.5278E-03     55.7599E-03
             344     12.8222E-03     64.2390E-03    -20.1382E+06     26.2856E+06     36.7087E+06     82.6985E+03    -51.6352E-03     103.321E-03    -51.6859E-03     51.6220E-03    -51.9954E-03     103.597E-03    -51.5113E-03     51.1497E-03
             345     13.6772E-03     64.2876E-03    -16.3601E+06     68.9467E+06     46.4764E+06     248.466E+03    -51.3579E-03     103.008E-03    -51.6497E-03     45.7355E-03    -51.7594E-03     103.461E-03    -51.4935E-03     45.2779E-03
             346     14.5324E-03     64.3298E-03    -12.5154E+06     101.351E+06     54.6720E+06     443.655E+03    -51.1152E-03     102.734E-03    -51.6184E-03     38.2066E-03    -51.5335E-03     103.309E-03    -51.4739E-03     37.7706E-03
             347     15.3875E-03     64.3632E-03    -8.50239E+06     109.334E+06     63.1926E+06     336.675E+03    -50.9466E-03     102.571E-03    -51.6242E-03     28.7088E-03    -51.3449E-03     103.144E-03    -51.4544E-03     28.2855E-03
             348     16.2427E-03     64.3864E-03    -4.24390E+06     111.446E+06     76.5423E+06     88.4824E+03    -50.8158E-03     102.479E-03    -51.6631E-03     15.8835E-03    -51.1726E-03     102.994E-03    -51.4359E-03     15.5384E-03
             349     854.618E-06     64.6636E-03    -86.5542E+06    -192.055E+06    -84.3134E+06         629.083    -51.7525E-03     103.448E-03    -51.6953E-03     8.70151E-03    -51.7859E-03     102.737E-03    -51.7129E-03     8.66930E-03
             350     1.70924E-03     64.6757E-03    -83.4575E+06    -186.119E+06    -75.5261E+06     4.20828E+03    -51.7384E-03     103.483E-03    -51.7447E-03     15.8318E-03    -51.7807E-03     102.787E-03    -51.7314E-03     15.7715E-03
             351     2.56391E-03     64.6952E-03    -78.8648E+06    -177.397E+06    -63.2035E+06     1.10662E+03    -51.7662E-03     103.539E-03    -51.7733E-03     23.0776E-03    -51.8211E-03     102.868E-03    -51.7177E-03     22.9853E-03
             352     3.41860E-03     64.7218E-03    -73.2765E+06    -167.157E+06    -49.4251E+06    -12.8102E+03    -51.8110E-03     103.614E-03    -51.8025E-03     29.9901E-03    -51.8806E-03     102.973E-03    -51.7010E-03     29.8628E-03
             353     4.27333E-03     64.7550E-03    -67.2037E+06    -156.965E+06    -36.3468E+06    -5.83753E+03    -51.8760E-03     103.702E-03    -51.8262E-03     36.4192E-03    -51.9594E-03     103.095E-03    -51.6829E-03     36.2539E-03
             354     5.12809E-03     64.7944E-03    -61.1471E+06    -144.002E+06    -25.5588E+06     11.2061E+03    -51.9468E-03     103.781E-03    -51.8342E-03     42.2737E-03    -52.0477E-03     103.228E-03    -51.6646E-03     42.0675E-03
             355     5.98288E-03     64.8393E-03    -55.4447E+06    -128.408E+06    -16.9931E+06     19.3185E+03    -52.0150E-03     103.843E-03    -51.8278E-03     47.4675E-03    -52.1388E-03     103.363E-03    -51.6461E-03     47.2178E-03
             356     6.83770E-03     64.8890E-03    -50.1771E+06    -112.907E+06    -9.41361E+06     22.3510E+03    -52.0773E-03     103.895E-03    -51.8175E-03     51.9113E-03    -52.2276E-03     103.493E-03    -51.6281E-03     51.6164E-03
             357     7.69256E-03     64.9427E-03    -45.2835E+06    -96.2157E+06    -2.35650E+06     22.4095E+03    -52.1201E-03     103.924E-03    -51.8039E-03     55.5247E-03    -52.3020E-03     103.610E-03    -51.6105E-03     55.1845E-03
             358     8.54743E-03     64.9995E-03    -40.6778E+06    -79.0536E+06     4.55719E+06     25.9561E+03    -52.1380E-03     103.928E-03    -51.7899E-03     58.1984E-03    -52.3548E-03     103.706E-03    -51.5935E-03     57.8149E-03
             359     9.40234E-03     65.0585E-03    -36.2836E+06    -59.4343E+06     11.5338E+06     30.4111E+03    -52.1188E-03     103.892E-03    -51.7732E-03     59.8307E-03    -52.3743E-03     103.774E-03    -51.5767E-03     59.4090E-03
             360     10.2573E-03     65.1186E-03    -32.0680E+06    -41.0751E+06     18.3977E+06     22.9838E+03    -52.0688E-03     103.827E-03    -51.7583E-03     60.1926E-03    -52.3584E-03     103.804E-03    -51.5603E-03     59.7409E-03
             361     11.1122E-03     65.1783E-03    -28.0140E+06    -19.6740E+06     24.7289E+06     38.2729E+03    -51.9694E-03     103.706E-03    -51.7370E-03     59.0762E-03    -52.2906E-03     103.787E-03    -51.5442E-03     58.6060E-03
             362     11.9672E-03     65.2361E-03    -24.0594E+06     2.74057E+06     31.8077E+06     88.1928E+03    -51.8192E-03     103.537E-03    -51.7180E-03     56.2427E-03    -52.1656E-03     103.716E-03    -51.5280E-03     55.7666E-03
             363     12.8222E-03     65.2900E-03    -20.2660E+06     26.1613E+06     36.5724E+06     181.123E+03    -51.6332E-03     103.319E-03    -51.6859E-03     51.6401E-03    -51.9938E-03     103.595E-03    -51.5116E-03     51.1690E-03
             364     13.6772E-03     65.3386E-03    -16.5250E+06     68.5983E+06     46.2772E+06     366.004E+03    -51.3494E-03     102.999E-03    -51.6494E-03     45.7554E-03    -51.7509E-03     103.451E-03    -51.4935E-03     45.2994E-03
             365     14.5324E-03     65.3808E-03    -12.5591E+06     101.350E+06     54.5942E+06     398.590E+03    -51.1069E-03     102.724E-03    -51.6176E-03     38.2143E-03    -51.5253E-03     103.300E-03    -51.4733E-03     37.7777E-03
             366     15.3875E-03     65.4143E-03    -8.42740E+06     109.698E+06     63.3084E+06     149.778E+03    -50.9532E-03     102.577E-03    -51.6235E-03     28.7031E-03    -51.3518E-03     103.151E-03    -51.4538E-03     28.2772E-03
             367     16.2427E-03     65.4375E-03    -4.21209E+06     111.517E+06     76.5982E+06    -7.54411E+03    -50.8293E-03     102.493E-03    -51.6633E-03     15.8810E-03    -51.1861E-03     103.008E-03    -51.4359E-03     15.5345E-03
             368     854.610E-06     65.7144E-03    -86.5660E+06    -192.089E+06    -84.3266E+06    -6.99806E+03    -51.7527E-03     103.448E-03    -51.6955E-03     8.70592E-03    -51.7862E-03     102.737E-03    -51.7131E-03     8.67362E-03
             369     1.70925E-03     65.7266E-03    -83.4557E+06    -186.127E+06    -75.5042E+06     6.14363E+03    -51.7383E-03     103.483E-03    -51.7449E-03     15.8397E-03    -51.7805E-03     102.787E-03    -51.7316E-03     15.7793E-03
             370     2.56390E-03     65.7460E-03    -78.8509E+06    -177.397E+06    -63.1769E+06     1.32005E+03    -51.7652E-03     103.538E-03    -51.7733E-03     23.0893E-03    -51.8202E-03     102.867E-03    -51.7176E-03     22.9970E-03
             371     3.41860E-03     65.7726E-03    -73.2632E+06    -167.158E+06    -49.4028E+06         261.613    -51.8092E-03     103.611E-03    -51.8021E-03     30.0050E-03    -51.8787E-03     102.971E-03    -51.7005E-03     29.8779E-03
             372     4.27333E-03     65.8059E-03    -67.2051E+06    -156.991E+06    -36.3004E+06    -1.82272E+03    -51.8737E-03     103.699E-03    -51.8256E-03     36.4359E-03    -51.9571E-03     103.092E-03    -51.6821E-03     36.2707E-03
             373     5.12810E-03     65.8453E-03    -61.1607E+06    -144.048E+06    -25.4877E+06     22.4853E+03    -51.9447E-03     103.778E-03    -51.8335E-03     42.2906E-03    -52.0457E-03     103.225E-03    -51.6634E-03     42.0845E-03
             374     5.98289E-03     65.8902E-03    -55.4650E+06    -128.443E+06    -16.9290E+06     53.9718E+03    -52.0136E-03     103.840E-03    -51.8269E-03     47.4826E-03    -52.1376E-03     103.361E-03    -51.6449E-03     47.2333E-03
             375     6.83772E-03     65.9399E-03    -50.2052E+06    -112.932E+06    -9.38042E+06     72.1365E+03    -52.0774E-03     103.894E-03    -51.8165E-03     51.9227E-03    -52.2279E-03     103.492E-03    -51.6268E-03     51.6284E-03
             376     7.69257E-03     65.9936E-03    -45.3175E+06    -96.2307E+06    -2.35313E+06     80.3148E+03    -52.1224E-03     103.925E-03    -51.8030E-03     55.5318E-03    -52.3045E-03     103.612E-03    -51.6096E-03     55.1923E-03
             377     8.54744E-03     66.0505E-03    -40.7203E+06    -79.0712E+06     4.52704E+06     79.7595E+03    -52.1425E-03     103.932E-03    -51.7893E-03     58.2028E-03    -52.3595E-03     103.710E-03    -51.5929E-03     57.8199E-03
             378     9.40233E-03     66.1095E-03    -36.3296E+06    -59.4522E+06     11.4851E+06     80.4549E+03    -52.1245E-03     103.898E-03    -51.7730E-03     59.8357E-03    -52.3803E-03     103.780E-03    -51.5767E-03     59.4146E-03
             379     10.2573E-03     66.1695E-03    -32.0943E+06    -41.0944E+06     18.3589E+06     96.1499E+03    -52.0741E-03     103.833E-03    -51.7586E-03     60.2022E-03    -52.3639E-03     103.810E-03    -51.5607E-03     59.7512E-03
             380     11.1122E-03     66.2292E-03    -28.0095E+06    -19.7283E+06     24.7038E+06     117.437E+03    -51.9715E-03     103.709E-03    -51.7376E-03     59.0929E-03    -52.2926E-03     103.789E-03    -51.5448E-03     58.6236E-03
             381     11.9672E-03     66.2871E-03    -24.0467E+06     2.64095E+06     31.7899E+06     166.705E+03    -51.8168E-03     103.535E-03    -51.7185E-03     56.2626E-03    -52.1630E-03     103.713E-03    -51.5286E-03     55.7875E-03
             382     12.8222E-03     66.3410E-03    -20.2280E+06     25.9415E+06     36.5488E+06     303.047E+03    -51.6307E-03     103.317E-03    -51.6864E-03     51.6526E-03    -51.9908E-03     103.591E-03    -51.5119E-03     51.1830E-03
             383     13.6772E-03     66.3896E-03    -16.3520E+06     68.4405E+06     46.3170E+06     374.876E+03    -51.3522E-03     103.002E-03    -51.6498E-03     45.7629E-03    -51.7528E-03     103.453E-03    -51.4937E-03     45.3068E-03
             384     14.5324E-03     66.4319E-03    -12.2978E+06     101.544E+06     54.7472E+06     235.492E+03    -51.1097E-03     102.728E-03    -51.6180E-03     38.2291E-03    -51.5274E-03     103.303E-03    -51.4736E-03     37.7903E-03
             385     15.3875E-03     66.4654E-03    -8.28208E+06     109.945E+06     63.4520E+06     68.0827E+03    -50.9463E-03     102.570E-03    -51.6238E-03     28.7133E-03    -51.3448E-03     103.146E-03    -51.4540E-03     28.2864E-03
             386     16.2427E-03     66.4885E-03    -4.18536E+06     111.539E+06     76.6294E+06    -7.15289E+03    -50.8250E-03     102.488E-03    -51.6632E-03     15.8750E-03    -51.1818E-03     103.004E-03    -51.4357E-03     15.5286E-03
             387     854.620E-06     66.7653E-03    -86.5694E+06    -192.097E+06    -84.2992E+06         779.828    -51.7502E-03     103.443E-03    -51.6932E-03     8.70972E-03    -51.7837E-03     102.732E-03    -51.7107E-03     8.67754E-03
             388     1.70925E-03     66.7774E-03    -83.4367E+06    -186.144E+06    -75.5116E+06     5.63904E+03    -51.7354E-03     103.478E-03    -51.7423E-03     15.8464E-03    -51.7776E-03     102.782E-03    -51.7290E-03     15.7860E-03
             389     2.56392E-03     66.7969E-03    -78.8604E+06    -177.419E+06    -63.1750E+06     9.14792E+03    -51.7626E-03     103.533E-03    -51.7706E-03     23.0980E-03    -51.8176E-03     102.862E-03    -51.7149E-03     23.0058E-03
             390     3.41861E-03     66.8235E-03    -73.2800E+06    -167.172E+06    -49.3833E+06     22.0908E+03    -51.8075E-03     103.607E-03    -51.7997E-03     30.0142E-03    -51.8771E-03     102.966E-03    -51.6979E-03     29.8874E-03
             391     4.27335E-03     66.8567E-03    -67.2335E+06    -157.021E+06    -36.3009E+06     35.9259E+03    -51.8733E-03     103.697E-03    -51.8234E-03     36.4444E-03    -51.9568E-03     103.089E-03    -51.6798E-03     36.2796E-03
             392     5.12811E-03     66.8961E-03    -61.2065E+06    -144.104E+06    -25.4888E+06     58.0778E+03    -51.9459E-03     103.778E-03    -51.8318E-03     42.2976E-03    -52.0471E-03     103.224E-03    -51.6615E-03     42.0919E-03
             393     5.98291E-03     66.9410E-03    -55.5093E+06    -128.510E+06    -16.9380E+06     93.8979E+03    -52.0166E-03     103.842E-03    -51.8257E-03     47.4880E-03    -52.1408E-03     103.362E-03    -51.6436E-03     47.2391E-03
             394     6.83772E-03     66.9908E-03    -50.2314E+06    -112.969E+06    -9.39682E+06     120.911E+03    -52.0818E-03     103.898E-03    -51.8158E-03     51.9278E-03    -52.2324E-03     103.496E-03    -51.6262E-03     51.6340E-03
             395     7.69257E-03     67.0445E-03    -45.3258E+06    -96.2680E+06    -2.36370E+06     135.357E+03    -52.1275E-03     103.930E-03    -51.8030E-03     55.5383E-03    -52.3097E-03     103.617E-03    -51.6095E-03     55.1993E-03
             396     8.54743E-03     67.1014E-03    -40.7235E+06    -79.0943E+06     4.53118E+06     148.632E+03    -52.1472E-03     103.937E-03    -51.7897E-03     58.2128E-03    -52.3643E-03     103.716E-03    -51.5933E-03     57.8307E-03
             397     9.40232E-03     67.1604E-03    -36.3464E+06    -59.4654E+06     11.4960E+06     142.656E+03    -52.1275E-03     103.901E-03    -51.7738E-03     59.8510E-03    -52.3835E-03     103.784E-03    -51.5774E-03     59.4305E-03
             398     10.2572E-03     67.2205E-03    -32.1116E+06    -41.1336E+06     18.3732E+06     137.005E+03    -52.0744E-03     103.834E-03    -51.7595E-03     60.2217E-03    -52.3643E-03     103.811E-03    -51.5614E-03     59.7712E-03
             399     11.1122E-03     67.2802E-03    -28.0088E+06    -19.7932E+06     24.7304E+06     165.834E+03    -51.9700E-03     103.708E-03    -51.7384E-03     59.1103E-03    -52.2912E-03     103.788E-03    -51.5454E-03     58.6416E-03
             400     11.9672E-03     67.3380E-03    -24.0171E+06     2.51987E+06     31.8175E+06     230.902E+03    -51.8170E-03     103.536E-03    -51.7193E-03     56.2748E-03    -52.1630E-03     103.714E-03    -51.5290E-03     55.8004E-03
             401     12.8222E-03     67.3921E-03    -20.0930E+06     25.7619E+06     36.5947E+06     289.989E+03    -51.6353E-03     103.323E-03    -51.6872E-03     51.6652E-03    -51.9946E-03     103.596E-03    -51.5124E-03     51.1953E-03
             402     13.6772E-03     67.4407E-03    -16.1588E+06     68.4637E+06     46.4449E+06     274.111E+03    -51.3564E-03     103.007E-03    -51.6508E-03     45.7819E-03    -51.7563E-03     103.458E-03    -51.4944E-03     45.3244E-03
             403     14.5324E-03     67.4829E-03    -12.2060E+06     101.737E+06     54.8944E+06     173.820E+03    -51.1066E-03     102.726E-03    -51.6190E-03     38.2488E-03    -51.5244E-03     103.302E-03    -51.4743E-03     37.8092E-03
             404     15.3875E-03     67.5164E-03    -8.24015E+06     110.043E+06     63.5138E+06     72.0724E+03    -50.9386E-03     102.563E-03    -51.6242E-03     28.7228E-03    -51.3372E-03     103.139E-03    -51.4543E-03     28.2960E-03
             405     16.2427E-03     67.5396E-03    -4.12684E+06     111.561E+06     76.6484E+06     29.3911E+03    -50.8199E-03     102.483E-03    -51.6631E-03     15.8756E-03    -51.1765E-03     102.999E-03    -51.4356E-03     15.5296E-03
             406     854.616E-06     67.8161E-03    -86.5353E+06    -192.112E+06    -84.3250E+06     15.1517E+03    -51.7461E-03     103.435E-03    -51.6891E-03     8.71161E-03    -51.7793E-03     102.724E-03    -51.7067E-03     8.67961E-03
             407     1.70926E-03     67.8283E-03    -83.4632E+06    -186.176E+06    -75.5130E+06     16.4398E+03    -51.7323E-03     103.471E-03    -51.7384E-03     15.8490E-03    -51.7745E-03     102.775E-03    -51.7250E-03     15.7888E-03
             408     2.56392E-03     67.8477E-03    -78.8752E+06    -177.449E+06    -63.1772E+06     33.2231E+03    -51.7611E-03     103.528E-03    -51.7672E-03     23.1006E-03    -51.8161E-03     102.857E-03    -51.7115E-03     23.0087E-03
             409     3.41863E-03     67.8743E-03    -73.3038E+06    -167.224E+06    -49.4170E+06     56.0083E+03    -51.8080E-03     103.605E-03    -51.7969E-03     30.0166E-03    -51.8776E-03     102.964E-03    -51.6952E-03     29.8901E-03
             410     4.27335E-03     67.9076E-03    -67.2531E+06    -157.063E+06    -36.3186E+06     80.5599E+03    -51.8757E-03     103.697E-03    -51.8215E-03     36.4467E-03    -51.9592E-03     103.090E-03    -51.6779E-03     36.2824E-03
             411     5.12812E-03     67.9470E-03    -61.2177E+06    -144.170E+06    -25.4935E+06     106.651E+03    -51.9499E-03     103.781E-03    -51.8308E-03     42.3006E-03    -52.0511E-03     103.227E-03    -51.6605E-03     42.0954E-03
             412     5.98290E-03     67.9919E-03    -55.5225E+06    -128.581E+06    -16.9321E+06     136.138E+03    -52.0213E-03     103.847E-03    -51.8255E-03     47.4931E-03    -52.1454E-03     103.366E-03    -51.6432E-03     47.2447E-03
             413     6.83772E-03     68.0417E-03    -50.2433E+06    -113.018E+06    -9.38357E+06     154.232E+03    -52.0862E-03     103.902E-03    -51.8162E-03     51.9362E-03    -52.2368E-03     103.501E-03    -51.6264E-03     51.6427E-03
             414     7.69256E-03     68.0954E-03    -45.3331E+06    -96.3333E+06    -2.33886E+06     183.034E+03    -52.1310E-03     103.935E-03    -51.8038E-03     55.5499E-03    -52.3132E-03     103.621E-03    -51.6101E-03     55.2115E-03
             415     8.54743E-03     68.1523E-03    -40.7158E+06    -79.1335E+06     4.57520E+06     204.785E+03    -52.1491E-03     103.940E-03    -51.7908E-03     58.2272E-03    -52.3662E-03     103.718E-03    -51.5941E-03     57.8457E-03
             416     9.40232E-03     68.2114E-03    -36.3034E+06    -59.4713E+06     11.5641E+06     200.080E+03    -52.1279E-03     103.903E-03    -51.7749E-03     59.8662E-03    -52.3837E-03     103.785E-03    -51.5782E-03     59.4464E-03
             417     10.2572E-03     68.2715E-03    -32.0648E+06    -41.1608E+06     18.4414E+06     191.645E+03    -52.0742E-03     103.835E-03    -51.7605E-03     60.2354E-03    -52.3640E-03     103.811E-03    -51.5621E-03     59.7855E-03
             418     11.1122E-03     68.3312E-03    -27.9785E+06    -19.8783E+06     24.7808E+06     213.518E+03    -51.9712E-03     103.711E-03    -51.7393E-03     59.1220E-03    -52.2922E-03     103.790E-03    -51.5460E-03     58.6538E-03
             419     11.9672E-03     68.3890E-03    -23.9589E+06     2.43647E+06     31.8738E+06     236.466E+03    -51.8203E-03     103.541E-03    -51.7203E-03     56.2886E-03    -52.1661E-03     103.718E-03    -51.5297E-03     55.8142E-03
             420     12.8222E-03     68.4431E-03    -20.0397E+06     25.7387E+06     36.6634E+06     204.207E+03    -51.6383E-03     103.327E-03    -51.6883E-03     51.6835E-03    -51.9975E-03     103.600E-03    -51.5132E-03     51.2123E-03
             421     13.6772E-03     68.4917E-03    -16.1172E+06     68.4729E+06     46.5174E+06     169.566E+03    -51.3552E-03     103.007E-03    -51.6519E-03     45.8004E-03    -51.7551E-03     103.458E-03    -51.4952E-03     45.3414E-03
             422     14.5324E-03     68.5340E-03    -12.1062E+06     101.805E+06     55.0021E+06     158.540E+03    -51.1015E-03     102.721E-03    -51.6198E-03     38.2633E-03    -51.5191E-03     103.298E-03    -51.4748E-03     37.8234E-03
             423     15.3875E-03     68.5675E-03    -8.17590E+06     110.082E+06     63.5705E+06     142.393E+03    -50.9347E-03     102.559E-03    -51.6246E-03     28.7322E-03    -51.3331E-03     103.135E-03    -51.4545E-03     28.3064E-03
             424     16.2427E-03     68.5907E-03    -4.15976E+06     111.593E+06     76.6277E+06     99.3345E+03    -50.8174E-03     102.480E-03    -51.6630E-03     15.8819E-03    -51.1741E-03     102.996E-03    -51.4357E-03     15.5369E-03
             425     854.629E-06     68.8670E-03    -86.5890E+06    -192.169E+06    -84.3415E+06     14.6357E+03    -51.7432E-03     103.429E-03    -51.6856E-03     8.71106E-03    -51.7766E-03     102.717E-03    -51.7032E-03     8.67904E-03
             426     1.70926E-03     68.8791E-03    -83.4870E+06    -186.218E+06    -75.5303E+06     37.7561E+03    -51.7311E-03     103.467E-03    -51.7357E-03     15.8482E-03    -51.7734E-03     102.771E-03    -51.7223E-03     15.7882E-03
             427     2.56393E-03     68.8986E-03    -78.9044E+06    -177.504E+06    -63.2139E+06     61.3965E+03    -51.7616E-03     103.527E-03    -51.7653E-03     23.0999E-03    -51.8166E-03     102.855E-03    -51.7096E-03     23.0084E-03
             428     3.41863E-03     68.9252E-03    -73.3245E+06    -167.286E+06    -49.4635E+06     90.7811E+03    -51.8100E-03     103.606E-03    -51.7956E-03     30.0167E-03    -51.8796E-03     102.965E-03    -51.6941E-03     29.8907E-03
             429     4.27336E-03     68.9585E-03    -67.2748E+06    -157.123E+06    -36.3603E+06     108.122E+03    -51.8788E-03     103.700E-03    -51.8211E-03     36.4489E-03    -51.9623E-03     103.092E-03    -51.6775E-03     36.2849E-03
             430     5.12811E-03     68.9979E-03    -61.2205E+06    -144.252E+06    -25.4806E+06     140.037E+03    -51.9535E-03     103.785E-03    -51.8312E-03     42.3054E-03    -52.0546E-03     103.230E-03    -51.6607E-03     42.1006E-03
             431     5.98290E-03     69.0428E-03    -55.5031E+06    -128.654E+06    -16.8784E+06     176.651E+03    -52.0247E-03     103.851E-03    -51.8265E-03     47.5007E-03    -52.1488E-03     103.371E-03    -51.6439E-03     47.2527E-03
             432     6.83771E-03     69.0926E-03    -50.2290E+06    -113.079E+06    -9.32529E+06     205.553E+03    -52.0889E-03     103.906E-03    -51.8175E-03     51.9459E-03    -52.2395E-03     103.504E-03    -51.6274E-03     51.6530E-03
             433     7.69255E-03     69.1463E-03    -45.3256E+06    -96.4084E+06    -2.29109E+06     228.563E+03    -52.1327E-03     103.938E-03    -51.8052E-03     55.5611E-03    -52.3149E-03     103.624E-03    -51.6112E-03     55.2232E-03
             434     8.54742E-03     69.2032E-03    -40.6927E+06    -79.1716E+06     4.63034E+06     237.458E+03    -52.1499E-03     103.942E-03    -51.7921E-03     58.2393E-03    -52.3669E-03     103.720E-03    -51.5952E-03     57.8582E-03
             435     9.40231E-03     69.2623E-03    -36.2735E+06    -59.4979E+06     11.6232E+06     236.735E+03    -52.1284E-03     103.905E-03    -51.7761E-03     59.8781E-03    -52.3842E-03     103.787E-03    -51.5791E-03     59.4587E-03
             436     10.2572E-03     69.3224E-03    -32.0272E+06    -41.2113E+06     18.4917E+06     256.851E+03    -52.0755E-03     103.837E-03    -51.7617E-03     60.2471E-03    -52.3652E-03     103.813E-03    -51.5630E-03     59.7980E-03
             437     11.1122E-03     69.3822E-03    -27.9324E+06    -19.9264E+06     24.8274E+06     263.925E+03    -51.9733E-03     103.714E-03    -51.7405E-03     59.1352E-03    -52.2942E-03     103.793E-03    -51.5470E-03     58.6676E-03
             438     11.9672E-03     69.4400E-03    -23.9322E+06     2.43100E+06     31.9187E+06     229.313E+03    -51.8223E-03     103.544E-03    -51.7214E-03     56.3044E-03    -52.1680E-03     103.721E-03    -51.5307E-03     55.8298E-03
             439     12.8222E-03     69.4941E-03    -20.0568E+06     25.7697E+06     36.6975E+06     187.242E+03    -51.6377E-03     103.327E-03    -51.6894E-03     51.7002E-03    -51.9971E-03     103.600E-03    -51.5142E-03     51.2287E-03
             440     13.6772E-03     69.5427E-03    -16.2180E+06     68.5263E+06     46.5236E+06     107.425E+03    -51.3516E-03     103.004E-03    -51.6527E-03     45.8144E-03    -51.7521E-03     103.456E-03    -51.4959E-03     45.3547E-03
             441     14.5324E-03     69.5850E-03    -12.2573E+06     101.745E+06     54.9384E+06     85.1464E+03    -51.0974E-03     102.718E-03    -51.6203E-03     38.2738E-03    -51.5156E-03     103.294E-03    -51.4753E-03     37.8330E-03
             442     15.3875E-03     69.6185E-03    -8.23179E+06     109.993E+06     63.5314E+06     186.444E+03    -50.9310E-03     102.556E-03    -51.6249E-03     28.7404E-03    -51.3296E-03     103.131E-03    -51.4548E-03     28.3151E-03
             443     16.2427E-03     69.6417E-03    -4.11132E+06     111.694E+06     76.6753E+06     183.324E+03    -50.8139E-03     102.477E-03    -51.6631E-03     15.8870E-03    -51.1706E-03     102.993E-03    -51.4357E-03     15.5431E-03
             444     854.619E-06     69.9178E-03    -86.6341E+06    -192.238E+06    -84.3850E+06     33.5442E+03    -51.7438E-03     103.430E-03    -51.6858E-03     8.71031E-03    -51.7772E-03     102.718E-03    -51.7034E-03     8.67854E-03
             445     1.70927E-03     69.9299E-03    -83.5359E+06    -186.297E+06    -75.5919E+06     55.3407E+03    -51.7321E-03     103.468E-03    -51.7361E-03     15.8476E-03    -51.7744E-03     102.772E-03    -51.7228E-03     15.7879E-03
             446     2.56392E-03     69.9494E-03    -78.9489E+06    -177.574E+06    -63.2600E+06     84.8991E+03    -51.7633E-03     103.529E-03    -51.7660E-03     23.1004E-03    -51.8184E-03     102.857E-03    -51.7104E-03     23.0091E-03
             447     3.41862E-03     69.9760E-03    -73.3701E+06    -167.359E+06    -49.5126E+06     111.697E+03    -51.8121E-03     103.609E-03    -51.7967E-03     30.0188E-03    -51.8817E-03     102.967E-03    -51.6952E-03     29.8930E-03
             448     4.27335E-03     70.0093E-03    -67.3130E+06    -157.182E+06    -36.3948E+06     132.687E+03    -51.8808E-03     103.703E-03    -51.8223E-03     36.4533E-03    -51.9644E-03     103.095E-03    -51.6788E-03     36.2896E-03
             449     5.12811E-03     70.0487E-03    -61.2575E+06    -144.339E+06    -25.4775E+06     155.844E+03    -51.9555E-03     103.788E-03    -51.8328E-03     42.3119E-03    -52.0567E-03     103.234E-03    -51.6621E-03     42.1073E-03
             450     5.98289E-03     70.0937E-03    -55.5325E+06    -128.760E+06    -16.8504E+06     206.856E+03    -52.0267E-03     103.855E-03    -51.8284E-03     47.5086E-03    -52.1508E-03     103.374E-03    -51.6454E-03     47.2610E-03
             451     6.83770E-03     70.1435E-03    -50.2372E+06    -113.163E+06    -9.28901E+06     257.845E+03    -52.0906E-03     103.910E-03    -51.8193E-03     51.9545E-03    -52.2412E-03     103.507E-03    -51.6289E-03     51.6622E-03
             452     7.69254E-03     70.1972E-03    -45.3168E+06    -96.4590E+06    -2.25238E+06     271.026E+03    -52.1339E-03     103.941E-03    -51.8069E-03     55.5705E-03    -52.3160E-03     103.626E-03    -51.6126E-03     55.2331E-03
             453     8.54741E-03     70.2542E-03    -40.6886E+06    -79.2120E+06     4.65570E+06     266.680E+03    -52.1506E-03     103.944E-03    -51.7937E-03     58.2498E-03    -52.3676E-03     103.722E-03    -51.5965E-03     57.8690E-03
             454     9.40229E-03     70.3133E-03    -36.2806E+06    -59.5572E+06     11.6320E+06     284.462E+03    -52.1292E-03     103.907E-03    -51.7775E-03     59.8895E-03    -52.3850E-03     103.789E-03    -51.5804E-03     59.4707E-03
             455     10.2572E-03     70.3734E-03    -32.0391E+06    -41.2775E+06     18.4920E+06     305.476E+03    -52.0767E-03     103.840E-03    -51.7630E-03     60.2601E-03    -52.3664E-03     103.816E-03    -51.5643E-03     59.8115E-03
             456     11.1122E-03     70.4332E-03    -27.9410E+06    -19.9527E+06     24.8353E+06     311.439E+03    -51.9746E-03     103.716E-03    -51.7418E-03     59.1497E-03    -52.2956E-03     103.795E-03    -51.5482E-03     58.6826E-03
             457     11.9671E-03     70.4910E-03    -23.9685E+06     2.46864E+06     31.9292E+06     277.798E+03    -51.8219E-03     103.544E-03    -51.7226E-03     56.3202E-03    -52.1679E-03     103.722E-03    -51.5318E-03     55.8461E-03
             458     12.8221E-03     70.5451E-03    -20.1283E+06     25.8078E+06     36.6900E+06     209.595E+03    -51.6351E-03     103.325E-03    -51.6903E-03     51.7143E-03    -51.9950E-03     103.599E-03    -51.5151E-03     51.2431E-03
             459     13.6772E-03     70.5938E-03    -16.3015E+06     68.6300E+06     46.5234E+06     134.591E+03    -51.3484E-03     103.002E-03    -51.6534E-03     45.8259E-03    -51.7496E-03     103.454E-03    -51.4967E-03     45.3665E-03
             460     14.5324E-03     70.6360E-03    -12.3879E+06     101.726E+06     54.8694E+06     57.8509E+03    -51.0955E-03     102.716E-03    -51.6207E-03     38.2842E-03    -51.5143E-03     103.293E-03    -51.4759E-03     37.8430E-03
             461     15.3875E-03     70.6696E-03    -8.39542E+06     109.778E+06     63.3784E+06     113.395E+03    -50.9287E-03     102.554E-03    -51.6251E-03     28.7479E-03    -51.3275E-03     103.129E-03    -51.4552E-03     28.3217E-03
             462     16.2427E-03     70.6928E-03    -4.22237E+06     111.764E+06     76.6964E+06     190.039E+03    -50.8088E-03     102.472E-03    -51.6635E-03     15.8904E-03    -51.1662E-03     102.989E-03    -51.4360E-03     15.5465E-03
             463     854.625E-06     70.9686E-03    -86.7252E+06    -192.336E+06    -84.4753E+06     42.1407E+03    -51.7469E-03     103.436E-03    -51.6892E-03     8.71202E-03    -51.7806E-03     102.724E-03    -51.7069E-03     8.68036E-03
             464     1.70925E-03     70.9808E-03    -83.6074E+06    -186.379E+06    -75.6388E+06     68.5062E+03    -51.7348E-03     103.474E-03    -51.7394E-03     15.8503E-03    -51.7772E-03     102.778E-03    -51.7261E-03     15.7908E-03
             465     2.56392E-03     71.0003E-03    -79.0144E+06    -177.666E+06    -63.3288E+06     101.209E+03    -51.7654E-03     103.534E-03    -51.7689E-03     23.1043E-03    -51.8206E-03     102.862E-03    -51.7134E-03     23.0133E-03
             466     3.41861E-03     71.0269E-03    -73.4380E+06    -167.442E+06    -49.5678E+06     137.340E+03    -51.8139E-03     103.613E-03    -51.7994E-03     30.0240E-03    -51.8836E-03     102.972E-03    -51.6979E-03     29.8986E-03
             467     4.27334E-03     71.0602E-03    -67.3887E+06    -157.250E+06    -36.4257E+06     163.173E+03    -51.8823E-03     103.707E-03    -51.8249E-03     36.4598E-03    -51.9661E-03     103.099E-03    -51.6813E-03     36.2965E-03
             468     5.12809E-03     71.0996E-03    -61.3468E+06    -144.426E+06    -25.5062E+06     190.060E+03    -51.9568E-03     103.792E-03    -51.8353E-03     42.3195E-03    -52.0582E-03     103.237E-03    -51.6645E-03     42.1153E-03
             469     5.98288E-03     71.1446E-03    -55.6340E+06    -128.892E+06    -16.8876E+06     239.750E+03    -52.0277E-03     103.858E-03    -51.8307E-03     47.5169E-03    -52.1521E-03     103.377E-03    -51.6476E-03     47.2697E-03
             470     6.83769E-03     71.1944E-03    -50.3312E+06    -113.253E+06    -9.32712E+06     283.089E+03    -52.0912E-03     103.913E-03    -51.8215E-03     51.9639E-03    -52.2421E-03     103.510E-03    -51.6309E-03     51.6720E-03
             471     7.69253E-03     71.2482E-03    -45.3889E+06    -96.5039E+06    -2.27493E+06     295.162E+03    -52.1344E-03     103.943E-03    -51.8089E-03     55.5805E-03    -52.3168E-03     103.629E-03    -51.6145E-03     55.2434E-03
             472     8.54739E-03     71.3051E-03    -40.7477E+06    -79.2651E+06     4.63091E+06     302.397E+03    -52.1513E-03     103.947E-03    -51.7954E-03     58.2603E-03    -52.3685E-03     103.724E-03    -51.5983E-03     57.8799E-03
             473     9.40228E-03     71.3642E-03    -36.3231E+06    -59.6329E+06     11.5976E+06     317.587E+03    -52.1301E-03     103.909E-03    -51.7792E-03     59.9010E-03    -52.3860E-03     103.791E-03    -51.5820E-03     59.4825E-03
             474     10.2572E-03     71.4244E-03    -32.0551E+06    -41.3439E+06     18.4685E+06     341.723E+03    -52.0777E-03     103.842E-03    -51.7646E-03     60.2726E-03    -52.3674E-03     103.818E-03    -51.5658E-03     59.8245E-03
             475     11.1121E-03     71.4841E-03    -27.9377E+06    -19.9851E+06     24.8261E+06     344.808E+03    -51.9744E-03     103.718E-03    -51.7432E-03     59.1632E-03    -52.2953E-03     103.796E-03    -51.5496E-03     58.6965E-03
             476     11.9671E-03     71.5420E-03    -23.9405E+06     2.45882E+06     31.9337E+06     348.417E+03    -51.8199E-03     103.544E-03    -51.7238E-03     56.3328E-03    -52.1659E-03     103.721E-03    -51.5330E-03     55.8596E-03
             477     12.8221E-03     71.5961E-03    -20.1433E+06     25.8736E+06     36.7020E+06     318.396E+03    -51.6326E-03     103.324E-03    -51.6913E-03     51.7258E-03    -51.9927E-03     103.598E-03    -51.5161E-03     51.2559E-03
             478     13.6772E-03     71.6448E-03    -16.3692E+06     68.7864E+06     46.5386E+06     169.589E+03    -51.3459E-03     103.000E-03    -51.6541E-03     45.8369E-03    -51.7477E-03     103.453E-03    -51.4974E-03     45.3779E-03
             479     14.5323E-03     71.6871E-03    -12.4280E+06     101.759E+06     54.8503E+06     62.2565E+03    -51.0939E-03     102.715E-03    -51.6212E-03     38.2944E-03    -51.5129E-03     103.292E-03    -51.4764E-03     37.8532E-03
             480     15.3875E-03     71.7206E-03    -8.47500E+06     109.592E+06     63.2545E+06     105.740E+03    -50.9288E-03     102.554E-03    -51.6253E-03     28.7560E-03    -51.3276E-03     103.128E-03    -51.4557E-03     28.3296E-03
             481     16.2427E-03     71.7438E-03    -4.32961E+06     111.796E+06     76.6802E+06     112.369E+03    -50.8043E-03     102.468E-03    -51.6639E-03     15.8948E-03    -51.1623E-03     102.985E-03    -51.4363E-03     15.5499E-03
             482     854.611E-06     72.0195E-03    -86.7750E+06    -192.417E+06    -84.5400E+06     41.8572E+03    -51.7512E-03     103.445E-03    -51.6936E-03     8.71458E-03    -51.7849E-03     102.733E-03    -51.7115E-03     8.68290E-03
             483     1.70925E-03     72.0316E-03    -83.6894E+06    -186.491E+06    -75.7345E+06     82.5266E+03    -51.7382E-03     103.482E-03    -51.7435E-03     15.8552E-03    -51.7808E-03     102.785E-03    -51.7304E-03     15.7959E-03
             484     2.56390E-03     72.0511E-03    -79.1057E+06    -177.772E+06    -63.4077E+06     128.334E+03    -51.7682E-03     103.541E-03    -51.7728E-03     23.1107E-03    -51.8235E-03     102.868E-03    -51.7173E-03     23.0200E-03
             485     3.41860E-03     72.0778E-03    -73.5333E+06    -167.545E+06    -49.6404E+06     169.531E+03    -51.8161E-03     103.619E-03    -51.8029E-03     30.0314E-03    -51.8861E-03     102.977E-03    -51.7015E-03     29.9064E-03
             486     4.27332E-03     72.1111E-03    -67.4885E+06    -157.345E+06    -36.4869E+06     209.622E+03    -51.8841E-03     103.712E-03    -51.8282E-03     36.4677E-03    -51.9682E-03     103.104E-03    -51.6846E-03     36.3050E-03
             487     5.12808E-03     72.1505E-03    -61.4469E+06    -144.523E+06    -25.5562E+06     247.329E+03    -51.9581E-03     103.796E-03    -51.8384E-03     42.3279E-03    -52.0598E-03     103.241E-03    -51.6675E-03     42.1244E-03
             488     5.98286E-03     72.1955E-03    -55.7310E+06    -129.008E+06    -16.9462E+06     281.590E+03    -52.0286E-03     103.862E-03    -51.8335E-03     47.5258E-03    -52.1533E-03     103.380E-03    -51.6503E-03     47.2791E-03
             489     6.83767E-03     72.2453E-03    -50.4221E+06    -113.328E+06    -9.38462E+06     299.943E+03    -52.0918E-03     103.916E-03    -51.8239E-03     51.9735E-03    -52.2429E-03     103.513E-03    -51.6334E-03     51.6818E-03
             490     7.69251E-03     72.2991E-03    -45.4775E+06    -96.5656E+06    -2.32779E+06     310.295E+03    -52.1350E-03     103.946E-03    -51.8111E-03     55.5903E-03    -52.3177E-03     103.631E-03    -51.6168E-03     55.2534E-03
             491     8.54737E-03     72.3561E-03    -40.8272E+06    -79.3362E+06     4.58252E+06     327.706E+03    -52.1523E-03     103.950E-03    -51.7975E-03     58.2703E-03    -52.3697E-03     103.727E-03    -51.6004E-03     57.8901E-03
             492     9.40226E-03     72.4152E-03    -36.3927E+06    -59.6848E+06     11.5505E+06     331.845E+03    -52.1311E-03     103.912E-03    -51.7811E-03     59.9124E-03    -52.3872E-03     103.794E-03    -51.5840E-03     59.4941E-03
             493     10.2572E-03     72.4753E-03    -32.0959E+06    -41.4119E+06     18.4201E+06     327.083E+03    -52.0777E-03     103.844E-03    -51.7663E-03     60.2857E-03    -52.3675E-03     103.819E-03    -51.5677E-03     59.8373E-03
             494     11.1121E-03     72.5351E-03    -27.9353E+06    -20.0393E+06     24.7973E+06     346.311E+03    -51.9730E-03     103.718E-03    -51.7448E-03     59.1760E-03    -52.2938E-03     103.796E-03    -51.5512E-03     58.7093E-03
             495     11.9671E-03     72.5930E-03    -23.8972E+06     2.39420E+06     31.9207E+06     366.227E+03    -51.8177E-03     103.543E-03    -51.7251E-03     56.3444E-03    -52.1633E-03     103.720E-03    -51.5343E-03     55.8714E-03
             496     12.8221E-03     72.6471E-03    -19.9933E+06     25.8461E+06     36.7386E+06     405.028E+03    -51.6302E-03     103.322E-03    -51.6923E-03     51.7369E-03    -51.9896E-03     103.596E-03    -51.5171E-03     51.2682E-03
             497     13.6772E-03     72.6958E-03    -16.2371E+06     69.0208E+06     46.6507E+06     331.533E+03    -51.3434E-03     102.998E-03    -51.6549E-03     45.8477E-03    -51.7451E-03     103.452E-03    -51.4982E-03     45.3908E-03
             498     14.5323E-03     72.7381E-03    -12.4635E+06     101.869E+06     54.8960E+06     127.228E+03    -51.0926E-03     102.715E-03    -51.6219E-03     38.3043E-03    -51.5121E-03     103.292E-03    -51.4771E-03     37.8639E-03
             499     15.3875E-03     72.7717E-03    -8.46089E+06     109.507E+06     63.2157E+06     35.9302E+03    -50.9258E-03     102.552E-03    -51.6257E-03     28.7645E-03    -51.3245E-03     103.126E-03    -51.4562E-03     28.3372E-03
             500     16.2427E-03     72.7949E-03    -4.21801E+06     111.851E+06     76.6668E+06     17.1473E+03    -50.7915E-03     102.455E-03    -51.6636E-03     15.9030E-03    -51.1490E-03     102.972E-03    -51.4363E-03     15.5569E-03
             501     854.617E-06     73.0703E-03    -86.8393E+06    -192.542E+06    -84.6420E+06     60.9344E+03    -51.7553E-03     103.453E-03    -51.6978E-03     8.71709E-03    -51.7890E-03     102.740E-03    -51.7159E-03     8.68566E-03
             502     1.70924E-03     73.0825E-03    -83.7834E+06    -186.616E+06    -75.8373E+06     109.284E+03    -51.7421E-03     103.490E-03    -51.7475E-03     15.8597E-03    -51.7848E-03     102.792E-03    -51.7346E-03     15.8007E-03
             503     2.56390E-03     73.1020E-03    -79.2156E+06    -177.900E+06    -63.5065E+06     154.938E+03    -51.7717E-03     103.548E-03    -51.7766E-03     23.1169E-03    -51.8273E-03     102.875E-03    -51.7214E-03     23.0266E-03
             504     3.41858E-03     73.1286E-03    -73.6449E+06    -167.674E+06    -49.7433E+06     208.862E+03    -51.8191E-03     103.626E-03    -51.8066E-03     30.0388E-03    -51.8893E-03     102.983E-03    -51.7054E-03     29.9143E-03
             505     4.27331E-03     73.1619E-03    -67.5886E+06    -157.463E+06    -36.5821E+06     259.838E+03    -51.8864E-03     103.718E-03    -51.8317E-03     36.4759E-03    -51.9707E-03     103.110E-03    -51.6882E-03     36.3138E-03
             506     5.12806E-03     73.2014E-03    -61.5359E+06    -144.638E+06    -25.6331E+06     301.941E+03    -51.9600E-03     103.802E-03    -51.8417E-03     42.3364E-03    -52.0619E-03     103.246E-03    -51.6709E-03     42.1336E-03
             507     5.98284E-03     73.2464E-03    -55.8111E+06    -129.095E+06    -17.0033E+06     324.559E+03    -52.0301E-03     103.867E-03    -51.8366E-03     47.5344E-03    -52.1550E-03     103.384E-03    -51.6535E-03     47.2882E-03
             508     6.83765E-03     73.2962E-03    -50.5045E+06    -113.387E+06    -9.44355E+06     321.790E+03    -52.0929E-03     103.920E-03    -51.8267E-03     51.9824E-03    -52.2443E-03     103.517E-03    -51.6363E-03     51.6909E-03
             509     7.69249E-03     73.3500E-03    -45.5619E+06    -96.6417E+06    -2.39948E+06     328.693E+03    -52.1360E-03     103.950E-03    -51.8137E-03     55.5997E-03    -52.3190E-03     103.635E-03    -51.6195E-03     55.2629E-03
             510     8.54735E-03     73.4070E-03    -40.9020E+06    -79.3978E+06     4.51844E+06     334.654E+03    -52.1533E-03     103.953E-03    -51.7999E-03     58.2805E-03    -52.3710E-03     103.731E-03    -51.6029E-03     57.9004E-03
             511     9.40224E-03     73.4661E-03    -36.4392E+06    -59.7196E+06     11.5025E+06     323.252E+03    -52.1315E-03     103.915E-03    -51.7833E-03     59.9236E-03    -52.3879E-03     103.796E-03    -51.5864E-03     59.5051E-03
             512     10.2572E-03     73.5263E-03    -32.1374E+06    -41.4340E+06     18.3750E+06     295.049E+03    -52.0770E-03     103.845E-03    -51.7683E-03     60.2973E-03    -52.3670E-03     103.821E-03    -51.5698E-03     59.8484E-03
             513     11.1121E-03     73.5861E-03    -27.9543E+06    -20.1173E+06     24.7420E+06     280.557E+03    -51.9712E-03     103.718E-03    -51.7465E-03     59.1873E-03    -52.2920E-03     103.796E-03    -51.5530E-03     58.7196E-03
             514     11.9671E-03     73.6440E-03    -23.8525E+06     2.31402E+06     31.8892E+06     312.718E+03    -51.8156E-03     103.542E-03    -51.7266E-03     56.3552E-03    -52.1609E-03     103.719E-03    -51.5359E-03     55.8815E-03
             515     12.8221E-03     73.6981E-03    -19.9013E+06     25.7305E+06     36.7204E+06     356.324E+03    -51.6279E-03     103.321E-03    -51.6935E-03     51.7471E-03    -51.9867E-03     103.594E-03    -51.5183E-03     51.2777E-03
             516     13.6772E-03     73.7468E-03    -15.9738E+06     69.0550E+06     46.7342E+06     424.830E+03    -51.3407E-03     102.997E-03    -51.6558E-03     45.8567E-03    -51.7413E-03     103.450E-03    -51.4991E-03     45.4009E-03
             517     14.5323E-03     73.7892E-03    -12.0659E+06     102.154E+06     55.0903E+06     317.713E+03    -51.0890E-03     102.712E-03    -51.6225E-03     38.3131E-03    -51.5072E-03     103.290E-03    -51.4777E-03     37.8753E-03
             518     15.3875E-03     73.8227E-03    -8.26301E+06     109.645E+06     63.1393E+06     33.3404E+03    -50.9144E-03     102.539E-03    -51.6249E-03     28.7700E-03    -51.3121E-03     103.114E-03    -51.4563E-03     28.3427E-03
             519     16.2427E-03     73.8459E-03    -4.23020E+06     111.825E+06     76.4800E+06    -43.8718E+03    -50.7852E-03     102.448E-03    -51.6623E-03     15.9030E-03    -51.1425E-03     102.965E-03    -51.4359E-03     15.5561E-03
             520     854.605E-06     74.1212E-03    -87.0307E+06    -192.732E+06    -84.7802E+06     57.0264E+03    -51.7591E-03     103.460E-03    -51.7013E-03     8.71951E-03    -51.7932E-03     102.747E-03    -51.7195E-03     8.68801E-03
             521     1.70924E-03     74.1334E-03    -83.9188E+06    -186.767E+06    -75.9543E+06     136.388E+03    -51.7461E-03     103.497E-03    -51.7513E-03     15.8635E-03    -51.7891E-03     102.800E-03    -51.7386E-03     15.8048E-03
             522     2.56388E-03     74.1529E-03    -79.3421E+06    -178.046E+06    -63.6229E+06     198.698E+03    -51.7755E-03     103.556E-03    -51.7805E-03     23.1224E-03    -51.8313E-03     102.883E-03    -51.7254E-03     23.0326E-03
             523     3.41857E-03     74.1795E-03    -73.7707E+06    -167.818E+06    -49.8585E+06     246.813E+03    -51.8225E-03     103.633E-03    -51.8104E-03     30.0456E-03    -51.8930E-03     102.990E-03    -51.7094E-03     29.9215E-03
             524     4.27329E-03     74.2128E-03    -67.7100E+06    -157.600E+06    -36.6910E+06     295.631E+03    -51.8894E-03     103.725E-03    -51.8354E-03     36.4837E-03    -51.9739E-03     103.116E-03    -51.6921E-03     36.3220E-03
             525     5.12804E-03     74.2523E-03    -61.6426E+06    -144.763E+06    -25.7305E+06     340.194E+03    -51.9625E-03     103.808E-03    -51.8452E-03     42.3446E-03    -52.0646E-03     103.252E-03    -51.6746E-03     42.1422E-03
             526     5.98282E-03     74.2973E-03    -55.9007E+06    -129.168E+06    -17.0843E+06     355.534E+03    -52.0322E-03     103.872E-03    -51.8399E-03     47.5429E-03    -52.1573E-03     103.390E-03    -51.6570E-03     47.2970E-03
             527     6.83763E-03     74.3471E-03    -50.5824E+06    -113.439E+06    -9.51694E+06     348.269E+03    -52.0947E-03     103.925E-03    -51.8298E-03     51.9909E-03    -52.2464E-03     103.522E-03    -51.6396E-03     51.6997E-03
             528     7.69246E-03     74.4010E-03    -45.6322E+06    -96.7072E+06    -2.48372E+06     339.267E+03    -52.1375E-03     103.954E-03    -51.8165E-03     55.6091E-03    -52.3206E-03     103.639E-03    -51.6226E-03     55.2724E-03
             529     8.54733E-03     74.4579E-03    -40.9561E+06    -79.4291E+06     4.44032E+06     319.509E+03    -52.1541E-03     103.957E-03    -51.8026E-03     58.2914E-03    -52.3719E-03     103.734E-03    -51.6058E-03     57.9110E-03
             530     9.40221E-03     74.5171E-03    -36.4872E+06    -59.7471E+06     11.4354E+06     293.334E+03    -52.1316E-03     103.917E-03    -51.7858E-03     59.9342E-03    -52.3881E-03     103.799E-03    -51.5890E-03     59.5153E-03
             531     10.2571E-03     74.5773E-03    -32.1857E+06    -41.4438E+06     18.3141E+06     275.551E+03    -52.0761E-03     103.847E-03    -51.7705E-03     60.3074E-03    -52.3662E-03     103.822E-03    -51.5722E-03     59.8582E-03
             532     11.1121E-03     74.6371E-03    -28.0321E+06    -20.0894E+06     24.6802E+06     204.493E+03    -51.9697E-03     103.718E-03    -51.7483E-03     59.1972E-03    -52.2908E-03     103.797E-03    -51.5552E-03     58.7286E-03
             533     11.9671E-03     74.6950E-03    -23.9363E+06     2.18982E+06     31.7802E+06     182.370E+03    -51.8138E-03     103.542E-03    -51.7282E-03     56.3646E-03    -52.1593E-03     103.718E-03    -51.5377E-03     55.8891E-03
             534     12.8221E-03     74.7492E-03    -19.9464E+06     25.6279E+06     36.6286E+06     251.732E+03    -51.6258E-03     103.321E-03    -51.6948E-03     51.7557E-03    -51.9846E-03     103.593E-03    -51.5199E-03     51.2850E-03
             535     13.6771E-03     74.7979E-03    -16.0192E+06     68.8839E+06     46.6211E+06     327.850E+03    -51.3356E-03     102.992E-03    -51.6568E-03     45.8646E-03    -51.7360E-03     103.445E-03    -51.5003E-03     45.4076E-03
             536     14.5323E-03     74.8402E-03    -12.0480E+06     102.285E+06     55.2076E+06     400.022E+03    -51.0823E-03     102.706E-03    -51.6237E-03     38.3190E-03    -51.5008E-03     103.285E-03    -51.4785E-03     37.8822E-03
             537     15.3875E-03     74.8738E-03    -8.16878E+06     110.003E+06     63.6338E+06     246.915E+03    -50.9188E-03     102.546E-03    -51.6275E-03     28.7297E-03    -51.3174E-03     103.122E-03    -51.4570E-03     28.3048E-03
             538     16.2427E-03     74.8969E-03    -4.17140E+06     111.820E+06     76.7298E+06     13.7965E+03    -50.8004E-03     102.465E-03    -51.6647E-03     15.8519E-03    -51.1577E-03     102.982E-03    -51.4372E-03     15.5055E-03
             539     854.610E-06     75.1721E-03    -87.2061E+06    -192.922E+06    -84.9354E+06     82.5082E+03    -51.7630E-03     103.468E-03    -51.7053E-03     8.72116E-03    -51.7976E-03     102.755E-03    -51.7238E-03     8.68999E-03
             540     1.70922E-03     75.1842E-03    -84.1000E+06    -186.965E+06    -76.1238E+06     157.373E+03    -51.7499E-03     103.505E-03    -51.7553E-03     15.8666E-03    -51.7933E-03     102.807E-03    -51.7429E-03     15.8082E-03
             541     2.56388E-03     75.2037E-03    -79.5047E+06    -178.222E+06    -63.7675E+06     236.563E+03    -51.7793E-03     103.564E-03    -51.7845E-03     23.1271E-03    -51.8355E-03     102.890E-03    -51.7297E-03     23.0377E-03
             542     3.41856E-03     75.2304E-03    -73.9249E+06    -167.967E+06    -49.9698E+06     292.753E+03    -51.8261E-03     103.641E-03    -51.8144E-03     30.0517E-03    -51.8970E-03     102.998E-03    -51.7136E-03     29.9281E-03
             543     4.27328E-03     75.2637E-03    -67.8701E+06    -157.745E+06    -36.7931E+06     333.810E+03    -51.8928E-03     103.732E-03    -51.8394E-03     36.4904E-03    -51.9778E-03     103.123E-03    -51.6962E-03     36.3292E-03
             544     5.12802E-03     75.3032E-03    -61.7958E+06    -144.875E+06    -25.8629E+06     359.989E+03    -51.9654E-03     103.814E-03    -51.8489E-03     42.3522E-03    -52.0680E-03     103.258E-03    -51.6785E-03     42.1500E-03
             545     5.98280E-03     75.3482E-03    -56.0305E+06    -129.230E+06    -17.2243E+06     354.510E+03    -52.0347E-03     103.878E-03    -51.8433E-03     47.5514E-03    -52.1601E-03     103.396E-03    -51.6608E-03     47.3054E-03
             546     6.83760E-03     75.3980E-03    -50.6804E+06    -113.505E+06    -9.64187E+06     348.348E+03    -52.0969E-03     103.930E-03    -51.8331E-03     51.9996E-03    -52.2488E-03     103.527E-03    -51.6432E-03     51.7084E-03
             547     7.69244E-03     75.4519E-03    -45.6964E+06    -96.7234E+06    -2.58385E+06     319.460E+03    -52.1392E-03     103.959E-03    -51.8196E-03     55.6185E-03    -52.3225E-03     103.644E-03    -51.6260E-03     55.2815E-03
             548     8.54730E-03     75.5089E-03    -41.0059E+06    -79.4641E+06     4.33982E+06     289.125E+03    -52.1552E-03     103.961E-03    -51.8054E-03     58.3012E-03    -52.3731E-03     103.738E-03    -51.6090E-03     57.9204E-03
             549     9.40219E-03     75.5680E-03    -36.5429E+06    -59.7562E+06     11.3436E+06     270.135E+03    -52.1319E-03     103.920E-03    -51.7884E-03     59.9432E-03    -52.3885E-03     103.802E-03    -51.5920E-03     59.5239E-03
             550     10.2571E-03     75.6282E-03    -32.2537E+06    -41.4848E+06     18.2233E+06     257.419E+03    -52.0760E-03     103.849E-03    -51.7729E-03     60.3144E-03    -52.3664E-03     103.825E-03    -51.5749E-03     59.8649E-03
             551     11.1121E-03     75.6881E-03    -28.1409E+06    -19.9806E+06     24.6176E+06     209.672E+03    -51.9694E-03     103.720E-03    -51.7506E-03     59.2031E-03    -52.2912E-03     103.800E-03    -51.5577E-03     58.7345E-03
             552     11.9670E-03     75.7460E-03    -24.1866E+06     2.12545E+06     31.6439E+06     144.760E+03    -51.8141E-03     103.544E-03    -51.7303E-03     56.3655E-03    -52.1606E-03     103.721E-03    -51.5401E-03     55.8894E-03
             553     12.8221E-03     75.8002E-03    -20.3406E+06     25.5212E+06     36.4034E+06     161.345E+03    -51.6256E-03     103.322E-03    -51.6968E-03     51.7542E-03    -51.9860E-03     103.596E-03    -51.5223E-03     51.2821E-03
             554     13.6771E-03     75.8489E-03    -16.4509E+06     68.7329E+06     46.5346E+06     231.712E+03    -51.3353E-03     102.995E-03    -51.6595E-03     45.8453E-03    -51.7376E-03     103.448E-03    -51.5026E-03     45.3868E-03
             555     14.5323E-03     75.8912E-03    -12.4394E+06     102.118E+06     55.4667E+06     356.329E+03    -51.0889E-03     102.717E-03    -51.6283E-03     38.2966E-03    -51.5096E-03     103.295E-03    -51.4810E-03     37.8590E-03
             556     15.3874E-03     75.9249E-03    -8.34619E+06     110.334E+06     64.4258E+06     309.523E+03    -50.9363E-03     102.571E-03    -51.6344E-03     28.6916E-03    -51.3374E-03     103.147E-03    -51.4602E-03     28.2673E-03
             557     16.2426E-03     75.9480E-03    -4.15941E+06     111.989E+06     77.2363E+06     80.5176E+03    -50.8074E-03     102.478E-03    -51.6708E-03     15.8132E-03    -51.1657E-03     102.995E-03    -51.4410E-03     15.4674E-03
             558     854.596E-06     76.2229E-03    -87.3864E+06    -193.139E+06    -85.1401E+06     126.790E+03    -51.7674E-03     103.477E-03    -51.7100E-03     8.72241E-03    -51.8022E-03     102.763E-03    -51.7290E-03     8.69181E-03
             559     1.70922E-03     76.2351E-03    -84.2983E+06    -187.186E+06    -76.3142E+06     180.754E+03    -51.7540E-03     103.514E-03    -51.7598E-03     15.8692E-03    -51.7978E-03     102.815E-03    -51.7477E-03     15.8111E-03
             560     2.56386E-03     76.2546E-03     -79.699E+06    -178.436E+06    -63.9524E+06     259.493E+03    -51.7832E-03     103.572E-03    -51.7888E-03     23.1309E-03    -51.8398E-03     102.898E-03    -51.7343E-03     23.0418E-03
             561     3.41855E-03     76.2813E-03    -74.0995E+06    -168.133E+06    -50.0940E+06     336.279E+03    -51.8299E-03     103.649E-03    -51.8189E-03     30.0565E-03    -51.9012E-03     103.005E-03    -51.7181E-03     29.9335E-03
             562     4.27325E-03     76.3146E-03    -68.0287E+06    -157.892E+06    -36.8991E+06     384.592E+03    -51.8966E-03     103.740E-03    -51.8437E-03     36.4956E-03    -51.9820E-03     103.131E-03    -51.7007E-03     36.3350E-03
             563     5.12800E-03     76.3541E-03    -61.9515E+06    -144.943E+06    -26.0115E+06     374.553E+03    -51.9688E-03     103.822E-03    -51.8528E-03     42.3582E-03    -52.0718E-03     103.266E-03    -51.6829E-03     42.1562E-03
             564     5.98277E-03     76.3991E-03    -56.1909E+06    -129.271E+06    -17.4147E+06     333.665E+03    -52.0375E-03     103.884E-03    -51.8469E-03     47.5583E-03    -52.1635E-03     103.402E-03    -51.6650E-03     47.3121E-03
             565     6.83758E-03     76.4490E-03    -50.8231E+06    -113.552E+06    -9.82196E+06     295.558E+03    -52.0996E-03     103.936E-03    -51.8366E-03     52.0070E-03    -52.2519E-03     103.533E-03    -51.6473E-03     51.7150E-03
             566     7.69241E-03     76.5028E-03    -45.8117E+06    -96.7238E+06    -2.72694E+06     261.578E+03    -52.1417E-03     103.965E-03    -51.8230E-03     55.6253E-03    -52.3254E-03     103.650E-03    -51.6300E-03     55.2874E-03
             567     8.54727E-03     76.5598E-03    -41.1089E+06    -79.5132E+06     4.20949E+06     246.512E+03    -52.1577E-03     103.966E-03    -51.8088E-03     58.3056E-03    -52.3759E-03     103.744E-03    -51.6128E-03     57.9241E-03
             568     9.40215E-03     76.6190E-03    -36.6420E+06    -59.7772E+06     11.2216E+06     245.772E+03    -52.1342E-03     103.926E-03    -51.7916E-03     59.9445E-03    -52.3912E-03     103.808E-03    -51.5957E-03     59.5248E-03
             569     10.2571E-03     76.6792E-03    -32.3579E+06    -41.5373E+06     18.1127E+06     251.029E+03    -52.0795E-03     103.856E-03    -51.7763E-03     60.3101E-03    -52.3702E-03     103.832E-03    -51.5786E-03     59.8603E-03
             570     11.1120E-03     76.7391E-03    -28.2570E+06    -19.9622E+06     24.5058E+06     264.300E+03    -51.9737E-03     103.728E-03    -51.7539E-03     59.1932E-03    -52.2961E-03     103.808E-03    -51.5614E-03     58.7250E-03
             571     11.9670E-03     76.7970E-03    -24.3193E+06     2.12772E+06     31.5448E+06     266.226E+03    -51.8208E-03     103.555E-03    -51.7340E-03     56.3453E-03    -52.1679E-03     103.732E-03    -51.5440E-03     55.8705E-03
             572     12.8220E-03     76.8512E-03    -20.5329E+06     25.5282E+06     36.2072E+06     196.885E+03    -51.6332E-03     103.334E-03    -51.7003E-03     51.7269E-03    -51.9944E-03     103.607E-03    -51.5265E-03     51.2550E-03
             573     13.6771E-03     76.8999E-03    -16.6636E+06     68.6413E+06     46.3651E+06     142.671E+03    -51.3375E-03     103.001E-03    -51.6635E-03     45.8150E-03    -51.7406E-03     103.454E-03    -51.5070E-03     45.3550E-03
             574     14.5322E-03     76.9422E-03    -12.5399E+06     101.913E+06     55.4718E+06     202.137E+03    -51.0873E-03     102.720E-03    -51.6329E-03     38.3245E-03    -51.5082E-03     103.298E-03    -51.4852E-03     37.8851E-03
             575     15.3873E-03     76.9760E-03    -8.39151E+06     110.499E+06     64.6045E+06     215.873E+03    -50.9342E-03     102.573E-03    -51.6390E-03     28.7439E-03    -51.3360E-03     103.150E-03    -51.4640E-03     28.3187E-03
             576     16.2426E-03     76.9991E-03    -4.20186E+06     112.182E+06     77.4286E+06     111.493E+03    -50.8121E-03     102.487E-03    -51.6752E-03     15.8225E-03    -51.1712E-03     103.005E-03    -51.4447E-03     15.4771E-03
             577     854.602E-06     77.2738E-03    -87.6302E+06    -193.405E+06    -85.3741E+06     130.249E+03    -51.7723E-03     103.487E-03    -51.7150E-03     8.72385E-03    -51.8077E-03     102.773E-03    -51.7344E-03     8.69329E-03
             578     1.70921E-03     77.2860E-03    -84.5085E+06    -187.416E+06    -76.5127E+06     211.533E+03    -51.7589E-03     103.524E-03    -51.7648E-03     15.8712E-03    -51.8031E-03     102.824E-03    -51.7531E-03     15.8134E-03
             579     2.56385E-03     77.3055E-03    -79.9143E+06    -178.654E+06    -64.1281E+06     290.527E+03    -51.7879E-03     103.582E-03    -51.7939E-03     23.1336E-03    -51.8450E-03     102.907E-03    -51.7397E-03     23.0449E-03
             580     3.41852E-03     77.3322E-03    -74.3143E+06    -168.350E+06    -50.2710E+06     368.095E+03    -51.8343E-03     103.658E-03    -51.8239E-03     30.0598E-03    -51.9062E-03     103.014E-03    -51.7234E-03     29.9372E-03
             581     4.27324E-03     77.3655E-03    -68.2168E+06    -158.025E+06    -37.1265E+06     414.495E+03    -51.9009E-03     103.749E-03    -51.8482E-03     36.4988E-03    -51.9867E-03     103.139E-03    -51.7058E-03     36.3385E-03
             582     5.12797E-03     77.4050E-03    -62.1248E+06    -144.961E+06    -26.2517E+06     375.990E+03    -51.9730E-03     103.830E-03    -51.8570E-03     42.3611E-03    -52.0766E-03     103.275E-03    -51.6880E-03     42.1591E-03
             583     5.98275E-03     77.4501E-03    -56.3460E+06    -129.268E+06    -17.6102E+06     296.165E+03    -52.0419E-03     103.893E-03    -51.8511E-03     47.5607E-03    -52.1683E-03     103.412E-03    -51.6701E-03     47.3139E-03
             584     6.83754E-03     77.4999E-03    -50.9695E+06    -113.540E+06    -10.0099E+06     214.817E+03    -52.1041E-03     103.945E-03    -51.8408E-03     52.0084E-03    -52.2569E-03     103.543E-03    -51.6523E-03     51.7152E-03
             585     7.69237E-03     77.5538E-03    -45.9603E+06    -96.7645E+06    -2.91881E+06     186.739E+03    -52.1467E-03     103.974E-03    -51.8274E-03     55.6241E-03    -52.3309E-03     103.660E-03    -51.6350E-03     55.2850E-03
             586     8.54723E-03     77.6108E-03    -41.2563E+06    -79.5518E+06     4.02938E+06     190.308E+03    -52.1635E-03     103.977E-03    -51.8133E-03     58.3002E-03    -52.3822E-03     103.755E-03    -51.6180E-03     57.9177E-03
             587     9.40211E-03     77.6700E-03    -36.7777E+06    -59.8403E+06     11.0238E+06     202.737E+03    -52.1409E-03     103.937E-03    -51.7962E-03     59.9350E-03    -52.3982E-03     103.819E-03    -51.6010E-03     59.5145E-03
             588     10.2570E-03     77.7302E-03    -32.4724E+06    -41.5980E+06     17.9042E+06     231.941E+03    -52.0869E-03     103.868E-03    -51.7810E-03     60.2982E-03    -52.3778E-03     103.844E-03    -51.5841E-03     59.8480E-03
             589     11.1120E-03     77.7901E-03    -28.3117E+06    -20.0439E+06     24.2829E+06     267.318E+03    -51.9812E-03     103.740E-03    -51.7586E-03     59.1811E-03    -52.3035E-03     103.820E-03    -51.5671E-03     58.7127E-03
             590     11.9669E-03     77.8480E-03    -24.2349E+06     2.09028E+06     31.3853E+06     296.666E+03    -51.8263E-03     103.565E-03    -51.7388E-03     56.3409E-03    -52.1727E-03     103.742E-03    -51.5498E-03     55.8664E-03
             591     12.8219E-03     77.9022E-03    -20.3287E+06     25.6105E+06     36.1425E+06     269.852E+03    -51.6341E-03     103.339E-03    -51.7051E-03     51.7362E-03    -51.9942E-03     103.613E-03    -51.5320E-03     51.2651E-03
             592     13.6770E-03     77.9509E-03    -16.5484E+06     68.6962E+06     46.3481E+06     161.312E+03    -51.3287E-03     102.997E-03    -51.6680E-03     45.8286E-03    -51.7313E-03     103.450E-03    -51.5119E-03     45.3688E-03
             593     14.5322E-03     77.9932E-03    -12.6120E+06     101.888E+06     55.3072E+06     31.6504E+03    -51.0687E-03     102.705E-03    -51.6360E-03     38.3747E-03    -51.4896E-03     103.282E-03    -51.4889E-03     37.9335E-03
             594     15.3874E-03     78.0270E-03    -8.44849E+06     110.421E+06     64.4171E+06     66.5748E+03    -50.9206E-03     102.561E-03    -51.6408E-03     28.7950E-03    -51.3223E-03     103.138E-03    -51.4666E-03     28.3683E-03
             595     16.2425E-03     78.0501E-03    -4.17027E+06     112.259E+06     77.4638E+06     127.271E+03    -50.8132E-03     102.491E-03    -51.6773E-03     15.8422E-03    -51.1723E-03     103.009E-03    -51.4467E-03     15.4971E-03
             596     854.586E-06     78.3247E-03    -87.8742E+06    -193.666E+06    -85.5968E+06     149.255E+03    -51.7782E-03     103.499E-03    -51.7208E-03     8.72447E-03    -51.8140E-03     102.784E-03    -51.7406E-03     8.69413E-03
             597     1.70920E-03     78.3369E-03    -84.7647E+06    -187.688E+06    -76.7447E+06     228.979E+03    -51.7649E-03     103.536E-03    -51.7707E-03     15.8724E-03    -51.8097E-03     102.836E-03    -51.7594E-03     15.8148E-03
             598     2.56383E-03     78.3564E-03    -80.1445E+06    -178.899E+06    -64.3368E+06     321.363E+03    -51.7940E-03     103.594E-03    -51.8000E-03     23.1348E-03    -51.8516E-03     102.919E-03    -51.7460E-03     23.0465E-03
             599     3.41851E-03     78.3831E-03    -74.5198E+06    -168.566E+06    -50.4493E+06     394.205E+03    -51.8404E-03     103.670E-03    -51.8300E-03     30.0608E-03    -51.9127E-03     103.026E-03    -51.7298E-03     29.9384E-03
             600     4.27321E-03     78.4164E-03    -68.4108E+06    -158.137E+06    -37.3446E+06     414.009E+03    -51.9070E-03     103.761E-03    -51.8540E-03     36.4989E-03    -51.9933E-03     103.151E-03    -51.7123E-03     36.3385E-03
             601     5.12794E-03     78.4559E-03    -62.3025E+06    -144.933E+06    -26.4920E+06     346.692E+03    -51.9794E-03     103.842E-03    -51.8625E-03     42.3596E-03    -52.0836E-03     103.287E-03    -51.6945E-03     42.1571E-03
             602     5.98270E-03     78.5010E-03    -56.5045E+06    -129.199E+06    -17.8411E+06     220.658E+03    -52.0490E-03     103.906E-03    -51.8568E-03     47.5573E-03    -52.1760E-03     103.425E-03    -51.6767E-03     47.3093E-03
             603     6.83750E-03     78.5508E-03    -51.1163E+06    -113.502E+06    -10.2554E+06     125.238E+03    -52.1117E-03     103.958E-03    -51.8466E-03     52.0029E-03    -52.2650E-03     103.557E-03    -51.6592E-03     51.7084E-03
             604     7.69232E-03     78.6047E-03    -46.0957E+06    -96.8047E+06    -3.19474E+06     88.1638E+03    -52.1546E-03     103.988E-03    -51.8332E-03     55.6171E-03    -52.3391E-03     103.674E-03    -51.6420E-03     55.2766E-03
             605     8.54717E-03     78.6618E-03    -41.3495E+06    -79.5922E+06     3.75412E+06     86.3892E+03    -52.1710E-03     103.990E-03    -51.8192E-03     58.2939E-03    -52.3898E-03     103.769E-03    -51.6251E-03     57.9099E-03
             606     9.40203E-03     78.7209E-03    -36.8170E+06    -59.9221E+06     10.7661E+06     110.554E+03    -52.1476E-03     103.950E-03    -51.8022E-03     59.9319E-03    -52.4046E-03     103.832E-03    -51.6081E-03     59.5100E-03
             607     10.2569E-03     78.7812E-03    -32.4521E+06    -41.6788E+06     17.6762E+06     148.289E+03    -52.0905E-03     103.877E-03    -51.7869E-03     60.3039E-03    -52.3809E-03     103.853E-03    -51.5910E-03     59.8525E-03
             608     11.1119E-03     78.8411E-03    -28.2391E+06    -20.1296E+06     24.1061E+06     179.638E+03    -51.9800E-03     103.744E-03    -51.7642E-03     59.1997E-03    -52.3016E-03     103.824E-03    -51.5735E-03     58.7302E-03
             609     11.9669E-03     78.8991E-03    -24.1486E+06     2.03203E+06     31.2641E+06     194.454E+03    -51.8187E-03     103.562E-03    -51.7437E-03     56.3728E-03    -52.1645E-03     103.739E-03    -51.5553E-03     55.8970E-03
             610     12.8219E-03     78.9532E-03    -20.2113E+06     25.5708E+06     36.1191E+06     236.096E+03    -51.6228E-03     103.332E-03    -51.7093E-03     51.7694E-03    -51.9823E-03     103.606E-03    -51.5364E-03     51.2982E-03
             611     13.6770E-03     79.0020E-03    -16.3234E+06     68.8087E+06     46.5716E+06     235.798E+03    -51.3255E-03     102.998E-03    -51.6723E-03     45.8384E-03    -51.7275E-03     103.451E-03    -51.5155E-03     45.3797E-03
             612     14.5321E-03     79.0442E-03    -12.4172E+06     102.060E+06     55.4458E+06     83.8115E+03    -51.0669E-03     102.706E-03    -51.6394E-03     38.3799E-03    -51.4873E-03     103.284E-03    -51.4921E-03     37.9393E-03
             613     15.3873E-03     79.0781E-03    -8.50630E+06     110.276E+06     64.2146E+06         506.922    -50.9003E-03     102.543E-03    -51.6425E-03     28.8154E-03    -51.3018E-03     103.119E-03    -51.4690E-03     28.3881E-03
             614     16.2425E-03     79.1012E-03    -4.32943E+06     112.230E+06     77.3835E+06     61.7821E+03    -50.7857E-03     102.464E-03    -51.6782E-03     15.8589E-03    -51.1454E-03     102.982E-03    -51.4477E-03     15.5133E-03
             615     854.591E-06     79.3756E-03    -88.1202E+06    -193.972E+06    -85.8980E+06     150.668E+03    -51.7858E-03     103.514E-03    -51.7283E-03     8.72395E-03    -51.8220E-03     102.798E-03    -51.7487E-03     8.69362E-03
             616     1.70918E-03     79.3878E-03    -85.0168E+06    -187.976E+06    -77.0064E+06     227.612E+03    -51.7727E-03     103.551E-03    -51.7783E-03     15.8720E-03    -51.8179E-03     102.850E-03    -51.7675E-03     15.8144E-03
             617     2.56382E-03     79.4073E-03    -80.3703E+06    -179.148E+06    -64.5514E+06     334.537E+03    -51.8021E-03     103.610E-03    -51.8078E-03     23.1336E-03    -51.8602E-03     102.934E-03    -51.7543E-03     23.0454E-03
             618     3.41847E-03     79.4340E-03    -74.7174E+06    -168.771E+06    -50.6131E+06     399.705E+03    -51.8489E-03     103.687E-03    -51.8382E-03     30.0584E-03    -51.9217E-03     103.042E-03    -51.7382E-03     29.9360E-03
             619     4.27318E-03     79.4674E-03    -68.5931E+06    -158.214E+06    -37.4856E+06     399.207E+03    -51.9158E-03     103.778E-03    -51.8623E-03     36.4955E-03    -52.0027E-03     103.169E-03    -51.7208E-03     36.3349E-03
             620     5.12789E-03     79.5069E-03    -62.4637E+06    -144.837E+06    -26.7255E+06     280.109E+03    -51.9883E-03     103.859E-03    -51.8702E-03     42.3555E-03    -52.0931E-03     103.305E-03    -51.7032E-03     42.1520E-03
             621     5.98266E-03     79.5520E-03    -56.6557E+06    -129.069E+06    -18.1697E+06     112.857E+03    -52.0578E-03     103.922E-03    -51.8640E-03     47.5531E-03    -52.1853E-03     103.443E-03    -51.6855E-03     47.3036E-03
             622     6.83743E-03     79.6018E-03    -51.2507E+06    -113.446E+06    -10.5912E+06    -8.91423E+03    -52.1198E-03     103.974E-03    -51.8539E-03     52.0005E-03    -52.2734E-03     103.573E-03    -51.6680E-03     51.7040E-03
             623     7.69225E-03     79.6557E-03    -46.1895E+06    -96.7940E+06    -3.51568E+06    -72.3127E+03    -52.1607E-03     104.001E-03    -51.8404E-03     55.6192E-03    -52.3452E-03     103.688E-03    -51.6507E-03     55.2765E-03
             624     8.54708E-03     79.7127E-03    -41.4106E+06    -79.6276E+06     3.45917E+06    -93.1979E+03    -52.1740E-03     104.000E-03    -51.8262E-03     58.3032E-03    -52.3926E-03     103.779E-03    -51.6334E-03     57.9168E-03
             625     9.40196E-03     79.7719E-03    -36.8439E+06    -60.0114E+06     10.5230E+06    -61.3893E+03    -52.1466E-03     103.955E-03    -51.8088E-03     59.9490E-03    -52.4033E-03     103.838E-03    -51.6157E-03     59.5249E-03
             626     10.2569E-03     79.8322E-03    -32.4536E+06    -41.7616E+06     17.4970E+06    -10.7755E+03    -52.0850E-03     103.878E-03    -51.7927E-03     60.3275E-03    -52.3750E-03     103.854E-03    -51.5976E-03     59.8741E-03
             627     11.1118E-03     79.8921E-03    -28.2337E+06    -20.2181E+06     23.9715E+06     41.2089E+03    -51.9709E-03     103.740E-03    -51.7691E-03     59.2243E-03    -52.2921E-03     103.820E-03    -51.5790E-03     58.7531E-03
             628     11.9668E-03     79.9501E-03    -24.1555E+06     1.96911E+06     31.1604E+06     93.8781E+03    -51.8102E-03     103.558E-03    -51.7477E-03     56.3890E-03    -52.1558E-03     103.734E-03    -51.5597E-03     55.9121E-03
             629     12.8218E-03     80.0042E-03    -20.2032E+06     25.4863E+06     36.0146E+06     114.949E+03    -51.6194E-03     103.332E-03    -51.7125E-03     51.7731E-03    -51.9786E-03     103.605E-03    -51.5401E-03     51.3002E-03
             630     13.6769E-03     80.0530E-03    -16.2031E+06     68.8095E+06     46.5133E+06     121.240E+03    -51.3260E-03     103.001E-03    -51.6751E-03     45.8397E-03    -51.7273E-03     103.454E-03    -51.5188E-03     45.3794E-03
             631     14.5321E-03     80.0953E-03    -12.1493E+06     102.130E+06     55.4802E+06     162.933E+03    -51.0637E-03     102.706E-03    -51.6420E-03     38.3924E-03    -51.4830E-03     103.284E-03    -51.4950E-03     37.9529E-03
             632     15.3873E-03     80.1291E-03    -8.23666E+06     110.264E+06     64.1832E+06     165.471E+03    -50.8831E-03     102.527E-03    -51.6441E-03     28.8367E-03    -51.2832E-03     103.103E-03    -51.4711E-03     28.4118E-03
             633     16.2425E-03     80.1523E-03    -4.20937E+06     112.266E+06     77.3827E+06     66.4849E+03    -50.7614E-03     102.440E-03    -51.6788E-03     15.8697E-03    -51.1206E-03     102.959E-03    -51.4486E-03     15.5244E-03
             634     854.569E-06     80.4265E-03    -88.4376E+06    -194.299E+06    -86.1654E+06     98.1652E+03    -51.7962E-03     103.535E-03    -51.7386E-03     8.72342E-03    -51.8331E-03     102.818E-03    -51.7595E-03     8.69238E-03
             635     1.70917E-03     80.4387E-03    -85.2608E+06    -188.244E+06    -77.2375E+06     232.212E+03    -51.7832E-03     103.572E-03    -51.7889E-03     15.8702E-03    -51.8289E-03     102.871E-03    -51.7785E-03     15.8125E-03
             636     2.56378E-03     80.4583E-03    -80.6088E+06    -179.397E+06    -64.7556E+06     315.321E+03    -51.8127E-03     103.631E-03    -51.8185E-03     23.1308E-03    -51.8713E-03     102.955E-03    -51.7653E-03     23.0423E-03
             637     3.41844E-03     80.4849E-03    -74.9372E+06    -168.986E+06    -50.7805E+06     391.052E+03    -51.8596E-03     103.709E-03    -51.8490E-03     30.0550E-03    -51.9329E-03     103.063E-03    -51.7492E-03     29.9324E-03
             638     4.27312E-03     80.5183E-03    -68.7845E+06    -158.217E+06    -37.7230E+06     355.027E+03    -51.9257E-03     103.798E-03    -51.8724E-03     36.4930E-03    -52.0133E-03     103.189E-03    -51.7319E-03     36.3316E-03
             639     5.12784E-03     80.5579E-03    -62.6339E+06    -144.637E+06    -27.1017E+06     163.529E+03    -51.9968E-03     103.876E-03    -51.8791E-03     42.3554E-03    -52.1022E-03     103.324E-03    -51.7141E-03     42.1502E-03
             640     5.98258E-03     80.6029E-03    -56.7964E+06    -128.887E+06    -18.5553E+06    -57.8129E+03    -52.0643E-03     103.937E-03    -51.8725E-03     47.5569E-03    -52.1923E-03     103.459E-03    -51.6960E-03     47.3050E-03
             641     6.83737E-03     80.6528E-03    -51.3568E+06    -113.329E+06    -10.9292E+06    -211.216E+03    -52.1236E-03     103.986E-03    -51.8620E-03     52.0093E-03    -52.2774E-03     103.586E-03    -51.6778E-03     51.7101E-03
             642     7.69217E-03     80.7067E-03    -46.2763E+06    -96.7357E+06    -3.80884E+06    -300.829E+03    -52.1612E-03     104.009E-03    -51.8480E-03     55.6331E-03    -52.3457E-03     103.697E-03    -51.6597E-03     55.2874E-03
             643     8.54702E-03     80.7637E-03    -41.4894E+06    -79.6515E+06     3.19044E+06    -313.823E+03    -52.1711E-03     104.004E-03    -51.8329E-03     58.3205E-03    -52.3897E-03     103.783E-03    -51.6413E-03     57.9313E-03
             644     9.40189E-03     80.8229E-03    -36.9342E+06    -60.0873E+06     10.2657E+06    -276.445E+03    -52.1410E-03     103.955E-03    -51.8145E-03     59.9661E-03    -52.3977E-03     103.838E-03    -51.6225E-03     59.5392E-03
             645     10.2568E-03     80.8832E-03    -32.5501E+06    -41.8667E+06     17.2470E+06    -201.237E+03    -52.0787E-03     103.876E-03    -51.7974E-03     60.3394E-03    -52.3687E-03     103.852E-03    -51.6033E-03     59.8836E-03
             646     11.1118E-03     80.9431E-03    -28.3396E+06    -20.3337E+06     23.7161E+06    -105.684E+03    -51.9665E-03     103.739E-03    -51.7729E-03     59.2290E-03    -52.2878E-03     103.819E-03    -51.5838E-03     58.7559E-03
             647     11.9668E-03     81.0011E-03    -24.2602E+06     1.85802E+06     30.9002E+06    -14.9091E+03    -51.8083E-03     103.559E-03    -51.7509E-03     56.3914E-03    -52.1539E-03     103.736E-03    -51.5639E-03     55.9130E-03
             648     12.8218E-03     81.0553E-03    -20.3532E+06     25.4811E+06     35.7716E+06     11.1696E+03    -51.6159E-03     103.331E-03    -51.7153E-03     51.7821E-03    -51.9755E-03     103.605E-03    -51.5438E-03     51.3080E-03
             649     13.6769E-03     81.1040E-03    -16.5294E+06     68.7556E+06     46.2059E+06     5.51767E+03    -51.3151E-03     102.992E-03    -51.6772E-03     45.8521E-03    -51.7176E-03     103.446E-03    -51.5219E-03     45.3904E-03
             650     14.5320E-03     81.1463E-03    -12.5740E+06     101.960E+06     55.1019E+06     106.860E+03    -51.0482E-03     102.691E-03    -51.6432E-03     38.3950E-03    -51.4688E-03     103.269E-03    -51.4973E-03     37.9549E-03
             651     15.3872E-03     81.1801E-03    -8.45645E+06     110.302E+06     64.0452E+06     171.930E+03    -50.8731E-03     102.518E-03    -51.6451E-03     28.8394E-03    -51.2741E-03     103.095E-03    -51.4726E-03     28.4145E-03
             652     16.2425E-03     81.2033E-03    -4.19400E+06     112.389E+06     77.3732E+06     94.5045E+03    -50.7523E-03     102.432E-03    -51.6795E-03     15.8840E-03    -51.1116E-03     102.951E-03    -51.4495E-03     15.5391E-03
             653     854.570E-06     81.4775E-03    -88.7374E+06    -194.561E+06    -86.3979E+06     97.6524E+03    -51.8096E-03     103.562E-03    -51.7524E-03     8.72253E-03    -51.8473E-03     102.845E-03    -51.7736E-03     8.69145E-03
             654     1.70914E-03     81.4897E-03    -85.5526E+06    -188.533E+06    -77.4669E+06     213.417E+03    -51.7962E-03     103.599E-03    -51.8026E-03     15.8692E-03    -51.8426E-03     102.897E-03    -51.7925E-03     15.8112E-03
             655     2.56375E-03     81.5092E-03    -80.8551E+06    -179.633E+06    -64.9351E+06     300.043E+03    -51.8248E-03     103.657E-03    -51.8321E-03     23.1301E-03    -51.8840E-03     102.980E-03    -51.7790E-03     23.0413E-03
             656     3.41839E-03     81.5359E-03    -75.1444E+06    -169.176E+06    -50.9114E+06     353.602E+03    -51.8703E-03     103.733E-03    -51.8623E-03     30.0558E-03    -51.9442E-03     103.087E-03    -51.7626E-03     29.9327E-03
             657     4.27307E-03     81.5693E-03    -68.9506E+06    -158.125E+06    -37.9981E+06     266.825E+03    -51.9338E-03     103.818E-03    -51.8838E-03     36.4967E-03    -52.0220E-03     103.210E-03    -51.7445E-03     36.3341E-03
             658     5.12777E-03     81.6088E-03    -62.7914E+06    -144.301E+06    -27.5198E+06    -12.9763E+03    -52.0019E-03     103.890E-03    -51.8885E-03     42.3629E-03    -52.1080E-03     103.341E-03    -51.7258E-03     42.1554E-03
             659     5.98252E-03     81.6539E-03    -56.9495E+06    -128.629E+06    -18.9492E+06    -301.474E+03    -52.0666E-03     103.948E-03    -51.8810E-03     47.5678E-03    -52.1952E-03     103.472E-03    -51.7067E-03     47.3128E-03
             660     6.83730E-03     81.7038E-03    -51.4958E+06    -113.149E+06    -11.2869E+06    -482.456E+03    -52.1233E-03     103.993E-03    -51.8696E-03     52.0218E-03    -52.2776E-03     103.595E-03    -51.6873E-03     51.7192E-03
             661     7.69212E-03     81.7577E-03    -46.4019E+06    -96.6452E+06    -4.14849E+06    -570.367E+03    -52.1593E-03     104.014E-03    -51.8547E-03     55.6446E-03    -52.3441E-03     103.703E-03    -51.6680E-03     55.2955E-03
             662     8.54696E-03     81.8147E-03    -41.6057E+06    -79.6681E+06     2.84685E+06    -574.851E+03    -52.1684E-03     104.007E-03    -51.8386E-03     58.3286E-03    -52.3871E-03     103.787E-03    -51.6485E-03     57.9360E-03
             663     9.40184E-03     81.8739E-03    -37.0297E+06    -60.1567E+06     9.92218E+06    -512.999E+03    -52.1385E-03     103.958E-03    -51.8194E-03     59.9696E-03    -52.3951E-03     103.841E-03    -51.6288E-03     59.5397E-03
             664     10.2568E-03     81.9342E-03    -32.6364E+06    -41.9948E+06     16.9019E+06    -414.585E+03    -52.0771E-03     103.879E-03    -51.8016E-03     60.3400E-03    -52.3669E-03     103.855E-03    -51.6089E-03     59.8814E-03
             665     11.1117E-03     81.9941E-03    -28.4118E+06    -20.5107E+06     23.3798E+06    -268.847E+03    -51.9651E-03     103.742E-03    -51.7767E-03     59.2313E-03    -52.2860E-03     103.821E-03    -51.5888E-03     58.7560E-03
             666     11.9667E-03     82.0521E-03    -24.3498E+06     1.71358E+06     30.5860E+06    -122.726E+03    -51.8035E-03     103.558E-03    -51.7541E-03     56.3986E-03    -52.1489E-03     103.734E-03    -51.5684E-03     55.9188E-03
             667     12.8217E-03     82.1063E-03    -20.4995E+06     25.4118E+06     35.4778E+06    -4.76405E+03    -51.6051E-03     103.323E-03    -51.7178E-03     51.7883E-03    -51.9650E-03     103.597E-03    -51.5475E-03     51.3140E-03
             668     13.6768E-03     82.1550E-03    -16.7580E+06     68.6583E+06     45.8982E+06     113.082E+03    -51.3031E-03     102.982E-03    -51.6789E-03     45.8496E-03    -51.7061E-03     103.436E-03    -51.5246E-03     45.3894E-03
             669     14.5320E-03     82.1973E-03    -12.8796E+06     101.959E+06     54.7986E+06     61.8454E+03    -51.0400E-03     102.684E-03    -51.6441E-03     38.3901E-03    -51.4618E-03     103.263E-03    -51.4993E-03     37.9494E-03
             670     15.3872E-03     82.2311E-03    -8.75433E+06     110.343E+06     63.8292E+06    -78.4365E+03    -50.8650E-03     102.511E-03    -51.6459E-03     28.8390E-03    -51.2673E-03     103.089E-03    -51.4741E-03     28.4109E-03
             671     16.2425E-03     82.2543E-03    -4.37916E+06     112.369E+06     77.1968E+06    -50.4945E+03    -50.7442E-03     102.424E-03    -51.6800E-03     15.8852E-03    -51.1041E-03     102.944E-03    -51.4506E-03     15.5384E-03
             672     854.542E-06     82.5285E-03    -89.0394E+06    -194.818E+06    -86.7511E+06     107.807E+03    -51.8246E-03     103.592E-03    -51.7678E-03     8.72328E-03    -51.8629E-03     102.875E-03    -51.7900E-03     8.69231E-03
             673     1.70912E-03     82.5407E-03    -85.8200E+06    -188.792E+06    -77.6911E+06     183.787E+03    -51.8099E-03     103.628E-03    -51.8179E-03     15.8712E-03    -51.8570E-03     102.925E-03    -51.8082E-03     15.8129E-03
             674     2.56371E-03     82.5602E-03    -81.1009E+06    -179.841E+06    -65.0667E+06     272.546E+03    -51.8362E-03     103.683E-03    -51.8470E-03     23.1342E-03    -51.8962E-03     103.006E-03    -51.7939E-03     23.0450E-03
             675     3.41835E-03     82.5869E-03    -75.3373E+06    -169.308E+06    -50.9662E+06     283.767E+03    -51.8789E-03     103.755E-03    -51.8763E-03     30.0622E-03    -51.9535E-03     103.109E-03    -51.7764E-03     29.9381E-03
             676     4.27301E-03     82.6203E-03    -69.1062E+06    -157.903E+06    -38.2311E+06     125.507E+03    -51.9393E-03     103.834E-03    -51.8952E-03     36.5048E-03    -52.0283E-03     103.228E-03    -51.7571E-03     36.3404E-03
             677     5.12772E-03     82.6598E-03    -62.9374E+06    -143.823E+06    -27.9626E+06    -239.235E+03    -52.0046E-03     103.902E-03    -51.8971E-03     42.3722E-03    -52.1114E-03     103.356E-03    -51.7371E-03     42.1617E-03
             678     5.98246E-03     82.7049E-03    -57.1099E+06    -128.274E+06    -19.3852E+06    -586.652E+03    -52.0676E-03     103.956E-03    -51.8886E-03     47.5767E-03    -52.1969E-03     103.484E-03    -51.7167E-03     47.3180E-03
             679     6.83724E-03     82.7548E-03    -51.6698E+06    -112.909E+06    -11.7234E+06    -797.384E+03    -52.1236E-03     104.000E-03    -51.8763E-03     52.0288E-03    -52.2784E-03     103.604E-03    -51.6963E-03     51.7220E-03
             680     7.69205E-03     82.8087E-03    -46.5740E+06    -96.5318E+06    -4.58863E+06    -889.079E+03    -52.1595E-03     104.020E-03    -51.8606E-03     55.6486E-03    -52.3448E-03     103.711E-03    -51.6760E-03     55.2952E-03
             681     8.54690E-03     82.8657E-03    -41.7553E+06    -79.6512E+06     2.41727E+06    -892.856E+03    -52.1690E-03     104.013E-03    -51.8439E-03     58.3298E-03    -52.3879E-03     103.794E-03    -51.6558E-03     57.9330E-03
             682     9.40177E-03     82.9249E-03    -37.1437E+06    -60.2389E+06     9.49948E+06    -826.295E+03    -52.1388E-03     103.963E-03    -51.8242E-03     59.9698E-03    -52.3953E-03     103.846E-03    -51.6355E-03     59.5357E-03
             683     10.2567E-03     82.9852E-03    -32.7032E+06    -42.1499E+06     16.5016E+06    -681.721E+03    -52.0764E-03     103.882E-03    -51.8060E-03     60.3412E-03    -52.3657E-03     103.858E-03    -51.6150E-03     59.8790E-03
             684     11.1116E-03     83.0451E-03    -28.4383E+06    -20.7299E+06     23.0071E+06    -502.244E+03    -51.9615E-03     103.742E-03    -51.7806E-03     59.2329E-03    -52.2817E-03     103.821E-03    -51.5942E-03     58.7547E-03
             685     11.9667E-03     83.1031E-03    -24.3009E+06     1.47161E+06     30.2615E+06    -276.975E+03    -51.7961E-03     103.554E-03    -51.7574E-03     56.3977E-03    -52.1405E-03     103.729E-03    -51.5730E-03     55.9160E-03
             686     12.8217E-03     83.1573E-03    -20.3897E+06     25.1480E+06     35.1976E+06    -1.90114E+03    -51.5963E-03     103.317E-03    -51.7202E-03     51.7831E-03    -51.9548E-03     103.590E-03    -51.5511E-03     51.3089E-03
             687     13.6768E-03     83.2060E-03    -16.4937E+06     68.5884E+06     45.7616E+06     116.323E+03    -51.2957E-03     102.976E-03    -51.6807E-03     45.8431E-03    -51.6971E-03     103.430E-03    -51.5275E-03     45.3830E-03
             688     14.5320E-03     83.2483E-03    -12.4057E+06     102.200E+06     54.8296E+06    -12.9115E+03    -51.0357E-03     102.681E-03    -51.6455E-03     38.3865E-03    -51.4554E-03     103.261E-03    -51.5015E-03     37.9449E-03
             689     15.3872E-03     83.2821E-03    -8.38697E+06     110.433E+06     63.6947E+06    -162.980E+03    -50.8659E-03     102.512E-03    -51.6465E-03     28.8352E-03    -51.2663E-03     103.090E-03    -51.4760E-03     28.4061E-03
             690     16.2424E-03     83.3053E-03    -4.27766E+06     112.235E+06     76.9349E+06    -170.211E+03    -50.7471E-03     102.428E-03    -51.6805E-03     15.8777E-03    -51.1059E-03     102.947E-03    -51.4524E-03     15.5293E-03
             691     854.541E-06     83.5795E-03    -89.3991E+06    -195.014E+06    -87.1052E+06     56.9433E+03    -51.8385E-03     103.621E-03    -51.7823E-03     8.72641E-03    -51.8778E-03     102.903E-03    -51.8054E-03     8.69477E-03
             692     1.70908E-03     83.5917E-03    -86.1727E+06    -189.021E+06    -77.9669E+06     142.671E+03    -51.8221E-03     103.654E-03    -51.8322E-03     15.8759E-03    -51.8702E-03     102.951E-03    -51.8230E-03     15.8170E-03
             693     2.56368E-03     83.6112E-03    -81.3767E+06    -180.037E+06    -65.2115E+06     213.884E+03    -51.8460E-03     103.707E-03    -51.8607E-03     23.1406E-03    -51.9069E-03     103.029E-03    -51.8078E-03     23.0506E-03
             694     3.41829E-03     83.6379E-03    -75.5552E+06    -169.327E+06    -51.0498E+06     190.512E+03    -51.8862E-03     103.775E-03    -51.8890E-03     30.0695E-03    -51.9617E-03     103.129E-03    -51.7891E-03     29.9442E-03
             695     4.27297E-03     83.6713E-03    -69.2804E+06    -157.513E+06    -38.5236E+06    -72.4533E+03    -51.9442E-03     103.849E-03    -51.9050E-03     36.5116E-03    -52.0342E-03     103.246E-03    -51.7687E-03     36.3446E-03
             696     5.12766E-03     83.7108E-03    -63.1072E+06    -143.218E+06    -28.4554E+06    -513.801E+03    -52.0080E-03     103.913E-03    -51.9045E-03     42.3776E-03    -52.1159E-03     103.370E-03    -51.7476E-03     42.1635E-03
             697     5.98241E-03     83.7559E-03    -57.2900E+06    -127.811E+06    -19.8771E+06    -910.084E+03    -52.0706E-03     103.966E-03    -51.8953E-03     47.5803E-03    -52.2007E-03     103.497E-03    -51.7263E-03     47.3173E-03
             698     6.83718E-03     83.8058E-03    -51.8516E+06    -112.599E+06    -12.2137E+06    -1.15159E+06    -52.1265E-03     104.009E-03    -51.8825E-03     52.0302E-03    -52.2820E-03     103.616E-03    -51.7051E-03     51.7187E-03
             699     7.69199E-03     83.8597E-03    -46.7428E+06    -96.3588E+06    -5.07482E+06    -1.26903E+06    -52.1622E-03     104.029E-03    -51.8664E-03     55.6485E-03    -52.3479E-03     103.721E-03    -51.6842E-03     55.2901E-03
             700     8.54683E-03     83.9167E-03    -41.8981E+06    -79.5968E+06     1.94287E+06    -1.28549E+06    -52.1711E-03     104.021E-03    -51.8494E-03     58.3287E-03    -52.3901E-03     103.803E-03    -51.6635E-03     57.9268E-03
             701     9.40171E-03     83.9759E-03    -37.2548E+06    -60.2897E+06     9.04406E+06    -1.22091E+06    -52.1399E-03     103.969E-03    -51.8293E-03     59.9678E-03    -52.3962E-03     103.853E-03    -51.6427E-03     59.5285E-03
             702     10.2566E-03     84.0362E-03    -32.7592E+06    -42.3469E+06     16.0573E+06    -1.06576E+06    -52.0751E-03     103.886E-03    -51.8107E-03     60.3384E-03    -52.3638E-03     103.861E-03    -51.6215E-03     59.8712E-03
             703     11.1116E-03     84.0961E-03    -28.4249E+06    -20.9798E+06     22.6074E+06    -823.090E+03    -51.9574E-03     103.742E-03    -51.7847E-03     59.2280E-03    -52.2766E-03     103.820E-03    -51.6000E-03     58.7456E-03
             704     11.9666E-03     84.1541E-03    -24.2423E+06     1.14601E+06     29.8960E+06    -558.692E+03    -51.7902E-03     103.551E-03    -51.7609E-03     56.3900E-03    -52.1333E-03     103.725E-03    -51.5779E-03     55.9047E-03
             705     12.8216E-03     84.2083E-03    -20.1484E+06     24.7208E+06     34.8997E+06    -233.753E+03    -51.5906E-03     103.314E-03    -51.7232E-03     51.7740E-03    -51.9469E-03     103.585E-03    -51.5553E-03     51.2968E-03
             706     13.6767E-03     84.2570E-03    -16.0868E+06     68.6359E+06     45.6984E+06    -92.1416E+03    -51.2893E-03     102.972E-03    -51.6832E-03     45.8357E-03    -51.6886E-03     103.426E-03    -51.5309E-03     45.3729E-03
             707     14.5319E-03     84.2993E-03    -12.0531E+06     102.317E+06     54.8389E+06    -134.509E+03    -51.0312E-03     102.679E-03    -51.6476E-03     38.3792E-03    -51.4494E-03     103.258E-03    -51.5043E-03     37.9360E-03
             708     15.3872E-03     84.3331E-03    -8.06919E+06     110.427E+06     63.7217E+06    -85.2452E+03    -50.8670E-03     102.516E-03    -51.6486E-03     28.8293E-03    -51.2658E-03     103.093E-03    -51.4784E-03     28.4012E-03
             709     16.2424E-03     84.3563E-03    -4.01642E+06     112.215E+06     76.8931E+06    -80.7592E+03    -50.7309E-03     102.413E-03    -51.6818E-03     15.8801E-03    -51.0883E-03     102.931E-03    -51.4543E-03     15.5331E-03
             710     854.517E-06     84.6305E-03    -89.8607E+06    -195.120E+06    -87.4732E+06     35.8875E+03    -51.8495E-03     103.643E-03    -51.7938E-03     8.72879E-03    -51.8904E-03     102.926E-03    -51.8179E-03     8.69687E-03
             711     1.70907E-03     84.6427E-03    -86.5471E+06    -189.209E+06    -78.2311E+06     70.5480E+03    -51.8324E-03     103.676E-03    -51.8440E-03     15.8796E-03    -51.8817E-03     102.974E-03    -51.8353E-03     15.8197E-03
             712     2.56364E-03     84.6623E-03    -81.6947E+06    -180.202E+06    -65.3943E+06     141.172E+03    -51.8553E-03     103.728E-03    -51.8724E-03     23.1445E-03    -51.9172E-03     103.050E-03    -51.8196E-03     23.0535E-03
             713     3.41826E-03     84.6890E-03    -75.8206E+06    -169.195E+06    -51.3111E+06     54.7041E+03    -51.8939E-03     103.793E-03    -51.8991E-03     30.0731E-03    -51.9705E-03     103.149E-03    -51.8004E-03     29.9460E-03
             714     4.27291E-03     84.7223E-03    -69.5227E+06    -156.910E+06    -39.0023E+06    -337.194E+03    -51.9504E-03     103.863E-03    -51.9127E-03     36.5142E-03    -52.0417E-03     103.264E-03    -51.7794E-03     36.3436E-03
             715     5.12762E-03     84.7619E-03    -63.3296E+06    -142.506E+06    -28.9989E+06    -864.861E+03    -52.0136E-03     103.925E-03    -51.9112E-03     42.3786E-03    -52.1229E-03     103.387E-03    -51.7577E-03     42.1598E-03
             716     5.98234E-03     84.8069E-03    -57.4966E+06    -127.243E+06    -20.3983E+06    -1.28967E+06    -52.0760E-03     103.978E-03    -51.9018E-03     47.5796E-03    -52.2073E-03     103.512E-03    -51.7359E-03     47.3116E-03
             717     6.83712E-03     84.8568E-03    -52.0476E+06    -112.202E+06    -12.7327E+06    -1.56598E+06    -52.1315E-03     104.020E-03    -51.8888E-03     52.0281E-03    -52.2878E-03     103.631E-03    -51.7143E-03     51.7111E-03
             718     7.69192E-03     84.9107E-03    -46.9275E+06    -96.0989E+06    -5.58839E+06    -1.71363E+06    -52.1665E-03     104.039E-03    -51.8725E-03     55.6451E-03    -52.3528E-03     103.734E-03    -51.6931E-03     55.2808E-03
             719     8.54676E-03     84.9678E-03    -42.0574E+06    -79.4730E+06     1.43983E+06    -1.76384E+06    -52.1743E-03     104.030E-03    -51.8553E-03     58.3236E-03    -52.3935E-03     103.813E-03    -51.6719E-03     57.9153E-03
             720     9.40163E-03     85.0270E-03    -37.3739E+06    -60.3143E+06     8.55504E+06    -1.70087E+06    -52.1413E-03     103.976E-03    -51.8350E-03     59.9603E-03    -52.3975E-03     103.861E-03    -51.6505E-03     59.5147E-03
             721     10.2566E-03     85.0872E-03    -32.8472E+06    -42.4950E+06     15.5851E+06    -1.55230E+06    -52.0741E-03     103.890E-03    -51.8160E-03     60.3287E-03    -52.3624E-03     103.866E-03    -51.6288E-03     59.8551E-03
             722     11.1115E-03     85.1471E-03    -28.4468E+06    -21.3117E+06     22.1396E+06    -1.29233E+06    -51.9541E-03     103.743E-03    -51.7894E-03     59.2166E-03    -52.2722E-03     103.821E-03    -51.6066E-03     58.7280E-03
             723     11.9665E-03     85.2051E-03    -24.1839E+06     782.894E+03     29.4900E+06    -928.502E+03    -51.7860E-03     103.551E-03    -51.7650E-03     56.3770E-03    -52.1276E-03     103.724E-03    -51.5837E-03     55.8869E-03
             724     12.8216E-03     85.2593E-03    -20.1752E+06     24.2856E+06     34.4897E+06    -588.269E+03    -51.5860E-03     103.313E-03    -51.7268E-03     51.7616E-03    -51.9412E-03     103.583E-03    -51.5603E-03     51.2798E-03
             725     13.6767E-03     85.3080E-03    -16.2683E+06     68.5254E+06     45.3644E+06    -306.373E+03    -51.2823E-03     102.969E-03    -51.6862E-03     45.8233E-03    -51.6820E-03     103.422E-03    -51.5352E-03     45.3577E-03
             726     14.5319E-03     85.3503E-03    -12.2735E+06     102.335E+06     54.3865E+06    -219.331E+03    -51.0156E-03     102.665E-03    -51.6491E-03     38.3681E-03    -51.4343E-03     103.245E-03    -51.5078E-03     37.9239E-03
             727     15.3871E-03     85.3842E-03    -8.21974E+06     110.254E+06     62.9924E+06    -159.780E+03    -50.8289E-03     102.476E-03    -51.6472E-03     28.8609E-03    -51.2271E-03     103.054E-03    -51.4802E-03     28.4322E-03
             728     16.2424E-03     85.4073E-03    -4.10425E+06     112.176E+06     76.5168E+06     20.5712E+03    -50.6920E-03     102.372E-03    -51.6798E-03     15.9226E-03    -51.0493E-03     102.891E-03    -51.4539E-03     15.5773E-03
             729     854.522E-06     85.6816E-03    -90.3157E+06    -195.196E+06    -87.9308E+06     19.3456E+03    -51.8584E-03     103.661E-03    -51.8028E-03     8.72876E-03    -51.9009E-03     102.945E-03    -51.8285E-03     8.69661E-03
             730     1.70905E-03     85.6938E-03    -87.0192E+06    -189.302E+06    -78.6068E+06     34.6863E+03    -51.8417E-03     103.695E-03    -51.8535E-03     15.8791E-03    -51.8927E-03     102.993E-03    -51.8459E-03     15.8188E-03
             731     2.56362E-03     85.7133E-03    -82.1331E+06    -180.296E+06    -65.6821E+06     35.9643E+03    -51.8648E-03     103.747E-03    -51.8825E-03     23.1437E-03    -51.9284E-03     103.070E-03    -51.8304E-03     23.0513E-03
             732     3.41822E-03     85.7400E-03    -76.1739E+06    -168.843E+06    -51.7335E+06    -164.547E+03    -51.9025E-03     103.810E-03    -51.9078E-03     30.0717E-03    -51.9808E-03     103.169E-03    -51.8112E-03     29.9417E-03
             733     4.27288E-03     85.7734E-03    -69.8150E+06    -156.066E+06    -39.6061E+06    -704.394E+03    -51.9579E-03     103.877E-03    -51.9195E-03     36.5124E-03    -52.0511E-03     103.284E-03    -51.7900E-03     36.3369E-03
             734     5.12756E-03     85.8129E-03    -63.5951E+06    -141.676E+06    -29.5817E+06    -1.30864E+06    -52.0210E-03     103.939E-03    -51.9179E-03     42.3757E-03    -52.1319E-03     103.407E-03    -51.7681E-03     42.1511E-03
             735     5.98229E-03     85.8580E-03    -57.7354E+06    -126.585E+06    -20.9481E+06    -1.75327E+06    -52.0834E-03     103.992E-03    -51.9087E-03     47.5750E-03    -52.2160E-03     103.531E-03    -51.7461E-03     47.3009E-03
             736     6.83705E-03     85.9078E-03    -52.2569E+06    -111.688E+06    -13.2631E+06    -2.05346E+06    -52.1383E-03     104.034E-03    -51.8958E-03     52.0216E-03    -52.2957E-03     103.648E-03    -51.7244E-03     51.6982E-03
             737     7.69185E-03     85.9618E-03    -47.1009E+06    -95.7474E+06    -6.10814E+06    -2.23790E+06    -52.1724E-03     104.052E-03    -51.8794E-03     55.6366E-03    -52.3593E-03     103.749E-03    -51.7028E-03     55.2654E-03
             738     8.54668E-03     86.0188E-03    -42.2043E+06    -79.2484E+06     928.144E+03    -2.31467E+06    -52.1784E-03     104.040E-03    -51.8620E-03     58.3134E-03    -52.3980E-03     103.826E-03    -51.6813E-03     57.8979E-03
             739     9.40156E-03     86.0780E-03    -37.5056E+06    -60.3125E+06     8.02967E+06    -2.26289E+06    -52.1432E-03     103.985E-03    -51.8414E-03     59.9475E-03    -52.3993E-03     103.870E-03    -51.6594E-03     59.4945E-03
             740     10.2565E-03     86.1382E-03    -32.9599E+06    -42.5742E+06     15.0745E+06    -2.10387E+06    -52.0732E-03     103.895E-03    -51.8219E-03     60.3143E-03    -52.3612E-03     103.871E-03    -51.6370E-03     59.8336E-03
             741     11.1114E-03     86.1981E-03    -28.5715E+06    -21.6329E+06     21.5996E+06    -1.85181E+06    -51.9513E-03     103.746E-03    -51.7948E-03     59.2011E-03    -52.2688E-03     103.823E-03    -51.6140E-03     58.7053E-03
             742     11.9664E-03     86.2561E-03    -24.2584E+06     327.503E+03     28.9394E+06    -1.46329E+06    -51.7809E-03     103.551E-03    -51.7697E-03     56.3660E-03    -52.1214E-03     103.722E-03    -51.5903E-03     55.8690E-03
             743     12.8215E-03     86.3103E-03    -20.1593E+06     23.6761E+06     33.9818E+06    -871.937E+03    -51.5783E-03     103.309E-03    -51.7308E-03     51.7526E-03    -51.9317E-03     103.576E-03    -51.5660E-03     51.2672E-03
             744     13.6766E-03     86.3590E-03    -16.3110E+06     68.1948E+06     44.7813E+06    -374.534E+03    -51.2657E-03     102.954E-03    -51.6884E-03     45.8315E-03    -51.6642E-03     103.407E-03    -51.5397E-03     45.3654E-03
             745     14.5318E-03     86.4013E-03    -12.4495E+06     102.458E+06     53.7212E+06    -300.377E+03    -50.9827E-03     102.631E-03    -51.6486E-03     38.3792E-03    -51.4014E-03     103.214E-03    -51.5105E-03     37.9342E-03
             746     15.3871E-03     86.4350E-03    -8.56431E+06     109.981E+06     62.4239E+06    -225.758E+03    -50.7884E-03     102.434E-03    -51.6459E-03     28.8434E-03    -51.1872E-03     103.012E-03    -51.4808E-03     28.4140E-03
             747     16.2425E-03     86.4582E-03    -4.37995E+06     111.991E+06     76.3710E+06    -34.2566E+03    -50.6715E-03     102.350E-03    -51.6787E-03     15.8996E-03    -51.0296E-03     102.869E-03    -51.4529E-03     15.5537E-03
             748     854.501E-06     86.7327E-03    -90.9745E+06    -195.261E+06    -88.5329E+06     10.1151E+03    -51.8671E-03     103.679E-03    -51.8116E-03     8.72662E-03    -51.9119E-03     102.964E-03    -51.8392E-03     8.69432E-03
             749     1.70904E-03     86.7449E-03    -87.6073E+06    -189.290E+06    -79.0472E+06         180.753    -51.8512E-03     103.714E-03    -51.8632E-03     15.8757E-03    -51.9045E-03     103.014E-03    -51.8570E-03     15.8148E-03
             750     2.56358E-03     86.7644E-03    -82.5584E+06    -180.194E+06    -65.8873E+06    -134.547E+03    -51.8751E-03     103.769E-03    -51.8934E-03     23.1393E-03    -51.9407E-03     103.092E-03    -51.8418E-03     23.0447E-03
             751     3.41819E-03     86.7911E-03    -76.4884E+06    -168.219E+06    -52.1004E+06    -497.011E+03    -51.9122E-03     103.829E-03    -51.9172E-03     30.0664E-03    -51.9925E-03     103.192E-03    -51.8228E-03     29.9319E-03
             752     4.27282E-03     86.8245E-03    -70.0970E+06    -154.971E+06    -40.2335E+06    -1.16987E+06    -51.9666E-03     103.893E-03    -51.9268E-03     36.5066E-03    -52.0618E-03     103.306E-03    -51.8016E-03     36.3250E-03
             753     5.12751E-03     86.8640E-03    -63.8796E+06    -140.730E+06    -30.1947E+06    -1.83259E+06    -52.0297E-03     103.955E-03    -51.9253E-03     42.3688E-03    -52.1426E-03     103.429E-03    -51.7796E-03     42.1372E-03
             754     5.98222E-03     86.9090E-03    -58.0117E+06    -125.809E+06    -21.5280E+06    -2.30288E+06    -52.0922E-03     104.009E-03    -51.9165E-03     47.5662E-03    -52.2265E-03     103.553E-03    -51.7576E-03     47.2847E-03
             755     6.83698E-03     86.9589E-03    -52.4990E+06    -111.059E+06    -13.8261E+06    -2.63906E+06    -52.1464E-03     104.050E-03    -51.9037E-03     52.0111E-03    -52.3052E-03     103.668E-03    -51.7357E-03     51.6799E-03
             756     7.69176E-03     87.0128E-03    -47.2979E+06    -95.2673E+06    -6.66008E+06    -2.86447E+06    -52.1789E-03     104.066E-03    -51.8873E-03     55.6246E-03    -52.3667E-03     103.767E-03    -51.7139E-03     55.2451E-03
             757     8.54659E-03     87.0698E-03    -42.3596E+06    -78.9745E+06     369.503E+03    -2.94497E+06    -52.1825E-03     104.052E-03    -51.8697E-03     58.2996E-03    -52.4025E-03     103.840E-03    -51.6919E-03     57.8757E-03
             758     9.40145E-03     87.1290E-03    -37.6244E+06    -60.2078E+06     7.47572E+06    -2.90180E+06    -52.1443E-03     103.993E-03    -51.8486E-03     59.9322E-03    -52.4003E-03     103.880E-03    -51.6694E-03     59.4708E-03
             759     10.2564E-03     87.1893E-03    -33.0500E+06    -42.6727E+06     14.5046E+06    -2.72570E+06    -52.0709E-03     103.899E-03    -51.8285E-03     60.2996E-03    -52.3584E-03     103.876E-03    -51.6461E-03     59.8108E-03
             760     11.1113E-03     87.2491E-03    -28.6541E+06    -21.8860E+06     21.0464E+06    -2.41790E+06    -51.9459E-03     103.747E-03    -51.8007E-03     59.1901E-03    -52.2626E-03     103.823E-03    -51.6222E-03     58.6870E-03
             761     11.9664E-03     87.3071E-03    -24.4830E+06    -202.383E+03     28.3017E+06    -1.96830E+06    -51.7709E-03     103.546E-03    -51.7746E-03     56.3608E-03    -52.1109E-03     103.716E-03    -51.5973E-03     55.8573E-03
             762     12.8214E-03     87.3613E-03    -20.5339E+06     22.7189E+06     33.2616E+06    -1.22082E+06    -51.5631E-03     103.298E-03    -51.7348E-03     51.7524E-03    -51.9159E-03     103.562E-03    -51.5717E-03     51.2628E-03
             763     13.6765E-03     87.4100E-03    -16.5818E+06     67.7622E+06     44.4118E+06    -550.143E+03    -51.2470E-03     102.939E-03    -51.6918E-03     45.8186E-03    -51.6456E-03     103.390E-03    -51.5440E-03     45.3503E-03
             764     14.5318E-03     87.4522E-03    -12.6170E+06     102.504E+06     53.7457E+06    -300.054E+03    -50.9716E-03     102.624E-03    -51.6521E-03     38.3088E-03    -51.3913E-03     103.207E-03    -51.5137E-03     37.8636E-03
             765     15.3871E-03     87.4860E-03    -8.59000E+06     109.827E+06     62.6888E+06    -282.382E+03    -50.7892E-03     102.439E-03    -51.6503E-03     28.7372E-03    -51.1882E-03     103.016E-03    -51.4836E-03     28.3066E-03
             766     16.2423E-03     87.5091E-03    -4.32850E+06     111.818E+06     76.4521E+06    -243.287E+03    -50.6499E-03     102.331E-03    -51.6815E-03     15.8379E-03    -51.0077E-03     102.849E-03    -51.4551E-03     15.4891E-03
             767     854.503E-06     87.7838E-03    -91.5067E+06    -195.213E+06    -89.0438E+06    -56.7929E+03    -51.8791E-03     103.703E-03    -51.8237E-03     8.72329E-03    -51.9258E-03     102.990E-03    -51.8531E-03     8.69010E-03
             768     1.70900E-03     87.7960E-03    -87.9604E+06    -189.187E+06    -79.3596E+06    -141.003E+03    -51.8632E-03     103.739E-03    -51.8759E-03     15.8711E-03    -51.9180E-03     103.040E-03    -51.8708E-03     15.8084E-03
             769     2.56356E-03     87.8155E-03    -82.8712E+06    -179.819E+06    -66.1456E+06    -347.618E+03    -51.8866E-03     103.792E-03    -51.9057E-03     23.1331E-03    -51.9539E-03     103.119E-03    -51.8555E-03     23.0357E-03
             770     3.41813E-03     87.8422E-03    -76.7813E+06    -167.245E+06    -52.5377E+06    -912.638E+03    -51.9228E-03     103.850E-03    -51.9275E-03     30.0590E-03    -52.0053E-03     103.219E-03    -51.8364E-03     29.9190E-03
             771     4.27277E-03     87.8756E-03    -70.3860E+06    -153.666E+06    -40.8714E+06    -1.71178E+06    -51.9765E-03     103.912E-03    -51.9355E-03     36.4975E-03    -52.0742E-03     103.333E-03    -51.8150E-03     36.3088E-03
             772     5.12743E-03     87.9151E-03    -64.1830E+06    -139.638E+06    -30.8282E+06    -2.41519E+06    -52.0398E-03     103.974E-03    -51.9343E-03     42.3582E-03    -52.1548E-03     103.455E-03    -51.7929E-03     42.1190E-03
             773     5.98215E-03     87.9601E-03    -58.3044E+06    -124.875E+06    -22.1459E+06    -2.93916E+06    -52.1017E-03     104.027E-03    -51.9256E-03     47.5542E-03    -52.2379E-03     103.577E-03    -51.7707E-03     47.2644E-03
             774     6.83688E-03     88.0100E-03    -52.7568E+06    -110.286E+06    -14.4218E+06    -3.33057E+06    -52.1547E-03     104.068E-03    -51.9129E-03     51.9975E-03    -52.3150E-03     103.691E-03    -51.7486E-03     51.6573E-03
             775     7.69167E-03     88.0639E-03    -47.5219E+06    -94.6694E+06    -7.24210E+06    -3.58445E+06    -52.1851E-03     104.081E-03    -51.8963E-03     55.6089E-03    -52.3741E-03     103.787E-03    -51.7264E-03     55.2200E-03
             776     8.54648E-03     88.1209E-03    -42.5493E+06    -78.6349E+06    -210.786E+03    -3.67714E+06    -52.1860E-03     104.064E-03    -51.8785E-03     58.2806E-03    -52.4066E-03     103.855E-03    -51.7038E-03     57.8472E-03
             777     9.40136E-03     88.1801E-03    -37.7764E+06    -60.0161E+06     6.92017E+06    -3.63142E+06    -52.1443E-03     104.001E-03    -51.8569E-03     59.9105E-03    -52.4006E-03     103.890E-03    -51.6805E-03     59.4396E-03
             778     10.2563E-03     88.2403E-03    -33.1883E+06    -42.7975E+06     13.9446E+06    -3.41092E+06    -52.0687E-03     103.905E-03    -51.8362E-03     60.2724E-03    -52.3558E-03     103.882E-03    -51.6563E-03     59.7747E-03
             779     11.1112E-03     88.3001E-03    -28.7878E+06    -22.1534E+06     20.5018E+06    -3.03415E+06    -51.9412E-03     103.749E-03    -51.8078E-03     59.1571E-03    -52.2574E-03     103.825E-03    -51.6314E-03     58.6459E-03
             780     11.9663E-03     88.3581E-03    -24.5434E+06    -889.519E+03     27.7308E+06    -2.42078E+06    -51.7665E-03     103.548E-03    -51.7811E-03     56.3106E-03    -52.1049E-03     103.715E-03    -51.6056E-03     55.8011E-03
             781     12.8214E-03     88.4122E-03    -20.4702E+06     21.7500E+06     32.6162E+06    -1.63807E+06    -51.5594E-03     103.300E-03    -51.7403E-03     51.6832E-03    -51.9095E-03     103.560E-03    -51.5791E-03     51.1879E-03
             782     13.6765E-03     88.4609E-03    -16.4343E+06     67.0629E+06     43.9428E+06    -882.899E+03    -51.2420E-03     102.939E-03    -51.6969E-03     45.7435E-03    -51.6381E-03     103.387E-03    -51.5506E-03     45.2707E-03
             783     14.5317E-03     88.5032E-03    -12.3178E+06     102.332E+06     53.6702E+06    -414.351E+03    -50.9679E-03     102.625E-03    -51.6575E-03     38.2569E-03    -51.3857E-03     103.207E-03    -51.5197E-03     37.8102E-03
             784     15.3869E-03     88.5369E-03    -8.26979E+06     109.984E+06     62.5667E+06    -424.768E+03    -50.7834E-03     102.438E-03    -51.6543E-03     28.7125E-03    -51.1809E-03     103.015E-03    -51.4890E-03     28.2802E-03
             785     16.2423E-03     88.5600E-03    -4.13819E+06     111.543E+06     76.0364E+06    -364.317E+03    -50.6353E-03     102.319E-03    -51.6840E-03     15.8108E-03    -50.9910E-03     102.836E-03    -51.4595E-03     15.4605E-03
             786     854.473E-06     88.8349E-03    -91.7006E+06    -194.907E+06    -89.3449E+06    -224.311E+03    -51.8953E-03     103.735E-03    -51.8399E-03     8.72120E-03    -51.9430E-03     103.025E-03    -51.8711E-03     8.68580E-03
             787     1.70898E-03     88.8471E-03    -88.2955E+06    -189.023E+06    -79.7447E+06    -297.601E+03    -51.8780E-03     103.769E-03    -51.8915E-03     15.8666E-03    -51.9341E-03     103.072E-03    -51.8881E-03     15.8018E-03
             788     2.56351E-03     88.8667E-03    -83.2185E+06    -179.110E+06    -66.6708E+06    -612.255E+03    -51.8995E-03     103.819E-03    -51.9193E-03     23.1264E-03    -51.9689E-03     103.150E-03    -51.8723E-03     23.0254E-03
             789     3.41809E-03     88.8933E-03    -77.1049E+06    -165.819E+06    -53.2382E+06    -1.43376E+06    -51.9342E-03     103.873E-03    -51.9387E-03     30.0503E-03    -52.0194E-03     103.250E-03    -51.8526E-03     29.9035E-03
             790     4.27270E-03     88.9267E-03    -70.6990E+06    -152.224E+06    -41.5292E+06    -2.33511E+06    -51.9881E-03     103.935E-03    -51.9465E-03     36.4863E-03    -52.0885E-03     103.364E-03    -51.8309E-03     36.2894E-03
             791     5.12736E-03     88.9662E-03    -64.4859E+06    -138.343E+06    -31.4441E+06    -3.06370E+06    -52.0511E-03     103.997E-03    -51.9455E-03     42.3445E-03    -52.1687E-03     103.485E-03    -51.8086E-03     42.0967E-03
             792     5.98205E-03     89.0113E-03    -58.5938E+06    -123.750E+06    -22.7400E+06    -3.66055E+06    -52.1122E-03     104.049E-03    -51.9368E-03     47.5374E-03    -52.2507E-03     103.606E-03    -51.7861E-03     47.2381E-03
             793     6.83679E-03     89.0611E-03    -53.0301E+06    -109.348E+06    -14.9869E+06    -4.10450E+06    -52.1641E-03     104.088E-03    -51.9242E-03     51.9758E-03    -52.3264E-03     103.718E-03    -51.7637E-03     51.6253E-03
             794     7.69155E-03     89.1150E-03    -47.7816E+06    -93.9684E+06    -7.80093E+06    -4.37856E+06    -52.1930E-03     104.101E-03    -51.9076E-03     55.5799E-03    -52.3835E-03     103.811E-03    -51.7411E-03     55.1805E-03
             795     8.54638E-03     89.1720E-03    -42.7915E+06    -78.1677E+06    -773.227E+03    -4.49425E+06    -52.1923E-03     104.082E-03    -51.8896E-03     58.2420E-03    -52.4139E-03     103.876E-03    -51.7180E-03     57.7978E-03
             796     9.40123E-03     89.2311E-03    -38.0128E+06    -59.8077E+06     6.31521E+06    -4.42858E+06    -52.1495E-03     104.017E-03    -51.8676E-03     59.8597E-03    -52.4064E-03     103.908E-03    -51.6942E-03     59.3783E-03
             797     10.2562E-03     89.2913E-03    -33.3850E+06    -42.8667E+06     13.2964E+06    -4.19088E+06    -52.0740E-03     103.921E-03    -51.8466E-03     60.2082E-03    -52.3610E-03     103.898E-03    -51.6695E-03     59.7000E-03
             798     11.1111E-03     89.3511E-03    -28.8967E+06    -22.5017E+06     19.7894E+06    -3.76162E+06    -51.9465E-03     103.764E-03    -51.8176E-03     59.0802E-03    -52.2617E-03     103.839E-03    -51.6441E-03     58.5593E-03
             799     11.9661E-03     89.4091E-03    -24.4301E+06    -1.54532E+06     27.0299E+06    -3.20409E+06    -51.7708E-03     103.561E-03    -51.7906E-03     56.2286E-03    -52.1067E-03     103.727E-03    -51.6178E-03     55.7086E-03
             800     12.8212E-03     89.4632E-03    -19.8915E+06     20.8816E+06     32.0093E+06    -2.52461E+06    -51.5577E-03     103.307E-03    -51.7492E-03     51.6130E-03    -51.9027E-03     103.563E-03    -51.5906E-03     51.1061E-03
             801     13.6763E-03     89.5119E-03    -15.4359E+06     65.8259E+06     43.3476E+06    -1.46298E+06    -51.2212E-03     102.925E-03    -51.7041E-03     45.7012E-03    -51.6096E-03     103.367E-03    -51.5604E-03     45.2211E-03
             802     14.5316E-03     89.5541E-03    -11.3869E+06     101.841E+06     53.3331E+06    -482.450E+03    -50.9328E-03     102.595E-03    -51.6624E-03     38.2587E-03    -51.3446E-03     103.173E-03    -51.5269E-03     37.8117E-03
             803     15.3870E-03     89.5879E-03    -7.74281E+06     110.191E+06     62.3839E+06    -218.296E+03    -50.7640E-03     102.421E-03    -51.6574E-03     28.7075E-03    -51.1588E-03     102.999E-03    -51.4940E-03     28.2782E-03
             804     16.2422E-03     89.6109E-03    -4.00677E+06     111.267E+06     75.7032E+06    -216.929E+03    -50.6279E-03     102.314E-03    -51.6865E-03     15.7940E-03    -50.9821E-03     102.830E-03    -51.4635E-03     15.4457E-03
             805     854.469E-06     89.8861E-03    -92.3166E+06    -194.357E+06    -89.7273E+06    -332.752E+03    -51.9126E-03     103.770E-03    -51.8577E-03     8.71957E-03    -51.9636E-03     103.064E-03    -51.8907E-03     8.68274E-03
             806     1.70894E-03     89.8983E-03    -88.6600E+06    -188.665E+06    -79.8121E+06    -489.186E+03    -51.8967E-03     103.808E-03    -51.9115E-03     15.8619E-03    -51.9551E-03     103.114E-03    -51.9084E-03     15.7946E-03
             807     2.56346E-03     89.9178E-03    -83.3665E+06    -177.959E+06    -67.0006E+06    -1.04643E+06    -51.9159E-03     103.852E-03    -51.9364E-03     23.1188E-03    -51.9872E-03     103.190E-03    -51.8925E-03     23.0121E-03
             808     3.41801E-03     89.9445E-03    -77.2516E+06    -164.016E+06    -53.9114E+06    -2.03114E+06    -51.9483E-03     103.901E-03    -51.9525E-03     30.0395E-03    -52.0359E-03     103.288E-03    -51.8722E-03     29.8849E-03
             809     4.27263E-03     89.9779E-03    -70.9437E+06    -150.613E+06    -42.1279E+06    -2.99447E+06    -52.0026E-03     103.963E-03    -51.9606E-03     36.4709E-03    -52.1057E-03     103.402E-03    -51.8500E-03     36.2653E-03
             810     5.12726E-03     90.0174E-03    -64.7769E+06    -136.838E+06    -31.9792E+06    -3.77131E+06    -52.0660E-03     104.026E-03    -51.9599E-03     42.3226E-03    -52.1864E-03     103.523E-03    -51.8275E-03     42.0655E-03
             811     5.98195E-03     90.0624E-03    -58.9032E+06    -122.416E+06    -23.2655E+06    -4.42172E+06    -52.1271E-03     104.079E-03    -51.9516E-03     47.5072E-03    -52.2683E-03     103.644E-03    -51.8050E-03     47.1978E-03
             812     6.83665E-03     90.1122E-03    -53.3649E+06    -108.240E+06    -15.5512E+06    -4.91906E+06    -52.1787E-03     104.118E-03    -51.9391E-03     51.9349E-03    -52.3434E-03     103.754E-03    -51.7825E-03     51.5737E-03
             813     7.69143E-03     90.1661E-03    -48.1103E+06    -93.1215E+06    -8.42138E+06    -5.24374E+06    -52.2073E-03     104.130E-03    -51.9225E-03     55.5262E-03    -52.3998E-03     103.845E-03    -51.7598E-03     55.1153E-03
             814     8.54621E-03     90.2231E-03    -43.0878E+06    -77.5708E+06    -1.45424E+06    -5.39203E+06    -52.2061E-03     104.111E-03    -51.9044E-03     58.1756E-03    -52.4291E-03     103.909E-03    -51.7367E-03     57.7194E-03
             815     9.40107E-03     90.2822E-03    -38.2200E+06    -59.5360E+06     5.57522E+06    -5.35140E+06    -52.1623E-03     104.045E-03    -51.8823E-03     59.7839E-03    -52.4196E-03     103.939E-03    -51.7127E-03     59.2901E-03
             816     10.2560E-03     90.3424E-03    -33.4858E+06    -42.8562E+06     12.5308E+06    -5.11777E+06    -52.0832E-03     103.944E-03    -51.8610E-03     60.1315E-03    -52.3697E-03     103.923E-03    -51.6877E-03     59.6110E-03
             817     11.1109E-03     90.4022E-03    -28.8758E+06    -22.8412E+06     19.0134E+06    -4.69966E+06    -51.9489E-03     103.780E-03    -51.8315E-03     59.0134E-03    -52.2623E-03     103.855E-03    -51.6614E-03     58.4801E-03
             818     11.9659E-03     90.4601E-03    -24.4440E+06    -2.02105E+06     26.2793E+06    -4.14266E+06    -51.7604E-03     103.564E-03    -51.8034E-03     56.1826E-03    -52.0945E-03     103.728E-03    -51.6336E-03     55.6506E-03
             819     12.8210E-03     90.5142E-03    -20.2665E+06     20.2628E+06     31.2354E+06    -3.59862E+06    -51.5327E-03     103.293E-03    -51.7604E-03     51.5811E-03    -51.8775E-03     103.547E-03    -51.6042E-03     51.0605E-03
             820     13.6762E-03     90.5628E-03    -15.9376E+06     64.0726E+06     42.4203E+06    -2.51487E+06    -51.1944E-03     102.908E-03    -51.7139E-03     45.6504E-03    -51.5814E-03     103.343E-03    -51.5716E-03     45.1569E-03
             821     14.5315E-03     90.6050E-03    -11.4319E+06     100.381E+06     52.4626E+06    -826.530E+03    -50.8982E-03     102.567E-03    -51.6689E-03     38.1978E-03    -51.3068E-03     103.139E-03    -51.5356E-03     37.7466E-03
             822     15.3868E-03     90.6388E-03    -7.40229E+06     110.112E+06     62.0988E+06     147.676E+03    -50.7122E-03     102.374E-03    -51.6613E-03     28.6656E-03    -51.1047E-03     102.950E-03    -51.4997E-03     28.2415E-03
             823     16.2422E-03     90.6618E-03    -3.69443E+06     111.303E+06     75.6015E+06     187.859E+03    -50.5824E-03     102.271E-03    -51.6882E-03     15.7765E-03    -50.9350E-03     102.786E-03    -51.4662E-03     15.4339E-03
             824     854.440E-06     90.9373E-03    -92.6124E+06    -193.585E+06    -89.8807E+06    -407.603E+03    -51.9349E-03     103.815E-03    -51.8805E-03     8.71509E-03    -51.9884E-03     103.114E-03    -51.9149E-03     8.67725E-03
             825     1.70891E-03     90.9495E-03    -88.7257E+06    -187.834E+06    -79.7504E+06    -848.202E+03    -51.9193E-03     103.855E-03    -51.9352E-03     15.8553E-03    -51.9794E-03     103.164E-03    -51.9329E-03     15.7832E-03
             826     2.56339E-03     90.9690E-03    -83.3916E+06    -176.395E+06    -67.2592E+06    -1.59548E+06    -51.9364E-03     103.893E-03    -51.9571E-03     23.1084E-03    -52.0097E-03     103.240E-03    -51.9167E-03     22.9945E-03
             827     3.41794E-03     90.9957E-03    -77.3872E+06    -161.987E+06    -54.4493E+06    -2.61342E+06    -51.9679E-03     103.939E-03    -51.9709E-03     30.0227E-03    -52.0584E-03     103.337E-03    -51.8960E-03     29.8604E-03
             828     4.27252E-03     91.0291E-03    -71.1987E+06    -148.757E+06    -42.6454E+06    -3.62343E+06    -52.0233E-03     104.003E-03    -51.9795E-03     36.4456E-03    -52.1296E-03     103.452E-03    -51.8738E-03     36.2316E-03
             829     5.12715E-03     91.0686E-03    -65.1043E+06    -135.111E+06    -32.4971E+06    -4.48329E+06    -52.0879E-03     104.067E-03    -51.9794E-03     42.2866E-03    -52.2118E-03     103.575E-03    -51.8516E-03     42.0200E-03
             830     5.98179E-03     91.1136E-03    -59.2580E+06    -120.870E+06    -23.8227E+06    -5.20687E+06    -52.1498E-03     104.121E-03    -51.9715E-03     47.4592E-03    -52.2942E-03     103.695E-03    -51.8294E-03     47.1392E-03
             831     6.83650E-03     91.1634E-03    -53.6974E+06    -106.924E+06    -16.1688E+06    -5.78165E+06    -52.2010E-03     104.160E-03    -51.9594E-03     51.8751E-03    -52.3684E-03     103.804E-03    -51.8073E-03     51.5022E-03
             832     7.69122E-03     91.2173E-03    -48.4010E+06    -92.0648E+06    -9.09241E+06    -6.19873E+06    -52.2277E-03     104.171E-03    -51.9430E-03     55.4572E-03    -52.4222E-03     103.893E-03    -51.7848E-03     55.0335E-03
             833     8.54601E-03     91.2742E-03    -43.3007E+06    -76.8243E+06    -2.15937E+06    -6.42239E+06    -52.2226E-03     104.147E-03    -51.9248E-03     58.1026E-03    -52.4467E-03     103.951E-03    -51.7614E-03     57.6327E-03
             834     9.40082E-03     91.3333E-03    -38.3583E+06    -59.0986E+06     4.87224E+06    -6.44533E+06    -52.1719E-03     104.074E-03    -51.9024E-03     59.7135E-03    -52.4294E-03     103.972E-03    -51.7367E-03     59.2053E-03
             835     10.2557E-03     91.3935E-03    -33.5382E+06    -42.7902E+06     11.8419E+06    -6.23137E+06    -52.0827E-03     103.963E-03    -51.8801E-03     60.0683E-03    -52.3684E-03     103.943E-03    -51.7102E-03     59.5333E-03
             836     11.1107E-03     91.4532E-03    -28.9140E+06    -23.1075E+06     18.3403E+06    -5.76268E+06    -51.9362E-03     103.785E-03    -51.8490E-03     58.9562E-03    -52.2483E-03     103.859E-03    -51.6819E-03     58.4092E-03
             837     11.9657E-03     91.5111E-03    -24.5152E+06    -2.61599E+06     25.5888E+06    -5.02344E+06    -51.7383E-03     103.557E-03    -51.8187E-03     56.1207E-03    -52.0707E-03     103.719E-03    -51.6515E-03     55.5774E-03
             838     12.8208E-03     91.5651E-03    -20.6148E+06     19.5899E+06     30.4871E+06    -4.05083E+06    -51.5096E-03     103.283E-03    -51.7733E-03     51.5034E-03    -51.8540E-03     103.535E-03    -51.6194E-03     50.9771E-03
             839     13.6760E-03     91.6137E-03    -17.0737E+06     62.6861E+06     41.2373E+06    -3.10701E+06    -51.1751E-03     102.900E-03    -51.7248E-03     45.5735E-03    -51.5639E-03     103.331E-03    -51.5847E-03     45.0724E-03
             840     14.5313E-03     91.6559E-03    -13.0324E+06     98.2194E+06     50.7507E+06    -1.75744E+06    -50.8601E-03     102.537E-03    -51.6767E-03     38.1484E-03    -51.2710E-03     103.103E-03    -51.5465E-03     37.6854E-03
             841     15.3867E-03     91.6896E-03    -8.56210E+06     109.077E+06     61.0766E+06    -139.822E+03    -50.6361E-03     102.303E-03    -51.6667E-03     28.6302E-03    -51.0312E-03     102.878E-03    -51.5070E-03     28.2031E-03
             842     16.2422E-03     91.7126E-03    -4.20423E+06     111.534E+06     75.6477E+06     425.220E+03    -50.5038E-03     102.196E-03    -51.6919E-03     15.7381E-03    -50.8592E-03     102.713E-03    -51.4693E-03     15.3992E-03
             843     854.419E-06     91.9886E-03    -92.2732E+06    -192.550E+06    -89.8267E+06    -502.423E+03    -51.9648E-03     103.875E-03    -51.9105E-03     8.70954E-03    -52.0181E-03     103.178E-03    -51.9466E-03     8.67041E-03
             844     1.70885E-03     92.0008E-03    -88.7728E+06    -186.432E+06    -80.1477E+06    -1.18241E+06    -51.9459E-03     103.907E-03    -51.9615E-03     15.8450E-03    -52.0076E-03     103.225E-03    -51.9632E-03     15.7685E-03
             845     2.56333E-03     92.0203E-03    -83.6487E+06    -174.463E+06    -67.7439E+06    -2.12755E+06    -51.9628E-03     103.945E-03    -51.9821E-03     23.0912E-03    -52.0394E-03     103.302E-03    -51.9465E-03     22.9702E-03
             846     3.41783E-03     92.0470E-03    -77.7098E+06    -159.801E+06    -54.9301E+06    -3.19048E+06    -51.9958E-03     103.992E-03    -51.9960E-03     29.9959E-03    -52.0904E-03     103.402E-03    -51.9262E-03     29.8258E-03
             847     4.27240E-03     92.0804E-03    -71.5384E+06    -146.635E+06    -43.1289E+06    -4.23546E+06    -52.0527E-03     104.058E-03    -52.0053E-03     36.4082E-03    -52.1632E-03     103.519E-03    -51.9046E-03     36.1860E-03
             848     5.12698E-03     92.1198E-03    -65.4509E+06    -133.117E+06    -33.0151E+06    -5.20409E+06    -52.1178E-03     104.124E-03    -52.0059E-03     42.2387E-03    -52.2456E-03     103.642E-03    -51.8831E-03     41.9623E-03
             849     5.98161E-03     92.1649E-03    -59.5878E+06    -119.079E+06    -24.3631E+06    -6.03867E+06    -52.1788E-03     104.177E-03    -51.9987E-03     47.4014E-03    -52.3267E-03     103.762E-03    -51.8614E-03     47.0703E-03
             850     6.83626E-03     92.2147E-03    -54.0013E+06    -105.347E+06    -16.7224E+06    -6.72859E+06    -52.2265E-03     104.213E-03    -51.9868E-03     51.8101E-03    -52.3969E-03     103.867E-03    -51.8394E-03     51.4245E-03
             851     7.69099E-03     92.2685E-03    -48.6652E+06    -90.7623E+06    -9.65777E+06    -7.25275E+06    -52.2472E-03     104.217E-03    -51.9703E-03     55.3879E-03    -52.4440E-03     103.947E-03    -51.8164E-03     54.9502E-03
             852     8.54573E-03     92.3254E-03    -43.5356E+06    -75.8421E+06    -2.74384E+06    -7.58522E+06    -52.2337E-03     104.185E-03    -51.9513E-03     58.0308E-03    -52.4595E-03     103.995E-03    -51.7919E-03     57.5455E-03
             853     9.40057E-03     92.3845E-03    -38.5402E+06    -58.4855E+06     4.26249E+06    -7.67880E+06    -52.1733E-03     104.101E-03    -51.9273E-03     59.6387E-03    -52.4316E-03     104.002E-03    -51.7653E-03     59.1143E-03
             854     10.2554E-03     92.4446E-03    -33.6797E+06    -42.6114E+06     11.1762E+06    -7.48913E+06    -52.0744E-03     103.977E-03    -51.9030E-03     59.9871E-03    -52.3600E-03     103.960E-03    -51.7365E-03     59.4356E-03
             855     11.1104E-03     92.5043E-03    -28.9637E+06    -23.4319E+06     17.6010E+06    -6.94160E+06    -51.9207E-03     103.790E-03    -51.8694E-03     58.8661E-03    -52.2314E-03     103.864E-03    -51.7054E-03     58.3039E-03
             856     11.9655E-03     92.5621E-03    -24.4290E+06    -3.42116E+06     24.8020E+06    -6.02354E+06    -51.7192E-03     103.556E-03    -51.8366E-03     56.0271E-03    -52.0487E-03     103.714E-03    -51.6722E-03     55.4710E-03
             857     12.8206E-03     92.6161E-03    -20.1733E+06     18.0866E+06     29.6859E+06    -4.54191E+06    -51.4857E-03     103.274E-03    -51.7887E-03     51.4222E-03    -51.8243E-03     103.519E-03    -51.6372E-03     50.8899E-03
             858     13.6758E-03     92.6646E-03    -16.2275E+06     61.8470E+06     40.8404E+06    -3.17881E+06    -51.1365E-03     102.874E-03    -51.7372E-03     45.5136E-03    -51.5190E-03     103.300E-03    -51.5992E-03     45.0121E-03
             859     14.5312E-03     92.7067E-03    -12.5831E+06     96.3593E+06     50.5624E+06    -2.05048E+06    -50.8211E-03     102.510E-03    -51.6889E-03     38.0945E-03    -51.2266E-03     103.066E-03    -51.5575E-03     37.6283E-03
             860     15.3866E-03     92.7403E-03    -8.87896E+06     107.182E+06     60.6331E+06    -540.710E+03    -50.5899E-03     102.265E-03    -51.6756E-03     28.5804E-03    -50.9831E-03     102.832E-03    -51.5150E-03     28.1487E-03
             861     16.2421E-03     92.7633E-03    -4.57981E+06     111.821E+06     75.6987E+06     122.282E+03    -50.4186E-03     102.115E-03    -51.6964E-03     15.7139E-03    -50.7763E-03     102.634E-03    -51.4734E-03     15.3716E-03
             862     854.380E-06     93.0399E-03    -92.9313E+06    -191.205E+06    -90.4181E+06    -687.560E+03    -51.9984E-03     103.942E-03    -51.9438E-03     8.70204E-03    -52.0561E-03     103.253E-03    -51.9839E-03     8.66042E-03
             863     1.70879E-03     93.0521E-03    -89.1974E+06    -184.510E+06    -80.5731E+06    -1.53290E+06    -51.9806E-03     103.976E-03    -51.9951E-03     15.8293E-03    -52.0466E-03     103.304E-03    -52.0011E-03     15.7481E-03
             864     2.56322E-03     93.0717E-03    -83.9925E+06    -172.144E+06    -68.1550E+06    -2.66061E+06    -51.9985E-03     104.014E-03    -52.0158E-03     23.0661E-03    -52.0797E-03     103.384E-03    -51.9851E-03     22.9380E-03
             865     3.41771E-03     93.0983E-03    -78.0437E+06    -157.446E+06    -55.3052E+06    -3.78618E+06    -52.0330E-03     104.063E-03    -52.0305E-03     29.9609E-03    -52.1321E-03     103.487E-03    -51.9655E-03     29.7828E-03
             866     4.27222E-03     93.1317E-03    -71.8526E+06    -144.250E+06    -43.4972E+06    -4.88459E+06    -52.0898E-03     104.130E-03    -52.0405E-03     36.3640E-03    -52.2047E-03     103.604E-03    -51.9446E-03     36.1330E-03
             867     5.12678E-03     93.1712E-03    -65.7400E+06    -130.827E+06    -33.3844E+06    -5.95560E+06    -52.1528E-03     104.194E-03    -52.0414E-03     42.1857E-03    -52.2848E-03     103.725E-03    -51.9233E-03     41.8993E-03
             868     5.98136E-03     93.2162E-03    -59.8721E+06    -117.001E+06    -24.7395E+06    -6.91383E+06    -52.2095E-03     104.244E-03    -52.0343E-03     47.3400E-03    -52.3613E-03     103.839E-03    -51.9015E-03     46.9971E-03
             869     6.83601E-03     93.2660E-03    -54.2862E+06    -103.486E+06    -17.1192E+06    -7.71497E+06    -52.2509E-03     104.273E-03    -52.0218E-03     51.7401E-03    -52.4249E-03     103.936E-03    -51.8786E-03     51.3414E-03
             870     7.69068E-03     93.3198E-03    -48.9728E+06    -89.1844E+06    -10.1087E+06    -8.35078E+06    -52.2637E-03     104.268E-03    -52.0040E-03     55.3089E-03    -52.4637E-03     104.007E-03    -51.8542E-03     54.8566E-03
             871     8.54544E-03     93.3767E-03    -43.8598E+06    -74.5797E+06    -3.27401E+06    -8.79359E+06    -52.2414E-03     104.224E-03    -51.9831E-03     57.9423E-03    -52.4698E-03     104.042E-03    -51.8277E-03     57.4411E-03
             872     9.40024E-03     93.4357E-03    -38.8843E+06    -57.6485E+06     3.62041E+06    -8.99870E+06    -52.1719E-03     104.129E-03    -51.9568E-03     59.5408E-03    -52.4321E-03     104.036E-03    -51.7987E-03     58.9992E-03
             873     10.2552E-03     93.4957E-03    -33.9776E+06    -42.2819E+06     10.4270E+06    -8.87478E+06    -52.0647E-03     103.995E-03    -51.9298E-03     59.8830E-03    -52.3510E-03     103.980E-03    -51.7671E-03     59.3136E-03
             874     11.1101E-03     93.5553E-03    -29.1409E+06    -23.7089E+06     16.7610E+06    -8.37904E+06    -51.9029E-03     103.796E-03    -51.8934E-03     58.7645E-03    -52.2126E-03     103.870E-03    -51.7329E-03     58.1838E-03
             875     11.9652E-03     93.6131E-03    -24.3726E+06    -4.41868E+06     23.8896E+06    -7.37130E+06    -51.6907E-03     103.548E-03    -51.8574E-03     55.9376E-03    -52.0169E-03     103.703E-03    -51.6962E-03     55.3643E-03
             876     12.8203E-03     93.6670E-03    -19.6855E+06     16.2050E+06     28.7553E+06    -5.84440E+06    -51.4425E-03     103.248E-03    -51.8059E-03     51.3436E-03    -51.7744E-03     103.485E-03    -51.6571E-03     50.7949E-03
             877     13.6756E-03     93.7154E-03    -15.2032E+06     60.0922E+06     40.2156E+06    -3.81650E+06    -51.0814E-03     102.832E-03    -51.7504E-03     45.4367E-03    -51.4552E-03     103.248E-03    -51.6144E-03     44.9276E-03
             878     14.5310E-03     93.7575E-03    -11.4197E+06     94.3579E+06     50.2818E+06    -1.60387E+06    -50.7724E-03     102.472E-03    -51.6995E-03     38.0288E-03    -51.1684E-03     103.017E-03    -51.5684E-03     37.5692E-03
             879     15.3865E-03     93.7910E-03    -8.03344E+06     105.960E+06     60.4004E+06    -384.341E+03    -50.5404E-03     102.223E-03    -51.6821E-03     28.5442E-03    -50.9271E-03     102.782E-03    -51.5221E-03     28.1152E-03
             880     16.2420E-03     93.8139E-03    -4.14141E+06     111.947E+06     75.6072E+06    -181.225E+03    -50.3425E-03     102.041E-03    -51.6983E-03     15.7032E-03    -50.6980E-03     102.560E-03    -51.4766E-03     15.3574E-03
             881     854.352E-06     94.0914E-03    -93.2841E+06    -189.329E+06    -90.7040E+06    -981.429E+03    -52.0440E-03     104.033E-03    -51.9892E-03     8.69052E-03    -52.1058E-03     103.355E-03    -52.0330E-03     8.64499E-03
             882     1.70870E-03     94.1036E-03    -89.4419E+06    -182.093E+06    -80.7346E+06    -2.04225E+06    -52.0267E-03     104.068E-03    -52.0409E-03     15.8096E-03    -52.0972E-03     103.408E-03    -52.0508E-03     15.7216E-03
             883     2.56310E-03     94.1231E-03    -84.1664E+06    -169.526E+06    -68.3116E+06    -3.21766E+06    -52.0445E-03     104.106E-03    -52.0616E-03     23.0373E-03    -52.1302E-03     103.489E-03    -52.0353E-03     22.9017E-03
             884     3.41753E-03     94.1498E-03    -78.2152E+06    -154.854E+06    -55.4597E+06    -4.38134E+06    -52.0780E-03     104.154E-03    -52.0765E-03     29.9225E-03    -52.1815E-03     103.591E-03    -52.0158E-03     29.7364E-03
             885     4.27201E-03     94.1832E-03    -72.0187E+06    -141.598E+06    -43.6397E+06    -5.55768E+06    -52.1319E-03     104.218E-03    -52.0862E-03     36.3160E-03    -52.2514E-03     103.706E-03    -51.9946E-03     36.0759E-03
             886     5.12652E-03     94.2226E-03    -65.9046E+06    -128.258E+06    -33.5306E+06    -6.71599E+06    -52.1906E-03     104.277E-03    -52.0866E-03     42.1268E-03    -52.3270E-03     103.822E-03    -51.9727E-03     41.8301E-03
             887     5.98109E-03     94.2676E-03     -60.058E+06    -114.631E+06    -24.9253E+06    -7.76515E+06    -52.2415E-03     104.320E-03    -52.0783E-03     47.2685E-03    -52.3974E-03     103.928E-03    -51.9496E-03     46.9142E-03
             888     6.83568E-03     94.3174E-03    -54.5243E+06    -101.345E+06    -17.3818E+06    -8.67219E+06    -52.2754E-03     104.340E-03    -52.0642E-03     51.6555E-03    -52.4532E-03     104.014E-03    -51.9251E-03     51.2440E-03
             889     7.69036E-03     94.3711E-03    -49.2577E+06    -87.3209E+06    -10.4646E+06    -9.41194E+06    -52.2793E-03     104.324E-03    -52.0442E-03     55.2122E-03    -52.4828E-03     104.073E-03    -51.8985E-03     54.7458E-03
             890     8.54506E-03     94.4280E-03    -44.2051E+06    -73.0201E+06    -3.73622E+06    -9.97727E+06    -52.2469E-03     104.268E-03    -52.0207E-03     57.8368E-03    -52.4785E-03     104.094E-03    -51.8694E-03     57.3201E-03
             891     9.39989E-03     94.4869E-03    -39.2740E+06    -56.5171E+06     3.03617E+06    -10.3126E+06    -52.1666E-03     104.158E-03    -51.9913E-03     59.4310E-03    -52.4293E-03     104.072E-03    -51.8372E-03     58.8723E-03
             892     10.2548E-03     94.5468E-03    -34.4072E+06    -41.6830E+06     9.69926E+06    -10.3492E+06    -52.0473E-03     104.008E-03    -51.9608E-03     59.7762E-03    -52.3354E-03     103.998E-03    -51.8020E-03     59.1878E-03
             893     11.1098E-03     94.6064E-03    -29.5771E+06    -23.7593E+06     15.8827E+06    -9.98445E+06    -51.8720E-03     103.792E-03    -51.9204E-03     58.6662E-03    -52.1823E-03     103.867E-03    -51.7637E-03     58.0650E-03
             894     11.9648E-03     94.6640E-03    -24.7490E+06    -5.37536E+06     22.8157E+06    -9.08254E+06    -51.6451E-03     103.525E-03    -51.8800E-03     55.8491E-03    -51.9699E-03     103.677E-03    -51.7222E-03     55.2542E-03
             895     12.8201E-03     94.7178E-03    -20.1095E+06     14.3747E+06     27.4941E+06    -7.50004E+06    -51.3843E-03     103.208E-03    -51.8238E-03     51.2638E-03    -51.7135E-03     103.437E-03    -51.6780E-03     50.6945E-03
             896     13.6753E-03     94.7662E-03    -16.0678E+06     56.5305E+06     38.3878E+06    -4.56456E+06    -51.0168E-03     102.780E-03    -51.7634E-03     45.3674E-03    -51.3867E-03     103.182E-03    -51.6302E-03     44.8497E-03
             897     14.5308E-03     94.8082E-03    -12.4084E+06     91.7177E+06     48.0691E+06    -1.46136E+06    -50.6888E-03     102.393E-03    -51.7041E-03     37.9798E-03    -51.0825E-03     102.929E-03    -51.5787E-03     37.5231E-03
             898     15.3864E-03     94.8417E-03    -8.57158E+06     105.860E+06     59.1146E+06    -384.177E+03    -50.4452E-03     102.127E-03    -51.6814E-03     28.5238E-03    -50.8324E-03     102.688E-03    -51.5269E-03     28.0958E-03
             899     16.2420E-03     94.8645E-03    -4.35516E+06     111.758E+06     75.4256E+06     -355.01E+03    -50.2654E-03     101.963E-03    -51.6980E-03     15.7079E-03    -50.6213E-03     102.482E-03    -51.4766E-03     15.3606E-03
             900     854.281E-06     95.1429E-03    -92.6063E+06    -186.869E+06    -90.2037E+06    -1.19402E+06    -52.1062E-03     104.158E-03    -52.0519E-03     8.67991E-03    -52.1688E-03     103.490E-03    -52.0976E-03     8.63152E-03
             901     1.70860E-03     95.1551E-03    -89.1205E+06    -179.201E+06    -80.6374E+06    -2.42558E+06    -52.0846E-03     104.185E-03    -52.1000E-03     15.7900E-03    -52.1578E-03     103.539E-03    -52.1141E-03     15.6968E-03
             902     2.56293E-03     95.1747E-03    -84.0677E+06    -166.639E+06    -68.1949E+06    -3.72394E+06    -52.1002E-03     104.220E-03    -52.1201E-03     23.0072E-03    -52.1897E-03     103.618E-03    -52.0976E-03     22.8647E-03
             903     3.41733E-03     95.2014E-03    -78.1399E+06    -151.993E+06    -55.3373E+06    -4.96337E+06    -52.1305E-03     104.265E-03    -52.1342E-03     29.8806E-03    -52.2380E-03     103.716E-03    -52.0772E-03     29.6865E-03
             904     4.27175E-03     95.2347E-03    -71.9559E+06    -138.695E+06    -43.5443E+06    -6.20234E+06    -52.1794E-03     104.322E-03    -52.1425E-03     36.2613E-03    -52.3029E-03     103.824E-03    -52.0548E-03     36.0125E-03
             905     5.12623E-03     95.2742E-03    -65.8748E+06    -125.424E+06    -33.4636E+06    -7.43444E+06    -52.2320E-03     104.373E-03    -52.1412E-03     42.0576E-03    -52.3724E-03     103.932E-03    -52.0311E-03     41.7511E-03
             906     5.98073E-03     95.3191E-03    -60.0730E+06    -112.029E+06    -24.9207E+06    -8.55153E+06    -52.2753E-03     104.406E-03    -52.1309E-03     47.1842E-03    -52.4350E-03     104.027E-03    -52.0060E-03     46.8193E-03
             907     6.83532E-03     95.3689E-03    -54.6094E+06    -98.9357E+06    -17.4575E+06    -9.52438E+06    -52.2993E-03     104.413E-03    -52.1142E-03     51.5583E-03    -52.4808E-03     104.101E-03    -51.9788E-03     51.1355E-03
             908     7.68994E-03     95.4225E-03    -49.4450E+06    -85.1641E+06    -10.6457E+06    -10.3842E+06    -52.2913E-03     104.382E-03    -52.0910E-03     55.1060E-03    -52.4985E-03     104.143E-03    -51.9491E-03     54.6268E-03
             909     8.54468E-03     95.4793E-03    -44.4737E+06    -71.1594E+06    -4.02902E+06    -11.0751E+06    -52.2453E-03     104.309E-03    -52.0637E-03     57.7267E-03    -52.4803E-03     104.145E-03    -51.9162E-03     57.1957E-03
             910     9.39946E-03     95.5382E-03    -39.6393E+06    -55.0578E+06     2.61576E+06    -11.5545E+06    -52.1502E-03     104.180E-03    -52.0300E-03     59.3220E-03    -52.4160E-03     104.102E-03    -51.8796E-03     58.7473E-03
             911     10.2544E-03     95.5980E-03    -34.8726E+06    -40.7115E+06     9.12434E+06    -11.7577E+06    -52.0151E-03     104.010E-03    -51.9946E-03     59.6740E-03    -52.3056E-03     104.005E-03    -51.8394E-03     59.0678E-03
             912     11.1094E-03     95.6574E-03    -30.1861E+06    -23.5368E+06     15.0761E+06    -11.5362E+06    -51.8237E-03     103.773E-03    -51.9488E-03     58.5753E-03    -52.1358E-03     103.850E-03    -51.7956E-03     57.9547E-03
             913     11.9645E-03     95.7150E-03    -25.5812E+06    -6.01649E+06     21.7197E+06    -10.7580E+06    -51.5819E-03     103.484E-03    -51.9026E-03     55.7726E-03    -51.9079E-03     103.635E-03    -51.7482E-03     55.1571E-03
             914     12.8198E-03     95.7686E-03    -21.2327E+06     12.1805E+06     25.9251E+06    -8.94460E+06    -51.3112E-03     103.152E-03    -51.8407E-03     51.2034E-03    -51.6401E-03     103.373E-03    -51.6979E-03     50.6167E-03
             915     13.6752E-03     95.8169E-03    -16.9607E+06     51.7397E+06     36.1959E+06    -5.43995E+06    -50.9408E-03     102.715E-03    -51.7746E-03     45.3287E-03    -51.3046E-03     103.098E-03    -51.6441E-03     44.8010E-03
             916     14.5307E-03     95.8588E-03    -12.7056E+06     88.7562E+06     45.9648E+06    -1.93943E+06    -50.5964E-03     102.303E-03    -51.7061E-03     37.9646E-03    -50.9839E-03     102.827E-03    -51.5866E-03     37.5032E-03
             917     15.3864E-03     95.8922E-03    -8.62701E+06     106.078E+06     58.0334E+06    -753.080E+03    -50.3384E-03     102.016E-03    -51.6774E-03     28.5295E-03    -50.7244E-03     102.579E-03    -51.5286E-03     28.0980E-03
             918     16.2421E-03     95.9150E-03    -4.37043E+06     111.406E+06     75.3891E+06    -636.632E+03    -50.1833E-03     101.878E-03    -51.6949E-03     15.7290E-03    -50.5386E-03     102.395E-03    -51.4732E-03     15.3787E-03
             919     854.228E-06     96.1947E-03    -92.3606E+06    -183.981E+06    -89.9688E+06    -1.38655E+06    -52.1776E-03     104.302E-03    -52.1241E-03     8.66959E-03    -52.2436E-03     103.648E-03    -52.1733E-03     8.61859E-03
             920     1.70846E-03     96.2068E-03    -88.8029E+06    -175.947E+06    -80.2506E+06    -2.69447E+06    -52.1538E-03     104.325E-03    -52.1716E-03     15.7691E-03    -52.2308E-03     103.695E-03    -52.1889E-03     15.6722E-03
             921     2.56275E-03     96.2264E-03    -83.6914E+06    -163.361E+06    -67.7995E+06    -4.16568E+06    -52.1658E-03     104.356E-03    -52.1905E-03     22.9736E-03    -52.2588E-03     103.769E-03    -52.1713E-03     22.8251E-03
             922     3.41707E-03     96.2531E-03    -77.7824E+06    -148.903E+06    -54.9639E+06    -5.51939E+06    -52.1912E-03     104.394E-03    -52.2032E-03     29.8324E-03    -52.3020E-03     103.860E-03    -52.1493E-03     29.6308E-03
             923     4.27146E-03     96.2864E-03    -71.6196E+06    -135.567E+06    -43.2029E+06    -6.79639E+06    -52.2326E-03     104.442E-03    -52.2092E-03     36.1986E-03    -52.3594E-03     103.958E-03    -52.1248E-03     35.9417E-03
             924     5.12587E-03     96.3258E-03    -65.5745E+06    -122.362E+06    -33.1458E+06    -8.08357E+06    -52.2760E-03     104.481E-03    -52.2052E-03     41.9799E-03    -52.4198E-03     104.054E-03    -52.0984E-03     41.6646E-03
             925     5.98036E-03     96.3708E-03    -59.8284E+06    -109.236E+06    -24.6515E+06    -9.24546E+06    -52.3080E-03     104.500E-03    -52.1919E-03     47.0923E-03    -52.4709E-03     104.134E-03    -52.0700E-03     46.7181E-03
             926     6.83489E-03     96.4204E-03    -54.4191E+06    -96.2996E+06    -17.2506E+06    -10.2790E+06    -52.3176E-03     104.489E-03    -52.1711E-03     51.4567E-03    -52.5022E-03     104.188E-03    -52.0388E-03     51.0239E-03
             927     7.68953E-03     96.4741E-03    -49.3220E+06    -82.7439E+06    -10.5112E+06    -11.2054E+06    -52.2934E-03     104.437E-03    -52.1432E-03     54.9993E-03    -52.5035E-03     104.208E-03    -52.0042E-03     54.5096E-03
             928     8.54422E-03     96.5307E-03    -44.4940E+06    -69.0015E+06    -4.01113E+06    -12.0101E+06    -52.2295E-03     104.340E-03    -52.1103E-03     57.6218E-03    -52.4675E-03     104.186E-03    -51.9658E-03     57.0790E-03
             929     9.39906E-03     96.5895E-03    -39.8022E+06    -53.2678E+06     2.50279E+06    -12.6316E+06    -52.1158E-03     104.186E-03    -52.0705E-03     59.2246E-03    -52.3845E-03     104.117E-03    -51.9231E-03     58.6366E-03
             930     10.2540E-03     96.6492E-03    -35.2332E+06    -39.4353E+06     8.82146E+06    -12.9483E+06    -51.9624E-03     103.991E-03    -52.0285E-03     59.5894E-03    -52.2557E-03     103.993E-03    -51.8761E-03     58.9688E-03
             931     11.1091E-03     96.7085E-03    -30.7633E+06    -22.9730E+06     14.5273E+06    -12.8637E+06    -51.7540E-03     103.730E-03    -51.9757E-03     58.5079E-03    -52.0684E-03     103.811E-03    -51.8252E-03     57.8714E-03
             932     11.9642E-03     96.7659E-03    -26.3993E+06    -6.50421E+06     20.8126E+06    -12.1100E+06    -51.4995E-03     103.422E-03    -51.9223E-03     55.7253E-03    -51.8270E-03     103.572E-03    -51.7705E-03     55.0939E-03
             933     12.8196E-03     96.8194E-03    -22.1025E+06     9.86868E+06     24.5490E+06    -10.3238E+06    -51.2239E-03     103.078E-03    -51.8537E-03     51.1798E-03    -51.5512E-03     103.290E-03    -51.7132E-03     50.5770E-03
             934     13.6750E-03     96.8675E-03    -17.6648E+06     46.7461E+06     34.1634E+06    -6.97241E+06    -50.8565E-03     102.638E-03    -51.7815E-03     45.3299E-03    -51.2132E-03     102.999E-03    -51.6528E-03     44.7842E-03
             935     14.5307E-03     96.9093E-03    -12.9566E+06     85.3520E+06     43.9129E+06    -3.26137E+06    -50.5066E-03     102.211E-03    -51.7039E-03     37.9867E-03    -50.8871E-03     102.721E-03    -51.5893E-03     37.5098E-03
             936     15.3864E-03     96.9426E-03    -8.35880E+06     105.860E+06     56.9566E+06    -1.42133E+06    -50.2528E-03     101.922E-03    -51.6693E-03     28.5744E-03    -50.6354E-03     102.486E-03    -51.5259E-03     28.1356E-03
             937     16.2422E-03     96.9654E-03    -4.08507E+06     110.779E+06     75.1943E+06    -789.077E+03    -50.1228E-03     101.811E-03    -51.6879E-03     15.7797E-03    -50.4754E-03     102.324E-03    -51.4666E-03     15.4281E-03
             938     854.147E-06     97.2466E-03    -91.8024E+06    -180.674E+06    -89.3017E+06    -1.61392E+06    -52.2608E-03     104.469E-03    -52.2083E-03     8.65539E-03    -52.3298E-03     103.830E-03    -52.2597E-03     8.60130E-03
             939     1.70833E-03     97.2588E-03    -88.1169E+06    -172.354E+06    -79.5481E+06    -3.05374E+06    -52.2342E-03     104.489E-03    -52.2547E-03     15.7433E-03    -52.3139E-03     103.875E-03    -52.2747E-03     15.6416E-03
             940     2.56253E-03     97.2783E-03    -82.9640E+06    -159.737E+06    -67.0953E+06    -4.61139E+06    -52.2409E-03     104.513E-03    -52.2719E-03     22.9344E-03    -52.3365E-03     103.941E-03    -52.2555E-03     22.7798E-03
             941     3.41680E-03     97.3050E-03    -77.0576E+06    -145.577E+06    -54.2650E+06    -6.02960E+06    -52.2589E-03     104.542E-03    -52.2827E-03     29.7779E-03    -52.3719E-03     104.022E-03    -52.2312E-03     29.5693E-03
             942     4.27110E-03     97.3382E-03    -70.9063E+06    -132.239E+06    -42.5277E+06    -7.36974E+06    -52.2889E-03     104.574E-03    -52.2853E-03     36.1304E-03    -52.4179E-03     104.105E-03    -52.2034E-03     35.8657E-03
             943     5.12549E-03     97.3777E-03    -64.8840E+06    -119.159E+06    -32.4940E+06    -8.65339E+06    -52.3179E-03     104.595E-03    -52.2772E-03     41.8989E-03    -52.4638E-03     104.182E-03    -52.1728E-03     41.5760E-03
             944     5.97992E-03     97.4225E-03    -59.2002E+06    -106.259E+06    -24.0237E+06    -9.83402E+06    -52.3333E-03     104.592E-03    -52.2590E-03     47.0008E-03    -52.4981E-03     104.239E-03    -52.1392E-03     46.6188E-03
             945     6.83446E-03     97.4721E-03    -53.8578E+06    -93.4527E+06    -16.6741E+06    -10.9391E+06    -52.3231E-03     104.555E-03    -52.2321E-03     51.3607E-03    -52.5097E-03     104.267E-03    -52.1019E-03     50.9195E-03
             946     7.68906E-03     97.5256E-03    -48.8208E+06    -80.1640E+06    -10.0077E+06    -11.9145E+06    -52.2775E-03     104.475E-03    -52.1973E-03     54.9051E-03    -52.4892E-03     104.258E-03    -52.0603E-03     54.4066E-03
             947     8.54382E-03     97.5822E-03    -44.0614E+06    -66.6131E+06    -3.56259E+06    -12.7378E+06    -52.1915E-03     104.348E-03    -52.1567E-03     57.5369E-03    -52.4309E-03     104.205E-03    -52.0140E-03     56.9855E-03
             948     9.39864E-03     97.6408E-03    -39.5925E+06    -51.2381E+06     2.81837E+06    -13.4027E+06    -52.0565E-03     104.165E-03    -52.1087E-03     59.1549E-03    -52.3269E-03     104.105E-03    -51.9629E-03     58.5583E-03
             949     10.2537E-03     97.7003E-03    -35.2558E+06    -37.8498E+06     8.95507E+06    -13.8464E+06    -51.8838E-03     103.942E-03    -52.0580E-03     59.5402E-03    -52.1790E-03     103.951E-03    -51.9072E-03     58.9097E-03
             950     11.1088E-03     97.7595E-03    -30.9955E+06    -22.1214E+06     14.4166E+06    -13.8957E+06    -51.6612E-03     103.658E-03    -51.9966E-03     58.4819E-03    -51.9771E-03     103.743E-03    -51.8475E-03     57.8342E-03
             951     11.9641E-03     97.8167E-03    -26.7178E+06    -6.79475E+06     20.3663E+06    -13.2987E+06    -51.4002E-03     103.335E-03    -51.9350E-03     55.7257E-03    -51.7274E-03     103.484E-03    -51.7845E-03     55.0812E-03
             952     12.8195E-03     97.8701E-03    -22.4852E+06     7.87620E+06     23.6927E+06    -11.7100E+06    -51.1279E-03     102.987E-03    -51.8593E-03     51.2058E-03    -51.4523E-03     103.191E-03    -51.7197E-03     50.5873E-03
             953     13.6750E-03     97.9180E-03    -18.0791E+06     42.3292E+06     32.6643E+06    -8.74176E+06    -50.7751E-03     102.556E-03    -51.7811E-03     45.3808E-03    -51.1247E-03     102.897E-03    -51.6529E-03     44.8143E-03
             954     14.5307E-03     97.9596E-03    -13.3404E+06     81.4793E+06     42.1904E+06    -5.13251E+06    -50.4373E-03     102.134E-03    -51.6966E-03     38.0604E-03    -50.8112E-03     102.627E-03    -51.5845E-03     37.5611E-03
             955     15.3865E-03     97.9929E-03    -8.73263E+06     104.380E+06     55.6330E+06    -2.41002E+06    -50.1991E-03     101.856E-03    -51.6571E-03     28.6704E-03    -50.5793E-03     102.415E-03    -51.5176E-03     28.2199E-03
             956     16.2423E-03     98.0157E-03    -4.33345E+06     109.776E+06     74.5581E+06    -929.876E+03    -50.0937E-03     101.770E-03    -51.6763E-03     15.8717E-03    -50.4452E-03     102.280E-03    -51.4564E-03     15.5187E-03
             957     854.065E-06     98.2987E-03    -90.3590E+06    -176.934E+06    -87.9974E+06    -1.73611E+06    -52.3570E-03     104.663E-03    -52.3057E-03     8.63910E-03    -52.4261E-03     104.038E-03    -52.3581E-03     8.58329E-03
             958     1.70815E-03     98.3108E-03    -86.8855E+06    -168.301E+06    -78.5562E+06    -3.44370E+06    -52.3232E-03     104.671E-03    -52.3480E-03     15.7145E-03    -52.4041E-03     104.074E-03    -52.3707E-03     15.6075E-03
             959     2.56229E-03     98.3304E-03    -81.7782E+06    -155.885E+06    -66.0825E+06    -5.09990E+06    -52.3217E-03     104.684E-03    -52.3626E-03     22.8915E-03    -52.4185E-03     104.129E-03    -52.3484E-03     22.7303E-03
             960     3.41648E-03     98.3570E-03    -75.8749E+06    -142.045E+06    -53.1776E+06    -6.52494E+06    -52.3284E-03     104.699E-03    -52.3702E-03     29.7209E-03    -52.4421E-03     104.193E-03    -52.3202E-03     29.5056E-03
             961     4.27075E-03     98.3903E-03    -69.7694E+06    -128.720E+06    -41.4607E+06    -7.88722E+06    -52.3415E-03     104.709E-03    -52.3678E-03     36.0623E-03    -52.4715E-03     104.255E-03    -52.2873E-03     35.7907E-03
             962     5.12507E-03     98.4296E-03    -63.7513E+06    -115.825E+06    -31.4563E+06    -9.22908E+06    -52.3502E-03     104.704E-03    -52.3534E-03     41.8225E-03    -52.4966E-03     104.304E-03    -52.2503E-03     41.4921E-03
             963     5.97950E-03     98.4744E-03    -57.9987E+06    -103.185E+06    -22.9885E+06    -10.3973E+06    -52.3421E-03     104.670E-03    -52.3276E-03     46.9208E-03    -52.5067E-03     104.329E-03    -52.2089E-03     46.5318E-03
             964     6.83401E-03     98.5238E-03    -52.6893E+06    -90.4657E+06    -15.6273E+06    -11.4606E+06    -52.3061E-03     104.598E-03    -52.2920E-03     51.2843E-03    -52.4923E-03     104.321E-03    -52.1626E-03     50.8370E-03
             965     7.68867E-03     98.5772E-03    -47.7990E+06    -77.4513E+06    -9.03254E+06    -12.4491E+06    -52.2340E-03     104.482E-03    -52.2476E-03     54.8402E-03    -52.4454E-03     104.275E-03    -52.1111E-03     54.3359E-03
             966     8.54342E-03     98.6336E-03    -43.2394E+06    -64.1661E+06    -2.69634E+06    -13.2525E+06    -52.1225E-03     104.319E-03    -52.1966E-03     57.4914E-03    -52.3619E-03     104.185E-03    -52.0543E-03     56.9351E-03
             967     9.39837E-03     98.6921E-03    -38.8659E+06    -49.0312E+06     3.64415E+06    -13.9177E+06    -51.9659E-03     104.104E-03    -52.1380E-03     59.1331E-03    -52.2362E-03     104.052E-03    -51.9924E-03     58.5320E-03
             968     10.2534E-03     98.7514E-03    -34.6565E+06    -35.9802E+06     9.67021E+06    -14.4564E+06    -51.7773E-03     103.854E-03    -52.0768E-03     59.5470E-03    -52.0723E-03     103.870E-03    -51.9260E-03     58.9112E-03
             969     11.1087E-03     98.8104E-03    -30.5508E+06    -20.9951E+06     14.9250E+06    -14.6565E+06    -51.5481E-03     103.554E-03    -52.0057E-03     58.5182E-03    -51.8631E-03     103.643E-03    -51.8564E-03     57.8636E-03
             970     11.9640E-03     98.8674E-03    -26.4456E+06    -6.59235E+06     20.5847E+06    -14.3541E+06    -51.2906E-03     103.226E-03    -51.9354E-03     55.7918E-03    -51.6161E-03     103.375E-03    -51.7846E-03     55.1366E-03
             971     12.8196E-03     98.9206E-03    -22.1987E+06     6.30926E+06     23.5279E+06    -13.1301E+06    -51.0338E-03     102.887E-03    -51.8532E-03     51.2995E-03    -51.3535E-03     103.082E-03    -51.7125E-03     50.6655E-03
             972     13.6751E-03     98.9684E-03    -17.6331E+06     38.8351E+06     32.0502E+06    -10.6679E+06    -50.7084E-03     102.479E-03    -51.7701E-03     45.5034E-03    -51.0493E-03     102.802E-03    -51.6406E-03     44.9143E-03
             973     14.5310E-03     99.0099E-03    -12.8883E+06     77.0295E+06     41.3594E+06    -6.98147E+06    -50.4058E-03     102.089E-03    -51.6831E-03     38.2094E-03    -50.7695E-03     102.560E-03    -51.5693E-03     37.6879E-03
             974     15.3867E-03     99.0432E-03    -8.50974E+06     101.398E+06     54.4509E+06    -3.26981E+06    -50.1956E-03     101.835E-03    -51.6392E-03     28.8412E-03    -50.5685E-03     102.380E-03    -51.5016E-03     28.3807E-03
             975     16.2426E-03     99.0660E-03    -4.32251E+06     108.552E+06     73.6591E+06    -1.19241E+06    -50.1035E-03     101.762E-03    -51.6582E-03     16.0212E-03    -50.4520E-03     102.267E-03    -51.4410E-03     15.6651E-03
             976     853.973E-06     99.3510E-03    -88.6080E+06    -172.848E+06    -86.3467E+06    -1.91827E+06    -52.4590E-03     104.869E-03    -52.4098E-03     8.62336E-03    -52.5276E-03     104.260E-03    -52.4624E-03     8.56508E-03
             977     1.70798E-03     99.3632E-03    -85.1966E+06    -163.775E+06    -76.9820E+06    -3.72411E+06    -52.4162E-03     104.864E-03    -52.4480E-03     15.6861E-03    -52.4975E-03     104.285E-03    -52.4719E-03     15.5753E-03
             978     2.56203E-03     99.3827E-03    -80.2743E+06    -151.756E+06    -64.6655E+06    -5.55165E+06    -52.4016E-03     104.860E-03    -52.4581E-03     22.8503E-03    -52.4989E-03     104.321E-03    -52.4450E-03     22.6831E-03
             979     3.41617E-03     99.4093E-03    -74.4318E+06    -138.345E+06    -51.8187E+06    -7.03334E+06    -52.3904E-03     104.851E-03    -52.4602E-03     29.6686E-03    -52.5042E-03     104.359E-03    -52.4107E-03     29.4466E-03
             980     4.27037E-03     99.4424E-03    -68.2257E+06    -124.960E+06    -40.0486E+06    -8.47799E+06    -52.3799E-03     104.830E-03    -52.4500E-03     36.0036E-03    -52.5096E-03     104.390E-03    -52.3701E-03     35.7245E-03
             981     5.12469E-03     99.4817E-03    -62.0920E+06    -112.324E+06    -30.0310E+06    -9.87980E+06    -52.3609E-03     104.787E-03    -52.4263E-03     41.7633E-03    -52.5060E-03     104.400E-03    -52.3235E-03     41.4249E-03
             982     5.97910E-03     99.5263E-03    -56.3097E+06    -100.082E+06    -21.5979E+06    -11.0304E+06    -52.3222E-03     104.712E-03    -52.3898E-03     46.8682E-03    -52.4846E-03     104.382E-03    -52.2710E-03     46.4719E-03
             983     6.83367E-03     99.5757E-03    -50.9073E+06    -87.4892E+06    -14.1705E+06    -11.9973E+06    -52.2546E-03     104.597E-03    -52.3422E-03     51.2464E-03    -52.4378E-03     104.330E-03    -52.2124E-03     50.7936E-03
             984     7.68834E-03     99.6288E-03    -45.9955E+06    -74.7882E+06    -7.53373E+06    -12.7942E+06    -52.1537E-03     104.439E-03    -52.2853E-03     54.8219E-03    -52.3615E-03     104.240E-03    -52.1478E-03     54.3153E-03
             985     8.54323E-03     99.6851E-03    -41.5090E+06    -61.6215E+06    -1.21427E+06    -13.5455E+06    -52.0161E-03     104.237E-03    -52.2211E-03     57.5060E-03    -52.2518E-03     104.110E-03    -52.0776E-03     56.9486E-03
             986     9.39822E-03     99.7433E-03    -37.2758E+06    -46.7286E+06     5.07445E+06    -14.2609E+06    -51.8404E-03     103.990E-03    -52.1498E-03     59.1867E-03    -52.1071E-03     103.944E-03    -52.0026E-03     58.5845E-03
             987     10.2535E-03     99.8025E-03    -33.2371E+06    -33.9983E+06     11.0193E+06    -14.7616E+06    -51.6443E-03     103.721E-03    -52.0767E-03     59.6391E-03    -51.9358E-03     103.742E-03    -51.9241E-03     59.0030E-03
             988     11.1088E-03     99.8612E-03    -29.4116E+06    -19.5039E+06     16.1427E+06    -15.0779E+06    -51.4200E-03     103.416E-03    -51.9956E-03     58.6465E-03    -51.7320E-03     103.507E-03    -51.8440E-03     57.9902E-03
             989     11.9643E-03     99.9180E-03    -25.5582E+06    -5.77768E+06     21.5559E+06    -15.1298E+06    -51.1785E-03     103.096E-03    -51.9172E-03     55.9559E-03    -51.5011E-03     103.244E-03    -51.7640E-03     55.2944E-03
             990     12.8198E-03     99.9710E-03    -21.4884E+06     5.62389E+06     24.1567E+06    -14.5809E+06    -50.9503E-03     102.780E-03    -51.8299E-03     51.4969E-03    -51.2654E-03     102.969E-03    -51.6862E-03     50.8474E-03
             991     13.6756E-03     100.019E-03    -16.9948E+06     36.0927E+06     32.0853E+06    -12.7149E+06    -50.6649E-03     102.409E-03    -51.7439E-03     45.7347E-03    -50.9980E-03     102.717E-03    -51.6112E-03     45.1219E-03
             992     14.5313E-03     100.060E-03    -12.4257E+06     71.5944E+06     40.7095E+06    -8.64482E+06    -50.4126E-03     102.070E-03    -51.6573E-03     38.4700E-03    -50.7648E-03     102.514E-03    -51.5396E-03     37.9289E-03
             993     15.3872E-03     100.093E-03    -8.25583E+06     97.2228E+06     53.0204E+06    -3.96489E+06    -50.2428E-03     101.853E-03    -51.6103E-03     29.1225E-03    -50.6063E-03     102.379E-03    -51.4742E-03     28.6541E-03
             994     16.2429E-03     100.116E-03    -4.18924E+06     107.227E+06     72.4761E+06    -1.39103E+06    -50.1697E-03     101.800E-03    -51.6305E-03     16.2576E-03    -50.5140E-03     102.300E-03    -51.4175E-03     15.8990E-03
             995     853.880E-06     100.404E-03    -86.5615E+06    -168.274E+06    -84.3303E+06    -2.23181E+06    -52.5578E-03     105.070E-03    -52.5118E-03     8.60962E-03    -52.6257E-03     104.477E-03    -52.5639E-03     8.54724E-03
             996     1.70780E-03     100.416E-03    -83.0297E+06    -158.986E+06    -74.8998E+06    -4.07311E+06    -52.5033E-03     105.049E-03    -52.5454E-03     15.6616E-03    -52.5837E-03     104.487E-03    -52.5690E-03     15.5462E-03
             997     2.56179E-03     100.435E-03    -78.0282E+06    -147.338E+06    -62.4731E+06    -5.88912E+06    -52.4719E-03     105.022E-03    -52.5503E-03     22.8140E-03    -52.5675E-03     104.499E-03    -52.5359E-03     22.6424E-03
             998     3.41586E-03     100.462E-03    -72.2026E+06    -134.297E+06    -49.8112E+06    -7.57442E+06    -52.4346E-03     104.978E-03    -52.5434E-03     29.6283E-03    -52.5459E-03     104.501E-03    -52.4930E-03     29.3995E-03
             999     4.27005E-03     100.495E-03    -66.0153E+06    -120.917E+06    -38.2879E+06    -9.18861E+06    -52.3896E-03     104.910E-03    -52.5206E-03     35.9692E-03    -52.5164E-03     104.484E-03    -52.4410E-03     35.6815E-03
            1000     5.12435E-03     100.534E-03    -59.9576E+06    -108.770E+06    -28.2998E+06    -10.5524E+06    -52.3350E-03     104.819E-03    -52.4841E-03     41.7395E-03    -52.4768E-03     104.444E-03    -52.3810E-03     41.3935E-03
            1001     5.97883E-03     100.578E-03    -54.2238E+06    -96.8198E+06    -19.8668E+06    -11.6939E+06    -52.2589E-03     104.692E-03    -52.4331E-03     46.8652E-03    -52.4175E-03     104.372E-03    -52.3135E-03     46.4621E-03
            1002     6.83343E-03     100.627E-03    -48.8814E+06    -84.6347E+06    -12.5067E+06    -12.6173E+06    -52.1548E-03     104.525E-03    -52.3699E-03     51.2751E-03    -52.3338E-03     104.266E-03    -52.2388E-03     50.8168E-03
            1003     7.68825E-03     100.680E-03    -43.8844E+06    -72.2957E+06    -5.83048E+06    -13.2511E+06    -52.0233E-03     104.320E-03    -52.2971E-03     54.8915E-03    -52.2256E-03     104.127E-03    -52.1578E-03     54.3822E-03
            1004     8.54321E-03     100.736E-03    -39.2205E+06    -59.0219E+06     667.423E+03    -13.8919E+06    -51.8634E-03     104.081E-03    -52.2174E-03     57.6255E-03    -52.0930E-03     103.960E-03    -52.0716E-03     57.0677E-03
            1005     9.39842E-03     100.794E-03    -34.9603E+06    -44.5747E+06     7.00484E+06    -14.4040E+06    -51.6789E-03     103.811E-03    -52.1321E-03     59.3564E-03    -51.9385E-03     103.768E-03    -51.9818E-03     58.7569E-03
            1006     10.2537E-03     100.853E-03    -31.1017E+06    -31.9780E+06     12.9425E+06    -14.7853E+06    -51.4871E-03     103.534E-03    -52.0468E-03     59.8615E-03    -51.7722E-03     103.557E-03    -51.8906E-03     59.2301E-03
            1007     11.1093E-03     100.912E-03    -27.4911E+06    -17.8396E+06     18.0521E+06    -15.0830E+06    -51.2810E-03     103.238E-03    -51.9565E-03     58.9157E-03    -51.5872E-03     103.330E-03    -51.8006E-03     58.2643E-03
            1008     11.9648E-03     100.968E-03    -24.0835E+06    -4.29408E+06     23.3041E+06    -15.3611E+06    -51.0685E-03     102.940E-03    -51.8714E-03     56.2715E-03    -51.3872E-03     103.090E-03    -51.7137E-03     55.6117E-03
            1009     12.8206E-03     101.021E-03    -20.6757E+06     6.10174E+06     25.5814E+06    -15.4630E+06    -50.8825E-03     102.664E-03    -51.7814E-03     51.8551E-03    -51.1953E-03     102.851E-03    -51.6324E-03     51.1983E-03
            1010     13.6762E-03     101.069E-03    -16.8611E+06     34.2395E+06     32.5921E+06    -14.4144E+06    -50.6514E-03     102.347E-03    -51.6952E-03     46.1330E-03    -50.9813E-03     102.644E-03    -51.5575E-03     45.5014E-03
            1011     14.5321E-03     101.110E-03    -12.4703E+06     65.1293E+06     39.9498E+06    -10.3373E+06    -50.4665E-03     102.079E-03    -51.6126E-03     38.8980E-03    -50.8082E-03     102.492E-03    -51.4892E-03     38.3372E-03
            1012     15.3878E-03     101.144E-03    -8.23292E+06     91.8744E+06     51.1967E+06    -4.67622E+06    -50.3497E-03     101.914E-03    -51.5648E-03     29.5617E-03    -50.7027E-03     102.416E-03    -51.4301E-03     29.0851E-03
            1013     16.2436E-03     101.167E-03    -4.21786E+06     105.881E+06     71.1164E+06    -1.57832E+06    -50.3102E-03     101.900E-03    -51.5898E-03     16.6132E-03    -50.6510E-03     102.395E-03    -51.3816E-03     16.2518E-03
            1014     853.807E-06     101.456E-03    -84.3816E+06    -163.003E+06    -82.1469E+06    -2.54434E+06    -52.6383E-03     105.235E-03    -52.5967E-03     8.60117E-03    -52.7061E-03     104.663E-03    -52.6488E-03     8.53480E-03
            1015     1.70765E-03     101.468E-03    -80.9335E+06    -154.000E+06    -72.9049E+06    -4.50708E+06    -52.5674E-03     105.191E-03    -52.6241E-03     15.6481E-03    -52.6474E-03     104.649E-03    -52.6479E-03     15.5273E-03
            1016     2.56159E-03     101.488E-03    -75.9051E+06    -142.633E+06    -60.5930E+06    -6.38255E+06    -52.5097E-03     105.129E-03    -52.6195E-03     22.8003E-03    -52.6041E-03     104.623E-03    -52.6056E-03     22.6228E-03
            1017     3.41564E-03     101.514E-03    -69.9204E+06    -129.707E+06    -47.8790E+06    -8.27860E+06    -52.4373E-03     105.037E-03    -52.6002E-03     29.6227E-03    -52.5465E-03     104.577E-03    -52.5501E-03     29.3857E-03
            1018     4.26983E-03     101.547E-03    -63.7253E+06    -116.773E+06    -36.3910E+06    -9.92187E+06    -52.3510E-03     104.914E-03    -52.5625E-03     35.9803E-03    -52.4749E-03     104.502E-03    -52.4828E-03     35.6845E-03
            1019     5.12420E-03     101.586E-03    -57.6670E+06    -105.051E+06    -26.4186E+06    -11.2798E+06    -52.2522E-03     104.761E-03    -52.5089E-03     41.7792E-03    -52.3901E-03     104.398E-03    -52.4051E-03     41.4260E-03
            1020     5.97874E-03     101.630E-03    -51.8878E+06    -93.4593E+06    -17.9445E+06    -12.4261E+06    -52.1332E-03     104.573E-03    -52.4395E-03     46.9466E-03    -52.2871E-03     104.263E-03    -52.3185E-03     46.5370E-03
            1021     6.83351E-03     101.679E-03    -46.4774E+06    -81.7923E+06    -10.5962E+06    -13.2754E+06    -51.9916E-03     104.349E-03    -52.3572E-03     51.4112E-03    -52.1644E-03     104.097E-03    -52.2241E-03     50.9484E-03
            1022     7.68844E-03     101.732E-03    -41.4289E+06    -69.8107E+06    -3.88781E+06    -13.9203E+06    -51.8316E-03     104.097E-03    -52.2656E-03     55.0963E-03    -52.0268E-03     103.909E-03    -52.1238E-03     54.5833E-03
            1023     8.54365E-03     101.788E-03    -36.7033E+06    -56.6218E+06     2.74943E+06    -14.3993E+06    -51.6585E-03     103.827E-03    -52.1687E-03     57.9032E-03    -51.8804E-03     103.710E-03    -52.0196E-03     57.3446E-03
            1024     9.39897E-03     101.845E-03    -32.3634E+06    -42.7966E+06     9.19008E+06    -14.5842E+06    -51.4790E-03     103.548E-03    -52.0693E-03     59.7024E-03    -51.7297E-03     103.506E-03    -51.9144E-03     59.1068E-03
            1025     10.2545E-03     101.904E-03    -28.4145E+06    -30.0520E+06     15.2668E+06    -14.6811E+06    -51.3043E-03     103.276E-03    -51.9722E-03     60.2825E-03    -51.5803E-03     103.301E-03    -51.8111E-03     59.6590E-03
            1026     11.1101E-03     101.962E-03    -24.9210E+06    -16.3300E+06     20.4540E+06    -14.7719E+06    -51.1307E-03     103.005E-03    -51.8746E-03     59.3997E-03    -51.4280E-03     103.097E-03    -51.7125E-03     58.7586E-03
            1027     11.9659E-03     102.019E-03    -21.8449E+06    -2.56238E+06     25.6951E+06    -14.8590E+06    -50.9615E-03     102.746E-03    -51.7848E-03     56.8184E-03    -51.2735E-03     102.897E-03    -51.6209E-03     56.1710E-03
            1028     12.8217E-03     102.072E-03    -19.3011E+06     7.38314E+06     27.8230E+06    -15.0608E+06    -50.8343E-03     102.530E-03    -51.6956E-03     52.4563E-03    -51.1443E-03     102.717E-03    -51.5392E-03     51.8098E-03
            1029     13.6775E-03     102.119E-03    -16.8470E+06     33.7560E+06     33.8368E+06    -14.7507E+06    -50.6793E-03     102.292E-03    -51.6130E-03     46.7791E-03    -51.0095E-03     102.584E-03    -51.4683E-03     46.1471E-03
            1030     14.5332E-03     102.161E-03    -13.5075E+06     59.0623E+06     39.3723E+06    -11.8653E+06    -50.5899E-03     102.129E-03    -51.5395E-03     39.5714E-03    -50.9270E-03     102.514E-03    -51.4087E-03     38.9935E-03
            1031     15.3889E-03     102.194E-03    -8.90715E+06     85.2278E+06     48.4762E+06    -6.26883E+06    -50.5537E-03     102.048E-03    -51.4938E-03     30.2261E-03    -50.8968E-03     102.521E-03    -51.3621E-03     29.7298E-03
            1032     16.2444E-03     102.217E-03    -4.12755E+06     103.865E+06     69.3480E+06    -2.02985E+06    -50.5677E-03     102.098E-03    -51.5306E-03     17.1309E-03    -50.9029E-03     102.586E-03    -51.3285E-03     16.7626E-03
            1033     853.749E-06     102.509E-03    -82.0042E+06    -157.118E+06    -79.8776E+06    -2.80953E+06    -52.6766E-03     105.317E-03    -52.6409E-03     8.60308E-03    -52.7444E-03     104.768E-03    -52.6935E-03     8.53354E-03
            1034     1.70758E-03     102.521E-03    -78.7024E+06    -148.665E+06    -70.8794E+06    -4.88598E+06    -52.5839E-03     105.243E-03    -52.6596E-03     15.6562E-03    -52.6634E-03     104.721E-03    -52.6843E-03     15.5311E-03
            1035     2.56150E-03     102.541E-03    -73.7461E+06    -137.356E+06    -58.8721E+06    -7.06836E+06    -52.4891E-03     105.130E-03    -52.6410E-03     22.8257E-03    -52.5827E-03     104.645E-03    -52.6293E-03     22.6404E-03
            1036     3.41558E-03     102.567E-03    -67.8548E+06    -124.747E+06    -46.1367E+06    -9.12433E+06    -52.3726E-03     104.978E-03    -52.6057E-03     29.6724E-03    -52.4810E-03     104.537E-03    -52.5571E-03     29.4262E-03
            1037     4.26985E-03     102.599E-03    -61.6033E+06    -112.492E+06    -34.4502E+06    -10.7791E+06    -52.2386E-03     104.789E-03    -52.5505E-03     36.0660E-03    -52.3605E-03     104.393E-03    -52.4703E-03     35.7616E-03
            1038     5.12432E-03     102.638E-03    -55.4118E+06    -101.058E+06    -24.4934E+06    -12.1993E+06    -52.0878E-03     104.563E-03    -52.4753E-03     41.9221E-03    -52.2224E-03     104.213E-03    -52.3709E-03     41.5607E-03
            1039     5.97904E-03     102.682E-03    -49.4827E+06    -90.0353E+06    -16.0179E+06    -13.3572E+06    -51.9228E-03     104.306E-03    -52.3834E-03     47.1625E-03    -52.0714E-03     104.006E-03    -52.2612E-03     46.7457E-03
            1040     6.83398E-03     102.731E-03    -43.8971E+06    -78.8838E+06    -8.58340E+06    -14.1797E+06    -51.7469E-03     104.026E-03    -52.2791E-03     51.7135E-03    -51.9126E-03     103.781E-03    -52.1440E-03     51.2450E-03
            1041     7.68919E-03     102.783E-03    -38.7260E+06    -67.3252E+06    -1.78515E+06    -14.6926E+06    -51.5682E-03     103.735E-03    -52.1671E-03     55.4974E-03    -51.7549E-03     103.551E-03    -52.0223E-03     54.9815E-03
            1042     8.54457E-03     102.838E-03    -34.0029E+06    -54.4699E+06     4.88442E+06    -14.9878E+06    -51.3935E-03     103.446E-03    -52.0523E-03     58.4117E-03    -51.6063E-03     103.330E-03    -51.8996E-03     57.8533E-03
            1043     9.40022E-03     102.896E-03    -29.6375E+06    -41.4009E+06     11.3813E+06    -14.9011E+06    -51.2321E-03     103.171E-03    -51.9394E-03     60.3129E-03    -51.4723E-03     103.126E-03    -51.7795E-03     59.7215E-03
            1044     10.2559E-03     102.954E-03    -25.6397E+06    -28.4451E+06     17.6023E+06    -14.6929E+06    -51.0880E-03     102.920E-03    -51.8319E-03     60.9983E-03    -51.3537E-03     102.942E-03    -51.6654E-03     60.3830E-03
            1045     11.1118E-03     103.013E-03    -22.0926E+06    -15.3443E+06     22.9175E+06    -14.3137E+06    -50.9628E-03     102.692E-03    -51.7294E-03     60.2040E-03    -51.2490E-03     102.779E-03    -51.5605E-03     59.5772E-03
            1046     11.9677E-03     103.069E-03    -19.1693E+06    -1.19080E+06     28.2249E+06    -13.9025E+06    -50.8561E-03     102.494E-03    -51.6381E-03     57.7072E-03    -51.1586E-03     102.643E-03    -51.4674E-03     57.0799E-03
            1047     12.8236E-03     103.122E-03    -16.8722E+06     8.52547E+06     30.5617E+06    -13.6268E+06    -50.8140E-03     102.368E-03    -51.5542E-03     53.4126E-03    -51.1161E-03     102.552E-03    -51.3893E-03     52.7914E-03
            1048     13.6793E-03     103.169E-03    -15.4003E+06     34.0151E+06     36.0080E+06    -13.0138E+06    -50.7716E-03     102.253E-03    -51.4810E-03     47.7781E-03    -51.0975E-03     102.540E-03    -51.3280E-03     47.1738E-03
            1049     14.5350E-03     103.211E-03    -13.8574E+06     55.8557E+06     40.2023E+06    -11.7322E+06    -50.8224E-03     102.247E-03    -51.4247E-03     40.5864E-03    -51.1577E-03     102.615E-03    -51.2846E-03     40.0133E-03
            1050     15.3903E-03     103.244E-03    -10.6056E+06     78.8316E+06     45.5504E+06    -8.35219E+06    -50.9321E-03     102.322E-03    -51.3894E-03     31.1898E-03    -51.2707E-03     102.770E-03    -51.2606E-03     30.6670E-03
            1051     16.2457E-03     103.268E-03    -5.51490E+06     99.8516E+06     66.0526E+06    -3.63346E+06    -51.0682E-03     102.516E-03    -51.4481E-03     17.8303E-03    -51.4004E-03     102.992E-03    -51.2546E-03     17.4390E-03
            1052     853.778E-06     103.562E-03    -79.4033E+06    -150.754E+06    -77.2601E+06    -3.03272E+06    -52.6379E-03     105.247E-03    -52.6095E-03     8.62275E-03    -52.7057E-03     104.722E-03    -52.6621E-03     8.55087E-03
            1053     1.70761E-03     103.574E-03    -76.0057E+06    -142.717E+06    -68.4946E+06    -5.39499E+06    -52.5176E-03     105.135E-03    -52.6173E-03     15.6994E-03    -52.5956E-03     104.635E-03    -52.6426E-03     15.5688E-03
            1054     2.56162E-03     103.593E-03    -71.1198E+06    -131.535E+06    -56.6796E+06    -7.76901E+06    -52.3795E-03     104.962E-03    -52.5823E-03     22.9049E-03    -52.4714E-03     104.499E-03    -52.5718E-03     22.7124E-03
            1055     3.41580E-03     103.619E-03    -65.4329E+06    -119.510E+06    -44.1533E+06    -9.86989E+06    -52.2094E-03     104.736E-03    -52.5268E-03     29.8040E-03    -52.3157E-03     104.314E-03    -52.4794E-03     29.5510E-03
            1056     4.27022E-03     103.652E-03    -59.4155E+06    -107.825E+06    -32.6433E+06    -11.6783E+06    -52.0169E-03     104.465E-03    -52.4480E-03     36.2712E-03    -52.1365E-03     104.086E-03    -52.3688E-03     35.9594E-03
            1057     5.12491E-03     103.690E-03    -53.3560E+06    -96.7991E+06    -22.7480E+06    -13.2169E+06    -51.8104E-03     104.158E-03    -52.3475E-03     42.2242E-03    -51.9425E-03     103.823E-03    -52.2435E-03     41.8551E-03
            1058     5.97987E-03     103.733E-03    -47.4981E+06    -86.3871E+06    -14.3473E+06    -14.4557E+06    -51.6002E-03     103.830E-03    -52.2300E-03     47.5823E-03    -51.7454E-03     103.542E-03    -52.1076E-03     47.1583E-03
            1059     6.83514E-03     103.782E-03    -41.9584E+06    -75.9047E+06    -6.96991E+06    -15.2722E+06    -51.3973E-03     103.499E-03    -52.1015E-03     52.2664E-03    -51.5583E-03     103.262E-03    -51.9654E-03     51.7922E-03
            1060     7.69063E-03     103.834E-03    -36.7848E+06    -64.9652E+06    -179.984E+03    -15.6497E+06    -51.2121E-03     103.181E-03    -51.9684E-03     56.1952E-03    -51.3927E-03     103.000E-03    -51.8218E-03     55.6765E-03
            1061     8.54640E-03     103.889E-03    -31.9791E+06    -52.5105E+06     6.53544E+06    -15.7033E+06    -51.0502E-03     102.887E-03    -51.8364E-03     59.2602E-03    -51.2557E-03     102.773E-03    -51.6812E-03     58.7031E-03
            1062     9.40227E-03     103.946E-03    -27.5537E+06    -40.2925E+06     13.0770E+06    -15.3924E+06    -50.9216E-03     102.633E-03    -51.7117E-03     61.3043E-03    -51.1529E-03     102.586E-03    -51.5479E-03     60.7176E-03
            1063     10.2584E-03     104.004E-03    -23.4736E+06    -27.2495E+06     19.4212E+06    -14.8649E+06    -50.8256E-03     102.422E-03    -51.5964E-03     62.1303E-03    -51.0823E-03     102.442E-03    -51.4257E-03     61.5240E-03
            1064     11.1144E-03     104.062E-03    -19.8267E+06    -15.0810E+06     24.7995E+06    -14.0432E+06    -50.7726E-03     102.265E-03    -51.4928E-03     61.4530E-03    -51.0482E-03     102.345E-03    -51.3182E-03     60.8404E-03
            1065     11.9705E-03     104.119E-03    -16.6834E+06    -620.745E+03     30.2270E+06    -12.9578E+06    -50.7604E-03     102.165E-03    -51.4048E-03     59.0598E-03    -51.0522E-03     102.308E-03    -51.2286E-03     58.4546E-03
            1066     12.8264E-03     104.172E-03    -14.2483E+06     8.98244E+06     32.9810E+06    -12.0879E+06    -50.8482E-03     102.182E-03    -51.3335E-03     54.8370E-03    -51.1400E-03     102.359E-03    -51.1609E-03     54.2442E-03
            1067     13.6822E-03     104.219E-03    -12.2581E+06     33.4898E+06     38.4245E+06    -10.7273E+06    -50.9791E-03     102.259E-03    -51.2795E-03     49.2205E-03    -51.2913E-03     102.535E-03    -51.1182E-03     48.6519E-03
            1068     14.5376E-03     104.261E-03    -10.4487E+06     55.9783E+06     43.2826E+06    -10.0237E+06    -51.2391E-03     102.492E-03    -51.2531E-03     41.9947E-03    -51.5621E-03     102.851E-03    -51.1027E-03     41.4467E-03
            1069     15.3927E-03     104.295E-03    -8.00964E+06     75.0725E+06     47.1940E+06    -9.12412E+06    -51.6252E-03     102.881E-03    -51.2560E-03     32.4650E-03    -51.9486E-03     103.306E-03    -51.1173E-03     31.9311E-03
            1070     16.2472E-03     104.319E-03    -4.39446E+06     93.8660E+06     64.0932E+06    -5.15325E+06    -52.0294E-03     103.381E-03    -51.3514E-03     18.6907E-03    -52.3455E-03     103.829E-03    -51.1607E-03     18.2748E-03
            1071     853.874E-06     104.615E-03    -76.9898E+06    -143.814E+06    -74.9856E+06    -3.27374E+06    -52.4713E-03     104.923E-03    -52.4516E-03     8.67122E-03    -52.5404E-03     104.426E-03    -52.5063E-03     8.59720E-03
            1072     1.70788E-03     104.627E-03    -73.8144E+06    -136.098E+06    -66.4817E+06    -5.93034E+06    -52.3178E-03     104.764E-03    -52.4462E-03     15.7989E-03    -52.3973E-03     104.291E-03    -52.4743E-03     15.6632E-03
            1073     2.56203E-03     104.646E-03    -69.1883E+06    -125.403E+06    -55.0751E+06    -8.38547E+06    -52.1286E-03     104.520E-03    -52.3918E-03     23.0746E-03    -52.2218E-03     104.083E-03    -52.3850E-03     22.8773E-03
            1074     3.41646E-03     104.671E-03    -63.6731E+06    -113.932E+06    -42.8342E+06    -10.5629E+06    -51.8965E-03     104.209E-03    -52.3120E-03     30.0681E-03    -52.0035E-03     103.809E-03    -52.2687E-03     29.8108E-03
            1075     4.27116E-03     104.703E-03    -57.7778E+06    -102.747E+06    -31.4253E+06    -12.4732E+06    -51.6405E-03     103.847E-03    -52.2061E-03     36.6570E-03    -51.7602E-03     103.488E-03    -52.1304E-03     36.3412E-03
            1076     5.12620E-03     104.741E-03    -51.9237E+06    -92.2227E+06    -21.5564E+06    -14.1314E+06    -51.3793E-03     103.457E-03    -52.0774E-03     42.7600E-03    -51.5113E-03     103.139E-03    -51.9761E-03     42.3872E-03
            1077     5.98157E-03     104.784E-03    -46.3170E+06    -82.4809E+06    -13.2355E+06    -15.4242E+06    -51.1319E-03     103.065E-03    -51.9327E-03     48.2934E-03    -51.2767E-03     102.791E-03    -51.8121E-03     47.8668E-03
            1078     6.83722E-03     104.832E-03    -41.0602E+06    -72.7993E+06    -6.04731E+06    -16.2536E+06    -50.9136E-03     102.693E-03    -51.7797E-03     53.1711E-03    -51.0737E-03     102.467E-03    -51.6448E-03     52.6957E-03
            1079     7.69319E-03     104.884E-03    -36.1366E+06    -62.6251E+06     578.152E+03    -16.5891E+06    -50.7371E-03     102.364E-03    -51.6265E-03     57.3014E-03    -50.9163E-03     102.190E-03    -51.4804E-03     56.7835E-03
            1080     8.54931E-03     104.938E-03    -31.5187E+06    -50.7329E+06     7.17857E+06    -16.5154E+06    -50.6059E-03     102.085E-03    -51.4794E-03     60.5673E-03    -50.8097E-03     101.976E-03    -51.3243E-03     60.0136E-03
            1081     9.40567E-03     104.995E-03    -27.1182E+06    -39.2801E+06     13.7035E+06    -16.0634E+06    -50.5320E-03     101.878E-03    -51.3463E-03     62.7970E-03    -50.7604E-03     101.831E-03    -51.1815E-03     62.2160E-03
            1082     10.2620E-03     105.054E-03    -22.9209E+06    -26.4620E+06     20.0864E+06    -15.3499E+06    -50.5157E-03     101.744E-03    -51.2284E-03     63.7912E-03    -50.7688E-03     101.764E-03    -51.0564E-03     63.1929E-03
            1083     11.1184E-03     105.112E-03    -19.0036E+06    -15.3821E+06     25.5009E+06    -14.1577E+06    -50.5796E-03     101.710E-03    -51.1308E-03     63.2406E-03    -50.8489E-03     101.784E-03    -50.9534E-03     62.6399E-03
            1084     11.9746E-03     105.168E-03    -15.5221E+06    -995.226E+03     31.0161E+06    -12.5675E+06    -50.7230E-03     101.779E-03    -51.0562E-03     60.9344E-03    -51.0075E-03     101.915E-03    -50.8772E-03     60.3460E-03
            1085     12.8307E-03     105.221E-03    -12.4388E+06     8.80563E+06     34.3702E+06    -11.1611E+06    -51.0159E-03     102.026E-03    -51.0101E-03     56.7411E-03    -51.2990E-03     102.197E-03    -50.8330E-03     56.1693E-03
            1086     13.6862E-03     105.269E-03    -9.51891E+06     32.3786E+06     40.0836E+06    -9.77214E+06    -51.4071E-03     102.400E-03    -50.9928E-03     51.0704E-03    -51.7061E-03     102.664E-03    -50.8255E-03     50.5196E-03
            1087     14.5414E-03     105.312E-03    -6.35281E+06     57.1740E+06     46.3642E+06    -9.11139E+06    -51.9613E-03     102.977E-03    -51.0157E-03     43.7112E-03    -52.2706E-03     103.332E-03    -50.8576E-03     43.1760E-03
            1088     15.3956E-03     105.347E-03    -3.92789E+06     73.1006E+06     50.7273E+06    -8.11802E+06    -52.7244E-03     103.811E-03    -51.0869E-03     33.9804E-03    -53.0310E-03     104.216E-03    -50.9335E-03     33.4554E-03
            1089     16.2491E-03     105.372E-03    -2.17323E+06     87.5222E+06     63.5567E+06    -4.46249E+06    -53.4913E-03     104.737E-03    -51.2457E-03     19.7307E-03    -53.7877E-03     105.152E-03    -51.0517E-03     19.3155E-03
            1090     854.175E-06     105.668E-03    -75.1840E+06    -136.339E+06    -73.2648E+06    -3.49418E+06    -52.1106E-03     104.211E-03    -52.1005E-03     8.76316E-03    -52.1839E-03     103.746E-03    -52.1601E-03     8.68784E-03
            1091     1.70843E-03     105.679E-03    -72.2603E+06    -129.014E+06    -65.1517E+06    -6.23861E+06    -51.9189E-03     103.999E-03    -52.0799E-03     15.9813E-03    -52.0026E-03     103.557E-03    -52.1138E-03     15.8447E-03
            1092     2.56296E-03     105.698E-03    -67.9344E+06    -118.972E+06    -54.1610E+06    -8.81734E+06    -51.6737E-03     103.677E-03    -52.0038E-03     23.3750E-03    -51.7708E-03     103.268E-03    -52.0036E-03     23.1769E-03
            1093     3.41777E-03     105.723E-03    -62.7751E+06    -108.021E+06    -42.3062E+06    -11.0958E+06    -51.3757E-03     103.273E-03    -51.8969E-03     30.5188E-03    -51.4868E-03     102.900E-03    -51.8608E-03     30.2613E-03
            1094     4.27295E-03     105.754E-03    -57.2632E+06    -97.3881E+06    -31.1226E+06    -13.0872E+06    -51.0569E-03     102.818E-03    -51.7616E-03     37.2926E-03    -51.1811E-03     102.484E-03    -51.6930E-03     36.9778E-03
            1095     5.12850E-03     105.792E-03    -51.7658E+06    -87.4077E+06    -21.3537E+06    -14.7487E+06    -50.7481E-03     102.352E-03    -51.6039E-03     43.6134E-03    -50.8849E-03     102.057E-03    -51.5088E-03     43.2438E-03
            1096     5.98441E-03     105.834E-03    -46.5261E+06    -78.3685E+06    -13.1150E+06    -16.0667E+06    -50.4779E-03     101.911E-03    -51.4330E-03     49.3893E-03    -50.6276E-03     101.655E-03    -51.3175E-03     48.9678E-03
            1097     6.84068E-03     105.882E-03    -41.5553E+06    -69.4921E+06    -6.05733E+06    -16.9531E+06    -50.2644E-03     101.523E-03    -51.2581E-03     54.5240E-03    -50.4290E-03     101.310E-03    -51.1274E-03     54.0548E-03
            1098     7.69717E-03     105.933E-03    -36.8355E+06    -60.1823E+06     382.039E+03    -17.3358E+06    -50.1202E-03     101.209E-03    -51.0888E-03     58.9134E-03    -50.3029E-03     101.046E-03    -50.9462E-03     58.4025E-03
            1099     8.55390E-03     105.987E-03    -32.4337E+06    -49.1154E+06     6.75627E+06    -17.1174E+06    -50.0513E-03     100.984E-03    -50.9324E-03     62.4234E-03    -50.2577E-03     100.881E-03    -50.7804E-03     61.8794E-03
            1100     9.41066E-03     106.044E-03    -28.3927E+06    -38.1491E+06     13.1375E+06    -16.5980E+06    -50.0752E-03     100.873E-03    -50.7983E-03     64.8647E-03    -50.3071E-03     100.831E-03    -50.6361E-03     64.2945E-03
            1101     10.2675E-03     106.102E-03    -24.5720E+06    -25.8987E+06     19.3110E+06    -15.8290E+06    -50.2013E-03     100.890E-03    -50.6889E-03     66.0189E-03    -50.4589E-03     100.913E-03    -50.5192E-03     65.4312E-03
            1102     11.1241E-03     106.160E-03    -20.9314E+06    -15.9397E+06     24.5192E+06    -14.5312E+06    -50.4631E-03     101.075E-03    -50.6120E-03     65.5555E-03    -50.7370E-03     101.147E-03    -50.4360E-03     64.9646E-03
            1103     11.9805E-03     106.217E-03    -17.2605E+06    -1.78708E+06     30.0242E+06    -12.8779E+06    -50.8589E-03     101.429E-03    -50.5703E-03     63.2588E-03    -51.1476E-03     101.563E-03    -50.3926E-03     62.6779E-03
            1104     12.8363E-03     106.271E-03    -13.6247E+06     8.13643E+06     33.8005E+06    -11.3479E+06    -51.4544E-03     102.027E-03    -50.5725E-03     59.0030E-03    -51.7409E-03     102.196E-03    -50.3956E-03     58.4362E-03
            1105     13.6916E-03     106.320E-03    -10.0055E+06     31.7048E+06     40.0809E+06    -10.0590E+06    -52.1953E-03     102.814E-03    -50.6189E-03     53.1775E-03    -52.4962E-03     103.076E-03    -50.4499E-03     52.6251E-03
            1106     14.5457E-03     106.363E-03    -7.05166E+06     57.1264E+06     46.4504E+06    -8.77140E+06    -53.1059E-03     103.824E-03    -50.7177E-03     45.5887E-03    -53.4204E-03     104.181E-03    -50.5580E-03     45.0541E-03
            1107     15.3991E-03     106.400E-03    -5.10187E+06     70.2455E+06     50.0089E+06    -6.31427E+06    -54.2198E-03     105.097E-03    -50.8773E-03     35.6602E-03    -54.5293E-03     105.493E-03    -50.7217E-03     35.1499E-03
            1108     16.2510E-03     106.426E-03    -3.13057E+06     82.5262E+06     61.9063E+06    -2.86257E+06    -55.2837E-03     106.414E-03    -51.1303E-03     20.9596E-03    -55.5772E-03     106.810E-03    -50.9359E-03     20.5534E-03
            1109     854.644E-06     106.719E-03    -74.2495E+06    -128.575E+06    -72.4148E+06    -3.57206E+06    -51.4710E-03     102.942E-03    -51.4711E-03     8.91483E-03    -51.5520E-03     102.513E-03    -51.5390E-03     8.84081E-03
            1110     1.70950E-03     106.730E-03    -71.5893E+06    -121.754E+06    -64.7635E+06    -6.33100E+06    -51.2400E-03     102.674E-03    -51.4343E-03     16.2765E-03    -51.3312E-03     102.267E-03    -51.4778E-03     16.1431E-03
            1111     2.56456E-03     106.749E-03    -67.6845E+06    -112.308E+06    -54.2662E+06    -8.92935E+06    -50.9393E-03     102.275E-03    -51.3357E-03     23.8496E-03    -51.0443E-03     101.898E-03    -51.3460E-03     23.6567E-03
            1112     3.42003E-03     106.773E-03    -63.0055E+06    -101.946E+06    -42.8028E+06    -11.2316E+06    -50.5813E-03     101.784E-03    -51.2023E-03     31.2108E-03    -50.7007E-03     101.441E-03    -51.1771E-03     30.9609E-03
            1113     4.27589E-03     106.804E-03    -57.9923E+06    -91.8384E+06    -31.8706E+06    -13.2378E+06    -50.2113E-03     101.251E-03    -51.0394E-03     38.2415E-03    -50.3446E-03     100.944E-03    -50.9815E-03     37.9367E-03
            1114     5.13218E-03     106.841E-03    -52.9829E+06    -82.5443E+06    -22.2556E+06    -14.9035E+06    -49.8732E-03     100.729E-03    -50.8562E-03     44.8525E-03    -50.0197E-03     100.459E-03    -50.7709E-03     44.4956E-03
            1115     5.98887E-03     106.883E-03    -48.2237E+06    -74.1464E+06    -14.1281E+06    -16.1561E+06    -49.6028E-03     100.267E-03    -50.6641E-03     50.9416E-03    -49.7627E-03     100.033E-03    -50.5573E-03     50.5360E-03
            1116     6.84587E-03     106.930E-03    -43.8732E+06    -65.9753E+06    -7.29917E+06    -17.0801E+06    -49.4237E-03     99.8979E-03    -50.4742E-03     56.3960E-03    -49.5996E-03     99.7050E-03    -50.3514E-03     55.9443E-03
            1117     7.70314E-03     106.981E-03    -39.8656E+06    -57.5592E+06    -1.26539E+06    -17.5489E+06    -49.3551E-03     99.6528E-03    -50.2978E-03     61.0892E-03    -49.5504E-03     99.5059E-03    -50.1628E-03     60.5961E-03
            1118     8.56047E-03     107.035E-03    -36.0672E+06    -47.6205E+06     4.66269E+06    -17.3364E+06    -49.4134E-03     99.5582E-03    -50.1449E-03     64.8560E-03    -49.6329E-03     99.4671E-03    -50.0002E-03     64.3302E-03
            1119     9.41789E-03     107.092E-03    -32.3340E+06    -36.7938E+06     10.9635E+06    -16.8110E+06    -49.6220E-03     99.6489E-03    -50.0268E-03     67.4822E-03    -49.8684E-03     99.6180E-03    -49.8718E-03     66.9292E-03
            1120     10.2750E-03     107.150E-03    -28.6687E+06    -25.4143E+06     17.0640E+06    -16.0695E+06    -50.0003E-03     99.9498E-03    -49.9495E-03     68.7221E-03    -50.2723E-03     99.9803E-03    -49.7858E-03     68.1488E-03
            1121     11.1319E-03     107.209E-03    -24.9959E+06    -16.2835E+06     22.1570E+06    -14.8905E+06    -50.5740E-03     100.495E-03    -49.9207E-03     68.2553E-03    -50.8620E-03     100.572E-03    -49.7500E-03     67.6735E-03
            1122     11.9880E-03     107.266E-03    -21.1781E+06    -2.23380E+06     27.5357E+06    -13.6755E+06    -51.3272E-03     101.270E-03    -49.9430E-03     65.8743E-03    -51.6301E-03     101.410E-03    -49.7713E-03     65.2917E-03
            1123     12.8435E-03     107.321E-03    -17.1674E+06     7.18629E+06     31.3939E+06    -12.2795E+06    -52.3059E-03     102.333E-03    -50.0267E-03     61.4798E-03    -52.6055E-03     102.506E-03    -49.8553E-03     60.9039E-03
            1124     13.6977E-03     107.371E-03    -13.4579E+06     31.1370E+06     38.0108E+06    -10.7147E+06    -53.4315E-03     103.601E-03    -50.1693E-03     55.4805E-03    -53.7474E-03     103.869E-03    -50.0049E-03     54.9166E-03
            1125     14.5509E-03     107.416E-03    -10.1375E+06     54.9422E+06     43.9886E+06    -8.37022E+06    -54.6923E-03     105.066E-03    -50.3741E-03     47.6521E-03    -55.0181E-03     105.424E-03    -50.2192E-03     47.1138E-03
            1126     15.4025E-03     107.454E-03    -7.22432E+06     66.6710E+06     47.4363E+06    -5.25664E+06    -56.0591E-03     106.704E-03    -50.6453E-03     37.5815E-03    -56.3734E-03     107.092E-03    -50.4943E-03     37.0719E-03
            1127     16.2530E-03     107.483E-03    -3.84730E+06     79.1847E+06     60.5406E+06    -2.60169E+06    -57.2643E-03     108.277E-03    -51.0125E-03     22.4676E-03    -57.5569E-03     108.661E-03    -50.8190E-03     22.0508E-03
            1128     855.512E-06     107.769E-03    -74.6947E+06    -120.858E+06    -72.9602E+06    -3.47991E+06    -50.4540E-03     100.916E-03    -50.4618E-03     9.14070E-03    -50.5476E-03     100.527E-03    -50.5431E-03     9.07099E-03
            1129     1.71114E-03     107.780E-03    -72.3959E+06    -114.542E+06    -65.8433E+06    -6.17067E+06    -50.1898E-03     100.601E-03    -50.4112E-03     16.7108E-03    -50.2937E-03     100.232E-03    -50.4694E-03     16.5852E-03
            1130     2.56715E-03     107.798E-03    -68.9056E+06    -105.751E+06    -55.8776E+06    -8.66237E+06    -49.8460E-03     100.140E-03    -50.2936E-03     24.5335E-03    -49.9635E-03     99.7990E-03    -50.3197E-03     24.3528E-03
            1131     3.42351E-03     107.822E-03    -64.7679E+06    -95.9458E+06    -44.7802E+06    -10.8284E+06    -49.4477E-03     99.5872E-03    -50.1395E-03     32.1844E-03    -49.5805E-03     99.2792E-03    -50.1303E-03     31.9516E-03
            1132     4.28037E-03     107.852E-03    -60.4108E+06    -86.3999E+06    -34.1139E+06    -12.7014E+06    -49.0531E-03     99.0102E-03    -49.9570E-03     39.5437E-03    -49.2012E-03     98.7359E-03    -49.9147E-03     39.2609E-03
            1133     5.13766E-03     107.888E-03    -56.2222E+06    -77.7954E+06    -24.7570E+06    -14.1986E+06    -48.7175E-03     98.4758E-03    -49.7583E-03     46.5133E-03    -48.8807E-03     98.2349E-03    -49.6878E-03     46.1835E-03
            1134     5.99533E-03     107.929E-03    -52.3263E+06    -69.9594E+06    -16.8828E+06    -15.4127E+06    -48.4872E-03     98.0442E-03    -49.5570E-03     52.9734E-03    -48.6663E-03     97.8380E-03    -49.4641E-03     52.5981E-03
            1135     6.85332E-03     107.976E-03    -48.6549E+06    -62.3637E+06    -10.1808E+06    -16.3373E+06    -48.4026E-03     97.7703E-03    -49.3678E-03     58.7820E-03    -48.5993E-03     97.6024E-03    -49.2577E-03     58.3625E-03
            1136     7.71143E-03     108.026E-03    -45.1829E+06    -54.7078E+06    -4.24947E+06    -16.9389E+06    -48.4992E-03     97.7045E-03    -49.2053E-03     63.7775E-03    -48.7162E-03     97.5792E-03    -49.0817E-03     63.3157E-03
            1137     8.56957E-03     108.081E-03    -41.6279E+06    -45.7662E+06     1.52009E+06    -17.1296E+06    -48.7994E-03     97.8819E-03    -49.0825E-03     67.7641E-03    -49.0402E-03     97.8080E-03    -48.9482E-03     67.2636E-03
            1138     9.42738E-03     108.138E-03    -37.8851E+06    -35.3690E+06     7.68321E+06    -16.8674E+06    -49.3200E-03     98.3325E-03    -49.0124E-03     70.5057E-03    -49.5874E-03     98.3174E-03    -48.8678E-03     69.9720E-03
            1139     10.2848E-03     108.197E-03    -34.0656E+06    -24.7386E+06     13.7751E+06    -16.2369E+06    -50.0729E-03     99.0767E-03    -49.0038E-03     71.7507E-03    -50.3651E-03     99.1203E-03    -48.8497E-03     71.1909E-03
            1140     11.1414E-03     108.256E-03    -29.9015E+06    -15.7802E+06     18.9231E+06    -15.7455E+06    -51.0586E-03     100.121E-03    -49.0622E-03     71.2144E-03    -51.3657E-03     100.211E-03    -48.9014E-03     70.6314E-03
            1141     11.9972E-03     108.315E-03    -25.2945E+06    -2.38429E+06     24.3126E+06    -14.9295E+06    -52.2365E-03     101.425E-03    -49.1890E-03     68.7084E-03    -52.5553E-03     101.576E-03    -49.0273E-03     68.1133E-03
            1142     12.8515E-03     108.371E-03    -20.7831E+06     6.40415E+06     28.3022E+06    -13.6763E+06    -53.6193E-03     103.011E-03    -49.3920E-03     64.1705E-03    -53.9332E-03     103.192E-03    -49.2296E-03     63.5742E-03
            1143     13.7047E-03     108.423E-03    -16.0672E+06     30.1370E+06     35.2058E+06    -12.0874E+06    -55.0921E-03     104.754E-03    -49.6622E-03     58.0402E-03    -55.4185E-03     105.029E-03    -49.5066E-03     57.4506E-03
            1144     14.5561E-03     108.470E-03    -11.3912E+06     51.2652E+06     41.0878E+06    -9.23005E+06    -56.6330E-03     106.632E-03    -49.9993E-03     50.0163E-03    -56.9593E-03     106.981E-03    -49.8517E-03     49.4538E-03
            1145     15.4063E-03     108.510E-03    -7.12841E+06     63.1343E+06     45.5159E+06    -5.76814E+06    -58.1545E-03     108.556E-03    -50.4019E-03     39.7861E-03    -58.4643E-03     108.933E-03    -50.2555E-03     39.2540E-03
            1146     16.2547E-03     108.541E-03    -3.50226E+06     76.3741E+06     60.0729E+06    -2.89258E+06    -59.3638E-03     110.259E-03    -50.8951E-03     24.1917E-03    -59.6527E-03     110.632E-03    -50.7004E-03     23.7555E-03
            1147     856.700E-06     108.817E-03    -77.2089E+06    -113.492E+06    -75.6081E+06    -3.28009E+06    -48.9584E-03     97.9265E-03    -48.9681E-03     9.45015E-03    -49.0713E-03     97.5815E-03    -49.0696E-03     9.38691E-03
            1148     1.71367E-03     108.827E-03    -75.2427E+06    -107.791E+06    -69.0591E+06    -5.67880E+06    -48.6795E-03     97.5899E-03    -48.9105E-03     17.2969E-03    -48.8023E-03     97.2630E-03    -48.9904E-03     17.1849E-03
            1149     2.57089E-03     108.844E-03    -72.4295E+06    -99.6393E+06    -59.7640E+06    -7.87422E+06    -48.3220E-03     97.1057E-03    -48.7837E-03     25.4395E-03    -48.4595E-03     96.8055E-03    -48.8331E-03     25.2797E-03
            1150     3.42859E-03     108.867E-03    -69.0359E+06    -90.4466E+06    -49.1762E+06    -9.73973E+06    -47.9215E-03     96.5437E-03    -48.6222E-03     33.4461E-03    -48.0758E-03     96.2742E-03    -48.6368E-03     33.2416E-03
            1151     4.28672E-03     108.897E-03    -65.4807E+06    -81.4625E+06    -38.6714E+06    -11.2570E+06    -47.5503E-03     95.9881E-03    -48.4377E-03     41.1903E-03    -47.7220E-03     95.7500E-03    -48.4180E-03     40.9439E-03
            1152     5.14530E-03     108.932E-03    -61.9227E+06    -73.3647E+06    -29.1806E+06    -12.5820E+06    -47.2795E-03     95.5246E-03    -48.2451E-03     48.5588E-03    -47.4680E-03     95.3172E-03    -48.1948E-03     48.2707E-03
            1153     6.00421E-03     108.973E-03    -58.3898E+06    -65.8004E+06    -20.9721E+06    -13.8338E+06    -47.1735E-03     95.2344E-03    -48.0609E-03     55.4056E-03    -47.3790E-03     95.0596E-03    -47.9857E-03     55.0738E-03
            1154     6.86329E-03     109.020E-03    -54.8890E+06    -58.7159E+06    -13.9283E+06    -14.9843E+06    -47.2923E-03     95.1961E-03    -47.9038E-03     61.5564E-03    -47.5153E-03     95.0561E-03    -47.8088E-03     61.1788E-03
            1155     7.72236E-03     109.070E-03    -51.1747E+06    -51.3563E+06    -7.66625E+06    -16.0550E+06    -47.6802E-03     95.4719E-03    -47.7917E-03     66.8243E-03    -47.9222E-03     95.3720E-03    -47.6814E-03     66.3981E-03
            1156     8.58106E-03     109.125E-03    -47.1495E+06    -43.1996E+06    -1.81223E+06    -16.9168E+06    -48.3571E-03     96.0975E-03    -47.7403E-03     70.9882E-03    -48.6199E-03     96.0447E-03    -47.6184E-03     70.5123E-03
            1157     9.43926E-03     109.183E-03    -42.8190E+06    -33.7328E+06     4.20250E+06    -17.1322E+06    -49.3164E-03     97.0797E-03    -47.7633E-03     73.8048E-03    -49.6021E-03     97.0815E-03    -47.6313E-03     73.2853E-03
            1158     10.2965E-03     109.243E-03    -37.9357E+06    -23.3041E+06     10.5818E+06    -17.1799E+06    -50.5321E-03     98.4013E-03    -47.8692E-03     75.0337E-03    -50.8392E-03     98.4604E-03    -47.7275E-03     74.4734E-03
            1159     11.1527E-03     109.303E-03    -32.8388E+06    -14.5973E+06     16.0451E+06    -17.1073E+06    -51.9795E-03     100.039E-03    -48.0598E-03     74.4290E-03    -52.2988E-03     100.144E-03    -47.9108E-03     73.8335E-03
            1160     12.0073E-03     109.364E-03    -27.7862E+06    -1.87849E+06     21.6797E+06    -16.8504E+06    -53.5889E-03     101.921E-03    -48.3326E-03     71.8216E-03    -53.9190E-03     102.084E-03    -48.1812E-03     71.2000E-03
            1161     12.8607E-03     109.422E-03    -22.1380E+06     5.97829E+06     26.0626E+06    -16.1493E+06    -55.3396E-03     104.029E-03    -48.6890E-03     67.1769E-03    -55.6597E-03     104.216E-03    -48.5353E-03     66.5409E-03
            1162     13.7120E-03     109.476E-03    -16.7839E+06     28.5839E+06     33.1520E+06    -14.2749E+06    -57.0935E-03     106.207E-03    -49.1140E-03     60.9221E-03    -57.4224E-03     106.482E-03    -48.9654E-03     60.2916E-03
            1163     14.5620E-03     109.526E-03    -12.0749E+06     47.1545E+06     38.7733E+06    -11.0620E+06    -58.8287E-03     108.432E-03    -49.6030E-03     52.6895E-03    -59.1537E-03     108.769E-03    -49.4600E-03     52.0869E-03
            1164     15.4099E-03     109.568E-03    -7.92825E+06     59.0072E+06     43.2943E+06    -7.09545E+06    -60.4187E-03     110.566E-03    -50.1472E-03     42.2005E-03    -60.7277E-03     110.931E-03    -50.0048E-03     41.6326E-03
            1165     16.2568E-03     109.601E-03    -3.91945E+06     72.9593E+06     59.1507E+06    -3.44979E+06    -61.5665E-03     112.339E-03    -50.7729E-03     26.0110E-03    -61.8544E-03     112.701E-03    -50.5773E-03     25.5496E-03
            1166     858.494E-06     109.860E-03    -83.7643E+06    -106.867E+06    -82.1539E+06    -2.78263E+06    -46.8973E-03     93.7956E-03    -46.8984E-03     9.84189E-03    -47.0430E-03     93.5025E-03    -47.0327E-03     9.78959E-03
            1167     1.71709E-03     109.870E-03    -82.2120E+06    -101.800E+06    -76.2271E+06    -4.94350E+06    -46.6392E-03     93.4868E-03    -46.8476E-03     18.0251E-03    -46.7948E-03     93.2097E-03    -46.9619E-03     17.9308E-03
            1168     2.57610E-03     109.887E-03    -79.6194E+06    -94.4036E+06    -67.2627E+06    -6.71045E+06    -46.3219E-03     93.0541E-03    -46.7322E-03     26.5409E-03    -46.4911E-03     92.8002E-03    -46.8162E-03     26.4082E-03
            1169     3.43543E-03     109.910E-03    -76.4912E+06    -85.7459E+06    -56.4504E+06    -8.15158E+06    -45.9896E-03     92.5804E-03    -46.5908E-03     34.9411E-03    -46.1757E-03     92.3539E-03    -46.6378E-03     34.7729E-03
            1170     4.29522E-03     109.939E-03    -72.8313E+06    -77.1585E+06    -45.1621E+06    -9.48721E+06    -45.7294E-03     92.1669E-03    -46.4376E-03     43.0888E-03    -45.9320E-03     91.9677E-03    -46.4459E-03     42.8844E-03
            1171     5.15531E-03     109.974E-03    -68.7639E+06    -69.1750E+06    -34.5597E+06    -10.8575E+06    -45.6311E-03     91.9204E-03    -46.2893E-03     50.8531E-03    -45.8486E-03     91.7481E-03    -46.2621E-03     50.6090E-03
            1172     6.01559E-03     110.014E-03    -64.4753E+06    -61.7044E+06    -25.2809E+06    -12.3155E+06    -45.7770E-03     91.9424E-03    -46.1654E-03     58.0655E-03    -46.0082E-03     91.7987E-03    -46.1089E-03     57.7769E-03
            1173     6.87582E-03     110.061E-03    -59.9001E+06    -54.5842E+06    -17.3827E+06    -13.9830E+06    -46.2319E-03     92.3191E-03    -46.0872E-03     64.5371E-03    -46.4761E-03     92.2071E-03    -46.0081E-03     64.1963E-03
            1174     7.73566E-03     110.112E-03    -55.0445E+06    -47.3607E+06    -10.5959E+06    -15.7755E+06    -47.0349E-03     93.1094E-03    -46.0746E-03     70.0690E-03    -47.2929E-03     93.0345E-03    -45.9790E-03     69.6689E-03
            1175     8.59488E-03     110.167E-03    -49.8090E+06    -39.6183E+06    -4.30967E+06    -17.4556E+06    -48.1918E-03     94.3370E-03    -46.1452E-03     74.4248E-03    -48.4653E-03     94.3055E-03    -46.0371E-03     73.9613E-03
            1176     9.45297E-03     110.226E-03    -44.0519E+06    -31.5647E+06     1.86595E+06    -18.4871E+06    -49.6658E-03     95.9770E-03    -46.3112E-03     77.3533E-03    -49.9548E-03     95.9922E-03    -46.1922E-03     76.8305E-03
            1177     10.3099E-03     110.288E-03    -38.4856E+06    -21.2266E+06     8.52402E+06    -18.7218E+06    -51.3832E-03     97.9601E-03    -46.5769E-03     78.6138E-03    -51.6924E-03     98.0328E-03    -46.4477E-03     78.0412E-03
            1178     11.1651E-03     110.351E-03    -33.0911E+06    -12.8281E+06     14.5136E+06    -19.0846E+06    -53.2934E-03     100.235E-03    -46.9413E-03     77.9861E-03    -53.6158E-03     100.352E-03    -46.8022E-03     77.3655E-03
            1179     12.0187E-03     110.414E-03    -27.7039E+06    -918.298E+03     20.4949E+06    -18.8935E+06    -55.3066E-03     102.701E-03    -47.3939E-03     75.3168E-03    -55.6394E-03     102.873E-03    -47.2500E-03     74.6625E-03
            1180     12.8702E-03     110.474E-03    -22.9837E+06     6.77505E+06     25.0084E+06    -18.7286E+06    -57.3790E-03     105.310E-03    -47.9308E-03     70.5612E-03    -57.7077E-03     105.509E-03    -47.7823E-03     69.8799E-03
            1181     13.7201E-03     110.531E-03    -17.4287E+06     26.5856E+06     31.8317E+06    -17.5076E+06    -59.3658E-03     107.898E-03    -48.5320E-03     64.1349E-03    -59.6986E-03     108.171E-03    -48.3861E-03     63.4462E-03
            1182     14.5678E-03     110.584E-03    -11.7717E+06     41.9682E+06     37.0897E+06    -13.2667E+06    -61.2283E-03     110.415E-03    -49.1867E-03     55.6331E-03    -61.5474E-03     110.734E-03    -49.0451E-03     54.9824E-03
            1183     15.4142E-03     110.628E-03    -7.46603E+06     54.1983E+06     42.3099E+06    -8.25612E+06    -62.8311E-03     112.716E-03    -49.8845E-03     44.7786E-03    -63.1345E-03     113.062E-03    -49.7408E-03     44.1746E-03
            1184     16.2587E-03     110.664E-03    -3.89251E+06     68.7506E+06     59.0469E+06    -4.14329E+06    -63.8681E-03     114.516E-03    -50.6483E-03     27.8767E-03    -64.1531E-03     114.861E-03    -50.4471E-03     27.3866E-03
            1185     860.711E-06     110.899E-03    -96.6045E+06    -101.298E+06    -95.0663E+06    -2.32017E+06    -44.2357E-03     88.4486E-03    -44.2129E-03     10.2883E-03    -44.4349E-03     88.2203E-03    -44.4012E-03     10.2467E-03
            1186     1.72165E-03     110.909E-03    -94.7401E+06      -96.42E+06    -88.6227E+06    -4.26498E+06    -44.0546E-03     88.2474E-03    -44.1928E-03     18.8436E-03    -44.2622E-03     88.0327E-03    -44.3588E-03     18.7666E-03
            1187     2.58273E-03     110.925E-03    -91.4673E+06    -89.7061E+06    -78.7719E+06    -6.20944E+06    -43.8634E-03     87.9866E-03    -44.1232E-03     27.7520E-03    -44.0809E-03     87.7887E-03    -44.2543E-03     27.6380E-03
            1188     3.44418E-03     110.947E-03    -86.6409E+06    -81.6580E+06    -66.2754E+06    -7.69436E+06    -43.7091E-03     87.7536E-03    -44.0445E-03     36.5435E-03    -43.9358E-03     87.5745E-03    -44.1318E-03     36.3969E-03
            1189     4.30580E-03     110.976E-03    -80.9307E+06    -73.0948E+06    -52.8350E+06    -9.07103E+06    -43.6886E-03     87.6597E-03    -43.9711E-03     45.0742E-03    -43.9237E-03     87.5008E-03    -44.0119E-03     44.8937E-03
            1190     5.16760E-03     111.011E-03    -74.7132E+06    -65.0117E+06    -40.2422E+06    -10.6605E+06    -43.9012E-03     87.8212E-03    -43.9200E-03     53.2059E-03    -44.1426E-03     87.6829E-03    -43.9186E-03     52.9851E-03
            1191     6.02925E-03     111.052E-03    -68.0985E+06    -57.3013E+06    -29.3540E+06    -12.5423E+06    -44.4289E-03     88.3398E-03    -43.9110E-03     60.7671E-03    -44.6744E-03     88.2250E-03    -43.8759E-03     60.4972E-03
            1192     6.89050E-03     111.099E-03    -61.4403E+06    -49.9802E+06    -20.2155E+06    -14.6150E+06    -45.3275E-03     89.2940E-03    -43.9665E-03     67.5669E-03    -45.5773E-03     89.2068E-03    -43.9060E-03     67.2394E-03
            1193     7.75103E-03     111.151E-03    -54.9858E+06    -42.6565E+06    -12.3877E+06    -16.8013E+06    -46.6205E-03     90.7275E-03    -44.1070E-03     73.4051E-03    -46.8781E-03     90.6743E-03    -44.0273E-03     73.0116E-03
            1194     8.61037E-03     111.208E-03    -48.8611E+06    -35.1841E+06    -5.45907E+06    -18.9543E+06    -48.2927E-03     92.6404E-03    -44.3477E-03     78.0404E-03    -48.5626E-03     92.6279E-03    -44.2531E-03     77.5741E-03
            1195     9.46834E-03     111.269E-03    -43.0495E+06    -28.3219E+06     799.189E+03    -20.6208E+06    -50.2960E-03     94.9941E-03    -44.6981E-03     81.1914E-03    -50.5813E-03     95.0238E-03    -44.5906E-03     80.6525E-03
            1196     10.3244E-03     111.333E-03    -37.0535E+06    -19.5986E+06     7.43043E+06    -20.9487E+06    -52.5304E-03     97.6896E-03    -45.1593E-03     82.5765E-03    -52.8336E-03     97.7705E-03    -45.0400E-03     81.9797E-03
            1197     11.1787E-03     111.399E-03    -31.7518E+06    -10.4416E+06     14.2796E+06    -20.7346E+06    -54.8943E-03     100.622E-03    -45.7274E-03     81.9800E-03    -55.2161E-03     100.753E-03    -45.5948E-03     81.3351E-03
            1198     12.0307E-03     111.464E-03    -26.9257E+06     529.659E+03     20.4636E+06    -21.0938E+06    -57.2942E-03     103.679E-03    -46.3849E-03     79.2702E-03    -57.6301E-03     103.862E-03    -46.2443E-03     78.5774E-03
            1199     12.8808E-03     111.528E-03    -21.7757E+06     7.62145E+06     25.3939E+06    -20.5049E+06    -59.6678E-03     106.790E-03    -47.1220E-03     74.3858E-03    -59.9983E-03     106.997E-03    -46.9745E-03     73.6660E-03
            1200     13.7283E-03     111.588E-03    -17.7275E+06     26.4815E+06     31.8175E+06    -19.8492E+06    -61.8450E-03     109.759E-03    -47.9141E-03     67.7464E-03    -62.1855E-03     110.039E-03    -47.7677E-03     67.0083E-03
            1201     14.5744E-03     111.644E-03    -12.8283E+06     35.4422E+06     35.1724E+06    -16.8149E+06    -63.7863E-03     112.532E-03    -48.7458E-03     58.9224E-03    -64.1045E-03     112.829E-03    -48.6027E-03     58.2045E-03
            1202     15.4182E-03     111.691E-03    -7.14935E+06     47.4785E+06     39.9829E+06    -10.1190E+06    -65.3483E-03     114.947E-03    -49.5984E-03     47.6619E-03    -65.6421E-03     115.268E-03    -49.4569E-03     47.0129E-03
            1203     16.2611E-03     111.729E-03    -2.71813E+06     64.0878E+06     57.9160E+06    -4.48173E+06    -66.3229E-03     116.827E-03    -50.5045E-03     29.9553E-03    -66.5970E-03     117.152E-03    -50.3039E-03     29.4410E-03
            1204     863.556E-06     111.932E-03    -117.801E+06    -95.3567E+06    -116.538E+06    -3.18089E+06    -41.0406E-03     82.0200E-03    -40.9794E-03     10.7266E-03    -41.3232E-03     81.8830E-03    -41.2530E-03     10.6781E-03
            1205     1.72707E-03     111.942E-03    -113.602E+06    -90.6847E+06    -107.651E+06    -5.63868E+06    -41.0062E-03     82.0232E-03    -41.0170E-03     19.6392E-03    -41.2883E-03     81.8915E-03    -41.2591E-03     19.5522E-03
            1206     2.59077E-03     111.957E-03    -107.106E+06    -83.8978E+06    -94.3373E+06    -8.36209E+06    -41.0481E-03     82.0829E-03    -41.0349E-03     28.9161E-03    -41.3286E-03     81.9582E-03    -41.2296E-03     28.7853E-03
            1207     3.45444E-03     111.980E-03    -98.6685E+06    -76.8010E+06    -78.6701E+06    -10.9281E+06    -41.2042E-03     82.2732E-03    -41.0690E-03     38.0656E-03    -41.4783E-03     82.1519E-03    -41.2079E-03     37.8911E-03
            1208     4.31817E-03     112.008E-03    -88.8042E+06    -68.8918E+06    -62.2993E+06    -12.5554E+06    -41.5600E-03     82.6892E-03    -41.1293E-03     46.9416E-03    -41.8243E-03     82.5739E-03    -41.2121E-03     46.7324E-03
            1209     5.18159E-03     112.044E-03    -78.6776E+06    -60.4189E+06    -46.9135E+06    -14.1104E+06    -42.2019E-03     83.4326E-03    -41.2307E-03     55.4190E-03    -42.4568E-03     83.3294E-03    -41.2636E-03     55.1714E-03
            1210     6.04458E-03     112.085E-03    -69.1235E+06    -52.7369E+06    -33.8522E+06    -15.8187E+06    -43.1974E-03     84.5889E-03    -41.3914E-03     63.3367E-03    -43.4443E-03     84.5010E-03    -41.3840E-03     63.0431E-03
            1211     6.90675E-03     112.133E-03    -60.4682E+06    -45.2000E+06    -22.9875E+06    -17.5573E+06    -44.5847E-03     86.2152E-03    -41.6304E-03     70.5127E-03    -44.8286E-03     86.1504E-03    -41.5922E-03     70.1656E-03
            1212     7.76772E-03     112.187E-03    -52.8481E+06    -37.9087E+06    -13.8432E+06    -19.3277E+06    -46.3748E-03     88.3403E-03    -41.9655E-03     76.7491E-03    -46.6226E-03     88.3060E-03    -41.9031E-03     76.3401E-03
            1213     8.62723E-03     112.247E-03    -46.3219E+06    -30.5411E+06    -5.84411E+06    -20.9652E+06    -48.5532E-03     90.9629E-03    -42.4097E-03     81.7835E-03    -48.8135E-03     90.9675E-03    -42.3275E-03     81.3058E-03
            1214     9.48478E-03     112.311E-03    -40.3979E+06    -24.0183E+06     1.31893E+06    -22.7586E+06    -51.0730E-03     94.0441E-03    -42.9711E-03     85.2984E-03    -51.3505E-03     94.0894E-03    -42.8712E-03     84.7420E-03
            1215     10.3402E-03     112.378E-03    -34.4693E+06    -17.5659E+06     7.89266E+06    -23.8679E+06    -53.8267E-03     97.4749E-03    -43.6482E-03     86.9479E-03    -54.1216E-03     97.5626E-03    -43.5333E-03     86.3169E-03
            1216     11.1932E-03     112.447E-03    -27.9226E+06    -9.29189E+06     15.1753E+06    -23.2718E+06    -56.6608E-03     101.095E-03    -44.4345E-03     86.4593E-03    -56.9701E-03     101.229E-03    -44.3046E-03     85.7770E-03
            1217     12.0438E-03     112.516E-03    -22.4067E+06     2.73734E+06     22.6867E+06    -22.4312E+06    -59.4441E-03     104.755E-03    -45.3114E-03     83.7554E-03    -59.7697E-03     104.946E-03    -45.1694E-03     83.0336E-03
            1218     12.8917E-03     112.583E-03    -18.6858E+06     7.42964E+06     26.9315E+06    -21.7595E+06    -62.1093E-03     108.369E-03    -46.2601E-03     78.7620E-03    -62.4333E-03     108.576E-03    -46.1091E-03     78.0092E-03
            1219     13.7377E-03     112.647E-03    -15.8877E+06     26.1085E+06     33.1726E+06    -19.1432E+06    -64.4620E-03     111.714E-03    -47.2524E-03     71.8441E-03    -64.8016E-03     111.995E-03    -47.1013E-03     71.0956E-03
            1220     14.5811E-03     112.706E-03    -14.4123E+06     33.6286E+06     35.5321E+06    -18.0862E+06    -66.4857E-03     114.757E-03    -48.2713E-03     62.6080E-03    -66.8159E-03     115.053E-03    -48.1215E-03     61.8526E-03
            1221     15.4232E-03     112.756E-03    -9.12395E+06     38.7187E+06     37.1339E+06    -14.6379E+06    -68.0522E-03     117.340E-03    -49.2873E-03     50.7648E-03    -68.3443E-03     117.629E-03    -49.1446E-03     50.0354E-03
            1222     16.2636E-03     112.796E-03    -2.69122E+06     55.6695E+06     55.9419E+06    -5.86880E+06    -68.9770E-03     119.323E-03    -50.3459E-03     32.1724E-03    -69.2396E-03     119.612E-03    -50.1430E-03     31.6171E-03
            1223     866.559E-06     112.957E-03    -132.834E+06    -86.5388E+06    -131.496E+06    -5.02181E+06    -37.5789E-03     75.0539E-03    -37.4751E-03     11.0376E-03    -37.9277E-03     75.0043E-03    -37.8145E-03     10.9686E-03
            1224     1.73316E-03     112.967E-03    -128.325E+06    -82.3074E+06    -122.890E+06    -9.16231E+06    -37.7369E-03     75.3109E-03    -37.5740E-03     20.2109E-03    -38.0823E-03     75.2640E-03    -37.8830E-03     20.0841E-03
            1225     2.59950E-03     112.983E-03    -121.054E+06    -75.3642E+06    -109.381E+06    -13.3634E+06    -38.0738E-03     75.7656E-03    -37.6918E-03     29.7721E-03    -38.4137E-03     75.7246E-03    -37.9539E-03     29.5851E-03
            1226     3.46570E-03     113.006E-03    -111.431E+06    -69.1160E+06    -92.3518E+06    -17.3564E+06    -38.6249E-03     76.4908E-03    -37.8659E-03     39.2188E-03    -38.9526E-03     76.4447E-03    -38.0658E-03     38.9717E-03
            1227     4.33136E-03     113.035E-03    -99.6891E+06    -62.7964E+06    -74.6647E+06    -20.6150E+06    -39.4347E-03     77.5289E-03    -38.0942E-03     48.4184E-03    -39.7422E-03     77.4756E-03    -38.2319E-03     48.1172E-03
            1228     5.19650E-03     113.072E-03    -86.4062E+06    -55.1982E+06    -57.4024E+06    -22.5251E+06    -40.5570E-03     78.9402E-03    -38.3832E-03     57.2497E-03    -40.8402E-03     78.8868E-03    -38.4649E-03     56.9070E-03
            1229     6.06069E-03     113.115E-03    -73.0509E+06    -48.1646E+06    -41.3418E+06    -23.5945E+06    -42.0442E-03     80.7927E-03    -38.7485E-03     65.5568E-03    -42.3033E-03     80.7412E-03    -38.7794E-03     65.1773E-03
            1230     6.92367E-03     113.165E-03    -60.6173E+06    -40.9365E+06    -27.5035E+06    -24.2844E+06    -43.9136E-03     83.1123E-03    -39.1987E-03     73.1781E-03    -44.1544E-03     83.0723E-03    -39.1890E-03     72.7591E-03
            1231     7.78514E-03     113.221E-03    -49.9933E+06    -34.5412E+06    -15.5404E+06    -24.2171E+06    -46.1832E-03     85.9330E-03    -39.7498E-03     79.9013E-03    -46.4157E-03     85.9106E-03    -39.7050E-03     79.4439E-03
            1232     8.64466E-03     113.284E-03    -41.5522E+06    -26.7468E+06    -4.92459E+06    -24.1005E+06    -48.8345E-03     89.2455E-03    -40.4109E-03     85.4545E-03    -49.0750E-03     89.2579E-03    -40.3365E-03     84.9496E-03
            1233     9.50196E-03     113.351E-03    -34.9538E+06    -19.3730E+06     3.95593E+06    -25.0107E+06    -51.8256E-03     93.0131E-03    -41.1876E-03     89.4967E-03    -52.0847E-03     93.0682E-03    -41.0890E-03     88.9217E-03
            1234     10.3566E-03     113.422E-03    -29.2352E+06    -14.1497E+06     10.8006E+06    -26.3924E+06    -55.0707E-03     97.1499E-03    -42.0792E-03     91.6239E-03    -55.3489E-03     97.2432E-03    -41.9623E-03     90.9655E-03
            1235     11.2085E-03     113.496E-03    -23.6400E+06    -8.30570E+06     17.0132E+06    -26.7685E+06    -58.4016E-03     101.481E-03    -43.0797E-03     91.4471E-03    -58.6968E-03     101.614E-03    -42.9483E-03     90.7170E-03
            1236     12.0575E-03     113.569E-03    -18.0949E+06     1.75823E+06     24.3918E+06    -24.1743E+06    -61.6031E-03     105.778E-03    -44.1746E-03     88.7909E-03    -61.9141E-03     105.961E-03    -44.0289E-03     88.0359E-03
            1237     12.9040E-03     113.641E-03    -14.4397E+06     7.47006E+06     29.9211E+06    -21.0060E+06    -64.5955E-03     109.936E-03    -45.3405E-03     83.6761E-03    -64.9097E-03     110.139E-03    -45.1808E-03     82.9170E-03
            1238     13.7473E-03     113.708E-03    -11.8985E+06     23.3156E+06     35.6777E+06    -18.5124E+06    -67.2094E-03     113.749E-03    -46.5399E-03     76.3994E-03    -67.5355E-03     114.013E-03    -46.3781E-03     75.6398E-03
            1239     14.5891E-03     113.770E-03    -10.4220E+06     33.1564E+06     39.0946E+06    -14.5586E+06    -69.3667E-03     117.122E-03    -47.7552E-03     66.5498E-03    -69.6873E-03     117.410E-03    -47.5927E-03     65.8196E-03
            1240     15.4282E-03     113.824E-03    -11.5973E+06     35.7107E+06     39.0640E+06    -14.0735E+06    -71.0068E-03     119.965E-03    -48.9578E-03     54.0631E-03    -71.3141E-03     120.245E-03    -48.7975E-03     53.3144E-03
            1241     16.2665E-03     113.866E-03    -176.293E+03     44.7608E+06     56.0385E+06    -10.3189E+06    -71.8359E-03     122.012E-03    -50.1757E-03     34.6136E-03    -72.0729E-03     122.244E-03    -49.9601E-03     33.9658E-03
            1242     869.690E-06     113.976E-03    -118.529E+06    -74.5722E+06    -117.087E+06    -6.19684E+06    -34.3091E-03     68.4862E-03    -34.1771E-03     11.0296E-03    -34.6244E-03     68.4548E-03    -34.4826E-03     10.9470E-03
            1243     1.73906E-03     113.986E-03    -115.466E+06    -70.3745E+06    -110.036E+06    -11.5984E+06    -34.6639E-03     68.9908E-03    -34.3269E-03     20.2290E-03    -34.9806E-03     68.9661E-03    -34.6076E-03     20.0736E-03
            1244     2.60819E-03     114.003E-03    -110.673E+06    -63.8581E+06    -99.7594E+06    -17.0030E+06    -35.2896E-03     69.8248E-03    -34.5352E-03     29.8740E-03    -35.6077E-03     69.8119E-03    -34.7809E-03     29.6443E-03
            1245     3.47665E-03     114.027E-03    -104.341E+06    -58.0259E+06    -86.9117E+06    -22.2457E+06    -36.2071E-03     71.0348E-03    -34.8277E-03     39.4897E-03    -36.5224E-03     71.0253E-03    -35.0269E-03     39.1851E-03
            1246     4.34439E-03     114.057E-03    -96.6398E+06    -52.8604E+06    -73.3092E+06    -27.2250E+06    -37.4370E-03     72.6397E-03    -35.2028E-03     48.9526E-03    -37.7444E-03     72.6287E-03    -35.3525E-03     48.5729E-03
            1247     5.21101E-03     114.095E-03    -87.6768E+06    -47.9844E+06    -60.6829E+06    -30.9055E+06    -38.9896E-03     74.6457E-03    -35.6561E-03     58.1504E-03    -39.2832E-03     74.6334E-03    -35.7628E-03     57.7079E-03
            1248     6.07642E-03     114.141E-03    -77.2327E+06    -42.2038E+06    -47.7587E+06    -33.0193E+06    -40.8922E-03     77.0896E-03    -36.1974E-03     66.9332E-03    -41.1694E-03     77.0811E-03    -36.2630E-03     66.4420E-03
            1249     6.94025E-03     114.193E-03    -65.7203E+06    -36.7191E+06    -33.6517E+06    -33.9343E+06    -43.1862E-03     80.0281E-03    -36.8419E-03     75.1008E-03    -43.4470E-03     80.0228E-03    -36.8616E-03     74.5687E-03
            1250     7.80219E-03     114.253E-03    -53.3012E+06    -32.4700E+06    -19.4744E+06    -33.2985E+06    -45.8773E-03     83.4719E-03    -37.5946E-03     82.4249E-03    -46.1206E-03     83.4673E-03    -37.5676E-03     81.8628E-03
            1251     8.66191E-03     114.319E-03    -40.9348E+06    -25.0717E+06    -6.04712E+06    -31.3839E+06    -48.9291E-03     87.3817E-03    -38.4526E-03     88.6362E-03    -49.1639E-03     87.4000E-03    -38.3871E-03     88.0506E-03
            1252     9.51904E-03     114.390E-03    -30.7836E+06    -16.9235E+06     5.49684E+06    -29.2159E+06    -52.3166E-03     91.7375E-03    -39.4209E-03     93.3880E-03    -52.5575E-03     91.7935E-03    -39.3242E-03     92.7718E-03
            1253     10.3733E-03     114.466E-03    -24.1009E+06    -10.3936E+06     14.1769E+06    -28.4778E+06    -55.9936E-03     96.4959E-03    -40.5023E-03     96.2423E-03    -56.2543E-03     96.5936E-03    -40.3814E-03     95.5679E-03
            1254     11.2244E-03     114.544E-03    -20.1635E+06    -6.98675E+06     19.9913E+06    -27.9156E+06    -59.8474E-03     101.543E-03    -41.6960E-03     96.6542E-03    -60.1317E-03     101.674E-03    -41.5567E-03     95.9141E-03
            1255     12.0721E-03     114.623E-03    -16.9344E+06    -367.840E+03     25.8502E+06    -25.9503E+06    -63.6123E-03     106.604E-03    -42.9914E-03     94.2175E-03    -63.9204E-03     106.776E-03    -42.8370E-03     93.4340E-03
            1256     12.9166E-03     114.699E-03    -11.8537E+06     5.05634E+06     32.5585E+06    -22.4668E+06    -67.0649E-03     111.434E-03    -44.3689E-03     88.9750E-03    -67.3725E-03     111.624E-03    -44.1962E-03     88.1834E-03
            1257     13.7585E-03     114.771E-03    -6.74344E+06     21.2671E+06     39.8910E+06    -18.7104E+06    -70.0111E-03     115.790E-03    -45.7789E-03     81.2788E-03    -70.3201E-03     116.036E-03    -45.6005E-03     80.5004E-03
            1258     14.5971E-03     114.837E-03    -1.90831E+06     26.9773E+06     43.7883E+06    -14.1461E+06    -72.3213E-03     119.517E-03    -47.1960E-03     70.8507E-03    -72.6016E-03     119.760E-03    -47.0134E-03     70.1098E-03
            1259     15.4346E-03     114.894E-03     3.01073E+06     37.3417E+06     49.5025E+06    -9.87361E+06    -73.8529E-03     122.439E-03    -48.5862E-03     58.0029E-03    -74.1029E-03     122.689E-03    -48.3972E-03     57.2984E-03
            1260     16.2698E-03     114.939E-03    -7.41279E+06     40.7753E+06     52.4014E+06    -8.90819E+06    -75.3073E-03     125.258E-03    -49.9503E-03     38.1541E-03    -75.5617E-03     125.478E-03    -49.7366E-03     37.5165E-03
            1261     872.101E-06     114.988E-03    -87.6562E+06    -60.9819E+06    -85.7377E+06    -6.76571E+06    -31.7176E-03     63.2970E-03    -31.5793E-03     10.5317E-03    -31.9436E-03     63.2435E-03    -31.7925E-03     10.4416E-03
            1262     1.74405E-03     114.999E-03    -84.5032E+06    -56.7602E+06    -78.1199E+06    -12.2434E+06    -32.2127E-03     63.9785E-03    -31.7658E-03     19.3767E-03    -32.4406E-03     63.9310E-03    -31.9516E-03     19.2127E-03
            1263     2.61531E-03     115.017E-03    -80.5149E+06    -51.0462E+06    -68.7872E+06    -17.6471E+06    -33.0391E-03     65.0814E-03    -32.0424E-03     28.7457E-03    -33.2698E-03     65.0442E-03    -32.1955E-03     28.5073E-03
            1264     3.48589E-03     115.042E-03    -76.3988E+06    -45.1764E+06    -59.6681E+06    -22.9152E+06    -34.1972E-03     66.6084E-03    -32.4111E-03     38.2361E-03    -34.4310E-03     66.5834E-03    -32.5332E-03     37.9227E-03
            1265     4.35533E-03     115.074E-03    -72.5372E+06    -40.7209E+06    -50.9740E+06    -28.0492E+06    -35.7005E-03     68.5764E-03    -32.8759E-03     47.7500E-03    -35.9374E-03     68.5588E-03    -32.9665E-03     47.3604E-03
            1266     5.22351E-03     115.115E-03    -68.7442E+06    -37.4608E+06    -43.3566E+06    -32.7953E+06    -37.5486E-03     70.9830E-03    -33.4345E-03     57.1784E-03    -37.7877E-03     70.9707E-03    -33.4972E-03     56.7133E-03
            1267     6.09010E-03     115.163E-03    -64.5990E+06    -33.7005E+06    -36.1671E+06    -36.6647E+06    -39.7429E-03     73.8310E-03    -34.0881E-03     66.3852E-03    -39.9853E-03     73.8293E-03    -34.1264E-03     65.8507E-03
            1268     6.95488E-03     115.218E-03    -59.4814E+06    -30.2801E+06    -27.6780E+06    -39.1689E+06    -42.3168E-03     77.1660E-03    -34.8492E-03     75.1688E-03    -42.5628E-03     77.1737E-03    -34.8575E-03     74.5757E-03
            1269     7.81744E-03     115.282E-03    -53.1548E+06    -28.4267E+06    -18.7487E+06    -40.6194E+06    -45.2750E-03     80.9952E-03    -35.7202E-03     83.2665E-03    -45.5215E-03     81.0067E-03    -35.6957E-03     82.6199E-03
            1270     8.67758E-03     115.352E-03    -45.0028E+06    -23.8236E+06    -9.35837E+06    -40.1541E+06    -48.5920E-03     85.2900E-03    -36.6980E-03     90.3916E-03    -48.8398E-03     85.3208E-03    -36.6450E-03     89.7068E-03
            1271     9.53496E-03     115.428E-03    -34.8532E+06    -17.3771E+06     2.14116E+06    -37.3814E+06    -52.2833E-03     90.0796E-03    -37.7962E-03     96.1186E-03    -52.5331E-03     90.1381E-03    -37.7098E-03     95.4145E-03
            1272     10.3893E-03     115.509E-03    -24.9396E+06    -10.3048E+06     14.4528E+06    -33.0293E+06    -56.3357E-03     95.3553E-03    -39.0197E-03     99.9318E-03    -56.5945E-03     95.4477E-03    -38.8963E-03     99.2178E-03
            1273     11.2401E-03     115.593E-03    -17.3458E+06    -6.63743E+06     23.8214E+06    -29.5727E+06    -60.6941E-03     101.057E-03    -40.3633E-03     101.261E-03    -60.9647E-03     101.175E-03    -40.2095E-03     100.517E-03
            1274     12.0870E-03     115.677E-03    -12.2704E+06    -2.17248E+06     30.3545E+06    -26.2431E+06    -65.1639E-03     106.983E-03    -41.8195E-03     99.4901E-03    -65.4502E-03     107.131E-03    -41.6468E-03     98.7111E-03
            1275     12.9301E-03     115.759E-03    -9.29181E+06     3.93108E+06     36.2774E+06    -24.0987E+06    -69.3126E-03     112.689E-03    -43.3768E-03     94.3665E-03    -69.6133E-03     112.867E-03    -43.1876E-03     93.5486E-03
            1276     13.7694E-03     115.836E-03    -4.78138E+06     17.5553E+06     43.3954E+06    -21.4364E+06    -72.6999E-03     117.686E-03    -44.9865E-03     86.2919E-03    -73.0016E-03     117.908E-03    -44.7880E-03     85.4689E-03
            1277     14.6068E-03     115.907E-03     751.552E+03     20.7258E+06     47.2632E+06    -16.9088E+06    -75.3321E-03     121.936E-03    -46.6039E-03     75.0370E-03    -75.5964E-03     122.140E-03    -46.3987E-03     74.2504E-03
            1278     15.4413E-03     115.967E-03     1.12873E+06     33.3623E+06     51.7106E+06    -11.9575E+06    -77.5995E-03     125.799E-03    -48.1994E-03     60.4671E-03    -77.8583E-03     126.031E-03    -47.9909E-03     59.7190E-03
            1279     16.2761E-03     116.015E-03    -14.9340E+06     34.8117E+06     52.0584E+06    -2.97038E+06    -78.9650E-03     128.735E-03    -49.7705E-03     38.9497E-03    -79.2495E-03     128.939E-03    -49.5390E-03     38.3833E-03
            1280     873.599E-06     115.996E-03    -58.1537E+06    -46.9805E+06    -55.7729E+06    -6.84970E+06    -30.3167E-03     60.5037E-03    -30.1870E-03     9.49710E-03    -30.4588E-03     60.4343E-03    -30.3134E-03     9.40423E-03
            1281     1.74677E-03     116.008E-03    -55.4689E+06    -43.3186E+06    -48.4948E+06    -12.1000E+06    -30.8466E-03     61.2274E-03    -30.3808E-03     17.5404E-03    -30.9918E-03     61.1625E-03    -30.4800E-03     17.3754E-03
            1282     2.61951E-03     116.027E-03    -51.9056E+06    -38.5511E+06    -39.7089E+06    -17.0621E+06    -31.7209E-03     62.3982E-03    -30.6773E-03     26.1438E-03    -31.8693E-03     62.3406E-03    -30.7447E-03     25.9088E-03
            1283     3.49130E-03     116.053E-03    -48.2145E+06    -33.0959E+06    -31.2627E+06    -21.5265E+06    -32.9371E-03     64.0083E-03    -31.0711E-03     34.9941E-03    -33.0896E-03     63.9627E-03    -31.1096E-03     34.6937E-03
            1284     4.36208E-03     116.088E-03    -44.8370E+06    -28.7960E+06    -23.5604E+06    -25.9571E+06    -34.4952E-03     66.0581E-03    -31.5630E-03     44.0461E-03    -34.6517E-03     66.0216E-03    -31.5740E-03     43.6781E-03
            1285     5.23142E-03     116.130E-03    -41.9980E+06    -26.1978E+06    -16.6801E+06    -30.1853E+06    -36.3980E-03     68.5509E-03    -32.1529E-03     53.2395E-03    -36.5596E-03     68.5188E-03    -32.1374E-03     52.8032E-03
            1286     6.09911E-03     116.181E-03    -40.0479E+06    -23.7720E+06    -11.4160E+06    -33.8018E+06    -38.6365E-03     71.4713E-03    -32.8347E-03     62.5213E-03    -38.8073E-03     71.4486E-03    -32.7993E-03     62.0206E-03
            1287     6.96483E-03     116.240E-03    -39.0634E+06    -21.8362E+06    -8.00174E+06    -36.8225E+06    -41.2210E-03     74.8288E-03    -33.6078E-03     71.7563E-03    -41.4052E-03     74.8201E-03    -33.5595E-03     71.1941E-03
            1288     7.82844E-03     116.308E-03    -38.3624E+06    -20.8025E+06    -4.74911E+06    -39.5105E+06    -44.2051E-03     78.6893E-03    -34.4842E-03     80.6362E-03    -44.4063E-03     78.6945E-03    -34.4222E-03     80.0101E-03
            1289     8.68947E-03     116.382E-03    -37.1477E+06    -19.1175E+06    -1.04054E+06    -41.7290E+06    -47.6198E-03     83.0920E-03    -35.4722E-03     88.8077E-03    -47.8414E-03     83.1172E-03    -35.3958E-03     88.1157E-03
            1290     9.54767E-03     116.463E-03    -34.7216E+06    -16.6538E+06     4.29009E+06    -41.6409E+06    -51.4797E-03     88.0655E-03    -36.5858E-03     95.8030E-03    -51.7236E-03     88.1150E-03    -36.4899E-03     95.0649E-03
            1291     10.4025E-03     116.550E-03    -29.9456E+06    -12.7677E+06     13.0175E+06    -38.6328E+06    -55.7932E-03     93.6346E-03    -37.8415E-03     101.007E-03    -56.0586E-03     93.7112E-03    -37.7145E-03     100.249E-03
            1292     11.2537E-03     116.640E-03    -23.2653E+06    -8.10532E+06     23.6277E+06    -34.2363E+06    -60.5484E-03     99.7918E-03    -39.2433E-03     103.766E-03    -60.8314E-03     99.8955E-03    -39.0797E-03     102.995E-03
            1293     12.1007E-03     116.731E-03    -15.8647E+06    -5.50874E+06     32.1508E+06    -29.8113E+06    -65.6567E-03     106.441E-03    -40.7844E-03     103.346E-03    -65.9447E-03     106.561E-03    -40.5926E-03     102.553E-03
            1294     12.9429E-03     116.820E-03    -9.34941E+06     2.63226E+06     39.8905E+06    -24.8493E+06    -70.7682E-03     113.225E-03    -42.4564E-03     98.9814E-03    -71.0638E-03     113.382E-03    -42.2472E-03     98.1730E-03
            1295     13.7812E-03     116.903E-03    -7.61292E+06     14.8025E+06     46.0686E+06    -21.5189E+06    -75.2512E-03     119.482E-03    -44.2307E-03     90.4532E-03    -75.5652E-03     119.689E-03    -44.0108E-03     89.6247E-03
            1296     14.6156E-03     116.979E-03    -7.15895E+06     17.8693E+06     49.1612E+06    -19.0035E+06    -78.9618E-03     125.025E-03    -46.0628E-03     77.9526E-03    -79.2640E-03     125.223E-03    -45.8326E-03     77.1214E-03
            1297     15.4475E-03     117.044E-03    -12.4741E+06     20.1176E+06     47.4133E+06    -7.93179E+06    -81.4661E-03     129.345E-03    -47.8790E-03     62.9747E-03    -81.7699E-03     129.539E-03    -47.6530E-03     62.2662E-03
            1298     16.2717E-03     117.098E-03    -7.10850E+06     23.3295E+06     59.1561E+06     1.47784E+06    -81.5204E-03     131.172E-03    -49.6521E-03     40.9345E-03    -81.7685E-03     131.307E-03    -49.3798E-03     40.4183E-03
            1299     873.390E-06     117.002E-03    -29.6862E+06    -33.4630E+06    -27.5392E+06    -6.32251E+06    -30.5951E-03     61.0495E-03    -30.4544E-03     8.00304E-03    -30.6556E-03     60.9655E-03    -30.5005E-03     7.91442E-03
            1300     1.74663E-03     117.015E-03    -27.7423E+06    -30.5854E+06    -21.5412E+06    -11.2907E+06    -31.0745E-03     61.7231E-03    -30.6486E-03     14.8045E-03    -31.1391E-03     61.6429E-03    -30.6717E-03     14.6453E-03
            1301     2.61922E-03     117.035E-03    -25.1298E+06    -27.1512E+06    -13.8068E+06    -15.7573E+06    -31.8890E-03     62.8216E-03    -30.9326E-03     22.1120E-03    -31.9584E-03     62.7453E-03    -30.9258E-03     21.8871E-03
            1302     3.49113E-03     117.063E-03    -22.3307E+06    -22.4901E+06    -6.15075E+06    -19.5801E+06    -33.0025E-03     64.3117E-03    -31.3092E-03     29.6759E-03    -33.0785E-03     64.2463E-03    -31.2750E-03     29.3920E-03
            1303     4.36194E-03     117.099E-03    -19.9964E+06    -18.5896E+06     600.623E+03    -22.9733E+06    -34.3823E-03     66.1535E-03    -31.7712E-03     37.5356E-03    -34.4660E-03     66.0984E-03    -31.7122E-03     37.1963E-03
            1304     5.23156E-03     117.144E-03    -18.7477E+06    -16.6525E+06     5.84430E+06    -25.8983E+06    -36.0162E-03     68.3271E-03    -32.3109E-03     45.7574E-03    -36.1095E-03     68.2778E-03    -32.2303E-03     45.3665E-03
            1305     6.09976E-03     117.198E-03    -18.4316E+06    -14.9048E+06     9.77511E+06    -28.4764E+06    -37.9217E-03     70.8444E-03    -32.9228E-03     54.3696E-03    -38.0288E-03     70.8050E-03    -32.8256E-03     53.9293E-03
            1306     6.96638E-03     117.260E-03    -18.5692E+06    -13.4864E+06     13.0111E+06    -30.8329E+06    -40.1481E-03     73.7592E-03    -33.6111E-03     63.3042E-03    -40.2719E-03     73.7316E-03    -33.4996E-03     62.8143E-03
            1307     7.83105E-03     117.331E-03    -19.2840E+06    -12.5988E+06     15.7222E+06    -33.1643E+06    -42.7793E-03     77.1644E-03    -34.3851E-03     72.3632E-03    -42.9235E-03     77.1501E-03    -34.2603E-03     71.8200E-03
            1308     8.69344E-03     117.410E-03    -21.1979E+06    -11.8926E+06     17.6426E+06    -35.0906E+06    -45.9176E-03     81.1763E-03    -35.2587E-03     81.2229E-03    -46.0898E-03     81.1802E-03    -35.1225E-03     80.6261E-03
            1309     9.55299E-03     117.495E-03    -24.0268E+06    -12.5986E+06     18.1532E+06    -36.2269E+06    -49.6215E-03     85.8700E-03    -36.2485E-03     89.4418E-03    -49.8254E-03     85.8916E-03    -36.1046E-03     88.7944E-03
            1310     10.4094E-03     117.588E-03    -26.3075E+06    -11.2677E+06     20.3118E+06    -36.4545E+06    -53.9294E-03     91.3106E-03    -37.3812E-03     96.3885E-03    -54.1705E-03     91.3600E-03    -37.2252E-03     95.6933E-03
            1311     11.2619E-03     117.684E-03    -26.5329E+06    -9.59364E+06     25.2677E+06    -34.8876E+06    -58.8693E-03     97.5511E-03    -38.6817E-03     101.221E-03    -59.1441E-03     97.6251E-03    -38.5030E-03     100.490E-03
            1312     12.1099E-03     117.783E-03    -24.8039E+06    -6.93975E+06     31.6455E+06    -32.3428E+06    -64.4106E-03     104.570E-03    -40.1597E-03     103.034E-03    -64.7125E-03     104.669E-03    -39.9555E-03     102.268E-03
            1313     12.9532E-03     117.880E-03    -20.9010E+06    -2.63931E+06     38.5609E+06    -28.2445E+06    -70.5120E-03     112.336E-03    -41.8236E-03     100.787E-03    -70.8293E-03     112.459E-03    -41.5967E-03     99.9942E-03
            1314     13.7903E-03     117.972E-03    -15.7542E+06     10.7687E+06     47.5954E+06    -20.8734E+06    -76.8068E-03     120.480E-03    -43.6734E-03     93.4779E-03    -77.1405E-03     120.660E-03    -43.4282E-03     92.6926E-03
            1315     14.6222E-03     118.054E-03    -14.9410E+06     12.5614E+06     50.8463E+06    -13.7555E+06    -81.6956E-03     127.348E-03    -45.6525E-03     81.4294E-03    -82.0214E-03     127.519E-03    -45.3949E-03     80.6848E-03
            1316     15.4486E-03     118.126E-03    -7.76754E+06     4.55867E+06     49.8484E+06    -7.01674E+06    -83.2968E-03     130.904E-03    -47.6075E-03     65.9530E-03    -83.5477E-03     131.000E-03    -47.3536E-03     65.2877E-03
            1317     16.2827E-03     118.178E-03     5.49851E+06     18.0380E+06     63.7817E+06    -1.52312E+06    -83.5213E-03     132.992E-03    -49.4704E-03     43.6073E-03    -83.6988E-03     133.068E-03    -49.1856E-03     43.0760E-03
            1318     871.604E-06     118.012E-03    -4.00326E+06    -21.0296E+06    -2.40978E+06    -5.63444E+06    -32.8922E-03     65.6339E-03    -32.7417E-03     6.05125E-03    -32.8792E-03     65.5381E-03    -32.7175E-03     5.96854E-03
            1319     1.74283E-03     118.024E-03    -3.11300E+06    -19.2492E+06     2.04944E+06    -9.79570E+06    -33.3209E-03     66.2614E-03    -32.9405E-03     11.2338E-03    -33.3136E-03     66.1677E-03    -32.8978E-03     11.0885E-03
            1320     2.61369E-03     118.045E-03    -1.80080E+06    -17.0145E+06     8.46233E+06    -13.6157E+06    -34.0345E-03     67.2475E-03    -33.2130E-03     16.7225E-03    -34.0349E-03     67.1556E-03    -33.1434E-03     16.5175E-03
            1321     3.48371E-03     118.075E-03     -385.64E+03    -13.6246E+06     14.5866E+06    -16.6524E+06    -34.9206E-03     68.4788E-03    -33.5582E-03     22.4225E-03    -34.9304E-03     68.3957E-03    -33.4650E-03     22.1666E-03
            1322     4.35295E-03     118.113E-03     476.662E+03    -10.6408E+06     19.6588E+06    -18.8491E+06    -35.9427E-03     69.9008E-03    -33.9580E-03     28.4650E-03    -35.9637E-03     69.8278E-03    -33.8450E-03     28.1679E-03
            1323     5.22127E-03     118.159E-03     788.313E+03    -9.36622E+06     24.1022E+06    -20.6279E+06    -37.1078E-03     71.5146E-03    -34.4068E-03     34.9409E-03    -37.1404E-03     71.4461E-03    -34.2738E-03     34.6068E-03
            1324     6.08863E-03     118.215E-03     561.234E+03    -8.00252E+06     28.3779E+06    -22.2167E+06    -38.4392E-03     73.3403E-03    -34.9011E-03     41.8998E-03    -38.4872E-03     73.2791E-03    -34.7484E-03     41.5298E-03
            1325     6.95481E-03     118.279E-03    -617.142E+03    -7.04493E+06     32.0355E+06    -23.5153E+06    -39.9896E-03     75.4318E-03    -35.4422E-03     49.3551E-03    -40.0578E-03     75.3795E-03    -35.2709E-03     48.9516E-03
            1326     7.81972E-03     118.352E-03    -3.10296E+06    -6.26935E+06     34.3532E+06    -24.4648E+06    -41.8439E-03     77.8783E-03    -36.0344E-03     57.2704E-03    -41.9379E-03     77.8393E-03    -35.8490E-03     56.8362E-03
            1327     8.68301E-03     118.434E-03    -6.38508E+06    -6.18851E+06     35.6373E+06    -25.1526E+06    -44.1350E-03     80.8286E-03    -36.6936E-03     65.4986E-03    -44.2580E-03     80.8037E-03    -36.4972E-03     65.0343E-03
            1328     9.54432E-03     118.525E-03    -9.79132E+06    -7.05008E+06     36.3621E+06    -25.9542E+06    -47.0292E-03     84.4729E-03    -37.4436E-03     73.7603E-03    -47.1814E-03     84.4602E-03    -37.2374E-03     73.2606E-03
            1329     10.4028E-03     118.622E-03    -13.4594E+06    -7.04499E+06     36.5342E+06    -26.6196E+06    -50.6320E-03     88.9407E-03    -38.3088E-03     81.6262E-03    -50.8165E-03     88.9472E-03    -38.0964E-03     81.0881E-03
            1330     11.2580E-03     118.725E-03    -17.0441E+06    -6.82291E+06     37.0043E+06    -27.2816E+06    -55.0672E-03     94.3899E-03    -39.3227E-03     88.4174E-03    -55.2856E-03     94.4172E-03    -39.1031E-03     87.8341E-03
            1331     12.1090E-03     118.831E-03    -19.4022E+06    -6.19510E+06     38.7705E+06    -26.9228E+06    -60.4920E-03     101.014E-03    -40.5223E-03     93.2074E-03    -60.7410E-03     101.061E-03    -40.2913E-03     92.5824E-03
            1332     12.9546E-03     118.937E-03    -20.9728E+06    -4.53003E+06     41.8185E+06    -25.0772E+06    -66.9335E-03     108.876E-03    -41.9424E-03     94.9510E-03    -67.2109E-03     108.943E-03    -41.6963E-03     94.2921E-03
            1333     13.7942E-03     119.039E-03    -20.4973E+06     1.88325E+06     47.7722E+06    -20.4015E+06    -73.8411E-03     117.440E-03    -43.5985E-03     92.8467E-03    -74.1435E-03     117.539E-03    -43.3327E-03     92.1813E-03
            1334     14.6258E-03     119.133E-03    -14.5850E+06     5.40765E+06     54.2217E+06    -13.0744E+06    -79.8652E-03     125.311E-03    -45.4462E-03     84.5250E-03    -80.1505E-03     125.408E-03    -45.1618E-03     83.8979E-03
            1335     15.4570E-03     119.205E-03    -6.72375E+06    -2.66335E+06     52.8427E+06    -9.93589E+06    -83.9778E-03     131.346E-03    -47.3686E-03     68.5344E-03    -84.1946E-03     131.377E-03    -47.0908E-03     67.9117E-03
            1336     16.2797E-03     119.261E-03     1.85941E+06     10.8762E+06     59.6930E+06    -5.49479E+06    -85.7854E-03     135.070E-03    -49.2846E-03     45.5275E-03    -85.9520E-03     135.109E-03    -49.0046E-03     44.9969E-03
            1337     867.607E-06     119.027E-03     17.1316E+06    -10.7704E+06     19.4450E+06    -4.01169E+06    -37.7339E-03     75.0465E-03    -37.3125E-03     3.71338E-03    -37.6627E-03     74.9385E-03    -37.2245E-03     3.64982E-03
            1338     1.73505E-03     119.041E-03     17.1798E+06    -9.90815E+06     21.8595E+06    -7.41782E+06    -38.0131E-03     75.6765E-03    -37.6635E-03     6.50216E-03    -37.9472E-03     75.5699E-03    -37.5647E-03     6.38368E-03
            1339     2.60180E-03     119.062E-03     17.1956E+06     -8.7461E+06     26.1254E+06    -10.3092E+06    -38.4880E-03     76.4091E-03    -37.9211E-03     9.60238E-03    -38.4311E-03     76.3035E-03    -37.8027E-03     9.43451E-03
            1340     3.46806E-03     119.093E-03     16.9837E+06    -6.75107E+06     30.5450E+06    -12.4386E+06    -39.0216E-03     77.2297E-03    -38.2081E-03     12.9971E-03    -38.9770E-03     77.1300E-03    -38.0702E-03     12.7891E-03
            1341     4.33373E-03     119.131E-03     16.5607E+06    -5.01602E+06     35.0675E+06    -13.7254E+06    -39.6249E-03     78.1495E-03    -38.5246E-03     16.7260E-03    -39.5941E-03     78.0553E-03    -38.3660E-03     16.4883E-03
            1342     5.19878E-03     119.179E-03     15.7603E+06    -4.12483E+06     39.9310E+06    -14.6271E+06    -40.2918E-03     79.1638E-03    -38.8720E-03     20.8250E-03    -40.2767E-03     79.0717E-03    -38.6892E-03     20.5620E-03
            1343     6.06311E-03     119.235E-03     14.3291E+06    -3.53422E+06     44.2682E+06    -15.1221E+06    -41.0149E-03     80.2580E-03    -39.2432E-03     25.3372E-03    -41.0182E-03     80.1690E-03    -39.0375E-03     25.0537E-03
            1344     6.92678E-03     119.301E-03     12.2575E+06    -2.97739E+06     47.7466E+06    -15.1690E+06    -41.8140E-03     81.4486E-03    -39.6346E-03     30.2815E-03    -41.8386E-03     81.3656E-03    -39.4093E-03     29.9827E-03
            1345     7.78967E-03     119.375E-03     10.0255E+06    -2.54553E+06     50.5500E+06    -15.1092E+06    -42.7326E-03     82.7804E-03    -40.0478E-03     35.6548E-03    -42.7790E-03     82.7049E-03    -39.8059E-03     35.3415E-03
            1346     8.65172E-03     119.459E-03     7.84175E+06    -2.34668E+06     52.7505E+06    -15.2807E+06    -43.8480E-03     84.3362E-03    -40.4882E-03     41.4416E-03    -43.9156E-03     84.2689E-03    -40.2324E-03     41.1099E-03
            1347     9.51273E-03     119.552E-03     5.07420E+06    -3.50989E+06     53.7518E+06    -15.1892E+06    -45.2847E-03     86.2503E-03    -40.9656E-03     47.5977E-03    -45.3734E-03     86.1879E-03    -40.6992E-03     47.2500E-03
            1348     10.3724E-03     119.653E-03     1.72783E+06    -3.06962E+06     54.1415E+06    -15.3676E+06    -47.2245E-03     88.7208E-03    -41.4963E-03     54.0163E-03    -47.3392E-03     88.6737E-03    -41.2237E-03     53.6477E-03
            1349     11.2303E-03     119.760E-03    -1.66625E+06    -2.59510E+06     54.2843E+06    -16.0753E+06    -49.8971E-03     92.0066E-03    -42.1095E-03     60.4480E-03    -50.0378E-03     91.9755E-03    -41.8319E-03     60.0497E-03
            1350     12.0855E-03     119.873E-03    -4.63437E+06    -3.81820E+06     53.8532E+06    -16.5029E+06    -53.5392E-03     96.3778E-03    -42.8386E-03     66.6479E-03    -53.7001E-03     96.3543E-03    -42.5571E-03     66.2207E-03
            1351     12.9369E-03     119.987E-03    -7.18486E+06    -4.73126E+06     53.1374E+06    -15.2384E+06    -58.0900E-03     101.801E-03    -43.7113E-03     72.1904E-03    -58.2679E-03     101.786E-03    -43.4283E-03     71.7539E-03
            1352     13.7830E-03     120.099E-03    -8.69006E+06    -967.417E+03     55.1379E+06    -13.7863E+06    -63.3055E-03     108.057E-03    -44.7515E-03     75.7443E-03    -63.5037E-03     108.064E-03    -44.4619E-03     75.2994E-03
            1353     14.6270E-03     120.201E-03    -7.62947E+06     4.20016E+06     58.3601E+06    -14.9691E+06    -70.0891E-03     116.084E-03    -45.9949E-03     74.5687E-03    -70.2956E-03     116.112E-03    -45.6982E-03     74.0697E-03
            1354     15.4582E-03     120.288E-03    -3.46789E+06    -8.04063E+06     54.0342E+06    -10.5673E+06    -78.6341E-03     126.129E-03    -47.4945E-03     66.3019E-03    -78.7909E-03     126.090E-03    -47.2076E-03     65.8163E-03
            1355     16.2862E-03     120.349E-03     2.90509E+06     2.65833E+06     54.4255E+06    -4.67479E+06    -85.1217E-03     134.346E-03    -49.2240E-03     46.9947E-03    -85.2408E-03     134.328E-03    -48.9599E-03     46.5947E-03
            1356     861.379E-06     120.056E-03     33.0450E+06    -4.11521E+06     34.0820E+06    -2.29922E+06    -45.2505E-03     90.6321E-03    -45.3815E-03    -131.479E-06    -45.1326E-03     90.5105E-03    -45.2531E-03    -171.856E-06
            1357     1.72190E-03     120.069E-03     32.1156E+06    -3.36079E+06     36.2605E+06    -4.10639E+06    -45.4536E-03     90.8768E-03    -45.4232E-03    -50.2038E-06    -45.3447E-03     90.7575E-03    -45.2836E-03    -123.090E-06
            1358     2.58241E-03     120.092E-03     30.6810E+06    -3.18076E+06     39.0537E+06    -5.65077E+06    -45.5474E-03     91.1134E-03    -45.5660E-03     240.433E-06    -45.4502E-03     90.9936E-03    -45.4106E-03     137.956E-06
            1359     3.44267E-03     120.122E-03     28.8695E+06    -2.29042E+06     42.8872E+06    -6.67080E+06    -45.7056E-03     91.4442E-03    -45.7386E-03     750.620E-06    -45.6248E-03     91.3267E-03    -45.5627E-03     625.213E-06
            1360     4.30254E-03     120.161E-03     26.8974E+06    -1.57959E+06     47.7939E+06    -7.14341E+06    -45.9060E-03     91.8583E-03    -45.9523E-03     1.45563E-03    -45.8440E-03     91.7411E-03    -45.7501E-03     1.31419E-03
            1361     5.16195E-03     120.209E-03     24.8782E+06    -1.18712E+06     52.6699E+06    -7.14590E+06    -46.1099E-03     92.3085E-03    -46.1986E-03     2.37371E-03    -46.0668E-03     92.1903E-03    -45.9696E-03     2.22214E-03
            1362     6.02090E-03     120.266E-03     22.8853E+06    -1.09513E+06     57.0419E+06    -7.01610E+06    -46.2864E-03     92.7543E-03    -46.4679E-03     3.52710E-03    -46.2611E-03     92.6346E-03    -46.2143E-03     3.36693E-03
            1363     6.87931E-03     120.331E-03     21.1934E+06    -1.12065E+06     61.0394E+06    -6.69843E+06    -46.4010E-03     93.1529E-03    -46.7518E-03     4.94122E-03    -46.3917E-03     93.0316E-03    -46.4757E-03     4.77469E-03
            1364     7.73725E-03     120.406E-03     19.6770E+06    -509.231E+03     64.6817E+06    -6.48314E+06    -46.4210E-03     93.4613E-03    -47.0403E-03     6.65099E-03    -46.4275E-03     93.3424E-03    -46.7447E-03     6.47672E-03
            1365     8.59476E-03     120.490E-03     17.7285E+06    -538.143E+03     67.0078E+06    -6.09144E+06    -46.3278E-03     93.6492E-03    -47.3214E-03     8.69509E-03    -46.3498E-03     93.5325E-03    -47.0113E-03     8.51550E-03
            1366     9.45195E-03     120.583E-03     15.9057E+06    -1.58894E+06     68.2399E+06    -5.83128E+06    -46.1414E-03     93.7285E-03    -47.5871E-03     11.0867E-03    -46.1755E-03     93.6108E-03    -47.2666E-03     10.9005E-03
            1367     10.3091E-03     120.684E-03     14.6847E+06    -1.05073E+06     69.6226E+06    -5.81167E+06    -45.9220E-03     93.7548E-03    -47.8328E-03     13.8813E-03    -45.9677E-03     93.6434E-03    -47.5045E-03     13.6863E-03
            1368     11.1659E-03     120.793E-03     12.9131E+06    -89.3405E+03     70.2555E+06    -5.74815E+06    -45.7570E-03     93.8103E-03    -48.0533E-03     17.2359E-03    -45.8165E-03     93.7097E-03    -47.7206E-03     17.0340E-03
            1369     12.0228E-03     120.907E-03     9.72820E+06    -1.55899E+06     69.1586E+06    -5.65555E+06    -45.6957E-03     93.9386E-03    -48.2429E-03     21.4933E-03    -45.7695E-03     93.8414E-03    -47.9090E-03     21.2867E-03
            1370     12.8797E-03     121.026E-03     6.95951E+06    -3.68953E+06     66.5646E+06    -6.28833E+06    -45.9783E-03     94.3739E-03    -48.3956E-03     26.2702E-03    -46.0608E-03     94.2775E-03    -48.0676E-03     26.0514E-03
            1371     13.7382E-03     121.142E-03     6.13186E+06     133.548E+03     65.7771E+06    -6.59302E+06    -47.6659E-03     96.2203E-03    -48.5543E-03     30.4355E-03    -47.7578E-03     96.1480E-03    -48.2345E-03     30.2073E-03
            1372     14.5919E-03     121.254E-03     2.69294E+06     5.38057E+06     62.1018E+06    -5.12015E+06    -51.9856E-03     100.795E-03    -48.8090E-03     33.2674E-03    -52.0970E-03     100.760E-03    -48.5102E-03     33.0479E-03
            1373     15.4450E-03     121.353E-03     291.991E+03    -9.13513E+06     48.7401E+06    -6.39172E+06    -59.4643E-03     108.744E-03    -49.2797E-03     33.9389E-03    -59.5453E-03     108.659E-03    -49.0232E-03     33.6868E-03
            1374     16.2819E-03     121.433E-03     2.26988E+06    -2.71258E+06     38.0397E+06    -5.57532E+06    -67.9036E-03     117.933E-03    -50.0295E-03     28.0273E-03    -67.9601E-03     117.884E-03    -49.8386E-03     27.7941E-03
            1375     16.2425E-03     60.1821E-03    -4.17118E+06     110.983E+06     76.6916E+06    -7.22392E+03    -50.8629E-03     102.535E-03    -51.6720E-03     15.8478E-03    -51.2188E-03     103.048E-03    -51.4435E-03     15.5015E-03
            1376     15.3874E-03     60.1590E-03    -8.33741E+06     108.765E+06       63.68E+06    -30.1078E+03    -50.9844E-03     102.617E-03    -51.6329E-03     28.7178E-03    -51.3814E-03     103.186E-03    -51.4601E-03     28.2904E-03
            1377     14.5323E-03     60.1254E-03    -12.3476E+06     101.291E+06     55.3662E+06     46.4516E+03    -51.1422E-03     102.768E-03    -51.6259E-03     38.1611E-03    -51.5602E-03     103.341E-03    -51.4780E-03     37.7203E-03
            1378     13.6772E-03     60.0834E-03    -16.2327E+06     69.4851E+06     46.9934E+06     125.629E+03    -51.3814E-03     103.035E-03    -51.6540E-03     45.5872E-03    -51.7834E-03     103.490E-03    -51.4962E-03     45.1276E-03
            1379     12.8222E-03     60.0349E-03    -20.0217E+06     26.8111E+06     36.7906E+06     150.766E+03    -51.6600E-03     103.346E-03    -51.6864E-03     51.5043E-03    -52.0201E-03     103.624E-03    -51.5123E-03     51.0329E-03
            1380     11.9672E-03     59.9810E-03    -23.8413E+06     3.16532E+06     31.9738E+06     217.901E+03    -51.8412E-03     103.558E-03    -51.7166E-03     56.1077E-03    -52.1868E-03     103.737E-03    -51.5267E-03     55.6335E-03
            1381     11.1122E-03     59.9233E-03    -27.8309E+06    -19.3352E+06     24.7654E+06     193.233E+03    -51.9890E-03     103.722E-03    -51.7332E-03     58.9394E-03    -52.3094E-03     103.803E-03    -51.5409E-03     58.4715E-03
            1382     10.2573E-03     59.8638E-03    -31.9785E+06    -41.0159E+06     18.3159E+06     110.711E+03    -52.0884E-03     103.841E-03    -51.7523E-03     60.0478E-03    -52.3772E-03     103.817E-03    -51.5548E-03     59.5975E-03
            1383     9.40240E-03     59.8038E-03    -36.2590E+06    -59.3441E+06     11.3873E+06     72.9656E+03    -52.1366E-03     103.901E-03    -51.7642E-03     59.6814E-03    -52.3916E-03     103.783E-03    -51.5687E-03     59.2605E-03
            1384     8.54752E-03     59.7449E-03    -40.6848E+06    -78.9964E+06     4.37484E+06     43.9947E+03    -52.1526E-03     103.931E-03    -51.7780E-03     58.0465E-03    -52.3690E-03     103.709E-03    -51.5826E-03     57.6634E-03
            1385     7.69266E-03     59.6881E-03    -45.3203E+06    -96.1345E+06    -2.56235E+06     17.3951E+03    -52.1296E-03     103.918E-03    -51.7889E-03     55.3762E-03    -52.3113E-03     103.605E-03    -51.5966E-03     55.0362E-03
            1386     6.83782E-03     59.6345E-03    -50.2404E+06    -112.796E+06    -9.62003E+06    -6.91258E+03    -52.0806E-03     103.880E-03    -51.7994E-03     51.7722E-03    -52.2309E-03     103.479E-03    -51.6111E-03     51.4771E-03
            1387     5.98300E-03     59.5849E-03    -55.5241E+06    -128.320E+06    -17.1745E+06    -16.4763E+03    -52.0119E-03     103.819E-03    -51.8069E-03     47.3407E-03    -52.1358E-03     103.340E-03    -51.6262E-03     47.0907E-03
            1388     5.12821E-03     59.5400E-03    -61.2315E+06    -143.940E+06    -25.7088E+06    -11.5974E+03    -51.9371E-03     103.748E-03    -51.8108E-03     42.1631E-03    -52.0382E-03     103.195E-03    -51.6418E-03     41.9568E-03
            1389     4.27344E-03     59.5007E-03    -67.2796E+06    -156.932E+06    -36.4486E+06     3.22852E+03    -51.8600E-03     103.661E-03    -51.8007E-03     36.3277E-03    -51.9435E-03     103.054E-03    -51.6578E-03     36.1626E-03
            1390     3.41869E-03     59.4675E-03    -73.3436E+06    -167.104E+06    -49.4732E+06         418.629    -51.7894E-03     103.565E-03    -51.7751E-03     29.9181E-03    -51.8592E-03     102.924E-03    -51.6739E-03     29.7912E-03
            1391     2.56398E-03     59.4410E-03    -78.9442E+06    -177.360E+06    -63.2741E+06    -5.01264E+03    -51.7404E-03     103.485E-03    -51.7443E-03     23.0234E-03    -51.7957E-03     102.814E-03    -51.6891E-03     22.9313E-03
            1392     1.70930E-03     59.4216E-03    -83.5385E+06    -186.093E+06    -75.6181E+06        -100.852    -51.7098E-03     103.424E-03    -51.7145E-03     15.7957E-03    -51.7523E-03     102.729E-03    -51.7017E-03     15.7354E-03
            1393     854.639E-06     59.4094E-03    -86.6444E+06    -192.038E+06    -84.4228E+06     9.92108E+03    -51.7219E-03     103.387E-03    -51.6647E-03     8.68223E-03    -51.7557E-03     102.676E-03    -51.6827E-03     8.65021E-03
            1394     16.2426E-03     59.1309E-03    -4.18861E+06     110.979E+06     76.9621E+06     5.78579E+03    -50.8879E-03     102.562E-03    -51.6739E-03     15.7839E-03    -51.2442E-03     103.074E-03    -51.4439E-03     15.4372E-03
            1395     15.3875E-03     59.1079E-03    -8.34024E+06     108.794E+06     64.0569E+06     22.7311E+03    -51.0027E-03     102.637E-03    -51.6340E-03     28.6556E-03    -51.4003E-03     103.205E-03    -51.4594E-03     28.2286E-03
            1396     14.5323E-03     59.0743E-03    -12.3402E+06     101.235E+06     55.4646E+06    -13.4332E+03    -51.1491E-03     102.774E-03    -51.6249E-03     38.1364E-03    -51.5671E-03     103.347E-03    -51.4765E-03     37.6949E-03
            1397     13.6772E-03     59.0323E-03    -16.2665E+06     69.4324E+06     46.9342E+06     19.6067E+03    -51.3861E-03     103.038E-03    -51.6517E-03     45.5600E-03    -51.7881E-03     103.492E-03    -51.4941E-03     45.0990E-03
            1398     12.8222E-03     58.9839E-03    -20.0862E+06     26.7717E+06     36.7194E+06     92.6895E+03    -51.6661E-03     103.350E-03    -51.6835E-03     51.4742E-03    -52.0262E-03     103.627E-03    -51.5096E-03     51.0020E-03
            1399     11.9672E-03     58.9300E-03    -23.9409E+06     3.10771E+06     31.8960E+06     139.727E+03    -51.8463E-03     103.559E-03    -51.7131E-03     56.0757E-03    -52.1921E-03     103.739E-03    -51.5234E-03     55.6005E-03
            1400     11.1123E-03     58.8723E-03    -27.9138E+06    -19.2267E+06     24.7483E+06     167.938E+03    -51.9929E-03     103.722E-03    -51.7290E-03     58.9063E-03    -52.3138E-03     103.804E-03    -51.5369E-03     58.4381E-03
            1401     10.2574E-03     58.8128E-03    -32.0085E+06    -40.9214E+06     18.3110E+06     129.366E+03    -52.0909E-03     103.838E-03    -51.7474E-03     60.0141E-03    -52.3798E-03     103.815E-03    -51.5501E-03     59.5641E-03
            1402     9.40246E-03     58.7528E-03    -36.2763E+06    -59.2843E+06     11.3743E+06     78.9344E+03    -52.1375E-03     103.896E-03    -51.7587E-03     59.6481E-03    -52.3926E-03     103.779E-03    -51.5633E-03     59.2274E-03
            1403     8.54757E-03     58.6940E-03    -40.7002E+06    -78.9435E+06     4.35863E+06     48.9262E+03    -52.1519E-03     103.924E-03    -51.7718E-03     58.0139E-03    -52.3683E-03     103.703E-03    -51.5765E-03     57.6310E-03
            1404     7.69271E-03     58.6372E-03    -45.3331E+06    -96.0892E+06    -2.57777E+06     23.4341E+03    -52.1274E-03     103.910E-03    -51.7821E-03     55.3447E-03    -52.3092E-03     103.597E-03    -51.5899E-03     55.0048E-03
            1405     6.83787E-03     58.5836E-03    -50.2572E+06    -112.760E+06    -9.63983E+06     3.27085E+03    -52.0770E-03     103.869E-03    -51.7920E-03     51.7425E-03    -52.2274E-03     103.469E-03    -51.6038E-03     51.4477E-03
            1406     5.98305E-03     58.5340E-03    -55.5481E+06    -128.307E+06    -17.2034E+06    -7.53603E+03    -52.0069E-03     103.806E-03    -51.7989E-03     47.3133E-03    -52.1309E-03     103.327E-03    -51.6183E-03     47.0636E-03
            1407     5.12825E-03     58.4892E-03    -61.2556E+06    -143.939E+06    -25.7227E+06    -6.43559E+03    -51.9309E-03     103.733E-03    -51.8024E-03     42.1388E-03    -52.0321E-03     103.181E-03    -51.6335E-03     41.9326E-03
            1408     4.27348E-03     58.4499E-03    -67.2994E+06    -156.927E+06    -36.4393E+06    -5.51711E+03    -51.8528E-03     103.645E-03    -51.7919E-03     36.3070E-03    -51.9364E-03     103.038E-03    -51.6490E-03     36.1420E-03
            1409     3.41872E-03     58.4167E-03    -73.3684E+06    -167.087E+06    -49.4658E+06    -2.10927E+03    -51.7812E-03     103.547E-03    -51.7660E-03     29.9013E-03    -51.8512E-03     102.907E-03    -51.6647E-03     29.7744E-03
            1410     2.56401E-03     58.3902E-03    -78.9657E+06    -177.358E+06    -63.2910E+06    -7.74312E+03    -51.7314E-03     103.466E-03    -51.7348E-03     23.0107E-03    -51.7868E-03     102.795E-03    -51.6796E-03     22.9185E-03
            1411     1.70931E-03     58.3708E-03    -83.5496E+06    -186.090E+06    -75.6402E+06         212.195    -51.7002E-03     103.405E-03    -51.7048E-03     15.7869E-03    -51.7427E-03     102.710E-03    -51.6920E-03     15.7267E-03
            1412     854.650E-06     58.3587E-03    -86.6556E+06    -192.010E+06    -84.3946E+06     26.9118E+03    -51.7121E-03     103.367E-03    -51.6550E-03     8.67736E-03    -51.7460E-03     102.656E-03    -51.6729E-03     8.64559E-03
            1413     16.2426E-03     58.0798E-03    -4.21834E+06     110.983E+06     76.9062E+06         559.034    -50.8939E-03     102.566E-03    -51.6724E-03     15.7689E-03    -51.2502E-03     103.079E-03    -51.4427E-03     15.4222E-03
            1414     15.3875E-03     58.0568E-03    -8.33539E+06     108.834E+06     63.9536E+06    -18.1046E+03    -51.0015E-03     102.633E-03    -51.6319E-03     28.6356E-03    -51.3989E-03     103.202E-03    -51.4579E-03     28.2080E-03
            1415     14.5324E-03     58.0232E-03    -12.2996E+06     101.259E+06     55.4398E+06    -22.9471E+03    -51.1562E-03     102.779E-03    -51.6229E-03     38.1104E-03    -51.5738E-03     103.352E-03    -51.4747E-03     37.6688E-03
            1416     13.6773E-03     57.9812E-03    -16.2788E+06     69.3652E+06     46.8818E+06    -6.48693E+03    -51.3944E-03     103.044E-03    -51.6492E-03     45.5299E-03    -51.7961E-03     103.498E-03    -51.4917E-03     45.0687E-03
            1417     12.8223E-03     57.9328E-03    -20.1395E+06     26.7153E+06     36.6573E+06     44.0185E+03    -51.6731E-03     103.353E-03    -51.6803E-03     51.4418E-03    -52.0332E-03     103.631E-03    -51.5065E-03     50.9691E-03
            1418     11.9673E-03     57.8790E-03    -23.9886E+06     3.08207E+06     31.8418E+06     92.3919E+03    -51.8521E-03     103.561E-03    -51.7091E-03     56.0419E-03    -52.1979E-03     103.740E-03    -51.5196E-03     55.5662E-03
            1419     11.1123E-03     57.8213E-03    -27.9740E+06    -19.2083E+06     24.7034E+06     105.872E+03    -51.9973E-03     103.722E-03    -51.7242E-03     58.8714E-03    -52.3183E-03     103.803E-03    -51.5323E-03     58.4025E-03
            1420     10.2574E-03     57.7618E-03    -32.0621E+06    -40.8451E+06     18.2896E+06     104.710E+03    -52.0938E-03     103.836E-03    -51.7418E-03     59.9779E-03    -52.3829E-03     103.813E-03    -51.5447E-03     59.5277E-03
            1421     9.40251E-03     57.7019E-03    -36.3068E+06    -59.2237E+06     11.3567E+06     78.4766E+03    -52.1386E-03     103.891E-03    -51.7523E-03     59.6115E-03    -52.3937E-03     103.774E-03    -51.5570E-03     59.1910E-03
            1422     8.54763E-03     57.6430E-03    -40.7275E+06    -78.8935E+06     4.33754E+06     51.2277E+03    -52.1510E-03     103.916E-03    -51.7646E-03     57.9778E-03    -52.3675E-03     103.695E-03    -51.5695E-03     57.5952E-03
            1423     7.69277E-03     57.5863E-03    -45.3646E+06    -96.0481E+06    -2.60074E+06     31.6225E+03    -52.1247E-03     103.899E-03    -51.7742E-03     55.3100E-03    -52.3065E-03     103.586E-03    -51.5822E-03     54.9704E-03
            1424     6.83793E-03     57.5328E-03    -50.2882E+06    -112.722E+06    -9.65843E+06     12.5692E+03    -52.0727E-03     103.856E-03    -51.7835E-03     51.7097E-03    -52.2231E-03     103.456E-03    -51.5954E-03     51.4151E-03
            1425     5.98310E-03     57.4832E-03    -55.5718E+06    -128.290E+06    -17.2212E+06         770.082    -52.0012E-03     103.791E-03    -51.7898E-03     47.2831E-03    -52.1252E-03     103.312E-03    -51.6093E-03     47.0336E-03
            1426     5.12830E-03     57.4384E-03    -61.2732E+06    -143.925E+06    -25.7580E+06    -6.94366E+03    -51.9239E-03     103.717E-03    -51.7927E-03     42.1120E-03    -52.0250E-03     103.164E-03    -51.6239E-03     41.9060E-03
            1427     4.27352E-03     57.3991E-03    -67.3186E+06    -156.915E+06    -36.4758E+06    -10.3362E+03    -51.8444E-03     103.626E-03    -51.7817E-03     36.2842E-03    -51.9281E-03     103.020E-03    -51.6390E-03     36.1192E-03
            1428     3.41876E-03     57.3659E-03    -73.3879E+06    -167.087E+06    -49.4851E+06    -11.3196E+03    -51.7719E-03     103.527E-03    -51.7555E-03     29.8828E-03    -51.8419E-03     102.887E-03    -51.6542E-03     29.7559E-03
            1429     2.56403E-03     57.3394E-03    -78.9856E+06    -177.347E+06    -63.2908E+06    -10.4006E+03    -51.7213E-03     103.445E-03    -51.7240E-03     22.9964E-03    -51.7768E-03     102.774E-03    -51.6688E-03     22.9043E-03
            1430     1.70933E-03     57.3200E-03    -83.6012E+06    -186.094E+06    -75.6373E+06    -2.51052E+03    -51.6895E-03     103.383E-03    -51.6937E-03     15.7772E-03    -51.7323E-03     102.688E-03    -51.6809E-03     15.7169E-03
            1431     854.658E-06     57.3079E-03    -86.7165E+06    -191.989E+06    -84.4589E+06     17.4924E+03    -51.7006E-03     103.344E-03    -51.6433E-03     8.67237E-03    -51.7347E-03     102.634E-03    -51.6615E-03     8.64050E-03
            1432     16.2426E-03     57.0286E-03    -4.18030E+06     111.023E+06     76.9829E+06    -4.75995E+03    -50.8947E-03     102.566E-03    -51.6717E-03     15.7594E-03    -51.2510E-03     103.079E-03    -51.4417E-03     15.4125E-03
            1433     15.3875E-03     57.0056E-03    -8.32839E+06     108.874E+06     63.9797E+06    -38.2132E+03    -51.0104E-03     102.641E-03    -51.6307E-03     28.6145E-03    -51.4078E-03     103.210E-03    -51.4565E-03     28.1866E-03
            1434     14.5324E-03     56.9721E-03    -12.3356E+06     101.239E+06     55.4129E+06    -40.2159E+03    -51.1670E-03     102.788E-03    -51.6208E-03     38.0809E-03    -51.5846E-03     103.360E-03    -51.4727E-03     37.6390E-03
            1435     13.6773E-03     56.9302E-03    -16.2820E+06     69.3393E+06     46.8490E+06    -1.96890E+03    -51.4039E-03     103.050E-03    -51.6462E-03     45.4973E-03    -51.8054E-03     103.504E-03    -51.4889E-03     45.0362E-03
            1436     12.8223E-03     56.8818E-03    -20.1451E+06     26.6721E+06     36.6172E+06     26.3878E+03    -51.6812E-03     103.358E-03    -51.6765E-03     51.4065E-03    -52.0411E-03     103.635E-03    -51.5029E-03     50.9336E-03
            1437     11.9673E-03     56.8280E-03    -24.0227E+06     3.07058E+06     31.7985E+06     48.1277E+03    -51.8586E-03     103.563E-03    -51.7045E-03     56.0051E-03    -52.2044E-03     103.742E-03    -51.5151E-03     55.5289E-03
            1438     11.1124E-03     56.7703E-03    -28.0109E+06    -19.1954E+06     24.6657E+06     62.2543E+03    -52.0023E-03     103.721E-03    -51.7187E-03     58.8332E-03    -52.3232E-03     103.803E-03    -51.5269E-03     58.3639E-03
            1439     10.2575E-03     56.7109E-03    -32.1095E+06    -40.8221E+06     18.2560E+06     64.8834E+03    -52.0971E-03     103.833E-03    -51.7354E-03     59.9381E-03    -52.3863E-03     103.810E-03    -51.5384E-03     59.4875E-03
            1440     9.40258E-03     56.6510E-03    -36.3554E+06    -59.1725E+06     11.3338E+06     61.1276E+03    -52.1399E-03     103.885E-03    -51.7450E-03     59.5712E-03    -52.3952E-03     103.768E-03    -51.5499E-03     59.1506E-03
            1441     8.54770E-03     56.5921E-03    -40.7651E+06    -78.8570E+06     4.31411E+06     47.7840E+03    -52.1502E-03     103.907E-03    -51.7565E-03     57.9380E-03    -52.3667E-03     103.686E-03    -51.5615E-03     57.5555E-03
            1442     7.69284E-03     56.5355E-03    -45.3914E+06     -96.008E+06    -2.61827E+06     34.5810E+03    -52.1216E-03     103.887E-03    -51.7653E-03     55.2716E-03    -52.3035E-03     103.574E-03    -51.5733E-03     54.9323E-03
            1443     6.83800E-03     56.4819E-03    -50.3079E+06    -112.684E+06    -9.66825E+06     15.9462E+03    -52.0676E-03     103.841E-03    -51.7738E-03     51.6735E-03    -52.2181E-03     103.441E-03    -51.5858E-03     51.3792E-03
            1444     5.98317E-03     56.4324E-03    -55.5879E+06    -128.265E+06    -17.2330E+06         255.936    -51.9944E-03     103.774E-03    -51.7795E-03     47.2499E-03    -52.1185E-03     103.295E-03    -51.5991E-03     47.0006E-03
            1445     5.12835E-03     56.3876E-03    -61.2858E+06    -143.908E+06    -25.7778E+06    -7.37014E+03    -51.9157E-03     103.697E-03    -51.7817E-03     42.0828E-03    -52.0169E-03     103.145E-03    -51.6131E-03     41.8769E-03
            1446     4.27357E-03     56.3483E-03    -67.3275E+06    -156.909E+06    -36.5007E+06    -9.34839E+03    -51.8350E-03     103.605E-03    -51.7702E-03     36.2592E-03    -51.9186E-03     102.999E-03    -51.6276E-03     36.0943E-03
            1447     3.41880E-03     56.3152E-03    -73.3969E+06    -167.077E+06    -49.4921E+06    -15.0852E+03    -51.7614E-03     103.505E-03    -51.7436E-03     29.8622E-03    -51.8314E-03     102.865E-03    -51.6424E-03     29.7353E-03
            1448     2.56406E-03     56.2887E-03    -79.0116E+06    -177.340E+06    -63.2863E+06    -14.1385E+03    -51.7098E-03     103.422E-03    -51.7118E-03     22.9805E-03    -51.7654E-03     102.751E-03    -51.6566E-03     22.8884E-03
            1449     1.70935E-03     56.2693E-03    -83.6222E+06    -186.092E+06    -75.6438E+06    -1.12359E+03    -51.6772E-03     103.358E-03    -51.6812E-03     15.7666E-03    -51.7201E-03     102.663E-03    -51.6684E-03     15.7064E-03
            1450     854.671E-06     56.2572E-03    -86.7318E+06    -191.986E+06    -84.4651E+06    -4.19584E+03    -51.6878E-03     103.319E-03    -51.6308E-03     8.66722E-03    -51.7220E-03     102.608E-03    -51.6490E-03     8.63509E-03
            1451     16.2426E-03     55.9775E-03    -4.18504E+06     111.049E+06     77.0113E+06      -21.54E+03    -50.9080E-03     102.579E-03    -51.6711E-03     15.7435E-03    -51.2644E-03     103.092E-03    -51.4410E-03     15.3964E-03
            1452     15.3875E-03     55.9545E-03    -8.32406E+06     108.909E+06     63.9751E+06    -24.4114E+03    -51.0242E-03     102.653E-03    -51.6291E-03     28.5898E-03    -51.4216E-03     103.222E-03    -51.4551E-03     28.1620E-03
            1453     14.5324E-03     55.9210E-03    -12.3384E+06     101.234E+06     55.3820E+06    -32.8924E+03    -51.1787E-03     102.797E-03    -51.6183E-03     38.0486E-03    -51.5962E-03     103.369E-03    -51.4703E-03     37.6069E-03
            1454     13.6773E-03     55.8791E-03    -16.3168E+06     69.3014E+06     46.8062E+06    -20.1986E+03    -51.4146E-03     103.057E-03    -51.6429E-03     45.4615E-03    -51.8160E-03     103.511E-03    -51.4857E-03     45.0001E-03
            1455     12.8224E-03     55.8307E-03    -20.1616E+06     26.6606E+06     36.5875E+06     12.9200E+03    -51.6905E-03     103.363E-03    -51.6722E-03     51.3676E-03    -52.0502E-03     103.639E-03    -51.4987E-03     50.8946E-03
            1456     11.9674E-03     55.7769E-03    -24.0268E+06     3.06935E+06     31.7744E+06     24.6255E+03    -51.8662E-03     103.565E-03    -51.6992E-03     55.9638E-03    -52.2117E-03     103.744E-03    -51.5099E-03     55.4874E-03
            1457     11.1125E-03     55.7193E-03    -28.0353E+06    -19.1881E+06     24.6375E+06     30.9922E+03    -52.0079E-03     103.720E-03    -51.7124E-03     58.7903E-03    -52.3288E-03     103.802E-03    -51.5208E-03     58.3207E-03
            1458     10.2576E-03     55.6599E-03    -32.1443E+06    -40.8101E+06     18.2270E+06     39.1745E+03    -52.1006E-03     103.829E-03    -51.7282E-03     59.8938E-03    -52.3898E-03     103.806E-03    -51.5313E-03     59.4430E-03
            1459     9.40266E-03     55.6000E-03    -36.3985E+06    -59.1468E+06     11.3090E+06     38.9433E+03    -52.1413E-03     103.878E-03    -51.7368E-03     59.5265E-03    -52.3966E-03     103.761E-03    -51.5417E-03     59.1058E-03
            1460     8.54778E-03     55.5412E-03    -40.8130E+06    -78.8292E+06     4.29079E+06     36.5840E+03    -52.1491E-03     103.896E-03    -51.7472E-03     57.8937E-03    -52.3658E-03     103.676E-03    -51.5523E-03     57.5113E-03
            1461     7.69292E-03     55.4846E-03    -45.4363E+06    -95.9675E+06    -2.64141E+06     21.6119E+03    -52.1179E-03     103.873E-03    -51.7551E-03     55.2296E-03    -52.3000E-03     103.561E-03    -51.5633E-03     54.8903E-03
            1462     6.83807E-03     55.4311E-03    -50.3371E+06    -112.649E+06    -9.68789E+06     1.48587E+03    -52.0616E-03     103.824E-03    -51.7628E-03     51.6344E-03    -52.2122E-03     103.425E-03    -51.5749E-03     51.3401E-03
            1463     5.98324E-03     55.3816E-03    -55.6031E+06    -128.245E+06    -17.2519E+06    -5.89141E+03    -51.9866E-03     103.754E-03    -51.7678E-03     47.2139E-03    -52.1108E-03     103.276E-03    -51.5875E-03     46.9647E-03
            1464     5.12842E-03     55.3368E-03    -61.2985E+06    -143.892E+06    -25.7800E+06    -9.36266E+03    -51.9063E-03     103.676E-03    -51.7694E-03     42.0508E-03    -52.0075E-03     103.123E-03    -51.6008E-03     41.8451E-03
            1465     4.27362E-03     55.2976E-03    -67.3378E+06    -156.898E+06    -36.4863E+06    -16.0466E+03    -51.8243E-03     103.582E-03    -51.7574E-03     36.2317E-03    -51.9080E-03     102.975E-03    -51.6147E-03     36.0669E-03
            1466     3.41885E-03     55.2644E-03    -73.4134E+06    -167.070E+06    -49.4956E+06    -11.7455E+03    -51.7494E-03     103.480E-03    -51.7302E-03     29.8396E-03    -51.8196E-03     102.840E-03    -51.6290E-03     29.7129E-03
            1467     2.56410E-03     55.2380E-03    -79.0271E+06    -177.341E+06    -63.3056E+06    -9.36554E+03    -51.6969E-03     103.395E-03    -51.6980E-03     22.9629E-03    -51.7525E-03     102.724E-03    -51.6428E-03     22.8710E-03
            1468     1.70938E-03     55.2186E-03    -83.6421E+06    -186.098E+06    -75.6689E+06    -17.5888E+03    -51.6634E-03     103.330E-03    -51.6670E-03     15.7544E-03    -51.7064E-03     102.635E-03    -51.6542E-03     15.6940E-03
            1469     854.680E-06     55.2065E-03    -86.7413E+06    -191.967E+06    -84.4926E+06    -17.7217E+03    -51.6734E-03     103.290E-03    -51.6164E-03     8.66011E-03    -51.7076E-03     102.580E-03    -51.6348E-03     8.62783E-03
            1470     16.2426E-03     54.9263E-03    -4.21282E+06     111.074E+06     76.9967E+06    -30.5216E+03    -50.9242E-03     102.594E-03    -51.6702E-03     15.7254E-03    -51.2806E-03     103.107E-03    -51.4402E-03     15.3781E-03
            1471     15.3875E-03     54.9033E-03    -8.35294E+06     108.910E+06     63.9378E+06    -34.0977E+03    -51.0389E-03     102.666E-03    -51.6272E-03     28.5630E-03    -51.4362E-03     103.235E-03    -51.4533E-03     28.1351E-03
            1472     14.5325E-03     54.8698E-03    -12.3425E+06     101.245E+06     55.3643E+06    -21.2706E+03    -51.1924E-03     102.808E-03    -51.6155E-03     38.0141E-03    -51.6098E-03     103.380E-03    -51.4676E-03     37.5725E-03
            1473     13.6774E-03     54.8280E-03    -16.3058E+06     69.2920E+06     46.7899E+06    -16.9669E+03    -51.4268E-03     103.066E-03    -51.6391E-03     45.4227E-03    -51.8280E-03     103.519E-03    -51.4820E-03     44.9615E-03
            1474     12.8224E-03     54.7796E-03    -20.1734E+06     26.6467E+06     36.5627E+06    -10.8015E+03    -51.7010E-03     103.368E-03    -51.6674E-03     51.3255E-03    -52.0606E-03     103.645E-03    -51.4939E-03     50.8522E-03
            1475     11.9675E-03     54.7259E-03    -24.0453E+06     3.07344E+06     31.7519E+06     5.93803E+03    -51.8746E-03     103.568E-03    -51.6932E-03     55.9194E-03    -52.2201E-03     103.747E-03    -51.5040E-03     55.4429E-03
            1476     11.1125E-03     54.6683E-03    -28.0503E+06    -19.1846E+06     24.6157E+06     16.8399E+03    -52.0142E-03     103.720E-03    -51.7053E-03     58.7438E-03    -52.3349E-03     103.801E-03    -51.5138E-03     58.2742E-03
            1477     10.2576E-03     54.6089E-03    -32.1685E+06    -40.7994E+06     18.2058E+06     21.7391E+03    -52.1045E-03     103.824E-03    -51.7199E-03     59.8454E-03    -52.3936E-03     103.802E-03    -51.5231E-03     59.3946E-03
            1478     9.40275E-03     54.5491E-03    -36.4281E+06    -59.1316E+06     11.2895E+06     25.0327E+03    -52.1426E-03     103.870E-03    -51.7274E-03     59.4773E-03    -52.3979E-03     103.753E-03    -51.5324E-03     59.0566E-03
            1479     8.54787E-03     54.4904E-03    -40.8429E+06    -78.8050E+06     4.27404E+06     21.3925E+03    -52.1477E-03     103.885E-03    -51.7368E-03     57.8449E-03    -52.3644E-03     103.664E-03    -51.5419E-03     57.4624E-03
            1480     7.69301E-03     54.4337E-03    -45.4625E+06    -95.9201E+06    -2.65781E+06     2.26425E+03    -52.1137E-03     103.857E-03    -51.7436E-03     55.1831E-03    -52.2958E-03     103.545E-03    -51.5519E-03     54.8438E-03
            1481     6.83815E-03     54.3803E-03    -50.3699E+06    -112.622E+06    -9.71294E+06    -19.9039E+03    -52.0549E-03     103.805E-03    -51.7504E-03     51.5912E-03    -52.2056E-03     103.406E-03    -51.5626E-03     51.2969E-03
            1482     5.98331E-03     54.3308E-03    -55.6388E+06    -128.240E+06    -17.2768E+06    -21.9866E+03    -51.9779E-03     103.732E-03    -51.7546E-03     47.1743E-03    -52.1020E-03     103.254E-03    -51.5744E-03     46.9250E-03
            1483     5.12849E-03     54.2861E-03    -61.3231E+06    -143.875E+06    -25.7996E+06    -21.9816E+03    -51.8956E-03     103.651E-03    -51.7555E-03     42.0157E-03    -51.9969E-03     103.099E-03    -51.5870E-03     41.8100E-03
            1484     4.27368E-03     54.2469E-03    -67.3597E+06    -156.891E+06    -36.5041E+06    -22.6424E+03    -51.8120E-03     103.555E-03    -51.7429E-03     36.2019E-03    -51.8957E-03     102.948E-03    -51.6003E-03     36.0372E-03
            1485     3.41890E-03     54.2137E-03    -73.4318E+06    -167.073E+06    -49.5162E+06    -16.4354E+03    -51.7360E-03     103.451E-03    -51.7152E-03     29.8155E-03    -51.8061E-03     102.811E-03    -51.6141E-03     29.6888E-03
            1486     2.56414E-03     54.1873E-03    -79.0342E+06    -177.340E+06    -63.3306E+06    -8.19372E+03    -51.6826E-03     103.365E-03    -51.6824E-03     22.9442E-03    -51.7383E-03     102.694E-03    -51.6274E-03     22.8523E-03
            1487     1.70941E-03     54.1679E-03    -83.6331E+06    -186.082E+06    -75.6782E+06    -17.9555E+03    -51.6484E-03     103.299E-03    -51.6511E-03     15.7411E-03    -51.6914E-03     102.604E-03    -51.6384E-03     15.6808E-03
            1488     854.697E-06     54.1558E-03    -86.8014E+06    -191.987E+06    -84.5060E+06    -16.9608E+03    -51.6576E-03     103.257E-03    -51.5998E-03     8.65268E-03    -51.6921E-03     102.547E-03    -51.6180E-03     8.62045E-03
            1489     16.2426E-03     53.8751E-03    -4.21163E+06     111.109E+06     77.0005E+06    -19.5615E+03    -50.9420E-03     102.611E-03    -51.6692E-03     15.7059E-03    -51.2985E-03     103.124E-03    -51.4392E-03     15.3587E-03
            1490     15.3876E-03     53.8522E-03    -8.36981E+06     108.920E+06     63.9186E+06    -38.5461E+03    -51.0556E-03     102.681E-03    -51.6251E-03     28.5338E-03    -51.4529E-03     103.250E-03    -51.4513E-03     28.1058E-03
            1491     14.5325E-03     53.8187E-03    -12.3636E+06     101.235E+06     55.3324E+06    -39.8090E+03    -51.2079E-03     102.820E-03    -51.6123E-03     37.9763E-03    -51.6252E-03     103.393E-03    -51.4645E-03     37.5345E-03
            1492     13.6775E-03     53.7768E-03    -16.3099E+06     69.2939E+06     46.7750E+06    -21.1914E+03    -51.4407E-03     103.075E-03    -51.6347E-03     45.3800E-03    -51.8417E-03     103.529E-03    -51.4777E-03     44.9188E-03
            1493     12.8225E-03     53.7286E-03    -20.1655E+06     26.6496E+06     36.5514E+06    -10.4257E+03    -51.7127E-03     103.375E-03    -51.6618E-03     51.2787E-03    -52.0720E-03     103.651E-03    -51.4885E-03     50.8055E-03
            1494     11.9676E-03     53.6749E-03    -24.0533E+06     3.06814E+06     31.7332E+06    -4.96467E+03    -51.8841E-03     103.571E-03    -51.6864E-03     55.8699E-03    -52.2294E-03     103.749E-03    -51.4973E-03     55.3934E-03
            1495     11.1126E-03     53.6173E-03    -28.0697E+06    -19.1782E+06     24.5973E+06     5.98174E+03    -52.0212E-03     103.719E-03    -51.6973E-03     58.6922E-03    -52.3418E-03     103.800E-03    -51.5058E-03     58.2226E-03
            1496     10.2577E-03     53.5580E-03    -32.1868E+06    -40.7894E+06     18.1896E+06     11.1599E+03    -52.1088E-03     103.819E-03    -51.7106E-03     59.7918E-03    -52.3978E-03     103.797E-03    -51.5139E-03     59.3410E-03
            1497     9.40284E-03     53.4982E-03    -36.4463E+06    -59.1177E+06     11.2760E+06     10.6552E+03    -52.1439E-03     103.861E-03    -51.7169E-03     59.4229E-03    -52.3992E-03     103.744E-03    -51.5219E-03     59.0022E-03
            1498     8.54797E-03     53.4395E-03    -40.8559E+06    -78.7737E+06     4.26637E+06         363.396    -52.1459E-03     103.871E-03    -51.7251E-03     57.7908E-03    -52.3625E-03     103.651E-03    -51.5303E-03     57.4083E-03
            1499     7.69311E-03     53.3829E-03    -45.4744E+06    -95.8832E+06    -2.66484E+06    -16.4626E+03    -52.1090E-03     103.840E-03    -51.7308E-03     55.1313E-03    -52.2910E-03     103.528E-03    -51.5391E-03     54.7920E-03
            1500     6.83825E-03     53.3295E-03    -50.3853E+06    -112.599E+06    -9.72291E+06    -28.7942E+03    -52.0476E-03     103.784E-03    -51.7365E-03     51.5432E-03    -52.1982E-03     103.384E-03    -51.5488E-03     51.2489E-03
            1501     5.98340E-03     53.2800E-03    -55.6615E+06    -128.232E+06    -17.2901E+06    -39.0027E+03    -51.9679E-03     103.708E-03    -51.7398E-03     47.1305E-03    -52.0921E-03     103.229E-03    -51.5597E-03     46.8812E-03
            1502     5.12857E-03     53.2353E-03    -61.3535E+06    -143.871E+06    -25.8390E+06    -39.1831E+03    -51.8833E-03     103.623E-03    -51.7399E-03     41.9773E-03    -51.9846E-03     103.071E-03    -51.5715E-03     41.7715E-03
            1503     4.27375E-03     53.1961E-03    -67.3894E+06    -156.894E+06    -36.5556E+06    -31.2517E+03    -51.7979E-03     103.524E-03    -51.7266E-03     36.1695E-03    -51.8817E-03     102.918E-03    -51.5842E-03     36.0048E-03
            1504     3.41896E-03     53.1631E-03    -73.4549E+06    -167.077E+06    -49.5368E+06    -24.6269E+03    -51.7207E-03     103.419E-03    -51.6986E-03     29.7893E-03    -51.7909E-03     102.779E-03    -51.5975E-03     29.6626E-03
            1505     2.56418E-03     53.1366E-03    -79.0497E+06    -177.336E+06    -63.3409E+06    -24.2313E+03    -51.6664E-03     103.332E-03    -51.6654E-03     22.9240E-03    -51.7221E-03     102.661E-03    -51.6103E-03     22.8320E-03
            1506     1.70944E-03     53.1172E-03    -83.6360E+06    -186.080E+06    -75.7043E+06    -16.7288E+03    -51.6314E-03     103.265E-03    -51.6336E-03     15.7269E-03    -51.6743E-03     102.570E-03    -51.6210E-03     15.6667E-03
            1507     854.710E-06     53.1052E-03    -86.7223E+06    -192.012E+06    -84.4937E+06    -14.9902E+03    -51.6405E-03     103.223E-03    -51.5824E-03     8.64516E-03    -51.6745E-03     102.512E-03    -51.6007E-03     8.61298E-03
            1508     16.2427E-03     52.8239E-03    -4.20176E+06     111.137E+06     76.9926E+06    -11.2829E+03    -50.9630E-03     102.631E-03    -51.6680E-03     15.6834E-03    -51.3194E-03     103.144E-03    -51.4381E-03     15.3362E-03
            1509     15.3876E-03     52.8010E-03    -8.34916E+06     108.956E+06     63.9282E+06    -29.0713E+03    -51.0752E-03     102.698E-03    -51.6228E-03     28.5010E-03    -51.4724E-03     103.267E-03    -51.4490E-03     28.0730E-03
            1510     14.5326E-03     52.7675E-03    -12.3565E+06     101.236E+06     55.3312E+06    -46.4822E+03    -51.2254E-03     102.834E-03    -51.6087E-03     37.9347E-03    -51.6425E-03     103.406E-03    -51.4610E-03     37.4927E-03
            1511     13.6775E-03     52.7257E-03    -16.3210E+06     69.2740E+06     46.7532E+06    -34.0716E+03    -51.4561E-03     103.086E-03    -51.6298E-03     45.3336E-03    -51.8569E-03     103.539E-03    -51.4728E-03     44.8721E-03
            1512     12.8226E-03     52.6775E-03    -20.1804E+06     26.6537E+06     36.5356E+06    -11.2791E+03    -51.7258E-03     103.381E-03    -51.6555E-03     51.2275E-03    -52.0850E-03     103.658E-03    -51.4823E-03     50.7544E-03
            1513     11.9676E-03     52.6238E-03    -24.0620E+06     3.07219E+06     31.7197E+06    -2.45916E+03    -51.8945E-03     103.573E-03    -51.6788E-03     55.8157E-03    -52.2396E-03     103.752E-03    -51.4898E-03     55.3393E-03
            1514     11.1127E-03     52.5663E-03    -28.0811E+06    -19.1707E+06     24.5843E+06         235.466    -52.0289E-03     103.717E-03    -51.6883E-03     58.6358E-03    -52.3493E-03     103.799E-03    -51.4968E-03     58.1663E-03
            1515     10.2578E-03     52.5070E-03    -32.2030E+06    -40.7763E+06     18.1768E+06         885.796    -52.1134E-03     103.814E-03    -51.7002E-03     59.7330E-03    -52.4023E-03     103.791E-03    -51.5035E-03     59.2823E-03
            1516     9.40295E-03     52.4473E-03    -36.4620E+06    -59.0976E+06     11.2663E+06    -5.20981E+03    -52.1452E-03     103.850E-03    -51.7051E-03     59.3632E-03    -52.4003E-03     103.733E-03    -51.5102E-03     58.9426E-03
            1517     8.54808E-03     52.3886E-03    -40.8791E+06    -78.7405E+06     4.25888E+06    -18.3517E+03    -52.1437E-03     103.856E-03    -51.7119E-03     57.7315E-03    -52.3603E-03     103.635E-03    -51.5172E-03     57.3491E-03
            1518     7.69322E-03     52.3321E-03    -45.5078E+06    -95.8605E+06    -2.67799E+06    -31.1459E+03    -52.1036E-03     103.820E-03    -51.7164E-03     55.0745E-03    -52.2857E-03     103.508E-03    -51.5248E-03     54.7352E-03
            1519     6.83836E-03     52.2787E-03    -50.4187E+06    -112.576E+06    -9.74176E+06    -43.2849E+03    -52.0390E-03     103.760E-03    -51.7210E-03     51.4907E-03    -52.1897E-03     103.360E-03    -51.5334E-03     51.1966E-03
            1520     5.98350E-03     52.2293E-03    -55.6874E+06    -128.215E+06    -17.3086E+06    -55.0968E+03    -51.9566E-03     103.680E-03    -51.7233E-03     47.0829E-03    -52.0809E-03     103.202E-03    -51.5432E-03     46.8336E-03
            1521     5.12866E-03     52.1846E-03    -61.3749E+06    -143.882E+06    -25.8418E+06    -55.7857E+03    -51.8697E-03     103.592E-03    -51.7226E-03     41.9349E-03    -51.9710E-03     103.040E-03    -51.5542E-03     41.7291E-03
            1522     4.27383E-03     52.1455E-03    -67.4087E+06    -156.900E+06    -36.5505E+06    -44.3942E+03    -51.7822E-03     103.491E-03    -51.7087E-03     36.1335E-03    -51.8661E-03     102.884E-03    -51.5662E-03     35.9688E-03
            1523     3.41902E-03     52.1124E-03    -73.4722E+06    -167.083E+06    -49.5575E+06    -38.8455E+03    -51.7034E-03     103.383E-03    -51.6800E-03     29.7602E-03    -51.7736E-03     102.743E-03    -51.5790E-03     29.6335E-03
            1524     2.56423E-03     52.0860E-03    -79.0677E+06    -177.340E+06    -63.3558E+06    -36.7047E+03    -51.6480E-03     103.294E-03    -51.6465E-03     22.9016E-03    -51.7038E-03     102.624E-03    -51.5914E-03     22.8096E-03
            1525     1.70947E-03     52.0666E-03    -83.6813E+06    -186.095E+06    -75.7195E+06    -35.7286E+03    -51.6124E-03     103.227E-03    -51.6145E-03     15.7109E-03    -51.6554E-03     102.532E-03    -51.6020E-03     15.6505E-03
            1526     854.728E-06     52.0546E-03    -86.7623E+06    -192.037E+06    -84.5403E+06     1.67673E+03    -51.6209E-03     103.184E-03    -51.5633E-03     8.63548E-03    -51.6550E-03     102.474E-03    -51.5818E-03     8.60356E-03
            1527     16.2427E-03     51.7726E-03    -4.20309E+06     111.163E+06     76.9980E+06    -14.3996E+03    -50.9864E-03     102.653E-03    -51.6668E-03     15.6582E-03    -51.3428E-03     103.166E-03    -51.4369E-03     15.3109E-03
            1528     15.3876E-03     51.7498E-03    -8.34430E+06     108.989E+06     63.9315E+06    -28.1812E+03    -51.0969E-03     102.717E-03    -51.6202E-03     28.4649E-03    -51.4940E-03     103.286E-03    -51.4464E-03     28.0368E-03
            1529     14.5326E-03     51.7164E-03    -12.3473E+06     101.248E+06     55.3256E+06    -32.5321E+03    -51.2449E-03     102.850E-03    -51.6047E-03     37.8896E-03    -51.6618E-03     103.422E-03    -51.4570E-03     37.4478E-03
            1530     13.6776E-03     51.6746E-03    -16.3250E+06     69.2619E+06     46.7376E+06    -26.6371E+03    -51.4733E-03     103.098E-03    -51.6243E-03     45.2834E-03    -51.8739E-03     103.551E-03    -51.4674E-03     44.8221E-03
            1531     12.8227E-03     51.6264E-03    -20.1955E+06     26.6478E+06     36.5178E+06    -13.0883E+03    -51.7403E-03     103.389E-03    -51.6485E-03     51.1723E-03    -52.0993E-03     103.665E-03    -51.4753E-03     50.6993E-03
            1532     11.9677E-03     51.5728E-03    -24.0809E+06     3.08016E+06     31.7050E+06    -2.35877E+03    -51.9061E-03     103.576E-03    -51.6703E-03     55.7570E-03    -52.2511E-03     103.755E-03    -51.4813E-03     55.2808E-03
            1533     11.1128E-03     51.5153E-03    -28.0986E+06    -19.1532E+06     24.5735E+06    -2.60217E+03    -52.0373E-03     103.715E-03    -51.6782E-03     58.5746E-03    -52.3576E-03     103.797E-03    -51.4868E-03     58.1052E-03
            1534     10.2580E-03     51.4561E-03    -32.2179E+06    -40.7585E+06     18.1682E+06    -10.3619E+03    -52.1184E-03     103.807E-03    -51.6885E-03     59.6687E-03    -52.4072E-03     103.784E-03    -51.4919E-03     59.2181E-03
            1535     9.40308E-03     51.3964E-03    -36.4775E+06    -59.0727E+06     11.2614E+06    -20.8321E+03    -52.1465E-03     103.838E-03    -51.6919E-03     59.2975E-03    -52.4015E-03     103.722E-03    -51.4971E-03     58.8770E-03
            1536     8.54821E-03     51.3378E-03    -40.8928E+06    -78.7148E+06     4.25689E+06    -31.7981E+03    -52.1413E-03     103.839E-03    -51.6973E-03     57.6664E-03    -52.3578E-03     103.618E-03    -51.5026E-03     57.2840E-03
            1537     7.69334E-03     51.2813E-03    -45.5171E+06    -95.8371E+06    -2.68001E+06    -45.5143E+03    -52.0975E-03     103.798E-03    -51.7004E-03     55.0120E-03    -52.2795E-03     103.486E-03    -51.5089E-03     54.6729E-03
            1538     6.83847E-03     51.2279E-03    -50.4263E+06    -112.556E+06    -9.74797E+06    -60.6580E+03    -52.0296E-03     103.733E-03    -51.7038E-03     51.4331E-03    -52.1802E-03     103.334E-03    -51.5162E-03     51.1390E-03
            1539     5.98361E-03     51.1786E-03    -55.6997E+06    -128.201E+06    -17.3173E+06    -71.5159E+03    -51.9443E-03     103.649E-03    -51.7050E-03     47.0303E-03    -52.0686E-03     103.171E-03    -51.5250E-03     46.7811E-03
            1540     5.12876E-03     51.1340E-03    -61.3925E+06    -143.893E+06    -25.8327E+06    -75.2923E+03    -51.8549E-03     103.558E-03    -51.7035E-03     41.8882E-03    -51.9563E-03     103.006E-03    -51.5350E-03     41.6823E-03
            1541     4.27392E-03     51.0948E-03    -67.4298E+06    -156.921E+06    -36.5501E+06    -63.2743E+03    -51.7650E-03     103.454E-03    -51.6887E-03     36.0938E-03    -51.8489E-03     102.847E-03    -51.5461E-03     35.9290E-03
            1542     3.41909E-03     51.0618E-03    -73.4945E+06    -167.092E+06    -49.5810E+06    -51.5357E+03    -51.6841E-03     103.343E-03    -51.6592E-03     29.7283E-03    -51.7543E-03     102.703E-03    -51.5583E-03     29.6016E-03
            1543     2.56428E-03     51.0354E-03    -79.0988E+06    -177.361E+06    -63.3938E+06    -41.6172E+03    -51.6274E-03     103.253E-03    -51.6253E-03     22.8771E-03    -51.6832E-03     102.582E-03    -51.5704E-03     22.7851E-03
            1544     1.70950E-03     51.0161E-03    -83.7091E+06    -186.100E+06    -75.7291E+06    -35.5406E+03    -51.5912E-03     103.184E-03    -51.5932E-03     15.6935E-03    -51.6344E-03     102.489E-03    -51.5806E-03     15.6332E-03
            1545     854.745E-06     51.0040E-03    -86.8603E+06    -192.075E+06    -84.5529E+06    -15.5548E+03    -51.5993E-03     103.141E-03    -51.5418E-03     8.62579E-03    -51.6338E-03     102.431E-03    -51.5601E-03     8.59369E-03
            1546     16.2427E-03     50.7214E-03    -4.20648E+06     111.195E+06     77.0186E+06    -12.1165E+03    -51.0119E-03     102.677E-03    -51.6654E-03     15.6315E-03    -51.3683E-03     103.190E-03    -51.4355E-03     15.2841E-03
            1547     15.3877E-03     50.6985E-03    -8.36444E+06     109.006E+06     63.9281E+06    -23.0440E+03    -51.1206E-03     102.738E-03    -51.6173E-03     28.4261E-03    -51.5177E-03     103.307E-03    -51.4436E-03     27.9980E-03
            1548     14.5327E-03     50.6652E-03    -12.3739E+06     101.252E+06     55.3076E+06    -22.3399E+03    -51.2666E-03     102.867E-03    -51.6002E-03     37.8403E-03    -51.6835E-03     103.439E-03    -51.4525E-03     37.3986E-03
            1549     13.6777E-03     50.6234E-03    -16.3412E+06     69.2632E+06     46.7233E+06    -13.0569E+03    -51.4923E-03     103.110E-03    -51.6182E-03     45.2283E-03    -51.8927E-03     103.563E-03    -51.4613E-03     44.7672E-03
            1550     12.8228E-03     50.5753E-03    -20.2160E+06     26.6464E+06     36.5005E+06    -2.33248E+03    -51.7562E-03     103.397E-03    -51.6408E-03     51.1119E-03    -52.1151E-03     103.673E-03    -51.4676E-03     50.6391E-03
            1551     11.9679E-03     50.5217E-03    -24.1076E+06     3.09776E+06     31.6921E+06    -3.88468E+03    -51.9187E-03     103.580E-03    -51.6608E-03     55.6929E-03    -52.2636E-03     103.758E-03    -51.4719E-03     55.2168E-03
            1552     11.1130E-03     50.4643E-03    -28.1205E+06    -19.1312E+06     24.5644E+06    -13.7358E+03    -52.0464E-03     103.713E-03    -51.6670E-03     58.5081E-03    -52.3666E-03     103.795E-03    -51.4757E-03     58.0388E-03
            1553     10.2581E-03     50.4051E-03    -32.2350E+06    -40.7331E+06     18.1637E+06    -24.6058E+03    -52.1237E-03     103.799E-03    -51.6757E-03     59.5993E-03    -52.4124E-03     103.776E-03    -51.4791E-03     59.1488E-03
            1554     9.40322E-03     50.3455E-03    -36.4924E+06    -59.0499E+06     11.2581E+06    -37.8114E+03    -52.1479E-03     103.825E-03    -51.6774E-03     59.2266E-03    -52.4028E-03     103.708E-03    -51.4826E-03     58.8061E-03
            1555     8.54835E-03     50.2869E-03    -40.9069E+06    -78.6922E+06     4.25373E+06    -49.5785E+03    -52.1386E-03     103.820E-03    -51.6812E-03     57.5961E-03    -52.3550E-03     103.599E-03    -51.4866E-03     57.2139E-03
            1556     7.69347E-03     50.2305E-03    -45.5316E+06    -95.8128E+06    -2.68214E+06    -63.6363E+03    -52.0909E-03     103.774E-03    -51.6828E-03     54.9444E-03    -52.2728E-03     103.462E-03    -51.4913E-03     54.6053E-03
            1557     6.83860E-03     50.1772E-03    -50.4452E+06    -112.543E+06    -9.75329E+06    -73.7106E+03    -52.0194E-03     103.704E-03    -51.6849E-03     51.3702E-03    -52.1700E-03     103.305E-03    -51.4973E-03     51.0762E-03
            1558     5.98373E-03     50.1279E-03    -55.7222E+06    -128.183E+06    -17.3323E+06    -85.0567E+03    -51.9309E-03     103.616E-03    -51.6848E-03     46.9732E-03    -52.0552E-03     103.137E-03    -51.5048E-03     46.7241E-03
            1559     5.12887E-03     50.0833E-03    -61.4177E+06    -143.905E+06    -25.8583E+06    -92.4615E+03    -51.8387E-03     103.521E-03    -51.6821E-03     41.8373E-03    -51.9400E-03     102.968E-03    -51.5137E-03     41.6315E-03
            1560     4.27401E-03     50.0443E-03    -67.4595E+06    -156.954E+06    -36.5759E+06    -78.8021E+03    -51.7462E-03     103.413E-03    -51.6664E-03     36.0502E-03    -51.8301E-03     102.806E-03    -51.5238E-03     35.8854E-03
            1561     3.41917E-03     50.0113E-03    -73.5317E+06    -167.109E+06    -49.6096E+06    -60.8469E+03    -51.6630E-03     103.299E-03    -51.6361E-03     29.6931E-03    -51.7333E-03     102.659E-03    -51.5352E-03     29.5664E-03
            1562     2.56434E-03     49.9849E-03    -79.1389E+06    -177.381E+06    -63.4279E+06    -43.2100E+03    -51.6046E-03     103.206E-03    -51.6016E-03     22.8502E-03    -51.6605E-03     102.535E-03    -51.5468E-03     22.7584E-03
            1563     1.70954E-03     49.9655E-03    -83.7446E+06    -186.136E+06    -75.7963E+06    -28.2779E+03    -51.5673E-03     103.137E-03    -51.5692E-03     15.6750E-03    -51.6105E-03     102.441E-03    -51.5568E-03     15.6148E-03
            1564     854.767E-06     49.9535E-03    -86.8414E+06    -192.088E+06    -84.6161E+06    -39.9302E+03    -51.5753E-03     103.093E-03    -51.5179E-03     8.61563E-03    -51.6096E-03     102.383E-03    -51.5365E-03     8.58326E-03
            1565     16.2427E-03     49.6701E-03    -4.20841E+06     111.212E+06     77.0352E+06    -2.76717E+03    -51.0402E-03     102.704E-03    -51.6639E-03     15.6002E-03    -51.3966E-03     103.217E-03    -51.4339E-03     15.2528E-03
            1566     15.3877E-03     49.6473E-03    -8.36593E+06     109.025E+06     63.9308E+06    -4.98987E+03    -51.1472E-03     102.761E-03    -51.6141E-03     28.3816E-03    -51.5441E-03     103.330E-03    -51.4404E-03     27.9536E-03
            1567     14.5328E-03     49.6140E-03    -12.3854E+06     101.251E+06     55.2937E+06    -4.49112E+03    -51.2906E-03     102.886E-03    -51.5953E-03     37.7852E-03    -51.7073E-03     103.458E-03    -51.4476E-03     37.3437E-03
            1568     13.6778E-03     49.5723E-03    -16.3785E+06     69.2628E+06     46.7028E+06     10.3946E+03    -51.5131E-03     103.125E-03    -51.6115E-03     45.1670E-03    -51.9135E-03     103.577E-03    -51.4547E-03     44.7062E-03
            1569     12.8229E-03     49.5242E-03    -20.2578E+06     26.6733E+06     36.4866E+06     5.06062E+03    -51.7737E-03     103.406E-03    -51.6322E-03     51.0450E-03    -52.1325E-03     103.682E-03    -51.4591E-03     50.5725E-03
            1570     11.9680E-03     49.4707E-03    -24.1341E+06     3.12657E+06     31.6847E+06    -17.1082E+03    -51.9324E-03     103.583E-03    -51.6504E-03     55.6217E-03    -52.2771E-03     103.761E-03    -51.4615E-03     55.1456E-03
            1571     11.1131E-03     49.4133E-03    -28.1376E+06    -19.1046E+06     24.5594E+06    -32.5053E+03    -52.0559E-03     103.711E-03    -51.6547E-03     58.4342E-03    -52.3759E-03     103.792E-03    -51.4634E-03     57.9649E-03
            1572     10.2582E-03     49.3542E-03    -32.2467E+06    -40.7104E+06     18.1587E+06    -44.8061E+03    -52.1291E-03     103.791E-03    -51.6616E-03     59.5226E-03    -52.4176E-03     103.768E-03    -51.4650E-03     59.0721E-03
            1573     9.40336E-03     49.2946E-03    -36.5024E+06    -59.0295E+06     11.2520E+06    -54.1546E+03    -52.1490E-03     103.811E-03    -51.6615E-03     59.1484E-03    -52.4037E-03     103.694E-03    -51.4667E-03     58.7281E-03
            1574     8.54850E-03     49.2361E-03    -40.9208E+06    -78.6694E+06     4.24580E+06    -65.9442E+03    -52.1355E-03     103.799E-03    -51.6636E-03     57.5193E-03    -52.3518E-03     103.579E-03    -51.4690E-03     57.1372E-03
            1575     7.69362E-03     49.1798E-03    -45.5542E+06    -95.7992E+06    -2.69647E+06    -74.1771E+03    -52.0838E-03     103.747E-03    -51.6636E-03     54.8708E-03    -52.2657E-03     103.435E-03    -51.4721E-03     54.5320E-03
            1576     6.83875E-03     49.1265E-03    -50.4769E+06    -112.530E+06    -9.77583E+06    -82.4335E+03    -52.0087E-03     103.673E-03    -51.6640E-03     51.3021E-03    -52.1593E-03     103.273E-03    -51.4766E-03     51.0084E-03
            1577     5.98386E-03     49.0773E-03    -55.7580E+06    -128.163E+06    -17.3645E+06    -97.8506E+03    -51.9166E-03     103.579E-03    -51.6625E-03     46.9111E-03    -52.0409E-03     103.101E-03    -51.4826E-03     46.6622E-03
            1578     5.12899E-03     49.0328E-03    -61.4558E+06    -143.919E+06    -25.9048E+06    -105.320E+03    -51.8212E-03     103.480E-03    -51.6585E-03     41.7812E-03    -51.9226E-03     102.927E-03    -51.4902E-03     41.5755E-03
            1579     4.27412E-03     48.9937E-03    -67.4987E+06    -156.994E+06    -36.6272E+06    -89.5079E+03    -51.7258E-03     103.367E-03    -51.6416E-03     36.0018E-03    -51.8097E-03     102.761E-03    -51.4992E-03     35.8371E-03
            1580     3.41926E-03     48.9607E-03    -73.5733E+06    -167.136E+06    -49.6477E+06    -63.8332E+03    -51.6399E-03     103.250E-03    -51.6105E-03     29.6541E-03    -51.7104E-03     102.610E-03    -51.5097E-03     29.5276E-03
            1581     2.56441E-03     48.9344E-03    -79.1819E+06    -177.413E+06    -63.4735E+06    -46.2644E+03    -51.5794E-03     103.155E-03    -51.5753E-03     22.8211E-03    -51.6354E-03     102.484E-03    -51.5206E-03     22.7294E-03
            1582     1.70959E-03     48.9151E-03    -83.7798E+06    -186.165E+06    -75.8458E+06    -34.8142E+03    -51.5410E-03     103.083E-03    -51.5424E-03     15.6553E-03    -51.5843E-03     102.388E-03    -51.5302E-03     15.5952E-03
            1583     854.788E-06     48.9031E-03    -86.8864E+06    -192.104E+06    -84.6512E+06    -22.8609E+03    -51.5485E-03     103.039E-03    -51.4910E-03     8.60457E-03    -51.5830E-03     102.329E-03    -51.5097E-03     8.57247E-03
            1584     16.2427E-03     48.6188E-03    -4.22045E+06     111.221E+06     77.0385E+06     6.36809E+03    -51.0721E-03     102.734E-03    -51.6622E-03     15.5660E-03    -51.4285E-03     103.247E-03    -51.4322E-03     15.2186E-03
            1585     15.3878E-03     48.5960E-03    -8.38911E+06     109.021E+06     63.9216E+06     23.9554E+03    -51.1763E-03     102.787E-03    -51.6105E-03     28.3331E-03    -51.5732E-03     103.356E-03    -51.4368E-03     27.9054E-03
            1586     14.5328E-03     48.5627E-03    -12.4397E+06     101.250E+06     55.2684E+06     49.4271E+03    -51.3168E-03     102.907E-03    -51.5898E-03     37.7247E-03    -51.7334E-03     103.478E-03    -51.4422E-03     37.2839E-03
            1587     13.6779E-03     48.5211E-03    -16.4360E+06     69.3079E+06     46.6902E+06     26.6909E+03    -51.5360E-03     103.140E-03    -51.6040E-03     45.0999E-03    -51.9365E-03     103.593E-03    -51.4473E-03     44.6394E-03
            1588     12.8230E-03     48.4730E-03    -20.2840E+06     26.7214E+06     36.4855E+06    -17.8065E+03    -51.7928E-03     103.416E-03    -51.6228E-03     50.9720E-03    -52.1515E-03     103.691E-03    -51.4497E-03     50.4992E-03
            1589     11.9681E-03     48.4196E-03    -24.1419E+06     3.15771E+06     31.6833E+06    -42.2478E+03    -51.9473E-03     103.586E-03    -51.6389E-03     55.5438E-03    -52.2917E-03     103.764E-03    -51.4501E-03     55.0676E-03
            1590     11.1133E-03     48.3624E-03    -28.1394E+06    -19.0785E+06     24.5559E+06    -57.3830E+03    -52.0662E-03     103.707E-03    -51.6412E-03     58.3531E-03    -52.3859E-03     103.788E-03    -51.4500E-03     57.8837E-03
            1591     10.2584E-03     48.3032E-03    -32.2479E+06    -40.6964E+06     18.1495E+06    -64.3203E+03    -52.1346E-03     103.781E-03    -51.6461E-03     59.4385E-03    -52.4227E-03     103.757E-03    -51.4496E-03     58.9881E-03
            1592     9.40353E-03     48.2438E-03    -36.5049E+06    -59.0126E+06     11.2401E+06    -69.7980E+03    -52.1495E-03     103.794E-03    -51.6441E-03     59.0625E-03    -52.4040E-03     103.676E-03    -51.4494E-03     58.6424E-03
            1593     8.54866E-03     48.1853E-03    -40.9242E+06    -78.6541E+06     4.22997E+06    -74.4562E+03    -52.1315E-03     103.776E-03    -51.6444E-03     57.4355E-03    -52.3476E-03     103.555E-03    -51.4498E-03     57.0537E-03
            1594     7.69378E-03     48.1291E-03    -45.5596E+06    -95.7934E+06    -2.71964E+06    -76.8414E+03    -52.0761E-03     103.719E-03    -51.6426E-03     54.7910E-03    -52.2578E-03     103.406E-03    -51.4512E-03     54.4525E-03
            1595     6.83890E-03     48.0759E-03    -50.4835E+06    -112.515E+06    -9.79958E+06    -82.5436E+03    -51.9975E-03     103.639E-03    -51.6413E-03     51.2277E-03    -52.1480E-03     103.239E-03    -51.4540E-03     50.9343E-03
            1596     5.98401E-03     48.0267E-03    -55.7754E+06    -128.143E+06    -17.3921E+06    -96.7655E+03    -51.9018E-03     103.540E-03    -51.6381E-03     46.8426E-03    -52.0261E-03     103.062E-03    -51.4584E-03     46.5939E-03
            1597     5.12912E-03     47.9822E-03    -61.4889E+06    -143.934E+06    -25.9565E+06    -105.349E+03    -51.8027E-03     103.435E-03    -51.6325E-03     41.7191E-03    -51.9041E-03     102.883E-03    -51.4644E-03     41.5137E-03
            1598     4.27423E-03     47.9432E-03    -67.5418E+06    -157.030E+06    -36.6842E+06    -94.4450E+03    -51.7037E-03     103.318E-03    -51.6144E-03     35.9485E-03    -51.7876E-03     102.711E-03    -51.4722E-03     35.7840E-03
            1599     3.41935E-03     47.9103E-03    -73.6151E+06    -167.179E+06    -49.7073E+06    -71.2142E+03    -51.6147E-03     103.197E-03    -51.5822E-03     29.6113E-03    -51.6851E-03     102.557E-03    -51.4815E-03     29.4848E-03
            1600     2.56449E-03     47.8840E-03    -79.2112E+06    -177.448E+06    -63.5296E+06    -48.7706E+03    -51.5520E-03     103.098E-03    -51.5462E-03     22.7893E-03    -51.6079E-03     102.427E-03    -51.4917E-03     22.6976E-03
            1601     1.70964E-03     47.8647E-03    -83.8195E+06    -186.188E+06    -75.8732E+06    -33.8064E+03    -51.5122E-03     103.025E-03    -51.5129E-03     15.6345E-03    -51.5555E-03     102.330E-03    -51.5008E-03     15.5745E-03
            1602     854.816E-06     47.8527E-03    -86.9384E+06    -192.123E+06    -84.6687E+06    -19.5407E+03    -51.5189E-03     102.980E-03    -51.4610E-03     8.59367E-03    -51.5536E-03     102.269E-03    -51.4797E-03     8.56165E-03
            1603     16.2428E-03     47.5674E-03    -4.22961E+06     111.203E+06     77.0360E+06     44.1713E+03    -51.1070E-03     102.767E-03    -51.6604E-03     15.5292E-03    -51.4632E-03     103.280E-03    -51.4304E-03     15.1821E-03
            1604     15.3878E-03     47.5447E-03    -8.44601E+06     108.986E+06      63.893E+06     92.4660E+03    -51.2093E-03     102.816E-03    -51.6067E-03     28.2802E-03    -51.6061E-03     103.384E-03    -51.4330E-03     27.8533E-03
            1605     14.5329E-03     47.5115E-03    -12.4816E+06     101.304E+06     55.2684E+06     78.7662E+03    -51.3463E-03     102.930E-03    -51.5838E-03     37.6585E-03    -51.7630E-03     103.502E-03    -51.4362E-03     37.2181E-03
            1606     13.6780E-03     47.4699E-03    -16.4199E+06     69.4118E+06     46.7194E+06         671.405    -51.5611E-03     103.157E-03    -51.5959E-03     45.0260E-03    -51.9614E-03     103.610E-03    -51.4391E-03     44.5652E-03
            1607     12.8231E-03     47.4219E-03    -20.2539E+06     26.7596E+06     36.4986E+06    -48.8036E+03    -51.8136E-03     103.426E-03    -51.6124E-03     50.8919E-03    -52.1719E-03     103.702E-03    -51.4393E-03     50.4188E-03
            1608     11.9683E-03     47.3685E-03    -24.1199E+06     3.18861E+06     31.6892E+06    -66.3552E+03    -51.9634E-03     103.590E-03    -51.6263E-03     55.4584E-03    -52.3075E-03     103.768E-03    -51.4375E-03     54.9820E-03
            1609     11.1134E-03     47.3114E-03    -28.1244E+06    -19.0616E+06     24.5514E+06    -77.0703E+03    -52.0772E-03     103.704E-03    -51.6264E-03     58.2640E-03    -52.3966E-03     103.784E-03    -51.4352E-03     57.7947E-03
            1610     10.2586E-03     47.2523E-03    -32.2377E+06    -40.6879E+06     18.1377E+06    -79.3322E+03    -52.1402E-03     103.769E-03    -51.6291E-03     59.3463E-03    -52.4279E-03     103.746E-03    -51.4327E-03     58.8961E-03
            1611     9.40371E-03     47.1929E-03    -36.4977E+06    -59.0037E+06     11.2211E+06    -79.3379E+03    -52.1495E-03     103.775E-03    -51.6251E-03     58.9688E-03    -52.4037E-03     103.657E-03    -51.4305E-03     58.5490E-03
            1612     8.54884E-03     47.1346E-03    -40.9226E+06    -78.6501E+06     4.20184E+06    -75.6873E+03    -52.1269E-03     103.750E-03    -51.6234E-03     57.3447E-03    -52.3426E-03     103.529E-03    -51.4290E-03     56.9633E-03
            1613     7.69396E-03     47.0784E-03    -45.5645E+06    -95.7921E+06    -2.75448E+06    -69.7166E+03    -52.0679E-03     103.688E-03    -51.6197E-03     54.7042E-03    -52.2494E-03     103.375E-03    -51.4285E-03     54.3662E-03
            1614     6.83907E-03     47.0253E-03    -50.4999E+06    -112.501E+06    -9.83984E+06    -70.4411E+03    -51.9857E-03     103.602E-03    -51.6165E-03     51.1461E-03    -52.1361E-03     103.202E-03    -51.4294E-03     50.8532E-03
            1615     5.98417E-03     46.9761E-03    -55.7977E+06    -128.121E+06    -17.4395E+06    -81.8299E+03    -51.8859E-03     103.497E-03    -51.6115E-03     46.7671E-03    -52.0101E-03     103.019E-03    -51.4320E-03     46.5190E-03
            1616     5.12926E-03     46.9317E-03    -61.5128E+06    -143.943E+06    -26.0046E+06    -90.4103E+03    -51.7828E-03     103.387E-03    -51.6042E-03     41.6508E-03    -51.8841E-03     102.834E-03    -51.4364E-03     41.4459E-03
            1617     4.27436E-03     46.8928E-03    -67.5706E+06    -157.062E+06    -36.7304E+06    -82.7613E+03    -51.6800E-03     103.265E-03    -51.5846E-03     35.8896E-03    -51.7638E-03     102.658E-03    -51.4426E-03     35.7256E-03
            1618     3.41946E-03     46.8599E-03    -73.6481E+06    -167.205E+06    -49.7481E+06    -75.4834E+03    -51.5876E-03     103.139E-03    -51.5512E-03     29.5636E-03    -51.6581E-03     102.498E-03    -51.4507E-03     29.4373E-03
            1619     2.56457E-03     46.8336E-03    -79.2530E+06    -177.482E+06    -63.5800E+06    -54.3403E+03    -51.5222E-03     103.036E-03    -51.5142E-03     22.7532E-03    -51.5782E-03     102.365E-03    -51.4598E-03     22.6616E-03
            1620     1.70970E-03     46.8143E-03    -83.8476E+06    -186.220E+06     -75.934E+06    -25.1304E+03    -51.4803E-03     102.960E-03    -51.4802E-03     15.6108E-03    -51.5237E-03     102.265E-03    -51.4683E-03     15.5510E-03
            1621     854.841E-06     46.8023E-03    -86.9583E+06    -192.161E+06    -84.7277E+06    -21.4642E+03    -51.4859E-03     102.914E-03    -51.4282E-03     8.58135E-03    -51.5206E-03     102.204E-03    -51.4471E-03     8.54935E-03
            1622     16.2428E-03     46.5160E-03    -4.27978E+06     111.140E+06     76.9994E+06     111.507E+03    -51.1455E-03     102.804E-03    -51.6584E-03     15.4860E-03    -51.5018E-03     103.316E-03    -51.4284E-03     15.1397E-03
            1623     15.3879E-03     46.4933E-03    -8.43796E+06     109.015E+06     63.8955E+06     120.272E+03    -51.2462E-03     102.849E-03    -51.6024E-03     28.2197E-03    -51.6429E-03     103.417E-03    -51.4288E-03     27.7930E-03
            1624     14.5330E-03     46.4602E-03    -12.3965E+06     101.419E+06     55.3339E+06     41.9651E+03    -51.3790E-03     102.956E-03    -51.5772E-03     37.5847E-03    -51.7953E-03     103.528E-03    -51.4296E-03     37.1437E-03
            1625     13.6781E-03     46.4187E-03    -16.3330E+06      69.502E+06     46.7686E+06    -22.9289E+03    -51.5886E-03     103.176E-03    -51.5869E-03     44.9439E-03    -51.9883E-03     103.628E-03    -51.4301E-03     44.4829E-03
            1626     12.8233E-03     46.3708E-03    -20.1972E+06     26.7938E+06     36.5168E+06    -53.2664E+03    -51.8363E-03     103.437E-03    -51.6010E-03     50.8028E-03    -52.1940E-03     103.713E-03    -51.4280E-03     50.3299E-03
            1627     11.9684E-03     46.3175E-03    -24.0852E+06     3.21859E+06     31.6960E+06    -73.1895E+03    -51.9811E-03     103.594E-03    -51.6125E-03     55.3629E-03    -52.3247E-03     103.771E-03    -51.4238E-03     54.8867E-03
            1628     11.1136E-03     46.2604E-03    -28.1017E+06    -19.0483E+06     24.5439E+06    -85.1899E+03    -52.0892E-03     103.699E-03    -51.6102E-03     58.1633E-03    -52.4081E-03     103.780E-03    -51.4191E-03     57.6942E-03
            1629     10.2588E-03     46.2014E-03    -32.2233E+06    -40.6867E+06     18.1165E+06    -83.3619E+03    -52.1456E-03     103.756E-03    -51.6105E-03     59.2424E-03    -52.4330E-03     103.732E-03    -51.4142E-03     58.7925E-03
            1630     9.40390E-03     46.1421E-03    -36.4941E+06    -59.0014E+06     11.1887E+06    -76.4935E+03    -52.1490E-03     103.753E-03    -51.6043E-03     58.8641E-03    -52.4028E-03     103.636E-03    -51.4099E-03     58.4447E-03
            1631     8.54903E-03     46.0838E-03    -40.9273E+06    -78.6578E+06     4.15697E+06    -64.4320E+03    -52.1217E-03     103.722E-03    -51.6005E-03     57.2440E-03    -52.3371E-03     103.501E-03    -51.4063E-03     56.8632E-03
            1632     7.69415E-03     46.0277E-03    -45.5755E+06    -95.7939E+06    -2.81035E+06    -50.6185E+03    -52.0589E-03     103.654E-03    -51.5947E-03     54.6090E-03    -52.2401E-03     103.341E-03    -51.4038E-03     54.2717E-03
            1633     6.83925E-03     45.9747E-03    -50.5101E+06    -112.491E+06    -9.90240E+06    -45.9187E+03    -51.9727E-03     103.562E-03    -51.5895E-03     51.0559E-03    -52.1228E-03     103.162E-03    -51.4026E-03     50.7637E-03
            1634     5.98434E-03     45.9256E-03    -55.8140E+06    -128.098E+06    -17.5103E+06    -50.9065E+03    -51.8685E-03     103.451E-03    -51.5824E-03     46.6833E-03    -51.9925E-03     102.973E-03    -51.4033E-03     46.4361E-03
            1635     5.12942E-03     45.8813E-03    -61.5384E+06    -143.936E+06    -26.0694E+06    -64.2472E+03    -51.7611E-03     103.335E-03    -51.5734E-03     41.5750E-03    -51.8623E-03     102.782E-03    -51.4058E-03     41.3708E-03
            1636     4.27450E-03     45.8424E-03    -67.5973E+06    -157.080E+06    -36.7714E+06    -70.3115E+03    -51.6545E-03     103.207E-03    -51.5523E-03     35.8241E-03    -51.7383E-03     102.600E-03    -51.4103E-03     35.6605E-03
            1637     3.41957E-03     45.8096E-03    -73.6836E+06    -167.225E+06    -49.7825E+06    -60.3157E+03    -51.5586E-03     103.076E-03    -51.5173E-03     29.5103E-03    -51.6292E-03     102.436E-03    -51.4169E-03     29.3845E-03
            1638     2.56466E-03     45.7833E-03    -79.3000E+06    -177.515E+06    -63.6278E+06    -49.2167E+03    -51.4902E-03     102.969E-03    -51.4790E-03     22.7129E-03    -51.5463E-03     102.298E-03    -51.4247E-03     22.6215E-03
            1639     1.70976E-03     45.7641E-03     -83.894E+06    -186.259E+06    -75.9920E+06    -28.2961E+03    -51.4456E-03     102.889E-03    -51.4439E-03     15.5837E-03    -51.4890E-03     102.194E-03    -51.4321E-03     15.5239E-03
            1640     854.875E-06     45.7521E-03     -86.986E+06    -192.179E+06    -84.7644E+06     17.1321E+03    -51.4494E-03     102.841E-03    -51.3913E-03     8.56646E-03    -51.4842E-03     102.130E-03    -51.4103E-03     8.53503E-03
            1641     16.2428E-03     45.4646E-03    -4.19376E+06     111.096E+06     76.9234E+06     142.356E+03    -51.1913E-03     102.847E-03    -51.6558E-03     15.4391E-03    -51.5468E-03     103.359E-03    -51.4262E-03     15.0930E-03
            1642     15.3880E-03     45.4420E-03    -8.32325E+06     109.150E+06     63.9647E+06     91.2251E+03    -51.2860E-03     102.884E-03    -51.5977E-03     28.1538E-03    -51.6822E-03     103.452E-03    -51.4240E-03     27.7266E-03
            1643     14.5331E-03     45.4089E-03    -12.3138E+06     101.502E+06     55.3808E+06     14.1763E+03    -51.4139E-03     102.984E-03    -51.5700E-03     37.5029E-03    -51.8296E-03     103.556E-03    -51.4224E-03     37.0616E-03
            1644     13.6782E-03     45.3674E-03    -16.2872E+06     69.5569E+06     46.7896E+06    -9.42981E+03    -51.6187E-03     103.196E-03    -51.5770E-03     44.8528E-03    -52.0180E-03     103.648E-03    -51.4203E-03     44.3920E-03
            1645     12.8234E-03     45.3196E-03    -20.1623E+06     26.8482E+06     36.5269E+06    -42.9324E+03    -51.8615E-03     103.450E-03    -51.5885E-03     50.7045E-03    -52.2188E-03     103.725E-03    -51.4155E-03     50.2318E-03
            1646     11.9686E-03     45.2664E-03    -24.0430E+06     3.24283E+06     31.6937E+06    -71.6160E+03    -52.0010E-03     103.598E-03    -51.5973E-03     55.2566E-03    -52.3440E-03     103.776E-03    -51.4086E-03     54.7807E-03
            1647     11.1138E-03     45.2094E-03    -28.0659E+06    -19.0417E+06     24.5257E+06    -69.6189E+03    -52.1024E-03     103.695E-03    -51.5922E-03     58.0501E-03    -52.4206E-03     103.775E-03    -51.4013E-03     57.5816E-03
            1648     10.2590E-03     45.1505E-03    -32.2108E+06    -40.6831E+06     18.0803E+06    -63.9699E+03    -52.1517E-03     103.742E-03    -51.5900E-03     59.1256E-03    -52.4385E-03     103.717E-03    -51.3939E-03     58.6764E-03
            1649     9.40411E-03     45.0913E-03    -36.4990E+06    -59.0095E+06     11.1326E+06    -53.5008E+03    -52.1487E-03     103.730E-03    -51.5813E-03     58.7462E-03    -52.4020E-03     103.612E-03    -51.3871E-03     58.3277E-03
            1650     8.54925E-03     45.0331E-03    -40.9478E+06    -78.6663E+06     4.08370E+06    -34.4910E+03    -52.1157E-03     103.691E-03    -51.5752E-03     57.1310E-03    -52.3308E-03     103.469E-03    -51.3813E-03     56.7511E-03
            1651     7.69436E-03     44.9771E-03    -45.6045E+06    -95.7957E+06    -2.89747E+06    -21.2739E+03    -52.0481E-03     103.615E-03    -51.5671E-03     54.5027E-03    -52.2290E-03     103.303E-03    -51.3766E-03     54.1662E-03
            1652     6.83945E-03     44.9241E-03    -50.5472E+06    -112.486E+06    -9.99871E+06    -9.45303E+03    -51.9574E-03     103.517E-03    -51.5597E-03     50.9549E-03    -52.1074E-03     103.117E-03    -51.3733E-03     50.6638E-03
            1653     5.98453E-03     44.8751E-03    -55.8510E+06    -128.072E+06    -17.6048E+06    -9.11615E+03    -51.8488E-03     103.399E-03    -51.5505E-03     46.5897E-03    -51.9728E-03     102.921E-03    -51.3719E-03     46.3434E-03
            1654     5.12959E-03     44.8309E-03    -61.5687E+06    -143.906E+06    -26.1596E+06    -27.6014E+03    -51.7373E-03     103.277E-03    -51.5396E-03     41.4903E-03    -51.8385E-03     102.725E-03    -51.3725E-03     41.2869E-03
            1655     4.27465E-03     44.7921E-03    -67.6316E+06    -157.078E+06    -36.8301E+06    -46.9362E+03    -51.6266E-03     103.143E-03    -51.5169E-03     35.7506E-03    -51.7105E-03     102.536E-03    -51.3752E-03     35.5876E-03
            1656     3.41970E-03     44.7593E-03    -73.7270E+06    -167.249E+06    -49.8189E+06    -40.6252E+03    -51.5268E-03     103.007E-03    -51.4804E-03     29.4508E-03    -51.5974E-03     102.367E-03    -51.3801E-03     29.3255E-03
            1657     2.56476E-03     44.7331E-03    -79.3439E+06    -177.544E+06    -63.6730E+06    -34.8859E+03    -51.4552E-03     102.896E-03    -51.4406E-03     22.6683E-03    -51.5114E-03     102.225E-03    -51.3865E-03     22.5773E-03
            1658     1.70983E-03     44.7139E-03    -83.9500E+06    -186.277E+06    -76.0053E+06    -19.6471E+03    -51.4081E-03     102.813E-03    -51.4044E-03     15.5543E-03    -51.4518E-03     102.117E-03    -51.3926E-03     15.4948E-03
            1659     854.909E-06     44.7019E-03    -87.0763E+06    -192.167E+06    -84.7968E+06     14.3448E+03    -51.4097E-03     102.760E-03    -51.3502E-03     8.55098E-03    -51.4448E-03     102.050E-03    -51.3693E-03     8.51959E-03
            1660     16.2429E-03     44.4131E-03    -4.09483E+06     111.060E+06     76.8361E+06     99.0266E+03    -51.2420E-03     102.895E-03    -51.6529E-03     15.3884E-03    -51.5967E-03     103.407E-03    -51.4238E-03     15.0416E-03
            1661     15.3881E-03     44.3905E-03    -8.21986E+06     109.274E+06     64.0164E+06     108.793E+03    -51.3300E-03     102.922E-03    -51.5925E-03     28.0812E-03    -51.7257E-03     103.491E-03    -51.4189E-03     27.6541E-03
            1662     14.5332E-03     44.3575E-03    -12.2701E+06     101.567E+06     55.3963E+06     57.9100E+03    -51.4521E-03     103.014E-03    -51.5620E-03     37.4122E-03    -51.8674E-03     103.586E-03    -51.4145E-03     36.9714E-03
            1663     13.6784E-03     44.3162E-03    -16.2612E+06     69.6268E+06     46.7916E+06    -368.896E-03    -51.6527E-03     103.219E-03    -51.5661E-03     44.7525E-03    -52.0515E-03     103.671E-03    -51.4096E-03     44.2919E-03
            1664     12.8236E-03     44.2684E-03    -20.1114E+06     26.8998E+06     36.5227E+06    -40.3247E+03    -51.8905E-03     103.465E-03    -51.5746E-03     50.5940E-03    -52.2471E-03     103.740E-03    -51.4018E-03     50.1216E-03
            1665     11.9688E-03     44.2153E-03    -24.0082E+06     3.25091E+06     31.6631E+06    -41.0546E+03    -52.0230E-03     103.603E-03    -51.5803E-03     55.1365E-03    -52.3653E-03     103.780E-03    -51.3919E-03     54.6613E-03
            1666     11.1140E-03     44.1584E-03    -28.0602E+06    -19.0345E+06     24.4750E+06    -32.9152E+03    -52.1174E-03     103.690E-03    -51.5723E-03     57.9224E-03    -52.4350E-03     103.769E-03    -51.3816E-03     57.4548E-03
            1667     10.2592E-03     44.0996E-03    -32.2121E+06    -40.6862E+06     18.0154E+06    -19.1802E+03    -52.1595E-03     103.727E-03    -51.5671E-03     58.9925E-03    -52.4458E-03     103.702E-03    -51.3714E-03     58.5444E-03
            1668     9.40435E-03     44.0405E-03    -36.5206E+06    -59.0137E+06     11.0493E+06         651.843    -52.1489E-03     103.704E-03    -51.5556E-03     58.6125E-03    -52.4017E-03     103.586E-03    -51.3618E-03     58.1952E-03
            1669     8.54948E-03     43.9825E-03    -40.9864E+06    -78.6674E+06     3.98631E+06     14.5579E+03    -52.1092E-03     103.656E-03    -51.5468E-03     57.0030E-03    -52.3240E-03     103.434E-03    -51.3534E-03     56.6243E-03
            1670     7.69459E-03     43.9265E-03    -45.6594E+06    -95.7946E+06    -3.00525E+06     31.2918E+03    -52.0353E-03     103.572E-03    -51.5363E-03     54.3814E-03    -52.2161E-03     103.259E-03    -51.3462E-03     54.0462E-03
            1671     6.83967E-03     43.8736E-03    -50.6121E+06    -112.471E+06    -10.1099E+06     38.3602E+03    -51.9390E-03     103.466E-03    -51.5266E-03     50.8399E-03    -52.0889E-03     103.066E-03    -51.3407E-03     50.5498E-03
            1672     5.98474E-03     43.8247E-03    -55.9136E+06    -128.038E+06    -17.7150E+06     32.4992E+03    -51.8257E-03     103.341E-03    -51.5153E-03     46.4839E-03    -51.9497E-03     102.863E-03    -51.3372E-03     46.2386E-03
            1673     5.12978E-03     43.7806E-03    -61.6207E+06    -143.855E+06    -26.2985E+06     9.77496E+03    -51.7103E-03     103.212E-03    -51.5022E-03     41.3949E-03    -51.8114E-03     102.660E-03    -51.3358E-03     41.1925E-03
            1674     4.27481E-03     43.7418E-03    -67.6681E+06    -157.060E+06    -36.9324E+06    -12.2491E+03    -51.5954E-03     103.073E-03    -51.4777E-03     35.6675E-03    -51.6792E-03     102.466E-03    -51.3366E-03     35.5054E-03
            1675     3.41984E-03     43.7091E-03    -73.7577E+06    -167.258E+06    -49.8396E+06    -19.1144E+03    -51.4914E-03     102.932E-03    -51.4401E-03     29.3833E-03    -51.5621E-03     102.291E-03    -51.3399E-03     29.2586E-03
            1676     2.56486E-03     43.6829E-03    -79.3799E+06    -177.551E+06    -63.6897E+06    -15.4947E+03    -51.4165E-03     102.815E-03    -51.3990E-03     22.6172E-03    -51.4728E-03     102.144E-03    -51.3449E-03     22.5267E-03
            1677     1.70990E-03     43.6638E-03    -83.9929E+06    -186.280E+06    -76.0426E+06    -3.52147E+03    -51.3668E-03     102.728E-03    -51.3616E-03     15.5198E-03    -51.4106E-03     102.033E-03    -51.3499E-03     15.4606E-03
            1678     854.948E-06     43.6518E-03    -87.1333E+06    -192.181E+06    -84.8445E+06    -30.0433E+03    -51.3664E-03     102.673E-03    -51.3067E-03     8.53252E-03    -51.4017E-03     101.963E-03    -51.3259E-03     8.50063E-03
            1679     16.2429E-03     43.3616E-03    -4.16133E+06     110.997E+06     76.7831E+06     28.4695E+03    -51.2932E-03     102.943E-03    -51.6503E-03     15.3310E-03    -51.6479E-03     103.455E-03    -51.4213E-03     14.9830E-03
            1680     15.3881E-03     43.3391E-03    -8.24024E+06     109.274E+06     63.9717E+06     93.3458E+03    -51.3789E-03     102.966E-03    -51.5868E-03     28.0004E-03    -51.7743E-03     103.534E-03    -51.4134E-03     27.5729E-03
            1681     14.5334E-03     43.3062E-03    -12.1926E+06     101.670E+06     55.4166E+06     90.0121E+03    -51.4964E-03     103.050E-03    -51.5532E-03     37.3137E-03    -51.9111E-03     103.621E-03    -51.4059E-03     36.8733E-03
            1682     13.6785E-03     43.2649E-03    -16.1581E+06     69.7114E+06     46.7979E+06     26.9796E+03    -51.6917E-03     103.246E-03    -51.5540E-03     44.6417E-03    -52.0897E-03     103.698E-03    -51.3977E-03     44.1815E-03
            1683     12.8238E-03     43.2172E-03    -20.0790E+06     26.9191E+06     36.4797E+06     15.9260E+03    -51.9225E-03     103.482E-03    -51.5591E-03     50.4713E-03    -52.2785E-03     103.756E-03    -51.3866E-03     49.9998E-03
            1684     11.9690E-03     43.1642E-03    -24.0213E+06     3.27030E+06     31.5965E+06     15.3617E+03    -52.0484E-03     103.610E-03    -51.5615E-03     55.0043E-03    -52.3902E-03     103.786E-03    -51.3734E-03     54.5301E-03
            1685     11.1143E-03     43.1074E-03    -28.0790E+06    -19.0423E+06     24.3890E+06     28.6711E+03    -52.1357E-03     103.686E-03    -51.5500E-03     57.7794E-03    -52.4528E-03     103.765E-03    -51.3597E-03     57.3130E-03
            1686     10.2595E-03     43.0488E-03    -32.2658E+06    -40.6875E+06     17.9139E+06     59.2987E+03    -52.1689E-03     103.710E-03    -51.5415E-03     58.8430E-03    -52.4547E-03     103.685E-03    -51.3461E-03     58.3965E-03
            1687     9.40462E-03     42.9898E-03    -36.5924E+06    -59.0033E+06     10.9420E+06     71.4456E+03    -52.1502E-03     103.677E-03    -51.5267E-03     58.4636E-03    -52.4028E-03     103.558E-03    -51.3334E-03     58.0479E-03
            1688     8.54975E-03     42.9318E-03    -41.0693E+06    -78.6604E+06     3.87267E+06     86.1045E+03    -52.1033E-03     103.618E-03    -51.5149E-03     56.8583E-03    -52.3179E-03     103.397E-03    -51.3219E-03     56.4812E-03
            1689     7.69485E-03     42.8760E-03    -45.7458E+06    -95.7739E+06    -3.11825E+06     91.3452E+03    -52.0215E-03     103.523E-03    -51.5015E-03     54.2422E-03    -52.2023E-03     103.210E-03    -51.3119E-03     53.9084E-03
            1690     6.83992E-03     42.8232E-03    -50.6877E+06    -112.438E+06    -10.2175E+06     86.5217E+03    -51.9174E-03     103.407E-03    -51.4893E-03     50.7074E-03    -52.0673E-03     103.007E-03    -51.3038E-03     50.4186E-03
            1691     5.98497E-03     42.7744E-03    -55.9750E+06    -127.984E+06    -17.8190E+06     67.4446E+03    -51.7980E-03     103.274E-03    -51.4757E-03     46.3628E-03    -51.9220E-03     102.796E-03    -51.2980E-03     46.1186E-03
            1692     5.12999E-03     42.7303E-03    -61.6593E+06    -143.798E+06    -26.4043E+06     37.7669E+03    -51.6782E-03     103.139E-03    -51.4605E-03     41.2864E-03    -51.7794E-03     102.587E-03    -51.2946E-03     41.0848E-03
            1693     4.27500E-03     42.6917E-03    -67.6856E+06    -157.028E+06    -36.9905E+06     16.8772E+03    -51.5598E-03     102.994E-03    -51.4344E-03     35.5724E-03    -51.6436E-03     102.388E-03    -51.2935E-03     35.4110E-03
            1694     3.41999E-03     42.6590E-03    -73.7628E+06    -167.247E+06    -49.8488E+06     3.90329E+03    -51.4521E-03     102.847E-03    -51.3953E-03     29.3045E-03    -51.5228E-03     102.207E-03    -51.2950E-03     29.1804E-03
            1695     2.56498E-03     42.6329E-03    -79.3873E+06    -177.541E+06    -63.7015E+06     5.12002E+03    -51.3735E-03     102.726E-03    -51.3526E-03     22.5562E-03    -51.4298E-03     102.055E-03    -51.2985E-03     22.4662E-03
            1696     1.70998E-03     42.6138E-03    -83.9963E+06    -186.275E+06    -76.0684E+06     1.40637E+03    -51.3206E-03     102.635E-03    -51.3140E-03     15.4774E-03    -51.3644E-03     101.940E-03    -51.3025E-03     15.4185E-03
            1697     854.985E-06     42.6018E-03    -87.0968E+06    -192.186E+06    -84.8674E+06    -23.4293E+03    -51.3182E-03     102.577E-03    -51.2591E-03     8.50864E-03    -51.3533E-03     101.867E-03    -51.2784E-03     8.47695E-03
            1698     16.2430E-03     42.3100E-03    -4.19332E+06     110.977E+06     76.7715E+06     5.95793E+03    -51.3469E-03     102.995E-03    -51.6476E-03     15.2681E-03    -51.7016E-03     103.506E-03    -51.4186E-03     14.9196E-03
            1699     15.3882E-03     42.2876E-03    -8.30473E+06     109.230E+06     63.9045E+06     11.6527E+03    -51.4318E-03     103.013E-03    -51.5807E-03     27.9126E-03    -51.8271E-03     103.581E-03    -51.4075E-03     27.4838E-03
            1700     14.5335E-03     42.2547E-03    -12.2481E+06     101.687E+06     55.3560E+06     54.5339E+03    -51.5462E-03     103.090E-03    -51.5436E-03     37.2047E-03    -51.9608E-03     103.661E-03    -51.3965E-03     36.7637E-03
            1701     13.6787E-03     42.2136E-03    -16.2234E+06     69.7664E+06     46.7275E+06     95.4548E+03    -51.7345E-03     103.275E-03    -51.5407E-03     44.5193E-03    -52.1324E-03     103.728E-03    -51.3847E-03     44.0600E-03
            1702     12.8240E-03     42.1660E-03    -20.1197E+06     26.9512E+06     36.3998E+06     80.4391E+03    -51.9591E-03     103.501E-03    -51.5420E-03     50.3353E-03    -52.3147E-03     103.775E-03    -51.3699E-03     49.8649E-03
            1703     11.9693E-03     42.1131E-03    -24.0373E+06     3.26434E+06     31.5082E+06     99.1150E+03    -52.0780E-03     103.619E-03    -51.5405E-03     54.8563E-03    -52.4191E-03     103.795E-03    -51.3529E-03     54.3836E-03
            1704     11.1145E-03     42.0564E-03    -28.1499E+06    -19.0477E+06     24.2778E+06     145.070E+03    -52.1564E-03     103.682E-03    -51.5252E-03     57.6209E-03    -52.4730E-03     103.760E-03    -51.3354E-03     57.1565E-03
            1705     10.2597E-03     41.9979E-03    -32.3629E+06    -40.6649E+06     17.8001E+06     157.353E+03    -52.1809E-03     103.694E-03    -51.5129E-03     58.6786E-03    -52.4665E-03     103.669E-03    -51.3180E-03     58.2340E-03
            1706     9.40492E-03     41.9391E-03    -36.7047E+06    -58.9793E+06     10.8262E+06     163.976E+03    -52.1546E-03     103.649E-03    -51.4944E-03     58.2988E-03    -52.4070E-03     103.530E-03    -51.3015E-03     57.8850E-03
            1707     8.55006E-03     41.8812E-03    -41.1871E+06    -78.6182E+06     3.76423E+06     154.942E+03    -52.0993E-03     103.578E-03    -51.4788E-03     56.6958E-03    -52.3139E-03     103.357E-03    -51.2863E-03     56.3203E-03
            1708     7.69516E-03     41.8255E-03    -45.8453E+06    -95.7285E+06    -3.21866E+06     135.685E+03    -52.0080E-03     103.470E-03    -51.4619E-03     54.0840E-03    -52.1888E-03     103.157E-03    -51.2727E-03     53.7515E-03
            1709     6.84021E-03     41.7728E-03    -50.7629E+06    -112.380E+06    -10.3063E+06     111.087E+03    -51.8943E-03     103.341E-03    -51.4465E-03     50.5558E-03    -52.0442E-03     102.941E-03    -51.2615E-03     50.2681E-03
            1710     5.98524E-03     41.7241E-03    -56.0182E+06    -127.918E+06     -17.901E+06     81.2971E+03    -51.7664E-03     103.197E-03    -51.4302E-03     46.2225E-03    -51.8904E-03     102.720E-03    -51.2531E-03     45.9791E-03
            1711     5.13023E-03     41.6801E-03    -61.6810E+06    -143.740E+06    -26.4779E+06     55.3993E+03    -51.6405E-03     103.053E-03    -51.4129E-03     41.1599E-03    -51.7416E-03     102.502E-03    -51.2474E-03     40.9591E-03
            1712     4.27521E-03     41.6416E-03    -67.6919E+06    -156.991E+06    -37.0197E+06     33.3647E+03    -51.5182E-03     102.903E-03    -51.3850E-03     35.4611E-03    -51.6019E-03     102.297E-03    -51.2443E-03     35.3005E-03
            1713     3.42016E-03     41.6090E-03    -73.7609E+06    -167.222E+06    -49.8435E+06     27.8957E+03    -51.4072E-03     102.751E-03    -51.3441E-03     29.2114E-03    -51.4777E-03     102.111E-03    -51.2439E-03     29.0880E-03
            1714     2.56512E-03     41.5829E-03    -79.3733E+06    -177.519E+06    -63.7090E+06     19.3654E+03    -51.3245E-03     102.624E-03    -51.2995E-03     22.4837E-03    -51.3808E-03     101.953E-03    -51.2456E-03     22.3942E-03
            1715     1.71007E-03     41.5639E-03    -83.9675E+06    -186.257E+06    -76.0636E+06     3.42315E+03    -51.2682E-03     102.528E-03    -51.2596E-03     15.4274E-03    -51.3118E-03     101.833E-03    -51.2481E-03     15.3687E-03
            1716     855.036E-06     41.5520E-03    -87.0874E+06    -192.170E+06    -84.8511E+06     23.4055E+03    -51.2635E-03     102.467E-03    -51.2040E-03     8.48085E-03    -51.2986E-03     101.757E-03    -51.2233E-03     8.44988E-03
            1717     16.2430E-03     41.2584E-03    -4.17803E+06     110.995E+06     76.7979E+06     2.58978E+03    -51.4054E-03     103.050E-03    -51.6447E-03     15.2005E-03    -51.7599E-03     103.561E-03    -51.4156E-03     14.8518E-03
            1718     15.3883E-03     41.2360E-03    -8.32852E+06     109.224E+06     63.8463E+06     2.18103E+03    -51.4902E-03     103.064E-03    -51.5740E-03     27.8188E-03    -51.8852E-03     103.632E-03    -51.4011E-03     27.3897E-03
            1719     14.5337E-03     41.2033E-03    -12.3527E+06     101.620E+06     55.2148E+06     36.1403E+03    -51.6011E-03     103.134E-03    -51.5329E-03     37.0832E-03    -52.0154E-03     103.705E-03    -51.3863E-03     36.6419E-03
            1720     13.6789E-03     41.1622E-03    -16.2688E+06     69.7645E+06     46.6364E+06     86.2986E+03    -51.7835E-03     103.310E-03    -51.5260E-03     44.3821E-03    -52.1810E-03     103.762E-03    -51.3704E-03     43.9228E-03
            1721     12.8243E-03     41.1148E-03    -20.1342E+06     26.9301E+06     36.3082E+06     169.986E+03    -52.0010E-03     103.524E-03    -51.5231E-03     50.1829E-03    -52.3559E-03     103.798E-03    -51.3514E-03     49.7138E-03
            1722     11.9696E-03     41.0620E-03    -24.1490E+06     3.23842E+06     31.3814E+06     249.647E+03    -52.1106E-03     103.628E-03    -51.5173E-03     54.6912E-03    -52.4514E-03     103.803E-03    -51.3301E-03     54.2208E-03
            1723     11.1148E-03     41.0054E-03    -28.2766E+06    -19.0169E+06     24.1602E+06     274.467E+03    -52.1798E-03     103.677E-03    -51.4977E-03     57.4446E-03    -52.4963E-03     103.756E-03    -51.3083E-03     56.9825E-03
            1724     10.2601E-03     40.9471E-03    -32.4960E+06    -40.6218E+06     17.6884E+06     279.990E+03    -52.1964E-03     103.677E-03    -51.4810E-03     58.4951E-03    -52.4819E-03     103.652E-03    -51.2866E-03     58.0528E-03
            1725     9.40526E-03     40.8884E-03    -36.8411E+06    -58.8974E+06     10.7353E+06     247.964E+03    -52.1618E-03     103.620E-03    -51.4581E-03     58.1168E-03    -52.4144E-03     103.501E-03    -51.2656E-03     57.7047E-03
            1726     8.55040E-03     40.8307E-03    -41.2965E+06    -78.5392E+06     3.68912E+06     198.413E+03    -52.0979E-03     103.536E-03    -51.4382E-03     56.5156E-03    -52.3126E-03     103.315E-03    -51.2460E-03     56.1414E-03
            1727     7.69550E-03     40.7751E-03    -45.9292E+06    -95.6443E+06    -3.28582E+06     148.828E+03    -51.9968E-03     103.414E-03    -51.4169E-03     53.9055E-03    -52.1776E-03     103.101E-03    -51.2281E-03     53.5740E-03
            1728     6.84055E-03     40.7226E-03    -50.8164E+06    -112.310E+06    -10.3744E+06     103.589E+03    -51.8723E-03     103.270E-03    -51.3973E-03     50.3819E-03    -52.0222E-03     102.871E-03    -51.2127E-03     50.0949E-03
            1729     5.98555E-03     40.6740E-03    -56.0540E+06    -127.855E+06    -17.9698E+06     77.3074E+03    -51.7336E-03     103.111E-03    -51.3774E-03     46.0587E-03    -51.8574E-03     102.634E-03    -51.2006E-03     45.8161E-03
            1730     5.13051E-03     40.6301E-03    -61.6958E+06    -143.687E+06    -26.5385E+06     56.3655E+03    -51.5980E-03     102.955E-03    -51.3569E-03     41.0114E-03    -51.6988E-03     102.404E-03    -51.1918E-03     40.8114E-03
            1731     4.27545E-03     40.5916E-03    -67.6928E+06    -156.955E+06    -37.0394E+06     45.9022E+03    -51.4687E-03     102.796E-03    -51.3268E-03     35.3309E-03    -51.5523E-03     102.189E-03    -51.1863E-03     35.1711E-03
            1732     3.42037E-03     40.5591E-03    -73.7607E+06    -167.191E+06    -49.8312E+06     41.8223E+03    -51.3531E-03     102.637E-03    -51.2840E-03     29.1016E-03    -51.4237E-03     101.997E-03    -51.1838E-03     28.9789E-03
            1733     2.56527E-03     40.5331E-03    -79.3626E+06    -177.485E+06    -63.6970E+06     32.1654E+03    -51.2667E-03     102.504E-03    -51.2376E-03     22.3976E-03    -51.3229E-03     101.833E-03    -51.1837E-03     22.3087E-03
            1734     1.71018E-03     40.5141E-03    -83.9707E+06    -186.227E+06    -76.0460E+06     14.2140E+03    -51.2069E-03     102.403E-03    -51.1962E-03     15.3682E-03    -51.2506E-03     101.708E-03    -51.1847E-03     15.3099E-03
            1735     855.086E-06     40.5022E-03    -87.0793E+06    -192.151E+06    -84.8166E+06     27.4708E+03    -51.1995E-03     102.339E-03    -51.1396E-03     8.44792E-03    -51.2346E-03     101.629E-03    -51.1588E-03     8.41713E-03
            1736     16.2431E-03     40.2067E-03    -4.17141E+06     110.983E+06     76.8365E+06     3.95358E+03    -51.4704E-03     103.112E-03    -51.6415E-03     15.1277E-03    -51.8247E-03     103.623E-03    -51.4122E-03     14.7787E-03
            1737     15.3884E-03     40.1844E-03    -8.32436E+06     109.206E+06     63.8268E+06     43.8979E+03    -51.5545E-03     103.121E-03    -51.5667E-03     27.7094E-03    -51.9491E-03     103.689E-03    -51.3938E-03     27.2806E-03
            1738     14.5338E-03     40.1517E-03    -12.3159E+06     101.627E+06     55.1893E+06     40.7468E+03    -51.6604E-03     103.182E-03    -51.5213E-03     36.9466E-03    -52.0740E-03     103.752E-03    -51.3748E-03     36.5053E-03
            1739     13.6791E-03     40.1108E-03    -16.3415E+06     69.6306E+06     46.5033E+06     129.972E+03    -51.8383E-03     103.348E-03    -51.5098E-03     44.2319E-03    -52.2351E-03     103.799E-03    -51.3545E-03     43.7732E-03
            1740     12.8245E-03     40.0635E-03    -20.3316E+06     26.8172E+06     36.1238E+06     312.490E+03    -52.0477E-03     103.550E-03    -51.5021E-03     50.0138E-03    -52.4024E-03     103.823E-03    -51.3309E-03     49.5467E-03
            1741     11.9699E-03     40.0109E-03    -24.3083E+06     3.23942E+06     31.2538E+06     409.671E+03    -52.1477E-03     103.639E-03    -51.4915E-03     54.5059E-03    -52.4884E-03     103.815E-03    -51.3047E-03     54.0380E-03
            1742     11.1152E-03     39.9545E-03    -28.4634E+06    -18.9593E+06     24.0524E+06     436.703E+03    -52.2078E-03     103.675E-03    -51.4671E-03     57.2473E-03    -52.5244E-03     103.753E-03    -51.2780E-03     56.7879E-03
            1743     10.2604E-03     39.8963E-03    -32.6966E+06    -40.4842E+06     17.6080E+06     373.529E+03    -52.2148E-03     103.660E-03    -51.4454E-03     58.2910E-03    -52.5007E-03     103.635E-03    -51.2513E-03     57.8505E-03
            1744     9.40563E-03     39.8377E-03    -36.9879E+06    -58.7731E+06     10.6615E+06     278.978E+03    -52.1721E-03     103.590E-03    -51.4174E-03     57.9131E-03    -52.4248E-03     103.471E-03    -51.2252E-03     57.5023E-03
            1745     8.55079E-03     39.7802E-03    -41.4007E+06    -78.4114E+06     3.62815E+06     199.145E+03    -52.0999E-03     103.492E-03    -51.3921E-03     56.3106E-03    -52.3147E-03     103.271E-03    -51.2003E-03     55.9373E-03
            1746     7.69589E-03     39.7247E-03    -45.9957E+06    -95.5430E+06    -3.33780E+06     123.254E+03    -51.9886E-03     103.354E-03    -51.3655E-03     53.7001E-03    -52.1692E-03     103.042E-03    -51.1769E-03     53.3692E-03
            1747     6.84093E-03     39.6723E-03    -50.8678E+06    -112.240E+06    -10.4184E+06     80.0430E+03    -51.8520E-03     103.193E-03    -51.3406E-03     50.1818E-03    -52.0017E-03     102.793E-03    -51.1562E-03     49.8954E-03
            1748     5.98592E-03     39.6239E-03    -56.0892E+06    -127.799E+06    -17.9996E+06     50.4745E+03    -51.7003E-03     103.016E-03    -51.3158E-03     45.8706E-03    -51.8240E-03     102.539E-03    -51.1392E-03     45.6284E-03
            1749     5.13085E-03     39.5801E-03    -61.7147E+06    -143.653E+06    -26.5576E+06     40.9310E+03    -51.5520E-03     102.843E-03    -51.2911E-03     40.8407E-03    -51.6528E-03     102.292E-03    -51.1261E-03     40.6413E-03
            1750     4.27575E-03     39.5417E-03    -67.6964E+06    -156.936E+06    -37.0484E+06     49.5558E+03    -51.4121E-03     102.670E-03    -51.2575E-03     35.1809E-03    -51.4955E-03     102.063E-03    -51.1171E-03     35.0217E-03
            1751     3.42061E-03     39.5093E-03    -73.7491E+06    -167.151E+06    -49.8147E+06     47.3295E+03    -51.2886E-03     102.501E-03    -51.2121E-03     28.9735E-03    -51.3590E-03     101.860E-03    -51.1118E-03     28.8514E-03
            1752     2.56546E-03     39.4834E-03    -79.3664E+06    -177.440E+06    -63.6698E+06     34.3281E+03    -51.1970E-03     102.361E-03    -51.1636E-03     22.2953E-03    -51.2532E-03     101.690E-03    -51.1096E-03     22.2068E-03
            1753     1.71031E-03     39.4644E-03    -83.9665E+06    -186.181E+06    -76.0205E+06     29.9621E+03    -51.1334E-03     102.254E-03    -51.1205E-03     15.2965E-03    -51.1771E-03     101.559E-03    -51.1089E-03     15.2387E-03
            1754     855.157E-06     39.4526E-03    -87.0866E+06    -192.131E+06    -84.8245E+06     12.0351E+03    -51.1226E-03     102.186E-03    -51.0632E-03     8.40850E-03    -51.1578E-03     101.476E-03    -51.0825E-03     8.37768E-03
            1755     16.2431E-03     39.1549E-03    -4.21538E+06     110.951E+06     76.8664E+06     6.57045E+03    -51.5403E-03     103.178E-03    -51.6374E-03     15.0350E-03    -51.8945E-03     103.688E-03    -51.4079E-03     14.6858E-03
            1756     15.3886E-03     39.1327E-03    -8.34716E+06     109.158E+06     63.7899E+06     58.9112E+03    -51.6197E-03     103.178E-03    -51.5583E-03     27.5938E-03    -52.0138E-03     103.745E-03    -51.3855E-03     27.1650E-03
            1757     14.5340E-03     39.1002E-03    -12.4582E+06     101.577E+06     55.0377E+06     169.491E+03    -51.7258E-03     103.234E-03    -51.5080E-03     36.7987E-03    -52.1394E-03     103.804E-03    -51.3620E-03     36.3589E-03
            1758     13.6794E-03     39.0594E-03    -16.5646E+06     69.5131E+06     46.3382E+06     272.120E+03    -51.8982E-03     103.390E-03    -51.4917E-03     44.0602E-03    -52.2951E-03     103.840E-03    -51.3368E-03     43.6034E-03
            1759     12.8248E-03     39.0122E-03    -20.5021E+06     26.6059E+06     35.9568E+06     441.974E+03    -52.1003E-03     103.579E-03    -51.4788E-03     49.8214E-03    -52.4546E-03     103.851E-03    -51.3079E-03     49.3563E-03
            1760     11.9702E-03     38.9597E-03    -24.5759E+06     3.22534E+06     31.0988E+06     642.427E+03    -52.1917E-03     103.654E-03    -51.4627E-03     54.2977E-03    -52.5326E-03     103.829E-03    -51.2762E-03     53.8333E-03
            1761     11.1155E-03     38.9035E-03    -28.7628E+06    -18.7201E+06     23.9476E+06     563.336E+03    -52.2414E-03     103.674E-03    -51.4324E-03     57.0234E-03    -52.5589E-03     103.753E-03    -51.2438E-03     56.5662E-03
            1762     10.2608E-03     38.8454E-03    -32.9085E+06    -40.2827E+06     17.5263E+06     377.028E+03    -52.2391E-03     103.644E-03    -51.4049E-03     58.0574E-03    -52.5254E-03     103.620E-03    -51.2112E-03     57.6178E-03
            1763     9.40606E-03     38.7870E-03    -37.1430E+06    -58.5927E+06     10.6105E+06     243.295E+03    -52.1868E-03     103.558E-03    -51.3709E-03     57.6769E-03    -52.4398E-03     103.440E-03    -51.1790E-03     57.2664E-03
            1764     8.55124E-03     38.7297E-03    -41.4965E+06    -78.2696E+06     3.61065E+06     126.321E+03    -52.1037E-03     103.443E-03    -51.3394E-03     56.0733E-03    -52.3184E-03     103.222E-03    -51.1477E-03     55.7000E-03
            1765     7.69634E-03     38.6744E-03    -46.0487E+06    -95.4543E+06    -3.33132E+06     63.3427E+03    -51.9802E-03     103.287E-03    -51.3065E-03     53.4640E-03    -52.1607E-03     102.975E-03    -51.1180E-03     53.1332E-03
            1766     6.84138E-03     38.6222E-03    -50.8872E+06    -112.179E+06    -10.3928E+06     24.9449E+03    -51.8306E-03     103.106E-03    -51.2755E-03     49.9539E-03    -51.9801E-03     102.707E-03    -51.0910E-03     49.6677E-03
            1767     5.98634E-03     38.5739E-03    -56.0863E+06    -127.755E+06    -17.9690E+06     5.06748E+03    -51.6656E-03     102.910E-03    -51.2445E-03     45.6566E-03    -51.7890E-03     102.433E-03    -51.0678E-03     45.4149E-03
            1768     5.13125E-03     38.5303E-03    -61.7025E+06    -143.654E+06    -26.5210E+06     11.0521E+03    -51.5035E-03     102.718E-03    -51.2142E-03     40.6460E-03    -51.6040E-03     102.166E-03    -51.0491E-03     40.4471E-03
            1769     4.27610E-03     38.4920E-03    -67.6851E+06    -156.932E+06    -37.0083E+06     41.8375E+03    -51.3497E-03     102.525E-03    -51.1756E-03     35.0100E-03    -51.4329E-03     101.918E-03    -51.0350E-03     34.8515E-03
            1770     3.42091E-03     38.4597E-03    -73.7434E+06    -167.110E+06    -49.7904E+06     47.0418E+03    -51.2144E-03     102.340E-03    -51.1260E-03     28.8281E-03    -51.2848E-03     101.700E-03    -51.0257E-03     28.7067E-03
            1771     2.56569E-03     38.4339E-03    -79.3484E+06    -177.403E+06    -63.6578E+06     39.2503E+03    -51.1141E-03     102.188E-03    -51.0743E-03     22.1787E-03    -51.1703E-03     101.518E-03    -51.0203E-03     22.0908E-03
            1772     1.71047E-03     38.4149E-03    -83.9467E+06    -186.144E+06    -76.0187E+06     30.6867E+03    -51.0445E-03     102.074E-03    -51.0291E-03     15.2142E-03    -51.0882E-03     101.379E-03    -51.0176E-03     15.1568E-03
            1773     855.230E-06     38.4032E-03    -87.0608E+06    -192.058E+06    -84.7877E+06     6.36515E+03    -51.0303E-03     102.001E-03    -50.9709E-03     8.36253E-03    -51.0655E-03     101.292E-03    -50.9902E-03     8.33184E-03
            1774     16.2432E-03     38.1031E-03    -4.20476E+06     110.986E+06     76.9238E+06    -5.87641E+03    -51.6138E-03     103.247E-03    -51.6329E-03     14.9616E-03    -51.9679E-03     103.757E-03    -51.4031E-03     14.6121E-03
            1775     15.3887E-03     38.0809E-03    -8.41536E+06     108.884E+06     63.5550E+06     151.508E+03    -51.6989E-03     103.247E-03    -51.5483E-03     27.4804E-03    -52.0922E-03     103.813E-03    -51.3762E-03     27.0526E-03
            1776     14.5342E-03     38.0485E-03    -12.4831E+06     101.539E+06     54.9586E+06     343.904E+03    -51.8002E-03     103.293E-03    -51.4932E-03     36.6319E-03    -52.2130E-03     103.863E-03    -51.3476E-03     36.1943E-03
            1777     13.6797E-03     38.0079E-03    -16.5753E+06     69.3679E+06     46.2579E+06     470.873E+03    -51.9662E-03     103.438E-03    -51.4715E-03     43.8702E-03    -52.3621E-03     103.887E-03    -51.3168E-03     43.4160E-03
            1778     12.8251E-03     37.9609E-03    -20.8258E+06     26.2573E+06     35.6438E+06     833.626E+03    -52.1637E-03     103.616E-03    -51.4522E-03     49.6050E-03    -52.5178E-03     103.886E-03    -51.2818E-03     49.1453E-03
            1779     11.9706E-03     37.9085E-03    -25.0076E+06     3.53776E+06     30.9734E+06     825.254E+03    -52.2449E-03     103.675E-03    -51.4297E-03     54.0550E-03    -52.5873E-03     103.851E-03    -51.2437E-03     53.5934E-03
            1780     11.1160E-03     37.8525E-03    -29.0085E+06    -18.3763E+06     23.9393E+06     504.705E+03    -52.2832E-03     103.676E-03    -51.3928E-03     56.7623E-03    -52.6014E-03     103.757E-03    -51.2044E-03     56.3050E-03
            1781     10.2613E-03     37.7946E-03    -33.0369E+06    -40.0204E+06     17.5724E+06     292.433E+03    -52.2695E-03     103.628E-03    -51.3585E-03     57.7876E-03    -52.5559E-03     103.604E-03    -51.1647E-03     57.3477E-03
            1782     9.40657E-03     37.7364E-03    -37.1890E+06    -58.3898E+06     10.6875E+06     109.790E+03    -52.2047E-03     103.522E-03    -51.3174E-03     57.4065E-03    -52.4574E-03     103.404E-03    -51.1254E-03     56.9953E-03
            1783     8.55175E-03     37.6793E-03    -41.4946E+06    -78.1572E+06     3.68517E+06     12.5252E+03    -52.1077E-03     103.386E-03    -51.2787E-03     55.8021E-03    -52.3219E-03     103.165E-03    -51.0868E-03     55.4283E-03
            1784     7.69687E-03     37.6242E-03    -46.0252E+06    -95.3914E+06    -3.26537E+06    -38.7115E+03    -51.9696E-03     103.208E-03    -51.2385E-03     53.1935E-03    -52.1495E-03     102.895E-03    -51.0498E-03     52.8626E-03
            1785     6.84189E-03     37.5721E-03    -50.8486E+06    -112.154E+06    -10.3374E+06    -49.2825E+03    -51.8059E-03     103.006E-03    -51.2003E-03     49.6927E-03    -51.9548E-03     102.606E-03    -51.0156E-03     49.4067E-03
            1786     5.98684E-03     37.5240E-03    -56.0503E+06    -127.732E+06    -17.9189E+06    -46.9352E+03    -51.6270E-03     102.789E-03    -51.1622E-03     45.4113E-03    -51.7500E-03     102.312E-03    -50.9853E-03     45.1700E-03
            1787     5.13170E-03     37.4806E-03    -61.6774E+06    -143.694E+06    -26.4530E+06    -17.5572E+03    -51.4501E-03     102.575E-03    -51.1251E-03     40.4222E-03    -51.5501E-03     102.023E-03    -50.9596E-03     40.2238E-03
            1788     4.27651E-03     37.4424E-03    -67.6692E+06    -156.944E+06    -36.9551E+06     31.0850E+03    -51.2802E-03     102.360E-03    -51.0800E-03     34.8148E-03    -51.3631E-03     101.753E-03    -50.9391E-03     34.6570E-03
            1789     3.42125E-03     37.4102E-03    -73.7310E+06    -167.068E+06    -49.7716E+06     46.4289E+03    -51.1297E-03     102.154E-03    -51.0247E-03     28.6656E-03    -51.1999E-03     101.514E-03    -50.9244E-03     28.5449E-03
            1790     2.56597E-03     37.3845E-03    -79.3308E+06    -177.372E+06    -63.6502E+06     32.6143E+03    -51.0175E-03     101.987E-03    -50.9690E-03     22.0517E-03    -51.0736E-03     101.316E-03    -50.9150E-03     21.9643E-03
            1791     1.71065E-03     37.3657E-03    -83.9147E+06    -186.097E+06    -75.9996E+06     21.7659E+03    -50.9403E-03     101.861E-03    -50.9209E-03     15.1257E-03    -50.9839E-03     101.167E-03    -50.9094E-03     15.0685E-03
            1792     855.331E-06     37.3539E-03    -87.0133E+06    -191.997E+06    -84.7698E+06     10.1019E+03    -50.9217E-03     101.782E-03    -50.8608E-03     8.31320E-03    -50.9567E-03     101.073E-03    -50.8801E-03     8.28277E-03
            1793     16.2433E-03     37.0512E-03    -4.25028E+06     110.941E+06     76.8632E+06     103.683E+03    -51.7141E-03     103.342E-03    -51.6277E-03     14.8574E-03    -52.0680E-03     103.852E-03    -51.3981E-03     14.5088E-03
            1794     15.3889E-03     37.0291E-03    -8.42486E+06     108.632E+06     63.2016E+06     224.996E+03    -51.7882E-03     103.325E-03    -51.5363E-03     27.3421E-03    -52.1802E-03     103.889E-03    -51.3656E-03     26.9149E-03
            1795     14.5345E-03     36.9968E-03    -12.6014E+06     101.139E+06     54.5856E+06     626.966E+03    -51.8854E-03     103.361E-03    -51.4757E-03     36.4517E-03    -52.2971E-03     103.929E-03    -51.3311E-03     36.0177E-03
            1796     13.6799E-03     36.9563E-03    -17.2752E+06     69.0778E+06     45.9648E+06     1.22067E+06    -52.0471E-03     103.496E-03    -51.4485E-03     43.6468E-03    -52.4448E-03     103.944E-03    -51.2938E-03     43.2024E-03
            1797     12.8255E-03     36.9095E-03    -21.6307E+06     26.5247E+06     35.4599E+06     1.08519E+06    -52.2383E-03     103.660E-03    -51.4218E-03     49.3546E-03    -52.5956E-03     103.932E-03    -51.2516E-03     48.8983E-03
            1798     11.9710E-03     36.8573E-03    -25.3122E+06     4.07995E+06     31.0812E+06     584.193E+03    -52.3078E-03     103.700E-03    -51.3918E-03     53.7807E-03    -52.6517E-03     103.878E-03    -51.2056E-03     53.3165E-03
            1799     11.1165E-03     36.8015E-03    -29.0357E+06    -18.0356E+06     24.1062E+06     276.014E+03    -52.3336E-03     103.681E-03    -51.3472E-03     56.4694E-03    -52.6516E-03     103.762E-03    -51.1584E-03     56.0099E-03
            1800     10.2619E-03     36.7439E-03    -32.9263E+06    -39.7687E+06     17.7603E+06     61.8935E+03    -52.3064E-03     103.611E-03    -51.3047E-03     57.4846E-03    -52.5919E-03     103.587E-03    -51.1105E-03     57.0427E-03
            1801     9.40715E-03     36.6859E-03    -37.0147E+06    -58.2551E+06     10.8510E+06    -41.1577E+03    -52.2268E-03     103.482E-03    -51.2551E-03     57.0953E-03    -52.4781E-03     103.364E-03    -51.0627E-03     56.6833E-03
            1802     8.55236E-03     36.6289E-03    -41.3388E+06    -78.0742E+06     3.80954E+06    -100.340E+03    -52.1122E-03     103.320E-03    -51.2079E-03     55.4861E-03    -52.3251E-03     103.098E-03    -51.0157E-03     55.1122E-03
            1803     7.69747E-03     36.5740E-03    -45.8987E+06    -95.3773E+06    -3.17378E+06    -116.500E+03    -51.9561E-03     103.115E-03    -51.1594E-03     52.8789E-03    -52.1347E-03     102.802E-03    -50.9704E-03     52.5484E-03
            1804     6.84249E-03     36.5222E-03    -50.7635E+06    -112.155E+06    -10.2548E+06    -106.699E+03    -51.7753E-03     102.888E-03    -51.1131E-03     49.3907E-03    -51.9231E-03     102.488E-03    -50.9281E-03     49.1054E-03
            1805     5.98741E-03     36.4743E-03    -55.9918E+06    -127.753E+06    -17.8308E+06    -79.4389E+03    -51.5802E-03     102.647E-03    -51.0671E-03     45.1294E-03    -51.7025E-03     102.169E-03    -50.8898E-03     44.8889E-03
            1806     5.13224E-03     36.4310E-03    -61.6482E+06    -143.751E+06    -26.3619E+06    -29.2013E+03    -51.3870E-03     102.409E-03    -51.0224E-03     40.1655E-03    -51.4866E-03     101.856E-03    -50.8564E-03     39.9682E-03
            1807     4.27698E-03     36.3931E-03    -67.6579E+06    -156.973E+06    -36.9100E+06     20.7685E+03    -51.1994E-03     102.169E-03    -50.9700E-03     34.5916E-03    -51.2820E-03     101.562E-03    -50.8288E-03     34.4348E-03
            1808     3.42166E-03     36.3610E-03    -73.7065E+06    -167.026E+06    -49.7748E+06     35.8194E+03    -51.0318E-03     101.940E-03    -50.9083E-03     28.4826E-03    -51.1018E-03     101.300E-03    -50.8081E-03     28.3626E-03
            1809     2.56627E-03     36.3354E-03    -79.3097E+06    -177.322E+06    -63.6471E+06     28.6122E+03    -50.9068E-03     101.755E-03    -50.8480E-03     21.9117E-03    -50.9627E-03     101.084E-03    -50.7941E-03     21.8249E-03
            1810     1.71087E-03     36.3166E-03    -83.9028E+06    -186.057E+06    -75.9977E+06     17.7302E+03    -50.8207E-03     101.617E-03    -50.7966E-03     15.0296E-03    -50.8642E-03     100.923E-03    -50.7851E-03     14.9728E-03
            1811     855.434E-06     36.3050E-03    -87.0111E+06    -191.976E+06    -84.7608E+06     23.4358E+03    -50.7966E-03     101.531E-03    -50.7342E-03     8.26011E-03    -50.8317E-03     100.821E-03    -50.7534E-03     8.23007E-03
            1812     16.2434E-03     35.9992E-03    -4.20309E+06     110.632E+06     76.3859E+06     179.379E+03    -51.8534E-03     103.474E-03    -51.6210E-03     14.7572E-03    -52.2056E-03     103.983E-03    -51.3934E-03     14.4092E-03
            1813     15.3891E-03     35.9772E-03    -8.69411E+06     108.258E+06     62.7534E+06     678.164E+03    -51.8987E-03     103.422E-03    -51.5231E-03     27.1939E-03    -52.2902E-03     103.985E-03    -51.3537E-03     26.7724E-03
            1814     14.5347E-03     35.9451E-03    -13.5053E+06     100.258E+06     53.9243E+06     1.44632E+06    -51.9883E-03     103.444E-03    -51.4558E-03     36.2385E-03    -52.4015E-03     104.009E-03    -51.3120E-03     35.8150E-03
            1815     13.6803E-03     35.9047E-03    -17.7818E+06     69.3389E+06     45.9779E+06     1.59854E+06    -52.1468E-03     103.569E-03    -51.4219E-03     43.3980E-03    -52.5464E-03     104.018E-03    -51.2667E-03     42.9585E-03
            1816     12.8260E-03     35.8580E-03    -21.2885E+06     27.6747E+06     36.0617E+06     795.410E+03    -52.3235E-03     103.711E-03    -51.3871E-03     49.0807E-03    -52.6806E-03     103.986E-03    -51.2160E-03     48.6209E-03
            1817     11.9716E-03     35.8061E-03    -24.8177E+06     4.43336E+06     31.4839E+06     153.061E+03    -52.3827E-03     103.731E-03    -51.3483E-03     53.4817E-03    -52.7241E-03     103.909E-03    -51.1614E-03     53.0124E-03
            1818     11.1171E-03     35.7505E-03    -28.5390E+06    -17.7365E+06     24.4517E+06    -35.3912E+03    -52.3963E-03     103.691E-03    -51.2942E-03     56.1435E-03    -52.7116E-03     103.771E-03    -51.1049E-03     55.6808E-03
            1819     10.2625E-03     35.6931E-03    -32.4894E+06    -39.6851E+06     18.0021E+06    -115.619E+03    -52.3547E-03     103.597E-03    -51.2419E-03     57.1397E-03    -52.6372E-03     103.571E-03    -51.0472E-03     56.6966E-03
            1820     9.40784E-03     35.6353E-03    -36.6968E+06    -58.1821E+06     11.0487E+06    -128.540E+03    -52.2552E-03     103.437E-03    -51.1823E-03     56.7346E-03    -52.5042E-03     103.318E-03    -50.9894E-03     56.3227E-03
            1821     8.55307E-03     35.5786E-03    -41.0944E+06    -78.0521E+06     3.97579E+06    -131.952E+03    -52.1167E-03     103.242E-03    -51.1252E-03     55.1189E-03    -52.3276E-03     103.018E-03    -50.9326E-03     54.7461E-03
            1822     7.69819E-03     35.5240E-03    -45.7317E+06    -95.3726E+06    -3.03093E+06    -123.978E+03    -51.9371E-03     103.004E-03    -51.0673E-03     52.5182E-03    -52.1142E-03     102.689E-03    -50.8778E-03     52.1892E-03
            1823     6.84318E-03     35.4724E-03    -50.6500E+06    -112.175E+06    -10.1234E+06    -110.962E+03    -51.7355E-03     102.747E-03    -51.0120E-03     49.0478E-03    -51.8822E-03     102.346E-03    -50.8265E-03     48.7639E-03
            1824     5.98807E-03     35.4247E-03    -55.9285E+06    -127.793E+06    -17.7126E+06    -77.2455E+03    -51.5209E-03     102.478E-03    -50.9576E-03     44.8107E-03    -51.6424E-03     101.999E-03    -50.7797E-03     44.5717E-03
            1825     5.13284E-03     35.3816E-03    -61.6099E+06    -143.812E+06    -26.2846E+06    -25.7633E+03    -51.3091E-03     102.214E-03    -50.9048E-03     39.8761E-03    -51.4081E-03     101.660E-03    -50.7383E-03     39.6802E-03
            1826     4.27752E-03     35.3439E-03    -67.6308E+06    -156.986E+06    -36.8840E+06     16.9569E+03    -51.1037E-03     101.948E-03    -50.8447E-03     34.3397E-03    -51.1860E-03     101.340E-03    -50.7034E-03     34.1840E-03
            1827     3.42211E-03     35.3120E-03    -73.6995E+06    -166.992E+06    -49.7816E+06     26.8859E+03    -50.9198E-03     101.696E-03    -50.7766E-03     28.2760E-03    -50.9897E-03     101.056E-03    -50.6765E-03     28.1568E-03
            1828     2.56663E-03     35.2866E-03    -79.2889E+06    -177.304E+06    -63.6957E+06     32.9080E+03    -50.7810E-03     101.492E-03    -50.7111E-03     21.7541E-03    -50.8367E-03     100.822E-03    -50.6575E-03     21.6680E-03
            1829     1.71110E-03     35.2679E-03    -83.8741E+06    -186.016E+06    -76.0109E+06     44.0919E+03    -50.6851E-03     101.342E-03    -50.6564E-03     14.9226E-03    -50.7285E-03     100.647E-03    -50.6451E-03     14.8666E-03
            1830     855.561E-06     35.2563E-03    -87.0089E+06    -191.915E+06    -84.7285E+06     24.0332E+03    -50.6555E-03     101.248E-03    -50.5924E-03     8.20189E-03    -50.6906E-03     100.539E-03    -50.6116E-03     8.17212E-03
            1831     16.2434E-03     34.9470E-03    -4.05094E+06     110.378E+06     76.3244E+06     97.3861E+03    -51.9983E-03     103.616E-03    -51.6173E-03     14.6484E-03    -52.3489E-03     104.122E-03    -51.3898E-03     14.2988E-03
            1832     15.3893E-03     34.9251E-03    -8.01478E+06     106.737E+06     63.4589E+06     1.08422E+06    -52.0672E-03     103.583E-03    -51.5154E-03     27.0322E-03    -52.4536E-03     104.135E-03    -51.3413E-03     26.6154E-03
            1833     14.5351E-03     34.8932E-03    -11.9482E+06     99.7891E+06     55.2630E+06     2.14790E+06    -52.1364E-03     103.575E-03    -51.4386E-03     36.0104E-03    -52.5422E-03     104.132E-03    -51.2897E-03     35.5957E-03
            1834     13.6808E-03     34.8530E-03    -15.9536E+06     70.7791E+06     47.2268E+06     1.50095E+06    -52.2633E-03     103.655E-03    -51.3915E-03     43.1307E-03    -52.6567E-03     104.106E-03    -51.2349E-03     42.6899E-03
            1835     12.8265E-03     34.8065E-03    -19.7483E+06     28.6691E+06     37.0179E+06     496.036E+03    -52.4250E-03     103.772E-03    -51.3469E-03     48.7760E-03    -52.7761E-03     104.047E-03    -51.1747E-03     48.3126E-03
            1836     11.9722E-03     34.7548E-03    -23.5663E+06     4.82682E+06     32.1437E+06     71.1500E+03    -52.4724E-03     103.770E-03    -51.2979E-03     53.1393E-03    -52.8077E-03     103.946E-03    -51.1100E-03     52.6695E-03
            1837     11.1178E-03     34.6995E-03    -27.6929E+06    -17.6813E+06     24.8715E+06    -68.5254E+03    -52.4717E-03     103.705E-03    -51.2330E-03     55.7728E-03    -52.7820E-03     103.782E-03    -51.0428E-03     55.3106E-03
            1838     10.2633E-03     34.6423E-03    -31.9435E+06    -39.6253E+06     18.3179E+06    -47.9710E+03    -52.4115E-03     103.581E-03    -51.1692E-03     56.7513E-03    -52.6906E-03     103.553E-03    -50.9739E-03     56.3102E-03
            1839     9.40865E-03     34.5848E-03    -36.3203E+06    -58.1697E+06     11.2863E+06    -61.9663E+03    -52.2878E-03     103.386E-03    -51.0979E-03     56.3320E-03    -52.5340E-03     103.264E-03    -50.9045E-03     55.9225E-03
            1840     8.55390E-03     34.5284E-03    -40.8432E+06    -78.0325E+06     4.16577E+06    -48.3342E+03    -52.1208E-03     103.150E-03    -51.0295E-03     54.7101E-03    -52.3295E-03     102.925E-03    -50.8363E-03     54.3401E-03
            1841     7.69901E-03     34.4740E-03    -45.5507E+06    -95.3544E+06    -2.87779E+06    -53.1126E+03    -51.9126E-03     102.873E-03    -50.9608E-03     52.1190E-03    -52.0881E-03     102.557E-03    -50.7709E-03     51.7927E-03
            1842     6.84399E-03     34.4228E-03    -50.5316E+06    -112.181E+06    -9.99772E+06    -46.6635E+03    -51.6857E-03     102.581E-03    -50.8957E-03     48.6680E-03    -51.8312E-03     102.178E-03    -50.7097E-03     48.3868E-03
            1843     5.98882E-03     34.3753E-03     -55.862E+06    -127.817E+06    -17.5994E+06    -27.9798E+03    -51.4472E-03     102.279E-03    -50.8322E-03     44.4566E-03    -51.5679E-03     101.799E-03    -50.6539E-03     44.2199E-03
            1844     5.13353E-03     34.3325E-03    -61.5884E+06    -143.845E+06    -26.2556E+06     1.20311E+03    -51.2137E-03     101.985E-03    -50.7710E-03     39.5556E-03    -51.3121E-03     101.430E-03    -50.6044E-03     39.3615E-03
            1845     4.27812E-03     34.2950E-03    -67.6238E+06    -156.980E+06    -36.9353E+06     20.5990E+03    -50.9910E-03     101.694E-03    -50.7034E-03     34.0613E-03    -51.0729E-03     101.086E-03    -50.5624E-03     33.9070E-03
            1846     3.42262E-03     34.2633E-03    -73.6868E+06    -166.982E+06    -49.8304E+06     40.2487E+03    -50.7924E-03     101.421E-03    -50.6290E-03     28.0466E-03    -50.8620E-03     100.781E-03    -50.5292E-03     27.9287E-03
            1847     2.56702E-03     34.2380E-03    -79.2854E+06    -177.283E+06    -63.7152E+06     52.1354E+03    -50.6403E-03     101.199E-03    -50.5584E-03     21.5786E-03    -50.6958E-03     100.528E-03    -50.5050E-03     21.4936E-03
            1848     1.71138E-03     34.2194E-03    -83.8450E+06    -185.975E+06    -76.0306E+06     58.5110E+03    -50.5339E-03     101.034E-03    -50.4999E-03     14.8030E-03    -50.5771E-03     100.340E-03    -50.4888E-03     14.7477E-03
            1849     855.692E-06     34.2079E-03    -86.9232E+06    -191.811E+06    -84.6982E+06     27.9832E+03    -50.4982E-03     100.932E-03    -50.4339E-03     8.13639E-03    -50.5331E-03     100.223E-03    -50.4533E-03     8.10695E-03
            1850     16.2435E-03     33.8946E-03    -4.12953E+06     110.329E+06     76.0924E+06     2.48082E+03    -52.1457E-03     103.757E-03    -51.6116E-03     14.4941E-03    -52.4960E-03     104.264E-03    -51.3851E-03     14.1425E-03
            1851     15.3894E-03     33.8729E-03    -7.72574E+06     105.072E+06     63.5755E+06     430.076E+03    -52.2426E-03     103.747E-03    -51.5040E-03     26.8424E-03    -52.6247E-03     104.290E-03    -51.3273E-03     26.4164E-03
            1852     14.5354E-03     33.8411E-03    -10.5936E+06     98.9739E+06     56.2732E+06     1.49832E+06    -52.3130E-03     103.731E-03    -51.4179E-03     35.7696E-03    -52.7114E-03     104.280E-03    -51.2647E-03     35.3461E-03
            1853     13.6813E-03     33.8012E-03    -14.0111E+06     72.3955E+06     48.5438E+06     1.77036E+06    -52.4035E-03     103.760E-03    -51.3565E-03     42.8286E-03    -52.7904E-03     104.213E-03    -51.1985E-03     42.3912E-03
            1854     12.8271E-03     33.7549E-03    -18.2918E+06     29.6514E+06     37.9344E+06     898.174E+03    -52.5426E-03     103.843E-03    -51.3004E-03     48.4303E-03    -52.8878E-03     104.119E-03    -51.1272E-03     47.9722E-03
            1855     11.9729E-03     33.7035E-03    -22.7042E+06     5.10938E+06     32.6477E+06     427.515E+03    -52.5750E-03     103.815E-03    -51.2396E-03     52.7564E-03    -52.9057E-03     103.988E-03    -51.0508E-03     52.2918E-03
            1856     11.1186E-03     33.6484E-03    -27.1037E+06    -17.5297E+06     25.2220E+06     326.190E+03    -52.5546E-03     103.717E-03    -51.1622E-03     55.3596E-03    -52.8612E-03     103.792E-03    -50.9714E-03     54.9035E-03
            1857     10.2641E-03     33.5916E-03    -31.5379E+06    -39.5360E+06     18.5646E+06     208.745E+03    -52.4702E-03     103.556E-03    -51.0857E-03     56.3178E-03    -52.7463E-03     103.526E-03    -50.8898E-03     55.8814E-03
            1858     9.40956E-03     33.5344E-03    -36.0214E+06    -58.0974E+06     11.4838E+06     175.301E+03    -52.3180E-03     103.320E-03    -51.0017E-03     55.8853E-03    -52.5617E-03     103.196E-03    -50.8078E-03     55.4806E-03
            1859     8.55484E-03     33.4783E-03    -40.6218E+06    -77.9587E+06     4.32843E+06     125.672E+03    -52.1215E-03     103.042E-03    -50.9208E-03     54.2635E-03    -52.3282E-03     102.816E-03    -50.7272E-03     53.8976E-03
            1860     7.69995E-03     33.4243E-03    -45.3909E+06    -95.3001E+06    -2.75061E+06     95.2684E+03    -51.8843E-03     102.725E-03    -50.8403E-03     51.6866E-03    -52.0582E-03     102.407E-03    -50.6500E-03     51.3642E-03
            1861     6.84490E-03     33.3733E-03    -50.4178E+06    -112.144E+06    -9.90993E+06     76.9257E+03    -51.6276E-03     102.392E-03    -50.7640E-03     48.2562E-03    -51.7719E-03     101.988E-03    -50.5779E-03     47.9786E-03
            1862     5.98968E-03     33.3262E-03    -55.7897E+06    -127.798E+06    -17.5047E+06     72.2569E+03    -51.3602E-03     102.051E-03    -50.6909E-03     44.0710E-03    -51.4800E-03     101.570E-03    -50.5123E-03     43.8375E-03
            1863     5.13431E-03     33.2836E-03    -61.5496E+06    -143.820E+06    -26.2038E+06     66.4512E+03    -51.1023E-03     101.724E-03    -50.6212E-03     39.2074E-03    -51.2002E-03     101.168E-03    -50.4545E-03     39.0159E-03
            1864     4.27880E-03     33.2464E-03    -67.6193E+06    -156.957E+06    -36.9738E+06     60.2645E+03    -50.8608E-03     101.407E-03    -50.5463E-03     33.7598E-03    -50.9423E-03     100.799E-03    -50.4055E-03     33.6074E-03
            1865     3.42317E-03     33.2149E-03    -73.7083E+06    -166.969E+06    -49.8731E+06     68.1396E+03    -50.6480E-03     101.114E-03    -50.4659E-03     27.7979E-03    -50.7173E-03     100.473E-03    -50.3663E-03     27.6815E-03
            1866     2.56746E-03     33.1898E-03    -79.2945E+06    -177.243E+06    -63.7238E+06     65.8939E+03    -50.4844E-03     100.875E-03    -50.3902E-03     21.3877E-03    -50.5399E-03     100.204E-03    -50.3369E-03     21.3037E-03
            1867     1.71167E-03     33.1713E-03    -83.8431E+06    -185.900E+06    -75.9854E+06     41.4297E+03    -50.3680E-03     100.695E-03    -50.3275E-03     14.6729E-03    -50.4113E-03     100.002E-03    -50.3163E-03     14.6180E-03
            1868     855.848E-06     33.1599E-03    -86.9063E+06    -191.743E+06    -84.6640E+06     8.79883E+03    -50.3245E-03     100.583E-03    -50.2582E-03     8.06575E-03    -50.3595E-03     99.8740E-03    -50.2774E-03     8.03638E-03
            1869     16.2436E-03     32.8422E-03    -4.14853E+06     110.340E+06     75.7904E+06    -25.4917E+03    -52.3256E-03     103.928E-03    -51.6026E-03     14.3426E-03    -52.6752E-03     104.435E-03    -51.3776E-03     13.9899E-03
            1870     15.3897E-03     32.8205E-03    -8.28892E+06     104.620E+06     63.0420E+06    -96.1868E+03    -52.4080E-03     103.893E-03    -51.4852E-03     26.6214E-03    -52.7907E-03     104.435E-03    -51.3097E-03     26.1878E-03
            1871     14.5358E-03     32.7889E-03    -11.9815E+06     97.6449E+06     55.3240E+06     301.578E+03    -52.4721E-03     103.861E-03    -51.3885E-03     35.4803E-03    -52.8731E-03     104.405E-03    -51.2361E-03     35.0408E-03
            1872     13.6818E-03     32.7492E-03    -15.0822E+06     72.4667E+06     48.2073E+06     1.19152E+06    -52.5552E-03     103.871E-03    -51.3156E-03     42.5023E-03    -52.9458E-03     104.325E-03    -51.1578E-03     42.0572E-03
            1873     12.8278E-03     32.7033E-03    -18.4754E+06     30.6840E+06     38.1870E+06     1.41180E+06    -52.6758E-03     103.923E-03    -51.2468E-03     48.0595E-03    -53.0224E-03     104.202E-03    -51.0735E-03     47.6084E-03
            1874     11.9737E-03     32.6521E-03    -22.6569E+06     5.43096E+06     32.7793E+06     1.00166E+06    -52.6897E-03     103.862E-03    -51.1726E-03     52.3395E-03    -53.0192E-03     104.036E-03    -50.9838E-03     51.8830E-03
            1875     11.1195E-03     32.5974E-03    -27.0339E+06    -17.1715E+06     25.3699E+06     744.454E+03    -52.6440E-03     103.725E-03    -51.0814E-03     54.9075E-03    -52.9493E-03     103.800E-03    -50.8904E-03     54.4580E-03
            1876     10.2651E-03     32.5408E-03    -31.4180E+06    -39.3339E+06     18.6845E+06     572.079E+03    -52.5282E-03     103.519E-03    -50.9909E-03     55.8401E-03    -52.8025E-03     103.488E-03    -50.7949E-03     55.4100E-03
            1877     9.41059E-03     32.4840E-03    -35.9208E+06    -57.9196E+06     11.5886E+06     441.747E+03    -52.3412E-03     103.235E-03    -50.8934E-03     55.3953E-03    -52.5832E-03     103.110E-03    -50.6994E-03     54.9960E-03
            1878     8.55588E-03     32.4283E-03     -40.522E+06    -77.8060E+06     4.43036E+06     357.688E+03    -52.1132E-03     102.913E-03    -50.7997E-03     53.7800E-03    -52.3184E-03     102.685E-03    -50.6060E-03     53.4193E-03
            1879     7.70099E-03     32.3747E-03    -45.3108E+06    -95.1777E+06    -2.65548E+06     279.883E+03    -51.8474E-03     102.554E-03    -50.7069E-03     51.2234E-03    -52.0201E-03     102.236E-03    -50.5165E-03     50.9056E-03
            1880     6.84590E-03     32.3240E-03    -50.3502E+06    -112.058E+06    -9.85509E+06     230.976E+03    -51.5600E-03     102.179E-03    -50.6190E-03     47.8191E-03    -51.7032E-03     101.774E-03    -50.4328E-03     47.5457E-03
            1881     5.99062E-03     32.2773E-03    -55.7346E+06    -127.724E+06    -17.4831E+06     206.354E+03    -51.2629E-03     101.798E-03    -50.5355E-03     43.6670E-03    -51.3818E-03     101.317E-03    -50.3569E-03     43.4373E-03
            1882     5.13516E-03     32.2350E-03    -61.5351E+06    -143.742E+06    -26.1789E+06     185.522E+03    -50.9804E-03     101.437E-03    -50.4569E-03     38.8428E-03    -51.0778E-03     100.882E-03    -50.2901E-03     38.6546E-03
            1883     4.27954E-03     32.1980E-03    -67.6590E+06    -156.869E+06    -36.9075E+06     141.935E+03    -50.7182E-03     101.093E-03    -50.3744E-03     33.4385E-03    -50.7998E-03     100.484E-03    -50.2334E-03     33.2887E-03
            1884     3.42379E-03     32.1668E-03    -73.7504E+06    -166.891E+06    -49.8207E+06     68.1605E+03    -50.4887E-03     100.776E-03    -50.2875E-03     27.5282E-03    -50.5582E-03     100.136E-03    -50.1876E-03     27.4131E-03
            1885     2.56793E-03     32.1419E-03    -79.2984E+06    -177.194E+06    -63.7339E+06     31.1808E+03    -50.3127E-03     100.519E-03    -50.2060E-03     21.1768E-03    -50.3681E-03     99.8484E-03    -50.1528E-03     21.0933E-03
            1886     1.71199E-03     32.1236E-03    -83.8380E+06    -185.844E+06    -75.9869E+06     29.8479E+03    -50.1860E-03     100.325E-03    -50.1389E-03     14.5267E-03    -50.2293E-03     99.6312E-03    -50.1278E-03     14.4723E-03
            1887     856.011E-06     32.1122E-03    -86.9135E+06    -191.704E+06    -84.6808E+06     11.6024E+03    -50.1351E-03     100.201E-03    -50.0660E-03     7.98531E-03    -50.1702E-03     99.4927E-03    -50.0854E-03     7.95633E-03
            1888     16.2438E-03     31.7894E-03    -4.16193E+06     110.353E+06     76.1973E+06     29.2219E+03    -52.5283E-03     104.123E-03    -51.5945E-03     14.1573E-03    -52.8781E-03     104.629E-03    -51.3675E-03     13.8045E-03
            1889     15.3901E-03     31.7680E-03    -8.38964E+06     104.657E+06     63.3396E+06     77.8107E+03    -52.5882E-03     104.054E-03    -51.4653E-03     26.3706E-03    -52.9712E-03     104.595E-03    -51.2882E-03     25.9384E-03
            1890     14.5363E-03     31.7366E-03    -12.5728E+06     97.2143E+06     54.8516E+06     18.9995E+03    -52.6330E-03     103.988E-03    -51.3545E-03     35.1680E-03    -53.0346E-03     104.531E-03    -51.2030E-03     34.7243E-03
            1891     13.6824E-03     31.6972E-03    -16.4941E+06     71.5668E+06     47.3453E+06     257.247E+03    -52.7118E-03     103.981E-03    -51.2690E-03     42.1447E-03    -53.1056E-03     104.433E-03    -51.1121E-03     41.6873E-03
            1892     12.8286E-03     31.6515E-03    -19.8559E+06     30.6197E+06     37.6027E+06     961.032E+03    -52.8237E-03     104.010E-03    -51.1862E-03     47.6550E-03    -53.1747E-03     104.290E-03    -51.0137E-03     47.1982E-03
            1893     11.9746E-03     31.6007E-03    -23.3260E+06     5.95837E+06     32.6325E+06     1.19935E+06    -52.8130E-03     103.910E-03    -51.0973E-03     51.8880E-03    -53.1448E-03     104.086E-03    -50.9090E-03     51.4348E-03
            1894     11.1205E-03     31.5463E-03    -27.3535E+06    -16.8375E+06     25.3018E+06     976.965E+03    -52.7354E-03     103.726E-03    -50.9911E-03     54.4218E-03    -53.0409E-03     103.802E-03    -50.8005E-03     53.9766E-03
            1895     10.2662E-03     31.4902E-03    -31.5971E+06    -39.0068E+06     18.6761E+06     818.834E+03    -52.5822E-03     103.468E-03    -50.8859E-03     55.3311E-03    -52.8561E-03     103.437E-03    -50.6902E-03     54.9060E-03
            1896     9.41172E-03     31.4338E-03    -35.9916E+06    -57.6728E+06     11.6041E+06     670.712E+03    -52.3579E-03     103.132E-03    -50.7745E-03     54.8785E-03    -52.5991E-03     103.007E-03    -50.5806E-03     54.4844E-03
            1897     8.55702E-03     31.3784E-03    -40.5611E+06    -77.5953E+06     4.45809E+06     560.347E+03    -52.0963E-03     102.764E-03    -50.6675E-03     53.2719E-03    -52.3007E-03     102.536E-03    -50.4739E-03     52.9162E-03
            1898     7.70211E-03     31.3252E-03    -45.3260E+06    -94.9824E+06    -2.60384E+06     467.736E+03    -51.7980E-03     102.360E-03    -50.5624E-03     50.7326E-03    -51.9699E-03     102.042E-03    -50.3719E-03     50.4196E-03
            1899     6.84698E-03     31.2750E-03    -50.3582E+06    -111.895E+06    -9.80578E+06     370.562E+03    -51.4796E-03     101.943E-03    -50.4630E-03     47.3550E-03    -51.6222E-03     101.538E-03    -50.2768E-03     47.0856E-03
            1900     5.99162E-03     31.2286E-03    -55.7119E+06    -127.641E+06    -17.4849E+06     329.113E+03    -51.1557E-03     101.525E-03    -50.3689E-03     43.2431E-03    -51.2739E-03     101.043E-03    -50.1905E-03     43.0171E-03
            1901     5.13607E-03     31.1867E-03     -61.477E+06    -143.626E+06    -26.1101E+06     328.895E+03    -50.8502E-03     101.131E-03    -50.2813E-03     38.4659E-03    -50.9470E-03     100.576E-03    -50.1144E-03     38.2815E-03
            1902     4.28034E-03     31.1501E-03    -67.5879E+06    -156.636E+06    -36.6939E+06     218.716E+03    -50.5671E-03     100.758E-03    -50.1910E-03     33.1129E-03    -50.6486E-03     100.150E-03    -50.0494E-03     32.9657E-03
            1903     3.42446E-03     31.1191E-03    -73.7113E+06    -166.766E+06    -49.7559E+06     71.5349E+03    -50.3191E-03     100.416E-03    -50.0965E-03     27.2596E-03    -50.3885E-03     99.7756E-03    -49.9965E-03     27.1458E-03
            1904     2.56845E-03     31.0944E-03    -79.3435E+06    -177.153E+06    -63.7476E+06     27.7799E+03    -50.1273E-03     100.137E-03    -50.0093E-03     20.9706E-03    -50.1829E-03     99.4666E-03    -49.9562E-03     20.8880E-03
            1905     1.71235E-03     31.0763E-03    -83.9083E+06    -185.788E+06    -75.9682E+06    -6.61856E+03    -49.9900E-03     99.9285E-03    -49.9385E-03     14.3845E-03    -50.0337E-03     99.2351E-03    -49.9273E-03     14.3303E-03
            1906     856.189E-06     31.0650E-03    -86.9955E+06    -191.698E+06    -84.7357E+06     13.7846E+03    -49.9345E-03     99.7962E-03    -49.8618E-03     7.90534E-03    -49.9698E-03     99.0880E-03    -49.8814E-03     7.87674E-03
            1907     16.2440E-03     30.7366E-03    -4.44004E+06     110.300E+06     76.3535E+06     226.433E+03    -52.7411E-03     104.325E-03    -51.5834E-03     13.9648E-03    -53.0920E-03     104.830E-03    -51.3552E-03     13.6135E-03
            1908     15.3904E-03     30.7152E-03    -8.69499E+06     104.764E+06     63.3009E+06     183.921E+03    -52.7827E-03     104.224E-03    -51.4409E-03     26.1045E-03    -53.1664E-03     104.765E-03    -51.2637E-03     25.6727E-03
            1909     14.5368E-03     30.6841E-03    -12.5612E+06     97.4023E+06     54.8116E+06     33.6753E+03    -52.8195E-03     104.136E-03    -51.3166E-03     34.8305E-03    -53.2201E-03     104.679E-03    -51.1656E-03     34.3864E-03
            1910     13.6831E-03     30.6450E-03    -16.4269E+06     71.0950E+06     47.1011E+06     64.1058E+03    -52.8881E-03     104.105E-03    -51.2169E-03     41.7556E-03    -53.2791E-03     104.553E-03    -51.0606E-03     41.2954E-03
            1911     12.8294E-03     30.5996E-03    -20.2883E+06     29.8908E+06     37.0902E+06     426.377E+03    -52.9808E-03     104.100E-03    -51.1187E-03     47.2121E-03    -53.3305E-03     104.376E-03    -50.9472E-03     46.7487E-03
            1912     11.9756E-03     30.5492E-03    -23.9783E+06     6.03966E+06     32.3098E+06     858.178E+03    -52.9372E-03     103.951E-03    -51.0143E-03     51.3985E-03    -53.2700E-03     104.127E-03    -50.8267E-03     50.9418E-03
            1913     11.1216E-03     30.4952E-03    -27.7746E+06    -16.5475E+06     25.1353E+06     972.669E+03    -52.8200E-03     103.713E-03    -50.8927E-03     53.9007E-03    -53.1260E-03     103.788E-03    -50.7027E-03     53.4570E-03
            1914     10.2674E-03     30.4395E-03    -31.8633E+06    -38.7357E+06     18.5720E+06     888.498E+03    -52.6265E-03     103.399E-03    -50.7728E-03     54.7938E-03    -52.9001E-03     103.368E-03    -50.5776E-03     54.3717E-03
            1915     9.41292E-03     30.3836E-03    -36.1751E+06    -57.4023E+06     11.5416E+06     803.367E+03    -52.3665E-03     103.014E-03    -50.6474E-03     54.3445E-03    -52.6072E-03     102.889E-03    -50.4540E-03     53.9544E-03
            1916     8.55824E-03     30.3288E-03    -40.6806E+06    -77.3641E+06     4.41899E+06     710.582E+03    -52.0715E-03     102.599E-03    -50.5272E-03     52.7524E-03    -52.2753E-03     102.371E-03    -50.3340E-03     52.4011E-03
            1917     7.70330E-03     30.2760E-03    -45.4213E+06    -94.7475E+06    -2.62366E+06     618.314E+03    -51.7394E-03     102.149E-03    -50.4097E-03     50.2312E-03    -51.9109E-03     101.831E-03    -50.2195E-03     49.9226E-03
            1918     6.84811E-03     30.2262E-03    -50.4581E+06    -111.654E+06    -9.80034E+06     512.444E+03    -51.3911E-03     101.690E-03    -50.2990E-03     46.8794E-03    -51.5336E-03     101.286E-03    -50.1129E-03     46.6143E-03
            1919     5.99268E-03     30.1803E-03    -55.8787E+06    -127.564E+06    -17.5281E+06     461.066E+03    -51.0416E-03     101.236E-03    -50.1945E-03     42.8017E-03    -51.1599E-03     100.754E-03    -50.0161E-03     42.5797E-03
            1920     5.13702E-03     30.1388E-03    -61.6536E+06    -143.389E+06    -26.1361E+06     383.901E+03    -50.7100E-03     100.807E-03    -50.0972E-03     38.0723E-03    -50.8075E-03     100.253E-03    -49.9306E-03     37.8906E-03
            1921     4.28116E-03     30.1025E-03    -67.6611E+06    -156.317E+06    -36.6871E+06     182.687E+03    -50.4055E-03     100.404E-03    -49.9988E-03     32.7729E-03    -50.4874E-03     99.7974E-03    -49.8574E-03     32.6268E-03
            1922     3.42513E-03     30.0718E-03    -73.7070E+06    -166.710E+06    -49.7986E+06     106.971E+03    -50.1410E-03     100.038E-03    -49.8974E-03     26.9742E-03    -50.2102E-03     99.3986E-03    -49.7978E-03     26.8621E-03
            1923     2.56897E-03     30.0473E-03    -79.3304E+06    -177.029E+06    -63.6935E+06     71.4383E+03    -49.9334E-03     99.7389E-03    -49.8055E-03     20.7507E-03    -49.9891E-03     99.0692E-03    -49.7522E-03     20.6697E-03
            1924     1.71269E-03     30.0294E-03    -83.9902E+06    -185.737E+06    -75.9812E+06    -17.3306E+03    -49.7861E-03     99.5173E-03    -49.7312E-03     14.2335E-03    -49.8302E-03     98.8242E-03    -49.7200E-03     14.1798E-03
            1925     856.368E-06     30.0182E-03    -87.1235E+06    -191.730E+06    -84.8551E+06    -16.0793E+03    -49.7266E-03     99.3778E-03    -49.6512E-03     7.82074E-03    -49.7624E-03     98.6697E-03    -49.6711E-03     7.79210E-03
            1926     16.2442E-03     29.6834E-03    -4.07231E+06     110.244E+06     76.4486E+06     344.721E+03    -52.9834E-03     104.554E-03    -51.5703E-03     13.7546E-03    -53.3319E-03     105.057E-03    -51.3420E-03     13.4037E-03
            1927     15.3909E-03     29.6623E-03    -8.14937E+06     105.078E+06     63.5337E+06     225.973E+03    -53.0096E-03     104.423E-03    -51.4138E-03     25.8144E-03    -53.3904E-03     104.964E-03    -51.2367E-03     25.3821E-03
            1928     14.5375E-03     29.6315E-03    -12.2487E+06     97.5110E+06     54.8634E+06     66.2963E+03    -53.0294E-03     104.304E-03    -51.2747E-03     34.4639E-03    -53.4274E-03     104.846E-03    -51.1240E-03     34.0197E-03
            1929     13.6839E-03     29.5926E-03    -16.3496E+06     70.9428E+06     46.9837E+06     128.562E+03    -53.0773E-03     104.237E-03    -51.1594E-03     41.3340E-03    -53.4660E-03     104.683E-03    -51.0036E-03     40.8745E-03
            1930     12.8304E-03     29.5477E-03    -20.2378E+06     29.4516E+06     36.8435E+06     348.573E+03    -53.1390E-03     104.184E-03    -51.0451E-03     46.7337E-03    -53.4857E-03     104.457E-03    -50.8743E-03     46.2697E-03
            1931     11.9767E-03     29.4976E-03    -24.0968E+06     5.78849E+06     32.0579E+06     600.442E+03    -53.0540E-03     103.979E-03    -50.9249E-03     50.8748E-03    -53.3847E-03     104.152E-03    -50.7380E-03     50.4160E-03
            1932     11.1227E-03     29.4441E-03    -28.0403E+06    -16.4714E+06     24.9329E+06     796.074E+03    -52.8927E-03     103.681E-03    -50.7881E-03     53.3496E-03    -53.1977E-03     103.755E-03    -50.5989E-03     52.9054E-03
            1933     10.2686E-03     29.3889E-03    -32.0840E+06    -38.5537E+06     18.4212E+06     871.295E+03    -52.6590E-03     103.313E-03    -50.6540E-03     54.2326E-03    -52.9319E-03     103.282E-03    -50.4595E-03     53.8125E-03
            1934     9.41417E-03     29.3335E-03    -36.3508E+06    -57.1963E+06     11.4180E+06     850.848E+03    -52.3644E-03     102.879E-03    -50.5150E-03     53.7896E-03    -52.6044E-03     102.754E-03    -50.3223E-03     53.4026E-03
            1935     8.55948E-03     29.2792E-03    -40.8239E+06    -77.1349E+06     4.31897E+06     811.645E+03    -52.0367E-03     102.419E-03    -50.3821E-03     52.2115E-03    -52.2400E-03     102.191E-03    -50.1894E-03     51.8641E-03
            1936     7.70451E-03     29.2270E-03    -45.5380E+06    -94.5026E+06    -2.71087E+06     738.597E+03    -51.6754E-03     101.928E-03    -50.2523E-03     49.7098E-03    -51.8465E-03     101.610E-03    -50.0628E-03     49.4054E-03
            1937     6.84927E-03     29.1777E-03    -50.5747E+06    -111.426E+06    -9.88255E+06     674.051E+03    -51.3012E-03     101.431E-03    -50.1301E-03     46.3842E-03    -51.4435E-03     101.027E-03    -49.9446E-03     46.1236E-03
            1938     5.99376E-03     29.1322E-03    -55.9721E+06    -127.388E+06    -17.6081E+06     608.043E+03    -50.9258E-03     100.940E-03    -50.0147E-03     42.3391E-03    -51.0440E-03     100.459E-03    -49.8368E-03     42.1211E-03
            1939     5.13800E-03     29.0912E-03    -61.7234E+06    -142.942E+06    -26.2077E+06     383.212E+03    -50.5671E-03     100.474E-03    -49.9071E-03     37.6567E-03    -50.6649E-03     99.9214E-03    -49.7414E-03     37.4769E-03
            1940     4.28202E-03     29.0552E-03    -67.7699E+06    -156.046E+06    -36.9088E+06     118.714E+03    -50.2394E-03     100.039E-03    -49.7997E-03     32.4097E-03    -50.3216E-03     99.4338E-03    -49.6597E-03     32.2645E-03
            1941     3.42585E-03     29.0249E-03    -73.7942E+06    -166.733E+06    -49.9337E+06     67.6918E+03    -49.9571E-03     99.6492E-03    -49.6922E-03     26.6666E-03    -50.0262E-03     99.0093E-03    -49.5931E-03     26.5554E-03
            1942     2.56951E-03     29.0007E-03    -79.3603E+06    -176.884E+06    -63.6121E+06     96.0389E+03    -49.7344E-03     99.3297E-03    -49.5954E-03     20.5105E-03    -49.7903E-03     98.6605E-03    -49.5419E-03     20.4309E-03
            1943     1.71307E-03     28.9829E-03    -84.0160E+06    -185.682E+06    -76.0560E+06     55.7094E+03    -49.5765E-03     99.0929E-03    -49.5165E-03     14.0662E-03    -49.6206E-03     98.4002E-03    -49.5057E-03     14.0142E-03
            1944     856.552E-06     28.9719E-03    -87.1547E+06    -191.715E+06    -85.0031E+06     5.31995E+03    -49.5118E-03     98.9452E-03    -49.4334E-03     7.72707E-03    -49.5475E-03     98.2374E-03    -49.4540E-03     7.69908E-03
            1945     16.2444E-03     28.6300E-03    -3.88423E+06     110.148E+06     76.4612E+06     177.547E+03    -53.2529E-03     104.809E-03    -51.5563E-03     13.5165E-03    -53.5998E-03     105.312E-03    -51.3281E-03     13.1623E-03
            1946     15.3913E-03     28.6092E-03    -7.92702E+06     105.213E+06     63.6493E+06     314.374E+03    -53.2615E-03     104.646E-03    -51.3847E-03     25.4973E-03    -53.6406E-03     105.186E-03    -51.2075E-03     25.0650E-03
            1947     14.5381E-03     28.5787E-03    -12.0128E+06     97.6019E+06     54.9189E+06     344.828E+03    -53.2569E-03     104.486E-03    -51.2293E-03     34.0699E-03    -53.6526E-03     105.026E-03    -51.0788E-03     33.6287E-03
            1948     13.6848E-03     28.5401E-03    -16.1356E+06     70.9424E+06     46.9558E+06     301.878E+03    -53.2701E-03     104.368E-03    -51.0974E-03     40.8826E-03    -53.6560E-03     104.812E-03    -50.9421E-03     40.4254E-03
            1949     12.8314E-03     28.4956E-03    -20.1323E+06     29.2389E+06     36.6925E+06     381.602E+03    -53.2897E-03     104.257E-03    -50.9669E-03     46.2249E-03    -53.6334E-03     104.526E-03    -50.7966E-03     45.7621E-03
            1950     11.9778E-03     28.4461E-03    -24.0473E+06     5.62604E+06     31.8918E+06     561.444E+03    -53.1577E-03     103.989E-03    -50.8312E-03     50.3233E-03    -53.4856E-03     104.159E-03    -50.6450E-03     49.8655E-03
            1951     11.1239E-03     28.3931E-03    -28.0652E+06    -16.5379E+06     24.7541E+06     715.529E+03    -52.9526E-03     103.632E-03    -50.6798E-03     52.7761E-03    -53.2554E-03     103.705E-03    -50.4914E-03     52.3329E-03
            1952     10.2698E-03     28.3385E-03    -32.1899E+06    -38.4808E+06     18.2506E+06     828.734E+03    -52.6822E-03     103.214E-03    -50.5321E-03     53.6549E-03    -52.9535E-03     103.182E-03    -50.3383E-03     53.2366E-03
            1953     9.41544E-03     28.2836E-03    -36.4574E+06    -57.0511E+06     11.2625E+06     881.217E+03    -52.3542E-03     102.734E-03    -50.3801E-03     53.2173E-03    -52.5931E-03     102.609E-03    -50.1882E-03     52.8333E-03
            1954     8.56075E-03     28.2299E-03    -40.9162E+06    -76.9432E+06     4.17712E+06     880.212E+03    -51.9963E-03     102.231E-03    -50.2347E-03     51.6510E-03    -52.1987E-03     102.003E-03    -50.0429E-03     51.3071E-03
            1955     7.70574E-03     28.1782E-03    -45.6097E+06    -94.2710E+06    -2.84546E+06     847.340E+03    -51.6086E-03     101.702E-03    -50.0930E-03     49.1687E-03    -51.7790E-03     101.384E-03    -49.9044E-03     48.8683E-03
            1956     6.85045E-03     28.1295E-03    -50.5872E+06    -111.216E+06    -10.0150E+06     794.369E+03    -51.2089E-03     101.168E-03    -49.9593E-03     45.8719E-03    -51.3505E-03     100.764E-03    -49.7747E-03     45.6153E-03
            1957     5.99486E-03     28.0845E-03    -55.8780E+06    -127.061E+06    -17.6914E+06     670.198E+03    -50.8087E-03     100.642E-03    -49.8328E-03     41.8654E-03    -50.9261E-03     100.161E-03    -49.6560E-03     41.6505E-03
            1958     5.13899E-03     28.0439E-03    -61.5774E+06    -142.441E+06    -26.2440E+06     435.373E+03    -50.4263E-03     100.141E-03    -49.7150E-03     37.2296E-03    -50.5235E-03     99.5904E-03    -49.5504E-03     37.0525E-03
            1959     4.28289E-03     28.0083E-03    -67.6774E+06    -155.767E+06    -37.0163E+06     193.275E+03    -50.0756E-03     99.6742E-03    -49.5986E-03     32.0357E-03    -50.1571E-03     99.0699E-03    -49.4597E-03     31.8932E-03
            1960     3.42656E-03     27.9784E-03    -73.8265E+06    -166.721E+06    -50.0878E+06     83.2178E+03    -49.7728E-03     99.2565E-03    -49.4837E-03     26.3537E-03    -49.8416E-03     98.6166E-03    -49.3854E-03     26.2440E-03
            1961     2.57007E-03     27.9544E-03    -79.4633E+06    -176.844E+06    -63.6965E+06     88.7539E+03    -49.5338E-03     98.9149E-03    -49.3811E-03     20.2666E-03    -49.5901E-03     98.2460E-03    -49.3279E-03     20.1878E-03
            1962     1.71344E-03     27.9369E-03    -84.0807E+06    -185.564E+06    -76.0422E+06     101.611E+03    -49.3639E-03     98.6617E-03    -49.2978E-03     13.8964E-03    -49.4085E-03     97.9695E-03    -49.2870E-03     13.8457E-03
            1963     856.748E-06     27.9260E-03    -87.2326E+06    -191.621E+06    -85.0211E+06     68.1416E+03    -49.2922E-03     98.5027E-03    -49.2106E-03     7.63286E-03    -49.3283E-03     97.7955E-03    -49.2313E-03     7.60605E-03
            1964     16.2447E-03     27.5764E-03    -4.18126E+06     109.916E+06     76.3480E+06     67.9341E+03    -53.5403E-03     105.082E-03    -51.5419E-03     13.2501E-03    -53.8874E-03     105.583E-03    -51.3135E-03     12.8933E-03
            1965     15.3918E-03     27.5558E-03    -8.23310E+06     105.046E+06     63.4386E+06     293.264E+03    -53.5260E-03     104.879E-03    -51.3534E-03     25.1527E-03    -53.9049E-03     105.418E-03    -51.1766E-03     24.7190E-03
            1966     14.5388E-03     27.5256E-03    -12.0953E+06     97.6423E+06     54.8151E+06     425.321E+03    -53.4874E-03     104.669E-03    -51.1812E-03     33.6518E-03    -53.8820E-03     105.208E-03    -51.0312E-03     33.2112E-03
            1967     13.6857E-03     27.4875E-03    -16.0360E+06     71.0217E+06     46.8928E+06     483.672E+03    -53.4552E-03     104.488E-03    -51.0329E-03     40.4132E-03    -53.8389E-03     104.931E-03    -50.8781E-03     39.9585E-03
            1968     12.8324E-03     27.4434E-03    -19.9919E+06     29.2047E+06     36.5920E+06     523.293E+03    -53.4249E-03     104.312E-03    -50.8868E-03     45.7063E-03    -53.7657E-03     104.579E-03    -50.7172E-03     45.2463E-03
            1969     11.9789E-03     27.3945E-03    -23.9734E+06     5.51475E+06     31.7402E+06     606.104E+03    -53.2473E-03     103.984E-03    -50.7366E-03     49.7700E-03    -53.5725E-03     104.151E-03    -50.5511E-03     49.3144E-03
            1970     11.1252E-03     27.3421E-03    -28.0413E+06    -16.5776E+06     24.5860E+06     744.239E+03    -53.0040E-03     103.576E-03    -50.5715E-03     52.2046E-03    -53.3044E-03     103.646E-03    -50.3839E-03     51.7639E-03
            1971     10.2711E-03     27.2881E-03    -32.1936E+06    -38.4685E+06      18.073E+06     849.451E+03    -52.7003E-03     103.111E-03    -50.4106E-03     53.0772E-03    -52.9695E-03     103.077E-03    -50.2178E-03     52.6617E-03
            1972     9.41671E-03     27.2339E-03    -36.4913E+06    -56.9489E+06     11.0881E+06     920.002E+03    -52.3427E-03     102.589E-03    -50.2460E-03     52.6408E-03    -52.5799E-03     102.462E-03    -50.0551E-03     52.2598E-03
            1973     8.56200E-03     27.1807E-03    -40.9460E+06    -76.7825E+06     4.00827E+06     949.698E+03    -51.9588E-03     102.047E-03    -50.0882E-03     51.0814E-03    -52.1599E-03     101.819E-03    -49.8975E-03     50.7410E-03
            1974     7.70696E-03     27.1296E-03    -45.6134E+06    -94.0611E+06    -3.01417E+06     933.571E+03    -51.5444E-03     101.479E-03    -49.9343E-03     48.6091E-03    -51.7136E-03     101.161E-03    -49.7469E-03     48.3123E-03
            1975     6.85160E-03     27.0815E-03    -50.5546E+06    -110.952E+06    -10.1734E+06     864.831E+03    -51.1174E-03     100.906E-03    -49.7889E-03     45.3313E-03    -51.2579E-03     100.503E-03    -49.6056E-03     45.0780E-03
            1976     5.99593E-03     27.0370E-03    -55.8641E+06    -126.689E+06    -17.8437E+06     733.581E+03    -50.6926E-03     100.344E-03    -49.6514E-03     41.3555E-03    -50.8093E-03     99.8644E-03    -49.4759E-03     41.1437E-03
            1977     5.13997E-03     26.9969E-03    -61.6089E+06    -141.993E+06    -26.3981E+06     533.569E+03    -50.2870E-03     99.8100E-03    -49.5231E-03     36.7596E-03    -50.3841E-03     99.2610E-03    -49.3598E-03     36.5858E-03
            1978     4.28374E-03     26.9618E-03    -67.6974E+06    -155.460E+06    -37.0978E+06     328.879E+03    -49.9142E-03     99.3117E-03    -49.3975E-03     31.6178E-03    -49.9957E-03     98.7086E-03    -49.2594E-03     31.4788E-03
            1979     3.42728E-03     26.9323E-03    -73.8044E+06    -166.608E+06    -50.1653E+06     204.601E+03    -49.5910E-03     98.8652E-03    -49.2742E-03     26.0009E-03    -49.6595E-03     98.2257E-03    -49.1765E-03     25.8942E-03
            1980     2.57062E-03     26.9086E-03    -79.4668E+06    -176.751E+06    -63.8013E+06     132.729E+03    -49.3335E-03     98.4979E-03    -49.1644E-03     19.9903E-03    -49.3897E-03     97.8295E-03    -49.1119E-03     19.9132E-03
            1981     1.71383E-03     26.8913E-03    -84.1428E+06    -185.464E+06    -76.0937E+06     100.091E+03    -49.1496E-03     98.2257E-03    -49.0761E-03     13.7049E-03    -49.1945E-03     97.5341E-03    -49.0656E-03     13.6548E-03
            1982     856.936E-06     26.8806E-03    -87.2613E+06    -191.456E+06    -85.0106E+06     67.1640E+03    -49.0703E-03     98.0544E-03    -48.9841E-03     7.52618E-03    -49.1069E-03     97.3481E-03    -49.0050E-03     7.49974E-03
            1983     16.2449E-03     26.5224E-03    -4.10106E+06     109.692E+06     76.2608E+06     48.9009E+03    -53.8440E-03     105.371E-03    -51.5267E-03     12.9519E-03    -54.1895E-03     105.870E-03    -51.2985E-03     12.5937E-03
            1984     15.3923E-03     26.5021E-03    -8.18132E+06     104.780E+06     63.2516E+06     250.563E+03    -53.7958E-03     105.117E-03    -51.3210E-03     24.7759E-03    -54.1726E-03     105.653E-03    -51.1449E-03     24.3406E-03
            1985     14.5395E-03     26.4724E-03    -12.1869E+06     97.5814E+06      54.653E+06     444.330E+03    -53.7088E-03     104.841E-03    -51.1323E-03     33.1976E-03    -54.1020E-03     105.379E-03    -50.9829E-03     32.7570E-03
            1986     13.6866E-03     26.4348E-03    -16.1598E+06     71.0362E+06     46.7167E+06     542.703E+03    -53.6223E-03     104.591E-03    -50.9682E-03     39.9067E-03    -54.0046E-03     105.032E-03    -50.8142E-03     39.4533E-03
            1987     12.8334E-03     26.3912E-03    -20.0253E+06     29.2419E+06     36.4301E+06     630.877E+03    -53.5405E-03     104.348E-03    -50.8077E-03     45.1568E-03    -53.8793E-03     104.614E-03    -50.6389E-03     44.6995E-03
            1988     11.9800E-03     26.3429E-03    -23.9423E+06     5.47052E+06     31.5745E+06     713.610E+03    -53.3228E-03     103.967E-03    -50.6443E-03     49.1949E-03    -53.6454E-03     104.133E-03    -50.4596E-03     48.7425E-03
            1989     11.1263E-03     26.2911E-03    -28.0107E+06    -16.6016E+06     24.4068E+06     810.894E+03    -53.0485E-03     103.515E-03    -50.4664E-03     51.6176E-03    -53.3463E-03     103.584E-03    -50.2797E-03     51.1800E-03
            1990     10.2723E-03     26.2378E-03    -32.1718E+06    -38.4502E+06     17.8860E+06     915.790E+03    -52.7186E-03     103.012E-03    -50.2930E-03     52.4858E-03    -52.9856E-03     102.976E-03    -50.1012E-03     52.0735E-03
            1991     9.41793E-03     26.1842E-03    -36.4697E+06    -56.8711E+06     10.8951E+06     993.093E+03    -52.3394E-03     102.455E-03    -50.1156E-03     52.0464E-03    -52.5747E-03     102.327E-03    -49.9258E-03     51.6688E-03
            1992     8.56322E-03     26.1317E-03    -40.9263E+06    -76.6348E+06     3.81680E+06     1.03253E+06    -51.9330E-03     101.878E-03    -49.9448E-03     50.4805E-03    -52.1324E-03     101.649E-03    -49.7553E-03     50.1438E-03
            1993     7.70816E-03     26.0813E-03    -45.5851E+06    -93.8412E+06    -3.21339E+06     1.01898E+06    -51.4908E-03     101.269E-03    -49.7777E-03     48.0059E-03    -51.6586E-03     100.951E-03    -49.5916E-03     47.7128E-03
            1994     6.85276E-03     26.0337E-03    -50.5386E+06    -110.679E+06    -10.3804E+06     971.232E+03    -51.0347E-03     100.654E-03    -49.6196E-03     44.7433E-03    -51.1741E-03     100.252E-03    -49.4378E-03     44.4940E-03
            1995     5.99702E-03     25.9899E-03    -55.8656E+06    -126.321E+06    -18.0427E+06     871.855E+03    -50.5813E-03     100.051E-03    -49.4701E-03     40.7998E-03    -50.6974E-03     99.5731E-03    -49.2961E-03     40.5921E-03
            1996     5.14096E-03     25.9503E-03    -61.6101E+06    -141.537E+06    -26.5841E+06     675.366E+03    -50.1495E-03     99.4802E-03    -49.3307E-03     36.2497E-03    -50.2464E-03     98.9331E-03    -49.1691E-03     36.0798E-03
            1997     4.28461E-03     25.9157E-03    -67.6948E+06    -155.127E+06    -37.2000E+06     453.238E+03    -49.7539E-03     98.9496E-03    -49.1957E-03     31.1679E-03    -49.8353E-03     98.3478E-03    -49.0586E-03     31.0322E-03
            1998     3.42800E-03     25.8866E-03    -73.7963E+06    -166.418E+06    -50.1691E+06     319.668E+03    -49.4095E-03     98.4735E-03    -49.0640E-03     25.6238E-03    -49.4779E-03     97.8346E-03    -48.9665E-03     25.5200E-03
            1999     2.57119E-03     25.8633E-03    -79.4527E+06    -176.561E+06    -63.8224E+06     244.351E+03    -49.1330E-03     98.0794E-03    -48.9465E-03     19.6972E-03    -49.1891E-03     97.4118E-03    -48.8944E-03     19.6226E-03
            2000     1.71421E-03     25.8462E-03    -84.1416E+06    -185.298E+06    -76.1607E+06     150.519E+03    -48.9340E-03     97.7863E-03    -48.8522E-03     13.5027E-03    -48.9790E-03     97.0956E-03    -48.8424E-03     13.4540E-03
            2001     857.139E-06     25.8356E-03    -87.2679E+06    -191.294E+06    -85.0870E+06     53.8809E+03    -48.8459E-03     97.6020E-03    -48.7560E-03     7.41541E-03    -48.8826E-03     96.8965E-03    -48.7776E-03     7.38919E-03
            2002     16.2452E-03     25.4681E-03    -4.20826E+06     109.508E+06     76.1702E+06     90.6049E+03    -54.1515E-03     105.663E-03    -51.5118E-03     12.6081E-03    -54.4964E-03     106.161E-03    -51.2836E-03     12.2495E-03
            2003     15.3928E-03     25.4482E-03    -8.36817E+06     104.513E+06     63.0432E+06     285.349E+03    -54.0596E-03     105.349E-03    -51.2889E-03     24.3442E-03    -54.4353E-03     105.883E-03    -51.1131E-03     23.9086E-03
            2004     14.5402E-03     25.4190E-03    -12.2805E+06     97.4712E+06     54.4815E+06     458.101E+03    -53.9149E-03     104.999E-03    -51.0841E-03     32.6864E-03    -54.3065E-03     105.535E-03    -50.9352E-03     32.2461E-03
            2005     13.6874E-03     25.3819E-03    -16.1859E+06     71.0243E+06     46.5433E+06     582.605E+03    -53.7686E-03     104.674E-03    -50.9052E-03     39.3513E-03    -54.1487E-03     105.114E-03    -50.7520E-03     38.8993E-03
            2006     12.8344E-03     25.3390E-03    -20.0651E+06     29.2332E+06     36.2293E+06     686.263E+03    -53.6382E-03     104.370E-03    -50.7317E-03     44.5757E-03    -53.9748E-03     104.634E-03    -50.5638E-03     44.1207E-03
            2007     11.9811E-03     25.2913E-03    -23.9588E+06     5.45335E+06     31.3815E+06     790.729E+03    -53.3864E-03     103.943E-03    -50.5562E-03     48.5996E-03    -53.7066E-03     104.106E-03    -50.3725E-03     48.1501E-03
            2008     11.1274E-03     25.2402E-03    -27.9915E+06    -16.6043E+06     24.2102E+06     899.160E+03    -53.0874E-03     103.454E-03    -50.3666E-03     51.0112E-03    -53.3829E-03     103.521E-03    -50.1809E-03     50.5769E-03
            2009     10.2734E-03     25.1876E-03    -32.1381E+06    -38.4317E+06     17.6828E+06     998.554E+03    -52.7416E-03     102.923E-03    -50.1810E-03     51.8750E-03    -53.0062E-03     102.885E-03    -49.9903E-03     51.4660E-03
            2010     9.41910E-03     25.1347E-03    -36.4172E+06    -56.8020E+06     10.6834E+06     1.08463E+06    -52.3487E-03     102.339E-03    -49.9906E-03     51.4292E-03    -52.5818E-03     102.211E-03    -49.8020E-03     51.0551E-03
            2011     8.56441E-03     25.0829E-03    -40.8535E+06    -76.4890E+06     3.60749E+06     1.13869E+06    -51.9213E-03     101.727E-03    -49.8059E-03     49.8513E-03    -52.1187E-03     101.498E-03    -49.6177E-03     49.5183E-03
            2012     7.70934E-03     25.0331E-03    -45.5236E+06    -93.6289E+06    -3.43868E+06     1.15394E+06    -51.4525E-03     101.077E-03    -49.6245E-03     47.3724E-03    -51.6187E-03     100.759E-03    -49.4399E-03     47.0835E-03
            2013     6.85390E-03     24.9862E-03    -50.4931E+06    -110.426E+06    -10.6169E+06     1.13864E+06    -50.9669E-03     100.419E-03    -49.4521E-03     44.1196E-03    -51.1050E-03     100.017E-03    -49.2719E-03     43.8749E-03
            2014     5.99809E-03     24.9430E-03    -55.8190E+06    -125.932E+06    -18.2578E+06     1.05021E+06    -50.4808E-03     99.7699E-03    -49.2890E-03     40.1996E-03    -50.5961E-03     99.2929E-03    -49.1168E-03     39.9966E-03
            2015     5.14194E-03     24.9040E-03    -61.5453E+06    -141.037E+06    -26.7887E+06     847.931E+03    -50.0174E-03     99.1546E-03    -49.1372E-03     35.6891E-03    -50.1138E-03     98.6094E-03    -48.9773E-03     35.5237E-03
            2016     4.28546E-03     24.8700E-03    -67.6217E+06    -154.731E+06    -37.2992E+06     619.833E+03    -49.5942E-03     98.5860E-03    -48.9918E-03     30.6637E-03    -49.6752E-03     97.9858E-03    -48.8559E-03     30.5322E-03
            2017     3.42872E-03     24.8413E-03    -73.7533E+06    -166.167E+06    -50.1627E+06     466.700E+03    -49.2264E-03     98.0778E-03    -48.8514E-03     25.1943E-03    -49.2947E-03     97.4398E-03    -48.7543E-03     25.0940E-03
            2018     2.57174E-03     24.8184E-03    -79.4216E+06    -176.308E+06    -63.8161E+06     364.323E+03    -48.9307E-03     97.6566E-03    -48.7259E-03     19.3584E-03    -48.9868E-03     96.9900E-03    -48.6742E-03     19.2866E-03
            2019     1.71460E-03     24.8016E-03    -84.1007E+06    -185.024E+06    -76.1550E+06     248.153E+03    -48.7161E-03     97.3415E-03    -48.6254E-03     13.2652E-03    -48.7612E-03     96.6521E-03    -48.6159E-03     13.2185E-03
            2020     857.326E-06     24.7912E-03    -87.2808E+06    -191.061E+06    -85.0946E+06     126.007E+03    -48.6179E-03     97.1425E-03    -48.5245E-03     7.28318E-03    -48.6550E-03     96.4382E-03    -48.5464E-03     7.25833E-03
            2021     16.2454E-03     24.4135E-03    -4.27846E+06     109.369E+06     76.1190E+06     203.743E+03    -54.4561E-03     105.954E-03    -51.4974E-03     12.2192E-03    -54.8001E-03     106.450E-03    -51.2692E-03     11.8614E-03
            2022     15.3933E-03     24.3941E-03    -8.35703E+06     104.381E+06     62.9580E+06     262.603E+03    -54.3079E-03     105.566E-03    -51.2580E-03     23.8621E-03    -54.6817E-03     106.098E-03    -51.0824E-03     23.4259E-03
            2023     14.5409E-03     24.3654E-03    -12.2638E+06     97.2539E+06     54.3071E+06     431.930E+03    -54.0960E-03     105.134E-03    -51.0381E-03     32.1375E-03    -54.4850E-03     105.667E-03    -50.8898E-03     31.6974E-03
            2024     13.6882E-03     24.3290E-03    -16.2043E+06      70.982E+06     46.3497E+06     646.872E+03    -53.8905E-03     104.737E-03    -50.8462E-03     38.7793E-03    -54.2683E-03     105.175E-03    -50.6939E-03     38.3294E-03
            2025     12.8353E-03     24.2867E-03    -20.0770E+06     29.2375E+06     36.0226E+06     753.249E+03    -53.7199E-03     104.381E-03    -50.6611E-03     43.9978E-03    -54.0542E-03     104.643E-03    -50.4943E-03     43.5453E-03
            2026     11.9821E-03     24.2397E-03    -23.9613E+06     5.41242E+06     31.1701E+06     848.866E+03    -53.4446E-03     103.919E-03    -50.4749E-03     48.0145E-03    -53.7624E-03     104.081E-03    -50.2921E-03     47.5677E-03
            2027     11.1285E-03     24.1893E-03    -27.9717E+06    -16.6070E+06     23.9971E+06     971.654E+03    -53.1340E-03     103.408E-03    -50.2740E-03     50.4097E-03    -53.4271E-03     103.473E-03    -50.0893E-03     49.9783E-03
            2028     10.2745E-03     24.1374E-03    -32.0810E+06    -38.4167E+06     17.4695E+06     1.08437E+06    -52.7824E-03     102.858E-03    -50.0758E-03     51.2528E-03    -53.0446E-03     102.819E-03    -49.8863E-03     50.8470E-03
            2029     9.42021E-03     24.0852E-03    -36.3278E+06    -56.7345E+06     10.4686E+06     1.17539E+06    -52.3770E-03     102.248E-03    -49.8713E-03     50.7718E-03    -52.6076E-03     102.118E-03    -49.6840E-03     50.4012E-03
            2030     8.56553E-03     24.0341E-03    -40.7333E+06    -76.3758E+06     3.38643E+06     1.26110E+06    -51.9272E-03     101.599E-03    -49.6713E-03     49.1582E-03    -52.1222E-03     101.368E-03    -49.4845E-03     48.8292E-03
            2031     7.71047E-03     23.9851E-03    -45.3678E+06    -93.4605E+06    -3.66090E+06     1.34050E+06    -51.4324E-03     100.906E-03    -49.4739E-03     46.6618E-03    -51.5962E-03     100.588E-03    -49.2909E-03     46.3779E-03
            2032     6.85502E-03     23.9389E-03    -50.3171E+06    -110.157E+06    -10.8248E+06     1.36209E+06    -50.9165E-03     100.202E-03    -49.2854E-03     43.4099E-03    -51.0525E-03     99.7996E-03    -49.1068E-03     43.1706E-03
            2033     5.99918E-03     23.8964E-03    -55.6325E+06    -125.514E+06    -18.4644E+06     1.28214E+06    -50.3951E-03     99.5013E-03    -49.1062E-03     39.5142E-03    -50.5087E-03     99.0254E-03    -48.9359E-03     39.3167E-03
            2034     5.14295E-03     23.8581E-03    -61.3697E+06    -140.495E+06    -27.0115E+06     1.09585E+06    -49.8946E-03     98.8339E-03    -48.9393E-03     35.0498E-03    -49.9897E-03     98.2907E-03    -48.7817E-03     34.8899E-03
            2035     4.28637E-03     23.8246E-03    -67.4655E+06    -154.259E+06    -37.4330E+06     857.913E+03    -49.4369E-03     98.2184E-03    -48.7815E-03     30.0904E-03    -49.5170E-03     97.6200E-03    -48.6472E-03     29.9639E-03
            2036     3.42948E-03     23.7964E-03    -73.6035E+06    -165.829E+06    -50.1622E+06     678.645E+03    -49.0412E-03     97.6721E-03    -48.6309E-03     24.7060E-03    -49.1088E-03     97.0352E-03    -48.5345E-03     24.6102E-03
            2037     2.57235E-03     23.7739E-03    -79.3039E+06    -175.933E+06    -63.7526E+06     523.620E+03    -48.7224E-03     97.2189E-03    -48.4965E-03     18.9712E-03    -48.7784E-03     96.5537E-03    -48.4451E-03     18.9028E-03
            2038     1.71501E-03     23.7574E-03    -84.0221E+06    -184.652E+06    -76.0772E+06     376.458E+03    -48.4901E-03     96.8789E-03    -48.3888E-03     12.9930E-03    -48.5354E-03     96.1910E-03    -48.3796E-03     12.9490E-03
            2039     857.543E-06     23.7472E-03    -87.1911E+06    -190.668E+06    -85.0290E+06     215.740E+03    -48.3805E-03     96.6623E-03    -48.2819E-03     7.12999E-03    -48.4177E-03     95.9597E-03    -48.3041E-03     7.10680E-03
            2040     16.2456E-03     23.3586E-03    -3.96511E+06     109.286E+06     76.1052E+06     226.375E+03    -54.7391E-03     106.224E-03    -51.4844E-03     11.7978E-03    -55.0803E-03     106.718E-03    -51.2566E-03     11.4400E-03
            2041     15.3937E-03     23.3397E-03    -8.10684E+06     104.303E+06     62.9845E+06     341.021E+03    -54.5212E-03     105.752E-03    -51.2307E-03     23.3550E-03    -54.8920E-03     106.282E-03    -51.0553E-03     22.9199E-03
            2042     14.5415E-03     23.3117E-03    -12.1942E+06     96.9544E+06     54.1348E+06     550.645E+03    -54.2425E-03     105.241E-03    -50.9980E-03     31.5879E-03    -54.6287E-03     105.771E-03    -50.8503E-03     31.1502E-03
            2043     13.6890E-03     23.2760E-03    -16.2160E+06     70.9598E+06     46.1527E+06     735.533E+03    -53.9903E-03     104.785E-03    -50.7951E-03     38.2311E-03    -54.3660E-03     105.222E-03    -50.6437E-03     37.7836E-03
            2044     12.8361E-03     23.2344E-03    -20.0875E+06     29.2532E+06     35.8050E+06     813.146E+03    -53.7979E-03     104.398E-03    -50.6000E-03     43.4515E-03    -54.1301E-03     104.659E-03    -50.4343E-03     43.0011E-03
            2045     11.9829E-03     23.1881E-03    -23.9477E+06     5.37330E+06     30.9533E+06     907.075E+03    -53.5176E-03     103.921E-03    -50.4033E-03     47.4471E-03    -53.8331E-03     104.081E-03    -50.2217E-03     47.0025E-03
            2046     11.1294E-03     23.1385E-03    -27.9281E+06    -16.6295E+06     23.7726E+06     1.02984E+06    -53.2102E-03     103.400E-03    -50.1901E-03     49.8033E-03    -53.5007E-03     103.464E-03    -50.0067E-03     49.3743E-03
            2047     10.2755E-03     23.0873E-03    -32.0002E+06    -38.4132E+06     17.2451E+06     1.15578E+06    -52.8582E-03     102.836E-03    -49.9774E-03     50.5969E-03    -53.1177E-03     102.795E-03    -49.7891E-03     50.1938E-03
            2048     9.42127E-03     23.0358E-03    -36.2182E+06    -56.6817E+06     10.2397E+06     1.27582E+06    -52.4395E-03     102.196E-03    -49.7561E-03     50.0499E-03    -52.6674E-03     102.064E-03    -49.5702E-03     49.6826E-03
            2049     8.56666E-03     22.9855E-03    -40.6100E+06    -76.3143E+06     3.14135E+06     1.40272E+06    -51.9648E-03     101.503E-03    -49.5379E-03     48.3752E-03    -52.1570E-03     101.271E-03    -49.3526E-03     48.0504E-03
            2050     7.71164E-03     22.9372E-03    -45.2047E+06    -93.3251E+06    -3.92629E+06     1.51954E+06    -51.4361E-03     100.757E-03    -49.3214E-03     45.8461E-03    -51.5971E-03     100.438E-03    -49.1401E-03     45.5672E-03
            2051     6.85618E-03     22.8919E-03    -50.0651E+06    -109.898E+06    -11.0672E+06     1.59083E+06    -50.8814E-03     99.9950E-03    -49.1136E-03     42.5883E-03    -51.0148E-03     99.5926E-03    -48.9370E-03     42.3548E-03
            2052     6.00030E-03     22.8501E-03    -55.3266E+06    -125.109E+06    -18.6854E+06     1.59203E+06    -50.3190E-03     99.2347E-03    -48.9157E-03     38.7168E-03    -50.4301E-03     98.7595E-03    -48.7475E-03     38.5261E-03
            2053     5.14399E-03     22.8124E-03    -61.0549E+06    -139.900E+06    -27.2359E+06     1.45707E+06    -49.7763E-03     98.5075E-03    -48.7311E-03     34.3047E-03    -49.8695E-03     97.9662E-03    -48.5759E-03     34.1521E-03
            2054     4.28730E-03     22.7796E-03    -67.1550E+06    -153.666E+06    -37.5369E+06     1.20277E+06    -49.2793E-03     97.8375E-03    -48.5583E-03     29.4228E-03    -49.3579E-03     97.2411E-03    -48.4258E-03     29.3032E-03
            2055     3.43027E-03     22.7519E-03    -73.3109E+06    -165.362E+06    -50.1497E+06     971.959E+03    -48.8486E-03     97.2436E-03    -48.3950E-03     24.1380E-03    -48.9150E-03     96.6082E-03    -48.2997E-03     24.0479E-03
            2056     2.57296E-03     22.7299E-03    -79.0315E+06    -175.409E+06    -63.6546E+06     784.073E+03    -48.5010E-03     96.7512E-03    -48.2502E-03     18.5213E-03    -48.5563E-03     96.0878E-03    -48.1995E-03     18.4577E-03
            2057     1.71543E-03     22.7137E-03    -83.7936E+06     -184.11E+06    -75.9311E+06     566.620E+03    -48.2477E-03     96.3825E-03    -48.1348E-03     12.6776E-03    -48.2927E-03     95.6966E-03    -48.1260E-03     12.6370E-03
            2058     857.756E-06     22.7037E-03    -86.9774E+06    -190.060E+06    -84.8735E+06     349.604E+03    -48.1236E-03     96.1472E-03    -48.0236E-03     6.95394E-03    -48.1608E-03     95.4471E-03    -48.0463E-03     6.93303E-03
            2059     16.2458E-03     22.3034E-03    -4.07021E+06     109.016E+06     76.0136E+06     196.371E+03    -54.9636E-03     106.439E-03    -51.4756E-03     11.3329E-03    -55.3036E-03     106.931E-03    -51.2477E-03     10.9750E-03
            2060     15.3940E-03     22.2852E-03    -8.19766E+06     104.088E+06     62.8501E+06     530.442E+03    -54.6837E-03     105.894E-03    -51.2103E-03     22.8147E-03    -55.0527E-03     106.421E-03    -51.0350E-03     22.3828E-03
            2061     14.5420E-03     22.2579E-03    -12.2428E+06     96.7809E+06     53.9637E+06     732.918E+03    -54.3559E-03     105.324E-03    -50.9676E-03     31.0276E-03    -54.7400E-03     105.851E-03    -50.8204E-03     30.5934E-03
            2062     13.6895E-03     22.2229E-03    -16.2221E+06     70.9660E+06     45.9528E+06     829.012E+03    -54.0825E-03     104.838E-03    -50.7555E-03     37.6849E-03    -54.4560E-03     105.273E-03    -50.6051E-03     37.2398E-03
            2063     12.8367E-03     22.1821E-03    -20.0770E+06     29.3038E+06     35.5881E+06     880.381E+03    -53.8955E-03     104.446E-03    -50.5507E-03     42.9031E-03    -54.2254E-03     104.706E-03    -50.3861E-03     42.4547E-03
            2064     11.9836E-03     22.1365E-03    -23.9157E+06     5.33122E+06     30.7348E+06     945.046E+03    -53.6340E-03     103.976E-03    -50.3421E-03     46.8553E-03    -53.9469E-03     104.134E-03    -50.1615E-03     46.4123E-03
            2065     11.1302E-03     22.0876E-03    -27.8504E+06    -16.6599E+06     23.5473E+06     1.07006E+06    -53.3399E-03     103.453E-03    -50.1136E-03     49.1388E-03    -53.6275E-03     103.515E-03    -49.9314E-03     48.7115E-03
            2066     10.2764E-03     22.0371E-03    -31.8793E+06    -38.4387E+06     17.0126E+06     1.21524E+06    -52.9858E-03     102.868E-03    -49.8825E-03     49.8434E-03    -53.2421E-03     102.826E-03    -49.6955E-03     49.4426E-03
            2067     9.42232E-03     21.9864E-03    -36.0536E+06    -56.6805E+06     9.99543E+06     1.38591E+06    -52.5510E-03     102.191E-03    -49.6399E-03     49.1972E-03    -52.7754E-03     102.057E-03    -49.4555E-03     48.8334E-03
            2068     8.56780E-03     21.9369E-03    -40.3968E+06    -76.2827E+06     2.89548E+06     1.56367E+06    -52.0463E-03     101.445E-03    -49.3984E-03     47.4329E-03    -52.2349E-03     101.211E-03    -49.2148E-03     47.1129E-03
            2069     7.71285E-03     21.8895E-03    -44.9420E+06    -93.1795E+06    -4.19491E+06     1.69567E+06    -51.4734E-03     100.631E-03    -49.1573E-03     44.8480E-03    -51.6308E-03     100.310E-03    -48.9780E-03     44.5744E-03
            2070     6.85742E-03     21.8450E-03    -49.7610E+06    -109.719E+06    -11.3700E+06     1.82287E+06    -50.8671E-03     99.7921E-03    -48.9250E-03     41.5676E-03    -50.9969E-03     99.3887E-03    -48.7506E-03     41.3405E-03
            2071     6.00152E-03     21.8040E-03    -54.9643E+06    -124.786E+06    -18.9682E+06     1.96043E+06    -50.2517E-03     98.9552E-03    -48.7035E-03     37.7092E-03    -50.3596E-03     98.4800E-03    -48.5377E-03     37.5267E-03
            2072     5.14515E-03     21.7671E-03    -60.6334E+06    -139.234E+06    -27.4776E+06     1.91467E+06    -49.6567E-03     98.1532E-03    -48.4964E-03     33.3499E-03    -49.7472E-03     97.6138E-03    -48.3440E-03     33.2065E-03
            2073     4.28836E-03     21.7350E-03    -66.6951E+06    -152.931E+06    -37.6448E+06     1.66489E+06    -49.1097E-03     97.4138E-03    -48.3041E-03     28.5602E-03    -49.1861E-03     96.8197E-03    -48.1738E-03     28.4495E-03
            2074     3.43117E-03     21.7079E-03    -72.8502E+06    -164.707E+06    -50.0581E+06     1.40043E+06    -48.6338E-03     96.7585E-03    -48.1247E-03     23.4009E-03    -48.6985E-03     96.1250E-03    -48.0306E-03     23.3187E-03
            2075     2.57367E-03     21.6864E-03    -78.5896E+06    -174.698E+06    -63.5024E+06     1.14748E+06    -48.2486E-03     96.2150E-03    -47.9664E-03     17.9371E-03    -48.3026E-03     95.5541E-03    -47.9167E-03     17.8801E-03
            2076     1.71592E-03     21.6706E-03    -83.3221E+06    -183.325E+06    -75.6739E+06     855.698E+03    -47.9684E-03     95.8102E-03    -47.8417E-03     12.2671E-03    -48.0124E-03     95.1270E-03    -47.8335E-03     12.2316E-03
            2077     858.007E-06     21.6608E-03    -86.5033E+06    -189.117E+06    -84.4241E+06     521.124E+03    -47.8272E-03     95.5541E-03    -47.7269E-03     6.72405E-03    -47.8640E-03     94.8573E-03    -47.7494E-03     6.70607E-03
            2078     16.2459E-03     21.2481E-03    -4.32603E+06     108.646E+06     75.8913E+06     296.753E+03    -55.1127E-03     106.584E-03    -51.4718E-03     10.8091E-03    -55.4520E-03     107.074E-03    -51.2436E-03     10.4537E-03
            2079     15.3942E-03     21.2305E-03    -8.44384E+06     103.822E+06     62.6655E+06     546.207E+03    -54.7884E-03     105.987E-03    -51.1985E-03     22.2420E-03    -55.1562E-03     106.512E-03    -51.0235E-03     21.8119E-03
            2080     14.5422E-03     21.2040E-03    -12.2946E+06     96.6222E+06     53.8082E+06     792.427E+03    -54.4500E-03     105.399E-03    -50.9487E-03     30.4654E-03    -54.8320E-03     105.924E-03    -50.8020E-03     30.0334E-03
            2081     13.6898E-03     21.1697E-03    -16.2186E+06     70.9972E+06     45.7536E+06     943.362E+03    -54.1976E-03     104.925E-03    -50.7278E-03     37.1335E-03    -54.5689E-03     105.359E-03    -50.5785E-03     36.6909E-03
            2082     12.8372E-03     21.1297E-03    -20.0655E+06     29.4316E+06     35.3827E+06     929.329E+03    -54.0479E-03     104.559E-03    -50.5114E-03     42.3218E-03    -54.3756E-03     104.818E-03    -50.3481E-03     41.8746E-03
            2083     11.9842E-03     21.0848E-03    -23.8427E+06     5.29101E+06     30.5277E+06     949.278E+03    -53.8239E-03     104.111E-03    -50.2871E-03     46.1838E-03    -54.1338E-03     104.267E-03    -50.1076E-03     45.7413E-03
            2084     11.1310E-03     21.0366E-03    -27.7194E+06    -16.7101E+06     23.3305E+06     1.08064E+06    -53.5493E-03     103.587E-03    -50.0378E-03     48.3368E-03    -53.8332E-03     103.646E-03    -49.8567E-03     47.9105E-03
            2085     10.2774E-03     20.9868E-03    -31.6918E+06    -38.5098E+06     16.7848E+06     1.26121E+06    -53.1914E-03     102.973E-03    -49.7814E-03     48.8967E-03    -53.4434E-03     102.927E-03    -49.5956E-03     48.4980E-03
            2086     9.42348E-03     20.9370E-03    -35.8006E+06    -56.7402E+06     9.75156E+06     1.48013E+06    -52.7312E-03     102.241E-03    -49.5099E-03     48.1019E-03    -52.9509E-03     102.104E-03    -49.3270E-03     47.7418E-03
            2087     8.56913E-03     20.8884E-03    -40.0556E+06    -76.2792E+06     2.65926E+06     1.70818E+06    -52.1822E-03     101.419E-03    -49.2370E-03     46.2086E-03    -52.3657E-03     101.182E-03    -49.0551E-03     45.8937E-03
            2088     7.71429E-03     20.8419E-03    -44.5236E+06    -93.0472E+06    -4.42044E+06     1.90270E+06    -51.5493E-03     100.513E-03    -48.9633E-03     43.5469E-03    -51.7018E-03     100.190E-03    -48.7859E-03     43.2799E-03
            2089     6.85893E-03     20.7983E-03    -49.2958E+06    -109.633E+06    -11.6402E+06     2.12212E+06    -50.8734E-03     99.5718E-03    -48.6984E-03     40.2462E-03    -50.9982E-03     99.1662E-03    -48.5262E-03     40.0272E-03
            2090     6.00302E-03     20.7582E-03    -54.4555E+06    -124.565E+06    -19.2731E+06     2.38472E+06    -50.1850E-03     98.6305E-03    -48.4454E-03     36.4218E-03    -50.2883E-03     98.1541E-03    -48.2822E-03     36.2491E-03
            2091     5.14659E-03     20.7222E-03    -60.0578E+06    -138.521E+06    -27.6972E+06     2.45359E+06    -49.5192E-03     97.7284E-03    -48.2092E-03     32.1459E-03    -49.6060E-03     97.1906E-03    -48.0598E-03     32.0135E-03
            2092     4.28967E-03     20.6908E-03    -66.0658E+06    -152.052E+06    -37.7271E+06     2.25027E+06    -48.9070E-03     96.8983E-03    -47.9913E-03     27.4812E-03    -48.9804E-03     96.3068E-03    -47.8637E-03     27.3817E-03
            2093     3.43230E-03     20.6645E-03    -72.1998E+06    -163.844E+06    -49.9256E+06     1.98277E+06    -48.3729E-03     96.1636E-03    -47.7907E-03     22.4847E-03    -48.4351E-03     95.5326E-03    -47.6981E-03     22.4131E-03
            2094     2.57456E-03     20.6435E-03    -77.9520E+06    -173.663E+06    -63.1214E+06     1.64759E+06    -47.9394E-03     95.5549E-03    -47.6155E-03     17.2158E-03    -47.9919E-03     94.8972E-03    -47.5663E-03     17.1676E-03
            2095     1.71654E-03     20.6281E-03    -82.7104E+06    -182.188E+06    -75.1165E+06     1.17590E+06    -47.6241E-03     95.1022E-03    -47.4781E-03     11.7629E-03    -47.6673E-03     94.4228E-03    -47.4696E-03     11.7331E-03
            2096     858.322E-06     20.6186E-03    -85.7910E+06    -187.798E+06    -83.7567E+06     647.862E+03    -47.4598E-03     94.8152E-03    -47.3554E-03     6.44263E-03    -47.4959E-03     94.1229E-03    -47.3774E-03     6.42718E-03
            2097     16.2459E-03     20.1926E-03    -4.06723E+06     108.416E+06     75.8041E+06     411.188E+03    -55.1819E-03     106.655E-03    -51.4729E-03     10.2470E-03    -55.5180E-03     107.142E-03    -51.2452E-03     9.89516E-03
            2098     15.3943E-03     20.1757E-03    -8.19589E+06     103.651E+06     62.7131E+06     573.365E+03    -54.8381E-03     106.035E-03    -51.1970E-03     21.6855E-03    -55.2027E-03     106.557E-03    -51.0218E-03     21.2577E-03
            2099     14.5423E-03     20.1500E-03    -12.2439E+06     96.2612E+06     53.6574E+06     866.544E+03    -54.5492E-03     105.491E-03    -50.9420E-03     29.9499E-03    -54.9284E-03     106.013E-03    -50.7955E-03     29.5198E-03
            2100     13.6900E-03     20.1165E-03    -16.1966E+06     71.1371E+06     45.5956E+06      1.0347E+06    -54.3779E-03     105.089E-03    -50.7107E-03     36.5995E-03    -54.7473E-03     105.521E-03    -50.5624E-03     36.1580E-03
            2101     12.8375E-03     20.0771E-03    -19.9578E+06     29.6268E+06     35.2305E+06     925.333E+03    -54.3041E-03     104.782E-03    -50.4777E-03     41.6963E-03    -54.6292E-03     105.039E-03    -50.3156E-03     41.2485E-03
            2102     11.9848E-03     20.0328E-03    -23.6806E+06     5.24867E+06     30.3609E+06     922.666E+03    -54.1321E-03     104.362E-03    -50.2301E-03     45.3880E-03    -54.4382E-03     104.515E-03    -50.0516E-03     44.9448E-03
            2103     11.1319E-03     19.9853E-03    -27.5077E+06    -16.7878E+06     23.1418E+06     1.06836E+06    -53.8778E-03     103.828E-03    -49.9504E-03     47.3243E-03    -54.1569E-03     103.883E-03    -49.7704E-03     46.8983E-03
            2104     10.2786E-03     19.9364E-03    -31.4124E+06    -38.6345E+06     16.5786E+06     1.28075E+06    -53.5064E-03     103.164E-03    -49.6578E-03     47.6667E-03    -53.7527E-03     103.114E-03    -49.4733E-03     47.2700E-03
            2105     9.42496E-03     19.8875E-03    -35.4332E+06    -56.8413E+06     9.53715E+06     1.54224E+06    -52.9989E-03     102.345E-03    -49.3460E-03     46.6736E-03    -53.2122E-03     102.203E-03    -49.1645E-03     46.3173E-03
            2106     8.57083E-03     19.8398E-03    -39.6113E+06    -76.3426E+06     2.44826E+06     1.83947E+06    -52.3764E-03     101.407E-03    -49.0304E-03     44.6277E-03    -52.5534E-03     101.165E-03    -48.8501E-03     44.3187E-03
            2107     7.71615E-03     19.7944E-03    -44.0122E+06    -92.9780E+06    -4.60856E+06     2.13066E+06    -51.6546E-03     100.368E-03    -48.7134E-03     41.8864E-03    -51.8008E-03     100.041E-03    -48.5378E-03     41.6274E-03
            2108     6.86087E-03     19.7518E-03    -48.7112E+06    -109.647E+06    -11.8199E+06     2.47407E+06    -50.8823E-03     99.2889E-03    -48.4066E-03     38.5775E-03    -51.0008E-03     98.8796E-03    -48.2361E-03     38.3685E-03
            2109     6.00497E-03     19.7128E-03    -53.7906E+06    -124.418E+06    -19.4858E+06     2.87996E+06    -50.0950E-03     98.2085E-03    -48.1135E-03     34.8149E-03    -50.1924E-03     97.7298E-03    -47.9525E-03     34.6541E-03
            2110     5.14844E-03     19.6778E-03    -59.3166E+06    -137.809E+06    -27.8533E+06     3.07892E+06    -49.3361E-03     97.1767E-03    -47.8406E-03     30.6587E-03    -49.4182E-03     96.6398E-03    -47.6940E-03     30.5396E-03
            2111     4.29135E-03     19.6473E-03    -65.2686E+06    -151.063E+06    -37.7511E+06     2.99001E+06    -48.6424E-03     96.2333E-03    -47.5909E-03     26.1561E-03    -48.7119E-03     95.6443E-03    -47.4660E-03     26.0706E-03
            2112     3.43374E-03     19.6217E-03    -71.3887E+06    -162.678E+06    -49.6314E+06     2.71230E+06    -48.0368E-03     95.4009E-03    -47.3641E-03     21.3663E-03    -48.0962E-03     94.7733E-03    -47.2729E-03     21.3079E-03
            2113     2.57570E-03     19.6013E-03    -77.0912E+06    -172.209E+06    -62.4406E+06     2.20549E+06    -47.5445E-03     94.7123E-03    -47.1678E-03     16.3409E-03    -47.5953E-03     94.0592E-03    -47.1185E-03     16.3028E-03
            2114     1.71733E-03     19.5865E-03    -81.7857E+06    -180.566E+06    -74.2192E+06     1.51706E+06    -47.1851E-03     94.1991E-03    -47.0140E-03     11.1544E-03    -47.2272E-03     93.5250E-03    -47.0047E-03     11.1310E-03
            2115     858.729E-06     19.5772E-03    -85.0285E+06    -186.140E+06    -82.9317E+06     823.996E+03    -46.9898E-03     93.8702E-03    -46.8804E-03     6.10323E-03    -47.0256E-03     93.1839E-03    -46.9019E-03     6.09111E-03
            2116     16.2457E-03     19.1370E-03    -3.93185E+06     108.070E+06     75.6607E+06     405.335E+03    -55.1630E-03     106.644E-03    -51.4807E-03     9.67535E-03    -55.4964E-03     107.127E-03    -51.2534E-03     9.32627E-03
            2117     15.3941E-03     19.1210E-03    -8.11038E+06     103.445E+06     62.7351E+06     798.452E+03    -54.8672E-03     106.073E-03    -51.2055E-03     21.1727E-03    -55.2294E-03     106.591E-03    -51.0301E-03     20.7497E-03
            2118     14.5422E-03     19.0958E-03    -12.1739E+06     95.9859E+06     53.5881E+06     1.01728E+06    -54.7087E-03     105.653E-03    -50.9448E-03     29.4638E-03    -55.0855E-03     106.172E-03    -50.7983E-03     29.0358E-03
            2119     13.6901E-03     19.0629E-03    -16.0493E+06     71.3543E+06     45.5167E+06     1.02661E+06    -54.6839E-03     105.382E-03    -50.6976E-03     35.9993E-03    -55.0506E-03     105.813E-03    -50.5503E-03     35.5566E-03
            2120     12.8379E-03     19.0241E-03    -19.7357E+06     29.8816E+06     35.1474E+06     883.064E+03    -54.7207E-03     105.159E-03    -50.4387E-03     40.8871E-03    -55.0420E-03     105.415E-03    -50.2777E-03     40.4373E-03
            2121     11.9856E-03     18.9805E-03    -23.3938E+06     5.17529E+06     30.2546E+06     866.700E+03    -54.6086E-03     104.764E-03    -50.1555E-03     44.3016E-03    -54.9091E-03     104.912E-03    -49.9778E-03     43.8569E-03
            2122     11.1331E-03     18.9337E-03    -27.1529E+06    -16.8876E+06     23.0247E+06     1.04206E+06    -54.3625E-03     104.194E-03    -49.8310E-03     45.9328E-03    -54.6348E-03     104.243E-03    -49.6521E-03     45.5070E-03
            2123     10.2803E-03     18.8857E-03    -30.9939E+06    -38.7925E+06     16.4455E+06     1.27572E+06    -53.9491E-03     103.436E-03    -49.4873E-03     45.9886E-03    -54.1877E-03     103.380E-03    -49.3038E-03     45.5943E-03
            2124     9.42698E-03     18.8378E-03    -34.9526E+06    -56.9990E+06     9.37679E+06     1.58954E+06    -53.3552E-03     102.475E-03    -49.1201E-03     44.7566E-03    -53.5604E-03     102.327E-03    -48.9399E-03     44.4052E-03
            2125     8.57316E-03     18.7913E-03    -39.0634E+06    -76.4934E+06     2.28834E+06     1.97778E+06    -52.6195E-03     101.367E-03    -48.7479E-03     42.5460E-03    -52.7882E-03     101.119E-03    -48.5689E-03     42.2446E-03
            2126     7.71868E-03     18.7470E-03    -43.3977E+06    -93.0001E+06    -4.71697E+06     2.38251E+06    -51.7717E-03     100.147E-03    -48.3751E-03     39.7291E-03    -51.9101E-03     99.8147E-03    -48.2009E-03     39.4802E-03
            2127     6.86349E-03     18.7057E-03    -48.0474E+06    -109.777E+06    -11.8664E+06     2.87314E+06    -50.8705E-03     98.8856E-03    -48.0150E-03     36.4289E-03    -50.9818E-03     98.4710E-03    -47.8455E-03     36.2323E-03
            2128     6.00755E-03     18.6679E-03    -53.0584E+06    -124.303E+06    -19.4677E+06     3.40276E+06    -49.9564E-03     97.6281E-03    -47.6718E-03     32.7558E-03    -50.0473E-03     97.1459E-03    -47.5119E-03     32.6089E-03
            2129     5.15088E-03     18.6340E-03    -58.4550E+06    -137.162E+06    -27.7881E+06     3.74579E+06    -49.0773E-03     96.4303E-03    -47.3530E-03     28.7612E-03    -49.1539E-03     95.8931E-03    -47.2083E-03     28.6574E-03
            2130     4.29355E-03     18.6045E-03    -64.2760E+06    -150.015E+06    -37.6096E+06     3.84619E+06    -48.2792E-03     95.3426E-03    -47.0635E-03     24.4737E-03    -48.3439E-03     94.7557E-03    -46.9408E-03     24.4051E-03
            2131     3.43561E-03     18.5798E-03    -70.2674E+06    -161.036E+06    -49.0282E+06     3.52497E+06    -47.5854E-03     94.3900E-03    -46.8046E-03     19.9528E-03    -47.6415E-03     93.7671E-03    -46.7144E-03     19.9097E-03
            2132     2.57718E-03     18.5602E-03    -75.8987E+06    -170.246E+06    -61.4546E+06     2.77794E+06    -47.0205E-03     93.6034E-03    -46.5829E-03     15.2418E-03    -47.0691E-03     92.9564E-03    -46.5333E-03     15.2147E-03
            2133     1.71835E-03     18.5459E-03    -80.6111E+06    -178.538E+06    -73.2246E+06     1.95589E+06    -46.6077E-03     93.0175E-03    -46.4099E-03     10.3958E-03    -46.6480E-03     92.3502E-03    -46.4002E-03     10.3805E-03
            2134     859.249E-06     18.5370E-03    -83.8336E+06    -184.010E+06    -81.8662E+06     1.13539E+06    -46.3773E-03     92.6464E-03    -46.2691E-03     5.68555E-03    -46.4117E-03     91.9673E-03    -46.2900E-03     5.67879E-03
            2135     16.2455E-03     18.0816E-03    -4.26312E+06     107.531E+06     75.4436E+06     435.713E+03    -55.0945E-03     106.589E-03    -51.4944E-03     9.11526E-03    -55.4271E-03     107.069E-03    -51.2669E-03     8.76955E-03
            2136     15.3938E-03     18.0662E-03    -8.27347E+06     103.153E+06     62.6826E+06     816.140E+03    -54.9656E-03     106.185E-03    -51.2190E-03     20.6713E-03    -55.3265E-03     106.701E-03    -51.0432E-03     20.2496E-03
            2137     14.5421E-03     18.0415E-03    -12.0268E+06     95.8867E+06     53.6678E+06     1.02074E+06    -55.0241E-03     105.970E-03    -50.9463E-03     28.9012E-03    -55.3983E-03     106.487E-03    -50.7996E-03     28.4720E-03
            2138     13.6903E-03     18.0090E-03    -15.7909E+06     71.6310E+06     45.5215E+06     986.576E+03    -55.1920E-03     105.864E-03    -50.6718E-03     35.1687E-03    -55.5550E-03     106.293E-03    -50.5251E-03     34.7232E-03
            2139     12.8386E-03     17.9706E-03    -19.4231E+06     30.1901E+06     35.1368E+06     785.168E+03    -55.3531E-03     105.725E-03    -50.3718E-03     39.7000E-03    -55.6692E-03     105.977E-03    -50.2117E-03     39.2468E-03
            2140     11.9869E-03     17.9277E-03    -23.0018E+06     5.05298E+06     30.2117E+06     775.329E+03    -55.2912E-03     105.327E-03    -50.0354E-03     42.7202E-03    -55.5841E-03     105.468E-03    -49.8583E-03     42.2735E-03
            2141     11.1350E-03     17.8817E-03    -26.6944E+06    -17.0106E+06     22.9820E+06     991.401E+03    -55.0242E-03     104.671E-03    -49.6473E-03     43.9538E-03    -55.2876E-03     104.713E-03    -49.4690E-03     43.5288E-03
            2142     10.2827E-03     17.8347E-03    -30.4860E+06    -38.9844E+06     16.4030E+06     1.27716E+06    -54.5277E-03     103.761E-03    -49.2329E-03     43.6466E-03    -54.7564E-03     103.695E-03    -49.0502E-03     43.2563E-03
            2143     9.42996E-03     17.7879E-03    -34.4102E+06    -57.2131E+06     9.30102E+06     1.65064E+06    -53.8020E-03     102.593E-03    -48.7913E-03     42.1223E-03    -53.9969E-03     102.436E-03    -48.6120E-03     41.7781E-03
            2144     8.57649E-03     17.7428E-03    -38.4772E+06    -76.7428E+06     2.16604E+06     2.13360E+06    -52.9079E-03     101.252E-03    -48.3440E-03     39.7197E-03    -53.0664E-03     100.995E-03    -48.1661E-03     39.4288E-03
            2145     7.72223E-03     17.6999E-03    -42.7670E+06    -93.1217E+06    -4.74074E+06     2.66892E+06    -51.8912E-03     99.7891E-03    -47.8978E-03     36.8158E-03    -52.0204E-03     99.4497E-03    -47.7245E-03     36.5803E-03
            2146     6.86710E-03     17.6601E-03    -47.3503E+06    -110.010E+06    -11.7440E+06     3.29632E+06    -50.8190E-03     98.2873E-03    -47.4682E-03     33.5301E-03    -50.9217E-03     97.8654E-03    -47.2988E-03     33.3491E-03
            2147     6.01110E-03     17.6237E-03    -52.3053E+06    -124.206E+06    -19.1976E+06     3.96502E+06    -49.7347E-03     96.7946E-03    -47.0599E-03     29.9818E-03    -49.8186E-03     96.3075E-03    -46.8999E-03     29.8520E-03
            2148     5.15423E-03     17.5911E-03    -57.7126E+06    -136.580E+06    -27.3815E+06     4.44578E+06    -48.6954E-03     95.3782E-03    -46.6828E-03     26.2136E-03    -48.7669E-03     94.8394E-03    -46.5380E-03     26.1279E-03
            2149     4.29654E-03     17.5629E-03    -63.3841E+06    -148.794E+06    -37.0444E+06     4.57210E+06    -47.7565E-03     94.0997E-03    -46.3432E-03     22.2362E-03    -47.8174E-03     93.5148E-03    -46.2208E-03     22.1848E-03
            2150     3.43815E-03     17.5392E-03    -69.0352E+06    -158.987E+06    -48.1789E+06     4.16878E+06    -46.9481E-03     92.9918E-03    -46.0437E-03     18.0911E-03    -47.0009E-03     92.3748E-03    -45.9540E-03     18.0627E-03
            2151     2.57916E-03     17.5204E-03    -74.4578E+06    -167.907E+06    -60.2674E+06     3.41540E+06    -46.2966E-03     92.0888E-03    -45.7923E-03     13.8001E-03    -46.3424E-03     91.4490E-03    -45.7422E-03     13.7862E-03
            2152     1.71970E-03     17.5067E-03    -79.1570E+06    -176.003E+06    -71.7963E+06     2.46646E+06    -45.8239E-03     91.4228E-03    -45.5989E-03     9.40535E-03    -45.8623E-03     90.7635E-03    -45.5879E-03     9.39994E-03
            2153     859.931E-06     17.4982E-03    -82.3426E+06    -181.295E+06    -80.2885E+06     1.37571E+06    -45.5592E-03     91.0062E-03    -45.4470E-03     5.13868E-03    -45.5922E-03     90.3361E-03    -45.4662E-03     5.13683E-03
            2154     16.2451E-03     17.0263E-03    -4.12119E+06     107.176E+06     75.4108E+06     477.310E+03    -55.1074E-03     106.614E-03    -51.5066E-03     8.58969E-03    -55.4376E-03     107.091E-03    -51.2790E-03     8.24642E-03
            2155     15.3936E-03     17.0112E-03    -8.14338E+06     102.918E+06     62.8696E+06     643.013E+03    -55.2709E-03     106.495E-03    -51.2237E-03     20.0943E-03    -55.6295E-03     107.007E-03    -51.0468E-03     19.6695E-03
            2156     14.5422E-03     16.9867E-03    -11.8917E+06     95.6905E+06     53.7915E+06     846.874E+03    -55.6130E-03     106.537E-03    -50.9239E-03     28.0797E-03    -55.9839E-03     107.049E-03    -50.7765E-03     27.6452E-03
            2157     13.6910E-03     16.9544E-03    -15.4941E+06     72.0270E+06     45.6204E+06     832.838E+03    -55.9843E-03     106.587E-03    -50.6025E-03     33.8732E-03    -56.3423E-03     107.013E-03    -50.4564E-03     33.4224E-03
            2158     12.8401E-03     16.9165E-03    -18.9909E+06     30.4775E+06     35.1937E+06     640.097E+03    -56.2559E-03     106.495E-03    -50.2394E-03     37.8672E-03    -56.5642E-03     106.742E-03    -50.0801E-03     37.4101E-03
            2159     11.9892E-03     16.8741E-03    -22.5293E+06     4.91183E+06     30.2387E+06     678.060E+03    -56.2140E-03     106.040E-03    -49.8262E-03     40.3442E-03    -56.4965E-03     106.173E-03    -49.6494E-03     39.8967E-03
            2160     11.1381E-03     16.8291E-03    -26.1958E+06    -17.1689E+06     23.0149E+06     935.222E+03    -55.8836E-03     105.233E-03    -49.3496E-03     41.0624E-03    -56.1352E-03     105.264E-03    -49.1716E-03     40.6404E-03
            2161     10.2866E-03     16.7833E-03    -29.9467E+06    -39.2252E+06     16.4441E+06     1.28804E+06    -55.2548E-03     104.094E-03    -48.8393E-03     40.2967E-03    -55.4707E-03     104.017E-03    -48.6568E-03     39.9138E-03
            2162     9.43441E-03     16.7380E-03    -33.8258E+06    -57.4701E+06     9.36817E+06     1.73962E+06    -54.3437E-03     102.642E-03    -48.2980E-03     38.4241E-03    -54.5258E-03     102.473E-03    -48.1188E-03     38.0915E-03
            2163     8.58140E-03     16.6944E-03    -37.8507E+06    -77.0752E+06     2.20145E+06     2.31497E+06    -53.2343E-03     100.985E-03    -47.7504E-03     35.8188E-03    -53.3805E-03     100.717E-03    -47.5727E-03     35.5429E-03
            2164     7.72740E-03     16.6533E-03    -42.0832E+06    -93.3636E+06    -4.64939E+06     2.98888E+06    -51.9869E-03     99.1936E-03    -47.2067E-03     32.8573E-03    -52.1048E-03     98.8443E-03    -47.0336E-03     32.6397E-03
            2165     6.87236E-03     16.6152E-03    -46.6729E+06    -110.307E+06    -11.4612E+06     3.78394E+06    -50.6777E-03     97.3638E-03    -46.6861E-03     29.6550E-03    -50.7708E-03     96.9329E-03    -46.5158E-03     29.4942E-03
            2166     6.01622E-03     16.5805E-03    -51.6642E+06    -124.106E+06    -18.6446E+06     4.55383E+06    -49.3597E-03     95.5546E-03    -46.1949E-03     26.3388E-03    -49.4366E-03     95.0616E-03    -46.0332E-03     26.2298E-03
            2167     5.15901E-03     16.5496E-03    -56.9236E+06    -135.864E+06    -26.4887E+06     5.01147E+06    -48.1063E-03     93.8522E-03    -45.7459E-03     22.9320E-03    -48.1728E-03     93.3111E-03    -45.5988E-03     22.8654E-03
            2168     4.30080E-03     16.5227E-03    -62.3577E+06    -147.291E+06    -36.0715E+06     5.01974E+06    -46.9849E-03     92.3307E-03    -45.3457E-03     19.4156E-03    -47.0419E-03     91.7480E-03    -45.2221E-03     19.3800E-03
            2169     3.44172E-03     16.5002E-03    -67.8085E+06    -156.774E+06    -47.3167E+06     4.58131E+06    -46.0355E-03     91.0343E-03    -44.9988E-03     15.7913E-03    -46.0853E-03     90.4239E-03    -44.9097E-03     15.7763E-03
            2170     2.58193E-03     16.4824E-03    -72.9049E+06    -165.379E+06    -59.0897E+06     3.84928E+06    -45.2886E-03     90.0035E-03    -44.7150E-03     12.0498E-03    -45.3312E-03     89.3715E-03    -44.6649E-03     12.0474E-03
            2171     1.72159E-03     16.4694E-03    -77.2071E+06    -172.957E+06    -69.9955E+06     2.86561E+06    -44.7557E-03     89.2564E-03    -44.5007E-03     8.21875E-03    -44.7911E-03     88.6066E-03    -44.4879E-03     8.22246E-03
            2172     860.897E-06     16.4613E-03    -80.2594E+06    -178.004E+06    -78.3255E+06     1.63710E+06    -44.4584E-03     88.7906E-03    -44.3323E-03     4.49270E-03    -44.4885E-03     88.1310E-03    -44.3494E-03     4.49637E-03
            2173     16.2450E-03     15.9708E-03    -4.07658E+06     106.982E+06     75.4449E+06     451.528E+03    -55.4084E-03     106.913E-03    -51.5047E-03     8.12899E-03    -55.7371E-03     107.388E-03    -51.2767E-03     7.78438E-03
            2174     15.3938E-03     15.9558E-03    -8.03483E+06     102.877E+06     63.2296E+06     508.285E+03    -55.9437E-03     107.139E-03    -51.1955E-03     19.3495E-03    -56.3002E-03     107.649E-03    -51.0168E-03     18.9190E-03
            2175     14.5432E-03     15.9311E-03    -11.6556E+06     95.5006E+06     53.9948E+06     506.827E+03    -56.5781E-03     107.422E-03    -50.8443E-03     26.8569E-03    -56.9443E-03     107.930E-03    -50.6959E-03     26.4129E-03
            2176     13.6929E-03     15.8989E-03    -15.1017E+06     72.3818E+06     45.7783E+06     503.693E+03    -57.1241E-03     107.574E-03    -50.4495E-03     31.9890E-03    -57.4750E-03     107.995E-03    -50.3036E-03     31.5299E-03
            2177     12.8431E-03     15.8613E-03    -18.5100E+06     30.6812E+06     35.2793E+06     472.314E+03    -57.4657E-03     107.461E-03    -49.9954E-03     35.3034E-03    -57.7638E-03     107.700E-03    -49.8366E-03     34.8428E-03
            2178     11.9933E-03     15.8198E-03    -22.0117E+06     4.75667E+06     30.3246E+06     600.277E+03    -57.3964E-03     106.873E-03    -49.4762E-03     37.1284E-03    -57.6662E-03     106.993E-03    -49.2995E-03     36.6820E-03
            2179     11.1432E-03     15.7759E-03    -25.6684E+06    -17.3464E+06     23.1428E+06     912.896E+03    -56.9500E-03     105.831E-03    -48.8814E-03     37.2574E-03    -57.1875E-03     105.849E-03    -48.7034E-03     36.8416E-03
            2180     10.2927E-03     15.7315E-03    -29.4264E+06    -39.5041E+06     16.5699E+06     1.32601E+06    -56.1266E-03     104.372E-03    -48.2451E-03     35.9856E-03    -56.3280E-03     104.280E-03    -48.0623E-03     35.6138E-03
            2181     9.44123E-03     15.6880E-03    -33.3113E+06    -57.7730E+06     9.54229E+06     1.85557E+06    -54.9581E-03     102.533E-03    -47.5747E-03     33.7676E-03    -55.1261E-03     102.350E-03    -47.3949E-03     33.4505E-03
            2182     8.58872E-03     15.6465E-03    -37.3049E+06    -77.4046E+06     2.46459E+06     2.48518E+06    -53.5531E-03     100.453E-03    -46.8997E-03     31.0117E-03    -53.6864E-03     100.172E-03    -46.7210E-03     30.7541E-03
            2183     7.73498E-03     15.6075E-03    -41.4639E+06    -93.7703E+06    -4.34468E+06     3.26893E+06    -51.9897E-03     98.2240E-03    -46.2343E-03     28.0822E-03    -52.0961E-03     97.8631E-03    -46.0600E-03     27.8851E-03
            2184     6.87988E-03     15.5715E-03    -45.9378E+06    -110.677E+06    -10.8842E+06     4.26942E+06    -50.3669E-03     95.9697E-03    -45.6028E-03     25.0765E-03    -50.4501E-03     95.5285E-03    -45.4301E-03     24.9384E-03
            2185     6.02341E-03     15.5389E-03    -50.7696E+06    -123.792E+06    -17.5536E+06     5.01696E+06    -48.7555E-03     93.7691E-03    -45.0137E-03     22.1056E-03    -48.8250E-03     93.2699E-03    -44.8484E-03     22.0178E-03
            2186     5.16560E-03     15.5099E-03    -55.9207E+06    -134.957E+06    -25.2560E+06     5.34134E+06    -47.2422E-03     91.7225E-03    -44.4803E-03     19.1624E-03    -47.3033E-03     91.1792E-03    -44.3298E-03     19.1134E-03
            2187     4.30656E-03     15.4847E-03    -61.3158E+06    -145.631E+06    -35.0542E+06     5.35151E+06    -45.9075E-03     89.9177E-03    -44.0102E-03     16.1909E-03    -45.9609E-03     89.3380E-03    -43.8854E-03     16.1708E-03
            2188     3.44650E-03     15.4636E-03    -66.6511E+06    -154.373E+06    -46.4579E+06     4.83614E+06    -44.7971E-03     88.4064E-03    -43.6094E-03     13.1656E-03    -44.8444E-03     87.8037E-03    -43.5212E-03     13.1628E-03
            2189     2.58558E-03     15.4469E-03    -71.4537E+06    -162.672E+06    -58.0798E+06     3.94360E+06    -43.9395E-03     87.2278E-03    -43.2884E-03     10.0555E-03    -43.9795E-03     86.6050E-03    -43.2393E-03     10.0609E-03
            2190     1.72406E-03     15.4347E-03    -75.3061E+06    -169.781E+06    -68.5567E+06     2.92648E+06    -43.3371E-03     86.3879E-03    -43.0508E-03     6.86973E-03    -43.3694E-03     85.7487E-03    -43.0382E-03     6.87855E-03
            2191     862.134E-06     15.4271E-03    -77.7783E+06    -174.347E+06    -76.0163E+06     1.76346E+06    -42.9964E-03     85.8769E-03    -42.8805E-03     3.76844E-03    -43.0227E-03     85.2285E-03    -42.8950E-03     3.77604E-03
            2192     16.2454E-03     14.9148E-03    -3.94057E+06     106.799E+06     75.5287E+06     253.486E+03    -56.2165E-03     107.690E-03    -51.4738E-03     7.81449E-03    -56.5438E-03     108.164E-03    -51.2453E-03     7.46143E-03
            2193     15.3950E-03     14.8994E-03    -7.66693E+06     102.991E+06     63.6328E+06     242.290E+03    -57.1048E-03     108.213E-03    -51.1087E-03     18.4936E-03    -57.4581E-03     108.721E-03    -50.9287E-03     18.0515E-03
            2194     14.5455E-03     14.8743E-03    -11.2489E+06     95.5074E+06     54.2927E+06     140.922E+03    -57.9624E-03     108.639E-03    -50.6764E-03     25.3361E-03    -58.3228E-03     109.141E-03    -50.5271E-03     24.8797E-03
            2195     13.6966E-03     14.8422E-03    -14.7515E+06     72.5698E+06     45.8832E+06     129.204E+03    -58.6175E-03     108.796E-03    -50.1785E-03     29.6931E-03    -58.9603E-03     109.211E-03    -50.0329E-03     29.2239E-03
            2196     12.8480E-03     14.8051E-03    -18.1357E+06     30.7762E+06     35.3234E+06     266.033E+03    -58.9708E-03     108.574E-03    -49.6036E-03     32.2473E-03    -59.2581E-03     108.804E-03    -49.4453E-03     31.7824E-03
            2197     11.9996E-03     14.7645E-03    -21.5860E+06     4.54027E+06     30.3731E+06     521.725E+03    -58.8173E-03     107.766E-03    -48.9486E-03     33.3556E-03    -59.0736E-03     107.874E-03    -48.7720E-03     32.9113E-03
            2198     11.1507E-03     14.7220E-03    -25.2374E+06    -17.5675E+06     23.2622E+06     951.877E+03    -58.1875E-03     106.394E-03    -48.2060E-03     32.8554E-03    -58.4106E-03     106.397E-03    -48.0277E-03     32.4479E-03
            2199     10.3012E-03     14.6795E-03    -29.0452E+06    -39.7699E+06     16.7339E+06     1.44313E+06    -57.0889E-03     104.504E-03    -47.4154E-03     31.0716E-03    -57.2760E-03     104.399E-03    -47.2319E-03     30.7138E-03
            2200     9.45060E-03     14.6383E-03    -32.9741E+06    -58.0846E+06     9.75522E+06     2.00184E+06    -55.5775E-03     102.168E-03    -46.5900E-03     28.5533E-03    -55.7325E-03     101.971E-03    -46.4092E-03     28.2541E-03
            2201     8.59858E-03     14.5993E-03    -37.0403E+06    -77.6933E+06     2.79232E+06     2.68503E+06    -53.7942E-03     99.5594E-03    -45.7652E-03     25.7153E-03    -53.9166E-03     99.2666E-03    -45.5849E-03     25.4782E-03
            2202     7.74495E-03     14.5630E-03    -41.3645E+06    -94.3302E+06    -3.95845E+06     3.58878E+06    -51.8482E-03     96.8079E-03    -44.9597E-03     22.8731E-03    -51.9459E-03     96.4355E-03    -44.7828E-03     22.6986E-03
            2203     6.88963E-03     14.5296E-03    -45.8407E+06    -110.816E+06    -10.3587E+06     4.47957E+06    -49.8624E-03     94.0618E-03    -44.1994E-03     20.1064E-03    -49.9395E-03     93.6129E-03    -44.0240E-03     19.9888E-03
            2204     6.03262E-03     14.4995E-03    -50.4137E+06    -123.400E+06    -16.5907E+06     5.09956E+06    -47.9267E-03     91.4229E-03    -43.4962E-03     17.4830E-03    -47.9918E-03     90.9191E-03    -43.3271E-03     17.4125E-03
            2205     5.17399E-03     14.4728E-03    -55.4654E+06    -134.089E+06    -24.2348E+06     5.63340E+06    -46.1311E-03     88.9921E-03    -42.8611E-03     14.9771E-03    -46.1893E-03     88.4477E-03    -42.7074E-03     14.9460E-03
            2206     4.31392E-03     14.4496E-03    -60.8537E+06    -143.640E+06    -34.2751E+06     5.52338E+06    -44.5522E-03     86.8536E-03    -42.3014E-03     12.5412E-03    -44.6051E-03     86.2798E-03    -42.1762E-03     12.5353E-03
            2207     3.45260E-03     14.4301E-03    -65.9090E+06    -151.841E+06    -45.6509E+06     4.75849E+06    -43.2409E-03     85.0691E-03    -41.8281E-03     10.1334E-03    -43.2880E-03     84.4753E-03    -41.7407E-03     10.1390E-03
            2208     2.59030E-03     14.4147E-03    -70.4228E+06    -159.818E+06    -57.0562E+06     3.81355E+06    -42.2275E-03     83.6793E-03    -41.4519E-03     7.70839E-03    -42.2673E-03     83.0669E-03    -41.4033E-03     7.71918E-03
            2209     1.72726E-03     14.4033E-03    -74.1002E+06    -166.558E+06    -67.0185E+06     2.55859E+06    -41.5165E-03     82.6927E-03    -41.1761E-03     5.25249E-03    -41.5494E-03     82.0652E-03    -41.1623E-03     5.26128E-03
            2210     863.749E-06     14.3963E-03    -76.3469E+06    -171.091E+06    -74.1704E+06     1.16710E+06    -41.1002E-03     82.0917E-03    -40.9914E-03     2.87080E-03    -41.1268E-03     81.4546E-03    -41.0035E-03     2.87324E-03
            2211     16.2464E-03     13.8577E-03    -3.92832E+06     106.773E+06     75.6705E+06    -47.3059E+03    -57.6217E-03     109.028E-03    -51.4065E-03     7.79203E-03    -57.9491E-03     109.501E-03    -51.1773E-03     7.42307E-03
            2212     15.3975E-03     13.8417E-03    -7.70281E+06     103.107E+06     63.8213E+06    -142.745E+03    -58.7600E-03     109.713E-03    -50.9527E-03     17.7868E-03    -59.1126E-03     110.219E-03    -50.7719E-03     17.3262E-03
            2213     14.5494E-03     13.8162E-03    -11.2133E+06     95.6388E+06     54.3806E+06    -260.856E+03    -59.7451E-03     110.154E-03    -50.4090E-03     23.8735E-03    -60.1021E-03     110.653E-03    -50.2595E-03     23.4005E-03
            2214     13.7021E-03     13.7841E-03    -14.6138E+06     72.6770E+06     45.8531E+06    -262.139E+03    -60.4383E-03     110.218E-03    -49.7801E-03     27.3936E-03    -60.7745E-03     110.628E-03    -49.6350E-03     26.9113E-03
            2215     12.8551E-03     13.7476E-03    -17.9580E+06     30.6851E+06     35.2308E+06     30.1503E+03    -60.7448E-03     109.801E-03    -49.0567E-03     29.1043E-03    -61.0225E-03     110.022E-03    -48.8990E-03     28.6330E-03
            2216     12.0082E-03     13.7082E-03    -21.4077E+06     4.22582E+06     30.2722E+06     465.341E+03    -60.4336E-03     108.672E-03    -48.2385E-03     29.4162E-03    -60.6782E-03     108.768E-03    -48.0622E-03     28.9734E-03
            2217     11.1608E-03     13.6675E-03    -25.0686E+06    -17.8856E+06     23.2248E+06     1.02928E+06    -59.5256E-03     106.849E-03    -47.3235E-03     28.2441E-03    -59.7361E-03     106.840E-03    -47.1451E-03     27.8456E-03
            2218     10.3123E-03     13.6275E-03    -28.8792E+06    -39.9973E+06     16.8168E+06     1.61881E+06    -58.0540E-03     104.412E-03    -46.3580E-03     25.9687E-03    -58.2289E-03     104.294E-03    -46.1740E-03     25.6262E-03
            2219     9.46247E-03     13.5891E-03    -32.8579E+06    -58.3366E+06     9.95689E+06     2.19763E+06    -56.1255E-03     101.487E-03    -45.3617E-03     23.2083E-03    -56.2697E-03     101.279E-03    -45.1797E-03     22.9282E-03
            2220     8.61082E-03     13.5532E-03    -37.0216E+06    -78.0630E+06     3.11713E+06     2.98674E+06    -53.9225E-03     98.2963E-03    -44.3738E-03     20.3412E-03    -54.0361E-03     97.9926E-03    -44.1913E-03     20.1261E-03
            2221     7.75720E-03     13.5201E-03    -41.3090E+06    -94.7355E+06    -3.41257E+06     3.85649E+06    -51.5788E-03     94.9935E-03    -43.4148E-03     17.6148E-03    -51.6695E-03     94.6114E-03    -43.2346E-03     17.4620E-03
            2222     6.90154E-03     13.4899E-03    -45.6753E+06    -110.522E+06    -9.54254E+06     4.46830E+06    -49.2227E-03     91.7328E-03    -42.5101E-03     15.0920E-03    -49.2952E-03     91.2786E-03    -42.3313E-03     14.9914E-03
            2223     6.04388E-03     13.4627E-03    -50.3774E+06    -123.192E+06    -15.5625E+06     5.02960E+06    -46.9499E-03     88.6239E-03    -41.6740E-03     12.8106E-03    -47.0127E-03     88.1157E-03    -41.5001E-03     12.7544E-03
            2224     5.18433E-03     13.4387E-03    -55.3857E+06    -133.294E+06    -23.4032E+06     5.61149E+06    -44.8464E-03     85.7595E-03    -40.9131E-03     10.7447E-03    -44.9039E-03     85.2150E-03    -40.7565E-03     10.7263E-03
            2225     4.32306E-03     13.4179E-03    -60.4353E+06    -141.273E+06    -33.6380E+06     5.38630E+06    -42.9808E-03     83.2185E-03    -40.2377E-03     8.86076E-03    -43.0342E-03     82.6532E-03    -40.1134E-03     8.86366E-03
            2226     3.46030E-03     13.4005E-03    -65.3808E+06    -149.240E+06    -44.8341E+06     4.41556E+06    -41.4127E-03     81.0802E-03    -39.6674E-03     7.09279E-03    -41.4611E-03     80.4963E-03    -39.5804E-03     7.10230E-03
            2227     2.59630E-03     13.3865E-03    -69.7117E+06    -156.914E+06    -55.9407E+06     3.25265E+06    -40.1821E-03     79.3940E-03    -39.2119E-03     5.37811E-03    -40.2236E-03     78.7928E-03    -39.1630E-03     5.38776E-03
            2228     1.73140E-03     13.3763E-03    -73.1283E+06    -163.564E+06    -66.0709E+06     1.98504E+06    -39.3054E-03     78.1808E-03    -38.8754E-03     3.67100E-03    -39.3389E-03     77.5652E-03    -38.8626E-03     3.67645E-03
            2229     865.877E-06     13.3699E-03    -75.7118E+06    -168.644E+06    -74.0488E+06     1.02540E+06    -38.7945E-03     77.4372E-03    -38.6427E-03     2.00955E-03    -38.8216E-03     76.8111E-03    -38.6586E-03     2.01238E-03
            2230     16.2480E-03     12.7988E-03    -4.06471E+06     106.981E+06     75.8821E+06    -240.100E+03    -59.5250E-03     110.834E-03    -51.3087E-03     8.15966E-03    -59.8549E-03     111.309E-03    -51.0786E-03     7.77025E-03
            2231     15.4008E-03     12.7821E-03    -7.90858E+06     103.343E+06     63.8647E+06    -536.784E+03    -60.8169E-03     111.556E-03    -50.7391E-03     17.4899E-03    -61.1712E-03     112.064E-03    -50.5581E-03     17.0046E-03
            2232     14.5546E-03     12.7562E-03    -11.4087E+06     95.8181E+06     54.2578E+06    -804.418E+03    -61.8743E-03     111.934E-03    -50.0593E-03     22.8018E-03    -62.2307E-03     112.432E-03    -49.9104E-03     22.3050E-03
            2233     13.7091E-03     12.7244E-03    -14.7454E+06     72.6182E+06     45.6240E+06    -724.225E+03    -62.5552E-03     111.831E-03    -49.2754E-03     25.4459E-03    -62.8877E-03     112.236E-03    -49.1312E-03     24.9446E-03
            2234     12.8640E-03     12.6887E-03    -18.0572E+06     30.3490E+06     34.9590E+06    -186.800E+03    -62.7391E-03     111.120E-03    -48.3807E-03     26.2428E-03    -63.0101E-03     111.333E-03    -48.2237E-03     25.7614E-03
            2235     12.0188E-03     12.6510E-03    -21.4976E+06     3.79181E+06     30.0121E+06     425.852E+03    -62.1602E-03     109.540E-03    -47.3798E-03     25.7224E-03    -62.3960E-03     109.626E-03    -47.2041E-03     25.2786E-03
            2236     11.1727E-03     12.6126E-03    -25.1462E+06    -18.2968E+06     23.0157E+06     1.11493E+06    -60.8549E-03     107.134E-03    -46.2788E-03     23.9055E-03    -61.0558E-03     107.114E-03    -46.1007E-03     23.5144E-03
            2237     10.3253E-03     12.5756E-03    -28.9430E+06    -40.1833E+06     16.8144E+06     1.76317E+06    -58.9227E-03     104.055E-03    -45.1320E-03     21.2305E-03    -59.0886E-03     103.927E-03    -44.9477E-03     20.9015E-03
            2238     9.47608E-03     12.5407E-03    -32.8758E+06    -58.5812E+06     10.2335E+06     2.38797E+06    -56.5390E-03     100.503E-03    -43.9635E-03     18.3295E-03    -56.6753E-03     100.285E-03    -43.7797E-03     18.0665E-03
            2239     8.62468E-03     12.5086E-03    -36.9115E+06    -78.4496E+06     3.66072E+06     3.18720E+06    -53.9120E-03     96.7249E-03    -42.8129E-03     15.5316E-03    -54.0187E-03     96.4118E-03    -42.6273E-03     15.3348E-03
            2240     7.77094E-03     12.4792E-03    -40.9959E+06    -94.7061E+06    -2.43264E+06     3.82913E+06    -51.1798E-03     92.8801E-03    -41.7003E-03     13.0246E-03    -51.2653E-03     92.4912E-03    -41.5157E-03     12.8865E-03
            2241     6.91486E-03     12.4527E-03    -45.3297E+06    -110.275E+06    -8.12051E+06     4.40726E+06    -48.4667E-03     89.1178E-03    -40.6511E-03     10.8296E-03    -48.5362E-03     88.6586E-03    -40.4661E-03     10.7418E-03
            2242     6.05645E-03     12.4291E-03    -50.1338E+06    -122.903E+06    -14.5229E+06     5.01823E+06    -45.8604E-03     85.5355E-03    -39.6751E-03     8.96152E-03    -45.9213E-03     85.0244E-03    -39.4968E-03     8.91668E-03
            2243     5.19584E-03     12.4082E-03    -55.0909E+06    -132.180E+06    -23.1214E+06     5.16986E+06    -43.4433E-03     82.2234E-03    -38.7801E-03     7.37156E-03    -43.4997E-03     81.6820E-03    -38.6241E-03     7.35677E-03
            2244     4.33322E-03     12.3903E-03    -59.7933E+06    -139.103E+06    -33.3013E+06     4.77835E+06    -41.2821E-03     79.2663E-03    -37.9841E-03     6.00293E-03    -41.3349E-03     78.7094E-03    -37.8623E-03     6.00522E-03
            2245     3.46880E-03     12.3752E-03    -64.2441E+06    -146.519E+06    -44.1502E+06     3.88752E+06    -39.4408E-03     76.7493E-03    -37.3086E-03     4.77761E-03    -39.4878E-03     76.1759E-03    -37.2237E-03     4.78568E-03
            2246     2.60294E-03     12.3631E-03    -68.4811E+06    -154.339E+06    -55.8782E+06     2.77405E+06    -37.9662E-03     74.7287E-03    -36.7625E-03     3.63133E-03    -38.0051E-03     74.1383E-03    -36.7188E-03     3.63860E-03
            2247     1.73592E-03     12.3542E-03    -72.2859E+06    -161.369E+06    -66.7026E+06     2.17970E+06    -36.8983E-03     73.2581E-03    -36.3598E-03     2.50148E-03    -36.9298E-03     72.6531E-03    -36.3545E-03     2.51192E-03
            2248     868.128E-06     12.3487E-03    -75.0061E+06    -165.920E+06    -73.6394E+06     1.60410E+06    -36.2881E-03     72.3656E-03    -36.0775E-03     1.38372E-03    -36.3162E-03     71.7515E-03    -36.0964E-03     1.39535E-03
            2249     16.2499E-03     11.7378E-03    -3.87834E+06     107.364E+06     76.2439E+06    -396.071E+03    -61.7164E-03     112.912E-03    -51.1951E-03     8.86794E-03    -62.0487E-03     113.390E-03    -50.9640E-03     8.45391E-03
            2250     15.4046E-03     11.7203E-03    -7.82632E+06     103.785E+06     63.9529E+06    -786.028E+03    -63.1372E-03     113.631E-03    -50.4936E-03     17.6521E-03    -63.4939E-03     114.143E-03    -50.3130E-03     17.1384E-03
            2251     14.5605E-03     11.6943E-03    -11.5677E+06     96.1226E+06     54.1287E+06    -1.20464E+06    -64.2644E-03     113.926E-03    -49.6616E-03     22.1961E-03    -64.6223E-03     114.427E-03    -49.5135E-03     21.6712E-03
            2252     13.7170E-03     11.6628E-03    -15.0867E+06     72.3243E+06     45.2648E+06    -1.15895E+06    -64.8791E-03     113.586E-03    -48.7066E-03     23.9461E-03    -65.2106E-03     113.989E-03    -48.5633E-03     23.4208E-03
            2253     12.8739E-03     11.6284E-03    -18.4067E+06     29.7317E+06     34.5522E+06    -432.161E+03    -64.8191E-03     112.447E-03    -47.6283E-03     23.8209E-03    -65.0863E-03     112.655E-03    -47.4719E-03     23.3249E-03
            2254     12.0304E-03     11.5928E-03    -21.7956E+06     3.24631E+06     29.7144E+06     354.742E+03    -63.8288E-03     110.269E-03    -46.4405E-03     22.5117E-03    -64.0590E-03     110.348E-03    -46.2650E-03     22.0636E-03
            2255     11.1857E-03     11.5575E-03    -25.3720E+06    -18.7843E+06     22.8386E+06     1.12498E+06    -62.0112E-03     107.170E-03    -45.1589E-03     20.1637E-03    -62.2057E-03     107.142E-03    -44.9807E-03     19.7766E-03
            2256     10.3391E-03     11.5242E-03    -29.0730E+06    -40.3623E+06     16.9215E+06     1.83067E+06    -59.5590E-03     103.404E-03    -43.8446E-03     17.2772E-03    -59.7192E-03     103.269E-03    -43.6593E-03     16.9581E-03
            2257     9.49025E-03     11.4935E-03    -32.9644E+06    -58.8734E+06     10.6815E+06     2.48879E+06    -56.7060E-03     99.2301E-03    -42.5241E-03     14.4360E-03    -56.8376E-03     99.0053E-03    -42.3376E-03     14.1856E-03
            2258     8.63885E-03     11.4657E-03    -36.9642E+06    -78.5791E+06     4.53667E+06     3.14296E+06    -53.6616E-03     94.8972E-03    -41.2355E-03     11.9025E-03    -53.7656E-03     94.5782E-03    -41.0453E-03     11.7167E-03
            2259     7.78478E-03     11.4406E-03    -41.0295E+06    -94.3931E+06    -1.04187E+06     3.54015E+06    -50.5636E-03     90.5614E-03    -39.9978E-03     9.79426E-03    -50.6489E-03     90.1693E-03    -39.8067E-03     9.66300E-03
            2260     6.92803E-03     11.4183E-03    -45.3127E+06    -110.342E+06    -6.25507E+06     4.11150E+06    -47.5377E-03     86.3733E-03    -38.8356E-03     8.05058E-03    -47.6079E-03     85.9093E-03    -38.6412E-03     7.96773E-03
            2261     6.06869E-03     11.3986E-03    -49.8666E+06    -122.363E+06    -13.5201E+06     4.67107E+06    -44.6595E-03     82.4069E-03    -37.7474E-03     6.64679E-03    -44.7203E-03     81.8956E-03    -37.5652E-03     6.60440E-03
            2262     5.20691E-03     11.3814E-03    -54.4054E+06    -130.542E+06    -23.0746E+06     4.43670E+06    -42.0005E-03     78.7467E-03    -36.7462E-03     5.49839E-03    -42.0553E-03     78.2119E-03    -36.5934E-03     5.47931E-03
            2263     4.34289E-03     11.3667E-03    -58.5329E+06    -137.177E+06    -33.2839E+06     3.61787E+06    -39.6184E-03     75.4752E-03    -35.8567E-03     4.52155E-03    -39.6674E-03     74.9258E-03    -35.7394E-03     4.51255E-03
            2264     3.47690E-03     11.3543E-03    -62.0283E+06    -144.327E+06    -44.6447E+06     2.86375E+06    -37.5681E-03     72.6609E-03    -35.0928E-03     3.63512E-03    -37.6063E-03     72.0959E-03    -35.0168E-03     3.63249E-03
            2265     2.60921E-03     11.3445E-03    -65.1479E+06    -152.702E+06    -54.5365E+06     2.53808E+06    -35.9088E-03     70.3901E-03    -34.4813E-03     2.78474E-03    -35.9353E-03     69.8011E-03    -34.4381E-03     2.79062E-03
            2266     1.74022E-03     11.3373E-03    -67.8783E+06    -159.424E+06    -61.8059E+06     2.25183E+06    -34.6870E-03     68.7176E-03    -34.0305E-03     1.92218E-03    -34.7063E-03     68.1088E-03    -34.0100E-03     1.93453E-03
            2267     870.370E-06     11.3326E-03    -69.5159E+06    -162.739E+06    -67.4696E+06     1.31051E+06    -33.9550E-03     67.6504E-03    -33.6954E-03     1.05800E-03    -33.9691E-03     67.0353E-03    -33.6960E-03     1.06630E-03
            2268     16.2518E-03     10.6746E-03    -4.15681E+06     107.875E+06     76.7332E+06    -494.644E+03    -63.9902E-03     115.070E-03    -51.0802E-03     9.77550E-03    -64.3284E-03     115.554E-03    -50.8469E-03     9.33493E-03
            2269     15.4085E-03     10.6563E-03    -8.14978E+06     104.283E+06     64.0739E+06    -950.943E+03    -65.5638E-03     115.805E-03    -50.2413E-03     18.1403E-03    -65.9266E-03     116.323E-03    -50.0603E-03     17.5954E-03
            2270     14.5665E-03     10.6300E-03    -11.8480E+06     96.5822E+06     54.0464E+06    -1.42849E+06    -66.7458E-03     115.997E-03    -49.2510E-03     21.9310E-03    -67.1079E-03     116.503E-03    -49.1036E-03     21.3763E-03
            2271     13.7252E-03     10.5992E-03    -15.4198E+06     71.9442E+06     44.9694E+06    -1.44353E+06    -67.1977E-03     115.321E-03    -48.1229E-03     22.8031E-03    -67.5300E-03     115.723E-03    -47.9800E-03     22.2523E-03
            2272     12.8840E-03     10.5666E-03    -18.9007E+06     28.7975E+06     34.1068E+06    -602.461E+03    -66.7388E-03     113.606E-03    -46.8670E-03     21.8329E-03    -67.0045E-03     113.808E-03    -46.7108E-03     21.3210E-03
            2273     12.0420E-03     10.5338E-03    -22.4659E+06     2.62399E+06     29.4579E+06     335.998E+03    -65.1869E-03     110.698E-03    -45.5107E-03     19.8969E-03    -65.4159E-03     110.771E-03    -45.3346E-03     19.4436E-03
            2274     11.1982E-03     10.5024E-03    -26.0957E+06    -19.1208E+06     22.8228E+06     972.927E+03    -62.7660E-03     106.845E-03    -44.0792E-03     17.2735E-03    -62.9597E-03     106.813E-03    -43.8995E-03     16.8867E-03
            2275     10.3521E-03     10.4736E-03    -29.6221E+06    -40.7199E+06     17.1821E+06     1.60180E+06    -59.7597E-03     102.398E-03    -42.6385E-03     14.4791E-03    -59.9191E-03     102.259E-03    -42.4506E-03     14.1635E-03
            2276     9.50327E-03     10.4476E-03    -33.2951E+06    -59.2465E+06     11.3842E+06     2.40293E+06    -56.4396E-03     97.6555E-03    -41.2160E-03     11.9881E-03    -56.5709E-03     97.4258E-03    -41.0249E-03     11.7448E-03
            2277     8.65149E-03     10.4247E-03    -37.1575E+06    -78.2169E+06     6.00849E+06     2.80200E+06    -53.0186E-03     92.8662E-03    -39.8477E-03     9.95981E-03    -53.1247E-03     92.5458E-03    -39.6504E-03     9.77748E-03
            2278     7.79671E-03     10.4044E-03    -41.0215E+06    -94.0606E+06     992.140E+03     2.86941E+06    -49.6308E-03     88.1801E-03    -38.5493E-03     8.41977E-03    -49.7189E-03     87.7861E-03    -38.3485E-03     8.28643E-03
            2279     6.93904E-03     10.3867E-03    -45.1435E+06    -110.604E+06    -4.15274E+06     3.41641E+06    -46.3988E-03     83.7389E-03    -37.3401E-03     7.21871E-03    -46.4707E-03     83.2702E-03    -37.1350E-03     7.13187E-03
            2280     6.07861E-03     10.3713E-03    -49.4545E+06    -121.484E+06    -11.9776E+06     3.68416E+06    -43.3810E-03     79.5909E-03    -36.2099E-03     6.28886E-03    -43.4433E-03     79.0814E-03    -36.0220E-03     6.23722E-03
            2281     5.21562E-03     10.3580E-03    -53.2811E+06    -128.630E+06    -22.3905E+06     2.94411E+06    -40.6279E-03     75.7995E-03    -35.1716E-03     5.51430E-03    -40.6810E-03     75.2719E-03    -35.0198E-03     5.47819E-03
            2282     4.35033E-03     10.3467E-03    -56.3888E+06    -135.399E+06    -33.3663E+06     1.87102E+06    -38.1786E-03     72.4290E-03    -34.2504E-03     4.78916E-03    -38.2195E-03     71.8860E-03    -34.1392E-03     4.75892E-03
            2283     3.48297E-03     10.3373E-03    -59.1197E+06    -143.372E+06    -42.9957E+06     1.41279E+06    -36.0807E-03     69.5497E-03    -33.4689E-03     4.02611E-03    -36.1083E-03     68.9831E-03    -33.3903E-03     4.00546E-03
            2284     2.61388E-03     10.3299E-03    -61.5784E+06    -151.705E+06    -49.6228E+06     1.32127E+06    -34.3732E-03     67.2156E-03    -32.8424E-03     3.18574E-03    -34.3904E-03     66.6195E-03    -32.7812E-03     3.17624E-03
            2285     1.74347E-03     10.3244E-03    -63.5245E+06    -157.614E+06    -56.1228E+06     707.918E+03    -33.0795E-03     65.4397E-03    -32.3601E-03     2.24698E-03    -33.0878E-03     64.8256E-03    -32.3201E-03     2.23952E-03
            2286     872.023E-06     10.3211E-03    -64.8908E+06    -161.070E+06    -62.4085E+06     194.213E+03    -32.2712E-03     64.2697E-03    -31.9985E-03     1.25815E-03    -32.2718E-03     63.6491E-03    -31.9829E-03     1.25207E-03
            2287     16.2536E-03     9.60901E-03    -4.10241E+06     108.532E+06     77.5279E+06    -469.644E+03    -66.2214E-03     117.192E-03    -50.9706E-03     10.7904E-03    -66.5651E-03     117.681E-03    -50.7344E-03     10.3238E-03
            2288     15.4123E-03     9.58985E-03    -8.18971E+06     104.864E+06     64.5777E+06    -1.07517E+06    -67.9284E-03     117.927E-03    -49.9985E-03     18.7992E-03    -68.2974E-03     118.452E-03    -49.8157E-03     18.2221E-03
            2289     14.5723E-03     9.56352E-03    -12.0118E+06     97.0087E+06     54.2581E+06    -1.56983E+06    -69.0635E-03     117.921E-03    -48.8575E-03     21.8204E-03    -69.4305E-03     118.432E-03    -48.7095E-03     21.2361E-03
            2290     13.7330E-03     9.53378E-03    -15.8333E+06     71.4161E+06     44.7886E+06    -1.40606E+06    -69.1857E-03     116.759E-03    -47.5729E-03     21.8303E-03    -69.5205E-03     117.161E-03    -47.4296E-03     21.2587E-03
            2291     12.8934E-03     9.50355E-03    -19.6750E+06     27.6973E+06     33.7853E+06    -449.710E+03    -68.1416E-03     114.313E-03    -46.1710E-03     20.1783E-03    -68.4087E-03     114.511E-03    -46.0137E-03     19.6562E-03
            2292     12.0523E-03     9.47450E-03    -23.4549E+06     2.11253E+06     29.4894E+06     382.381E+03    -65.8905E-03     110.584E-03    -44.6939E-03     17.9435E-03    -66.1224E-03     110.656E-03    -44.5155E-03     17.4876E-03
            2293     11.2089E-03     9.44772E-03    -27.1823E+06    -19.1360E+06     23.2286E+06     751.776E+03    -62.8104E-03     105.985E-03    -43.1750E-03     15.4576E-03    -63.0088E-03     105.953E-03    -42.9917E-03     15.0711E-03
            2294     10.3627E-03     9.42408E-03    -30.8189E+06    -41.0684E+06     17.8780E+06     1.07111E+06    -59.2601E-03     100.943E-03    -41.6831E-03     13.1579E-03    -59.4252E-03     100.802E-03    -41.4895E-03     12.8417E-03
            2295     9.51321E-03     9.40349E-03    -34.1702E+06    -59.6567E+06     12.5450E+06     1.57434E+06    -55.5339E-03     95.7767E-03    -40.2429E-03     11.3672E-03    -55.6706E-03     95.5445E-03    -40.0441E-03     11.1202E-03
            2296     8.66049E-03     9.38581E-03    -37.3591E+06    -77.5570E+06     8.14088E+06     1.76995E+06    -51.8510E-03     90.7378E-03    -38.8869E-03     10.0900E-03    -51.9628E-03     90.4185E-03    -38.6795E-03     9.90051E-03
            2297     7.80461E-03     9.37063E-03    -41.0413E+06    -94.0291E+06     3.62738E+06     1.86129E+06    -48.3333E-03     85.9587E-03    -37.6254E-03     9.24149E-03    -48.4263E-03     85.5621E-03    -37.4114E-03     9.09975E-03
            2298     6.94572E-03     9.35761E-03    -45.1306E+06    -110.679E+06    -2.11320E+06     2.19698E+06    -45.0731E-03     81.5383E-03    -36.4652E-03     8.63084E-03    -45.1489E-03     81.0674E-03    -36.2498E-03     8.53141E-03
            2299     6.08408E-03     9.34651E-03    -48.7699E+06    -120.028E+06    -10.5663E+06     1.65863E+06    -42.1082E-03     77.5012E-03    -35.3930E-03     8.13940E-03    -42.1723E-03     76.9969E-03    -35.2011E-03     8.06357E-03
            2300     5.21996E-03     9.33707E-03    -51.5363E+06    -126.871E+06    -21.5619E+06     370.828E+03    -39.4670E-03     73.8882E-03    -34.4213E-03     7.61117E-03    -39.5159E-03     73.3666E-03    -34.2704E-03     7.54296E-03
            2301     4.35362E-03     9.32921E-03    -54.0586E+06    -134.652E+06    -30.7831E+06    -295.964E+03    -37.1685E-03     70.7510E-03    -33.5825E-03     6.94580E-03    -37.2032E-03     70.2052E-03    -33.4628E-03     6.88826E-03
            2302     3.48537E-03     9.32279E-03    -57.0451E+06    -143.338E+06    -37.6608E+06    -256.461E+03    -35.2366E-03     68.1204E-03    -32.8838E-03     6.06120E-03    -35.2619E-03     67.5437E-03    -32.7815E-03     6.01947E-03
            2303     2.61559E-03     9.31773E-03    -60.3574E+06    -150.993E+06    -46.2097E+06    -482.855E+03    -33.6691E-03     65.9757E-03    -32.3066E-03     4.92832E-03    -33.6863E-03     65.3767E-03    -32.2312E-03     4.89592E-03
            2304     1.74448E-03     9.31414E-03    -63.4336E+06    -157.175E+06    -56.1627E+06    -821.219E+03    -32.4899E-03     64.3499E-03    -31.8600E-03     3.54320E-03    -32.4984E-03     63.7380E-03    -31.8209E-03     3.51630E-03
            2305     872.487E-06     9.31191E-03    -65.6964E+06    -161.611E+06    -63.4153E+06    -679.719E+03    -31.7666E-03     63.3153E-03    -31.5487E-03     2.00566E-03    -31.7690E-03     62.6947E-03    -31.5362E-03     1.98850E-03
            2306     16.2552E-03     8.54122E-03    -4.01469E+06     109.243E+06     78.6352E+06    -520.655E+03    -68.3128E-03     119.183E-03    -50.8698E-03     11.8860E-03    -68.6628E-03     119.678E-03    -50.6292E-03     11.3921E-03
            2307     15.4158E-03     8.52116E-03    -8.05813E+06     105.498E+06     65.4057E+06    -1.09723E+06    -70.0497E-03     119.825E-03    -49.7756E-03     19.5083E-03    -70.4255E-03     120.357E-03    -49.5898E-03     18.9006E-03
            2308     14.5776E-03     8.49497E-03    -12.1509E+06     96.9949E+06     54.6438E+06    -1.30278E+06    -70.9146E-03     119.421E-03    -48.5064E-03     21.6601E-03    -71.2866E-03     119.936E-03    -48.3562E-03     21.0541E-03
            2309     13.7398E-03     8.46691E-03    -16.5021E+06     70.6927E+06     44.9152E+06    -786.693E+03    -70.4180E-03     117.525E-03    -47.1067E-03     20.8882E-03    -70.7570E-03     117.926E-03    -46.9607E-03     20.3094E-03
            2310     12.9010E-03     8.44003E-03    -20.7806E+06     26.8551E+06     33.9377E+06     21.3569E+03    -68.5650E-03     114.187E-03    -45.6219E-03     18.9083E-03    -68.8372E-03     114.383E-03    -45.4610E-03     18.3876E-03
            2311     12.0600E-03     8.41562E-03    -24.8075E+06     1.95584E+06     30.1475E+06     452.384E+03    -65.5147E-03     109.622E-03    -44.1078E-03     16.8924E-03    -65.7543E-03     109.694E-03    -43.9240E-03     16.4412E-03
            2312     11.2161E-03     8.39424E-03    -28.6299E+06    -18.7660E+06     24.3781E+06     373.472E+03    -61.7871E-03     104.388E-03    -42.6011E-03     15.0875E-03    -61.9955E-03     104.358E-03    -42.4105E-03     14.7047E-03
            2313     10.3688E-03     8.37634E-03    -32.0533E+06    -40.9233E+06     19.5527E+06     77.4589E+03    -57.8027E-03     98.9714E-03    -41.1687E-03     13.7392E-03    -57.9779E-03     98.8314E-03    -40.9651E-03     13.4201E-03
            2314     9.51789E-03     8.36142E-03    -34.9631E+06    -59.5555E+06     14.7912E+06    -308.470E+03    -53.8505E-03     93.6782E-03    -39.8277E-03     12.9708E-03    -53.9963E-03     93.4461E-03    -39.6167E-03     12.7085E-03
            2315     8.66364E-03     8.34914E-03    -37.6692E+06    -77.6185E+06     10.9344E+06    -261.954E+03    -50.1292E-03     88.7324E-03    -38.6031E-03     12.6121E-03    -50.2485E-03     88.4111E-03    -38.3813E-03     12.4038E-03
            2316     7.80621E-03     8.33891E-03    -40.8834E+06    -94.4818E+06     7.19510E+06     323.951E+03    -46.7348E-03     84.2328E-03    -37.4981E-03     12.4642E-03    -46.8333E-03     83.8304E-03    -37.2658E-03     12.3080E-03
            2317     6.94596E-03     8.33046E-03    -44.3107E+06    -109.792E+06     845.533E+03    -69.5881E+03    -43.7070E-03     80.2069E-03    -36.4999E-03     12.3398E-03    -43.7858E-03     79.7365E-03    -36.2722E-03     12.2149E-03
            2318     6.08316E-03     8.32332E-03    -46.9082E+06    -118.225E+06    -9.33055E+06    -1.68262E+06    -41.0475E-03     76.6412E-03    -35.5936E-03     12.0906E-03    -41.1080E-03     76.1427E-03    -35.4009E-03     11.9744E-03
            2319     5.21815E-03     8.31744E-03    -49.1805E+06    -126.420E+06    -18.7717E+06    -2.63167E+06    -38.7727E-03     73.5840E-03    -34.8113E-03     11.5319E-03    -38.8155E-03     73.0580E-03    -34.6505E-03     11.4270E-03
            2320     4.35127E-03     8.31258E-03    -52.2755E+06    -135.362E+06    -25.6558E+06    -2.36789E+06    -36.8683E-03     71.0305E-03    -34.1622E-03     10.6083E-03    -36.9010E-03     70.4716E-03    -34.0184E-03     10.5257E-03
            2321     3.48288E-03     8.30862E-03    -56.0101E+06    -143.868E+06    -34.9480E+06    -1.99572E+06    -35.3183E-03     68.9357E-03    -33.6174E-03     9.26028E-03    -35.3420E-03     68.3512E-03    -33.5024E-03     9.19752E-03
            2322     2.61319E-03     8.30564E-03    -59.7245E+06    -151.463E+06    -46.3365E+06    -1.65851E+06    -34.1183E-03     67.2951E-03    -33.1768E-03     7.47892E-03    -34.1318E-03     66.6930E-03    -33.1022E-03     7.43243E-03
            2323     1.74262E-03     8.30350E-03    -63.2143E+06    -158.106E+06    -56.4042E+06    -1.15739E+06    -33.2716E-03     66.1266E-03    -32.8550E-03     5.31789E-03    -33.2774E-03     65.5101E-03    -32.8161E-03     5.28738E-03
            2324     871.461E-06     8.30222E-03    -65.9516E+06    -163.077E+06    -63.9651E+06    -690.451E+03    -32.7715E-03     65.4138E-03    -32.6422E-03     2.98068E-03    -32.7724E-03     64.7868E-03    -32.6300E-03     2.96375E-03
            2325     16.2568E-03     7.47140E-03    -4.09407E+06     109.879E+06     79.7003E+06    -631.294E+03    -70.1785E-03     120.959E-03    -50.7802E-03     13.0381E-03    -70.5360E-03     121.461E-03    -50.5351E-03     12.5168E-03
            2326     15.4189E-03     7.45047E-03    -8.26401E+06     105.762E+06     65.9745E+06    -976.636E+03    -71.6873E-03     121.271E-03    -49.5839E-03     20.1082E-03    -72.0708E-03     121.810E-03    -49.3954E-03     19.4754E-03
            2327     14.5821E-03     7.42496E-03    -12.5755E+06     96.2186E+06     54.9440E+06    -548.935E+03    -71.8573E-03     120.088E-03    -48.2302E-03     21.3857E-03    -72.2343E-03     120.602E-03    -48.0768E-03     20.7735E-03
            2328     13.7448E-03     7.39963E-03    -17.4473E+06     69.6881E+06     45.5456E+06     545.297E+03    -70.3580E-03     117.148E-03    -46.7901E-03     20.1810E-03    -70.7029E-03     117.547E-03    -46.6382E-03     19.6180E-03
            2329     12.9056E-03     7.37713E-03    -22.5184E+06     26.9141E+06     34.8748E+06     1.03892E+06    -67.4835E-03     112.807E-03    -45.3238E-03     18.4563E-03    -67.7669E-03     113.006E-03    -45.1558E-03     17.9591E-03
            2330     12.0634E-03     7.35824E-03    -27.0090E+06     2.75490E+06     31.7125E+06     359.242E+03    -63.6201E-03     107.517E-03    -43.8965E-03     17.3359E-03    -63.8753E-03     107.594E-03    -43.7028E-03     16.9006E-03
            2331     11.2176E-03     7.34286E-03    -30.5330E+06    -17.7572E+06     26.5912E+06    -792.302E+03    -59.4092E-03     101.947E-03    -42.5380E-03     16.7981E-03    -59.6335E-03     101.924E-03    -42.3350E-03     16.4194E-03
            2332     10.3681E-03     7.33090E-03    -33.3154E+06    -40.1181E+06     22.5295E+06    -1.96017E+06    -55.2743E-03     96.5786E-03    -41.3043E-03     16.7625E-03    -55.4633E-03     96.4423E-03    -41.0852E-03     16.4349E-03
            2333     9.51506E-03     7.32158E-03    -35.8059E+06    -58.9144E+06     18.5661E+06    -3.04163E+06    -51.4441E-03     91.6424E-03    -40.1984E-03     17.1267E-03    -51.6027E-03     91.4116E-03    -39.9682E-03     16.8441E-03
            2334     8.65876E-03     7.31435E-03    -38.1798E+06    -78.5630E+06     15.0935E+06    -3.36935E+06    -48.0523E-03     87.2844E-03    -39.2320E-03     17.5904E-03    -48.1807E-03     86.9551E-03    -38.9873E-03     17.3539E-03
            2335     7.79963E-03     7.30859E-03    -40.2958E+06    -95.3639E+06     11.2116E+06    -2.97756E+06    -45.1339E-03     83.5244E-03    -38.3906E-03     17.9029E-03    -45.2356E-03     83.1125E-03    -38.1378E-03     17.7133E-03
            2336     6.93810E-03     7.30399E-03    -42.1916E+06    -108.016E+06     3.96624E+06    -3.87695E+06    -42.6724E-03     80.3219E-03    -37.6495E-03     17.8672E-03    -42.7489E-03     79.8538E-03    -37.4118E-03     17.7003E-03
            2337     6.07454E-03     7.30023E-03    -44.3312E+06    -117.391E+06    -5.92546E+06    -5.48523E+06    -40.6213E-03     77.6275E-03    -37.0062E-03     17.3788E-03    -40.6758E-03     77.1251E-03    -36.8013E-03     17.2189E-03
            2338     5.20931E-03     7.29709E-03    -47.0906E+06    -128.077E+06    -14.6063E+06    -5.37515E+06    -38.9613E-03     75.4401E-03    -36.4788E-03     16.3169E-03    -38.9978E-03     74.8970E-03    -36.2978E-03     16.1807E-03
            2339     4.34281E-03     7.29446E-03    -50.4743E+06    -137.236E+06    -24.3020E+06    -4.21755E+06    -37.6457E-03     73.6889E-03    -36.0431E-03     14.6837E-03    -37.6691E-03     73.1160E-03    -35.8925E-03     14.5801E-03
            2340     3.47524E-03     7.29236E-03    -54.2644E+06    -145.549E+06    -36.1697E+06    -3.05945E+06    -36.6396E-03     72.3260E-03    -35.6865E-03     12.5034E-03    -36.6506E-03     71.7322E-03    -35.5776E-03     12.4289E-03
            2341     2.60698E-03     7.29069E-03    -58.1677E+06    -153.295E+06    -47.3106E+06    -1.84765E+06    -35.9168E-03     71.3317E-03    -35.4149E-03     9.85013E-03    -35.9187E-03     70.7195E-03    -35.3448E-03     9.80228E-03
            2342     1.73823E-03     7.28948E-03    -61.6082E+06    -159.616E+06    -56.5857E+06    -682.146E+03    -35.4368E-03     70.6594E-03    -35.2226E-03     6.85661E-03    -35.4324E-03     70.0331E-03    -35.1848E-03     6.83274E-03
            2343     869.188E-06     7.28873E-03    -64.1736E+06    -163.924E+06    -62.9117E+06     40.7241E+03    -35.1612E-03     70.2655E-03    -35.1043E-03     3.79190E-03    -35.1538E-03     69.6301E-03    -35.0881E-03     3.78461E-03
            2344     16.2581E-03     6.39965E-03    -4.00069E+06     110.268E+06     80.3252E+06    -610.042E+03    -71.6167E-03     122.327E-03    -50.7100E-03     14.1019E-03    -71.9798E-03     122.834E-03    -50.4625E-03     13.5597E-03
            2345     15.4215E-03     6.37834E-03    -8.42949E+06     105.350E+06     66.2970E+06    -427.615E+03    -72.3428E-03     121.796E-03    -49.4536E-03     20.6505E-03    -72.7318E-03     122.337E-03    -49.2626E-03     20.0115E-03
            2346     14.5849E-03     6.35477E-03    -13.7261E+06     93.9777E+06     55.2521E+06     1.16574E+06    -71.2663E-03     119.362E-03    -48.0954E-03     21.3012E-03    -71.6489E-03     119.869E-03    -47.9355E-03     20.7146E-03
            2347     13.7466E-03     6.33343E-03    -20.0388E+06     68.6818E+06     46.6112E+06     3.05329E+06    -68.3665E-03     115.097E-03    -46.7308E-03     20.3494E-03    -68.7257E-03     115.495E-03    -46.5682E-03     19.8401E-03
            2348     12.9054E-03     6.31648E-03    -25.7590E+06     29.4252E+06     37.1826E+06     1.95305E+06    -64.3960E-03     109.824E-03    -45.4279E-03     19.7604E-03    -64.7034E-03     110.037E-03    -45.2473E-03     19.3073E-03
            2349     12.0603E-03     6.30377E-03    -29.4884E+06     5.09839E+06      35.183E+06    -1.00947E+06    -59.9668E-03     104.214E-03    -44.2472E-03     20.2422E-03    -60.2437E-03     104.303E-03    -44.0360E-03     19.8249E-03
            2350     11.2112E-03     6.29448E-03    -31.9948E+06    -16.1156E+06      30.791E+06    -3.35881E+06    -55.7168E-03     98.9092E-03    -43.1924E-03     21.3050E-03    -55.9577E-03     98.8908E-03    -42.9687E-03     20.9273E-03
            2351     10.3585E-03     6.28810E-03    -34.1264E+06    -38.9109E+06     27.4558E+06     -5.2558E+06    -51.9624E-03     94.2595E-03    -42.2970E-03     22.5170E-03    -52.1651E-03     94.1239E-03    -42.0538E-03     22.1765E-03
            2352     9.50266E-03     6.28367E-03    -36.1077E+06    -58.3638E+06     24.2629E+06    -6.79915E+06    -48.7972E-03     90.3399E-03    -41.5427E-03     23.6254E-03    -48.9668E-03     90.1044E-03    -41.2844E-03     23.3186E-03
            2353     8.64426E-03     6.28058E-03    -37.8360E+06    -79.3764E+06     21.0899E+06    -7.87666E+06    -46.2326E-03     87.1539E-03    -40.9213E-03     24.2959E-03    -46.3669E-03     86.8113E-03    -40.6459E-03     24.0203E-03
            2354     7.78377E-03     6.27826E-03    -38.7825E+06    -96.3320E+06     14.2129E+06    -8.57039E+06    -44.1936E-03     84.5820E-03    -40.3884E-03     24.3504E-03    -44.2906E-03     84.1583E-03    -40.1215E-03     24.1032E-03
            2355     6.92168E-03     6.27642E-03    -39.3487E+06    -107.815E+06     3.73802E+06    -8.88344E+06    -42.6021E-03     82.5294E-03    -39.9272E-03     23.6839E-03    -42.6641E-03     82.0580E-03    -39.6952E-03     23.4629E-03
            2356     6.05836E-03     6.27492E-03    -41.2424E+06    -118.869E+06    -4.65770E+06    -8.50377E+06    -41.3735E-03     80.9344E-03    -39.5608E-03     22.3311E-03    -41.4121E-03     80.4177E-03    -39.3520E-03     22.1394E-03
            2357     5.19416E-03     6.27354E-03    -44.6676E+06    -131.187E+06    -14.4963E+06    -7.34557E+06    -40.4379E-03     79.6995E-03    -39.2616E-03     20.3261E-03    -40.4579E-03     79.1366E-03    -39.0791E-03     20.1691E-03
            2358     4.32923E-03     6.27232E-03    -48.3350E+06    -140.620E+06    -27.2143E+06    -5.40359E+06    -39.7380E-03     78.7423E-03    -39.0042E-03     17.7392E-03    -39.7416E-03     78.1532E-03    -38.8663E-03     17.6228E-03
            2359     3.46387E-03     6.27120E-03    -51.9719E+06    -148.770E+06    -38.5195E+06    -2.98288E+06    -39.2315E-03     78.0348E-03    -38.8033E-03     14.6999E-03    -39.2231E-03     77.4246E-03    -38.7048E-03     14.6274E-03
            2360     2.59816E-03     6.27026E-03    -55.6646E+06    -155.602E+06    -48.1831E+06    -887.993E+03    -38.8774E-03     77.5293E-03    -38.6519E-03     11.3361E-03    -38.8623E-03     76.9029E-03    -38.5865E-03     11.3009E-03
            2361     1.73223E-03     6.26954E-03    -58.8000E+06    -160.741E+06    -55.5217E+06     264.205E+03    -38.6431E-03     77.1886E-03    -38.5455E-03     7.77125E-03    -38.6248E-03     76.5508E-03    -38.5048E-03     7.75950E-03
            2362     866.143E-06     6.26905E-03    -60.5079E+06    -163.518E+06    -59.6675E+06     571.915E+03    -38.5024E-03     76.9884E-03    -38.4860E-03     4.25678E-03    -38.4821E-03     76.3448E-03    -38.4595E-03     4.25622E-03
            2363     16.2590E-03     5.32677E-03    -4.32584E+06     109.946E+06     80.6824E+06    -246.645E+03    -72.0624E-03     122.763E-03    -50.7004E-03     15.2247E-03    -72.4309E-03     123.272E-03    -50.4501E-03     14.6813E-03
            2364     15.4222E-03     5.30612E-03    -9.78953E+06     103.389E+06     66.7459E+06     1.33921E+06    -71.1942E-03     120.662E-03    -49.4680E-03     21.7182E-03    -71.5914E-03     121.198E-03    -49.2700E-03     21.1160E-03
            2365     14.5843E-03     5.28618E-03    -16.7931E+06     89.9388E+06     55.8329E+06     4.74572E+06    -68.3190E-03     116.555E-03    -48.2356E-03     22.4059E-03    -68.7135E-03     117.048E-03    -48.0625E-03     21.9003E-03
            2366     13.7430E-03     5.27059E-03    -23.9247E+06     70.3059E+06     49.8326E+06     5.58351E+06    -63.8949E-03     111.007E-03    -47.1118E-03     22.8490E-03    -64.2806E-03     111.413E-03    -46.9299E-03     22.4253E-03
            2367     12.8974E-03     5.25998E-03    -28.2999E+06     35.9832E+06     42.9044E+06     525.111E+03    -59.2445E-03     105.393E-03    -46.1480E-03     24.2197E-03    -59.5813E-03     105.633E-03    -45.9447E-03     23.8073E-03
            2368     12.0476E-03     5.25343E-03    -30.2208E+06     8.05510E+06     41.0089E+06    -4.64162E+06    -55.0089E-03     100.378E-03    -45.3690E-03     26.3570E-03    -55.2999E-03     100.472E-03    -45.1319E-03     25.9495E-03
            2369     11.1942E-03     5.24947E-03    -31.6402E+06    -14.1720E+06     36.9181E+06    -7.46919E+06    -51.5344E-03     96.2717E-03    -44.7372E-03     28.4449E-03    -51.7821E-03     96.2505E-03    -44.4862E-03     28.0641E-03
            2370     10.3381E-03     5.24742E-03    -32.9401E+06    -37.8505E+06     33.2713E+06    -9.91588E+06    -48.9100E-03     93.1627E-03    -44.2527E-03     29.8956E-03    -49.1133E-03     93.0188E-03    -43.9837E-03     29.5362E-03
            2371     9.47989E-03     5.24641E-03    -34.0767E+06    -58.1931E+06     29.2155E+06    -11.7872E+06    -46.9991E-03     90.8735E-03    -43.8744E-03     30.5622E-03    -47.1627E-03     90.6251E-03    -43.5946E-03     30.2231E-03
            2372     8.62031E-03     5.24590E-03    -35.1146E+06    -79.7952E+06     23.9432E+06    -13.4874E+06    -45.6486E-03     89.2266E-03    -43.5780E-03     30.3386E-03    -45.7700E-03     88.8706E-03    -43.2917E-03     30.0141E-03
            2373     7.75982E-03     5.24558E-03    -36.0784E+06    -97.8291E+06     13.1837E+06    -14.5095E+06    -44.6948E-03     88.0084E-03    -43.3136E-03     29.2684E-03    -44.7724E-03     87.5721E-03    -43.0536E-03     28.9608E-03
            2374     6.89864E-03     5.24526E-03    -37.2145E+06    -111.481E+06    -1.42862E+06    -13.3446E+06    -44.0143E-03     87.0874E-03    -43.0731E-03     27.4416E-03    -44.0513E-03     86.6000E-03    -42.8647E-03     27.1735E-03
            2375     6.03703E-03     5.24483E-03    -39.0820E+06    -123.224E+06    -12.7928E+06    -10.3759E+06    -43.5205E-03     86.4055E-03    -42.8850E-03     25.0251E-03    -43.5291E-03     85.8742E-03    -42.7136E-03     24.8155E-03
            2376     5.17509E-03     5.24433E-03    -42.2853E+06    -135.279E+06    -21.3988E+06    -7.62065E+06    -43.1631E-03     85.9049E-03    -42.7418E-03     22.1537E-03    -43.1546E-03     85.3272E-03    -42.5914E-03     21.9962E-03
            2377     4.31297E-03     5.24375E-03    -46.4591E+06    -145.348E+06    -30.8479E+06    -4.90584E+06    -42.8936E-03     85.5084E-03    -42.6149E-03     18.9191E-03    -42.8753E-03     84.8976E-03    -42.4910E-03     18.8103E-03
            2378     3.45062E-03     5.24315E-03    -50.4023E+06    -152.624E+06    -40.5336E+06    -2.02539E+06    -42.6794E-03     85.1805E-03    -42.5010E-03     15.4220E-03    -42.6546E-03     84.5512E-03    -42.4093E-03     15.3619E-03
            2379     2.58810E-03     5.24258E-03    -53.2493E+06    -157.684E+06    -47.7741E+06     64.9600E+03    -42.5147E-03     84.9271E-03    -42.4124E-03     11.7567E-03    -42.4851E-03     84.2860E-03    -42.3454E-03     11.7335E-03
            2380     1.72547E-03     5.24209E-03    -55.0464E+06    -160.584E+06    -52.1302E+06     808.352E+03    -42.3978E-03     84.7476E-03    -42.3498E-03     8.00019E-03    -42.3659E-03     84.1001E-03    -42.2978E-03     7.99509E-03
            2381     862.775E-06     5.24180E-03    -56.2825E+06    -162.577E+06    -54.9946E+06     279.505E+03    -42.3105E-03     84.6271E-03    -42.3166E-03     4.36400E-03    -42.2773E-03     83.9752E-03    -42.2743E-03     4.35936E-03
            2382     16.2578E-03     4.25407E-03    -4.79953E+06     108.161E+06     80.5263E+06     1.07647E+06    -70.3557E-03     121.222E-03    -50.8661E-03     17.5389E-03    -70.7262E-03     121.726E-03    -50.6134E-03     17.0399E-03
            2383     15.4192E-03     4.23609E-03    -11.3021E+06     99.1870E+06     67.4039E+06     4.39591E+06    -67.2391E-03     117.047E-03    -49.8075E-03     25.0914E-03    -67.6407E-03     117.565E-03    -49.5979E-03     24.5876E-03
            2384     14.5770E-03     4.22206E-03    -17.8033E+06     86.8079E+06     57.6813E+06     7.69204E+06    -62.5585E-03     111.437E-03    -48.8781E-03     26.8090E-03    -62.9555E-03     111.912E-03    -48.6897E-03     26.4183E-03
            2385     13.7298E-03     4.21346E-03    -22.3806E+06     76.8211E+06     55.5329E+06     5.28300E+06    -57.4538E-03     105.620E-03    -48.1659E-03     29.1029E-03    -57.8449E-03     106.044E-03    -47.9672E-03     28.7600E-03
            2386     12.8781E-03     4.20884E-03    -25.4119E+06     45.2003E+06     49.9611E+06    -2.79601E+06    -53.3631E-03     101.032E-03    -47.6686E-03     31.7759E-03    -53.7015E-03     101.296E-03    -47.4475E-03     31.4014E-03
            2387     12.0231E-03     4.20708E-03    -27.6565E+06     10.8067E+06     44.8444E+06    -9.20537E+06    -50.5212E-03     97.8664E-03    -47.3452E-03     33.9822E-03    -50.7998E-03     97.9559E-03    -47.0966E-03     33.5857E-03
            2388     11.1661E-03     4.20653E-03    -28.8626E+06    -12.2769E+06     38.1723E+06    -12.6767E+06    -48.7024E-03     95.8213E-03    -47.1190E-03     35.1855E-03    -48.9315E-03     95.7941E-03    -46.8684E-03     34.7943E-03
            2389     10.3080E-03     4.20672E-03    -29.2618E+06    -37.4347E+06     30.7284E+06    -15.4473E+06    -47.6820E-03     94.6533E-03    -46.9713E-03     35.1817E-03    -47.8556E-03     94.5010E-03    -46.7209E-03     34.7945E-03
            2390     9.44943E-03     4.20713E-03    -29.6419E+06    -58.9999E+06     22.1546E+06    -16.9945E+06    -47.1517E-03     94.0116E-03    -46.8599E-03     34.2363E-03    -47.2749E-03     93.7556E-03    -46.6206E-03     33.8615E-03
            2391     8.59068E-03     4.20758E-03    -30.9204E+06    -81.1463E+06     12.5255E+06    -17.7723E+06    -46.8993E-03     93.6696E-03    -46.7703E-03     32.5454E-03    -46.9761E-03     93.3116E-03    -46.5451E-03     32.1873E-03
            2392     7.73186E-03     4.20791E-03    -33.5777E+06    -101.239E+06     1.35662E+06    -17.3679E+06    -46.7780E-03     93.4615E-03    -46.6835E-03     30.2851E-03    -46.8173E-03     93.0175E-03    -46.4813E-03     29.9546E-03
            2393     6.87306E-03     4.20809E-03    -36.9702E+06    -117.898E+06    -11.0616E+06    -14.9130E+06    -46.7015E-03     93.2930E-03    -46.5915E-03     27.6097E-03    -46.7113E-03     92.7842E-03    -46.4223E-03     27.3301E-03
            2394     6.01418E-03     4.20811E-03    -40.2094E+06    -130.346E+06    -23.1608E+06    -10.5885E+06    -46.6256E-03     93.1236E-03    -46.4979E-03     24.6320E-03    -46.6128E-03     92.5714E-03    -46.3664E-03     24.4247E-03
            2395     5.15524E-03     4.20789E-03    -43.3745E+06    -140.386E+06    -32.1935E+06    -6.27816E+06    -46.5454E-03     92.9651E-03    -46.4196E-03     21.4560E-03    -46.5182E-03     92.3777E-03    -46.3141E-03     21.3186E-03
            2396     4.29621E-03     4.20758E-03    -46.6075E+06    -149.885E+06    -37.3247E+06    -3.32767E+06    -46.4716E-03     92.8347E-03    -46.3631E-03     18.1337E-03    -46.4374E-03     92.2101E-03    -46.2648E-03     18.0467E-03
            2397     3.43713E-03     4.20726E-03    -49.3894E+06    -155.840E+06    -41.4873E+06    -1.11234E+06    -46.3929E-03     92.7009E-03    -46.3080E-03     14.6848E-03    -46.3565E-03     92.0551E-03    -46.2179E-03     14.6372E-03
            2398     2.57797E-03     4.20689E-03    -51.5735E+06    -159.103E+06    -46.0573E+06     317.323E+03    -46.3072E-03     92.5575E-03    -46.2503E-03     11.1436E-03    -46.2693E-03     91.9041E-03    -46.1751E-03     11.1239E-03
            2399     1.71870E-03     4.20660E-03    -53.1014E+06    -159.778E+06    -50.8919E+06     808.603E+03    -46.2234E-03     92.4192E-03    -46.1957E-03     7.56107E-03    -46.1846E-03     91.7710E-03    -46.1415E-03     7.55605E-03
            2400     859.367E-06     4.20636E-03    -53.8101E+06    -161.622E+06    -53.9355E+06     312.955E+03    -46.1553E-03     92.3372E-03    -46.1819E-03     4.11979E-03    -46.1126E-03     91.6850E-03    -46.1392E-03     4.11562E-03
            2401     16.2507E-03     3.18421E-03    -5.80777E+06     105.193E+06     78.5362E+06     3.37173E+06    -65.1139E-03     116.553E-03    -51.4390E-03     23.5322E-03    -65.4845E-03     117.049E-03    -51.1904E-03     23.1342E-03
            2402     15.4064E-03     3.17171E-03    -11.4858E+06     95.7654E+06     68.2412E+06     5.56883E+06    -60.5318E-03     111.282E-03    -50.7499E-03     32.4676E-03    -60.9302E-03     111.783E-03    -50.5309E-03     32.0765E-03
            2403     14.5571E-03     3.16496E-03    -13.7950E+06     87.4062E+06     61.0566E+06     5.64398E+06    -55.6070E-03     105.873E-03    -50.2660E-03     34.6051E-03    -55.9814E-03     106.333E-03    -50.0674E-03     34.2905E-03
            2404     13.7033E-03     3.16235E-03    -15.0504E+06     84.2253E+06     56.0053E+06     2.47191E+06    -51.7773E-03     101.769E-03    -49.9915E-03     36.7413E-03    -52.1284E-03     102.204E-03    -49.8117E-03     36.4594E-03
            2405     12.8467E-03     3.16163E-03    -18.1753E+06     54.2968E+06     45.1744E+06    -4.54298E+06    -49.7254E-03     99.6120E-03    -49.8865E-03     37.9022E-03    -50.0171E-03     99.9012E-03    -49.7130E-03     37.5885E-03
            2406     11.9892E-03     3.16177E-03    -21.5501E+06     14.6728E+06     34.3750E+06    -12.1878E+06    -48.9410E-03     98.8245E-03    -49.8834E-03     37.6954E-03    -49.1636E-03     98.9228E-03    -49.7016E-03     37.3270E-03
            2407     11.1317E-03     3.16218E-03    -23.4075E+06    -10.9104E+06     22.1308E+06    -16.7285E+06    -48.7741E-03     98.6630E-03    -49.8889E-03     36.4506E-03    -48.9410E-03     98.6435E-03    -49.7285E-03     36.0578E-03
            2408     10.2746E-03     3.16258E-03    -24.8175E+06    -38.0792E+06     9.98232E+06    -18.9779E+06    -48.9265E-03     98.8337E-03    -49.9072E-03     34.4973E-03    -49.0357E-03     98.6901E-03    -49.7661E-03     34.1025E-03
            2409     9.41780E-03     3.16307E-03    -26.9891E+06    -62.0065E+06    -1.20093E+06    -19.0735E+06    -49.1913E-03     99.1131E-03    -49.9218E-03     32.1480E-03    -49.2544E-03     98.8631E-03    -49.7988E-03     31.7742E-03
            2410     8.56129E-03     3.16342E-03    -30.4161E+06    -84.7782E+06    -11.4604E+06    -17.6459E+06    -49.4539E-03     99.3827E-03    -49.9288E-03     29.6043E-03    -49.4815E-03     99.0339E-03    -49.8191E-03     29.2681E-03
            2411     7.70507E-03     3.16376E-03    -34.9401E+06    -106.432E+06    -19.3588E+06    -15.6125E+06    -49.6685E-03     99.6014E-03    -49.9329E-03     26.9403E-03    -49.6722E-03     99.1586E-03    -49.8247E-03     26.6473E-03
            2412     6.84894E-03     3.16395E-03    -39.7809E+06    -124.576E+06    -25.5826E+06    -12.8025E+06    -49.8133E-03     99.7399E-03    -49.9266E-03     24.2014E-03    -49.8030E-03     99.2195E-03    -49.8162E-03     23.9598E-03
            2413     5.99296E-03     3.16405E-03    -44.0360E+06    -138.253E+06    -31.9093E+06    -8.90054E+06    -49.8860E-03     99.7870E-03    -49.9009E-03     21.3872E-03    -49.8657E-03     99.2112E-03    -49.7962E-03     21.2096E-03
            2414     5.13696E-03     3.16403E-03    -47.2185E+06    -146.232E+06    -39.5758E+06    -4.48043E+06    -49.8924E-03     99.7447E-03    -49.8523E-03     18.5025E-03    -49.8635E-03     99.1429E-03    -49.7696E-03     18.3942E-03
            2415     4.28090E-03     3.16385E-03    -49.7789E+06    -153.022E+06    -44.9989E+06    -1.58186E+06    -49.8683E-03     99.6784E-03    -49.8101E-03     15.5609E-03    -49.8330E-03     99.0528E-03    -49.7410E-03     15.5008E-03
            2416     3.42482E-03     3.16361E-03      -52.03E+06    -157.812E+06    -47.6101E+06    -350.614E+03    -49.8321E-03     99.6101E-03    -49.7780E-03     12.5701E-03    -49.7964E-03     98.9667E-03    -49.7118E-03     12.5355E-03
            2417     2.56869E-03     3.16342E-03    -53.6477E+06    -159.779E+06    -50.1208E+06     377.147E+03    -49.7816E-03     99.5236E-03    -49.7421E-03     9.52898E-03    -49.7467E-03     98.8756E-03    -49.6832E-03     9.51216E-03
            2418     1.71252E-03     3.16325E-03    -54.5357E+06    -159.371E+06    -53.3024E+06     695.711E+03    -49.7230E-03     99.4268E-03    -49.7038E-03     6.46205E-03    -49.6881E-03     98.7862E-03    -49.6601E-03     6.45690E-03
            2419     856.247E-06     3.16318E-03    -54.7751E+06    -160.350E+06    -55.1994E+06     995.820E+03    -49.6650E-03     99.3728E-03    -49.7078E-03     3.51717E-03    -49.6269E-03     98.7302E-03    -49.6719E-03     3.52257E-03
            2420     16.2304E-03     2.12111E-03    -5.60077E+06     102.757E+06     77.2215E+06     4.79410E+06    -57.6294E-03     110.316E-03    -52.6866E-03     33.5634E-03    -57.9939E-03     110.803E-03    -52.4414E-03     33.2739E-03
            2421     15.3788E-03     2.11454E-03    -9.32018E+06     97.1863E+06     68.8612E+06     3.47835E+06    -54.5012E-03     106.932E-03    -52.4304E-03     39.7779E-03    -54.8773E-03     107.421E-03    -52.2135E-03     39.4659E-03
            2422     14.5238E-03     2.11332E-03    -10.1453E+06     90.4110E+06     58.2861E+06     293.944E+03    -51.6622E-03     103.968E-03    -52.3054E-03     39.1043E-03    -51.9933E-03     104.415E-03    -52.1304E-03     38.8270E-03
            2423     13.6671E-03     2.11322E-03    -9.95128E+06     86.2222E+06     43.9704E+06    -870.730E+03    -50.4778E-03     102.748E-03    -52.2699E-03     37.8660E-03    -50.7627E-03     103.176E-03    -52.1606E-03     37.6329E-03
            2424     12.8108E-03     2.11313E-03    -11.5642E+06     61.5504E+06     22.5108E+06    -3.74843E+06    -50.4015E-03     102.682E-03    -52.2801E-03     35.4451E-03    -50.6146E-03     103.006E-03    -52.2400E-03     35.2162E-03
            2425     11.9552E-03     2.11292E-03    -15.4673E+06     21.1008E+06     5.52723E+06    -11.1603E+06    -50.7438E-03     103.091E-03    -52.3474E-03     32.6719E-03    -50.8845E-03     103.235E-03    -52.3280E-03     32.3764E-03
            2426     11.1001E-03     2.11292E-03    -19.7489E+06    -10.7002E+06    -7.55870E+06    -16.0908E+06    -51.1664E-03     103.580E-03    -52.4136E-03     29.8702E-03    -51.2572E-03     103.584E-03    -52.4073E-03     29.5334E-03
            2427     10.2455E-03     2.11293E-03    -24.3138E+06    -40.2149E+06    -19.3047E+06    -16.7347E+06    -51.5551E-03     104.025E-03    -52.4696E-03     27.2003E-03    -51.6045E-03     103.900E-03    -52.4726E-03     26.8734E-03
            2428     9.39115E-03     2.11299E-03    -29.5433E+06    -66.6789E+06    -27.3603E+06    -15.5238E+06    -51.8878E-03     104.413E-03    -52.5256E-03     24.6788E-03    -51.9100E-03     104.173E-03    -52.5228E-03     24.3831E-03
            2429     8.53709E-03     2.11315E-03    -34.7015E+06    -89.8985E+06    -33.6579E+06    -13.1887E+06    -52.1612E-03     104.731E-03    -52.5703E-03     22.3214E-03    -52.1638E-03     104.389E-03    -52.5579E-03     22.0694E-03
            2430     7.68317E-03     2.11326E-03    -39.4756E+06    -111.478E+06    -37.6799E+06    -10.8819E+06    -52.3756E-03     104.984E-03    -52.6088E-03     20.0760E-03    -52.3630E-03     104.545E-03    -52.5783E-03     19.8661E-03
            2431     6.82947E-03     2.11340E-03    -43.8072E+06    -129.954E+06    -39.9513E+06    -8.72968E+06    -52.5304E-03     105.168E-03    -52.6372E-03     17.9071E-03    -52.5077E-03     104.643E-03    -52.5850E-03     17.7361E-03
            2432     5.97578E-03     2.11347E-03    -47.4822E+06    -144.416E+06    -41.2880E+06    -6.15951E+06    -52.6269E-03     105.278E-03    -52.6513E-03     15.7631E-03    -52.5985E-03     104.688E-03    -52.5795E-03     15.6355E-03
            2433     5.12219E-03     2.11350E-03    -50.3137E+06    -151.895E+06    -43.7798E+06    -2.84455E+06    -52.6637E-03     105.303E-03    -52.6389E-03     13.6077E-03    -52.6339E-03     104.681E-03    -52.5645E-03     13.5321E-03
            2434     4.26860E-03     2.11344E-03    -52.3962E+06    -155.280E+06    -48.2450E+06    -53.9686E+03    -52.6499E-03     105.255E-03    -52.6048E-03     11.4268E-03    -52.6185E-03     104.625E-03    -52.5449E-03     11.3956E-03
            2435     3.41493E-03     2.11332E-03    -53.9811E+06    -158.195E+06    -52.5708E+06     763.450E+03    -52.6133E-03     105.184E-03    -52.5703E-03     9.21698E-03    -52.5787E-03     104.548E-03    -52.5255E-03     9.20360E-03
            2436     2.56124E-03     2.11319E-03    -54.8366E+06    -159.556E+06    -54.4675E+06     410.156E+03    -52.5774E-03     105.125E-03    -52.5477E-03     6.98153E-03    -52.5420E-03     104.486E-03    -52.5092E-03     6.96999E-03
            2437     1.70749E-03     2.11312E-03    -54.9091E+06    -159.432E+06    -54.1418E+06     238.791E+03    -52.5510E-03     105.086E-03    -52.5355E-03     4.73289E-03    -52.5163E-03     104.447E-03    -52.4954E-03     4.72493E-03
            2438     853.785E-06     2.11303E-03    -54.7888E+06    -159.234E+06    -53.9791E+06     496.335E+03    -52.4978E-03     105.051E-03    -52.5535E-03     2.57726E-03    -52.4629E-03     104.413E-03    -52.5131E-03     2.57782E-03
            2439     16.1959E-03     1.06284E-03    -2.41802E+06     102.636E+06     79.1944E+06     3.11388E+06    -55.7035E-03     110.208E-03    -54.5045E-03     37.7014E-03    -56.0341E-03     110.664E-03    -54.2539E-03     37.4879E-03
            2440     15.3424E-03     1.06011E-03    -4.44048E+06     101.103E+06     69.3685E+06     1.60485E+06    -54.3194E-03     108.708E-03    -54.3887E-03     33.9399E-03    -54.6339E-03     109.164E-03    -54.1821E-03     33.7443E-03
            2441     14.4884E-03     1.06032E-03    -7.53841E+06     93.8139E+06     46.4021E+06    -1.70147E+06    -53.4246E-03     107.703E-03    -54.2789E-03     28.8826E-03    -53.6922E-03     108.142E-03    -54.1720E-03     28.7045E-03
            2442     13.6355E-03     1.05930E-03    -10.0476E+06     83.7654E+06     20.5878E+06    -2.42709E+06    -53.3980E-03     107.587E-03    -54.1895E-03     24.9762E-03    -53.6171E-03     108.008E-03    -54.1935E-03     24.8215E-03
            2443     12.7832E-03     1.05894E-03    -11.9226E+06     65.1385E+06    -5.84169E+06    -2.01912E+06    -53.5122E-03     107.627E-03    -54.1147E-03     21.5567E-03    -53.6697E-03     107.990E-03    -54.2211E-03     21.4310E-03
            2444     11.9308E-03     1.05846E-03    -15.3535E+06     28.3244E+06    -24.3476E+06    -6.03582E+06    -53.6412E-03     107.751E-03    -54.1102E-03     18.9561E-03    -53.7323E-03     107.959E-03    -54.2507E-03     18.7952E-03
            2445     11.0783E-03     1.05816E-03      -20.98E+06    -11.3244E+06    -33.2205E+06    -9.57711E+06    -53.7675E-03     107.929E-03    -54.1618E-03     16.7696E-03    -53.8141E-03     107.957E-03    -54.2811E-03     16.5753E-03
            2446     10.2259E-03     1.05801E-03    -27.3439E+06    -43.0856E+06    -39.9419E+06    -9.32481E+06    -53.8829E-03     108.096E-03    -54.2131E-03     14.9499E-03    -53.9039E-03     107.983E-03    -54.3106E-03     14.7690E-03
            2447     9.37352E-03     1.05794E-03    -33.3155E+06    -70.4780E+06    -44.1444E+06    -8.19992E+06    -53.9976E-03     108.266E-03    -54.2680E-03     13.3768E-03    -54.0016E-03     108.029E-03    -54.3382E-03     13.2190E-03
            2448     8.52118E-03     1.05791E-03    -38.4427E+06    -94.0832E+06    -46.8102E+06    -6.84248E+06    -54.1209E-03     108.441E-03    -54.3199E-03     11.9802E-03    -54.1116E-03     108.097E-03    -54.3618E-03     11.8473E-03
            2449     7.66897E-03     1.05796E-03    -42.6377E+06    -114.930E+06    -48.2468E+06    -5.43327E+06    -54.2406E-03     108.607E-03    -54.3667E-03     10.7105E-03    -54.2193E-03     108.166E-03    -54.3794E-03     10.6025E-03
            2450     6.81675E-03     1.05799E-03    -46.1593E+06    -133.151E+06    -48.5149E+06    -4.35908E+06    -54.3479E-03     108.755E-03    -54.4069E-03     9.51817E-03    -54.3168E-03     108.228E-03    -54.3895E-03     9.43001E-03
            2451     5.96467E-03     1.05804E-03    -49.1646E+06    -148.208E+06    -47.9092E+06    -3.09667E+06    -54.4312E-03     108.869E-03    -54.4375E-03     8.36339E-03    -54.3938E-03     108.269E-03    -54.3909E-03     8.29704E-03
            2452     5.11260E-03     1.05805E-03    -51.4935E+06    -155.839E+06    -47.9541E+06    -1.30563E+06    -54.4715E-03     108.916E-03    -54.4447E-03     7.21598E-03    -54.4343E-03     108.282E-03    -54.3839E-03     7.17781E-03
            2453     4.26055E-03     1.05804E-03    -52.6106E+06    -157.066E+06    -49.2271E+06     278.752E+03    -54.4706E-03     108.900E-03    -54.4290E-03     6.05997E-03    -54.4351E-03     108.262E-03    -54.3711E-03     6.04681E-03
            2454     3.40851E-03     1.05801E-03    -52.6956E+06    -157.825E+06    -50.7358E+06     928.295E+03    -54.4463E-03     108.854E-03    -54.4080E-03     4.88698E-03    -54.4077E-03     108.215E-03    -54.3565E-03     4.88622E-03
            2455     2.55639E-03     1.05796E-03    -52.8105E+06    -158.574E+06    -52.1194E+06     582.726E+03    -54.4157E-03     108.805E-03    -54.3894E-03     3.69627E-03    -54.3744E-03     108.164E-03    -54.3435E-03     3.69455E-03
            2456     1.70430E-03     1.05788E-03    -53.2356E+06    -159.175E+06    -52.8663E+06    -154.635E+03    -54.3901E-03     108.767E-03    -54.3771E-03     2.50285E-03    -54.3490E-03     108.125E-03    -54.3334E-03     2.49473E-03
            2457     852.132E-06     1.05787E-03    -53.2397E+06    -159.356E+06    -53.2101E+06    -559.843E+03    -54.3371E-03     108.742E-03    -54.4048E-03     1.36314E-03    -54.2951E-03     108.099E-03    -54.3626E-03     1.35262E-03


