********************************************************************************
Field Output Report, written Tue May 28 21:13:50 2024

Source 1
---------

   ODB: G:/Abaqus_calc_2019/1740/Vel_10/odb/zeides_2a_16_red_250_cal_100_vel_10_fric_050.odb
   Step: Step-1
   Frame: Increment   7296650: Step Time =   0.9414

Loc 1 : Nodal values from source 1

Output sorted by column "Nodal Label".

Field Output reported at nodes for region: DIE_2A_16_D0_36-1.Region_1
   Computation algorithm: EXTRAPOLATE_COMPUTE_AVERAGE
   Averaged at nodes
   Averaging regions: ODB_REGIONS

      Node Label     COORD.COOR1     COORD.COOR2
                          @Loc 1          @Loc 1
-------------------------------------------------
               1     19.9925E-03     109.439E-03


Field Output reported at nodes for region: DIE_2A_16_D0_36-1.Region_2
   Computation algorithm: EXTRAPOLATE_COMPUTE_AVERAGE
   Averaged at nodes
   Averaging regions: ODB_REGIONS

      Node Label     COORD.COOR1     COORD.COOR2
                          @Loc 1          @Loc 1
-------------------------------------------------
               1     19.9925E-03     109.439E-03


Field Output reported at nodes for part: WIRE-1
   Computation algorithm: EXTRAPOLATE_COMPUTE_AVERAGE
   Averaged at nodes
   Averaging regions: ODB_REGIONS

      Node Label     COORD.COOR1     COORD.COOR2           S.S11           S.S22           S.S33           S.S12         PE.PE11         PE.PE22         PE.PE33         PE.PE12         LE.LE11         LE.LE22         LE.LE33         LE.LE12
                          @Loc 1          @Loc 1          @Loc 1          @Loc 1          @Loc 1          @Loc 1          @Loc 1          @Loc 1          @Loc 1          @Loc 1          @Loc 1          @Loc 1          @Loc 1          @Loc 1
-------------------------------------------------------------------------------------------------------------------------------------------------------------------------------------------------------------------------------------------------
               1    -217.847E-09     57.4924E-03    -29.9077E+06    -119.766E+06    -30.2382E+06     49.7385E+03    -26.4371E-03     52.9645E-03    -26.5274E-03     3.37153E-03    -26.3690E-03     52.4531E-03    -26.4616E-03     3.37059E-03
               2     17.5354E-03     58.4749E-03    -1.29983E+06     139.758E+06     86.6978E+06    -1.13916E+06    -24.3730E-03     50.8631E-03    -26.4901E-03     25.6000E-03    -24.8949E-03     51.6252E-03    -26.2574E-03     25.8439E-03
               3     17.2896E-03     116.814E-03     42.7779E+06    -15.4078E+06    -15.9338E+06     7.13310E+06     17.7613E-03     15.8851E-03    -33.6464E-03     478.692E-06     17.9682E-03     15.7167E-03    -33.7657E-03     570.679E-06
               4    -163.249E-09     115.211E-03    -10.8455E+06    -3.09591E+06    -14.1891E+06    -1.44121E+06    -28.1069E-03     56.4955E-03    -28.3885E-03    -871.431E-06    -28.1375E-03     56.5149E-03    -28.4393E-03    -890.594E-06
               5    -185.441E-09     159.595E-18    -13.8755E+06    -91.5389E+06    -13.9451E+06    -75.9062E+03    -21.1628E-03     42.3367E-03    -21.1739E-03     232.473E-06    -21.0784E-03     41.9198E-03    -21.0908E-03     231.653E-06
               6     17.3942E-03     159.595E-18     5.20356E+06     109.477E+06     78.6485E+06     11.4837E+06    -48.3841E-03     80.1476E-03    -31.7635E-03     71.3999E-03    -48.7445E-03     80.6803E-03    -31.5365E-03     71.2979E-03
               7     876.534E-06     57.4955E-03    -29.7602E+06    -118.923E+06    -29.2711E+06     66.0879E+03    -26.4609E-03     52.9662E-03    -26.5053E-03     5.70315E-03    -26.3949E-03     52.4574E-03    -26.4360E-03     5.70126E-03
               8     1.75310E-03     57.5032E-03    -28.9223E+06    -117.249E+06    -26.3598E+06    -157.439E+03    -26.4945E-03     52.9831E-03    -26.4886E-03     10.5785E-03    -26.4313E-03     52.4774E-03    -26.4084E-03     10.5712E-03
               9     2.62964E-03     57.5156E-03    -27.3424E+06    -114.687E+06    -22.0647E+06    -170.215E+03    -26.5154E-03     53.0147E-03    -26.4994E-03     15.7000E-03    -26.4548E-03     52.5139E-03    -26.4037E-03     15.6895E-03
              10     3.50621E-03     57.5330E-03    -25.2748E+06    -110.170E+06    -17.4125E+06     72.3952E+03    -26.5460E-03     53.0533E-03    -26.5073E-03     20.8540E-03    -26.4892E-03     52.5662E-03    -26.3980E-03     20.8430E-03
              11     4.38277E-03     57.5552E-03    -23.0240E+06    -103.578E+06    -12.8847E+06     136.236E+03    -26.5860E-03     53.0964E-03    -26.5104E-03     26.0106E-03    -26.5354E-03     52.6338E-03    -26.3913E-03     25.9961E-03
              12     5.25940E-03     57.5824E-03    -21.0139E+06    -96.9744E+06    -8.43330E+06     225.023E+03    -26.6356E-03     53.1482E-03    -26.5127E-03     31.1223E-03    -26.5930E-03     52.7113E-03    -26.3837E-03     31.1035E-03
              13     6.13598E-03     57.6143E-03    -18.9694E+06    -91.7743E+06    -4.11576E+06     256.084E+03    -26.7026E-03     53.2184E-03    -26.5159E-03     36.1389E-03    -26.6665E-03     52.8011E-03    -26.3759E-03     36.1138E-03
              14     7.01264E-03     57.6510E-03    -16.9317E+06    -84.9272E+06    -719.430E+03     159.046E+03    -26.7799E-03     53.2921E-03    -26.5122E-03     41.0882E-03    -26.7525E-03     52.9052E-03    -26.3681E-03     41.0537E-03
              15     7.88924E-03     57.6922E-03    -15.0125E+06    -77.7110E+06     1.39699E+06     75.5929E+03    -26.8687E-03     53.3707E-03    -26.5020E-03     45.9277E-03    -26.8511E-03     53.0198E-03    -26.3605E-03     45.8821E-03
              16     8.76594E-03     57.7381E-03    -13.2814E+06    -71.5355E+06     2.15519E+06     62.8146E+03    -26.9646E-03     53.4516E-03    -26.4870E-03     50.6395E-03    -26.9564E-03     53.1360E-03    -26.3532E-03     50.5817E-03
              17     9.64256E-03     57.7882E-03    -11.8309E+06    -64.6727E+06     2.48690E+06     89.2105E+03    -27.0628E-03     53.5320E-03    -26.4692E-03     55.2485E-03    -27.0690E-03     53.2594E-03    -26.3459E-03     55.1766E-03
              18     10.5193E-03     57.8429E-03    -10.7844E+06    -57.0898E+06     1.91040E+06     158.764E+03    -27.1695E-03     53.6160E-03    -26.4465E-03     59.9285E-03    -27.1969E-03     53.3968E-03    -26.3385E-03     59.8402E-03
              19     11.3959E-03     57.9017E-03    -10.2531E+06    -48.0473E+06     220.387E+03    -57.2512E+03    -27.2801E-03     53.6968E-03    -26.4167E-03     64.7892E-03    -27.3389E-03     53.5480E-03    -26.3311E-03     64.6779E-03
              20     12.2727E-03     57.9656E-03    -9.80707E+06    -35.8013E+06    -1.70448E+06    -687.303E+03    -27.4077E-03     53.7892E-03    -26.3816E-03     69.8821E-03    -27.5152E-03     53.7398E-03    -26.3240E-03     69.7387E-03
              21     13.1493E-03     58.0339E-03    -9.28387E+06    -17.0513E+06    -4.07467E+06    -612.103E+03    -27.5513E-03     53.8856E-03    -26.3342E-03     76.7146E-03    -27.7408E-03     53.9933E-03    -26.3164E-03     76.5455E-03
              22     14.0260E-03     58.1108E-03    -9.92515E+06     17.0063E+06    -8.76054E+06     627.006E+03    -27.8995E-03     54.1540E-03    -26.2546E-03     88.3061E-03    -28.2598E-03     54.5649E-03    -26.3086E-03     88.1272E-03
              23     14.9029E-03     58.2007E-03    -11.0594E+06     71.9840E+06    -7.74366E+06     1.55586E+06    -28.8187E-03     55.0004E-03    -26.1817E-03     109.029E-03    -29.6155E-03     56.0360E-03    -26.3088E-03     108.868E-03
              24     15.7777E-03     58.3177E-03    -9.33822E+06     127.299E+06     28.2225E+06     1.05665E+06    -29.4030E-03     55.6839E-03    -26.2809E-03     133.472E-03    -31.0052E-03     57.6230E-03    -26.3109E-03     133.597E-03
              25     16.6540E-03     58.4524E-03    -4.34690E+06     145.016E+06     73.1783E+06    -367.258E+03    -26.8588E-03     53.3040E-03    -26.4452E-03     85.0955E-03    -28.1646E-03     54.8970E-03    -26.2833E-03     85.4125E-03
              26     17.5324E-03     59.4754E-03    -2.56835E+06     138.402E+06     85.3721E+06    -333.645E+03    -26.3553E-03     52.7984E-03    -26.4430E-03     24.3385E-03    -26.8784E-03     53.5562E-03    -26.2131E-03     24.5695E-03
              27     17.5361E-03     60.4761E-03    -3.73780E+06     138.211E+06     85.3656E+06    -274.741E+03    -26.7689E-03     53.2041E-03    -26.4351E-03     26.0991E-03    -27.3044E-03     53.9694E-03    -26.2033E-03     26.3320E-03
              28     17.5316E-03     61.4805E-03    -1.96534E+06     140.100E+06     87.2768E+06     1.12599E+06    -25.0044E-03     51.5039E-03    -26.4995E-03     26.3395E-03    -25.5386E-03     52.2757E-03    -26.2634E-03     26.6133E-03
              29     17.5359E-03     62.4743E-03    -649.290E+03     140.603E+06     87.1424E+06     -33.565E+03    -23.6541E-03     50.1627E-03    -26.5085E-03     28.0268E-03    -24.1872E-03     50.9406E-03    -26.2758E-03     28.3003E-03
              30     17.5334E-03     63.4715E-03    -4.86000E+06     138.161E+06     84.2789E+06    -1.20768E+06    -27.1622E-03     53.5919E-03    -26.4296E-03     27.9542E-03    -27.7113E-03     54.3705E-03    -26.2015E-03     28.1816E-03
              31     17.5330E-03     64.4820E-03    -2.98749E+06     139.699E+06     86.2023E+06     2.42675E+06    -26.0299E-03     52.5098E-03    -26.4799E-03     27.1302E-03    -26.5714E-03     53.2871E-03    -26.2471E-03     27.4111E-03
              32     17.5352E-03     65.4714E-03    -461.939E+03     142.177E+06     88.1546E+06     308.241E+03    -23.2860E-03     49.7943E-03    -26.5083E-03     29.5707E-03    -23.8267E-03     50.5826E-03    -26.2730E-03     29.8553E-03
              33     17.5343E-03     66.4725E-03    -2.17141E+06     141.628E+06     87.3204E+06    -879.196E+03    -25.5144E-03     51.9622E-03    -26.4478E-03     27.1423E-03    -26.0545E-03     52.7441E-03    -26.2134E-03     27.3829E-03
              34     17.5340E-03     67.4725E-03    -1.53488E+06     142.162E+06     88.0850E+06     262.560E+03    -25.5846E-03     52.0410E-03    -26.4564E-03     26.1567E-03    -26.1195E-03     52.8197E-03    -26.2199E-03     26.4069E-03
              35     17.5350E-03     68.4694E-03    -2.54946E+06     141.539E+06     87.1735E+06    -769.718E+03    -26.0750E-03     52.5223E-03    -26.4473E-03     26.9470E-03    -26.6150E-03     53.3030E-03    -26.2129E-03     27.1862E-03
              36     17.5329E-03     69.4732E-03    -3.33293E+06     140.431E+06     86.5496E+06     475.684E+03    -26.2281E-03     52.6892E-03    -26.4611E-03     25.9175E-03    -26.7646E-03     53.4616E-03    -26.2271E-03     26.1696E-03
              37     17.5347E-03     70.4714E-03    -1.27059E+06     142.159E+06     88.3196E+06     1.06518E+06    -23.9666E-03     50.4749E-03    -26.5083E-03     26.5835E-03    -24.4980E-03     51.2506E-03    -26.2710E-03     26.8629E-03
              38     17.5342E-03     71.4663E-03    -1.87361E+06     141.650E+06     87.5917E+06    -544.217E+03    -25.1643E-03     51.6453E-03    -26.4810E-03     26.7093E-03    -25.6983E-03     52.4216E-03    -26.2457E-03     26.9566E-03
              39     17.5331E-03     72.4704E-03    -2.00571E+06     141.131E+06     87.2217E+06    -49.0854E+03    -25.7416E-03     52.2286E-03    -26.4871E-03     24.3090E-03    -26.2686E-03     52.9967E-03    -26.2527E-03     24.5502E-03
              40     17.5343E-03     73.4652E-03    -3.06632E+06     140.290E+06     85.5135E+06    -435.270E+03    -25.5331E-03     52.0217E-03    -26.4886E-03     25.7852E-03    -26.0664E-03     52.7942E-03    -26.2600E-03     26.0313E-03
              41     17.5329E-03     74.4681E-03    -3.35790E+06     140.890E+06     85.5532E+06     308.289E+03    -26.4924E-03     52.9589E-03    -26.4665E-03     25.8172E-03    -27.0271E-03     53.7340E-03    -26.2382E-03     26.0618E-03
              42     17.5342E-03     75.4702E-03    -2.17095E+06     142.926E+06     88.0700E+06     802.018E+03    -25.2362E-03     51.7413E-03    -26.5051E-03     27.1012E-03    -25.7776E-03     52.5272E-03    -26.2689E-03     27.3667E-03
              43     17.5331E-03     76.4657E-03    -1.31683E+06     143.769E+06     88.6911E+06     182.638E+03    -24.6045E-03     51.1146E-03    -26.5100E-03     26.5608E-03    -25.1433E-03     51.9020E-03    -26.2731E-03     26.8247E-03
              44     17.5349E-03     77.4644E-03    -2.90408E+06     142.231E+06     86.3977E+06    -1.06672E+06    -25.9571E-03     52.4251E-03    -26.4680E-03     25.7585E-03    -26.4957E-03     53.2078E-03    -26.2380E-03     25.9904E-03
              45     17.5324E-03     78.4671E-03    -2.10917E+06     142.917E+06     86.7293E+06     191.756E+03    -25.8957E-03     52.3735E-03    -26.4778E-03     26.6812E-03    -26.4346E-03     53.1610E-03    -26.2483E-03     26.9333E-03
              46     17.5350E-03     79.4673E-03    -1.87673E+06     143.990E+06     87.4727E+06     592.262E+03    -24.7630E-03     51.2647E-03    -26.5018E-03     29.0764E-03    -25.3146E-03     52.0676E-03    -26.2705E-03     29.3519E-03
              47     17.5328E-03     80.4636E-03    -3.51200E+06     143.147E+06     86.4996E+06     477.533E+03    -25.5305E-03     52.0107E-03    -26.4802E-03     28.2847E-03    -26.0839E-03     52.8092E-03    -26.2501E-03     28.5479E-03
              48     17.5346E-03     81.4652E-03    -1.65331E+06     145.045E+06     87.9655E+06     847.158E+03    -24.9717E-03     51.4551E-03    -26.4833E-03     25.6752E-03    -25.5116E-03     52.2491E-03    -26.2514E-03     25.9408E-03
              49     17.5341E-03     82.4599E-03    -3.14220E+06     143.660E+06     86.6010E+06    -2.02880E+06    -25.1976E-03     51.6588E-03    -26.4611E-03     25.4603E-03    -25.7431E-03     52.4520E-03    -26.2319E-03     25.6931E-03
              50     17.5343E-03     83.4611E-03    -1.91970E+06     145.230E+06     88.3941E+06    -1.41987E+06    -25.9723E-03     52.4143E-03    -26.4420E-03     26.2637E-03    -26.5164E-03     53.2108E-03    -26.2078E-03     26.4984E-03
              51     17.5347E-03     84.4670E-03    -1.36554E+06     146.259E+06     89.5900E+06     1.22939E+06    -25.3249E-03     51.7967E-03    -26.4717E-03     32.7171E-03    -25.8964E-03     52.6227E-03    -26.2339E-03     33.0069E-03
              52     17.5331E-03     85.4647E-03    -1.27250E+06     145.222E+06     87.5894E+06     2.01060E+06    -24.2629E-03     50.7447E-03    -26.4817E-03     31.1697E-03    -24.8255E-03     51.5644E-03    -26.2525E-03     31.4694E-03
              53     17.5364E-03     86.4546E-03     -3.4228E+06     143.622E+06     85.3599E+06    -1.93864E+06    -25.3118E-03     51.7510E-03    -26.4392E-03     26.2659E-03    -25.8590E-03     52.5485E-03    -26.2156E-03     26.4965E-03
              54     17.5319E-03     87.4596E-03    -3.18219E+06     144.854E+06     87.4112E+06    -243.804E+03    -26.4259E-03     52.8605E-03    -26.4346E-03     25.2868E-03    -26.9716E-03     53.6562E-03    -26.2030E-03     25.5304E-03
              55     17.5365E-03     88.4619E-03     269.997E+03     147.988E+06     90.0162E+06     1.04376E+06    -24.5394E-03     50.9966E-03    -26.4572E-03     31.5203E-03    -25.1028E-03     51.8258E-03    -26.2221E-03     31.8080E-03
              56     17.5341E-03     89.4589E-03    -4.42979E+06     144.593E+06     86.4998E+06    -523.054E+03    -25.5494E-03     51.9710E-03    -26.4215E-03     31.5960E-03    -26.1288E-03     52.7975E-03    -26.1923E-03     31.8557E-03
              57     17.5346E-03     90.4579E-03     184.522E+03     148.601E+06     90.5840E+06     1.80966E+06    -23.9527E-03     50.3868E-03    -26.4342E-03     27.0224E-03    -24.4950E-03     51.1948E-03    -26.1970E-03     27.3091E-03
              58     17.5384E-03     91.4521E-03    -787.375E+03     148.070E+06     90.2403E+06    -1.02461E+06    -25.1337E-03     51.4984E-03    -26.3646E-03     32.2932E-03    -25.7027E-03     52.3288E-03    -26.1270E-03     32.5420E-03
              59     17.5331E-03     92.4603E-03    -4.60054E+06     144.123E+06     87.0342E+06     958.043E+03    -27.8200E-03     54.1269E-03    -26.3070E-03     28.3566E-03    -28.3866E-03     54.9372E-03    -26.0741E-03     28.5932E-03
              60     17.5386E-03     93.4531E-03    -2.86819E+06     145.854E+06     88.4959E+06    -143.028E+03    -24.6910E-03     51.0236E-03    -26.3326E-03     25.1761E-03    -25.2356E-03     51.8201E-03    -26.0975E-03     25.4275E-03
              61     17.5367E-03     94.4493E-03    -3.94956E+06     145.162E+06     88.7677E+06    -1.60855E+06    -26.0994E-03     52.3519E-03    -26.2524E-03     25.8311E-03    -26.6501E-03     53.1471E-03    -26.0134E-03     26.0585E-03
              62     17.5384E-03     95.4592E-03    -445.618E+03     148.396E+06     92.3852E+06     1.75379E+06    -25.8941E-03     52.1068E-03    -26.2128E-03     28.1396E-03    -26.4506E-03     52.9210E-03    -25.9654E-03     28.4090E-03
              63     17.5407E-03     96.4522E-03    -2.26008E+06     145.946E+06     90.9414E+06    -1.47229E+06    -26.0901E-03     52.2144E-03    -26.1243E-03     32.0659E-03    -26.6681E-03     53.0390E-03    -25.8780E-03     32.3031E-03
              64     17.5401E-03     97.4538E-03    -2.52928E+06     145.046E+06     91.0412E+06     349.868E+03    -28.4187E-03     54.4075E-03    -25.9889E-03     28.1279E-03    -28.9807E-03     55.2117E-03    -25.7403E-03     28.3550E-03
              65     17.5442E-03     98.4586E-03    -992.164E+03     145.452E+06     93.0900E+06     359.381E+03    -28.5684E-03     54.4710E-03    -25.9026E-03     31.9182E-03    -29.1429E-03     55.2889E-03    -25.6467E-03     32.1499E-03
              66     17.5428E-03     99.4605E-03    -4.21622E+06     141.301E+06     90.9804E+06    -122.988E+03    -30.2459E-03     56.0254E-03    -25.7795E-03     30.9566E-03    -30.8266E-03     56.8292E-03    -25.5234E-03     31.1662E-03
              67     17.5470E-03     100.461E-03    -2.81351E+06     140.178E+06     91.9409E+06    -222.637E+03    -31.8794E-03     57.5389E-03    -25.6595E-03     28.1885E-03    -32.4410E-03     58.3219E-03    -25.3989E-03     28.3777E-03
              68     17.5456E-03     101.470E-03    -4.07398E+06     138.111E+06     91.0474E+06    -662.852E+03    -33.8495E-03     59.3936E-03    -25.5441E-03     28.8431E-03    -34.4176E-03     60.1739E-03    -25.2832E-03     29.0094E-03
              69     17.5486E-03     102.477E-03    -1.48511E+06     137.314E+06     91.9310E+06    -202.211E+03    -35.5578E-03     61.0023E-03    -25.4445E-03     29.3582E-03    -36.1192E-03     61.7796E-03    -25.1818E-03     29.5104E-03
              70     17.5480E-03     103.486E-03    -2.33327E+06     135.428E+06     91.7165E+06    -936.680E+03    -38.0894E-03     63.4126E-03    -25.3232E-03     30.1537E-03    -38.6598E-03     64.1898E-03    -25.0576E-03     30.2645E-03
              71     17.5504E-03     104.500E-03    -2.00905E+06     131.781E+06     91.0526E+06    -1.83479E+06    -42.1632E-03     67.3303E-03    -25.1671E-03     31.5038E-03    -42.7377E-03     68.1019E-03    -24.9000E-03     31.5500E-03
              72     17.5500E-03     105.518E-03    -5.10171E+06     127.922E+06     89.2329E+06    -2.16336E+06    -46.4416E-03     71.4634E-03    -25.0218E-03     34.4738E-03    -47.0440E-03     72.2438E-03    -24.7537E-03     34.4613E-03
              73     17.5511E-03     106.543E-03    -332.407E+03     125.825E+06     90.4392E+06     552.007E+03    -49.6296E-03     74.5333E-03    -24.9038E-03     37.6515E-03    -50.2346E-03     75.3219E-03    -24.6335E-03     37.6206E-03
              74     17.5522E-03     107.564E-03    -3.25553E+06     124.099E+06     90.5465E+06    -1.42251E+06    -55.4971E-03     80.2196E-03    -24.7225E-03     43.1390E-03    -56.1520E-03     81.0418E-03    -24.4450E-03     42.9833E-03
              75     17.5519E-03     108.603E-03    -797.505E+03     120.291E+06     89.0161E+06    -1.70063E+06    -62.4268E-03     86.9392E-03    -24.5124E-03     48.0366E-03    -63.1097E-03     87.7900E-03    -24.2406E-03     47.7394E-03
              76     17.5538E-03     109.644E-03    -2.47973E+06     115.515E+06     86.5295E+06    -1.78682E+06    -66.4745E-03     90.8535E-03    -24.3790E-03     59.3159E-03    -67.2645E-03     91.7961E-03    -24.1103E-03     58.8940E-03
              77     17.5528E-03     110.692E-03     593.636E+03     115.671E+06     86.6359E+06     2.24791E+06    -70.5062E-03     94.7595E-03    -24.2532E-03     74.0545E-03    -71.4292E-03     95.8472E-03    -23.9886E-03     73.5343E-03
              78     17.5551E-03     111.746E-03    -6.28924E+06     116.173E+06     82.2245E+06    -1.15351E+06    -75.1381E-03     99.2453E-03    -24.1072E-03     95.6533E-03    -76.2940E-03     100.558E-03    -23.8554E-03     94.9058E-03
              79     17.5542E-03     112.810E-03     1.26779E+06     110.947E+06     65.0291E+06    -2.93067E+06    -76.7640E-03     100.723E-03    -23.9589E-03     124.680E-03    -78.1272E-03     102.304E-03    -23.7964E-03     123.709E-03
              80     17.5577E-03     113.876E-03    -28.3615E+06     45.2662E+06    -456.034E+03    -43.5845E+06    -67.4411E-03     91.4746E-03    -24.0335E-03     159.739E-03    -68.8830E-03     92.9851E-03    -24.0603E-03     158.303E-03
              81     17.5535E-03     114.917E-03    -137.072E+06    -35.4080E+06    -83.7465E+06    -17.4282E+06    -28.8275E-03     53.9484E-03    -25.1209E-03     166.364E-03    -30.0096E-03     54.7790E-03    -25.2896E-03     165.798E-03
              82     17.5410E-03     115.857E-03    -66.3112E+06    -34.3783E+06    -61.7830E+06     32.0911E+06     9.56555E-03     20.2880E-03    -29.8535E-03     76.9782E-03     9.27982E-03     20.3580E-03    -30.0164E-03     77.4084E-03
              83     16.4433E-03     116.607E-03    -9.12311E+06     4.96627E+06    -4.41192E+06     20.7684E+06     12.1973E-03     22.2807E-03    -34.4780E-03     16.1507E-03     12.1333E-03     22.3085E-03    -34.4940E-03     16.4181E-03
              84     15.5321E-03     116.439E-03    -70.1708E+06     21.3615E+06     3.01755E+06     5.91328E+06    -7.88872E-03     43.4699E-03    -35.5812E-03     24.6758E-03    -8.27614E-03     43.6788E-03    -35.4954E-03     24.7377E-03
              85     14.6824E-03     116.239E-03    -76.1026E+06    -556.335E+03    -5.46536E+06    -20.6989E+06    -22.2374E-03     57.9853E-03    -35.7479E-03     12.5793E-03    -22.6252E-03     58.0915E-03    -35.6641E-03     12.2887E-03
              86     13.8244E-03     116.078E-03    -70.0068E+06    -5.65317E+06    -2.55951E+06    -19.3032E+06    -25.0988E-03     60.6675E-03    -35.5687E-03     2.98039E-03    -25.4477E-03     60.7364E-03    -35.4718E-03     2.70903E-03
              87     12.9674E-03     115.941E-03    -62.7031E+06    -5.02412E+06     2.60578E+06    -17.6542E+06    -31.3843E-03     66.6536E-03    -35.2693E-03    -4.18235E-03    -31.7027E-03     66.7083E-03    -35.1581E-03    -4.43899E-03
              88     12.1136E-03     115.821E-03    -53.5835E+06    -5.86493E+06     4.11678E+06    -15.0156E+06    -36.0946E-03     70.7850E-03    -34.6904E-03    -7.51394E-03    -36.3673E-03     70.8200E-03    -34.5837E-03    -7.73988E-03
              89     11.2613E-03     115.716E-03    -45.6188E+06    -3.69229E+06     6.21477E+06    -12.4833E+06    -37.7644E-03     71.7123E-03    -33.9479E-03    -8.26101E-03    -38.0024E-03     71.7443E-03    -33.8453E-03    -8.45229E-03
              90     10.4063E-03     115.627E-03    -40.1434E+06    -3.75723E+06     8.21962E+06    -9.58302E+06    -37.8328E-03     71.0028E-03    -33.1699E-03    -7.86795E-03    -38.0448E-03     71.0250E-03    -33.0652E-03    -8.01791E-03
              91     9.54900E-03     115.551E-03    -36.0278E+06    -1.32331E+06     9.10264E+06    -8.22945E+06    -37.2566E-03     69.6492E-03    -32.3926E-03    -7.08322E-03    -37.4518E-03     69.6774E-03    -32.2929E-03    -7.21174E-03
              92     8.68936E-03     115.485E-03    -32.5326E+06    -2.33071E+06     6.40708E+06    -7.00765E+06    -36.1555E-03     67.7921E-03    -31.6366E-03    -6.11522E-03    -36.3272E-03     67.8148E-03    -31.5540E-03    -6.22419E-03
              93     7.82721E-03     115.428E-03    -29.6315E+06    -652.394E+03     4.39989E+06    -6.11762E+06    -34.7964E-03     65.7364E-03    -30.9400E-03    -5.16942E-03    -34.9526E-03     65.7669E-03    -30.8741E-03    -5.26351E-03
              94     6.96278E-03     115.380E-03    -26.8647E+06    -1.24722E+06     2.30679E+06    -5.59876E+06    -33.4397E-03     63.7583E-03    -30.3186E-03    -4.33216E-03    -33.5778E-03     63.7853E-03    -30.2663E-03    -4.41668E-03
              95     6.09632E-03     115.339E-03    -24.0583E+06    -812.003E+03    -584.692E+03    -4.94749E+06    -32.1690E-03     61.9369E-03    -29.7679E-03    -3.61469E-03    -32.2892E-03     61.9666E-03    -29.7348E-03    -3.68844E-03
              96     5.22824E-03     115.304E-03    -21.5127E+06    -974.633E+03    -3.68179E+06    -4.23580E+06    -31.0331E-03     60.3290E-03    -29.2960E-03    -3.00101E-03    -31.1356E-03     60.3589E-03    -29.2818E-03    -3.06363E-03
              97     4.35871E-03     115.276E-03    -19.2061E+06    -506.894E+03    -5.73565E+06    -3.77260E+06    -30.0681E-03     58.9763E-03    -28.9082E-03    -2.46891E-03    -30.1567E-03     59.0083E-03    -28.9083E-03    -2.52390E-03
              98     3.48808E-03     115.253E-03    -16.9858E+06    -957.049E+03    -7.78353E+06    -3.34192E+06    -29.2906E-03     57.8921E-03    -28.6014E-03    -2.01173E-03    -29.3644E-03     57.9217E-03    -28.6143E-03    -2.05974E-03
              99     2.61661E-03     115.235E-03    -14.9270E+06    -790.551E+03    -9.95288E+06    -2.66853E+06    -28.6906E-03     57.0676E-03    -28.3769E-03    -1.60686E-03    -28.7511E-03     57.0982E-03    -28.4039E-03    -1.64490E-03
             100     1.74448E-03     115.222E-03    -13.5124E+06    -910.209E+03    -10.9352E+06    -2.09857E+06    -28.2756E-03     56.5354E-03    -28.2598E-03    -1.23842E-03    -28.3274E-03     56.5649E-03    -28.2936E-03    -1.26796E-03
             101     871.991E-06     115.214E-03    -11.9482E+06    -1.19387E+06    -12.1262E+06    -1.62150E+06    -28.1127E-03     56.4241E-03    -28.3114E-03    -964.109E-06    -28.1546E-03     56.4516E-03    -28.3529E-03    -986.272E-06
             102    -93.1539E-09     114.208E-03    -15.5043E+06    -4.61594E+06    -14.1641E+06    -1.33221E+06    -25.3789E-03     50.9754E-03    -25.5965E-03    -76.8601E-06    -25.4301E-03     50.9944E-03    -25.6381E-03    -94.8061E-06
             103    -3.94830E-09     113.216E-03    -19.9486E+06    -10.1938E+06    -19.2367E+06    -2.52784E+06    -20.8671E-03     41.7910E-03    -20.9239E-03     1.04710E-03    -20.9245E-03     41.7966E-03    -20.9764E-03     1.01354E-03
             104     14.1717E-09     112.231E-03    -29.0155E+06    -18.1052E+06    -29.6229E+06    -2.18404E+06    -17.8701E-03     35.7256E-03    -17.8555E-03     1.72500E-03    -17.9460E-03     35.7201E-03    -17.9353E-03     1.69602E-03
             105    -4.70467E-09     111.250E-03    -44.3159E+06    -26.5065E+06    -43.3838E+06    -2.41373E+06    -15.9391E-03     31.9052E-03    -15.9662E-03     2.30107E-03    -16.0593E-03     31.9000E-03    -16.0804E-03     2.26935E-03
             106    -43.8434E-09     110.273E-03    -59.1632E+06    -35.4753E+06    -59.3745E+06    -2.83464E+06    -14.9061E-03     29.8262E-03    -14.9200E-03     2.65576E-03    -15.0643E-03     29.8209E-03    -15.0797E-03     2.61879E-03
             107     62.1852E-09     109.296E-03    -77.2221E+06    -45.1617E+06    -76.3967E+06    -2.99060E+06    -14.5575E-03     29.0866E-03    -14.5291E-03     2.90109E-03    -14.7672E-03     29.0837E-03    -14.7336E-03     2.86227E-03
             108    -24.6631E-09     108.320E-03    -95.1319E+06    -55.1814E+06    -95.5367E+06    -3.35181E+06    -14.6597E-03     29.3091E-03    -14.6494E-03     3.10291E-03    -14.9167E-03     29.3098E-03    -14.9092E-03     3.05953E-03
             109    -3.74354E-09     107.343E-03    -106.596E+06    -61.3681E+06    -107.747E+06    -579.783E+03    -15.0757E-03     30.1977E-03    -15.1220E-03     3.31078E-03    -15.3634E-03     30.2018E-03    -15.4172E-03     3.30325E-03
             110    -68.0303E-09     106.366E-03    -89.0102E+06    -55.9854E+06    -91.0571E+06     4.33563E+06    -15.8432E-03     31.7444E-03    -15.9012E-03     3.44713E-03    -16.0750E-03     31.7257E-03    -16.1462E-03     3.50310E-03
             111     8.36947E-09     105.385E-03    -54.2038E+06    -36.9237E+06    -53.6422E+06     7.11436E+06    -16.9663E-03     33.9471E-03    -16.9808E-03     3.55626E-03    -17.1060E-03     33.9190E-03    -17.1169E-03     3.64813E-03
             112     26.3501E-09     104.404E-03    -28.6446E+06    -19.4590E+06    -26.8564E+06     3.41785E+06    -18.2937E-03     36.5702E-03    -18.2765E-03     3.67302E-03    -18.3697E-03     36.5534E-03    -18.3410E-03     3.71717E-03
             113    -16.0333E-09     103.418E-03    -13.5713E+06    -14.3676E+06    -13.0409E+06     -327.72E+03    -19.6535E-03     39.3085E-03    -19.6550E-03     3.74087E-03    -19.6816E-03     39.2753E-03    -19.6797E-03     3.73656E-03
             114     3.44776E-09     102.431E-03    -5.95221E+06    -17.3959E+06    -5.84983E+06    -1.54418E+06    -20.9586E-03     41.9125E-03    -20.9539E-03     3.72382E-03    -20.9546E-03     41.8427E-03    -20.9493E-03     3.70364E-03
             115     12.6265E-09     101.441E-03    -2.55012E+06    -23.3097E+06    -2.43367E+06    -1.94675E+06    -22.1590E-03     44.2562E-03    -22.0972E-03     3.66713E-03    -22.1343E-03     44.1470E-03    -22.0719E-03     3.64158E-03
             116     75.5044E-09     100.449E-03    -2.16726E+06    -30.4642E+06    -2.15276E+06    -2.25305E+06    -23.1527E-03     46.2723E-03    -23.1196E-03     3.64059E-03    -23.1162E-03     46.1264E-03    -23.0830E-03     3.61088E-03
             117    -110.829E-09     99.4546E-03    -3.16013E+06    -37.6750E+06    -3.46501E+06    -1.98463E+06    -23.9447E-03     47.9295E-03    -23.9848E-03     3.58507E-03    -23.9008E-03     47.7509E-03    -23.9429E-03     3.55863E-03
             118     66.4902E-09     98.4593E-03    -5.89116E+06    -44.5336E+06    -5.64182E+06    -2.12479E+06    -24.6078E-03     49.2644E-03    -24.6567E-03     3.54061E-03    -24.5644E-03     49.0587E-03    -24.6117E-03     3.51217E-03
             119    -110.809E-09     97.4627E-03    -8.73293E+06    -51.6563E+06    -9.11086E+06    -2.17617E+06    -25.1507E-03     50.3222E-03    -25.1714E-03     3.47982E-03    -25.1062E-03     50.0900E-03    -25.1294E-03     3.45054E-03
             120     108.998E-09     96.4652E-03    -12.4774E+06    -58.6884E+06    -12.3237E+06    -2.01008E+06    -25.5540E-03     51.1025E-03    -25.5485E-03     3.49044E-03    -25.5133E-03     50.8452E-03    -25.5070E-03     3.46321E-03
             121    -101.497E-09     95.4671E-03    -15.5214E+06    -65.5390E+06    -15.8187E+06    -1.83774E+06    -25.8259E-03     51.6645E-03    -25.8386E-03     3.46615E-03    -25.7855E-03     51.3825E-03    -25.8002E-03     3.44108E-03
             122     62.8423E-09     94.4688E-03    -19.0589E+06    -71.6089E+06    -18.8292E+06    -1.73291E+06    -26.0434E-03     52.1019E-03    -26.0585E-03     3.37170E-03    -26.0075E-03     51.7990E-03    -26.0212E-03     3.34789E-03
             123    -53.4748E-09     93.4698E-03    -21.8522E+06    -77.2892E+06    -22.2395E+06    -1.69590E+06    -26.2211E-03     52.4309E-03    -26.2098E-03     3.36896E-03    -26.1860E-03     52.1086E-03    -26.1772E-03     3.34553E-03
             124     54.3600E-09     92.4707E-03    -25.2601E+06    -82.1029E+06    -25.1138E+06    -1.18635E+06    -26.3514E-03     52.6628E-03    -26.3113E-03     3.37870E-03    -26.3222E-03     52.3255E-03    -26.2812E-03     3.36181E-03
             125     11.4077E-09     91.4713E-03    -27.4688E+06    -86.5907E+06    -27.4078E+06    -1.38118E+06    -26.3963E-03     52.7947E-03    -26.3984E-03     3.41481E-03    -26.3683E-03     52.4415E-03    -26.3700E-03     3.39540E-03
             126    -85.6255E-09     90.4720E-03    -29.0047E+06    -90.7796E+06    -29.2612E+06    -1.10844E+06    -26.3986E-03     52.8586E-03    -26.4599E-03     3.39829E-03    -26.3695E-03     52.4894E-03    -26.4326E-03     3.38236E-03
             127     44.0346E-09     89.4726E-03    -30.8060E+06    -94.4839E+06    -30.6572E+06    -1.03555E+06    -26.4645E-03     52.9187E-03    -26.4542E-03     3.40076E-03    -26.4371E-03     52.5357E-03    -26.4258E-03     3.38575E-03
             128     11.9170E-09     88.4730E-03    -31.5539E+06    -97.8673E+06    -31.8314E+06    -894.481E+03    -26.4998E-03     52.9560E-03    -26.4562E-03     3.47994E-03    -26.4694E-03     52.5588E-03    -26.4277E-03     3.46672E-03
             129    -296.110E-12     87.4736E-03    -32.9128E+06    -101.077E+06    -32.7156E+06    -862.287E+03    -26.4968E-03     52.9628E-03    -26.4660E-03     3.50993E-03    -26.4674E-03     52.5528E-03    -26.4353E-03     3.49712E-03
             130     39.2520E-09     86.4741E-03    -33.0323E+06    -104.024E+06    -33.2121E+06    -815.929E+03    -26.5070E-03     52.9704E-03    -26.4634E-03     3.50850E-03    -26.4731E-03     52.5466E-03    -26.4308E-03     3.49627E-03
             131    -9.54902E-09     85.4748E-03    -33.6689E+06    -106.486E+06    -33.4518E+06    -597.498E+03    -26.5252E-03     52.9938E-03    -26.4686E-03     3.46784E-03    -26.4906E-03     52.5589E-03    -26.4326E-03     3.45843E-03
             132     76.0744E-09     84.4752E-03    -33.8855E+06    -108.724E+06    -33.9424E+06    -731.600E+03    -26.5391E-03     53.0180E-03    -26.4789E-03     3.46953E-03    -26.5016E-03     52.5730E-03    -26.4418E-03     3.45843E-03
             133    -43.2734E-09     83.4759E-03    -33.5938E+06    -110.886E+06    -33.7159E+06    -528.102E+03    -26.5096E-03     53.0263E-03    -26.5167E-03     3.43231E-03    -26.4679E-03     52.5697E-03    -26.4757E-03     3.42385E-03
             134    -8.73467E-09     82.4765E-03    -33.4331E+06    -112.614E+06    -33.3428E+06    -532.118E+03    -26.4893E-03     53.0440E-03    -26.5547E-03     3.35353E-03    -26.4448E-03     52.5780E-03    -26.5096E-03     3.34505E-03
             135    -58.1272E-09     81.4770E-03    -32.7903E+06    -114.131E+06    -33.0108E+06    -453.692E+03    -26.5077E-03     53.0701E-03    -26.5624E-03     3.35402E-03    -26.4582E-03     52.5950E-03    -26.5144E-03     3.34653E-03
             136     21.2559E-09     80.4774E-03    -32.4965E+06    -115.170E+06    -32.3933E+06    -118.533E+03    -26.5410E-03     53.0742E-03    -26.5331E-03     3.40897E-03    -26.4895E-03     52.5926E-03    -26.4810E-03     3.40582E-03
             137     25.1077E-09     79.4780E-03    -32.3372E+06    -115.978E+06    -32.2718E+06    -341.038E+03    -26.5294E-03     53.0456E-03    -26.5162E-03     3.44316E-03    -26.4760E-03     52.5596E-03    -26.4625E-03     3.43712E-03
             138    -53.2359E-09     78.4785E-03    -32.9712E+06    -117.406E+06    -33.0044E+06    -500.193E+03    -26.4785E-03     53.0160E-03    -26.5374E-03     3.40030E-03    -26.4252E-03     52.5248E-03    -26.4844E-03     3.39218E-03
             139    -27.7026E-09     77.4793E-03    -32.8379E+06    -118.793E+06    -32.9762E+06    -391.371E+03    -26.4668E-03     53.0201E-03    -26.5533E-03     3.35884E-03    -26.4109E-03     52.5218E-03    -26.4983E-03     3.35217E-03
             140    -49.7398E-09     76.4797E-03    -32.0009E+06    -119.467E+06    -32.1133E+06    -6.00447E+03    -26.5009E-03     53.0252E-03    -26.5243E-03     3.36073E-03    -26.4411E-03     52.5210E-03    -26.4652E-03     3.35905E-03
             141     79.6142E-09     75.4804E-03    -31.7106E+06    -119.587E+06    -31.4933E+06     -54.895E+03    -26.5163E-03     53.0113E-03    -26.4950E-03     3.41317E-03    -26.4557E-03     52.5052E-03    -26.4331E-03     3.41084E-03
             142    -75.1758E-09     74.4808E-03    -30.8492E+06    -119.315E+06    -31.1263E+06     126.195E+03    -26.4959E-03     52.9868E-03    -26.4909E-03     3.44837E-03    -26.4320E-03     52.4803E-03    -26.4288E-03     3.44837E-03
             143     70.8768E-09     73.4816E-03    -30.9858E+06    -119.157E+06    -30.8189E+06     98.9843E+03    -26.4946E-03     52.9545E-03    -26.4600E-03     3.42604E-03    -26.4320E-03     52.4485E-03    -26.3963E-03     3.42571E-03
             144    -9.54261E-09     72.4823E-03    -30.9146E+06    -119.489E+06    -30.9729E+06    -119.421E+03    -26.4720E-03     52.9368E-03    -26.4647E-03     3.43801E-03    -26.4084E-03     52.4293E-03    -26.4015E-03     3.43482E-03
             145    -45.2124E-09     71.4830E-03    -31.3550E+06    -119.770E+06    -31.2341E+06    -101.220E+03    -26.4490E-03     52.9421E-03    -26.4931E-03     3.45372E-03    -26.3868E-03     52.4342E-03    -26.4301E-03     3.45078E-03
             146     18.4667E-09     70.4836E-03    -30.6755E+06    -120.295E+06    -30.8237E+06    -220.610E+03    -26.4930E-03     52.9434E-03    -26.4504E-03     3.47093E-03    -26.4272E-03     52.4313E-03    -26.3856E-03     3.46641E-03
             147     75.6636E-09     69.4843E-03    -30.9403E+06    -120.387E+06    -30.9690E+06     212.920E+03    -26.5068E-03     52.9183E-03    -26.4115E-03     3.46536E-03    -26.4420E-03     52.4064E-03    -26.3469E-03     3.46646E-03
             148    -8.53981E-09     68.4851E-03    -30.6246E+06    -119.861E+06    -30.3604E+06     59.2487E+03    -26.5016E-03     52.9182E-03    -26.4166E-03     3.38619E-03    -26.4369E-03     52.4075E-03    -26.3502E-03     3.38538E-03
             149     88.1438E-09     67.4858E-03    -30.2850E+06    -120.123E+06    -30.3180E+06    -208.097E+03    -26.5062E-03     52.9496E-03    -26.4434E-03     3.35175E-03    -26.4394E-03     52.4370E-03    -26.3769E-03     3.34748E-03
             150    -63.3227E-09     66.4865E-03    -30.6182E+06    -120.606E+06    -30.7218E+06    -85.1722E+03    -26.4305E-03     52.9651E-03    -26.5346E-03     3.38217E-03    -26.3641E-03     52.4513E-03    -26.4690E-03     3.37948E-03
             151    -150.513E-09     65.4870E-03    -29.7521E+06    -120.677E+06    -29.8847E+06    -24.4207E+03    -26.3832E-03     52.9659E-03    -26.5827E-03     3.36993E-03    -26.3136E-03     52.4492E-03    -26.5140E-03     3.36805E-03
             152     7.86498E-09     64.4877E-03    -30.0419E+06    -120.785E+06    -30.0214E+06     50.8448E+03    -26.4499E-03     52.9703E-03    -26.5203E-03     3.36676E-03    -26.3814E-03     52.4536E-03    -26.4517E-03     3.36588E-03
             153     6.33831E-09     63.4884E-03    -29.8063E+06    -120.570E+06    -29.8131E+06     155.836E+03    -26.5043E-03     52.9783E-03    -26.4740E-03     3.37239E-03    -26.4352E-03     52.4621E-03    -26.4050E-03     3.37284E-03
             154     27.0848E-09     62.4891E-03    -29.5821E+06    -120.390E+06    -29.4945E+06    -89.7974E+03    -26.5021E-03     52.9667E-03    -26.4646E-03     3.36033E-03    -26.4326E-03     52.4506E-03    -26.3946E-03     3.35756E-03
             155     847.477E-12     61.4897E-03    -29.6493E+06    -120.594E+06    -29.6824E+06    -168.135E+03    -26.5082E-03     52.9763E-03    -26.4681E-03     3.38203E-03    -26.4385E-03     52.4596E-03    -26.3987E-03     3.37821E-03
             156     35.7441E-09     60.4903E-03    -29.5979E+06    -120.500E+06    -29.6179E+06     46.5999E+03    -26.4893E-03     52.9903E-03    -26.5010E-03     3.41678E-03    -26.4195E-03     52.4738E-03    -26.4314E-03     3.41574E-03
             157    -98.6125E-09     59.4909E-03    -29.1123E+06    -119.966E+06    -29.2652E+06     272.496E+03    -26.4881E-03     52.9654E-03    -26.4773E-03     3.38975E-03    -26.4173E-03     52.4505E-03    -26.4075E-03     3.39170E-03
             158     173.315E-09     58.4917E-03    -30.4612E+06    -119.758E+06    -30.1301E+06     14.5761E+03    -26.4877E-03     52.9573E-03    -26.4695E-03     3.40800E-03    -26.4226E-03     52.4465E-03    -26.4024E-03     3.40664E-03
             159     94.8838E-09     56.4929E-03    -29.5886E+06    -119.445E+06    -29.3764E+06     126.842E+03    -26.4462E-03     52.9619E-03    -26.5157E-03     3.39454E-03    -26.3783E-03     52.4504E-03    -26.4465E-03     3.39455E-03
             160    -96.8660E-09     55.4937E-03    -29.7959E+06    -119.728E+06    -29.8011E+06    -333.881E+03    -26.4448E-03     52.9474E-03    -26.5026E-03     3.42636E-03    -26.3769E-03     52.4354E-03    -26.4348E-03     3.42038E-03
             161    -7.96727E-09     54.4943E-03    -30.2095E+06    -120.045E+06    -30.3783E+06     62.4465E+03    -26.4403E-03     52.9231E-03    -26.4828E-03     3.36277E-03    -26.3732E-03     52.4110E-03    -26.4168E-03     3.36194E-03
             162     31.0798E-09     53.4951E-03    -30.0361E+06    -119.577E+06    -29.8876E+06     142.656E+03    -26.4655E-03     52.9247E-03    -26.4592E-03     3.39395E-03    -26.3989E-03     52.4139E-03    -26.3917E-03     3.39416E-03
             163    -46.8607E-09     52.4956E-03    -29.8501E+06    -119.308E+06    -29.8735E+06    -5.93724E+03    -26.4783E-03     52.9237E-03    -26.4454E-03     3.41163E-03    -26.4112E-03     52.4140E-03    -26.3785E-03     3.40994E-03
             164     114.553E-09     51.4965E-03    -30.0392E+06    -119.620E+06    -30.0084E+06     35.0269E+03    -26.5006E-03     52.9143E-03    -26.4137E-03     3.41977E-03    -26.4338E-03     52.4034E-03    -26.3467E-03     3.41865E-03
             165    -35.0369E-09     50.4971E-03    -29.4631E+06    -119.452E+06    -29.6541E+06     116.638E+03    -26.4657E-03     52.9230E-03    -26.4574E-03     3.43561E-03    -26.3967E-03     52.4117E-03    -26.3897E-03     3.43549E-03
             166    -37.6746E-09     49.4979E-03    -30.4114E+06    -119.201E+06    -30.2788E+06     151.040E+03    -26.4243E-03     52.9406E-03    -26.5163E-03     3.45701E-03    -26.3596E-03     52.4329E-03    -26.4508E-03     3.45733E-03
             167    -54.9578E-09     48.4983E-03    -29.9307E+06    -118.832E+06    -30.0511E+06     131.397E+03    -26.4340E-03     52.9233E-03    -26.4893E-03     3.47125E-03    -26.3677E-03     52.4164E-03    -26.4239E-03     3.47133E-03
             168     43.5755E-09     47.4992E-03    -29.8087E+06    -118.431E+06    -29.6788E+06     9.32109E+03    -26.4526E-03     52.9029E-03    -26.4503E-03     3.39530E-03    -26.3869E-03     52.3972E-03    -26.3837E-03     3.39380E-03
             169    -31.9950E-09     46.5001E-03    -29.8430E+06    -118.626E+06    -29.8941E+06    -168.099E+03    -26.4734E-03     52.9057E-03    -26.4322E-03     3.23321E-03    -26.4073E-03     52.3994E-03    -26.3664E-03     3.22950E-03
             170     87.1814E-09     45.5007E-03    -29.9704E+06    -118.826E+06    -30.0116E+06    -30.6859E+03    -26.4561E-03     52.8553E-03    -26.3992E-03     3.24279E-03    -26.3901E-03     52.3484E-03    -26.3335E-03     3.24086E-03
             171    -47.9618E-09     44.5015E-03    -30.0142E+06    -118.955E+06    -30.0593E+06     75.6532E+03    -26.3729E-03     52.7772E-03    -26.4043E-03     3.32742E-03    -26.3068E-03     52.2697E-03    -26.3386E-03     3.32684E-03
             172    -52.0320E-09     43.5024E-03    -29.9978E+06    -118.770E+06    -29.9246E+06        -302.734    -26.2990E-03     52.6951E-03    -26.3961E-03     3.35515E-03    -26.2334E-03     52.1884E-03    -26.3300E-03     3.35357E-03
             173    -22.6069E-09     42.5032E-03    -30.1781E+06    -118.717E+06    -30.1874E+06    -20.0745E+03    -26.2892E-03     52.5531E-03    -26.2639E-03     3.31267E-03    -26.2241E-03     52.0473E-03    -26.1990E-03     3.31084E-03
             174     136.274E-09     41.5046E-03    -30.3902E+06    -118.877E+06    -30.4668E+06    -8.52604E+03    -26.2657E-03     52.3895E-03    -26.1239E-03     3.31252E-03    -26.2010E-03     51.8836E-03    -26.0598E-03     3.31082E-03
             175    -7.35421E-09     40.5057E-03    -29.9019E+06    -118.917E+06    -29.8608E+06    -62.9031E+03    -26.1556E-03     52.2728E-03    -26.1172E-03     3.34932E-03    -26.0893E-03     51.7651E-03    -26.0507E-03     3.34687E-03
             176    -58.9938E-09     39.5073E-03    -30.3306E+06    -119.267E+06    -30.3076E+06    -178.859E+03    -25.9954E-03     52.1203E-03    -26.1248E-03     3.29791E-03    -25.9301E-03     51.6121E-03    -26.0594E-03     3.29403E-03
             177    -106.422E-09     38.5088E-03    -29.9998E+06    -119.537E+06    -30.1226E+06     -70.522E+03    -25.9475E-03     51.9583E-03    -26.0108E-03     3.22168E-03    -25.8804E-03     51.4481E-03    -25.9446E-03     3.21928E-03
             178     154.528E-09     37.5107E-03    -30.2297E+06    -119.552E+06    -30.1274E+06     75.1533E+03    -25.9468E-03     51.8349E-03    -25.8881E-03     3.17775E-03    -25.8808E-03     51.3249E-03    -25.8216E-03     3.17727E-03
             179    -103.430E-09     36.5125E-03    -29.8262E+06    -119.187E+06    -29.9368E+06     94.1220E+03    -25.8224E-03     51.6642E-03    -25.8419E-03     3.16972E-03    -25.7552E-03     51.1552E-03    -25.7755E-03     3.16949E-03
             180     12.0414E-09     35.5145E-03    -29.8132E+06    -118.883E+06    -29.8247E+06     145.692E+03    -25.6773E-03     51.4327E-03    -25.7554E-03     3.18488E-03    -25.6107E-03     50.9250E-03    -25.6889E-03     3.18533E-03
             181    -62.6108E-09     34.5168E-03    -30.0432E+06    -119.040E+06    -30.0439E+06    -68.5106E+03    -25.5477E-03     51.1897E-03    -25.6420E-03     3.18556E-03    -25.4817E-03     50.6819E-03    -25.5760E-03     3.18325E-03
             182    -57.0228E-09     33.5193E-03    -29.0403E+06    -119.212E+06    -29.1111E+06     1.56253E+03    -25.3997E-03     50.8910E-03    -25.4913E-03     3.09788E-03    -25.3297E-03     50.3795E-03    -25.4219E-03     3.09653E-03
             183     10.4616E-09     32.5223E-03    -29.3822E+06    -119.217E+06    -29.2902E+06     19.4467E+03    -25.2769E-03     50.5393E-03    -25.2624E-03     3.02435E-03    -25.2083E-03     50.0285E-03    -25.1934E-03     3.02325E-03
             184     58.1243E-09     31.5257E-03    -29.1709E+06    -118.899E+06    -29.2506E+06     42.5603E+03    -25.0999E-03     50.1658E-03    -25.0659E-03     2.98368E-03    -25.0309E-03     49.6563E-03    -24.9975E-03     2.98283E-03
             185    -72.1587E-09     30.5292E-03    -29.1663E+06    -118.567E+06    -29.2000E+06     60.3574E+03    -24.8471E-03     49.7274E-03    -24.8803E-03     2.96884E-03    -24.7786E-03     49.2195E-03    -24.8121E-03     2.96823E-03
             186     23.1869E-09     29.5334E-03    -29.2154E+06    -118.236E+06    -29.3386E+06     157.127E+03    -24.6416E-03     49.2540E-03    -24.6124E-03     2.97240E-03    -24.5736E-03     48.7480E-03    -24.5453E-03     2.97312E-03
             187     71.4498E-09     28.5379E-03    -28.6854E+06    -117.371E+06    -28.7534E+06     461.965E+03    -24.3828E-03     48.7093E-03    -24.3264E-03     2.99013E-03    -24.3143E-03     48.2059E-03    -24.2584E-03     2.99480E-03
             188    -72.0719E-09     27.5432E-03    -29.9878E+06    -115.551E+06    -30.1129E+06     698.384E+03    -23.9759E-03     48.0370E-03    -24.0612E-03     2.89839E-03    -23.9145E-03     47.5467E-03    -24.0007E-03     2.90613E-03
             189    -82.7512E-09     26.5491E-03    -29.6838E+06    -114.414E+06    -29.1705E+06    -103.150E+03    -23.6342E-03     47.3929E-03    -23.7587E-03     2.74005E-03    -23.5743E-03     46.9064E-03    -23.6956E-03     2.73750E-03
             190     20.9994E-09     25.5558E-03    -27.7801E+06    -115.250E+06    -28.1076E+06    -516.354E+03    -23.4128E-03     46.7708E-03    -23.3581E-03     2.57867E-03    -23.3437E-03     46.2759E-03    -23.2912E-03     2.57083E-03
             191     130.084E-09     24.5628E-03    -28.6476E+06    -115.844E+06    -28.5858E+06     165.695E+03    -23.0440E-03     46.0216E-03    -22.9776E-03     2.55337E-03    -22.9777E-03     45.5256E-03    -22.9110E-03     2.55440E-03
             192    -166.741E-09     23.5710E-03    -27.9447E+06    -115.272E+06    -27.9126E+06     55.2940E+03    -22.5921E-03     45.2524E-03    -22.6604E-03     2.52395E-03    -22.5241E-03     44.7573E-03    -22.5923E-03     2.52359E-03
             193     80.5041E-09     22.5795E-03    -27.9009E+06    -114.846E+06    -28.1506E+06     284.188E+03    -22.2307E-03     44.4348E-03    -22.2041E-03     2.41694E-03    -22.1627E-03     43.9420E-03    -22.1379E-03     2.41958E-03
             194     46.9332E-09     21.5892E-03    -27.7239E+06    -113.843E+06    -27.6553E+06     370.562E+03    -21.7445E-03     43.4877E-03    -21.7432E-03     2.37863E-03    -21.6779E-03     42.9990E-03    -21.6762E-03     2.38245E-03
             195    -174.052E-09     20.5999E-03    -27.0470E+06    -112.681E+06    -27.1535E+06     419.552E+03    -21.2014E-03     42.5080E-03    -21.3066E-03     2.12459E-03    -21.1338E-03     42.0234E-03    -21.2398E-03     2.12911E-03
             196     112.420E-09     19.6115E-03    -25.7592E+06    -110.331E+06    -25.9262E+06     960.547E+03    -20.7640E-03     41.5465E-03    -20.7825E-03     1.96630E-03    -20.6951E-03     41.0701E-03    -20.7148E-03     1.97787E-03
             197    -87.2176E-09     18.6239E-03    -25.9849E+06    -106.510E+06    -26.0322E+06     1.19913E+06    -20.2483E-03     40.4814E-03    -20.2331E-03     1.91081E-03    -20.1859E-03     40.0245E-03    -20.1712E-03     1.92550E-03
             198     86.4843E-09     17.6375E-03    -26.2386E+06    -102.867E+06    -26.0733E+06     1.02285E+06    -19.6031E-03     39.2128E-03    -19.6097E-03     1.83225E-03    -19.5472E-03     38.7745E-03    -19.5529E-03     1.84474E-03
             199    -97.1471E-09     16.6525E-03    -23.7641E+06    -99.2124E+06    -24.0192E+06     1.12536E+06    -18.8854E-03     37.7430E-03    -18.8576E-03     1.57798E-03    -18.8254E-03     37.3164E-03    -18.7994E-03     1.59187E-03
             200     152.864E-09     15.6691E-03    -21.7127E+06    -95.5798E+06    -21.5144E+06     1.11377E+06    -18.0650E-03     36.1388E-03    -18.0738E-03     1.23972E-03    -18.0036E-03     35.7237E-03    -18.0113E-03     1.25355E-03
             201    -222.685E-09     14.6876E-03    -18.6459E+06    -91.7729E+06    -18.8956E+06     1.07201E+06    -17.3138E-03     34.5714E-03    -17.2577E-03     904.717E-06    -17.2464E-03     34.1672E-03    -17.1920E-03     918.107E-06
             202     388.546E-09     13.7069E-03    -14.6433E+06    -88.3274E+06    -14.4350E+06     1.18473E+06    -16.5566E-03     32.8565E-03    -16.2999E-03     667.997E-06    -16.4806E-03     32.4572E-03    -16.2227E-03     682.954E-06
             203    -97.4723E-09     12.7285E-03    -11.0192E+06    -85.6376E+06    -10.6743E+06     518.104E+03    -15.4517E-03     30.7457E-03    -15.2940E-03     467.549E-06    -15.3670E-03     30.3492E-03    -15.2072E-03     473.954E-06
             204     89.6668E-09     11.7522E-03    -12.5401E+06    -84.6746E+06    -12.5574E+06    -68.9970E+03    -14.2044E-03     28.4001E-03    -14.1956E-03     215.770E-06    -14.1260E-03     28.0133E-03    -14.1175E-03     214.570E-06
             205    -66.2398E-09     10.7782E-03    -17.5988E+06    -85.0585E+06    -17.5615E+06    -292.606E+03    -13.1042E-03     26.1732E-03    -13.0691E-03     260.179E-06    -13.0432E-03     25.7991E-03    -13.0080E-03     256.023E-06
             206     105.623E-09     9.80614E-03    -21.3281E+06     -85.644E+06    -20.9051E+06    -271.158E+03    -12.4534E-03     24.7937E-03    -12.3403E-03     532.232E-06    -12.4053E-03     24.4269E-03    -12.2897E-03     528.345E-06
             207     60.5712E-09     8.83505E-03    -22.7195E+06    -87.2511E+06    -22.2369E+06    -471.856E+03    -12.4841E-03     24.8827E-03    -12.3986E-03     878.875E-06    -12.4386E-03     24.5119E-03    -12.3503E-03     872.457E-06
             208    -70.0098E-09     7.86275E-03    -21.2912E+06    -89.2964E+06    -21.2148E+06    -633.850E+03    -13.1753E-03     26.3841E-03    -13.2088E-03     1.09777E-03    -13.1212E-03     25.9995E-03    -13.1545E-03     1.08931E-03
             209     20.2338E-09     6.88869E-03    -18.3513E+06    -91.4646E+06    -18.1815E+06    -683.085E+03    -14.4408E-03     28.8719E-03    -14.4311E-03     1.25569E-03    -14.3733E-03     28.4678E-03    -14.3628E-03     1.24663E-03
             210     48.1036E-09     5.91138E-03    -16.2569E+06     -93.333E+06    -16.2357E+06    -550.170E+03    -15.9041E-03     31.7730E-03    -15.8689E-03     1.39013E-03    -15.8262E-03     31.3536E-03    -15.7912E-03     1.38281E-03
             211    -54.3877E-09     4.93161E-03    -16.1214E+06    -94.2153E+06    -16.3598E+06    -167.621E+03    -17.3107E-03     34.6572E-03    -17.3464E-03     1.32773E-03    -17.2307E-03     34.2334E-03    -17.2682E-03     1.32535E-03
             212    -5.73868E-09     3.94893E-03    -15.3009E+06    -94.1045E+06    -15.5624E+06     210.315E+03    -18.6266E-03     37.2807E-03    -18.6541E-03     1.14225E-03    -18.5438E-03     36.8552E-03    -18.5733E-03     1.14477E-03
             213     13.6016E-09     2.96378E-03    -15.9254E+06    -93.9159E+06    -16.0696E+06     241.218E+03    -19.6791E-03     39.4129E-03    -19.7338E-03     962.104E-06    -19.5988E-03     38.9900E-03    -19.6549E-03     965.048E-06
             214    -120.496E-09     1.97713E-03     -13.683E+06    -93.2369E+06    -13.7084E+06      318.42E+03    -20.5174E-03     41.0640E-03    -20.5466E-03     652.057E-06    -20.4302E-03     40.6379E-03    -20.4601E-03     656.049E-06
             215     174.506E-09     988.706E-06    -11.8837E+06    -92.0139E+06    -11.7788E+06     285.319E+03    -21.0459E-03     42.0673E-03    -21.0213E-03     346.227E-06    -20.9540E-03     41.6419E-03    -20.9296E-03     349.960E-06
             216     881.243E-06     159.595E-18    -13.3949E+06    -94.1090E+06    -12.7431E+06    -156.281E+03    -21.2645E-03     42.4758E-03    -21.2114E-03     267.109E-06    -21.1760E-03     42.0434E-03    -21.1192E-03     265.136E-06
             217     1.76214E-03     159.595E-18    -12.6560E+06    -96.6503E+06    -11.5894E+06    -83.0220E+03    -21.5112E-03     42.8133E-03    -21.3021E-03     500.098E-06    -21.4175E-03     42.3652E-03    -21.2016E-03     498.948E-06
             218     2.64282E-03     159.595E-18    -12.4655E+06    -97.1592E+06    -12.3735E+06     78.8887E+03    -21.8628E-03     43.2884E-03    -21.4256E-03     839.520E-06    -21.7663E-03     42.8386E-03    -21.3285E-03     840.428E-06
             219     3.52317E-03     159.595E-18    -12.5134E+06    -98.2383E+06    -13.9753E+06    -156.779E+03    -22.3482E-03     43.9344E-03    -21.5862E-03     1.14136E-03    -22.2480E-03     43.4816E-03    -21.4954E-03     1.13916E-03
             220     4.40305E-03     159.595E-18    -12.5591E+06    -99.7753E+06    -16.6173E+06    -428.723E+03    -22.9799E-03     44.7659E-03    -21.7860E-03     1.48337E-03    -22.8739E-03     44.3093E-03    -21.7062E-03     1.47760E-03
             221     5.28219E-03     159.595E-18    -12.2419E+06    -102.236E+06    -21.4225E+06    -1.18030E+06    -23.7556E-03     45.7769E-03    -22.0212E-03     1.90247E-03    -23.6375E-03     45.3145E-03    -21.9623E-03     1.88691E-03
             222     6.16068E-03     159.595E-18    -11.1967E+06    -101.635E+06    -28.0376E+06    -2.11699E+06    -24.6688E-03     46.9562E-03    -22.2874E-03     2.36163E-03    -24.5367E-03     46.5049E-03    -22.2639E-03     2.33385E-03
             223     7.03825E-03     159.595E-18    -9.54683E+06    -99.6048E+06    -32.6626E+06    -2.72013E+06    -25.7243E-03     48.3307E-03    -22.6063E-03     2.89606E-03    -25.5803E-03     47.8939E-03    -22.6114E-03     2.86029E-03
             224     7.91476E-03     159.595E-18    -6.94151E+06    -94.4353E+06    -39.0053E+06    -3.81697E+06    -26.9315E-03     49.8890E-03    -22.9575E-03     3.53376E-03    -26.7727E-03     49.4835E-03    -23.0055E-03     3.48351E-03
             225     8.79021E-03     159.595E-18    -3.50806E+06    -84.1864E+06    -46.4603E+06    -4.34668E+06    -28.3212E-03     51.6649E-03    -23.3438E-03     4.36011E-03    -28.1493E-03     51.3165E-03    -23.4489E-03     4.30270E-03
             226     9.66405E-03     159.595E-18     159.859E+03    -72.2375E+06    -50.6804E+06    -4.85801E+06    -29.8759E-03     53.6712E-03    -23.7953E-03     5.34419E-03    -29.6969E-03     53.3833E-03    -23.9442E-03     5.27950E-03
             227     10.5367E-03     159.595E-18     4.09723E+06    -56.3593E+06    -52.7193E+06    -4.94058E+06    -31.6328E-03     55.9390E-03    -24.3062E-03     6.49844E-03    -31.4542E-03     55.7278E-03    -24.4940E-03     6.43155E-03
             228     11.4074E-03     159.595E-18     7.95891E+06    -36.5864E+06    -49.5869E+06    -4.37429E+06    -33.7561E-03     58.6578E-03    -24.9017E-03     8.21940E-03    -33.5915E-03     58.5355E-03    -25.1081E-03     8.15854E-03
             229     12.2755E-03     159.595E-18     11.0186E+06    -9.15388E+06    -41.6416E+06    -3.33368E+06    -36.2536E-03     61.8430E-03    -25.5894E-03     11.0500E-03    -36.1253E-03     61.8420E-03    -25.8003E-03     11.0009E-03
             230     13.1405E-03     159.595E-18     11.4864E+06     29.0128E+06    -32.1666E+06    -1.56497E+06    -39.1719E-03     65.5352E-03    -26.3634E-03     13.5936E-03    -39.1107E-03     65.7113E-03    -26.5829E-03     13.5613E-03
             231     14.0054E-03     159.595E-18     9.18091E+06     63.1430E+06    -14.2564E+06     3.39137E+06    -43.4497E-03     70.7678E-03    -27.3181E-03     17.8468E-03    -43.4761E-03     71.0924E-03    -27.4943E-03     17.8740E-03
             232     14.8595E-03     159.595E-18     6.02553E+06     83.3977E+06     12.0614E+06     2.68512E+06    -48.3285E-03     76.8310E-03    -28.5024E-03     27.2909E-03    -48.4391E-03     77.2227E-03    -28.5718E-03     27.3117E-03
             233     15.7071E-03     159.595E-18     3.45904E+06     97.7871E+06     46.1774E+06    -4.14980E+06    -52.1232E-03     81.9908E-03    -29.8676E-03     46.7857E-03    -52.3309E-03     82.4188E-03    -29.7836E-03     46.6745E-03
             234     16.5447E-03     159.595E-18     3.88062E+06     106.998E+06     72.9510E+06     2.73653E+06    -51.0534E-03     82.2325E-03    -31.1791E-03     65.8638E-03    -51.3666E-03     82.7204E-03    -30.9751E-03     65.7222E-03
             235     17.4718E-03     1.02170E-03     2.53814E+06     111.324E+06     73.0838E+06     6.96945E+06    -51.6324E-03     81.7099E-03    -30.0775E-03     56.4483E-03    -52.0162E-03     82.2864E-03    -29.8772E-03     56.2366E-03
             236     17.5027E-03     2.06334E-03    -5.47388E+06     113.032E+06     69.5572E+06     3.46799E+06    -62.1540E-03     89.6993E-03    -27.5454E-03     38.1148E-03    -62.6157E-03     90.3467E-03    -27.3535E-03     37.7106E-03
             237     17.5191E-03     3.11752E-03    -4.66574E+06     120.311E+06     77.8670E+06     3.37474E+06    -67.2333E-03     93.6043E-03    -26.3710E-03     35.4094E-03    -67.7474E-03     94.3055E-03    -26.1494E-03     34.9315E-03
             238     17.5298E-03     4.16149E-03    -529.437E+03     127.099E+06     83.1406E+06     609.246E+03    -64.2268E-03     90.1321E-03    -25.9053E-03     34.7874E-03    -64.7516E-03     90.8650E-03    -25.6731E-03     34.3205E-03
             239     17.5298E-03     5.19420E-03    -3.44052E+06     126.481E+06     81.8545E+06    -796.989E+03    -63.1962E-03     88.9368E-03    -25.7405E-03     28.6075E-03    -63.7186E-03     89.6581E-03    -25.5097E-03     28.1663E-03
             240     17.5319E-03     6.23158E-03    -2.46907E+06     128.405E+06     83.5172E+06     37.3613E+03    -61.1422E-03     86.9111E-03    -25.7689E-03     25.8388E-03    -61.6524E-03     87.6268E-03    -25.5339E-03     25.4571E-03
             241     17.5294E-03     7.26833E-03    -1.73880E+06     129.607E+06     83.6369E+06     1.71636E+06    -56.4330E-03     82.3232E-03    -25.8902E-03     28.6833E-03    -56.9478E-03     83.0499E-03    -25.6575E-03     28.3916E-03
             242     17.5318E-03     8.29435E-03    -2.24527E+06     129.632E+06     82.3473E+06     461.277E+03    -51.6823E-03     77.6892E-03    -26.0070E-03     29.4096E-03    -52.1981E-03     78.4183E-03    -25.7799E-03     29.1746E-03
             243     17.5292E-03     9.31598E-03    -2.05836E+06     130.319E+06     82.6054E+06    -335.635E+03    -49.0116E-03     75.1064E-03    -26.0947E-03     27.0520E-03    -49.5184E-03     75.8287E-03    -25.8677E-03     26.8596E-03
             244     17.5306E-03     10.3373E-03    -1.62614E+06     130.672E+06     82.5709E+06     333.680E+03    -46.4833E-03     72.6547E-03    -26.1714E-03     24.6460E-03    -46.9769E-03     73.3668E-03    -25.9456E-03     24.5092E-03
             245     17.5294E-03     11.3545E-03    -2.53816E+06     130.117E+06     81.3716E+06    -516.561E+03    -44.2280E-03     70.4559E-03    -26.2278E-03     23.6621E-03    -44.7198E-03     71.1645E-03    -26.0059E-03     23.5561E-03
             246     17.5301E-03     12.3719E-03    -2.45066E+06     131.014E+06     81.8754E+06     8.67423E+03    -42.2497E-03     68.5294E-03    -26.2796E-03     20.3230E-03    -42.7331E-03     69.2314E-03    -26.0567E-03     20.2608E-03
             247     17.5298E-03     13.3826E-03    -1.52330E+06     131.910E+06     82.7904E+06     625.846E+03    -40.3173E-03     66.6485E-03    -26.3312E-03     17.6745E-03    -40.7884E-03     67.3422E-03    -26.1063E-03     17.6543E-03
             248     17.5296E-03     14.3987E-03    -1.62668E+06     131.609E+06     82.3374E+06     388.033E+03    -38.1617E-03     64.5193E-03    -26.3576E-03     18.1526E-03    -38.6310E-03     65.2114E-03    -26.1343E-03     18.1566E-03
             249     17.5321E-03     15.4086E-03    -2.38151E+06     131.323E+06     81.9670E+06    -823.904E+03    -37.8401E-03     64.1750E-03    -26.3350E-03     21.6167E-03    -38.3254E-03     64.8806E-03    -26.1121E-03     21.6194E-03
             250     17.5294E-03     16.4240E-03    -3.14238E+06     130.935E+06     81.4253E+06     191.111E+03    -37.5952E-03     63.9368E-03    -26.3416E-03     20.2525E-03    -38.0828E-03     64.6423E-03    -26.1198E-03     20.2783E-03
             251     17.5321E-03     17.4321E-03    -4.32962E+06     129.881E+06     80.1949E+06    -405.419E+03    -34.7973E-03     61.1845E-03    -26.3872E-03     19.3825E-03    -35.2845E-03     61.8850E-03    -26.1682E-03     19.4412E-03
             252     17.5309E-03     18.4370E-03    -280.873E+03     134.337E+06     84.4696E+06     195.694E+03    -33.4485E-03     59.8377E-03    -26.3892E-03     21.6642E-03    -33.9354E-03     60.5560E-03    -26.1612E-03     21.7568E-03
             253     17.5335E-03     19.4537E-03    -945.463E+03     134.625E+06     84.1568E+06     129.779E+03    -33.9196E-03     60.2916E-03    -26.3721E-03     27.6030E-03    -34.4409E-03     61.0439E-03    -26.1451E-03     27.7002E-03
             254     17.5299E-03     20.4582E-03    -4.38494E+06     131.564E+06     80.8684E+06    -313.902E+03    -33.1699E-03     59.5527E-03    -26.3827E-03     27.0384E-03    -33.6989E-03     60.2988E-03    -26.1628E-03     27.1457E-03
             255     17.5346E-03     21.4622E-03    -1.36005E+06     135.042E+06     84.5796E+06      76.135E+03    -30.9426E-03     57.3529E-03    -26.4102E-03     26.6152E-03    -31.4596E-03     58.0997E-03    -26.1812E-03     26.7652E-03
             256     17.5314E-03     22.4713E-03    -1.05841E+06     135.396E+06     85.1977E+06     873.954E+03    -30.1533E-03     56.5728E-03    -26.4195E-03     30.5577E-03    -30.6840E-03     57.3338E-03    -26.1883E-03     30.7347E-03
             257     17.5340E-03     23.4745E-03    -1.07821E+06     135.340E+06     84.8362E+06     1.20645E+06    -29.4674E-03     55.8874E-03    -26.4201E-03     29.7577E-03    -29.9948E-03     56.6458E-03    -26.1906E-03     29.9433E-03
             258     17.5330E-03     24.4713E-03    -3.47233E+06     133.533E+06     82.7269E+06     166.665E+03    -30.5876E-03     56.9682E-03    -26.3807E-03     26.8888E-03    -31.1112E-03     57.7140E-03    -26.1556E-03     27.0540E-03
             259     17.5328E-03     25.4828E-03    -2.66718E+06     134.138E+06     83.1791E+06     1.19680E+06    -29.2749E-03     55.6789E-03    -26.4040E-03     23.5956E-03    -29.7840E-03     56.4137E-03    -26.1787E-03     23.7856E-03
             260     17.5349E-03     26.4779E-03    -2.60074E+06     134.971E+06     83.8781E+06    -572.784E+03    -27.8679E-03     54.2994E-03    -26.4315E-03     25.8447E-03    -28.3889E-03     55.0472E-03    -26.2041E-03     26.0429E-03
             261     17.5316E-03     27.4845E-03    -1.39588E+06     135.742E+06     84.5406E+06    -185.268E+03    -27.8162E-03     54.2455E-03    -26.4293E-03     23.7986E-03    -28.3268E-03     54.9882E-03    -26.2014E-03     23.9977E-03
             262     17.5363E-03     28.4831E-03    -2.83168E+06     135.062E+06     83.5593E+06    -1.74556E+06    -27.4882E-03     53.9117E-03    -26.4235E-03     26.3559E-03    -28.0161E-03     54.6673E-03    -26.1974E-03     26.5499E-03
             263     17.5311E-03     29.4865E-03    -2.30949E+06     136.519E+06     85.0386E+06     413.577E+03    -28.2519E-03     54.6651E-03    -26.4132E-03     27.6746E-03    -28.7865E-03     55.4304E-03    -26.1826E-03     27.8960E-03
             264     17.5365E-03     30.4938E-03    -313.202E+03     137.933E+06     86.3091E+06     1.57800E+06    -26.6629E-03     53.1155E-03    -26.4526E-03     32.3510E-03    -27.2090E-03     53.9007E-03    -26.2206E-03     32.6087E-03
             265     17.5312E-03     31.4903E-03    -3.95685E+06     135.435E+06     83.4373E+06     897.909E+03    -26.7004E-03     53.1607E-03    -26.4603E-03     30.9846E-03    -27.2548E-03     53.9404E-03    -26.2338E-03     31.2367E-03
             266     17.5354E-03     32.4874E-03    -2.95737E+06     136.845E+06     84.5409E+06     288.965E+03    -26.8109E-03     53.2531E-03    -26.4422E-03     24.9302E-03    -27.3363E-03     54.0091E-03    -26.2136E-03     25.1619E-03
             267     17.5334E-03     33.4879E-03    -1.61710E+06     137.837E+06     85.8291E+06    -674.684E+03    -26.3696E-03     52.8107E-03    -26.4411E-03     26.3755E-03    -26.8945E-03     53.5708E-03    -26.2095E-03     26.6045E-03
             268     17.5343E-03     34.4956E-03    -51.7291E+03     138.732E+06     86.8969E+06     1.04807E+06    -24.3604E-03     50.8405E-03    -26.4801E-03     27.9347E-03    -24.8902E-03     51.6111E-03    -26.2467E-03     28.2089E-03
             269     17.5355E-03     35.4813E-03    -3.48615E+06     135.695E+06     84.0493E+06    -2.78125E+06    -26.4309E-03     52.8557E-03    -26.4248E-03     28.3103E-03    -26.9742E-03     53.6250E-03    -26.1963E-03     28.5208E-03
             270     17.5321E-03     36.4925E-03    -2.93587E+06     134.552E+06     84.1872E+06    -960.671E+03    -28.0277E-03     54.4340E-03    -26.4063E-03     24.0934E-03    -28.5487E-03     55.1787E-03    -26.1762E-03     24.2993E-03
             271     17.5363E-03     37.4909E-03    -620.784E+03     136.810E+06     86.7153E+06     478.215E+03    -24.6969E-03     51.1836E-03    -26.4867E-03     29.6724E-03    -25.2328E-03     51.9520E-03    -26.2506E-03     29.9491E-03
             272     17.5322E-03     38.4910E-03    -1.86822E+06     135.732E+06     85.5041E+06     196.830E+03    -25.5447E-03     52.0336E-03    -26.4889E-03     31.9300E-03    -26.0935E-03     52.8100E-03    -26.2555E-03     32.1994E-03
             273     17.5344E-03     39.4913E-03    -3.00029E+06     134.189E+06     83.3546E+06     974.337E+03    -26.3744E-03     52.8440E-03    -26.4696E-03     29.9633E-03    -26.9144E-03     53.6083E-03    -26.2430E-03     30.2189E-03
             274     17.5334E-03     40.4865E-03    -4.09036E+06     134.544E+06     83.4711E+06     232.745E+03    -27.0409E-03     53.4981E-03    -26.4572E-03     27.9779E-03    -27.5785E-03     54.2571E-03    -26.2290E-03     28.2178E-03
             275     17.5329E-03     41.4941E-03    -2.33530E+06     136.068E+06     85.6716E+06     1.27347E+06    -25.6915E-03     52.1929E-03    -26.5014E-03     26.3717E-03    -26.2179E-03     52.9458E-03    -26.2669E-03     26.6363E-03
             276     17.5347E-03     42.4857E-03     -775.47E+03     137.448E+06     86.4071E+06    -497.782E+03    -23.9985E-03     50.5083E-03    -26.5097E-03     27.5448E-03    -24.5234E-03     51.2678E-03    -26.2759E-03     27.8058E-03
             277     17.5340E-03     43.4863E-03    -2.36034E+06     135.835E+06     84.7975E+06    -1.05310E+06    -26.3561E-03     52.8145E-03    -26.4584E-03     26.0581E-03    -26.8801E-03     53.5665E-03    -26.2279E-03     26.2873E-03
             278     17.5326E-03     44.4894E-03    -3.84788E+06     135.400E+06     84.0845E+06     1.50810E+06    -26.4063E-03     52.8882E-03    -26.4819E-03     26.1893E-03    -26.9362E-03     53.6413E-03    -26.2523E-03     26.4522E-03
             279     17.5343E-03     45.4871E-03    -1.10270E+06     138.433E+06     86.0313E+06     1.00246E+06    -24.5974E-03     51.1085E-03    -26.5111E-03     26.5228E-03    -25.1234E-03     51.8725E-03    -26.2800E-03     26.7980E-03
             280     17.5337E-03     46.4842E-03    -2.10719E+06     138.200E+06     85.4226E+06    -1.20606E+06    -25.0662E-03     51.5468E-03    -26.4806E-03     24.9885E-03    -25.5910E-03     52.3070E-03    -26.2508E-03     25.2281E-03
             281     17.5344E-03     47.4833E-03    -2.15581E+06     139.153E+06     86.3496E+06    -636.032E+03    -25.7631E-03     52.2235E-03    -26.4605E-03     25.7110E-03    -26.2904E-03     52.9867E-03    -26.2274E-03     25.9532E-03
             282     17.5339E-03     48.4885E-03    -943.991E+03     140.324E+06     87.5818E+06     689.987E+03    -25.1528E-03     51.6306E-03    -26.4778E-03     29.8546E-03    -25.6951E-03     52.4138E-03    -26.2420E-03     30.1268E-03
             283     17.5343E-03     49.4854E-03    -2.91809E+06     138.231E+06     85.4956E+06     117.226E+03    -25.0574E-03     51.5351E-03    -26.4777E-03     29.5948E-03    -25.6041E-03     52.3143E-03    -26.2465E-03     29.8584E-03
             284     17.5339E-03     50.4802E-03    -3.04281E+06     138.139E+06     85.3108E+06    -222.886E+03    -26.0670E-03     52.5259E-03    -26.4589E-03     25.9295E-03    -26.5982E-03     53.2893E-03    -26.2282E-03     26.1721E-03
             285     17.5337E-03     51.4849E-03    -2.76237E+06     138.293E+06     85.4903E+06     660.938E+03    -26.1862E-03     52.6487E-03    -26.4625E-03     26.9097E-03    -26.7205E-03     53.4162E-03    -26.2316E-03     27.1638E-03
             286     17.5340E-03     52.4841E-03    -2.27079E+06     138.772E+06     86.0620E+06     679.401E+03    -25.0271E-03     51.5118E-03    -26.4846E-03     28.1526E-03    -25.5652E-03     52.2848E-03    -26.2522E-03     28.4208E-03
             287     17.5342E-03     53.4813E-03    -1.57010E+06     139.706E+06     87.0547E+06     439.853E+03    -24.6057E-03     51.0973E-03    -26.4916E-03     26.7453E-03    -25.1370E-03     51.8665E-03    -26.2566E-03     27.0158E-03
             288     17.5339E-03     54.4792E-03    -1.43079E+06     139.772E+06     87.0091E+06    -336.625E+03    -25.1502E-03     51.6228E-03    -26.4726E-03     25.9552E-03    -25.6781E-03     52.3895E-03    -26.2381E-03     26.2067E-03
             289     17.5346E-03     55.4795E-03    -2.06916E+06     139.122E+06     86.3144E+06    -1.11627E+06    -25.8935E-03     52.3501E-03    -26.4566E-03     26.4225E-03    -26.4245E-03     53.1174E-03    -26.2238E-03     26.6550E-03
             290     17.5332E-03     56.4806E-03    -3.24003E+06     138.165E+06     85.7618E+06     287.193E+03    -26.2825E-03     52.7539E-03    -26.4714E-03     26.8577E-03    -26.8183E-03     53.5199E-03    -26.2382E-03     27.1091E-03
             291     17.5336E-03     57.4802E-03    -996.522E+03     139.961E+06     87.4597E+06     961.816E+03    -24.3351E-03     50.8422E-03    -26.5071E-03     25.7684E-03    -24.8565E-03     51.6034E-03    -26.2713E-03     26.0386E-03
             292     876.532E-06     58.4949E-03    -29.8611E+06    -118.923E+06    -29.1077E+06    -55.1116E+03    -26.4909E-03     52.9678E-03    -26.4770E-03     5.72814E-03    -26.4256E-03     52.4589E-03    -26.4068E-03     5.72469E-03
             293     1.75307E-03     58.5025E-03    -28.7857E+06    -117.027E+06    -26.1956E+06    -50.9773E+03    -26.4996E-03     52.9900E-03    -26.4904E-03     10.5847E-03    -26.4363E-03     52.4850E-03    -26.4099E-03     10.5787E-03
             294     2.62963E-03     58.5150E-03    -27.5652E+06    -114.805E+06    -22.3355E+06    -13.2751E+03    -26.5177E-03     53.0186E-03    -26.5009E-03     15.7015E-03    -26.4576E-03     52.5179E-03    -26.4062E-03     15.6930E-03
             295     3.50619E-03     58.5323E-03    -25.9601E+06    -110.152E+06    -18.7196E+06    -114.655E+03    -26.5423E-03     53.0460E-03    -26.5037E-03     20.8671E-03    -26.4871E-03     52.5619E-03    -26.4000E-03     20.8537E-03
             296     4.38280E-03     58.5546E-03    -24.0074E+06    -103.722E+06    -14.0406E+06    -68.4551E+03    -26.5778E-03     53.0849E-03    -26.5071E-03     26.0263E-03    -26.5303E-03     52.6247E-03    -26.3921E-03     26.0091E-03
             297     5.25938E-03     58.5817E-03    -21.6576E+06    -97.2038E+06    -8.60211E+06     136.477E+03    -26.6279E-03     53.1408E-03    -26.5129E-03     31.1332E-03    -26.5880E-03     52.7039E-03    -26.3835E-03     31.1133E-03
             298     6.13602E-03     58.6137E-03    -19.2581E+06    -91.6551E+06    -4.18615E+06     115.609E+03    -26.6934E-03     53.2080E-03    -26.5146E-03     36.1532E-03    -26.6588E-03     52.7918E-03    -26.3747E-03     36.1264E-03
             299     7.01263E-03     58.6503E-03    -16.9759E+06    -84.9774E+06    -688.646E+03     116.291E+03    -26.7683E-03     53.2786E-03    -26.5103E-03     41.0999E-03    -26.7411E-03     52.8915E-03    -26.3659E-03     41.0649E-03
             300     7.88932E-03     58.6916E-03    -15.0231E+06    -77.5826E+06     1.56142E+06     103.415E+03    -26.8551E-03     53.3543E-03    -26.4993E-03     45.9320E-03    -26.8379E-03     53.0039E-03    -26.3572E-03     45.8868E-03
             301     8.76594E-03     58.7374E-03    -13.3949E+06    -71.6317E+06     2.31297E+06     71.0354E+03    -26.9516E-03     53.4354E-03    -26.4838E-03     50.6215E-03    -26.9440E-03     53.1192E-03    -26.3489E-03     50.5638E-03
             302     9.64265E-03     58.7877E-03    -11.9550E+06    -64.6471E+06     2.52305E+06     49.8164E+03    -27.0368E-03     53.5008E-03    -26.4640E-03     55.2175E-03    -27.0437E-03     53.2284E-03    -26.3403E-03     55.1452E-03
             303     10.5193E-03     58.8420E-03    -10.6468E+06    -57.3837E+06     1.94385E+06     206.817E+03    -27.1517E-03     53.5918E-03    -26.4400E-03     59.9028E-03    -27.1780E-03     53.3709E-03    -26.3317E-03     59.8152E-03
             304     11.3961E-03     58.9012E-03      -9.619E+06    -47.5606E+06     581.575E+03     260.769E+03    -27.2532E-03     53.6621E-03    -26.4089E-03     64.7060E-03    -27.3100E-03     53.5143E-03    -26.3231E-03     64.5989E-03
             305     12.2728E-03     58.9646E-03    -9.40353E+06    -35.0261E+06    -1.25486E+06    -80.5236E+03    -27.3644E-03     53.7367E-03    -26.3722E-03     69.8640E-03    -27.4716E-03     53.6897E-03    -26.3141E-03     69.7288E-03
             306     13.1495E-03     59.0336E-03    -10.0107E+06    -17.6719E+06    -4.57195E+06    -154.863E+03    -27.5009E-03     53.8225E-03    -26.3216E-03     76.5535E-03    -27.6921E-03     53.9287E-03    -26.3043E-03     76.3904E-03
             307     14.0266E-03     59.1095E-03    -9.80898E+06     15.1945E+06    -9.32550E+06     858.715E+03    -27.8461E-03     54.0857E-03    -26.2396E-03     88.3832E-03    -28.2026E-03     54.4884E-03    -26.2941E-03     88.2071E-03
             308     14.9029E-03     59.2013E-03    -8.24431E+06     71.5927E+06    -7.77597E+06     1.44169E+06    -28.2470E-03     54.3924E-03    -26.1454E-03     109.230E-03    -29.0270E-03     55.4198E-03    -26.2762E-03     109.077E-03
             309     15.7818E-03     59.3164E-03    -6.19724E+06     129.382E+06     29.5523E+06     217.303E+03    -28.5979E-03     54.8090E-03    -26.2111E-03     132.925E-03    -30.1787E-03     56.7413E-03    -26.2419E-03     133.056E-03
             310     16.6611E-03     59.4526E-03    -3.80151E+06     145.471E+06     73.9956E+06    -478.643E+03    -27.5989E-03     53.9802E-03    -26.3814E-03     84.0066E-03    -28.8951E-03     55.5649E-03    -26.2168E-03     84.3181E-03
             311     876.566E-06     59.4942E-03    -29.1708E+06    -118.865E+06    -28.6006E+06     143.066E+03    -26.4913E-03     52.9723E-03    -26.4811E-03     5.70648E-03    -26.4234E-03     52.4620E-03    -26.4094E-03     5.70559E-03
             312     1.75309E-03     59.5018E-03    -28.6211E+06    -117.100E+06    -26.4732E+06     45.5015E+03    -26.5001E-03     52.9891E-03    -26.4889E-03     10.5785E-03    -26.4355E-03     52.4839E-03    -26.4100E-03     10.5738E-03
             313     2.62963E-03     59.5143E-03    -27.0330E+06    -114.626E+06    -22.3722E+06    -68.4956E+03    -26.5186E-03     53.0180E-03    -26.4994E-03     15.7124E-03    -26.4561E-03     52.5174E-03    -26.4058E-03     15.7032E-03
             314     3.50621E-03     59.5317E-03    -25.0668E+06    -110.126E+06    -17.4057E+06    -94.7932E+03    -26.5473E-03     53.0560E-03    -26.5087E-03     20.8673E-03    -26.4896E-03     52.5689E-03    -26.3997E-03     20.8541E-03
             315     4.38277E-03     59.5539E-03    -23.1849E+06    -103.871E+06    -12.8753E+06     18.2626E+03    -26.5789E-03     53.0908E-03    -26.5119E-03     26.0207E-03    -26.5288E-03     52.6270E-03    -26.3921E-03     26.0047E-03
             316     5.25940E-03     59.5811E-03    -21.2588E+06    -97.2808E+06    -8.39578E+06    -4.32654E+03    -26.6227E-03     53.1354E-03    -26.5127E-03     31.1302E-03    -26.5810E-03     52.6972E-03    -26.3828E-03     31.1085E-03
             317     6.13602E-03     59.6130E-03    -19.1692E+06    -91.6696E+06    -4.00318E+06     71.5170E+03    -26.6888E-03     53.2028E-03    -26.5140E-03     36.1477E-03    -26.6540E-03     52.7861E-03    -26.3733E-03     36.1202E-03
             318     7.01267E-03     59.6497E-03    -17.1194E+06    -84.9319E+06    -647.305E+03     14.5028E+03    -26.7643E-03     53.2732E-03    -26.5089E-03     41.0852E-03    -26.7380E-03     52.8865E-03    -26.3641E-03     41.0488E-03
             319     7.88931E-03     59.6909E-03    -15.1315E+06    -77.7627E+06     1.49783E+06     138.025E+03    -26.8485E-03     53.3459E-03    -26.4974E-03     45.9113E-03    -26.8315E-03     52.9947E-03    -26.3552E-03     45.8666E-03
             320     8.76599E-03     59.7368E-03    -13.4666E+06    -71.4686E+06     2.30996E+06     146.433E+03    -26.9434E-03     53.4246E-03    -26.4812E-03     50.5864E-03    -26.9364E-03     53.1094E-03    -26.3465E-03     50.5297E-03
             321     9.64265E-03     59.7869E-03    -12.0991E+06    -64.6687E+06     2.36827E+06     55.6280E+03    -27.0396E-03     53.5008E-03    -26.4612E-03     55.1522E-03    -27.0470E-03     53.2288E-03    -26.3380E-03     55.0800E-03
             322     10.5194E-03     59.8414E-03    -10.8190E+06    -57.4154E+06     1.78788E+06    -54.1698E+03    -27.1467E-03     53.5842E-03    -26.4376E-03     59.8443E-03    -27.1735E-03     53.3636E-03    -26.3297E-03     59.7534E-03
             323     11.3960E-03     59.9004E-03    -9.59787E+06    -47.7474E+06     382.882E+03     39.4735E+03    -27.2578E-03     53.6643E-03    -26.4065E-03     64.5747E-03    -27.3140E-03     53.5158E-03    -26.3215E-03     64.4646E-03
             324     12.2728E-03     59.9640E-03    -8.97266E+06    -35.2164E+06    -830.064E+03     679.628E+03    -27.3552E-03     53.7279E-03    -26.3727E-03     69.6815E-03    -27.4605E-03     53.6787E-03    -26.3127E-03     69.5559E-03
             325     13.1496E-03     60.0328E-03    -8.70646E+06    -17.4034E+06    -3.66658E+06     799.595E+03    -27.5271E-03     53.8505E-03    -26.3234E-03     76.2983E-03    -27.7134E-03     53.9548E-03    -26.3039E-03     76.1473E-03
             326     14.0261E-03     60.1089E-03    -8.51453E+06     14.9581E+06    -8.74779E+06    -124.371E+03    -27.7156E-03     53.9534E-03    -26.2379E-03     88.0780E-03    -28.0651E-03     54.3512E-03    -26.2910E-03     87.8908E-03
             327     14.9036E-03     60.2002E-03    -7.36688E+06     71.1684E+06    -7.73954E+06    -403.838E+03    -28.0067E-03     54.1397E-03    -26.1329E-03     108.224E-03    -28.7737E-03     55.1556E-03    -26.2641E-03     108.050E-03
             328     15.7802E-03     60.3141E-03    -5.50681E+06     129.893E+06     29.3630E+06     755.458E+03    -28.5022E-03     54.6925E-03    -26.1902E-03     131.859E-03    -30.0596E-03     56.6062E-03    -26.2238E-03     131.993E-03
             329     16.6550E-03     60.4525E-03    -4.31114E+06     145.880E+06     74.0196E+06     569.507E+03    -27.7688E-03     54.1360E-03    -26.3672E-03     84.7068E-03    -29.0582E-03     55.7133E-03    -26.2024E-03     85.0277E-03
             330     876.501E-06     60.4936E-03    -29.2177E+06    -119.180E+06    -28.8554E+06     201.311E+03    -26.4848E-03     52.9788E-03    -26.4940E-03     5.71819E-03    -26.4163E-03     52.4673E-03    -26.4231E-03     5.71803E-03
             331     1.75308E-03     60.5012E-03    -28.3479E+06    -116.905E+06    -26.1516E+06     104.886E+03    -26.4918E-03     52.9825E-03    -26.4907E-03     10.5758E-03    -26.4266E-03     52.4775E-03    -26.4108E-03     10.5719E-03
             332     2.62965E-03     60.5136E-03    -27.1379E+06    -114.359E+06    -21.9948E+06    -188.640E+03    -26.5181E-03     53.0179E-03    -26.4998E-03     15.7126E-03    -26.4571E-03     52.5183E-03    -26.4046E-03     15.7019E-03
             333     3.50620E-03     60.5310E-03    -25.4242E+06    -110.291E+06    -17.6270E+06    -139.537E+03    -26.5476E-03     53.0554E-03    -26.5078E-03     20.8638E-03    -26.4911E-03     52.5682E-03    -26.3992E-03     20.8501E-03
             334     4.38279E-03     60.5532E-03    -23.3519E+06    -104.042E+06    -13.1131E+06     79.0246E+03    -26.5789E-03     53.0898E-03    -26.5110E-03     26.0136E-03    -26.5290E-03     52.6257E-03    -26.3918E-03     25.9984E-03
             335     5.25939E-03     60.5804E-03    -21.2852E+06    -97.2013E+06    -8.42312E+06     152.650E+03    -26.6239E-03     53.1363E-03    -26.5125E-03     31.1223E-03    -26.5823E-03     52.6986E-03    -26.3828E-03     31.1026E-03
             336     6.13603E-03     60.6123E-03    -19.1890E+06    -91.7350E+06    -4.11872E+06     63.1709E+03    -26.6906E-03     53.2043E-03    -26.5137E-03     36.1346E-03    -26.6556E-03     52.7875E-03    -26.3735E-03     36.1070E-03
             337     7.01265E-03     60.6490E-03    -17.1140E+06    -84.8808E+06    -722.345E+03     122.883E+03    -26.7659E-03     53.2747E-03    -26.5088E-03     41.0650E-03    -26.7395E-03     52.8883E-03    -26.3645E-03     41.0300E-03
             338     7.88931E-03     60.6903E-03    -15.2769E+06    -77.9611E+06     1.23255E+06     103.749E+03    -26.8474E-03     53.3444E-03    -26.4970E-03     45.8848E-03    -26.8304E-03     52.9928E-03    -26.3556E-03     45.8396E-03
             339     8.76598E-03     60.7360E-03    -13.5554E+06    -71.4252E+06     2.05190E+06     202.251E+03    -26.9457E-03     53.4262E-03    -26.4805E-03     50.5579E-03    -26.9388E-03     53.1117E-03    -26.3470E-03     50.5019E-03
             340     9.64266E-03     60.7863E-03    -12.2203E+06    -64.6012E+06     2.25434E+06     193.183E+03    -27.0583E-03     53.5205E-03    -26.4622E-03     55.1151E-03    -27.0662E-03     53.2492E-03    -26.3395E-03     55.0445E-03
             341     10.5193E-03     60.8407E-03    -11.2885E+06    -57.0607E+06     1.52637E+06    -40.3584E+03    -27.1661E-03     53.6058E-03    -26.4396E-03     59.7847E-03    -27.1954E-03     53.3880E-03    -26.3329E-03     59.6939E-03
             342     11.3961E-03     60.8998E-03    -10.7289E+06    -48.2759E+06    -363.852E+03    -6.78003E+03    -27.2946E-03     53.7053E-03    -26.4107E-03     64.5217E-03    -27.3546E-03     53.5569E-03    -26.3270E-03     64.4108E-03
             343     12.2726E-03     60.9632E-03    -9.85521E+06    -35.9449E+06    -1.54360E+06     422.970E+03    -27.4191E-03     53.7997E-03    -26.3806E-03     69.5424E-03    -27.5268E-03     53.7493E-03    -26.3219E-03     69.4131E-03
             344     13.1494E-03     61.0320E-03    -8.43273E+06    -16.7837E+06    -3.44163E+06     192.821E+03    -27.5572E-03     53.8926E-03    -26.3353E-03     76.2198E-03    -27.7432E-03     53.9990E-03    -26.3160E-03     76.0608E-03
             345     14.0262E-03     61.1084E-03    -7.49509E+06     15.8454E+06    -7.56788E+06    -287.820E+03    -27.8289E-03     54.0866E-03    -26.2576E-03     87.5133E-03    -28.1761E-03     54.4853E-03    -26.3076E-03     87.3226E-03
             346     14.9032E-03     61.1984E-03    -8.60653E+06     71.0077E+06    -6.38863E+06    -478.361E+03    -28.5065E-03     54.6841E-03    -26.1775E-03     107.309E-03    -29.2833E-03     55.7008E-03    -26.3000E-03     107.125E-03
             347     15.7804E-03     61.3144E-03    -8.22579E+06     128.103E+06     28.8116E+06    -215.272E+03    -29.1323E-03     55.3975E-03    -26.2651E-03     129.822E-03    -30.6936E-03     57.3006E-03    -26.2949E-03     129.922E-03
             348     16.6615E-03     61.4501E-03    -4.21106E+06     145.969E+06     73.9731E+06     749.472E+03    -27.1318E-03     53.5740E-03    -26.4422E-03     83.0954E-03    -28.4136E-03     55.1446E-03    -26.2779E-03     83.4163E-03
             349     876.551E-06     61.4929E-03    -29.2650E+06    -119.388E+06    -28.7781E+06    -103.357E+03    -26.4981E-03     52.9754E-03    -26.4773E-03     5.70309E-03    -26.4297E-03     52.4628E-03    -26.4057E-03     5.69898E-03
             350     1.75309E-03     61.5005E-03    -28.3709E+06    -117.002E+06    -26.0367E+06     193.608E+03    -26.4971E-03     52.9880E-03    -26.4909E-03     10.5786E-03    -26.4320E-03     52.4823E-03    -26.4103E-03     10.5759E-03
             351     2.62963E-03     61.5130E-03    -27.2165E+06    -114.082E+06    -22.0120E+06     213.815E+03    -26.5171E-03     53.0173E-03    -26.5002E-03     15.7058E-03    -26.4569E-03     52.5193E-03    -26.4054E-03     15.7003E-03
             352     3.50620E-03     61.5303E-03    -25.7202E+06    -110.316E+06    -17.8907E+06    -17.4113E+03    -26.5440E-03     53.0513E-03    -26.5072E-03     20.8518E-03    -26.4886E-03     52.5648E-03    -26.3994E-03     20.8396E-03
             353     4.38279E-03     61.5526E-03    -23.8427E+06    -104.269E+06    -13.4287E+06     22.6713E+03    -26.5797E-03     53.0903E-03    -26.5106E-03     26.0039E-03    -26.5315E-03     52.6262E-03    -26.3920E-03     25.9879E-03
             354     5.25939E-03     61.5797E-03    -21.5514E+06    -97.1188E+06    -8.61009E+06     37.3326E+03    -26.6292E-03     53.1419E-03    -26.5127E-03     31.1163E-03    -26.5888E-03     52.7052E-03    -26.3837E-03     31.0951E-03
             355     6.13601E-03     61.6116E-03    -19.2536E+06    -91.7505E+06    -4.36064E+06     52.6584E+03    -26.6956E-03     53.2099E-03    -26.5143E-03     36.1292E-03    -26.6606E-03     52.7934E-03    -26.3751E-03     36.1015E-03
             356     7.01264E-03     61.6483E-03    -17.1782E+06    -85.0584E+06    -1.02763E+06     151.422E+03    -26.7690E-03     53.2786E-03    -26.5096E-03     41.0580E-03    -26.7422E-03     52.8919E-03    -26.3665E-03     41.0234E-03
             357     7.88929E-03     61.6896E-03    -15.2292E+06    -77.8111E+06     1.21719E+06     171.582E+03    -26.8540E-03     53.3529E-03    -26.4989E-03     45.8668E-03    -26.8370E-03     53.0021E-03    -26.3579E-03     45.8225E-03
             358     8.76595E-03     61.7354E-03    -13.5819E+06    -71.7249E+06     1.88711E+06     169.590E+03    -26.9570E-03     53.4400E-03    -26.4831E-03     50.5508E-03    -26.9495E-03     53.1243E-03    -26.3499E-03     50.4944E-03
             359     9.64261E-03     61.7856E-03    -12.0843E+06    -64.4673E+06     2.20254E+06     267.280E+03    -27.0708E-03     53.5361E-03    -26.4653E-03     55.1188E-03    -27.0782E-03     53.2653E-03    -26.3432E-03     55.0492E-03
             360     10.5193E-03     61.8401E-03    -11.1108E+06    -57.0782E+06     1.59218E+06     405.034E+03    -27.1950E-03     53.6397E-03    -26.4447E-03     59.7769E-03    -27.2235E-03     53.4216E-03    -26.3379E-03     59.6917E-03
             361     11.3959E-03     61.8991E-03    -10.4456E+06    -48.1009E+06    -269.275E+03     311.273E+03    -27.3340E-03     53.7516E-03    -26.4176E-03     64.5878E-03    -27.3930E-03     53.6036E-03    -26.3341E-03     64.4809E-03
             362     12.2726E-03     61.9628E-03    -9.59229E+06    -36.1085E+06    -1.99242E+06    -198.760E+03    -27.4651E-03     53.8526E-03    -26.3875E-03     69.6405E-03    -27.5707E-03     53.8017E-03    -26.3312E-03     69.5029E-03
             363     13.1491E-03     62.0313E-03    -9.09829E+06    -16.1305E+06    -4.28605E+06    -552.243E+03    -27.6234E-03     53.9667E-03    -26.3433E-03     76.3467E-03    -27.8125E-03     54.0787E-03    -26.3282E-03     76.1778E-03
             364     14.0258E-03     62.1077E-03    -9.17347E+06     15.5653E+06    -8.26711E+06    -174.311E+03    -28.0317E-03     54.3080E-03    -26.2763E-03     87.8475E-03    -28.3867E-03     54.7097E-03    -26.3269E-03     87.6564E-03
             365     14.9016E-03     62.1986E-03    -9.26052E+06     70.6192E+06    -4.55452E+06     885.462E+03    -28.8440E-03     55.0642E-03    -26.2201E-03     108.563E-03    -29.6345E-03     56.0856E-03    -26.3319E-03     108.392E-03
             366     15.7770E-03     62.3138E-03    -9.28915E+06     128.698E+06     31.7154E+06     261.473E+03    -29.4591E-03     55.7821E-03    -26.3230E-03     132.552E-03    -31.0590E-03     57.7136E-03    -26.3376E-03     132.660E-03
             367     16.6474E-03     62.4499E-03    -5.02170E+06     145.241E+06     74.3696E+06    -542.014E+03    -26.6114E-03     53.0873E-03    -26.4759E-03     85.6515E-03    -27.9200E-03     54.6780E-03    -26.3073E-03     85.9676E-03
             368     876.540E-06     62.4922E-03    -29.3937E+06    -119.337E+06    -28.7342E+06    -44.4552E+03    -26.4998E-03     52.9757E-03    -26.4758E-03     5.68606E-03    -26.4322E-03     52.4635E-03    -26.4038E-03     5.68274E-03
             369     1.75307E-03     62.4999E-03    -28.4903E+06    -117.389E+06    -26.3205E+06     84.8992E+03    -26.5036E-03     52.9954E-03    -26.4917E-03     10.5717E-03    -26.4381E-03     52.4883E-03    -26.4118E-03     10.5675E-03
             370     2.62963E-03     62.5123E-03    -26.7262E+06    -113.987E+06    -21.9543E+06     169.909E+03    -26.5173E-03     53.0190E-03    -26.5017E-03     15.7030E-03    -26.4548E-03     52.5206E-03    -26.4074E-03     15.6968E-03
             371     3.50621E-03     62.5297E-03    -24.6938E+06    -110.271E+06    -16.5441E+06     187.097E+03    -26.5477E-03     53.0614E-03    -26.5137E-03     20.8442E-03    -26.4892E-03     52.5717E-03    -26.4007E-03     20.8347E-03
             372     4.38277E-03     62.5519E-03    -22.7635E+06    -104.391E+06    -12.2758E+06     192.811E+03    -26.5879E-03     53.1043E-03    -26.5165E-03     25.9967E-03    -26.5357E-03     52.6364E-03    -26.3935E-03     25.9829E-03
             373     5.25938E-03     62.5790E-03    -21.0645E+06    -97.0343E+06    -8.53370E+06     174.084E+03    -26.6336E-03     53.1477E-03    -26.5141E-03     31.1118E-03    -26.5911E-03     52.7106E-03    -26.3855E-03     31.0924E-03
             374     6.13599E-03     62.6110E-03    -19.3106E+06    -91.8399E+06    -4.41353E+06     152.534E+03    -26.6990E-03     53.2152E-03    -26.5162E-03     36.1268E-03    -26.6641E-03     52.7985E-03    -26.3771E-03     36.1004E-03
             375     7.01263E-03     62.6476E-03    -17.2891E+06    -85.0714E+06    -1.08770E+06     116.023E+03    -26.7734E-03     53.2851E-03    -26.5117E-03     41.0582E-03    -26.7470E-03     52.8985E-03    -26.3687E-03     41.0232E-03
             376     7.88926E-03     62.6890E-03    -15.2742E+06    -77.8293E+06     1.15672E+06     78.5032E+03    -26.8622E-03     53.3635E-03    -26.5014E-03     45.8765E-03    -26.8453E-03     53.0128E-03    -26.3606E-03     45.8309E-03
             377     8.76592E-03     62.7347E-03    -13.4040E+06    -71.7361E+06     2.05031E+06     91.8718E+03    -26.9683E-03     53.4552E-03    -26.4870E-03     50.5637E-03    -26.9602E-03     53.1390E-03    -26.3533E-03     50.5062E-03
             378     9.64256E-03     62.7850E-03    -11.8865E+06    -64.6816E+06     2.23367E+06     157.962E+03    -27.0762E-03     53.5453E-03    -26.4691E-03     55.1475E-03    -27.0823E-03     53.2731E-03    -26.3469E-03     55.0765E-03
             379     10.5192E-03     62.8394E-03    -10.3451E+06    -57.3100E+06     1.92052E+06     354.897E+03    -27.2029E-03     53.6521E-03    -26.4492E-03     59.8225E-03    -27.2277E-03     53.4312E-03    -26.3415E-03     59.7366E-03
             380     11.3959E-03     62.8985E-03    -8.98866E+06    -47.7766E+06     484.318E+03     260.893E+03    -27.3275E-03     53.7492E-03    -26.4217E-03     64.6825E-03    -27.3808E-03     53.5996E-03    -26.3369E-03     64.5750E-03
             381     12.2725E-03     62.9622E-03    -8.20045E+06    -35.1562E+06    -1.07630E+06    -361.604E+03    -27.4461E-03     53.8359E-03    -26.3898E-03     69.7720E-03    -27.5474E-03     53.7864E-03    -26.3323E-03     69.6326E-03
             382     13.1493E-03     63.0308E-03    -7.98267E+06    -16.8782E+06    -3.93191E+06    -37.0587E+03    -27.6343E-03     53.9787E-03    -26.3444E-03     76.6212E-03    -27.8177E-03     54.0853E-03    -26.3280E-03     76.4587E-03
             383     14.0257E-03     63.1074E-03    -8.54237E+06     15.3623E+06    -8.00425E+06     463.563E+03    -27.9083E-03     54.1804E-03    -26.2721E-03     88.3996E-03    -28.2610E-03     54.5806E-03    -26.3220E-03     88.2178E-03
             384     14.9032E-03     63.1980E-03    -8.14047E+06     69.6655E+06    -9.87052E+06     263.672E+03    -28.2083E-03     54.3719E-03    -26.1637E-03     109.632E-03    -28.9827E-03     55.3934E-03    -26.3022E-03     109.464E-03
             385     15.7808E-03     63.3148E-03    -5.24369E+06     129.706E+06     28.5986E+06     1.09924E+06    -28.1506E-03     54.3631E-03    -26.2125E-03     134.089E-03    -29.7160E-03     56.2871E-03    -26.2500E-03     134.244E-03
             386     16.6659E-03     63.4498E-03    -4.02791E+06     147.040E+06     75.7005E+06     366.564E+03    -27.5541E-03     53.9328E-03    -26.3787E-03     86.4183E-03    -28.8541E-03     55.5209E-03    -26.2075E-03     86.7562E-03
             387     876.529E-06     63.4916E-03    -29.5341E+06    -119.418E+06    -28.9693E+06     132.845E+03    -26.4991E-03     52.9809E-03    -26.4817E-03     5.69823E-03    -26.4317E-03     52.4688E-03    -26.4106E-03     5.69721E-03
             388     1.75308E-03     63.4992E-03    -28.8184E+06    -117.464E+06    -26.3828E+06     69.9698E+03    -26.5013E-03     52.9956E-03    -26.4943E-03     10.5768E-03    -26.4372E-03     52.4888E-03    -26.4142E-03     10.5724E-03
             389     2.62962E-03     63.5117E-03    -27.7902E+06    -114.132E+06    -23.1330E+06     97.2643E+03    -26.5154E-03     53.0145E-03    -26.4990E-03     15.7015E-03    -26.4563E-03     52.5186E-03    -26.4089E-03     15.6945E-03
             390     3.50619E-03     63.5290E-03    -26.2297E+06    -110.253E+06    -19.0677E+06     98.7391E+03    -26.5434E-03     53.0480E-03    -26.5046E-03     20.8524E-03    -26.4889E-03     52.5643E-03    -26.4020E-03     20.8417E-03
             391     4.38278E-03     63.5513E-03    -24.1320E+06    -104.546E+06    -13.7737E+06     167.172E+03    -26.5849E-03     53.0973E-03    -26.5123E-03     26.0082E-03    -26.5373E-03     52.6327E-03    -26.3946E-03     25.9940E-03
             392     5.25937E-03     63.5784E-03    -21.7807E+06    -97.1110E+06    -8.69157E+06     314.413E+03    -26.6343E-03     53.1501E-03    -26.5158E-03     31.1157E-03    -26.5950E-03     52.7139E-03    -26.3868E-03     31.0981E-03
             393     6.13599E-03     63.6103E-03    -19.4161E+06    -91.6587E+06    -4.31830E+06     173.740E+03    -26.7004E-03     53.2185E-03    -26.5181E-03     36.1309E-03    -26.6664E-03     52.8027E-03    -26.3787E-03     36.1047E-03
             394     7.01260E-03     63.6470E-03    -17.1932E+06    -85.0685E+06    -1.01112E+06     18.3759E+03    -26.7766E-03     53.2902E-03    -26.5136E-03     41.0663E-03    -26.7499E-03     52.9034E-03    -26.3704E-03     41.0300E-03
             395     7.88927E-03     63.6883E-03    -15.2392E+06    -77.8336E+06     1.10761E+06     39.8406E+03    -26.8668E-03     53.3698E-03    -26.5030E-03     45.8958E-03    -26.8497E-03     53.0190E-03    -26.3625E-03     45.8498E-03
             396     8.76589E-03     63.7341E-03    -13.5804E+06    -71.6496E+06     2.03255E+06    -49.7124E+03    -26.9721E-03     53.4612E-03    -26.4891E-03     50.5878E-03    -26.9650E-03     53.1457E-03    -26.3554E-03     50.5285E-03
             397     9.64255E-03     63.7843E-03    -12.0192E+06    -64.9041E+06     2.18080E+06    -10.7099E+03    -27.0750E-03     53.5463E-03    -26.4714E-03     55.1725E-03    -27.0813E-03     53.2733E-03    -26.3489E-03     55.0993E-03
             398     10.5192E-03     63.8388E-03    -10.5940E+06    -57.1593E+06     1.88903E+06    -226.039E+03    -27.1973E-03     53.6481E-03    -26.4508E-03     59.8788E-03    -27.2236E-03     53.4284E-03    -26.3431E-03     59.7854E-03
             399     11.3958E-03     63.8979E-03    -9.29266E+06    -47.8831E+06     462.146E+03    -243.223E+03    -27.3160E-03     53.7391E-03    -26.4230E-03     64.6503E-03    -27.3707E-03     53.5894E-03    -26.3378E-03     64.5362E-03
             400     12.2727E-03     63.9615E-03    -8.74986E+06    -34.6592E+06    -587.790E+03     35.5910E+03    -27.4338E-03     53.8264E-03    -26.3927E-03     69.7052E-03    -27.5394E-03     53.7797E-03    -26.3327E-03     69.5707E-03
             401     13.1492E-03     64.0302E-03    -8.53491E+06    -17.6465E+06    -3.36640E+06     12.6149E+03    -27.5370E-03     53.8835E-03    -26.3465E-03     76.4187E-03    -27.7228E-03     53.9861E-03    -26.3253E-03     76.2572E-03
             402     14.0263E-03     64.1066E-03    -7.57482E+06     15.2857E+06    -6.81028E+06     224.874E+03    -27.7680E-03     54.0357E-03    -26.2677E-03     88.0355E-03    -28.1179E-03     54.4327E-03    -26.3129E-03     87.8514E-03
             403     14.9027E-03     64.1972E-03    -7.30920E+06     70.4626E+06    -10.2670E+06    -379.778E+03    -28.1201E-03     54.2680E-03    -26.1479E-03     107.540E-03    -28.8858E-03     55.2876E-03    -26.2908E-03     107.364E-03
             404     15.7816E-03     64.3111E-03    -6.07510E+06     128.075E+06     25.7732E+06    -724.435E+03    -28.6673E-03     54.8826E-03    -26.2154E-03     128.742E-03    -30.2010E-03     56.7747E-03    -26.2634E-03     128.844E-03
             405     16.6542E-03     64.4464E-03    -3.72535E+06     147.120E+06     75.4153E+06     1.06330E+06    -27.5464E-03     53.9642E-03    -26.4178E-03     82.5958E-03    -28.8194E-03     55.5278E-03    -26.2487E-03     82.9171E-03
             406     876.539E-06     64.4909E-03    -29.7440E+06    -119.604E+06    -29.1977E+06     94.5419E+03    -26.4717E-03     52.9751E-03    -26.5033E-03     5.69583E-03    -26.4048E-03     52.4627E-03    -26.4327E-03     5.69433E-03
             407     1.75307E-03     64.4986E-03    -28.9412E+06    -117.678E+06    -26.6883E+06     296.159E+03    -26.5012E-03     52.9925E-03    -26.4913E-03     10.5789E-03    -26.4370E-03     52.4852E-03    -26.4122E-03     10.5775E-03
             408     2.62963E-03     64.5110E-03    -27.6818E+06    -114.162E+06    -23.2238E+06     325.118E+03    -26.5188E-03     53.0163E-03    -26.4975E-03     15.7040E-03    -26.4590E-03     52.5203E-03    -26.4080E-03     15.6999E-03
             409     3.50620E-03     64.5283E-03    -26.1728E+06    -110.179E+06    -18.9549E+06     173.790E+03    -26.5477E-03     53.0528E-03    -26.5051E-03     20.8547E-03    -26.4932E-03     52.5692E-03    -26.4022E-03     20.8450E-03
             410     4.38277E-03     64.5506E-03    -24.3864E+06    -104.673E+06    -13.7427E+06     111.537E+03    -26.5849E-03     53.0986E-03    -26.5137E-03     26.0115E-03    -26.5384E-03     52.6338E-03    -26.3953E-03     25.9966E-03
             411     5.25938E-03     64.5777E-03    -22.0532E+06    -97.0399E+06    -8.68350E+06    -57.1066E+03    -26.6322E-03     53.1489E-03    -26.5167E-03     31.1235E-03    -26.5943E-03     52.7135E-03    -26.3875E-03     31.1011E-03
             412     6.13597E-03     64.6097E-03    -19.5082E+06    -91.5813E+06    -4.39760E+06    -98.1607E+03    -26.7004E-03     53.2187E-03    -26.5183E-03     36.1450E-03    -26.6669E-03     52.8035E-03    -26.3792E-03     36.1154E-03
             413     7.01262E-03     64.6463E-03    -17.3022E+06    -85.0575E+06    -1.06906E+06    -15.6282E+03    -26.7792E-03     53.2933E-03    -26.5141E-03     41.0794E-03    -26.7530E-03     52.9068E-03    -26.3710E-03     41.0426E-03
             414     7.88923E-03     64.6877E-03    -15.3701E+06    -77.9082E+06     1.11933E+06     16.8794E+03    -26.8683E-03     53.3724E-03    -26.5041E-03     45.9107E-03    -26.8517E-03     53.0215E-03    -26.3633E-03     45.8644E-03
             415     8.76591E-03     64.7334E-03    -13.7052E+06    -71.5138E+06     2.07000E+06     40.5320E+03    -26.9697E-03     53.4597E-03    -26.4900E-03     50.6034E-03    -26.9635E-03     53.1450E-03    -26.3561E-03     50.5453E-03
             416     9.64254E-03     64.7837E-03    -12.3748E+06    -64.8757E+06     2.18313E+06    -135.247E+03    -27.0801E-03     53.5528E-03    -26.4727E-03     55.1781E-03    -27.0883E-03     53.2805E-03    -26.3498E-03     55.1032E-03
             417     10.5192E-03     64.8381E-03    -11.4524E+06    -56.9029E+06     1.68165E+06    -148.583E+03    -27.1946E-03     53.6463E-03    -26.4518E-03     59.8856E-03    -27.2252E-03     53.4294E-03    -26.3442E-03     59.7932E-03
             418     11.3959E-03     64.8974E-03    -11.1276E+06    -47.9103E+06    -177.139E+03    -234.033E+03    -27.3302E-03     53.7547E-03    -26.4245E-03     64.6595E-03    -27.3932E-03     53.6086E-03    -26.3398E-03     64.5455E-03
             419     12.2723E-03     64.9608E-03    -10.6197E+06    -35.4845E+06    -1.73318E+06     181.911E+03    -27.4307E-03     53.8243E-03    -26.3935E-03     69.7242E-03    -27.5428E-03     53.7777E-03    -26.3354E-03     69.5916E-03
             420     13.1492E-03     65.0298E-03    -9.74463E+06    -16.2122E+06    -3.56310E+06    -406.006E+03    -27.5454E-03     53.8938E-03    -26.3484E-03     76.3364E-03    -27.7385E-03     54.0051E-03    -26.3286E-03     76.1699E-03
             421     14.0257E-03     65.1055E-03    -8.52509E+06     14.7124E+06    -7.65824E+06    -1.45492E+06    -27.8357E-03     54.1072E-03    -26.2716E-03     87.9131E-03    -28.1863E-03     54.5021E-03    -26.3188E-03     87.7082E-03
             422     14.9030E-03     65.1970E-03    -7.42517E+06     70.3697E+06    -6.99393E+06    -77.6557E+03    -28.8045E-03     54.9957E-03    -26.1912E-03     108.050E-03    -29.5785E-03     56.0134E-03    -26.3174E-03     107.868E-03
             423     15.7766E-03     65.3109E-03    -8.35893E+06     127.796E+06     28.0777E+06     953.695E+03    -29.7344E-03     56.0324E-03    -26.2980E-03     132.033E-03    -31.3157E-03     57.9563E-03    -26.3308E-03     132.140E-03
             424     16.6539E-03     65.4496E-03    -5.01985E+06     145.906E+06     74.1021E+06     552.418E+03    -26.5888E-03     53.0615E-03    -26.4727E-03     86.5734E-03    -27.8958E-03     54.6539E-03    -26.3064E-03     86.8976E-03
             425     876.543E-06     65.4903E-03    -29.6183E+06    -119.795E+06    -29.2199E+06     81.5403E+03    -26.4363E-03     52.9690E-03    -26.5327E-03     5.69997E-03    -26.3684E-03     52.4556E-03    -26.4621E-03     5.69830E-03
             426     1.75309E-03     65.4979E-03    -28.7038E+06    -117.882E+06    -26.8053E+06     72.8688E+03    -26.4997E-03     52.9869E-03    -26.4873E-03     10.5829E-03    -26.4338E-03     52.4784E-03    -26.4087E-03     10.5786E-03
             427     2.62964E-03     65.5104E-03    -26.9784E+06    -114.258E+06    -22.1753E+06     127.561E+03    -26.5217E-03     53.0208E-03    -26.4991E-03     15.7131E-03    -26.4597E-03     52.5217E-03    -26.4052E-03     15.7064E-03
             428     3.50619E-03     65.5277E-03    -25.0314E+06    -110.402E+06    -16.5422E+06     432.701E+03    -26.5563E-03     53.0709E-03    -26.5145E-03     20.8609E-03    -26.4993E-03     52.5810E-03    -26.4009E-03     20.8546E-03
             429     4.38276E-03     65.5499E-03    -22.9800E+06    -104.321E+06    -12.2266E+06     236.523E+03    -26.5905E-03     53.1090E-03    -26.5185E-03     26.0169E-03    -26.5396E-03     52.6417E-03    -26.3951E-03     26.0037E-03
             430     5.25936E-03     65.5771E-03    -20.9847E+06    -96.7957E+06    -8.39573E+06    -129.565E+03    -26.6324E-03     53.1482E-03    -26.5158E-03     31.1366E-03    -26.5900E-03     52.7120E-03    -26.3870E-03     31.1133E-03
             431     6.13601E-03     65.6090E-03    -19.1337E+06    -91.7684E+06    -4.15967E+06    -78.1198E+03    -26.7029E-03     53.2214E-03    -26.5185E-03     36.1538E-03    -26.6676E-03     52.8044E-03    -26.3785E-03     36.1244E-03
             432     7.01259E-03     65.6457E-03    -17.2381E+06    -85.1337E+06    -892.551E+03     71.7230E+03    -26.7821E-03     53.2967E-03    -26.5146E-03     41.0890E-03    -26.7558E-03     52.9095E-03    -26.3706E-03     41.0534E-03
             433     7.88927E-03     65.6870E-03    -15.4498E+06    -77.9086E+06     1.17925E+06     97.3822E+03    -26.8666E-03     53.3709E-03    -26.5042E-03     45.9203E-03    -26.8505E-03     53.0199E-03    -26.3630E-03     45.8751E-03
             434     8.76587E-03     65.7328E-03    -13.8464E+06    -71.5851E+06     1.99361E+06     118.869E+03    -26.9691E-03     53.4586E-03    -26.4896E-03     50.6230E-03    -26.9633E-03     53.1439E-03    -26.3557E-03     50.5660E-03
             435     9.64256E-03     65.7830E-03    -12.5785E+06    -64.6325E+06     2.17994E+06     146.427E+03    -27.0812E-03     53.5536E-03    -26.4723E-03     55.2083E-03    -27.0908E-03     53.2827E-03    -26.3495E-03     55.1372E-03
             436     10.5192E-03     65.8376E-03    -11.6308E+06    -57.1644E+06     1.43538E+06     194.044E+03    -27.1872E-03     53.6378E-03    -26.4506E-03     59.9215E-03    -27.2179E-03     53.4201E-03    -26.3437E-03     59.8338E-03
             437     11.3958E-03     65.8966E-03    -10.8610E+06    -47.7683E+06    -274.215E+03     374.904E+03    -27.3010E-03     53.7222E-03    -26.4212E-03     64.7909E-03    -27.3625E-03     53.5763E-03    -26.3376E-03     64.6852E-03
             438     12.2726E-03     65.9605E-03    -10.2171E+06    -35.5405E+06    -2.29569E+06    -99.7434E+03    -27.4049E-03     53.7907E-03    -26.3857E-03     69.8412E-03    -27.5138E-03     53.7438E-03    -26.3309E-03     69.7055E-03
             439     13.1493E-03     66.0287E-03    -10.2797E+06    -15.6786E+06    -4.59138E+06     91.9784E+03    -27.5321E-03     53.8693E-03    -26.3372E-03     76.6096E-03    -27.7268E-03     53.9852E-03    -26.3225E-03     76.4500E-03
             440     14.0259E-03     66.1055E-03    -12.4260E+06     16.0938E+06    -9.06766E+06    -532.175E+03    -27.8674E-03     54.1299E-03    -26.2626E-03     88.3833E-03    -28.2375E-03     54.5393E-03    -26.3132E-03     88.1898E-03
             441     14.9024E-03     66.1955E-03    -13.6253E+06     68.2545E+06    -9.77075E+06    -1.51655E+06    -28.4891E-03     54.6631E-03    -26.1740E-03     109.604E-03    -29.2894E-03     55.6857E-03    -26.3021E-03     109.409E-03
             442     15.7809E-03     66.3136E-03    -9.58507E+06     127.120E+06     25.9220E+06    -53.4825E+03    -28.6474E-03     54.8813E-03    -26.2338E-03     132.926E-03    -30.2277E-03     56.8036E-03    -26.2747E-03     133.051E-03
             443     16.6596E-03     66.4452E-03    -4.12034E+06     147.063E+06     73.1283E+06     61.7837E+03    -26.9739E-03     53.3659E-03    -26.3920E-03     84.9029E-03    -28.2678E-03     54.9552E-03    -26.2336E-03     85.2320E-03
             444     876.536E-06     66.4896E-03    -30.1144E+06    -119.788E+06    -29.6247E+06    -130.876E+03    -26.4561E-03     52.9647E-03    -26.5086E-03     5.71222E-03    -26.3902E-03     52.4526E-03    -26.4393E-03     5.70779E-03
             445     1.75309E-03     66.4973E-03    -29.0884E+06    -117.706E+06    -26.6428E+06    -213.076E+03    -26.4925E-03     52.9795E-03    -26.4870E-03     10.5885E-03    -26.4291E-03     52.4722E-03    -26.4074E-03     10.5805E-03
             446     2.62964E-03     66.5097E-03    -27.8455E+06    -114.799E+06    -22.6236E+06     103.311E+03    -26.5168E-03     53.0135E-03    -26.4967E-03     15.7173E-03    -26.4577E-03     52.5136E-03    -26.4030E-03     15.7104E-03
             447     3.50622E-03     66.5271E-03    -25.9671E+06    -110.595E+06    -18.0484E+06     313.619E+03    -26.5473E-03     53.0533E-03    -26.5059E-03     20.8749E-03    -26.4925E-03     52.5660E-03    -26.3982E-03     20.8671E-03
             448     4.38278E-03     66.5493E-03    -23.5810E+06    -103.778E+06    -13.1336E+06     23.5722E+03    -26.5837E-03     53.0944E-03    -26.5107E-03     26.0312E-03    -26.5353E-03     52.6319E-03    -26.3917E-03     26.0153E-03
             449     5.25940E-03     66.5764E-03    -21.3354E+06    -96.9074E+06    -8.49403E+06     34.8997E+03    -26.6342E-03     53.1473E-03    -26.5130E-03     31.1528E-03    -26.5933E-03     52.7112E-03    -26.3841E-03     31.1316E-03
             450     6.13597E-03     66.6084E-03    -19.3170E+06    -91.8715E+06    -4.28325E+06     190.239E+03    -26.7032E-03     53.2192E-03    -26.5160E-03     36.1705E-03    -26.6684E-03     52.8021E-03    -26.3762E-03     36.1446E-03
             451     7.01264E-03     66.6450E-03    -17.3670E+06    -85.2278E+06    -1.00642E+06     191.354E+03    -26.7786E-03     53.2907E-03    -26.5122E-03     41.1100E-03    -26.7525E-03     52.9034E-03    -26.3684E-03     41.0759E-03
             452     7.88923E-03     66.6864E-03    -15.5050E+06    -77.9149E+06     1.00442E+06     236.179E+03    -26.8632E-03     53.3643E-03    -26.5011E-03     45.9417E-03    -26.8471E-03     53.0137E-03    -26.3606E-03     45.8983E-03
             453     8.76594E-03     66.7321E-03    -13.9303E+06    -71.6334E+06     1.79915E+06     250.066E+03    -26.9608E-03     53.4468E-03    -26.4860E-03     50.6625E-03    -26.9552E-03     53.1322E-03    -26.3529E-03     50.6073E-03
             454     9.64253E-03     66.7825E-03    -12.5138E+06    -64.6649E+06     1.90955E+06     270.703E+03    -27.0592E-03     53.5261E-03    -26.4669E-03     55.2672E-03    -27.0679E-03     53.2553E-03    -26.3454E-03     55.1979E-03
             455     10.5193E-03     66.8369E-03    -11.1912E+06    -57.2037E+06     1.30593E+06     234.563E+03    -27.1612E-03     53.6046E-03    -26.4434E-03     59.9806E-03    -27.1894E-03     53.3862E-03    -26.3377E-03     59.8936E-03
             456     11.3960E-03     66.8961E-03    -9.89755E+06    -47.9809E+06    -233.819E+03     176.337E+03    -27.2580E-03     53.6697E-03    -26.4117E-03     64.8446E-03    -27.3143E-03     53.5212E-03    -26.3290E-03     64.7367E-03
             457     12.2727E-03     66.9596E-03    -9.25229E+06    -34.8079E+06    -1.55853E+06     266.611E+03    -27.3725E-03     53.7483E-03    -26.3759E-03     69.8582E-03    -27.4785E-03     53.7025E-03    -26.3198E-03     69.7275E-03
             458     13.1494E-03     67.0284E-03    -8.81368E+06    -16.6489E+06    -4.35086E+06     364.900E+03    -27.4736E-03     53.7977E-03    -26.3241E-03     76.4762E-03    -27.6598E-03     53.9061E-03    -26.3089E-03     76.3203E-03
             459     14.0266E-03     67.1043E-03    -7.48097E+06     16.7964E+06    -7.78261E+06     1.28409E+06    -27.7622E-03     54.0043E-03    -26.2422E-03     88.4038E-03    -28.1108E-03     54.4087E-03    -26.2946E-03     88.2343E-03
             460     14.9034E-03     67.1959E-03    -7.95395E+06     70.4534E+06    -10.5022E+06    -189.154E+03    -28.1990E-03     54.3288E-03    -26.1297E-03     108.874E-03    -28.9676E-03     55.3496E-03    -26.2729E-03     108.701E-03
             461     15.7804E-03     67.3099E-03    -8.90461E+06     125.554E+06     22.6933E+06    -2.67315E+06    -28.7881E-03     54.9787E-03    -26.1906E-03     130.932E-03    -30.3489E-03     56.8878E-03    -26.2463E-03     131.017E-03
             462     16.6567E-03     67.4463E-03    -5.05189E+06     146.040E+06     72.7853E+06    -1.26754E+06    -27.3922E-03     53.7784E-03    -26.3862E-03     83.2971E-03    -28.6838E-03     55.3594E-03    -26.2267E-03     83.5951E-03
             463     876.537E-06     67.4889E-03    -30.1090E+06    -119.488E+06    -29.3620E+06    -210.622E+03    -26.4957E-03     52.9572E-03    -26.4615E-03     5.70532E-03    -26.4305E-03     52.4462E-03    -26.3914E-03     5.69986E-03
             464     1.75309E-03     67.4966E-03    -29.4071E+06    -117.794E+06    -26.7917E+06    -6.07349E+03    -26.4918E-03     52.9758E-03    -26.4839E-03     10.5984E-03    -26.4297E-03     52.4687E-03    -26.4044E-03     10.5931E-03
             465     2.62966E-03     67.5090E-03    -28.0127E+06    -115.287E+06    -23.1161E+06     239.731E+03    -26.5110E-03     53.0035E-03    -26.4925E-03     15.7239E-03    -26.4514E-03     52.5022E-03    -26.4003E-03     15.7187E-03
             466     3.50620E-03     67.5264E-03    -26.1423E+06    -110.241E+06    -19.0225E+06    -5.76078E+03    -26.5369E-03     53.0336E-03    -26.4967E-03     20.8844E-03    -26.4820E-03     52.5497E-03    -26.3941E-03     20.8725E-03
             467     4.38283E-03     67.5486E-03    -24.1148E+06    -103.584E+06    -13.9599E+06    -217.374E+03    -26.5759E-03     53.0780E-03    -26.5021E-03     26.0416E-03    -26.5293E-03     52.6185E-03    -26.3867E-03     26.0225E-03
             468     5.25939E-03     67.5758E-03    -21.9448E+06    -97.3354E+06    -8.66287E+06     30.0267E+03    -26.6308E-03     53.1396E-03    -26.5089E-03     31.1599E-03    -26.5920E-03     52.7025E-03    -26.3792E-03     31.1387E-03
             469     6.13605E-03     67.6077E-03    -19.6812E+06    -91.9221E+06    -4.49956E+06     225.260E+03    -26.6973E-03     53.2083E-03    -26.5110E-03     36.1864E-03    -26.6640E-03     52.7918E-03    -26.3716E-03     36.1610E-03
             470     7.01263E-03     67.6444E-03    -17.5111E+06    -85.2419E+06    -1.14869E+06     236.285E+03    -26.7693E-03     53.2761E-03    -26.5068E-03     41.1277E-03    -26.7437E-03     52.8891E-03    -26.3636E-03     41.0943E-03
             471     7.88934E-03     67.6857E-03    -15.5112E+06    -77.9812E+06     977.454E+03     219.597E+03    -26.8547E-03     53.3504E-03    -26.4957E-03     45.9718E-03    -26.8385E-03     52.9994E-03    -26.3553E-03     45.9283E-03
             472     8.76592E-03     67.7316E-03    -13.6699E+06    -71.6542E+06     1.87828E+06     253.556E+03    -26.9471E-03     53.4272E-03    -26.4800E-03     50.6810E-03    -26.9402E-03     53.1119E-03    -26.3469E-03     50.6259E-03
             473     9.64271E-03     67.7817E-03    -12.1938E+06    -64.7298E+06     2.14874E+06     273.523E+03    -27.0374E-03     53.4979E-03    -26.4605E-03     55.2721E-03    -27.0448E-03     53.2260E-03    -26.3382E-03     55.2028E-03
             474     10.5193E-03     67.8363E-03    -11.1048E+06    -56.9923E+06     1.69151E+06     161.939E+03    -27.1430E-03     53.5795E-03    -26.4366E-03     59.9514E-03    -27.1716E-03     53.3615E-03    -26.3294E-03     59.8635E-03
             475     11.3961E-03     67.8952E-03    -10.3665E+06    -47.9370E+06      73.454E+03    -16.7767E+03    -27.2476E-03     53.6530E-03    -26.4054E-03     64.7621E-03    -27.3068E-03     53.5050E-03    -26.3205E-03     64.6515E-03
             476     12.2728E-03     67.9590E-03    -9.54253E+06    -35.2365E+06    -1.44967E+06     252.825E+03    -27.3452E-03     53.7138E-03    -26.3686E-03     69.8065E-03    -27.4522E-03     53.6660E-03    -26.3109E-03     69.6758E-03
             477     13.1497E-03     68.0275E-03    -8.79899E+06    -16.1866E+06    -3.39851E+06     61.2615E+03    -27.4939E-03     53.8139E-03    -26.3200E-03     76.3221E-03    -27.6825E-03     53.9236E-03    -26.3007E-03     76.1618E-03
             478     14.0261E-03     68.1036E-03    -8.14020E+06     15.5011E+06    -6.86076E+06    -550.750E+03    -27.7556E-03     53.9988E-03    -26.2432E-03     88.1030E-03    -28.1068E-03     54.3961E-03    -26.2882E-03     87.9099E-03
             479     14.9034E-03     68.1947E-03    -6.28293E+06     72.4750E+06    -4.16790E+06     212.679E+03    -28.1872E-03     54.3381E-03    -26.1508E-03     108.379E-03    -28.9561E-03     55.3540E-03    -26.2677E-03     108.210E-03
             480     15.7800E-03     68.3100E-03    -5.17736E+06     127.647E+06     33.4594E+06    -145.151E+03    -28.7916E-03     55.0200E-03    -26.2284E-03     132.606E-03    -30.3617E-03     56.9278E-03    -26.2387E-03     132.724E-03
             481     16.6565E-03     68.4464E-03    -3.98641E+06     144.002E+06     76.8251E+06    -1.04929E+06    -27.6010E-03     54.0000E-03    -26.3990E-03     85.7036E-03    -28.9033E-03     55.5766E-03    -26.2179E-03     86.0080E-03
             482     876.571E-06     68.4883E-03    -30.3299E+06    -119.438E+06    -29.5393E+06     124.073E+03    -26.4958E-03     52.9391E-03    -26.4434E-03     5.71772E-03    -26.4315E-03     52.4290E-03    -26.3739E-03     5.71659E-03
             483     1.75310E-03     68.4959E-03    -29.3904E+06    -118.002E+06    -27.0905E+06     128.694E+03    -26.4942E-03     52.9706E-03    -26.4764E-03     10.5963E-03    -26.4312E-03     52.4629E-03    -26.3981E-03     10.5927E-03
             484     2.62965E-03     68.5084E-03    -27.7486E+06    -115.236E+06    -23.0834E+06    -63.3113E+03    -26.5080E-03     52.9958E-03    -26.4879E-03     15.7257E-03    -26.4471E-03     52.4943E-03    -26.3959E-03     15.7166E-03
             485     3.50626E-03     68.5257E-03    -25.7672E+06    -109.848E+06    -18.5990E+06    -236.749E+03    -26.5335E-03     53.0270E-03    -26.4934E-03     20.8841E-03    -26.4780E-03     52.5439E-03    -26.3898E-03     20.8692E-03
             486     4.38281E-03     68.5480E-03    -23.8621E+06    -103.727E+06    -13.8710E+06    -148.546E+03    -26.5723E-03     53.0704E-03    -26.4980E-03     26.0414E-03    -26.5243E-03     52.6097E-03    -26.3824E-03     26.0233E-03
             487     5.25946E-03     68.5751E-03    -21.9052E+06    -97.6457E+06    -8.74467E+06     62.6751E+03    -26.6234E-03     53.1276E-03    -26.5042E-03     31.1581E-03    -26.5839E-03     52.6890E-03    -26.3745E-03     31.1373E-03
             488     6.13603E-03     68.6071E-03    -19.7109E+06    -91.9624E+06    -4.28118E+06     123.001E+03    -26.6872E-03     53.1941E-03    -26.5069E-03     36.1789E-03    -26.6543E-03     52.7771E-03    -26.3664E-03     36.1522E-03
             489     7.01273E-03     68.6437E-03    -17.4268E+06    -85.2508E+06    -979.694E+03     101.256E+03    -26.7608E-03     53.2627E-03    -26.5018E-03     41.1222E-03    -26.7351E-03     52.8752E-03    -26.3578E-03     41.0870E-03
             490     7.88933E-03     68.6850E-03    -15.3300E+06    -78.0255E+06     1.20653E+06     121.304E+03    -26.8460E-03     53.3366E-03    -26.4906E-03     45.9599E-03    -26.8291E-03     52.9848E-03    -26.3492E-03     45.9151E-03
             491     8.76609E-03     68.7308E-03    -13.5898E+06    -71.7518E+06     2.09769E+06     164.496E+03    -26.9428E-03     53.4178E-03    -26.4750E-03     50.6471E-03    -26.9356E-03     53.1016E-03    -26.3408E-03     50.5907E-03
             492     9.64267E-03     68.7811E-03    -12.1325E+06    -64.8226E+06     2.37364E+06     281.962E+03    -27.0380E-03     53.4941E-03    -26.4560E-03     55.2143E-03    -27.0453E-03     53.2213E-03    -26.3326E-03     55.1451E-03
             493     10.5195E-03     68.8355E-03    -11.1155E+06    -57.0671E+06     1.82783E+06     503.927E+03    -27.1456E-03     53.5781E-03    -26.4325E-03     59.8933E-03    -27.1744E-03     53.3596E-03    -26.3245E-03     59.8096E-03
             494     11.3961E-03     68.8947E-03    -10.6744E+06    -47.5207E+06     174.424E+03     423.985E+03    -27.2619E-03     53.6640E-03    -26.4021E-03     64.6757E-03    -27.3235E-03     53.5185E-03    -26.3169E-03     64.5707E-03
             495     12.2729E-03     68.9582E-03    -10.1421E+06    -35.3258E+06    -1.92068E+06    -175.183E+03    -27.3611E-03     53.7265E-03    -26.3654E-03     69.6710E-03    -27.4704E-03     53.6799E-03    -26.3091E-03     69.5345E-03
             496     13.1496E-03     69.0269E-03    -9.42648E+06    -15.8876E+06    -4.04624E+06    -182.801E+03    -27.5302E-03     53.8479E-03    -26.3177E-03     76.2170E-03    -27.7216E-03     53.9612E-03    -26.3012E-03     76.0531E-03
             497     14.0265E-03     69.1029E-03    -9.42734E+06     16.5963E+06    -7.70790E+06    -735.052E+03    -27.8414E-03     54.0856E-03    -26.2442E-03     87.9566E-03    -28.2003E-03     54.4923E-03    -26.2931E-03     87.7599E-03
             498     14.9029E-03     69.1939E-03    -9.60515E+06     71.2271E+06    -5.64722E+06    -2.09986E+06    -28.1915E-03     54.3505E-03    -26.1590E-03     107.948E-03    -28.9732E-03     55.3674E-03    -26.2766E-03     107.748E-03
             499     15.7813E-03     69.3082E-03    -6.48951E+06     127.396E+06     32.6801E+06    -721.539E+03    -28.6711E-03     54.9075E-03    -26.2365E-03     130.957E-03    -30.2341E-03     56.8050E-03    -26.2484E-03     131.064E-03
             500     16.6610E-03     69.4456E-03    -3.41261E+06     144.779E+06     76.3715E+06     780.188E+03    -27.6079E-03     54.0144E-03    -26.4065E-03     83.8597E-03    -28.8938E-03     55.5807E-03    -26.2296E-03     84.1814E-03
             501     876.553E-06     69.4876E-03    -30.5292E+06    -119.649E+06    -30.0211E+06     129.528E+03    -26.4943E-03     52.9332E-03    -26.4389E-03     5.74790E-03    -26.4300E-03     52.4229E-03    -26.3712E-03     5.74681E-03
             502     1.75311E-03     69.4952E-03    -29.5830E+06    -118.029E+06    -27.2262E+06     101.396E+03    -26.4880E-03     52.9613E-03    -26.4733E-03     10.5822E-03    -26.4257E-03     52.4539E-03    -26.3954E-03     10.5782E-03
             503     2.62968E-03     69.5077E-03    -28.3492E+06    -114.716E+06    -23.5923E+06    -197.282E+03    -26.5042E-03     52.9866E-03    -26.4824E-03     15.7154E-03    -26.4463E-03     52.4893E-03    -26.3929E-03     15.7045E-03
             504     3.50622E-03     69.5250E-03    -26.6808E+06    -109.710E+06    -19.5896E+06    -468.543E+03    -26.5278E-03     53.0148E-03    -26.4870E-03     20.8779E-03    -26.4756E-03     52.5352E-03    -26.3872E-03     20.8601E-03
             505     4.38287E-03     69.5473E-03    -24.6491E+06    -104.155E+06    -14.4014E+06    -133.984E+03    -26.5658E-03     53.0603E-03    -26.4945E-03     26.0357E-03    -26.5204E-03     52.5993E-03    -26.3797E-03     26.0178E-03
             506     5.25943E-03     69.5744E-03    -22.3626E+06    -97.6270E+06    -8.96577E+06     6.27866E+03    -26.6160E-03     53.1167E-03    -26.5007E-03     31.1481E-03    -26.5784E-03     52.6791E-03    -26.3716E-03     31.1266E-03
             507     6.13612E-03     69.6064E-03    -19.8487E+06    -91.8719E+06    -4.34882E+06    -156.146E+03    -26.6822E-03     53.1856E-03    -26.5034E-03     36.1604E-03    -26.6500E-03     52.7694E-03    -26.3631E-03     36.1301E-03
             508     7.01270E-03     69.6430E-03    -17.4324E+06    -85.3458E+06    -977.213E+03    -129.143E+03    -26.7613E-03     53.2603E-03    -26.4990E-03     41.0914E-03    -26.7355E-03     52.8724E-03    -26.3548E-03     41.0533E-03
             509     7.88943E-03     69.6843E-03    -15.3186E+06    -78.0855E+06     1.11454E+06    -25.0468E+03    -26.8489E-03     53.3367E-03    -26.4878E-03     45.9126E-03    -26.8318E-03     52.9848E-03    -26.3468E-03     45.8658E-03
             510     8.76601E-03     69.7301E-03    -13.4749E+06    -71.8931E+06     1.98072E+06     95.1777E+03    -26.9467E-03     53.4195E-03    -26.4728E-03     50.5884E-03    -26.9387E-03     53.1026E-03    -26.3391E-03     50.5311E-03
             511     9.64278E-03     69.7804E-03    -11.9504E+06    -65.0120E+06     2.13572E+06     222.061E+03    -27.0491E-03     53.5031E-03    -26.4540E-03     55.1550E-03    -27.0549E-03     53.2295E-03    -26.3317E-03     55.0849E-03
             512     10.5194E-03     69.8348E-03    -10.5669E+06    -57.5596E+06     1.60147E+06     547.543E+03    -27.1604E-03     53.5919E-03    -26.4315E-03     59.8319E-03    -27.1854E-03     53.3704E-03    -26.3247E-03     59.7487E-03
             513     11.3962E-03     69.8939E-03    -9.40029E+06    -47.2903E+06     418.806E+03     811.384E+03    -27.2798E-03     53.6822E-03    -26.4024E-03     64.6259E-03    -27.3356E-03     53.5356E-03    -26.3181E-03     64.5258E-03
             514     12.2727E-03     69.9575E-03    -9.23955E+06    -34.3574E+06    -1.55848E+06     375.237E+03    -27.4081E-03     53.7758E-03    -26.3677E-03     69.6364E-03    -27.5149E-03     53.7323E-03    -26.3123E-03     69.5067E-03
             515     13.1495E-03     70.0261E-03    -9.83768E+06    -16.4331E+06    -4.76736E+06     88.6387E+03    -27.5771E-03     53.8987E-03    -26.3215E-03     76.2636E-03    -27.7690E-03     54.0110E-03    -26.3073E-03     76.1030E-03
             516     14.0259E-03     70.1024E-03    -10.0078E+06     18.2649E+06    -7.72641E+06    -258.696E+03    -27.8444E-03     54.0944E-03    -26.2500E-03     87.8522E-03    -28.2081E-03     54.5099E-03    -26.3006E-03     87.6617E-03
             517     14.9033E-03     70.1931E-03    -10.5334E+06     73.4284E+06    -4.08015E+06    -1.73694E+06    -28.6635E-03     54.8500E-03    -26.1865E-03     107.830E-03    -29.4610E-03     55.8826E-03    -26.2981E-03     107.627E-03
             518     15.7786E-03     70.3075E-03    -10.5069E+06     124.514E+06     30.2160E+06    -2.37690E+06    -29.5815E-03     55.8752E-03    -26.2937E-03     131.079E-03    -31.1763E-03     57.7869E-03    -26.3079E-03     131.146E-03
             519     16.6515E-03     70.4449E-03    -5.54376E+06     142.927E+06     73.9719E+06    -470.807E+03    -26.9059E-03     53.3700E-03    -26.4641E-03     84.2660E-03    -28.2096E-03     54.9469E-03    -26.2934E-03     84.5709E-03
             520     876.552E-06     70.4869E-03    -30.4505E+06    -119.698E+06    -29.9187E+06    -65.5629E+03    -26.4822E-03     52.9432E-03    -26.4610E-03     5.74350E-03    -26.4176E-03     52.4325E-03    -26.3929E-03     5.73989E-03
             521     1.75311E-03     70.4945E-03    -29.5563E+06    -118.155E+06    -27.2033E+06     74.8566E+03    -26.4809E-03     52.9566E-03    -26.4758E-03     10.5782E-03    -26.4183E-03     52.4486E-03    -26.3976E-03     10.5739E-03
             522     2.62966E-03     70.5070E-03    -28.0120E+06    -114.049E+06    -23.1879E+06    -169.796E+03    -26.5005E-03     52.9828E-03    -26.4823E-03     15.7154E-03    -26.4425E-03     52.4877E-03    -26.3922E-03     15.7049E-03
             523     3.50627E-03     70.5243E-03    -26.3843E+06    -109.692E+06    -18.5053E+06    -301.634E+03    -26.5314E-03     53.0227E-03    -26.4913E-03     20.8656E-03    -26.4793E-03     52.5412E-03    -26.3865E-03     20.8498E-03
             524     4.38282E-03     70.5466E-03    -24.5304E+06    -104.503E+06    -13.7852E+06    -178.221E+03    -26.5686E-03     53.0667E-03    -26.4981E-03     26.0188E-03    -26.5230E-03     52.6030E-03    -26.3799E-03     26.0002E-03
             525     5.25948E-03     70.5737E-03    -22.1250E+06    -97.2407E+06    -9.10600E+06    -355.077E+03    -26.6162E-03     53.1157E-03    -26.4995E-03     31.1293E-03    -26.5778E-03     52.6800E-03    -26.3720E-03     31.1031E-03
             526     6.13606E-03     70.6057E-03    -19.6728E+06    -91.8721E+06    -4.63210E+06    -452.617E+03    -26.6898E-03     53.1923E-03    -26.5025E-03     36.1389E-03    -26.6563E-03     52.7763E-03    -26.3639E-03     36.1047E-03
             527     7.01274E-03     70.6424E-03    -17.3826E+06    -85.3576E+06    -1.20218E+06    -390.481E+03    -26.7712E-03     53.2708E-03    -26.4995E-03     41.0600E-03    -26.7448E-03     52.8831E-03    -26.3566E-03     41.0183E-03
             528     7.88933E-03     70.6836E-03    -15.1842E+06    -78.2558E+06     859.094E+03    -288.615E+03    -26.8571E-03     53.3462E-03    -26.4891E-03     45.8795E-03    -26.8387E-03     52.9936E-03    -26.3493E-03     45.8292E-03
             529     8.76606E-03     70.7295E-03    -13.2569E+06    -72.0362E+06     1.75269E+06    -134.974E+03    -26.9558E-03     53.4303E-03    -26.4746E-03     50.5558E-03    -26.9461E-03     53.1128E-03    -26.3422E-03     50.4955E-03
             530     9.64264E-03     70.7796E-03    -11.5874E+06    -65.2297E+06     2.07337E+06     9.89095E+03    -27.0624E-03     53.5196E-03    -26.4572E-03     55.1195E-03    -27.0660E-03     53.2445E-03    -26.3355E-03     55.0466E-03
             531     10.5194E-03     70.8342E-03    -10.1526E+06    -57.9421E+06     1.61954E+06     168.454E+03    -27.1794E-03     53.6156E-03    -26.4362E-03     59.7937E-03    -27.2019E-03     53.3917E-03    -26.3294E-03     59.7056E-03
             532     11.3960E-03     70.8932E-03    -8.93738E+06    -47.7343E+06     450.546E+03     505.718E+03    -27.2892E-03     53.6970E-03    -26.4078E-03     64.5892E-03    -27.3421E-03     53.5474E-03    -26.3234E-03     64.4851E-03
             533     12.2728E-03     70.9569E-03    -8.32800E+06    -34.4793E+06    -528.051E+03     1.34417E+06    -27.3994E-03     53.7759E-03    -26.3765E-03     69.6180E-03    -27.5027E-03     53.7288E-03    -26.3171E-03     69.5009E-03
             534     13.1494E-03     71.0255E-03    -8.54121E+06    -15.8192E+06    -3.33557E+06     1.22409E+06    -27.5904E-03     53.9205E-03    -26.3302E-03     76.3496E-03    -27.7788E-03     54.0322E-03    -26.3115E-03     76.2036E-03
             535     14.0263E-03     71.1018E-03    -9.08378E+06     19.4336E+06    -7.50946E+06     136.517E+03    -27.9098E-03     54.1639E-03    -26.2541E-03     87.8955E-03    -28.2701E-03     54.5827E-03    -26.3066E-03     87.7097E-03
             536     14.9025E-03     71.1923E-03    -8.86725E+06     75.5118E+06    -2.91320E+06    -929.935E+03    -28.6492E-03     54.8409E-03    -26.1916E-03     109.096E-03    -29.4469E-03     55.8836E-03    -26.3028E-03     108.904E-03
             537     15.7789E-03     71.3094E-03    -6.88159E+06     124.340E+06     35.6228E+06    -1.34353E+06    -29.1206E-03     55.4209E-03    -26.3003E-03     133.479E-03    -30.7134E-03     57.3273E-03    -26.2925E-03     133.580E-03
             538     16.6591E-03     71.4444E-03    -3.64256E+06     141.197E+06     77.7144E+06    -839.062E+03    -27.1040E-03     53.5576E-03    -26.4536E-03     85.4157E-03    -28.4053E-03     55.1219E-03    -26.2645E-03     85.7292E-03
             539     876.530E-06     71.4862E-03    -30.8351E+06    -119.547E+06    -30.1180E+06    -170.919E+03    -26.4601E-03     52.9434E-03    -26.4833E-03     5.74553E-03    -26.3973E-03     52.4343E-03    -26.4158E-03     5.74055E-03
             540     1.75310E-03     71.4938E-03    -29.5175E+06    -118.107E+06    -27.1201E+06    -250.936E+03    -26.4824E-03     52.9599E-03    -26.4774E-03     10.5913E-03    -26.4199E-03     52.4519E-03    -26.3990E-03     10.5827E-03
             541     2.62969E-03     71.5063E-03    -27.8196E+06    -113.639E+06    -22.7458E+06    -322.363E+03    -26.5049E-03     52.9904E-03    -26.4855E-03     15.7129E-03    -26.4472E-03     52.4965E-03    -26.3941E-03     15.7004E-03
             542     3.50623E-03     71.5237E-03    -25.7562E+06    -109.929E+06    -17.3316E+06    -150.661E+03    -26.5402E-03     53.0397E-03    -26.4995E-03     20.8479E-03    -26.4863E-03     52.5544E-03    -26.3894E-03     20.8340E-03
             543     4.38283E-03     71.5459E-03    -23.5610E+06    -104.343E+06    -12.8981E+06    -129.051E+03    -26.5788E-03     53.0834E-03    -26.5046E-03     25.9958E-03    -26.5299E-03     52.6178E-03    -26.3837E-03     25.9779E-03
             544     5.25941E-03     71.5730E-03    -21.6000E+06    -96.7181E+06    -9.27428E+06    -479.031E+03    -26.6253E-03     53.1268E-03    -26.5015E-03     31.1150E-03    -26.5848E-03     52.6932E-03    -26.3763E-03     31.0871E-03
             545     6.13608E-03     71.6050E-03    -19.5408E+06    -91.8990E+06    -5.02536E+06    -633.037E+03    -26.6988E-03     53.2040E-03    -26.5052E-03     36.1297E-03    -26.6640E-03     52.7882E-03    -26.3687E-03     36.0931E-03
             546     7.01265E-03     71.6417E-03    -17.3331E+06    -85.2468E+06    -1.51213E+06    -642.973E+03    -26.7781E-03     53.2810E-03    -26.5029E-03     41.0519E-03    -26.7511E-03     52.8943E-03    -26.3617E-03     41.0070E-03
             547     7.88935E-03     71.6830E-03    -15.2555E+06    -78.3854E+06     626.843E+03    -614.980E+03    -26.8631E-03     53.3566E-03    -26.4935E-03     45.8682E-03    -26.8445E-03     53.0038E-03    -26.3546E-03     45.8137E-03
             548     8.76593E-03     71.7288E-03    -13.3126E+06    -72.1715E+06     1.52618E+06    -508.267E+03    -26.9658E-03     53.4451E-03    -26.4793E-03     50.5565E-03    -26.9559E-03     53.1273E-03    -26.3477E-03     50.4913E-03
             549     9.64267E-03     71.7790E-03    -11.6164E+06    -65.4039E+06     1.93812E+06    -353.937E+03    -27.0752E-03     53.5381E-03    -26.4629E-03     55.1206E-03    -27.0785E-03     53.2624E-03    -26.3415E-03     55.0429E-03
             550     10.5192E-03     71.8335E-03    -10.2328E+06    -58.1902E+06     1.47711E+06    -164.037E+03    -27.1870E-03     53.6293E-03    -26.4424E-03     59.8006E-03    -27.2093E-03     53.4044E-03    -26.3358E-03     59.7081E-03
             551     11.3960E-03     71.8927E-03    -9.32741E+06    -48.5108E+06    -53.6470E+03     331.714E+03    -27.2902E-03     53.7034E-03    -26.4132E-03     64.6019E-03    -27.3431E-03     53.5512E-03    -26.3296E-03     64.4957E-03
             552     12.2725E-03     71.9562E-03    -8.29129E+06    -35.6351E+06    -959.337E+03     1.03953E+06    -27.3821E-03     53.7632E-03    -26.3811E-03     69.6384E-03    -27.4829E-03     53.7108E-03    -26.3222E-03     69.5176E-03
             553     13.1495E-03     72.0249E-03    -6.95991E+06    -15.3417E+06    -2.64129E+06     1.50373E+06    -27.5746E-03     53.9085E-03    -26.3339E-03     76.4203E-03    -27.7566E-03     54.0190E-03    -26.3147E-03     76.2782E-03
             554     14.0259E-03     72.1013E-03    -6.75640E+06     20.8499E+06    -6.27145E+06     980.456E+03    -27.8914E-03     54.1476E-03    -26.2562E-03     87.9456E-03    -28.2444E-03     54.5688E-03    -26.3080E-03     87.7705E-03
             555     14.9030E-03     72.1919E-03    -7.04902E+06     76.6946E+06    -867.558E+03    -359.124E+03    -28.3003E-03     54.4884E-03    -26.1882E-03     108.886E-03    -29.0901E-03     55.5280E-03    -26.2935E-03     108.708E-03
             556     15.7814E-03     72.3080E-03    -6.96811E+06     124.510E+06     37.3161E+06    -1.07518E+06    -28.8957E-03     55.1837E-03    -26.2880E-03     131.216E-03    -30.4704E-03     57.0675E-03    -26.2719E-03     131.323E-03
             557     16.6573E-03     72.4425E-03    -4.48374E+06     140.417E+06      77.629E+06    -578.283E+03    -27.4973E-03     53.9453E-03    -26.4480E-03     82.1634E-03    -28.7814E-03     55.4869E-03    -26.2570E-03     82.4712E-03
             558     876.567E-06     72.4855E-03    -30.6504E+06    -119.143E+06    -29.9573E+06    -222.925E+03    -26.4774E-03     52.9474E-03    -26.4699E-03     5.73733E-03    -26.4146E-03     52.4398E-03    -26.4025E-03     5.73168E-03
             559     1.75311E-03     72.4931E-03    -29.8419E+06    -117.857E+06    -27.1611E+06    -340.838E+03    -26.4931E-03     52.9746E-03    -26.4814E-03     10.5824E-03    -26.4325E-03     52.4684E-03    -26.4031E-03     10.5727E-03
             560     2.62964E-03     72.5056E-03    -28.6791E+06    -113.636E+06    -23.9119E+06    -215.741E+03    -26.5103E-03     52.9977E-03    -26.4874E-03     15.7027E-03    -26.4552E-03     52.5068E-03    -26.4006E-03     15.6916E-03
             561     3.50622E-03     72.5230E-03    -27.0474E+06    -109.788E+06    -19.5643E+06    -371.321E+03    -26.5392E-03     53.0355E-03    -26.4963E-03     20.8492E-03    -26.4888E-03     52.5561E-03    -26.3957E-03     20.8324E-03
             562     4.38279E-03     72.5452E-03    -24.6294E+06    -104.171E+06    -14.2280E+06    -541.663E+03    -26.5821E-03     53.0873E-03    -26.5052E-03     25.9989E-03    -26.5368E-03     52.6260E-03    -26.3896E-03     25.9756E-03
             563     5.25941E-03     72.5724E-03    -22.0219E+06    -96.2950E+06    -9.51070E+06    -571.609E+03    -26.6341E-03     53.1409E-03    -26.5067E-03     31.1139E-03    -26.5960E-03     52.7103E-03    -26.3827E-03     31.0848E-03
             564     6.13598E-03     72.6043E-03    -19.7206E+06    -91.6392E+06    -5.33157E+06    -819.244E+03    -26.7024E-03     53.2126E-03    -26.5102E-03     36.1311E-03    -26.6684E-03     52.7988E-03    -26.3754E-03     36.0921E-03
             565     7.01265E-03     72.6410E-03    -17.5720E+06    -85.2580E+06    -1.90983E+06    -833.244E+03    -26.7779E-03     53.2853E-03    -26.5074E-03     41.0568E-03    -26.7516E-03     52.8995E-03    -26.3679E-03     41.0094E-03
             566     7.88924E-03     72.6823E-03    -15.5258E+06    -78.1888E+06     374.493E+03    -886.258E+03    -26.8681E-03     53.3663E-03    -26.4982E-03     45.8738E-03    -26.8508E-03     53.0152E-03    -26.3604E-03     45.8158E-03
             567     8.76594E-03     72.7282E-03    -13.6548E+06    -72.2972E+06     1.13073E+06    -913.570E+03    -26.9705E-03     53.4543E-03    -26.4838E-03     50.5734E-03    -26.9615E-03     53.1369E-03    -26.3535E-03     50.5029E-03
             568     9.64252E-03     72.7784E-03    -11.9853E+06    -65.5580E+06     1.48137E+06    -723.646E+03    -27.0725E-03     53.5393E-03    -26.4668E-03     55.1485E-03    -27.0767E-03     53.2640E-03    -26.3470E-03     55.0661E-03
             569     10.5193E-03     72.8329E-03    -10.4992E+06    -58.3388E+06     1.03599E+06    -608.131E+03    -27.1842E-03     53.6298E-03    -26.4455E-03     59.8387E-03    -27.2070E-03     53.4052E-03    -26.3405E-03     59.7406E-03
             570     11.3958E-03     72.8919E-03    -8.88283E+06    -49.4251E+06    -486.730E+03    -192.871E+03    -27.2770E-03     53.6923E-03    -26.4153E-03     64.6171E-03    -27.3257E-03     53.5355E-03    -26.3332E-03     64.5041E-03
             571     12.2727E-03     72.9555E-03    -7.73375E+06    -36.3963E+06    -1.26152E+06     508.890E+03    -27.3960E-03     53.7788E-03    -26.3828E-03     69.7044E-03    -27.4926E-03     53.7224E-03    -26.3251E-03     69.5765E-03
             572     13.1492E-03     73.0241E-03    -7.27998E+06    -15.9396E+06    -3.30965E+06     1.02132E+06    -27.5493E-03     53.8832E-03    -26.3339E-03     76.5178E-03    -27.7309E-03     53.9920E-03    -26.3168E-03     76.3696E-03
             573     14.0263E-03     73.1009E-03    -6.94159E+06     21.6818E+06    -6.44911E+06     1.15673E+06    -27.8548E-03     54.1091E-03    -26.2542E-03     87.9810E-03    -28.2097E-03     54.5350E-03    -26.3079E-03     87.8090E-03
             574     14.9028E-03     73.1909E-03    -7.65219E+06     78.3153E+06     1.25644E+06     986.212E+03    -28.4653E-03     54.6670E-03    -26.2017E-03     108.516E-03    -29.2629E-03     55.7117E-03    -26.2978E-03     108.353E-03
             575     15.7785E-03     73.3072E-03    -7.44968E+06     124.877E+06     40.0440E+06     311.536E+03    -29.1238E-03     55.4388E-03    -26.3150E-03     132.636E-03    -30.7106E-03     57.3262E-03    -26.2850E-03     132.755E-03
             576     16.6539E-03     73.4443E-03    -4.74719E+06     140.115E+06     77.7373E+06    -344.090E+03    -27.4720E-03     53.9332E-03    -26.4612E-03     84.7039E-03    -28.7657E-03     55.4820E-03    -26.2688E-03     85.0164E-03
             577     876.527E-06     73.4848E-03    -30.7056E+06    -118.848E+06    -29.8518E+06     30.5503E+03    -26.4954E-03     52.9683E-03    -26.4729E-03     5.72454E-03    -26.4334E-03     52.4621E-03    -26.4053E-03     5.72217E-03
             578     1.75306E-03     73.4925E-03    -29.9168E+06    -117.703E+06    -27.3634E+06    -43.7627E+03    -26.5016E-03     52.9923E-03    -26.4907E-03     10.5764E-03    -26.4413E-03     52.4873E-03    -26.4135E-03     10.5705E-03
             579     2.62963E-03     73.5050E-03    -28.4404E+06    -113.467E+06    -24.1239E+06    -273.438E+03    -26.5151E-03     53.0100E-03    -26.4949E-03     15.7019E-03    -26.4588E-03     52.5198E-03    -26.4097E-03     15.6901E-03
             580     3.50619E-03     73.5223E-03    -26.4768E+06    -109.224E+06    -19.4749E+06    -590.564E+03    -26.5460E-03     53.0489E-03    -26.5029E-03     20.8482E-03    -26.4936E-03     52.5713E-03    -26.4035E-03     20.8286E-03
             581     4.38278E-03     73.5446E-03    -24.4866E+06    -103.863E+06    -14.3357E+06    -913.035E+03    -26.5887E-03     53.1001E-03    -26.5113E-03     26.0040E-03    -26.5430E-03     52.6403E-03    -26.3969E-03     25.9759E-03
             582     5.25934E-03     73.5717E-03    -22.2593E+06    -96.1694E+06    -9.75273E+06    -989.667E+03    -26.6385E-03     53.1512E-03    -26.5128E-03     31.1207E-03    -26.6014E-03     52.7220E-03    -26.3898E-03     31.0862E-03
             583     6.13598E-03     73.6037E-03    -19.9501E+06    -91.2630E+06    -5.39213E+06    -954.187E+03    -26.7044E-03     53.2208E-03    -26.5164E-03     36.1301E-03    -26.6721E-03     52.8093E-03    -26.3821E-03     36.0893E-03
             584     7.01257E-03     73.6403E-03    -17.7399E+06    -85.1823E+06    -2.19843E+06    -1.09581E+06    -26.7771E-03     53.2893E-03    -26.5122E-03     41.0626E-03    -26.7513E-03     52.9045E-03    -26.3739E-03     41.0118E-03
             585     7.88925E-03     73.6817E-03    -15.6164E+06    -77.8797E+06     3.50181E+03    -1.16493E+06    -26.8692E-03     53.3706E-03    -26.5014E-03     45.8947E-03    -26.8523E-03     53.0218E-03    -26.3659E-03     45.8331E-03
             586     8.76584E-03     73.7275E-03    -13.8010E+06    -72.3194E+06     818.393E+03    -1.17571E+06    -26.9661E-03     53.4533E-03    -26.4872E-03     50.5776E-03    -26.9574E-03     53.1365E-03    -26.3583E-03     50.5038E-03
             587     9.64257E-03     73.7778E-03    -12.2382E+06    -65.6652E+06     920.131E+03    -1.09869E+06    -27.0628E-03     53.5310E-03    -26.4682E-03     55.1757E-03    -27.0673E-03     53.2563E-03    -26.3506E-03     55.0885E-03
             588     10.5192E-03     73.8322E-03    -10.7666E+06    -58.1676E+06     611.147E+03    -1.15796E+06    -27.1727E-03     53.6187E-03    -26.4460E-03     59.8556E-03    -27.1965E-03     53.3960E-03    -26.3430E-03     59.7504E-03
             589     11.3960E-03     73.8913E-03    -9.47305E+06    -49.8723E+06    -1.08826E+06    -1.23355E+06    -27.2861E-03     53.7022E-03    -26.4161E-03     64.5930E-03    -27.3363E-03     53.5449E-03    -26.3355E-03     64.4664E-03
             590     12.2725E-03     73.9547E-03    -7.73449E+06    -37.6528E+06    -1.93145E+06    -499.314E+03    -27.4011E-03     53.7850E-03    -26.3839E-03     69.7145E-03    -27.4950E-03     53.7235E-03    -26.3278E-03     69.5734E-03
             591     13.1494E-03     74.0238E-03    -5.99498E+06    -16.3585E+06    -3.68684E+06     280.139E+03    -27.5346E-03     53.8674E-03    -26.3328E-03     76.4419E-03    -27.7087E-03     53.9728E-03    -26.3188E-03     76.2842E-03
             592     14.0261E-03     74.0996E-03    -4.96670E+06     21.0270E+06    -6.97504E+06     664.365E+03    -27.8969E-03     54.1486E-03    -26.2517E-03     88.0880E-03    -28.2409E-03     54.5698E-03    -26.3099E-03     87.9090E-03
             593     14.9027E-03     74.1913E-03    -3.97055E+06     77.2035E+06    -2.60997E+06     1.93094E+06    -28.4639E-03     54.6441E-03    -26.1802E-03     108.722E-03    -29.2360E-03     55.6837E-03    -26.2994E-03     108.573E-03
             594     15.7806E-03     74.3063E-03    -3.18131E+06     126.091E+06     38.4320E+06     2.72489E+06    -28.6332E-03     54.9193E-03    -26.2861E-03     132.236E-03    -30.1890E-03     56.7999E-03    -26.2722E-03     132.396E-03
             595     16.6616E-03     74.4430E-03    -3.13877E+06     141.578E+06     79.6978E+06     1.43633E+06    -27.5065E-03     53.9491E-03    -26.4426E-03     84.3133E-03    -28.7881E-03     55.4910E-03    -26.2448E-03     84.6516E-03
             596     876.538E-06     74.4842E-03    -30.6566E+06    -118.975E+06    -30.1534E+06     165.777E+03    -26.4975E-03     52.9911E-03    -26.4936E-03     5.73901E-03    -26.4346E-03     52.4846E-03    -26.4274E-03     5.73838E-03
             597     1.75306E-03     74.4918E-03    -29.6493E+06    -117.362E+06    -27.4017E+06    -108.527E+03    -26.5072E-03     53.0071E-03    -26.4999E-03     10.5801E-03    -26.4460E-03     52.5035E-03    -26.4237E-03     10.5734E-03
             598     2.62960E-03     74.5043E-03    -28.1137E+06    -112.885E+06    -23.6889E+06    -539.645E+03    -26.5227E-03     53.0270E-03    -26.5044E-03     15.7050E-03    -26.4662E-03     52.5387E-03    -26.4184E-03     15.6896E-03
             599     3.50616E-03     74.5217E-03    -26.4686E+06    -108.845E+06    -19.2299E+06    -746.462E+03    -26.5522E-03     53.0641E-03    -26.5119E-03     20.8546E-03    -26.5007E-03     52.5880E-03    -26.4118E-03     20.8330E-03
             600     4.38272E-03     74.5439E-03    -24.5697E+06    -103.319E+06    -14.6050E+06    -889.647E+03    -26.5926E-03     53.1098E-03    -26.5171E-03     26.0116E-03    -26.5477E-03     52.6532E-03    -26.4047E-03     25.9837E-03
             601     5.25933E-03     74.5711E-03    -22.6000E+06    -95.8989E+06    -10.1910E+06    -1.15631E+06    -26.6388E-03     53.1565E-03    -26.5177E-03     31.1252E-03    -26.6032E-03     52.7298E-03    -26.3969E-03     31.0886E-03
             602     6.13591E-03     74.6031E-03    -20.3264E+06    -91.0633E+06    -5.82981E+06    -1.28485E+06    -26.7035E-03     53.2242E-03    -26.5207E-03     36.1324E-03    -26.6728E-03     52.8149E-03    -26.3883E-03     36.0874E-03
             603     7.01256E-03     74.6397E-03    -17.9710E+06    -84.7250E+06    -2.50910E+06    -1.42807E+06    -26.7794E-03     53.2954E-03    -26.5160E-03     41.0679E-03    -26.7550E-03     52.9137E-03    -26.3796E-03     41.0128E-03
             604     7.88917E-03     74.6810E-03    -15.8652E+06    -77.8333E+06    -493.788E+03    -1.50374E+06    -26.8622E-03     53.3664E-03    -26.5042E-03     45.9064E-03    -26.8459E-03     53.0189E-03    -26.3708E-03     45.8404E-03
             605     8.76586E-03     74.7269E-03    -13.9705E+06    -72.0750E+06     500.086E+03    -1.47959E+06    -26.9629E-03     53.4524E-03    -26.4895E-03     50.5745E-03    -26.9550E-03     53.1376E-03    -26.3622E-03     50.4967E-03
             606     9.64248E-03     74.7770E-03    -12.2485E+06    -65.6680E+06     664.899E+03    -1.54558E+06    -27.0625E-03     53.5330E-03    -26.4705E-03     55.1592E-03    -27.0668E-03     53.2587E-03    -26.3541E-03     55.0661E-03
             607     10.5192E-03     74.8317E-03    -10.9406E+06    -57.9423E+06     300.021E+03    -1.47507E+06    -27.1687E-03     53.6162E-03    -26.4475E-03     59.8300E-03    -27.1931E-03     53.3953E-03    -26.3461E-03     59.7206E-03
             608     11.3958E-03     74.8905E-03    -10.0460E+06    -49.5965E+06    -1.31754E+06    -1.65214E+06    -27.2997E-03     53.7185E-03    -26.4188E-03     64.5856E-03    -27.3530E-03     53.5639E-03    -26.3390E-03     64.4535E-03
             609     12.2725E-03     74.9543E-03    -8.76519E+06    -37.7799E+06    -3.01112E+06    -2.46764E+06    -27.4164E-03     53.8011E-03    -26.3847E-03     69.7071E-03    -27.5139E-03     53.7421E-03    -26.3323E-03     69.5404E-03
             610     13.1493E-03     75.0227E-03    -6.61588E+06    -18.0682E+06    -4.78715E+06    -1.75668E+06    -27.5456E-03     53.8816E-03    -26.3360E-03     76.4025E-03    -27.7188E-03     53.9810E-03    -26.3241E-03     76.2184E-03
             611     14.0260E-03     75.0996E-03    -5.80351E+06     19.6311E+06    -7.80834E+06     374.688E+03    -27.8307E-03     54.0847E-03    -26.2540E-03     88.2210E-03    -28.1761E-03     54.5018E-03    -26.3131E-03     88.0386E-03
             612     14.9029E-03     75.1901E-03    -7.08291E+06     74.9403E+06    -8.06271E+06     2.12033E+06    -28.4915E-03     54.6545E-03    -26.1630E-03     108.446E-03    -29.2663E-03     55.6936E-03    -26.3017E-03     108.298E-03
             613     15.7794E-03     75.3055E-03    -7.15266E+06     125.389E+06     30.1406E+06     3.83050E+06    -29.1795E-03     55.4521E-03    -26.2725E-03     130.908E-03    -30.7455E-03     57.3502E-03    -26.2933E-03     131.068E-03
             614     16.6527E-03     75.4409E-03    -4.30662E+06     144.665E+06     77.5346E+06     2.69380E+06    -27.3241E-03     53.7876E-03    -26.4636E-03     84.0545E-03    -28.6212E-03     55.3582E-03    -26.2794E-03     84.4041E-03
             615     876.499E-06     75.4835E-03    -31.1192E+06    -119.052E+06    -30.5598E+06    -106.581E+03    -26.5099E-03     53.0098E-03    -26.4999E-03     5.72343E-03    -26.4487E-03     52.5042E-03    -26.4349E-03     5.71927E-03
             616     1.75304E-03     75.4912E-03    -29.9932E+06    -116.615E+06    -28.0941E+06    -443.754E+03    -26.5095E-03     53.0148E-03    -26.5053E-03     10.5818E-03    -26.4500E-03     52.5164E-03    -26.4332E-03     10.5708E-03
             617     2.62958E-03     75.5037E-03    -28.6707E+06    -112.491E+06    -24.4788E+06    -662.975E+03    -26.5267E-03     53.0353E-03    -26.5085E-03     15.7083E-03    -26.4725E-03     52.5509E-03    -26.4262E-03     15.6914E-03
             618     3.50614E-03     75.5211E-03    -27.0915E+06    -108.549E+06    -19.7991E+06    -644.833E+03    -26.5583E-03     53.0755E-03    -26.5172E-03     20.8572E-03    -26.5095E-03     52.6027E-03    -26.4195E-03     20.8369E-03
             619     4.38271E-03     75.5433E-03    -25.1958E+06    -102.688E+06    -15.0587E+06    -981.500E+03    -26.5950E-03     53.1175E-03    -26.5225E-03     26.0077E-03    -26.5535E-03     52.6657E-03    -26.4124E-03     25.9787E-03
             620     5.25928E-03     75.5705E-03    -22.8609E+06    -95.3361E+06    -10.5547E+06    -1.35577E+06    -26.6377E-03     53.1601E-03    -26.5224E-03     31.1217E-03    -26.6037E-03     52.7371E-03    -26.4038E-03     31.0824E-03
             621     6.13590E-03     75.6024E-03    -20.5455E+06    -90.6814E+06    -6.25387E+06    -1.64691E+06    -26.7048E-03     53.2293E-03    -26.5245E-03     36.1311E-03    -26.6751E-03     52.8229E-03    -26.3945E-03     36.0814E-03
             622     7.01251E-03     75.6391E-03    -18.3217E+06    -84.3648E+06    -2.88139E+06    -1.76096E+06    -26.7803E-03     53.3001E-03    -26.5198E-03     41.0667E-03    -26.7576E-03     52.9213E-03    -26.3853E-03     41.0073E-03
             623     7.88915E-03     75.6804E-03    -16.2411E+06     -77.617E+06    -762.150E+03    -1.83513E+06    -26.8604E-03     53.3688E-03    -26.5083E-03     45.8876E-03    -26.8460E-03     53.0233E-03    -26.3761E-03     45.8172E-03
             624     8.76581E-03     75.7262E-03    -14.3520E+06    -71.8824E+06     140.092E+03    -1.88498E+06    -26.9640E-03     53.4569E-03    -26.4929E-03     50.5760E-03    -26.9578E-03     53.1441E-03    -26.3672E-03     50.4929E-03
             625     9.64245E-03     75.7765E-03    -12.7325E+06    -65.3071E+06     444.438E+03    -2.00974E+06    -27.0712E-03     53.5458E-03    -26.4747E-03     55.1264E-03    -27.0781E-03     53.2744E-03    -26.3593E-03     55.0272E-03
             626     10.5191E-03     75.8308E-03    -11.2267E+06    -58.2414E+06    -41.1338E+03    -1.85017E+06    -27.1736E-03     53.6258E-03    -26.4522E-03     59.8095E-03    -27.1986E-03     53.4043E-03    -26.3517E-03     59.6952E-03
             627     11.3958E-03     75.8902E-03    -9.98065E+06    -48.7947E+06    -1.17447E+06    -1.90863E+06    -27.2974E-03     53.7210E-03    -26.4236E-03     64.5857E-03    -27.3518E-03     53.5702E-03    -26.3442E-03     64.4502E-03
             628     12.2725E-03     75.9533E-03    -9.93276E+06    -36.5816E+06    -3.14554E+06    -2.56657E+06    -27.4229E-03     53.8123E-03    -26.3894E-03     69.6853E-03    -27.5279E-03     53.7613E-03    -26.3377E-03     69.5172E-03
             629     13.1491E-03     76.0225E-03    -11.0685E+06    -19.6960E+06     -6.6877E+06    -2.57721E+06    -27.5581E-03     53.8999E-03    -26.3418E-03     76.3886E-03    -27.7485E-03     54.0005E-03    -26.3306E-03     76.1938E-03
             630     14.0260E-03     76.0982E-03    -11.2825E+06     16.2542E+06    -11.1290E+06    -110.381E+03    -27.8226E-03     54.0805E-03    -26.2579E-03     88.0653E-03    -28.1849E-03     54.4927E-03    -26.3207E-03     87.8772E-03
             631     14.9029E-03     76.1901E-03    -11.7875E+06     72.2371E+06    -9.81969E+06     3.72638E+06    -28.5362E-03     54.7099E-03    -26.1737E-03     108.775E-03    -29.3292E-03     55.7460E-03    -26.3105E-03     108.646E-03
             632     15.7790E-03     76.3055E-03    -11.6514E+06     126.220E+06     28.0125E+06     3.24738E+06    -29.3900E-03     55.6703E-03    -26.2803E-03     132.422E-03    -30.9921E-03     57.5978E-03    -26.3063E-03     132.572E-03
             633     16.6584E-03     76.4423E-03    -5.88505E+06     147.085E+06     75.4571E+06     696.117E+03    -27.1596E-03     53.6219E-03    -26.4623E-03     84.8387E-03    -28.4785E-03     55.2233E-03    -26.2898E-03     85.1641E-03
             634     876.517E-06     76.4830E-03    -31.8094E+06    -118.503E+06    -31.4306E+06    -325.138E+03    -26.5036E-03     53.0196E-03    -26.5161E-03     5.69984E-03    -26.4453E-03     52.5190E-03    -26.4553E-03     5.69286E-03
             635     1.75302E-03     76.4906E-03    -31.0776E+06    -115.831E+06    -29.4475E+06    -734.232E+03    -26.5121E-03     53.0193E-03    -26.5072E-03     10.5860E-03    -26.4572E-03     52.5283E-03    -26.4414E-03     10.5712E-03
             636     2.62957E-03     76.5031E-03    -29.7558E+06    -112.192E+06    -25.5094E+06    -859.052E+03    -26.5321E-03     53.0449E-03    -26.5127E-03     15.7085E-03    -26.4822E-03     52.5650E-03    -26.4345E-03     15.6891E-03
             637     3.50610E-03     76.5204E-03    -27.6545E+06    -108.241E+06    -20.1562E+06    -948.315E+03    -26.5639E-03     53.0882E-03    -26.5243E-03     20.8552E-03    -26.5179E-03     52.6182E-03    -26.4280E-03     20.8310E-03
             638     4.38265E-03     76.5427E-03    -25.1764E+06    -101.815E+06    -15.1581E+06    -1.26415E+06    -26.5968E-03     53.1255E-03    -26.5287E-03     26.0053E-03    -26.5563E-03     52.6781E-03    -26.4204E-03     25.9726E-03
             639     5.25925E-03     76.5698E-03    -22.9557E+06    -94.8051E+06    -10.7966E+06    -1.64806E+06    -26.6410E-03     53.1688E-03    -26.5278E-03     31.1171E-03    -26.6079E-03     52.7489E-03    -26.4110E-03     31.0740E-03
             640     6.13585E-03     76.6018E-03    -20.7990E+06    -90.1234E+06    -6.50625E+06    -1.81599E+06    -26.7083E-03     53.2380E-03    -26.5297E-03     36.1266E-03    -26.6804E-03     52.8351E-03    -26.4014E-03     36.0746E-03
             641     7.01245E-03     76.6384E-03    -18.7449E+06    -84.0695E+06    -3.22350E+06    -1.97307E+06    -26.7823E-03     53.3072E-03    -26.5249E-03     41.0519E-03    -26.7616E-03     52.9309E-03    -26.3920E-03     40.9897E-03
             642     7.88911E-03     76.6798E-03    -16.7873E+06    -77.1888E+06    -1.14178E+06    -2.08631E+06    -26.8672E-03     53.3804E-03    -26.5133E-03     45.8704E-03    -26.8555E-03     53.0385E-03    -26.3827E-03     45.7967E-03
             643     8.76571E-03     76.7256E-03    -15.0124E+06    -71.6232E+06    -367.368E+03     -2.2429E+06    -26.9622E-03     53.4597E-03    -26.4975E-03     50.5648E-03    -26.9589E-03     53.1499E-03    -26.3738E-03     50.4771E-03
             644     9.64242E-03     76.7758E-03    -13.5608E+06    -65.0389E+06    -229.502E+03    -2.20333E+06    -27.0685E-03     53.5467E-03    -26.4782E-03     55.1371E-03    -27.0790E-03     53.2788E-03    -26.3654E-03     55.0354E-03
             645     10.5190E-03     76.8303E-03    -12.3897E+06    -58.1666E+06    -872.196E+03    -2.37735E+06    -27.1756E-03     53.6311E-03    -26.4555E-03     59.8028E-03    -27.2054E-03     53.4130E-03    -26.3576E-03     59.6817E-03
             646     11.3958E-03     76.8892E-03    -11.3932E+06    -48.6317E+06    -2.24800E+06    -2.22892E+06    -27.2916E-03     53.7173E-03    -26.4257E-03     64.6444E-03    -27.3517E-03     53.5708E-03    -26.3499E-03     64.5049E-03
             647     12.2723E-03     76.9531E-03    -11.4384E+06    -36.8199E+06    -3.81374E+06    -1.12895E+06    -27.3915E-03     53.7844E-03    -26.3929E-03     69.6677E-03    -27.5025E-03     53.7352E-03    -26.3420E-03     69.5185E-03
             648     13.1493E-03     77.0213E-03    -12.7405E+06    -19.5422E+06    -7.50608E+06    -510.358E+03    -27.5478E-03     53.8906E-03    -26.3428E-03     76.4723E-03    -27.7455E-03     53.9955E-03    -26.3335E-03     76.3043E-03
             649     14.0256E-03     77.0982E-03    -14.2157E+06     13.0339E+06    -14.0928E+06    -16.2524E+03    -27.8973E-03     54.1538E-03    -26.2566E-03     88.2958E-03    -28.2654E-03     54.5587E-03    -26.3253E-03     88.1086E-03
             650     14.9023E-03     77.1886E-03    -12.4489E+06     68.4325E+06    -11.9362E+06     1.99921E+06    -28.3509E-03     54.5211E-03    -26.1702E-03     109.041E-03    -29.1382E-03     55.5417E-03    -26.3111E-03     108.893E-03
             651     15.7803E-03     77.3055E-03    -7.80735E+06     129.604E+06     30.7157E+06     2.31543E+06    -28.6735E-03     54.9308E-03    -26.2573E-03     132.861E-03    -30.2523E-03     56.8528E-03    -26.2803E-03     133.013E-03
             652     16.6545E-03     77.4412E-03    -4.27743E+06     149.066E+06     76.7538E+06     3.97648E+03    -27.3616E-03     53.7844E-03    -26.4228E-03     84.6566E-03    -28.6635E-03     55.3777E-03    -26.2489E-03     84.9760E-03
             653     876.490E-06     77.4823E-03    -32.5799E+06    -117.608E+06    -32.2201E+06    -502.749E+03    -26.4899E-03     53.0207E-03    -26.5308E-03     5.69674E-03    -26.4357E-03     52.5268E-03    -26.4741E-03     5.68746E-03
             654     1.75303E-03     77.4900E-03    -31.7906E+06    -114.972E+06    -29.5176E+06    -836.414E+03    -26.5223E-03     53.0356E-03    -26.5133E-03     10.5854E-03    -26.4722E-03     52.5501E-03    -26.4481E-03     10.5692E-03
             655     2.62952E-03     77.5024E-03    -30.2965E+06    -111.695E+06    -25.4996E+06    -1.13030E+06    -26.5404E-03     53.0624E-03    -26.5220E-03     15.7123E-03    -26.4939E-03     52.5858E-03    -26.4436E-03     15.6893E-03
             656     3.50607E-03     77.5199E-03    -28.2614E+06    -107.442E+06    -20.9916E+06    -1.56302E+06    -26.5632E-03     53.0918E-03    -26.5286E-03     20.8647E-03    -26.5202E-03     52.6279E-03    -26.4368E-03     20.8326E-03
             657     4.38264E-03     77.5421E-03    -25.8828E+06    -101.216E+06    -16.0910E+06    -1.85875E+06    -26.5976E-03     53.1294E-03    -26.5318E-03     26.0117E-03    -26.5602E-03     52.6875E-03    -26.4280E-03     25.9713E-03
             658     5.25921E-03     77.5693E-03    -23.4779E+06    -94.3398E+06    -11.1990E+06    -1.80352E+06    -26.6474E-03     53.1806E-03    -26.5332E-03     31.1153E-03    -26.6170E-03     52.7645E-03    -26.4184E-03     31.0702E-03
             659     6.13579E-03     77.6011E-03    -21.3471E+06    -89.6389E+06    -6.95771E+06    -1.93155E+06    -26.7128E-03     53.2479E-03    -26.5350E-03     36.1202E-03    -26.6876E-03     52.8488E-03    -26.4089E-03     36.0667E-03
             660     7.01243E-03     77.6379E-03    -19.2061E+06    -83.5477E+06    -3.70820E+06    -2.12699E+06    -26.7868E-03     53.3167E-03    -26.5299E-03     41.0454E-03    -26.7686E-03     52.9445E-03    -26.3995E-03     40.9812E-03
             661     7.88901E-03     77.6791E-03    -17.1882E+06    -76.8150E+06    -1.76202E+06    -2.31814E+06    -26.8677E-03     53.3852E-03    -26.5174E-03     45.8723E-03    -26.8577E-03     53.0465E-03    -26.3899E-03     45.7956E-03
             662     8.76570E-03     77.7249E-03    -15.4994E+06    -71.2194E+06    -1.03166E+06    -2.37877E+06    -26.9585E-03     53.4593E-03    -26.5008E-03     50.5683E-03    -26.9572E-03     53.1532E-03    -26.3803E-03     50.4789E-03
             663     9.64229E-03     77.7751E-03    -14.1467E+06    -65.1027E+06    -1.12471E+06    -2.30857E+06    -27.0520E-03     53.5318E-03    -26.4798E-03     55.1595E-03    -27.0639E-03     53.2657E-03    -26.3705E-03     55.0566E-03
             664     10.5191E-03     77.8296E-03    -13.2780E+06    -57.5705E+06    -1.68476E+06    -2.20965E+06    -27.1698E-03     53.6255E-03    -26.4558E-03     59.8306E-03    -27.2036E-03     53.4128E-03    -26.3615E-03     59.7118E-03
             665     11.3956E-03     77.8886E-03    -13.1449E+06    -49.2342E+06    -3.83563E+06    -1.95191E+06    -27.2805E-03     53.7050E-03    -26.4244E-03     64.6716E-03    -27.3461E-03     53.5602E-03    -26.3532E-03     64.5358E-03
             666     12.2725E-03     77.9523E-03    -12.3765E+06    -38.1579E+06    -5.36710E+06    -1.01189E+06    -27.3836E-03     53.7746E-03    -26.3910E-03     69.6596E-03    -27.4951E-03     53.7222E-03    -26.3445E-03     69.5120E-03
             667     13.1490E-03     78.0208E-03    -10.7149E+06    -19.9254E+06    -8.05702E+06    -43.1333E+03    -27.5392E-03     53.8784E-03    -26.3392E-03     76.4183E-03    -27.7253E-03     53.9791E-03    -26.3351E-03     76.2564E-03
             668     14.0262E-03     78.0974E-03    -9.33140E+06     12.5001E+06    -13.6125E+06     371.059E+03    -27.9272E-03     54.1809E-03    -26.2537E-03     88.2620E-03    -28.2709E-03     54.5753E-03    -26.3264E-03     88.0794E-03
             669     14.9029E-03     78.1885E-03    -9.13809E+06     67.5425E+06    -13.9716E+06    -288.902E+03    -28.5510E-03     54.7149E-03    -26.1640E-03     108.443E-03    -29.3177E-03     55.7295E-03    -26.3185E-03     108.263E-03
             670     15.7794E-03     78.3036E-03    -7.45431E+06     128.977E+06     27.1111E+06    -98.5372E+03    -28.6404E-03     54.8958E-03    -26.2553E-03     130.887E-03    -30.1938E-03     56.8018E-03    -26.2960E-03     131.004E-03
             671     16.6614E-03     78.4405E-03    -3.71009E+06     149.983E+06     76.3945E+06     576.456E+03    -27.1494E-03     53.5822E-03    -26.4328E-03     83.7329E-03    -28.4331E-03     55.1636E-03    -26.2629E-03     84.0600E-03
             672     876.521E-06     78.4818E-03    -32.5793E+06    -116.563E+06    -31.7851E+06    -619.234E+03    -26.5048E-03     53.0327E-03    -26.5278E-03     5.71440E-03    -26.4527E-03     52.5434E-03    -26.4705E-03     5.70361E-03
             673     1.75299E-03     78.4894E-03    -31.6052E+06    -114.285E+06    -28.9177E+06    -721.036E+03    -26.5333E-03     53.0562E-03    -26.5228E-03     10.5833E-03    -26.4841E-03     52.5729E-03    -26.4559E-03     10.5686E-03
             674     2.62952E-03     78.5019E-03    -30.1943E+06    -110.541E+06    -25.3765E+06    -1.28886E+06    -26.5436E-03     53.0726E-03    -26.5290E-03     15.7130E-03    -26.4985E-03     52.6015E-03    -26.4518E-03     15.6880E-03
             675     3.50604E-03     78.5192E-03    -28.3096E+06    -106.375E+06    -21.2344E+06    -1.97352E+06    -26.5678E-03     53.1011E-03    -26.5333E-03     20.8638E-03    -26.5262E-03     52.6430E-03    -26.4442E-03     20.8263E-03
             676     4.38259E-03     78.5415E-03    -26.3782E+06    -100.765E+06    -16.6678E+06    -2.12327E+06    -26.6046E-03     53.1410E-03    -26.5364E-03     26.0126E-03    -26.5694E-03     52.7028E-03    -26.4354E-03     25.9687E-03
             677     5.25916E-03     78.5686E-03    -24.2272E+06    -93.9330E+06    -11.9526E+06    -2.20761E+06    -26.6521E-03     53.1897E-03    -26.5376E-03     31.1153E-03    -26.6249E-03     52.7778E-03    -26.4261E-03     31.0649E-03
             678     6.13577E-03     78.6006E-03    -21.5798E+06    -89.0374E+06    -7.41799E+06    -2.34756E+06    -26.7174E-03     53.2572E-03    -26.5398E-03     36.1200E-03    -26.6936E-03     52.8622E-03    -26.4165E-03     36.0611E-03
             679     7.01233E-03     78.6372E-03    -19.1087E+06    -83.1320E+06    -4.14435E+06    -2.48296E+06    -26.7861E-03     53.3201E-03    -26.5340E-03     41.0507E-03    -26.7673E-03     52.9503E-03    -26.4064E-03     40.9819E-03
             680     7.88902E-03     78.6786E-03    -17.0337E+06    -76.3390E+06    -2.12081E+06    -2.52746E+06    -26.8634E-03     53.3840E-03    -26.5206E-03     45.8808E-03    -26.8528E-03     53.0480E-03    -26.3958E-03     45.8015E-03
             681     8.76560E-03     78.7243E-03    -15.3042E+06    -71.0760E+06    -1.36121E+06    -2.50991E+06    -26.9550E-03     53.4585E-03    -26.5035E-03     50.5711E-03    -26.9525E-03     53.1533E-03    -26.3850E-03     50.4800E-03
             682     9.64235E-03     78.7745E-03    -13.8670E+06    -64.9099E+06    -1.30094E+06    -2.38481E+06    -27.0470E-03     53.5291E-03    -26.4821E-03     55.1505E-03    -27.0576E-03     53.2638E-03    -26.3744E-03     55.0467E-03
             683     10.5189E-03     78.8289E-03    -12.7068E+06    -57.8391E+06    -1.92713E+06    -2.00639E+06    -27.1585E-03     53.6152E-03    -26.4568E-03     59.8457E-03    -27.1887E-03     53.4006E-03    -26.3641E-03     59.7295E-03
             684     11.3957E-03     78.8881E-03    -11.6348E+06    -49.3504E+06    -3.45870E+06    -1.54375E+06    -27.2810E-03     53.7070E-03    -26.4259E-03     64.6406E-03    -27.3394E-03     53.5589E-03    -26.3548E-03     64.5100E-03
             685     12.2723E-03     78.9515E-03    -10.6876E+06    -38.5943E+06    -5.52467E+06    -1.85508E+06    -27.4138E-03     53.8041E-03    -26.3903E-03     69.6926E-03    -27.5159E-03     53.7473E-03    -26.3465E-03     69.5340E-03
             686     13.1492E-03     79.0203E-03    -9.39816E+06    -20.8182E+06    -8.42958E+06    -1.68690E+06    -27.6006E-03     53.9416E-03    -26.3410E-03     76.4114E-03    -27.7785E-03     54.0366E-03    -26.3393E-03     76.2278E-03
             687     14.0255E-03     79.0964E-03    -8.14333E+06     12.5473E+06    -12.1325E+06    -909.406E+03    -27.9537E-03     54.2193E-03    -26.2656E-03     88.3638E-03    -28.2937E-03     54.6101E-03    -26.3327E-03     88.1644E-03
             688     14.9021E-03     79.1883E-03    -7.44176E+06      67.481E+06    -13.8601E+06    -329.041E+03    -28.6546E-03     54.8252E-03    -26.1706E-03     108.919E-03    -29.4146E-03     55.8385E-03    -26.3269E-03     108.738E-03
             689     15.7784E-03     79.3035E-03    -7.28692E+06     128.124E+06     24.9387E+06    -106.659E+03    -29.1465E-03     55.4144E-03    -26.2679E-03     131.658E-03    -30.7102E-03     57.3346E-03    -26.3184E-03     131.768E-03
             690     16.6507E-03     79.4376E-03    -4.69664E+06     149.571E+06     75.3957E+06     124.339E+03    -26.9703E-03     53.4285E-03    -26.4582E-03     85.4202E-03    -28.2764E-03     55.0303E-03    -26.2913E-03     85.7441E-03
             691     876.485E-06     79.4812E-03    -32.0765E+06    -115.494E+06    -31.4100E+06    -478.405E+03    -26.5324E-03     53.0543E-03    -26.5219E-03     5.72963E-03    -26.4798E-03     52.5691E-03    -26.4649E-03     5.72066E-03
             692     1.75299E-03     79.4889E-03    -31.0518E+06    -113.583E+06    -28.9151E+06    -861.042E+03    -26.5382E-03     53.0685E-03    -26.5303E-03     10.5747E-03    -26.4873E-03     52.5880E-03    -26.4651E-03     10.5583E-03
             693     2.62949E-03     79.5013E-03    -29.5027E+06    -109.126E+06    -25.0535E+06    -1.37362E+06    -26.5489E-03     53.0837E-03    -26.5348E-03     15.7078E-03    -26.5029E-03     52.6182E-03    -26.4591E-03     15.6817E-03
             694     3.50602E-03     79.5187E-03    -28.0137E+06    -105.321E+06    -20.5204E+06    -1.90294E+06    -26.5778E-03     53.1200E-03    -26.5422E-03     20.8532E-03    -26.5373E-03     52.6657E-03    -26.4515E-03     20.8166E-03
             695     4.38256E-03     79.5409E-03    -26.1441E+06    -100.198E+06    -16.4466E+06    -2.21642E+06    -26.6129E-03     53.1571E-03    -26.5442E-03     26.0052E-03    -26.5778E-03     52.7212E-03    -26.4432E-03     25.9602E-03
             696     5.25913E-03     79.5681E-03    -23.8661E+06    -92.9992E+06    -12.3173E+06    -2.63810E+06    -26.6542E-03     53.1955E-03    -26.5413E-03     31.1210E-03    -26.6261E-03     52.7882E-03    -26.4334E-03     31.0651E-03
             697     6.13569E-03     79.5999E-03    -21.5828E+06    -88.5244E+06    -8.00032E+06    -2.99711E+06    -26.7143E-03     53.2566E-03    -26.5423E-03     36.1350E-03    -26.6904E-03     52.8650E-03    -26.4226E-03     36.0678E-03
             698     7.01234E-03     79.6367E-03    -19.1824E+06    -82.6547E+06    -4.53857E+06    -3.03162E+06    -26.7835E-03     53.3199E-03    -26.5364E-03     41.0610E-03    -26.7652E-03     52.9533E-03    -26.4115E-03     40.9851E-03
             699     7.88893E-03     79.6778E-03    -16.9135E+06    -76.1543E+06    -2.35661E+06    -2.95599E+06    -26.8620E-03     53.3852E-03    -26.5232E-03     45.8829E-03    -26.8507E-03     53.0503E-03    -26.4000E-03     45.7981E-03
             700     8.76564E-03     79.7238E-03    -14.9233E+06    -70.7407E+06    -1.36928E+06    -2.86325E+06    -26.9574E-03     53.4636E-03    -26.5062E-03     50.5654E-03    -26.9535E-03     53.1595E-03    -26.3888E-03     50.4697E-03
             701     9.64223E-03     79.7738E-03    -13.1360E+06    -64.9242E+06    -1.24328E+06    -2.80415E+06    -27.0539E-03     53.5389E-03    -26.4850E-03     55.1304E-03    -27.0609E-03     53.2724E-03    -26.3780E-03     55.0211E-03
             702     10.5190E-03     79.8284E-03    -11.4688E+06    -58.1900E+06    -1.74062E+06    -2.46695E+06    -27.1541E-03     53.6136E-03    -26.4595E-03     59.8369E-03    -27.1779E-03     53.3951E-03    -26.3672E-03     59.7148E-03
             703     11.3956E-03     79.8873E-03    -9.95364E+06    -49.6520E+06    -2.91677E+06    -2.16594E+06    -27.2842E-03     53.7131E-03    -26.4289E-03     64.6467E-03    -27.3346E-03     53.5604E-03    -26.3571E-03     64.5081E-03
             704     12.2725E-03     79.9511E-03    -9.08841E+06    -37.9249E+06    -4.24441E+06    -2.00657E+06    -27.4404E-03     53.8365E-03    -26.3961E-03     69.7053E-03    -27.5375E-03     53.7790E-03    -26.3492E-03     69.5445E-03
             705     13.1489E-03     80.0195E-03    -9.04386E+06    -21.1054E+06    -7.64517E+06    -2.31137E+06    -27.6009E-03     53.9488E-03    -26.3479E-03     76.4705E-03    -27.7778E-03     54.0409E-03    -26.3425E-03     76.2788E-03
             706     14.0259E-03     80.0963E-03    -8.67783E+06     11.6668E+06    -12.2617E+06    -2.15197E+06    -27.8584E-03     54.1250E-03    -26.2667E-03     88.6081E-03    -28.1998E-03     54.5127E-03    -26.3323E-03     88.3934E-03
             707     14.9029E-03     80.1874E-03    -8.38408E+06     66.1198E+06    -16.7630E+06    -1.26994E+06    -28.3382E-03     54.4842E-03    -26.1461E-03     109.353E-03    -29.0937E-03     55.4934E-03    -26.3136E-03     109.164E-03
             708     15.7803E-03     80.3035E-03    -6.49786E+06     127.761E+06     22.9243E+06     26.6923E+03    -28.8820E-03     55.1080E-03    -26.2261E-03     132.360E-03    -30.4397E-03     57.0297E-03    -26.2873E-03     132.478E-03
             709     16.6617E-03     80.4390E-03    -3.95768E+06     150.656E+06     75.9660E+06     745.446E+03    -27.3281E-03     53.7568E-03    -26.4287E-03     85.4882E-03    -28.6356E-03     55.3648E-03    -26.2616E-03     85.8179E-03
             710     876.475E-06     80.4807E-03    -32.0879E+06    -114.457E+06    -31.6175E+06    -494.258E+03    -26.5361E-03     53.0695E-03    -26.5333E-03     5.71611E-03    -26.4848E-03     52.5898E-03    -26.4789E-03     5.70694E-03
             711     1.75297E-03     80.4883E-03    -31.1602E+06    -112.374E+06    -29.2467E+06    -1.15533E+06    -26.5389E-03     53.0741E-03    -26.5351E-03     10.5782E-03    -26.4898E-03     52.6002E-03    -26.4733E-03     10.5579E-03
             712     2.62947E-03     80.5008E-03    -29.8138E+06    -108.088E+06    -25.4998E+06    -1.57489E+06    -26.5549E-03     53.0934E-03    -26.5385E-03     15.7105E-03    -26.5112E-03     52.6341E-03    -26.4661E-03     15.6817E-03
             713     3.50600E-03     80.5181E-03    -27.9389E+06    -104.411E+06    -20.5103E+06    -1.77548E+06    -26.5835E-03     53.1315E-03    -26.5480E-03     20.8530E-03    -26.5440E-03     52.6816E-03    -26.4586E-03     20.8180E-03
             714     4.38251E-03     80.5404E-03    -25.7898E+06    -98.8436E+06    -16.1660E+06    -2.54806E+06    -26.6149E-03     53.1647E-03    -26.5498E-03     26.0057E-03    -26.5804E-03     52.7346E-03    -26.4499E-03     25.9564E-03
             715     5.25909E-03     80.5674E-03    -23.3791E+06    -91.9694E+06    -12.5241E+06    -3.27087E+06    -26.6500E-03     53.1934E-03    -26.5434E-03     31.1305E-03    -26.6206E-03     52.7909E-03    -26.4388E-03     31.0664E-03
             716     6.13571E-03     80.5994E-03    -20.9948E+06    -87.9293E+06    -8.13100E+06    -3.38109E+06    -26.7116E-03     53.2554E-03    -26.5438E-03     36.1426E-03    -26.6855E-03     52.8661E-03    -26.4265E-03     36.0704E-03
             717     7.01228E-03     80.6360E-03    -18.9344E+06    -82.1411E+06    -4.68735E+06    -3.47641E+06    -26.7837E-03     53.3212E-03    -26.5376E-03     41.0693E-03    -26.7647E-03     52.9570E-03    -26.4144E-03     40.9876E-03
             718     7.88895E-03     80.6774E-03    -16.8182E+06    -75.7542E+06    -2.59843E+06    -3.60831E+06    -26.8655E-03     53.3895E-03    -26.5240E-03     45.8918E-03    -26.8539E-03     53.0568E-03    -26.4028E-03     45.7986E-03
             719     8.76555E-03     80.7230E-03    -14.5768E+06    -70.4758E+06    -1.65459E+06    -3.66336E+06    -26.9591E-03     53.4656E-03    -26.5065E-03     50.5853E-03    -26.9534E-03     53.1628E-03    -26.3915E-03     50.4793E-03
             720     9.64226E-03     80.7733E-03    -12.5965E+06    -64.7865E+06    -1.40851E+06    -3.54705E+06    -27.0589E-03     53.5446E-03    -26.4857E-03     55.1516E-03    -27.0631E-03     53.2782E-03    -26.3805E-03     55.0327E-03
             721     10.5189E-03     80.8275E-03    -10.9103E+06    -58.4183E+06    -1.91985E+06    -3.39561E+06    -27.1618E-03     53.6225E-03    -26.4607E-03     59.8474E-03    -27.1822E-03     53.4023E-03    -26.3698E-03     59.7133E-03
             722     11.3957E-03     80.8869E-03    -9.52585E+06    -49.7791E+06    -3.16905E+06    -3.03644E+06    -27.3013E-03     53.7315E-03    -26.4302E-03     64.7030E-03    -27.3490E-03     53.5778E-03    -26.3600E-03     64.5532E-03
             723     12.2722E-03     80.9502E-03    -8.19738E+06    -38.2286E+06    -4.43350E+06    -2.55560E+06    -27.4293E-03     53.8263E-03    -26.3970E-03     69.7436E-03    -27.5211E-03     53.7661E-03    -26.3518E-03     69.5759E-03
             724     13.1490E-03     81.0193E-03    -7.92366E+06    -21.1351E+06    -7.09595E+06    -1.65171E+06    -27.5463E-03     53.8953E-03    -26.3491E-03     76.4578E-03    -27.7182E-03     53.9847E-03    -26.3424E-03     76.2751E-03
             725     14.0257E-03     81.0950E-03    -9.75155E+06     11.1658E+06    -12.2524E+06    -1.50486E+06    -27.7269E-03     53.9904E-03    -26.2635E-03     88.3822E-03    -28.0724E-03     54.3765E-03    -26.3268E-03     88.1770E-03
             726     14.9026E-03     81.1870E-03    -10.7111E+06     66.1647E+06    -14.9982E+06    -1.88659E+06    -28.2470E-03     54.3950E-03    -26.1480E-03     108.903E-03    -29.0135E-03     55.4019E-03    -26.3034E-03     108.707E-03
             727     15.7798E-03     81.3015E-03    -9.66004E+06     126.454E+06     22.5792E+06    -1.57019E+06    -29.0668E-03     55.2936E-03    -26.2268E-03     131.358E-03    -30.6344E-03     57.2103E-03    -26.2833E-03     131.449E-03
             728     16.6532E-03     81.4378E-03    -5.32196E+06     149.148E+06     73.8208E+06    -275.000E+03    -27.2200E-03     53.6445E-03    -26.4245E-03     83.4074E-03    -28.5235E-03     55.2445E-03    -26.2639E-03     83.7164E-03
             729     876.474E-06     81.4801E-03    -32.5423E+06    -113.155E+06    -32.0769E+06    -712.612E+03    -26.5194E-03     53.0671E-03    -26.5477E-03     5.70164E-03    -26.4716E-03     52.5953E-03    -26.4968E-03     5.68964E-03
             730     1.75297E-03     81.4878E-03    -31.7090E+06    -110.979E+06    -29.5695E+06    -1.27095E+06    -26.5419E-03     53.0775E-03    -26.5356E-03     10.5916E-03    -26.4971E-03     52.6119E-03    -26.4766E-03     10.5698E-03
             731     2.62946E-03     81.5002E-03    -30.4596E+06    -107.162E+06    -26.2821E+06    -1.67242E+06    -26.5562E-03     53.0948E-03    -26.5385E-03     15.7159E-03    -26.5160E-03     52.6422E-03    -26.4704E-03     15.6859E-03
             732     3.50597E-03     81.5176E-03    -28.6986E+06    -103.338E+06    -21.9960E+06    -2.19382E+06    -26.5760E-03     53.1196E-03    -26.5435E-03     20.8755E-03    -26.5397E-03     52.6783E-03    -26.4621E-03     20.8351E-03
             733     4.38252E-03     81.5398E-03    -26.4638E+06    -97.0288E+06    -17.0958E+06    -2.96836E+06    -26.6052E-03     53.1504E-03    -26.5452E-03     26.0321E-03    -26.5753E-03     52.7317E-03    -26.4516E-03     25.9773E-03
             734     5.25908E-03     81.5669E-03    -24.3807E+06     -90.773E+06    -12.9210E+06    -3.74713E+06    -26.6457E-03     53.1879E-03    -26.5422E-03     31.1439E-03    -26.6225E-03     52.7934E-03    -26.4399E-03     31.0737E-03
             735     6.13566E-03     81.5988E-03    -22.1045E+06    -87.3725E+06    -9.14251E+06    -4.05609E+06    -26.7061E-03     53.2466E-03    -26.5405E-03     36.1642E-03    -26.6848E-03     52.8632E-03    -26.4275E-03     36.0833E-03
             736     7.01231E-03     81.6355E-03    -19.3799E+06    -81.3264E+06    -5.42088E+06    -4.20369E+06    -26.7778E-03     53.3117E-03    -26.5339E-03     41.0926E-03    -26.7611E-03     52.9533E-03    -26.4150E-03     41.0017E-03
             737     7.88891E-03     81.6766E-03    -16.7088E+06    -75.0364E+06    -2.96716E+06    -4.55648E+06    -26.8610E-03     53.3820E-03    -26.5210E-03     45.9250E-03    -26.8494E-03     53.0533E-03    -26.4028E-03     45.8195E-03
             738     8.76559E-03     81.7225E-03    -14.3665E+06    -70.0575E+06    -1.97484E+06    -4.71177E+06    -26.9538E-03     53.4573E-03    -26.5034E-03     50.6236E-03    -26.9472E-03     53.1567E-03    -26.3909E-03     50.5042E-03
             739     9.64224E-03     81.7724E-03    -12.2185E+06      -64.68E+06    -1.60983E+06    -4.58061E+06    -27.0545E-03     53.5373E-03    -26.4828E-03     55.2060E-03    -27.0567E-03     53.2711E-03    -26.3793E-03     55.0739E-03
             740     10.5189E-03     81.8272E-03    -10.4422E+06    -58.3035E+06    -2.01319E+06    -4.31554E+06    -27.1809E-03     53.6395E-03    -26.4586E-03     59.9058E-03    -27.1990E-03     53.4194E-03    -26.3690E-03     59.7598E-03
             741     11.3956E-03     81.8858E-03    -8.94830E+06    -50.0931E+06    -3.31025E+06    -3.99378E+06    -27.3003E-03     53.7290E-03    -26.4287E-03     64.8168E-03    -27.3445E-03     53.5731E-03    -26.3596E-03     64.6547E-03
             742     12.2723E-03     81.9501E-03    -7.93559E+06    -38.7865E+06    -4.63385E+06    -3.40209E+06    -27.3870E-03     53.7811E-03    -26.3940E-03     69.8323E-03    -27.4762E-03     53.7178E-03    -26.3495E-03     69.6543E-03
             743     13.1491E-03     82.0179E-03    -6.62822E+06    -22.6552E+06    -6.92824E+06    -2.14139E+06    -27.5250E-03     53.8704E-03    -26.3453E-03     76.5335E-03    -27.6883E-03     53.9497E-03    -26.3375E-03     76.3450E-03
             744     14.0258E-03     82.0951E-03    -5.65042E+06     10.5737E+06    -10.5043E+06     28.4432E+03    -27.8415E-03     54.1061E-03    -26.2646E-03     88.2270E-03    -28.1675E-03     54.4801E-03    -26.3243E-03     88.0412E-03
             745     14.9031E-03     82.1848E-03    -7.51583E+06     67.4587E+06    -12.6418E+06     249.984E+03    -28.3032E-03     54.4585E-03    -26.1553E-03     108.794E-03    -29.0567E-03     55.4614E-03    -26.3054E-03     108.625E-03
             746     15.7794E-03     82.3026E-03    -9.13360E+06     126.702E+06     22.4974E+06    -940.012E+03    -28.9123E-03     55.1323E-03    -26.2200E-03     133.437E-03    -30.4789E-03     57.0510E-03    -26.2780E-03     133.543E-03
             747     16.6582E-03     82.4385E-03    -6.07283E+06     148.201E+06     72.3135E+06    -1.56606E+06    -27.2385E-03     53.6413E-03    -26.4028E-03     85.2476E-03    -28.5466E-03     55.2442E-03    -26.2473E-03     85.5480E-03
             748     876.482E-06     82.4796E-03    -33.1314E+06    -111.666E+06    -32.5577E+06    -787.145E+03    -26.5135E-03     53.0538E-03    -26.5403E-03     5.70705E-03    -26.4701E-03     52.5910E-03    -26.4931E-03     5.69410E-03
             749     1.75297E-03     82.4872E-03    -32.2529E+06    -109.484E+06    -30.1731E+06    -1.39194E+06    -26.5412E-03     53.0711E-03    -26.5298E-03     10.6007E-03    -26.5004E-03     52.6146E-03    -26.4752E-03     10.5773E-03
             750     2.62945E-03     82.4997E-03    -30.5758E+06    -105.883E+06    -26.6611E+06    -2.11585E+06    -26.5501E-03     53.0842E-03    -26.5342E-03     15.7233E-03    -26.5118E-03     52.6388E-03    -26.4696E-03     15.6876E-03
             751     3.50600E-03     82.5170E-03    -28.3477E+06    -101.751E+06    -22.1030E+06    -2.87347E+06    -26.5690E-03     53.1072E-03    -26.5382E-03     20.8859E-03    -26.5330E-03     52.6735E-03    -26.4601E-03     20.8367E-03
             752     4.38253E-03     82.5393E-03    -25.9768E+06    -95.4723E+06    -17.0411E+06    -3.58978E+06    -26.5999E-03     53.1396E-03    -26.5397E-03     26.0424E-03    -26.5699E-03     52.7278E-03    -26.4488E-03     25.9796E-03
             753     5.25912E-03     82.5663E-03    -23.6630E+06    -89.6463E+06    -12.0474E+06    -3.84422E+06    -26.6474E-03     53.1886E-03    -26.5412E-03     31.1409E-03    -26.6235E-03     52.7974E-03    -26.4371E-03     31.0694E-03
             754     6.13570E-03     82.5982E-03    -21.6364E+06    -86.0344E+06    -8.32236E+06    -4.48320E+06    -26.7053E-03     53.2450E-03    -26.5397E-03     36.1653E-03    -26.6848E-03     52.8664E-03    -26.4252E-03     36.0789E-03
             755     7.01231E-03     82.6348E-03    -19.2071E+06    -80.0648E+06    -5.65513E+06    -5.47760E+06    -26.7661E-03     53.2941E-03    -26.5280E-03     41.1237E-03    -26.7500E-03     52.9421E-03    -26.4124E-03     41.0163E-03
             756     7.88896E-03     82.6761E-03    -16.5465E+06    -74.3944E+06    -3.20210E+06    -5.68540E+06    -26.8471E-03     53.3620E-03    -26.5149E-03     45.9593E-03    -26.8353E-03     53.0366E-03    -26.3990E-03     45.8393E-03
             757     8.76563E-03     82.7217E-03    -14.2553E+06    -69.3399E+06    -2.01730E+06    -5.72797E+06    -26.9431E-03     53.4404E-03    -26.4973E-03     50.6598E-03    -26.9369E-03     53.1433E-03    -26.3862E-03     50.5273E-03
             758     9.64229E-03     82.7721E-03    -12.2088E+06    -64.3948E+06    -1.73266E+06    -5.82447E+06    -27.0496E-03     53.5263E-03    -26.4767E-03     55.2469E-03    -27.0520E-03     53.2618E-03    -26.3743E-03     55.0988E-03
             759     10.5190E-03     82.8262E-03    -10.3158E+06    -58.4945E+06    -2.11349E+06    -5.36762E+06    -27.1795E-03     53.6327E-03    -26.4531E-03     59.9847E-03    -27.1966E-03     53.4116E-03    -26.3639E-03     59.8252E-03
             760     11.3957E-03     82.8857E-03    -8.99119E+06    -50.0963E+06    -3.16372E+06    -4.88984E+06    -27.2803E-03     53.7043E-03    -26.4239E-03     64.8218E-03    -27.3248E-03     53.5482E-03    -26.3541E-03     64.6482E-03
             761     12.2725E-03     82.9487E-03    -7.83239E+06    -39.5680E+06    -4.66135E+06    -4.22245E+06    -27.3794E-03     53.7681E-03    -26.3887E-03     69.8249E-03    -27.4668E-03     53.7007E-03    -26.3433E-03     69.6363E-03
             762     13.1491E-03     83.0180E-03    -7.17325E+06    -23.9131E+06    -7.34579E+06    -3.35836E+06    -27.5539E-03     53.8949E-03    -26.3409E-03     76.4371E-03    -27.7177E-03     53.9696E-03    -26.3326E-03     76.2323E-03
             763     14.0261E-03     83.0934E-03    -6.30183E+06     7.16340E+06    -10.7549E+06    -1.33946E+06    -27.9734E-03     54.2430E-03    -26.2696E-03     88.2868E-03    -28.2981E-03     54.6020E-03    -26.3246E-03     88.0815E-03
             764     14.9019E-03     83.1859E-03    -4.69132E+06     67.9111E+06    -8.72761E+06     1.41370E+06    -28.5949E-03     54.7785E-03    -26.1837E-03     108.165E-03    -29.3451E-03     55.7785E-03    -26.3190E-03     108.005E-03
             765     15.7807E-03     83.2988E-03    -3.65266E+06     127.919E+06     29.8909E+06     1.11644E+06    -28.2552E-03     54.5109E-03    -26.2557E-03     130.841E-03    -29.7814E-03     56.3917E-03    -26.2865E-03     130.980E-03
             766     16.6584E-03     83.4387E-03    -2.57357E+06     146.985E+06     76.6450E+06    -783.932E+03    -26.7905E-03     53.1966E-03    -26.4061E-03     83.8885E-03    -28.0560E-03     54.7525E-03    -26.2323E-03     84.2081E-03
             767     876.500E-06     83.4791E-03    -33.3100E+06    -110.015E+06    -32.8885E+06    -856.201E+03    -26.5208E-03     53.0381E-03    -26.5173E-03     5.73939E-03    -26.4802E-03     52.5842E-03    -26.4739E-03     5.72553E-03
             768     1.75296E-03     83.4867E-03    -32.4125E+06    -107.775E+06    -30.4770E+06    -1.61014E+06    -26.5320E-03     53.0531E-03    -26.5211E-03     10.5993E-03    -26.4940E-03     52.6058E-03    -26.4702E-03     10.5731E-03
             769     2.62950E-03     83.4991E-03    -31.0011E+06    -103.804E+06    -26.8391E+06    -2.70862E+06    -26.5397E-03     53.0652E-03    -26.5255E-03     15.7283E-03    -26.5063E-03     52.6311E-03    -26.4643E-03     15.6850E-03
             770     3.50599E-03     83.5165E-03    -28.9688E+06    -99.9230E+06    -22.4074E+06    -3.75891E+06    -26.5619E-03     53.0919E-03    -26.5300E-03     20.8862E-03    -26.5313E-03     52.6687E-03    -26.4552E-03     20.8257E-03
             771     4.38256E-03     83.5386E-03    -26.7124E+06    -94.1530E+06    -17.7571E+06    -4.17375E+06    -26.5903E-03     53.1210E-03    -26.5307E-03     26.0503E-03    -26.5648E-03     52.7179E-03    -26.4442E-03     25.9801E-03
             772     5.25912E-03     83.5658E-03    -24.2303E+06    -88.6040E+06    -12.6900E+06    -4.52425E+06    -26.6350E-03     53.1673E-03    -26.5323E-03     31.1529E-03    -26.6145E-03     52.7831E-03    -26.4322E-03     31.0727E-03
             773     6.13572E-03     83.5976E-03    -21.1503E+06    -84.0282E+06    -7.95654E+06    -5.24714E+06    -26.6933E-03     53.2256E-03    -26.5322E-03     36.1765E-03    -26.6738E-03     52.8558E-03    -26.4195E-03     36.0803E-03
             774     7.01234E-03     83.6342E-03    -18.7832E+06    -78.4202E+06    -5.32617E+06    -6.07886E+06    -26.7540E-03     53.2743E-03    -26.5203E-03     41.1343E-03    -26.7387E-03     52.9294E-03    -26.4060E-03     41.0192E-03
             775     7.88904E-03     83.6753E-03    -16.8963E+06    -73.5586E+06    -3.64876E+06    -6.64374E+06    -26.8331E-03     53.3381E-03    -26.5050E-03     45.9819E-03    -26.8236E-03     53.0180E-03    -26.3921E-03     45.8496E-03
             776     8.76567E-03     83.7213E-03    -14.7849E+06    -68.5698E+06    -2.56674E+06    -6.76638E+06    -26.9337E-03     53.4207E-03    -26.4870E-03     50.6756E-03    -26.9304E-03     53.1289E-03    -26.3790E-03     50.5298E-03
             777     9.64241E-03     83.7712E-03    -12.9836E+06    -63.7989E+06    -2.23214E+06    -6.75710E+06    -27.0439E-03     53.5114E-03    -26.4675E-03     55.2626E-03    -27.0503E-03     53.2517E-03    -26.3674E-03     55.1024E-03
             778     10.5190E-03     83.8259E-03    -11.3144E+06    -58.5664E+06    -3.12304E+06    -6.71902E+06    -27.1638E-03     53.6065E-03    -26.4427E-03     60.0084E-03    -27.1844E-03     53.3880E-03    -26.3570E-03     59.8314E-03
             779     11.3958E-03     83.8846E-03    -9.50870E+06    -50.5422E+06    -4.24754E+06    -5.93165E+06    -27.2827E-03     53.6958E-03    -26.4132E-03     64.7932E-03    -27.3276E-03     53.5399E-03    -26.3473E-03     64.6060E-03
             780     12.2724E-03     83.9486E-03    -8.41711E+06    -40.1087E+06    -5.48123E+06    -5.08975E+06    -27.4248E-03     53.8066E-03    -26.3818E-03     69.8195E-03    -27.5135E-03     53.7390E-03    -26.3388E-03     69.6192E-03
             781     13.1493E-03     84.0167E-03    -8.11419E+06    -25.4514E+06    -8.55493E+06    -3.54107E+06    -27.6500E-03     53.9891E-03    -26.3391E-03     76.4214E-03    -27.8155E-03     54.0603E-03    -26.3332E-03     76.2128E-03
             782     14.0255E-03     84.0936E-03    -8.60923E+06     5.75484E+06    -12.9174E+06    -2.14226E+06    -27.9923E-03     54.2610E-03    -26.2687E-03     88.3236E-03    -28.3243E-03     54.6203E-03    -26.3292E-03     88.1072E-03
             783     14.9032E-03     84.1844E-03    -8.15996E+06     65.6098E+06    -12.1026E+06    -1.72776E+06    -28.7211E-03     54.9039E-03    -26.1828E-03     109.024E-03    -29.4877E-03     55.9094E-03    -26.3266E-03     108.822E-03
             784     15.7763E-03     84.3010E-03    -4.64723E+06     126.820E+06     26.8825E+06     552.905E+03    -28.6308E-03     54.8955E-03    -26.2647E-03     130.666E-03    -30.1711E-03     56.7915E-03    -26.3074E-03     130.794E-03
             785     16.6559E-03     84.4309E-03    -1.81094E+06     148.036E+06     76.0578E+06     1.80103E+06    -26.6708E-03     53.1003E-03    -26.4295E-03     86.1626E-03    -27.9545E-03     54.6826E-03    -26.2612E-03     86.5234E-03
             786     876.476E-06     84.4786E-03    -33.5156E+06    -108.025E+06    -33.0511E+06    -1.10640E+06    -26.5262E-03     53.0204E-03    -26.4943E-03     5.75193E-03    -26.4893E-03     52.5770E-03    -26.4543E-03     5.73484E-03
             787     1.75301E-03     84.4862E-03    -32.4620E+06    -105.778E+06    -30.4712E+06    -1.94984E+06    -26.5181E-03     53.0300E-03    -26.5119E-03     10.5921E-03    -26.4832E-03     52.5928E-03    -26.4638E-03     10.5615E-03
             788     2.62948E-03     84.4986E-03    -31.0050E+06    -101.401E+06    -26.8167E+06    -2.93768E+06    -26.5284E-03     53.0431E-03    -26.5147E-03     15.7275E-03    -26.4985E-03     52.6209E-03    -26.4568E-03     15.6812E-03
             789     3.50604E-03     84.5159E-03    -29.5481E+06    -97.7182E+06    -22.4764E+06    -4.00517E+06    -26.5506E-03     53.0706E-03    -26.5200E-03     20.8866E-03    -26.5260E-03     52.6594E-03    -26.4479E-03     20.8229E-03
             790     4.38257E-03     84.5381E-03    -27.6512E+06    -92.9607E+06    -18.3893E+06    -4.66480E+06    -26.5767E-03     53.0968E-03    -26.5201E-03     26.0520E-03    -26.5567E-03     52.7020E-03    -26.4371E-03     25.9754E-03
             791     5.25919E-03     84.5652E-03    -25.1275E+06    -86.5283E+06    -13.9929E+06    -5.52885E+06    -26.6121E-03     53.1282E-03    -26.5161E-03     31.1760E-03    -26.5973E-03     52.7576E-03    -26.4242E-03     31.0829E-03
             792     6.13578E-03     84.5970E-03    -22.5867E+06    -82.4220E+06    -9.34065E+06    -6.42489E+06    -26.6713E-03     53.1872E-03    -26.5159E-03     36.1923E-03    -26.6593E-03     52.8295E-03    -26.4104E-03     36.0809E-03
             793     7.01246E-03     84.6335E-03    -19.9057E+06    -76.9739E+06    -5.81474E+06    -6.66602E+06    -26.7422E-03     53.2503E-03    -26.5081E-03     41.1339E-03    -26.7338E-03     52.9149E-03    -26.3967E-03     41.0112E-03
             794     7.88905E-03     84.6748E-03    -17.6059E+06    -71.9455E+06    -4.10666E+06    -7.26709E+06    -26.8251E-03     53.3178E-03    -26.4927E-03     45.9785E-03    -26.8207E-03     53.0075E-03    -26.3834E-03     45.8382E-03
             795     8.76581E-03     84.7204E-03    -15.7207E+06    -67.8792E+06    -3.59639E+06    -7.68222E+06    -26.9237E-03     53.3977E-03    -26.4740E-03     50.6926E-03    -26.9246E-03     53.1123E-03    -26.3708E-03     50.5349E-03
             796     9.64238E-03     84.7707E-03    -13.8791E+06    -63.1056E+06    -3.32638E+06    -7.61742E+06    -27.0385E-03     53.4930E-03    -26.4546E-03     55.2846E-03    -27.0488E-03     53.2397E-03    -26.3596E-03     55.1132E-03
             797     10.5192E-03     84.8249E-03    -12.4320E+06    -57.9513E+06    -4.11171E+06    -7.63486E+06    -27.1577E-03     53.5890E-03    -26.4312E-03     60.0146E-03    -27.1834E-03     53.3767E-03    -26.3497E-03     59.8258E-03
             798     11.3957E-03     84.8843E-03    -11.3487E+06    -51.3430E+06    -6.11442E+06    -7.25662E+06    -27.2848E-03     53.6860E-03    -26.4012E-03     64.8212E-03    -27.3351E-03     53.5315E-03    -26.3409E-03     64.6169E-03
             799     12.2727E-03     84.9475E-03    -10.5422E+06    -41.3738E+06    -7.01159E+06    -5.46121E+06    -27.4564E-03     53.8309E-03    -26.3745E-03     69.9285E-03    -27.5521E-03     53.7627E-03    -26.3343E-03     69.7230E-03
             800     13.1490E-03     85.0168E-03    -9.69062E+06    -26.3739E+06    -10.0399E+06    -4.54328E+06    -27.6902E-03     54.0236E-03    -26.3335E-03     76.6385E-03    -27.8606E-03     54.0951E-03    -26.3314E-03     76.4168E-03
             801     14.0260E-03     85.0925E-03    -7.62500E+06     3.88180E+06    -14.3372E+06    -3.35579E+06    -27.9130E-03     54.1725E-03    -26.2595E-03     88.5150E-03    -28.2372E-03     54.5250E-03    -26.3257E-03     88.2834E-03
             802     14.9017E-03     85.1845E-03    -8.46564E+06     63.3532E+06    -13.1990E+06    -929.032E+03    -28.1068E-03     54.2630E-03    -26.1562E-03     109.538E-03    -28.8649E-03     55.2543E-03    -26.3018E-03     109.357E-03
             803     15.7828E-03     85.2997E-03    -10.8897E+06     126.581E+06     22.4155E+06    -698.205E+03    -29.1627E-03     55.3873E-03    -26.2245E-03     130.935E-03    -30.7377E-03     57.3079E-03    -26.2802E-03     131.035E-03
             804     16.6576E-03     85.4319E-03    -6.08329E+06     148.732E+06     71.8111E+06     404.542E+03    -27.1898E-03     53.6070E-03    -26.4172E-03     85.2094E-03    -28.5049E-03     55.2203E-03    -26.2649E-03     85.5298E-03
             805     876.506E-06     85.4780E-03    -33.3091E+06    -105.643E+06    -32.6571E+06    -1.20532E+06    -26.5160E-03     52.9999E-03    -26.4839E-03     5.75480E-03    -26.4821E-03     52.5675E-03    -26.4457E-03     5.73642E-03
             806     1.75298E-03     85.4856E-03    -32.3461E+06    -103.464E+06    -30.4005E+06    -2.28279E+06    -26.5078E-03     53.0088E-03    -26.5010E-03     10.5913E-03    -26.4759E-03     52.5829E-03    -26.4561E-03     10.5565E-03
             807     2.62954E-03     85.4980E-03    -30.8710E+06    -99.0894E+06    -26.7671E+06    -3.24015E+06    -26.5149E-03     53.0181E-03    -26.5033E-03     15.7225E-03    -26.4877E-03     52.6072E-03    -26.4487E-03     15.6723E-03
             808     3.50606E-03     85.5154E-03    -28.9511E+06    -95.6522E+06    -21.8287E+06    -3.96835E+06    -26.5385E-03     53.0490E-03    -26.5106E-03     20.8735E-03    -26.5148E-03     52.6463E-03    -26.4391E-03     20.8103E-03
             809     4.38263E-03     85.5375E-03    -26.7403E+06    -90.6515E+06    -17.4939E+06    -5.18789E+06    -26.5665E-03     53.0772E-03    -26.5107E-03     26.0352E-03    -26.5467E-03     52.6914E-03    -26.4280E-03     25.9518E-03
             810     5.25921E-03     85.5645E-03    -24.3261E+06    -84.2708E+06    -13.7023E+06    -6.39230E+06    -26.5995E-03     53.1031E-03    -26.5036E-03     31.1608E-03    -26.5843E-03     52.7421E-03    -26.4147E-03     31.0565E-03
             811     6.13588E-03     85.5964E-03    -22.0055E+06    -80.8804E+06    -9.17690E+06    -6.87275E+06    -26.6610E-03     53.1649E-03    -26.5039E-03     36.1738E-03    -26.6485E-03     52.8138E-03    -26.4006E-03     36.0566E-03
             812     7.01246E-03     85.6329E-03    -20.0082E+06    -75.5994E+06    -5.95946E+06    -7.39752E+06    -26.7322E-03     53.2282E-03    -26.4959E-03     41.1201E-03    -26.7262E-03     52.9000E-03    -26.3871E-03     40.9880E-03
             813     7.88921E-03     85.6741E-03    -17.8585E+06    -70.1629E+06    -4.15511E+06    -7.89168E+06    -26.8150E-03     53.2960E-03    -26.4810E-03     45.9739E-03    -26.8145E-03     52.9950E-03    -26.3741E-03     45.8256E-03
             814     8.76578E-03     85.7198E-03    -15.9219E+06    -66.8569E+06    -3.88352E+06    -8.34528E+06    -26.9089E-03     53.3710E-03    -26.4621E-03     50.6950E-03    -26.9119E-03     53.0914E-03    -26.3615E-03     50.5289E-03
             815     9.64263E-03     85.7699E-03    -14.3483E+06    -62.4092E+06     -3.9299E+06    -8.40636E+06    -27.0271E-03     53.4689E-03    -26.4417E-03     55.3423E-03    -27.0399E-03     53.2206E-03    -26.3501E-03     55.1609E-03
             816     10.5191E-03     85.8245E-03    -13.1023E+06    -57.4577E+06    -4.69624E+06    -8.11151E+06    -27.1511E-03     53.5704E-03    -26.4193E-03     60.0353E-03    -27.1800E-03     53.3624E-03    -26.3404E-03     59.8404E-03
             817     11.3960E-03     85.8833E-03    -12.4678E+06    -51.4538E+06    -6.84281E+06    -7.58086E+06    -27.2873E-03     53.6781E-03    -26.3908E-03     64.9005E-03    -27.3421E-03     53.5258E-03    -26.3323E-03     64.6921E-03
             818     12.2724E-03     85.9472E-03    -11.2962E+06    -43.0592E+06    -8.62633E+06    -6.82658E+06    -27.4229E-03     53.7838E-03    -26.3608E-03     70.0638E-03    -27.5176E-03     53.7105E-03    -26.3252E-03     69.8410E-03
             819     13.1495E-03     86.0157E-03    -9.79393E+06    -26.4296E+06    -11.1325E+06    -5.69691E+06    -27.5622E-03     53.8760E-03    -26.3138E-03     76.9258E-03    -27.7307E-03     53.9482E-03    -26.3169E-03     76.6909E-03
             820     14.0257E-03     86.0925E-03    -10.4811E+06     1.22400E+06    -16.5762E+06    -4.68823E+06    -27.6815E-03     53.9128E-03    -26.2313E-03     88.5953E-03    -28.0114E-03     54.2580E-03    -26.3008E-03     88.3499E-03
             821     14.9042E-03     86.1825E-03    -9.13166E+06     59.0436E+06    -14.1844E+06    -932.558E+03    -27.9871E-03     54.1124E-03    -26.1253E-03     109.006E-03    -28.7338E-03     55.0775E-03    -26.2686E-03     108.826E-03
             822     15.7789E-03     86.2980E-03    -6.87372E+06     128.518E+06     25.4384E+06     1.90682E+06    -29.0283E-03     55.2166E-03    -26.1883E-03     133.058E-03    -30.5890E-03     57.1353E-03    -26.2375E-03     133.194E-03
             823     16.6536E-03     86.4362E-03    -5.32623E+06     149.627E+06     72.0588E+06    -359.319E+03    -27.5523E-03     53.9248E-03    -26.3724E-03     85.2249E-03    -28.8598E-03     55.5356E-03    -26.2214E-03     85.5297E-03
             824     876.505E-06     86.4775E-03    -32.7690E+06    -103.025E+06    -32.3453E+06    -1.29399E+06    -26.5022E-03     52.9778E-03    -26.4756E-03     5.76643E-03    -26.4698E-03     52.5573E-03    -26.4404E-03     5.74691E-03
             825     1.75303E-03     86.4851E-03    -31.8910E+06    -100.752E+06    -29.8079E+06    -2.46992E+06    -26.4995E-03     52.9907E-03    -26.4912E-03     10.5764E-03    -26.4700E-03     52.5768E-03    -26.4479E-03     10.5391E-03
             826     2.62953E-03     86.4975E-03    -30.6370E+06    -96.9351E+06    -26.4872E+06    -3.42301E+06    -26.5032E-03     52.9967E-03    -26.4934E-03     15.7077E-03    -26.4785E-03     52.5958E-03    -26.4409E-03     15.6551E-03
             827     3.50610E-03     86.5148E-03    -28.8604E+06    -93.3440E+06    -22.2407E+06    -4.45913E+06    -26.5211E-03     53.0174E-03    -26.4963E-03     20.8658E-03    -26.4997E-03     52.6267E-03    -26.4303E-03     20.7963E-03
             828     4.38266E-03     86.5369E-03    -26.6106E+06    -87.7658E+06    -17.4949E+06    -5.71256E+06    -26.5496E-03     53.0461E-03    -26.4965E-03     26.0260E-03    -26.5333E-03     52.6744E-03    -26.4181E-03     25.9359E-03
             829     5.25928E-03     86.5639E-03    -24.7046E+06    -82.1973E+06    -13.5399E+06    -6.66221E+06    -26.5873E-03     53.0793E-03    -26.4921E-03     31.1455E-03    -26.5772E-03     52.7290E-03    -26.4048E-03     31.0377E-03
             830     6.13588E-03     86.5957E-03    -22.7746E+06    -79.2480E+06    -9.87899E+06    -7.32375E+06    -26.6443E-03     53.1336E-03    -26.4893E-03     36.1791E-03    -26.6370E-03     52.7928E-03    -26.3908E-03     36.0562E-03
             831     7.01260E-03     86.6323E-03    -20.2880E+06    -73.6567E+06    -6.28219E+06    -7.99425E+06    -26.7140E-03     53.1957E-03    -26.4817E-03     41.1301E-03    -26.7117E-03     52.8781E-03    -26.3769E-03     40.9904E-03
             832     7.88918E-03     86.6734E-03    -17.9641E+06    -68.7231E+06    -4.29066E+06    -8.66110E+06    -26.7933E-03     53.2607E-03    -26.4674E-03     45.9873E-03    -26.7951E-03     52.9672E-03    -26.3632E-03     45.8291E-03
             833     8.76601E-03     86.7191E-03    -16.0015E+06    -65.4792E+06    -3.96462E+06    -8.93198E+06    -26.8981E-03     53.3466E-03    -26.4485E-03     50.7143E-03    -26.9033E-03     53.0741E-03    -26.3502E-03     50.5406E-03
             834     9.64255E-03     86.7692E-03    -14.3376E+06    -61.7380E+06    -4.27947E+06    -9.09708E+06    -27.0003E-03     53.4274E-03    -26.4271E-03     55.3732E-03    -27.0134E-03     53.1829E-03    -26.3382E-03     55.1831E-03
             835     10.5195E-03     86.8238E-03    -12.7787E+06    -57.1397E+06    -5.28492E+06    -8.77171E+06    -27.1411E-03     53.5439E-03    -26.4028E-03     60.1017E-03    -27.1678E-03     53.3378E-03    -26.3278E-03     59.8985E-03
             836     11.3959E-03     86.8826E-03    -11.1930E+06    -51.6961E+06    -7.27079E+06    -8.17188E+06    -27.2855E-03     53.6601E-03    -26.3746E-03     64.9578E-03    -27.3330E-03     53.5054E-03    -26.3197E-03     64.7418E-03
             837     12.2730E-03     86.9465E-03    -10.0351E+06    -42.4103E+06    -8.87928E+06    -8.15158E+06    -27.3909E-03     53.7343E-03    -26.3434E-03     70.0978E-03    -27.4795E-03     53.6624E-03    -26.3117E-03     69.8584E-03
             838     13.1494E-03     87.0150E-03    -9.09401E+06    -28.7147E+06    -12.4573E+06    -7.08979E+06    -27.4283E-03     53.7196E-03    -26.2914E-03     76.6863E-03    -27.5872E-03     53.7805E-03    -26.2988E-03     76.4346E-03
             839     14.0272E-03     87.0915E-03    -7.76234E+06     294.695E+03    -17.4924E+06    -4.44429E+06    -27.7846E-03     53.9909E-03    -26.2063E-03     87.9799E-03    -28.0960E-03     54.3265E-03    -26.2830E-03     87.7367E-03
             840     14.9029E-03     87.1812E-03    -8.12714E+06     55.5211E+06    -22.4610E+06    -3.02998E+06    -28.6438E-03     54.7383E-03    -26.0945E-03     107.831E-03    -29.3737E-03     55.7016E-03    -26.2756E-03     107.613E-03
             841     15.7822E-03     87.2979E-03    -5.77697E+06     123.987E+06     15.9920E+06    -233.705E+03    -28.4782E-03     54.6400E-03    -26.1618E-03     130.627E-03    -29.9907E-03     56.5255E-03    -26.2532E-03     130.742E-03
             842     16.6644E-03     87.4342E-03    -2.69854E+06     152.042E+06     72.5652E+06     1.15450E+06    -27.1307E-03     53.4940E-03    -26.3633E-03     83.1217E-03    -28.3973E-03     55.0804E-03    -26.2170E-03     83.4580E-03
             843     876.511E-06     87.4769E-03    -32.4699E+06    -100.162E+06    -31.8771E+06    -1.48216E+06    -26.4893E-03     52.9625E-03    -26.4732E-03     5.76305E-03    -26.4602E-03     52.5552E-03    -26.4403E-03     5.74110E-03
             844     1.75301E-03     87.4845E-03    -31.5196E+06    -97.9528E+06    -29.4848E+06    -2.59754E+06    -26.4844E-03     52.9662E-03    -26.4818E-03     10.5660E-03    -26.4576E-03     52.5654E-03    -26.4415E-03     10.5271E-03
             845     2.62957E-03     87.4969E-03    -29.9592E+06    -94.4674E+06    -26.0286E+06    -3.77264E+06    -26.4910E-03     52.9738E-03    -26.4828E-03     15.6957E-03    -26.4670E-03     52.5836E-03    -26.4325E-03     15.6386E-03
             846     3.50612E-03     87.5141E-03    -27.9782E+06    -90.5974E+06    -21.6761E+06    -4.95402E+06    -26.5069E-03     52.9914E-03    -26.4845E-03     20.8583E-03    -26.4859E-03     52.6123E-03    -26.4209E-03     20.7824E-03
             847     4.38272E-03     87.5363E-03    -25.9281E+06    -85.0274E+06    -16.9270E+06    -6.16574E+06    -26.5327E-03     53.0166E-03    -26.4839E-03     26.0174E-03    -26.5177E-03     52.6569E-03    -26.4077E-03     25.9214E-03
             848     5.25933E-03     87.5633E-03    -23.6298E+06    -80.4895E+06    -12.3782E+06    -6.76770E+06    -26.5732E-03     53.0558E-03    -26.4826E-03     31.1244E-03    -26.5619E-03     52.7108E-03    -26.3936E-03     31.0154E-03
             849     6.13601E-03     87.5951E-03    -21.5760E+06    -76.9638E+06    -8.74513E+06    -7.45508E+06    -26.6266E-03     53.1045E-03    -26.4780E-03     36.1729E-03    -26.6183E-03     52.7718E-03    -26.3788E-03     36.0483E-03
             850     7.01261E-03     87.6316E-03    -19.6693E+06    -71.3976E+06    -6.20601E+06    -8.71419E+06    -26.6851E-03     53.1496E-03    -26.4645E-03     41.1556E-03    -26.6831E-03     52.8423E-03    -26.3635E-03     41.0068E-03
             851     7.88940E-03     87.6728E-03    -17.5040E+06    -67.1816E+06    -4.29185E+06    -9.35082E+06    -26.7685E-03     53.2180E-03    -26.4495E-03     46.0202E-03    -26.7702E-03     52.9315E-03    -26.3482E-03     45.8532E-03
             852     8.76601E-03     87.7183E-03    -15.4269E+06    -64.1650E+06    -4.03433E+06    -9.73372E+06    -26.8744E-03     53.3038E-03    -26.4294E-03     50.7907E-03    -26.8785E-03     53.0370E-03    -26.3341E-03     50.6069E-03
             853     9.64285E-03     87.7686E-03    -13.5963E+06    -60.6667E+06    -4.37734E+06    -9.88516E+06    -26.9837E-03     53.3909E-03    -26.4072E-03     55.4316E-03    -26.9945E-03     53.1508E-03    -26.3215E-03     55.2315E-03
             854     10.5195E-03     87.8228E-03    -11.9637E+06    -56.9108E+06    -5.40601E+06      -9.837E+06    -27.1199E-03     53.5032E-03    -26.3833E-03     60.2381E-03    -27.1427E-03     53.2971E-03    -26.3104E-03     60.0214E-03
             855     11.3963E-03     87.8823E-03    -10.3600E+06    -51.3278E+06    -7.28434E+06    -9.64908E+06    -27.2903E-03     53.6457E-03    -26.3555E-03     65.0454E-03    -27.3341E-03     53.4917E-03    -26.3024E-03     64.8105E-03
             856     12.2728E-03     87.9453E-03    -9.32492E+06    -42.5820E+06    -8.79739E+06    -8.70502E+06    -27.4023E-03     53.7295E-03    -26.3272E-03     70.0921E-03    -27.4871E-03     53.6555E-03    -26.2959E-03     69.8456E-03
             857     13.1498E-03     88.0147E-03    -9.08143E+06    -29.0701E+06    -11.9797E+06    -8.03952E+06    -27.6190E-03     53.9053E-03    -26.2862E-03     76.4609E-03    -27.7783E-03     53.9639E-03    -26.2908E-03     76.1955E-03
             858     14.0261E-03     88.0895E-03    -8.43158E+06    -2.75866E+06    -17.5626E+06    -6.66159E+06    -28.1056E-03     54.3256E-03    -26.2201E-03     87.9812E-03    -28.4175E-03     54.6488E-03    -26.2916E-03     87.7057E-03
             859     14.9029E-03     88.1828E-03    -7.72685E+06     52.9507E+06    -19.6737E+06    -2.89411E+06    -28.8937E-03     55.0290E-03    -26.1353E-03     108.684E-03    -29.6292E-03     55.9821E-03    -26.2993E-03     108.466E-03
             860     15.7760E-03     88.2957E-03    -8.84709E+06     121.544E+06     16.4213E+06    -1.19563E+06    -28.9204E-03     55.1335E-03    -26.2131E-03     130.740E-03    -30.4597E-03     57.0249E-03    -26.2944E-03     130.839E-03
             861     16.6496E-03     88.4301E-03    -4.91060E+06     150.062E+06     70.7111E+06    -381.356E+03    -26.4957E-03     52.8919E-03    -26.3962E-03     85.7699E-03    -27.7895E-03     54.4960E-03    -26.2532E-03     86.0975E-03
             862     876.502E-06     88.4764E-03    -31.4535E+06    -97.0566E+06    -31.0627E+06    -1.51455E+06    -26.4813E-03     52.9451E-03    -26.4638E-03     5.75122E-03    -26.4529E-03     52.5507E-03    -26.4328E-03     5.72885E-03
             863     1.75305E-03     88.4839E-03    -30.6208E+06    -94.9556E+06    -28.8283E+06    -2.89025E+06    -26.4680E-03     52.9384E-03    -26.4704E-03     10.5680E-03    -26.4420E-03     52.5503E-03    -26.4325E-03     10.5253E-03
             864     2.62958E-03     88.4963E-03    -29.1707E+06    -91.4450E+06    -25.2856E+06    -4.28268E+06    -26.4777E-03     52.9479E-03    -26.4702E-03     15.6904E-03    -26.4553E-03     52.5706E-03    -26.4217E-03     15.6267E-03
             865     3.50616E-03     88.5135E-03    -27.2877E+06    -87.8458E+06    -20.8741E+06    -5.50966E+06    -26.4913E-03     52.9635E-03    -26.4722E-03     20.8495E-03    -26.4720E-03     52.5960E-03    -26.4096E-03     20.7664E-03
             866     4.38276E-03     88.5356E-03    -25.2289E+06    -82.4037E+06    -16.5111E+06    -6.44551E+06    -26.5085E-03     52.9770E-03    -26.4686E-03     26.0172E-03    -26.4944E-03     52.6288E-03    -26.3950E-03     25.9178E-03
             867     5.25940E-03     88.5626E-03    -23.2008E+06    -78.7112E+06    -12.2427E+06    -7.24811E+06    -26.5435E-03     53.0087E-03    -26.4652E-03     31.1374E-03    -26.5328E-03     52.6717E-03    -26.3787E-03     31.0222E-03
             868     6.13604E-03     88.5944E-03    -20.7045E+06    -74.6188E+06    -8.45397E+06    -7.95162E+06    -26.5882E-03     53.0453E-03    -26.4571E-03     36.2060E-03    -26.5794E-03     52.7226E-03    -26.3612E-03     36.0752E-03
             869     7.01281E-03     88.6309E-03    -18.4289E+06    -68.6362E+06    -5.63358E+06    -8.99827E+06    -26.6434E-03     53.0843E-03    -26.4409E-03     41.2074E-03    -26.6400E-03     52.7881E-03    -26.3428E-03     41.0551E-03
             870     7.88948E-03     88.6719E-03    -16.5214E+06    -65.4802E+06    -3.99455E+06    -10.0805E+06    -26.7247E-03     53.1484E-03    -26.4236E-03     46.1130E-03    -26.7244E-03     52.8685E-03    -26.3247E-03     45.9369E-03
             871     8.76632E-03     88.7177E-03    -14.6278E+06    -62.5823E+06    -3.62097E+06    -10.5391E+06    -26.8268E-03     53.2287E-03    -26.4019E-03     50.9151E-03    -26.8298E-03     52.9680E-03    -26.3080E-03     50.7212E-03
             872     9.64301E-03     88.7676E-03    -12.9324E+06    -59.6588E+06    -3.91398E+06    -10.7612E+06    -26.9517E-03     53.3310E-03    -26.3793E-03     55.5995E-03    -26.9612E-03     53.0942E-03    -26.2936E-03     55.3885E-03
             873     10.5198E-03     88.8223E-03    -11.4780E+06    -55.9156E+06    -4.89886E+06    -10.8565E+06    -27.0925E-03     53.4476E-03    -26.3551E-03     60.4443E-03    -27.1149E-03     53.2450E-03    -26.2819E-03     60.2148E-03
             874     11.3965E-03     88.8811E-03    -10.4762E+06    -51.0223E+06    -7.07364E+06    -10.6226E+06    -27.2716E-03     53.5992E-03    -26.3275E-03     65.3554E-03    -27.3166E-03     53.4463E-03    -26.2737E-03     65.1085E-03
             875     12.2732E-03     88.9452E-03    -9.28310E+06    -43.2438E+06    -9.04482E+06    -9.96809E+06    -27.4557E-03     53.7565E-03    -26.3007E-03     70.3169E-03    -27.5393E-03     53.6798E-03    -26.2698E-03     70.0540E-03
             876     13.1499E-03     89.0131E-03    -7.89242E+06    -29.6357E+06    -11.5952E+06    -8.49270E+06    -27.7338E-03     54.0008E-03    -26.2670E-03     77.1876E-03    -27.8874E-03     54.0548E-03    -26.2705E-03     76.9161E-03
             877     14.0260E-03     89.0910E-03    -8.21539E+06    -4.19499E+06    -17.4880E+06    -7.28043E+06    -28.1584E-03     54.3642E-03    -26.2058E-03     89.0773E-03    -28.4703E-03     54.6828E-03    -26.2753E-03     88.7942E-03
             878     14.9028E-03     89.1798E-03    -8.17215E+06     47.8134E+06    -20.3369E+06    -5.08048E+06    -28.3398E-03     54.4466E-03    -26.1068E-03     109.838E-03    -29.0651E-03     55.3716E-03    -26.2660E-03     109.603E-03
             879     15.7829E-03     89.2989E-03    -4.55729E+06     120.730E+06     16.9180E+06    -319.189E+03    -28.6733E-03     54.8234E-03    -26.1501E-03     132.572E-03    -30.1896E-03     56.7029E-03    -26.2340E-03     132.691E-03
             880     16.6636E-03     89.4287E-03    -3.13936E+06     151.515E+06     69.8484E+06     913.556E+03    -27.3000E-03     53.6374E-03    -26.3374E-03     86.8672E-03    -28.5932E-03     55.2547E-03    -26.2033E-03     87.2044E-03
             881     876.524E-06     89.4758E-03    -30.2899E+06    -93.7030E+06    -29.8798E+06    -1.72902E+06    -26.4576E-03     52.9119E-03    -26.4543E-03     5.71415E-03    -26.4300E-03     52.5309E-03    -26.4239E-03     5.68905E-03
             882     1.75306E-03     89.4833E-03    -29.3513E+06     -91.536E+06    -27.5785E+06    -3.17107E+06    -26.4532E-03     52.9075E-03    -26.4543E-03     10.5695E-03    -26.4276E-03     52.5328E-03    -26.4169E-03     10.5232E-03
             883     2.62963E-03     89.4957E-03    -28.1059E+06    -88.2765E+06    -24.2802E+06    -4.56135E+06    -26.4565E-03     52.9096E-03    -26.4531E-03     15.6923E-03    -26.4348E-03     52.5451E-03    -26.4057E-03     15.6251E-03
             884     3.50621E-03     89.5129E-03    -26.5337E+06    -84.8076E+06    -20.3301E+06    -5.86927E+06    -26.4621E-03     52.9136E-03    -26.4515E-03     20.8614E-03    -26.4442E-03     52.5593E-03    -26.3917E-03     20.7737E-03
             885     4.38284E-03     89.5350E-03    -24.5298E+06    -79.9807E+06    -16.3188E+06    -6.94364E+06    -26.4708E-03     52.9149E-03    -26.4441E-03     26.0424E-03    -26.4570E-03     52.5774E-03    -26.3742E-03     25.9366E-03
             886     5.25953E-03     89.5619E-03    -22.1302E+06    -76.3036E+06    -11.8856E+06    -7.78796E+06    -26.4942E-03     52.9314E-03    -26.4372E-03     31.1801E-03    -26.4822E-03     52.6044E-03    -26.3539E-03     31.0581E-03
             887     6.13627E-03     89.5936E-03    -19.7963E+06    -72.2574E+06    -7.95873E+06    -8.86093E+06    -26.5302E-03     52.9560E-03    -26.4257E-03     36.2678E-03    -26.5209E-03     52.6429E-03    -26.3320E-03     36.1255E-03
             888     7.01299E-03     89.6300E-03    -17.2557E+06    -66.1658E+06    -4.85335E+06    -9.73198E+06    -26.5770E-03     52.9830E-03    -26.4060E-03     41.3052E-03    -26.5723E-03     52.6962E-03    -26.3093E-03     41.1438E-03
             889     7.88984E-03     89.6712E-03    -15.1907E+06    -63.3547E+06    -2.82766E+06    -10.4087E+06    -26.6556E-03     53.0423E-03    -26.3867E-03     46.2354E-03    -26.6533E-03     52.7693E-03    -26.2869E-03     46.0555E-03
             890     8.76662E-03     89.7167E-03    -13.7735E+06    -60.9800E+06    -2.75798E+06    -11.0269E+06    -26.7541E-03     53.1151E-03    -26.3610E-03     51.0808E-03    -26.7562E-03     52.8598E-03    -26.2664E-03     50.8811E-03
             891     9.64348E-03     89.7670E-03    -12.2811E+06    -58.0547E+06    -3.19609E+06    -11.6303E+06    -26.8800E-03     53.2147E-03    -26.3347E-03     55.8343E-03    -26.8895E-03     52.9837E-03    -26.2487E-03     55.6126E-03
             892     10.5203E-03     89.8212E-03    -10.7450E+06    -55.1162E+06    -4.44176E+06    -11.7425E+06    -27.0368E-03     53.3448E-03    -26.3080E-03     60.7234E-03    -27.0573E-03     53.1443E-03    -26.2347E-03     60.4830E-03
             893     11.3971E-03     89.8807E-03    -9.47482E+06    -50.5574E+06    -6.62568E+06    -11.3625E+06    -27.2088E-03     53.4873E-03    -26.2785E-03     65.7257E-03    -27.2499E-03     53.3345E-03    -26.2246E-03     65.4700E-03
             894     12.2739E-03     89.9440E-03    -8.60848E+06    -43.0880E+06    -8.82157E+06    -11.0464E+06    -27.4500E-03     53.7012E-03    -26.2512E-03     70.8343E-03    -27.5308E-03     53.6240E-03    -26.2203E-03     70.5580E-03
             895     13.1503E-03     90.0133E-03    -7.79603E+06    -31.2677E+06    -12.3191E+06    -10.3298E+06    -27.6163E-03     53.8304E-03    -26.2141E-03     77.5951E-03    -27.7662E-03     53.8773E-03    -26.2190E-03     77.3009E-03
             896     14.0280E-03     90.0890E-03    -5.95024E+06    -5.94794E+06    -17.2295E+06    -8.00951E+06    -27.9915E-03     54.1391E-03    -26.1475E-03     89.5722E-03    -28.2894E-03     54.4446E-03    -26.2164E-03     89.2823E-03
             897     14.9040E-03     90.1816E-03    -6.37448E+06     45.6866E+06    -19.7453E+06    -5.14567E+06    -28.8798E-03     54.9460E-03    -26.0662E-03     108.601E-03    -29.5972E-03     55.8602E-03    -26.2219E-03     108.355E-03
             898     15.7806E-03     90.2921E-03    -8.65386E+06     115.024E+06     11.2977E+06    -2.51211E+06    -29.3969E-03     55.5356E-03    -26.1387E-03     128.589E-03    -30.9063E-03     57.3898E-03    -26.2365E-03     128.649E-03
             899     16.6543E-03     90.4320E-03    -4.47383E+06     149.903E+06     66.5142E+06     461.202E+03    -26.6687E-03     53.0109E-03    -26.3422E-03     82.2185E-03    -27.9335E-03     54.5991E-03    -26.2205E-03     82.5294E-03
             900     876.549E-06     90.4752E-03    -28.8862E+06    -89.8824E+06    -28.5250E+06    -1.95680E+06    -26.4151E-03     52.8590E-03    -26.4440E-03     5.71666E-03    -26.3879E-03     52.4931E-03    -26.4144E-03     5.68863E-03
             901     1.75311E-03     90.4827E-03    -28.0821E+06    -87.9899E+06    -26.3895E+06    -3.45241E+06    -26.4267E-03     52.8542E-03    -26.4274E-03     10.5768E-03    -26.4017E-03     52.4936E-03    -26.3911E-03     10.5270E-03
             902     2.62968E-03     90.4950E-03    -26.6481E+06    -84.8438E+06    -23.1632E+06    -4.91780E+06    -26.4181E-03     52.8419E-03    -26.4238E-03     15.7068E-03    -26.3957E-03     52.4908E-03    -26.3779E-03     15.6351E-03
             903     3.50633E-03     90.5122E-03    -24.8396E+06    -81.7496E+06    -19.1110E+06    -6.20971E+06    -26.4159E-03     52.8348E-03    -26.4189E-03     20.8827E-03    -26.3957E-03     52.4916E-03    -26.3599E-03     20.7908E-03
             904     4.38299E-03     90.5342E-03    -22.9016E+06    -77.0100E+06    -15.0509E+06    -7.46834E+06    -26.4157E-03     52.8234E-03    -26.4077E-03     26.0791E-03    -26.3999E-03     52.4966E-03    -26.3381E-03     25.9667E-03
             905     5.25972E-03     90.5611E-03    -20.6865E+06    -73.7430E+06    -10.9049E+06    -8.67889E+06    -26.4270E-03     52.8226E-03    -26.3956E-03     31.2378E-03    -26.4128E-03     52.5048E-03    -26.3132E-03     31.1045E-03
             906     6.13649E-03     90.5928E-03    -18.1799E+06    -69.5326E+06    -6.77640E+06    -9.58650E+06    -26.4501E-03     52.8296E-03    -26.3795E-03     36.3529E-03    -26.4383E-03     52.5260E-03    -26.2862E-03     36.2016E-03
             907     7.01337E-03     90.6292E-03    -16.0674E+06    -63.8964E+06    -3.78018E+06    -10.5558E+06    -26.4889E-03     52.8441E-03    -26.3552E-03     41.4165E-03    -26.4830E-03     52.5653E-03    -26.2582E-03     41.2449E-03
             908     7.89025E-03     90.6702E-03    -13.9676E+06    -61.6814E+06    -1.64606E+06    -10.9062E+06    -26.5598E-03     52.8921E-03    -26.3323E-03     46.3805E-03    -26.5554E-03     52.6239E-03    -26.2308E-03     46.1947E-03
             909     8.76715E-03     90.7159E-03    -12.1123E+06    -58.8981E+06    -1.28210E+06    -11.3327E+06    -26.6553E-03     52.9573E-03    -26.3020E-03     51.2621E-03    -26.6540E-03     52.7077E-03    -26.2055E-03     51.0592E-03
             910     9.64413E-03     90.7658E-03    -10.8254E+06    -56.0723E+06    -1.84123E+06    -12.1246E+06    -26.7850E-03     53.0564E-03    -26.2715E-03     56.0856E-03    -26.7918E-03     52.8311E-03    -26.1837E-03     55.8583E-03
             911     10.5210E-03     90.8205E-03    -9.74365E+06    -54.0847E+06    -3.42924E+06    -12.5546E+06    -26.9528E-03     53.1950E-03    -26.2422E-03     60.9910E-03    -26.9709E-03     52.9965E-03    -26.1668E-03     60.7410E-03
             912     11.3980E-03     90.8794E-03    -8.63343E+06    -50.1756E+06    -5.74871E+06    -12.3109E+06    -27.1211E-03     53.3321E-03    -26.2110E-03     66.0156E-03    -27.1596E-03     53.1785E-03    -26.1545E-03     65.7484E-03
             913     12.2747E-03     90.9437E-03    -7.67628E+06    -42.6676E+06    -7.91671E+06    -11.8383E+06    -27.3443E-03     53.5249E-03    -26.1806E-03     71.2854E-03    -27.4219E-03     53.4468E-03    -26.1472E-03     71.0003E-03
             914     13.1518E-03     91.0121E-03    -6.89853E+06    -31.0141E+06    -11.0813E+06    -11.5669E+06    -27.6906E-03     53.8388E-03    -26.1482E-03     77.7897E-03    -27.8386E-03     53.8843E-03    -26.1486E-03     77.4795E-03
             915     14.0276E-03     91.0887E-03    -7.71312E+06    -9.32465E+06    -17.4958E+06    -9.51316E+06    -28.0494E-03     54.1411E-03    -26.0918E-03     89.4315E-03    -28.3482E-03     54.4302E-03    -26.1545E-03     89.1225E-03
             916     14.9055E-03     91.1800E-03    -7.81181E+06     40.1466E+06    -15.3188E+06    -4.09653E+06    -29.0938E-03     55.1385E-03    -26.0447E-03     110.713E-03    -29.8226E-03     56.0265E-03    -26.1682E-03     110.478E-03
             917     15.7776E-03     91.2980E-03    -7.23230E+06     113.368E+06     14.3571E+06    -518.162E+03    -29.2867E-03     55.3806E-03    -26.0939E-03     134.131E-03    -30.8331E-03     57.2620E-03    -26.1760E-03     134.242E-03
             918     16.6559E-03     91.4271E-03    -4.29661E+06     149.725E+06     63.6887E+06    -785.699E+03    -26.8638E-03     53.1213E-03    -26.2574E-03     88.2207E-03    -28.1678E-03     54.7569E-03    -26.1498E-03     88.5435E-03
             919     876.583E-06     91.4745E-03    -27.1347E+06    -85.7531E+06    -26.7522E+06    -2.07648E+06    -26.3872E-03     52.7805E-03    -26.3933E-03     5.72213E-03    -26.3599E-03     52.4301E-03    -26.3633E-03     5.69260E-03
             920     1.75317E-03     91.4820E-03    -26.2954E+06    -83.9809E+06    -24.7771E+06    -3.82355E+06    -26.3725E-03     52.7569E-03    -26.3845E-03     10.5838E-03    -26.3467E-03     52.4115E-03    -26.3484E-03     10.5292E-03
             921     2.62982E-03     91.4943E-03    -24.9751E+06    -81.2918E+06    -21.7533E+06    -5.41577E+06    -26.3579E-03     52.7332E-03    -26.3753E-03     15.7323E-03    -26.3343E-03     52.3954E-03    -26.3299E-03     15.6542E-03
             922     3.50648E-03     91.5115E-03    -23.2220E+06    -78.3735E+06    -17.7856E+06    -6.83764E+06    -26.3457E-03     52.7113E-03    -26.3656E-03     20.9257E-03    -26.3242E-03     52.3807E-03    -26.3072E-03     20.8259E-03
             923     4.38324E-03     91.5334E-03    -21.0852E+06    -73.9334E+06    -13.6862E+06    -8.06245E+06    -26.3342E-03     52.6839E-03    -26.3497E-03     26.1376E-03    -26.3157E-03     52.3678E-03    -26.2804E-03     26.0178E-03
             924     5.26005E-03     91.5602E-03    -19.1510E+06    -70.7550E+06    -9.57425E+06    -9.14558E+06    -26.3346E-03     52.6673E-03    -26.3326E-03     31.3192E-03    -26.3190E-03     52.3602E-03    -26.2501E-03     31.1803E-03
             925     6.13693E-03     91.5917E-03    -17.2863E+06    -66.8477E+06    -5.95352E+06    -10.3290E+06    -26.3464E-03     52.6564E-03    -26.3100E-03     36.4646E-03    -26.3351E-03     52.3637E-03    -26.2178E-03     36.3041E-03
             926     7.01387E-03     91.6281E-03    -15.0882E+06    -61.5070E+06    -2.79664E+06    -11.0473E+06    -26.3773E-03     52.6590E-03    -26.2817E-03     41.5628E-03    -26.3713E-03     52.3892E-03    -26.1846E-03     41.3854E-03
             927     7.89083E-03     91.6691E-03    -13.1083E+06    -60.0002E+06    -791.209E+03    -11.6942E+06    -26.4398E-03     52.6939E-03    -26.2542E-03     46.5592E-03    -26.4345E-03     52.4314E-03    -26.1521E-03     46.3640E-03
             928     8.76793E-03     91.7146E-03    -11.1503E+06    -57.0102E+06    -288.392E+03    -11.9988E+06    -26.5391E-03     52.7587E-03    -26.2197E-03     51.4948E-03    -26.5369E-03     52.5155E-03    -26.1223E-03     51.2840E-03
             929     9.64488E-03     91.7648E-03    -9.69409E+06    -54.1519E+06    -485.400E+03    -12.3057E+06    -26.6807E-03     52.8681E-03    -26.1874E-03     56.3437E-03    -26.6863E-03     52.6485E-03    -26.0973E-03     56.1149E-03
             930     10.5220E-03     91.8192E-03    -9.02813E+06    -52.5568E+06    -2.23175E+06    -12.6913E+06    -26.8633E-03     53.0202E-03    -26.1569E-03     61.2845E-03    -26.8816E-03     52.8263E-03    -26.0788E-03     61.0336E-03
             931     11.3988E-03     91.8786E-03    -8.57235E+06    -49.3250E+06    -5.16347E+06    -13.0427E+06    -27.0613E-03     53.1862E-03    -26.1250E-03     66.2662E-03    -27.1013E-03     53.0357E-03    -26.0668E-03     65.9904E-03
             932     12.2761E-03     91.9421E-03    -7.98489E+06    -42.3004E+06    -7.70193E+06    -12.6982E+06    -27.3323E-03     53.4294E-03    -26.0971E-03     71.5479E-03    -27.4123E-03     53.3532E-03    -26.0627E-03     71.2521E-03
             933     13.1525E-03     92.0119E-03    -8.18646E+06    -30.9565E+06    -10.2419E+06    -11.5952E+06    -27.7189E-03     53.7943E-03    -26.0754E-03     78.1154E-03    -27.8741E-03     53.8402E-03    -26.0698E-03     77.8053E-03
             934     14.0296E-03     92.0880E-03    -8.40500E+06    -12.3698E+06    -17.2905E+06    -9.40404E+06    -28.2609E-03     54.2921E-03    -26.0311E-03     89.7780E-03    -28.5637E-03     54.5712E-03    -26.0874E-03     89.4669E-03
             935     14.9049E-03     92.1794E-03    -8.50161E+06     32.8348E+06    -16.7737E+06    -5.62774E+06    -28.0162E-03     53.9776E-03    -25.9613E-03     110.430E-03    -28.7242E-03     54.8205E-03    -26.0805E-03     110.194E-03
             936     15.7884E-03     92.2961E-03    -5.18499E+06     112.190E+06     17.0078E+06    -2.26498E+06    -28.2574E-03     54.2280E-03    -25.9705E-03     130.755E-03    -29.7562E-03     56.0569E-03    -26.0406E-03     130.858E-03
             937     16.6688E-03     92.4257E-03    -3.00051E+06     151.527E+06     65.9758E+06     26.3711E+03    -28.4487E-03     54.6095E-03    -26.1609E-03     83.3661E-03    -29.7237E-03     56.2207E-03    -26.0463E-03     83.6718E-03
             938     876.602E-06     92.4738E-03    -24.8697E+06    -81.2448E+06    -24.5132E+06    -2.28949E+06    -26.3271E-03     52.6419E-03    -26.3149E-03     5.71477E-03    -26.2982E-03     52.3075E-03    -26.2836E-03     5.68253E-03
             939     1.75330E-03     92.4813E-03    -23.9789E+06    -79.6122E+06    -22.5853E+06    -4.15065E+06    -26.2920E-03     52.6046E-03    -26.3126E-03     10.6128E-03    -26.2641E-03     52.2745E-03    -26.2753E-03     10.5541E-03
             940     2.62999E-03     92.4935E-03    -22.7771E+06    -77.3992E+06    -19.7044E+06    -5.87394E+06    -26.2704E-03     52.5695E-03    -26.2991E-03     15.7737E-03    -26.2444E-03     52.2450E-03    -26.2523E-03     15.6899E-03
             941     3.50679E-03     92.5105E-03    -21.1271E+06    -74.6416E+06    -16.1252E+06    -7.46191E+06    -26.2472E-03     52.5305E-03    -26.2833E-03     20.9853E-03    -26.2230E-03     52.2131E-03    -26.2251E-03     20.8776E-03
             942     4.38360E-03     92.5324E-03    -19.2459E+06    -70.7843E+06    -12.1684E+06    -8.78858E+06    -26.2251E-03     52.4880E-03    -26.2629E-03     26.2179E-03    -26.2041E-03     52.1828E-03    -26.1932E-03     26.0891E-03
             943     5.26053E-03     92.5591E-03    -17.0261E+06    -68.0233E+06    -7.87125E+06    -9.61604E+06    -26.2162E-03     52.4579E-03    -26.2418E-03     31.4182E-03    -26.1962E-03     52.1589E-03    -26.1578E-03     31.2737E-03
             944     6.13749E-03     92.5906E-03    -14.9559E+06    -63.6630E+06    -4.08249E+06    -10.5952E+06    -26.2184E-03     52.4321E-03    -26.2138E-03     36.6031E-03    -26.2026E-03     52.1491E-03    -26.1202E-03     36.4398E-03
             945     7.01455E-03     92.6268E-03    -13.2834E+06    -59.5040E+06    -1.58514E+06    -11.5101E+06    -26.2378E-03     52.4169E-03    -26.1791E-03     41.7503E-03    -26.2272E-03     52.1525E-03    -26.0815E-03     41.5677E-03
             946     7.89172E-03     92.6678E-03    -11.6427E+06    -57.6718E+06     453.787E+03    -11.9407E+06    -26.3051E-03     52.4521E-03    -26.1471E-03     46.8018E-03    -26.2974E-03     52.1971E-03    -26.0443E-03     46.6042E-03
             947     8.76879E-03     92.7133E-03    -10.3805E+06    -55.4831E+06     456.041E+03    -12.5234E+06    -26.4116E-03     52.5207E-03    -26.1091E-03     51.7944E-03    -26.4087E-03     52.2826E-03    -26.0113E-03     51.5779E-03
             948     9.64607E-03     92.7634E-03    -9.20100E+06    -52.6184E+06     108.402E+03    -12.5272E+06    -26.5664E-03     52.6411E-03    -26.0747E-03     56.7197E-03    -26.5723E-03     52.4272E-03    -25.9845E-03     56.4892E-03
             949     10.5230E-03     92.8180E-03    -8.26118E+06    -51.1266E+06    -1.40615E+06    -12.6466E+06    -26.7699E-03     52.8147E-03    -26.0448E-03     61.6866E-03    -26.7872E-03     52.6253E-03    -25.9657E-03     61.4375E-03
             950     11.4003E-03     92.8773E-03    -7.91415E+06    -47.5512E+06    -4.48691E+06    -12.9671E+06    -27.0749E-03     53.0910E-03    -26.0161E-03     66.7552E-03    -27.1151E-03     52.9473E-03    -25.9581E-03     66.4811E-03
             951     12.2768E-03     92.9413E-03    -8.33524E+06    -42.5450E+06    -7.94801E+06    -12.6354E+06    -27.3957E-03     53.3930E-03    -25.9973E-03     72.0576E-03    -27.4767E-03     53.3164E-03    -25.9633E-03     71.7631E-03
             952     13.1538E-03     93.0108E-03    -8.55927E+06    -31.3434E+06    -10.7702E+06    -11.4299E+06    -27.7217E-03     53.7037E-03    -25.9819E-03     78.6884E-03    -27.8771E-03     53.7486E-03    -25.9779E-03     78.3816E-03
             953     14.0300E-03     93.0873E-03    -7.72744E+06    -14.2130E+06    -17.4001E+06    -10.7188E+06    -28.1926E-03     54.1352E-03    -25.9426E-03     90.2654E-03    -28.4892E-03     54.4044E-03    -25.9978E-03     89.9403E-03
             954     14.9074E-03     93.1794E-03    -6.06632E+06     28.2639E+06    -18.2921E+06    -7.23029E+06    -28.6935E-03     54.5848E-03    -25.8913E-03     108.726E-03    -29.3757E-03     55.3988E-03    -26.0149E-03     108.459E-03
             955     15.7813E-03     93.2895E-03    -7.36613E+06     108.588E+06     15.3935E+06    -1.89008E+06    -30.0925E-03     56.0713E-03    -25.9788E-03     131.133E-03    -31.6103E-03     57.9034E-03    -26.0486E-03     131.190E-03
             956     16.6499E-03     93.4325E-03    -6.31802E+06     149.327E+06     66.0750E+06    -175.317E+03    -27.9741E-03     54.1837E-03    -26.2096E-03     83.9814E-03    -29.2747E-03     55.8004E-03    -26.0866E-03     84.2604E-03
             957     876.766E-06     93.4729E-03    -21.8048E+06    -76.2661E+06    -21.7538E+06    -2.56684E+06    -26.2073E-03     52.4137E-03    -26.2064E-03     5.71924E-03    -26.1743E-03     52.0957E-03    -26.1729E-03     5.68349E-03
             958     1.75348E-03     93.4803E-03    -21.2315E+06    -74.9823E+06    -20.0453E+06    -4.50403E+06    -26.1820E-03     52.3801E-03    -26.1981E-03     10.6450E-03    -26.1508E-03     52.0655E-03    -26.1588E-03     10.5819E-03
             959     2.63032E-03     93.4925E-03    -20.0183E+06    -73.1323E+06    -17.3228E+06    -6.32797E+06    -26.1508E-03     52.3347E-03    -26.1839E-03     15.8257E-03    -26.1207E-03     52.0241E-03    -26.1354E-03     15.7362E-03
             960     3.50717E-03     93.5094E-03    -18.5521E+06    -70.6776E+06    -13.9404E+06    -7.98963E+06    -26.1155E-03     52.2801E-03    -26.1646E-03     21.0572E-03    -26.0873E-03     51.9756E-03    -26.1049E-03     20.9430E-03
             961     4.38416E-03     93.5312E-03    -16.9881E+06    -67.6248E+06    -10.4028E+06    -9.14537E+06    -26.0802E-03     52.2194E-03    -26.1392E-03     26.3180E-03    -26.0551E-03     51.9240E-03    -26.0685E-03     26.1850E-03
             962     5.26117E-03     93.5578E-03    -15.3503E+06    -65.0104E+06    -6.80348E+06    -10.2897E+06    -26.0552E-03     52.1653E-03    -26.1101E-03     31.5727E-03    -26.0327E-03     51.8773E-03    -26.0276E-03     31.4201E-03
             963     6.13833E-03     93.5892E-03    -13.2626E+06    -60.9286E+06    -3.26831E+06    -11.1634E+06    -26.0446E-03     52.1197E-03    -26.0751E-03     36.8136E-03    -26.0254E-03     51.8465E-03    -25.9838E-03     36.6437E-03
             964     7.01555E-03     93.6254E-03    -11.3143E+06    -57.2337E+06    -199.035E+03    -11.6135E+06    -26.0656E-03     52.1035E-03    -26.0379E-03     42.0088E-03    -26.0502E-03     51.8453E-03    -25.9395E-03     41.8258E-03
             965     7.89279E-03     93.6661E-03    -9.83676E+06    -55.7487E+06     1.60437E+06    -12.0869E+06    -26.1319E-03     52.1326E-03    -26.0007E-03     47.1590E-03    -26.1194E-03     51.8826E-03    -25.8976E-03     46.9607E-03
             966     8.77017E-03     93.7118E-03    -8.57097E+06    -53.4338E+06     1.90640E+06    -12.3744E+06    -26.2588E-03     52.2196E-03    -25.9608E-03     52.2450E-03    -26.2515E-03     51.9867E-03    -25.8614E-03     52.0317E-03
             967     9.64733E-03     93.7617E-03    -7.64787E+06    -51.5377E+06     1.19083E+06    -12.7262E+06    -26.4243E-03     52.3493E-03    -25.9249E-03     57.2676E-03    -26.4252E-03     52.1365E-03    -25.8332E-03     57.0360E-03
             968     10.5248E-03     93.8166E-03    -6.76093E+06    -49.5234E+06     4.78590E+03    -12.7529E+06    -26.6860E-03     52.5832E-03    -25.8973E-03     62.3480E-03    -26.6997E-03     52.3972E-03    -25.8156E-03     62.0990E-03
             969     11.4016E-03     93.8757E-03    -6.34769E+06    -46.7106E+06    -3.27391E+06    -12.5475E+06    -27.0572E-03     52.9311E-03    -25.8739E-03     67.6007E-03    -27.0922E-03     52.7873E-03    -25.8133E-03     67.3334E-03
             970     12.2788E-03     93.9407E-03    -6.08403E+06    -41.7874E+06    -6.35917E+06    -12.3049E+06    -27.4233E-03     53.2875E-03    -25.8642E-03     72.8847E-03    -27.4960E-03     53.2086E-03    -25.8266E-03     72.5959E-03
             971     13.1553E-03     94.0093E-03    -5.54261E+06    -32.0552E+06    -9.71441E+06    -11.9344E+06    -27.8600E-03     53.7187E-03    -25.8587E-03     79.6375E-03    -28.0015E-03     53.7549E-03    -25.8527E-03     79.3247E-03
             972     14.0321E-03     94.0875E-03    -5.90554E+06    -13.7207E+06    -15.0498E+06    -11.2071E+06    -28.3787E-03     54.2200E-03    -25.8413E-03     90.6203E-03    -28.6666E-03     54.4819E-03    -25.8881E-03     90.2895E-03
             973     14.9085E-03     94.1771E-03    -7.34278E+06     22.0023E+06    -21.5073E+06    -8.16959E+06    -29.6857E-03     55.4994E-03    -25.8137E-03     110.118E-03    -30.3715E-03     56.2997E-03    -25.9425E-03     109.825E-03
             974     15.7843E-03     94.2950E-03    -5.15407E+06     101.752E+06     8.06538E+06    -1.17621E+06    -29.9874E-03     55.8832E-03    -25.8958E-03     134.825E-03    -31.4927E-03     57.7077E-03    -25.9955E-03     134.907E-03
             975     16.6678E-03     94.4312E-03    -3.03315E+06     151.320E+06     65.2916E+06     803.605E+03    -27.6706E-03     53.7954E-03    -26.1248E-03     86.3479E-03    -28.9604E-03     55.4224E-03    -26.0134E-03     86.6682E-03
             976     876.840E-06     94.4717E-03    -18.7606E+06    -70.8859E+06    -18.5435E+06    -2.79131E+06    -26.0421E-03     52.0923E-03    -26.0502E-03     5.73678E-03    -26.0063E-03     51.7922E-03    -26.0129E-03     5.69824E-03
             977     1.75380E-03     94.4792E-03    -18.0775E+06    -69.9264E+06    -17.1225E+06    -4.87171E+06    -26.0236E-03     52.0607E-03    -26.0371E-03     10.6803E-03    -25.9882E-03     51.7625E-03    -25.9951E-03     10.6126E-03
             978     2.63070E-03     94.4912E-03    -17.0085E+06    -68.5964E+06    -14.7043E+06    -6.88076E+06    -25.9834E-03     52.0046E-03    -26.0212E-03     15.8889E-03    -25.9486E-03     51.7085E-03    -25.9706E-03     15.7925E-03
             979     3.50779E-03     94.5081E-03    -15.5995E+06    -66.6500E+06    -11.6768E+06    -8.43222E+06    -25.9352E-03     51.9327E-03    -25.9974E-03     21.1596E-03    -25.9014E-03     51.6407E-03    -25.9366E-03     21.0401E-03
             980     4.38486E-03     94.5297E-03    -13.9513E+06    -64.4646E+06    -8.40178E+06    -9.61295E+06    -25.8836E-03     51.8499E-03    -25.9663E-03     26.4628E-03    -25.8506E-03     51.5629E-03    -25.8946E-03     26.3243E-03
             981     5.26214E-03     94.5562E-03    -12.1890E+06    -61.6250E+06    -4.91453E+06    -10.6179E+06    -25.8403E-03     51.7694E-03    -25.9291E-03     31.7831E-03    -25.8094E-03     51.4908E-03    -25.8467E-03     31.6270E-03
             982     6.13943E-03     94.5875E-03    -10.8206E+06    -58.4313E+06    -1.75144E+06    -11.5241E+06    -25.8205E-03     51.7079E-03    -25.8874E-03     37.0996E-03    -25.7946E-03     51.4412E-03    -25.7957E-03     36.9261E-03
             983     7.01687E-03     94.6234E-03    -9.42805E+06    -55.3597E+06     962.022E+03    -11.7993E+06    -25.8335E-03     51.6771E-03    -25.8436E-03     42.3972E-03    -25.8128E-03     51.4236E-03    -25.7448E-03     42.2131E-03
             984     7.89438E-03     94.6643E-03    -7.90998E+06    -53.4252E+06     3.14059E+06    -12.1952E+06    -25.9023E-03     51.7042E-03    -25.8019E-03     47.6600E-03    -25.8853E-03     51.4603E-03    -25.6972E-03     47.4619E-03
             985     8.77186E-03     94.7096E-03    -6.39762E+06    -51.9665E+06     3.37853E+06    -12.6190E+06    -26.0403E-03     51.7985E-03    -25.7582E-03     52.8986E-03    -26.0258E-03     51.5671E-03    -25.6567E-03     52.6840E-03
             986     9.64941E-03     94.7601E-03    -5.29975E+06    -49.9042E+06     3.07386E+06    -12.5225E+06    -26.2537E-03     51.9761E-03    -25.7223E-03     58.0176E-03    -26.2473E-03     51.7647E-03    -25.6269E-03     57.7907E-03
             987     10.5267E-03     94.8144E-03    -4.82392E+06    -48.3673E+06     1.91034E+06    -12.7035E+06    -26.5789E-03     52.2778E-03    -25.6989E-03     63.3109E-03    -26.5869E-03     52.0914E-03    -25.6122E-03     63.0645E-03
             988     11.4040E-03     94.8748E-03    -4.27289E+06    -45.9789E+06    -1.24006E+06    -12.4959E+06    -27.0016E-03     52.6846E-03    -25.6830E-03     68.6302E-03    -27.0297E-03     52.5379E-03    -25.6163E-03     68.3655E-03
             989     12.2809E-03     94.9387E-03    -4.00471E+06    -40.7419E+06    -4.00590E+06    -12.4042E+06    -27.4787E-03     53.1640E-03    -25.6853E-03     73.8986E-03    -27.5457E-03     53.0837E-03    -25.6404E-03     73.6098E-03
             990     13.1576E-03     95.0094E-03    -4.48187E+06    -31.9888E+06    -7.21064E+06    -12.0772E+06    -28.0834E-03     53.7855E-03    -25.7022E-03     80.6366E-03    -28.2241E-03     53.8177E-03    -25.6853E-03     80.3217E-03
             991     14.0338E-03     95.0860E-03    -5.57763E+06    -15.1315E+06    -11.9036E+06    -10.0876E+06    -28.8795E-03     54.6011E-03    -25.7216E-03     91.4862E-03    -29.1712E-03     54.8537E-03    -25.7511E-03     91.1650E-03
             992     14.9094E-03     95.1784E-03    -7.51959E+06     18.1283E+06    -21.2990E+06    -7.08309E+06    -30.0771E-03     55.7918E-03    -25.7147E-03     111.427E-03    -30.7704E-03     56.5846E-03    -25.8366E-03     111.145E-03
             993     15.7854E-03     95.2937E-03    -8.77210E+06     95.0485E+06     1.64879E+06    -4.32888E+06    -30.1197E-03     55.9186E-03    -25.7989E-03     130.963E-03    -31.6058E-03     57.7062E-03    -25.9157E-03     131.007E-03
             994     16.6591E-03     95.4259E-03    -4.59715E+06     149.221E+06     61.9908E+06    -670.846E+03    -27.6508E-03     53.7074E-03    -26.0566E-03     82.7740E-03    -28.9193E-03     55.3096E-03    -25.9563E-03     83.0764E-03
             995     877.116E-06     95.4703E-03    -15.4377E+06    -65.0442E+06    -15.3207E+06    -2.97427E+06    -25.8263E-03     51.6588E-03    -25.8325E-03     5.80019E-03    -25.7870E-03     51.3784E-03    -25.7924E-03     5.75943E-03
             996     1.75412E-03     95.4776E-03    -14.8512E+06    -64.4855E+06    -13.9850E+06    -5.29549E+06    -25.8024E-03     51.6216E-03    -25.8192E-03     10.7324E-03    -25.7633E-03     51.3414E-03    -25.7741E-03     10.6594E-03
             997     2.63134E-03     95.4896E-03    -13.8691E+06    -63.7112E+06    -12.0666E+06    -7.36290E+06    -25.7481E-03     51.5462E-03    -25.7981E-03     15.9809E-03    -25.7084E-03     51.2661E-03    -25.7459E-03     15.8788E-03
             998     3.50851E-03     95.5063E-03    -12.6013E+06    -62.5326E+06    -9.59762E+06    -9.10373E+06    -25.6826E-03     51.4491E-03    -25.7665E-03     21.3012E-03    -25.6426E-03     51.1703E-03    -25.7056E-03     21.1737E-03
             999     4.38594E-03     95.5278E-03    -11.0098E+06    -61.0431E+06    -6.56646E+06    -10.3427E+06    -25.6138E-03     51.3414E-03    -25.7276E-03     26.6694E-03    -25.5736E-03     51.0645E-03    -25.6559E-03     26.5223E-03
            1000     5.26335E-03     95.5541E-03    -9.33020E+06    -58.5521E+06    -3.31677E+06    -11.2275E+06    -25.5544E-03     51.2360E-03    -25.6815E-03     32.0727E-03    -25.5159E-03     50.9661E-03    -25.5997E-03     31.9098E-03
            1001     6.14102E-03     95.5852E-03    -7.74340E+06    -56.2329E+06     97.1804E+03    -11.4483E+06    -25.5192E-03     51.1526E-03    -25.6334E-03     37.4842E-03    -25.4835E-03     50.8894E-03    -25.5401E-03     37.3131E-03
            1002     7.01868E-03     95.6212E-03    -6.57845E+06    -53.3134E+06     2.84559E+06    -11.7628E+06    -25.5242E-03     51.1060E-03    -25.5818E-03     42.9070E-03    -25.4945E-03     50.8554E-03    -25.4808E-03     42.7251E-03
            1003     7.89649E-03     95.6618E-03    -5.35432E+06    -51.1342E+06     4.85519E+06    -12.3318E+06    -25.5967E-03     51.1289E-03    -25.5322E-03     48.3329E-03    -25.5721E-03     50.8897E-03    -25.4260E-03     48.1351E-03
            1004     8.77427E-03     95.7075E-03    -4.50525E+06    -50.5274E+06     5.16358E+06    -12.5199E+06    -25.7568E-03     51.2430E-03    -25.4862E-03     53.7151E-03    -25.7368E-03     51.0127E-03    -25.3806E-03     53.5042E-03
            1005     9.65204E-03     95.7574E-03    -3.72782E+06    -48.6394E+06     4.68834E+06    -12.5612E+06    -26.0273E-03     51.4766E-03    -25.4493E-03     59.0338E-03    -26.0164E-03     51.2662E-03    -25.3499E-03     58.8088E-03
            1006     10.5296E-03     95.8128E-03    -2.93525E+06    -46.9895E+06     4.13584E+06    -12.4143E+06    -26.4356E-03     51.8683E-03    -25.4327E-03     64.5012E-03    -26.4386E-03     51.6822E-03    -25.3397E-03     64.2608E-03
            1007     11.4069E-03     95.8724E-03    -2.88694E+06    -45.3684E+06     963.908E+03    -12.2883E+06    -26.9384E-03     52.3664E-03    -25.4280E-03     69.9466E-03    -26.9630E-03     52.2169E-03    -25.3532E-03     69.6868E-03
            1008     12.2839E-03     95.9381E-03    -3.23159E+06    -39.7363E+06    -1.96490E+06    -11.9945E+06    -27.5790E-03     53.0251E-03    -25.4460E-03     75.4125E-03    -27.6468E-03     52.9460E-03    -25.3936E-03     75.1302E-03
            1009     13.1605E-03     96.0076E-03    -3.86017E+06    -32.1872E+06    -5.00266E+06    -11.1259E+06    -28.3416E-03     53.8315E-03    -25.4899E-03     82.2433E-03    -28.4830E-03     53.8594E-03    -25.4627E-03     81.9408E-03
            1010     14.0363E-03     96.0871E-03    -4.66058E+06    -16.7423E+06    -9.72337E+06    -9.40689E+06    -29.3078E-03     54.8492E-03    -25.5413E-03     93.3041E-03    -29.6006E-03     55.0941E-03    -25.5589E-03     92.9901E-03
            1011     14.9123E-03     96.1775E-03    -4.66964E+06     14.2016E+06    -17.8476E+06    -6.44836E+06    -30.3685E-03     55.9361E-03    -25.5675E-03     113.581E-03    -31.0521E-03     56.7053E-03    -25.6706E-03     113.309E-03
            1012     15.7860E-03     96.2973E-03    -5.09539E+06     92.1305E+06     3.48486E+06    -2.16124E+06    -30.8455E-03     56.5121E-03    -25.6665E-03     135.042E-03    -32.3342E-03     58.2995E-03    -25.7753E-03     135.111E-03
            1013     16.6614E-03     96.4265E-03    -4.12094E+06     148.614E+06     60.8029E+06    -657.572E+03    -28.4664E-03     54.4113E-03    -25.9449E-03     87.6821E-03    -29.7608E-03     56.0424E-03    -25.8504E-03     87.9817E-03
            1014     877.268E-06     96.4683E-03    -12.1868E+06    -58.7387E+06    -12.0625E+06    -3.21070E+06    -25.5345E-03     51.0759E-03    -25.5414E-03     5.84316E-03    -25.4928E-03     50.8175E-03    -25.4988E-03     5.79950E-03
            1015     1.75470E-03     96.4756E-03    -11.7057E+06    -58.6655E+06    -11.1735E+06    -5.61942E+06    -25.4919E-03     51.0141E-03    -25.5223E-03     10.8210E-03    -25.4495E-03     50.7543E-03    -25.4761E-03     10.7442E-03
            1016     2.63204E-03     96.4874E-03    -10.9623E+06    -58.5327E+06    -9.68596E+06    -7.89796E+06    -25.4276E-03     50.9205E-03    -25.4929E-03     16.1200E-03    -25.3843E-03     50.6586E-03    -25.4406E-03     16.0114E-03
            1017     3.50967E-03     96.5040E-03    -9.93661E+06    -58.0311E+06    -7.67644E+06    -9.71952E+06    -25.3413E-03     50.7941E-03    -25.4529E-03     21.4992E-03    -25.2972E-03     50.5310E-03    -25.3927E-03     21.3644E-03
            1018     4.38725E-03     96.5253E-03    -8.78202E+06    -57.4729E+06    -5.23839E+06    -11.0568E+06    -25.2526E-03     50.6566E-03    -25.4040E-03     26.9457E-03    -25.2082E-03     50.3922E-03    -25.3341E-03     26.7905E-03
            1019     5.26515E-03     96.5515E-03    -7.48035E+06    -55.5913E+06    -2.46540E+06    -11.8280E+06    -25.1731E-03     50.5206E-03    -25.3474E-03     32.4534E-03    -25.1306E-03     50.2612E-03    -25.2683E-03     32.2841E-03
            1020     6.14301E-03     96.5824E-03    -5.97794E+06    -54.6027E+06     730.025E+03    -12.0102E+06    -25.1235E-03     50.4139E-03    -25.2904E-03     37.9793E-03    -25.0818E-03     50.1550E-03    -25.1989E-03     37.8028E-03
            1021     7.02116E-03     96.6182E-03    -4.19633E+06    -51.0810E+06     3.95931E+06    -11.9401E+06    -25.1207E-03     50.3508E-03    -25.2301E-03     43.5546E-03    -25.0834E-03     50.1057E-03    -25.1301E-03     43.3726E-03
            1022     7.89926E-03     96.6589E-03    -3.20116E+06    -49.4071E+06     6.33150E+06    -12.0131E+06    -25.2057E-03     50.3812E-03    -25.1755E-03     49.1400E-03    -25.1742E-03     50.1446E-03    -25.0676E-03     48.9489E-03
            1023     8.77749E-03     96.7042E-03    -2.69542E+06    -49.2034E+06     6.90796E+06    -11.8282E+06    -25.4042E-03     50.5320E-03    -25.1277E-03     54.7151E-03    -25.3788E-03     50.3022E-03    -25.0180E-03     54.5160E-03
            1024     9.65546E-03     96.7548E-03    -2.50874E+06    -46.7905E+06     6.36336E+06    -12.1861E+06    -25.7397E-03     50.8310E-03    -25.0913E-03     60.2752E-03    -25.7269E-03     50.6247E-03    -24.9880E-03     60.0581E-03
            1025     10.5334E-03     96.8098E-03    -2.29310E+06    -46.4657E+06     5.52993E+06    -12.1711E+06    -26.2311E-03     51.3132E-03    -25.0821E-03     65.9623E-03    -26.2328E-03     51.1258E-03    -24.9838E-03     65.7282E-03
            1026     11.4108E-03     96.8709E-03    -2.29399E+06    -44.4513E+06     2.85410E+06    -11.4784E+06    -26.8561E-03     51.9477E-03    -25.0916E-03     71.5634E-03    -26.8812E-03     51.7986E-03    -25.0096E-03     71.3167E-03
            1027     12.2881E-03     96.9357E-03    -2.93847E+06    -39.3507E+06    -106.708E+03    -10.9759E+06    -27.6749E-03     52.8060E-03    -25.1311E-03     77.3129E-03    -27.7448E-03     52.7261E-03    -25.0703E-03     77.0455E-03
            1028     13.1642E-03     97.0081E-03    -3.92912E+06    -32.4378E+06    -3.10509E+06    -10.1197E+06    -28.5905E-03     53.7954E-03    -25.2049E-03     84.0207E-03    -28.7359E-03     53.8207E-03    -25.1677E-03     83.7315E-03
            1029     14.0406E-03     97.0855E-03    -4.55547E+06    -17.7393E+06    -7.70921E+06    -9.22126E+06    -29.5746E-03     54.8618E-03    -25.2872E-03     95.2688E-03    -29.8726E-03     55.1030E-03    -25.2935E-03     94.9570E-03
            1030     14.9149E-03     97.1806E-03    -5.75832E+06      9.4219E+06    -15.8994E+06    -6.54936E+06    -30.5778E-03     55.9239E-03    -25.3460E-03     114.556E-03    -31.2652E-03     56.6703E-03    -25.4308E-03     114.283E-03
            1031     15.7935E-03     97.2942E-03    -5.42243E+06     88.4388E+06     4.34283E+06    -2.61928E+06    -30.8571E-03     56.3152E-03    -25.4581E-03     133.428E-03    -32.3295E-03     58.0695E-03    -25.5567E-03     133.485E-03
            1032     16.6717E-03     97.4305E-03    -3.12690E+06     148.501E+06     60.6798E+06    -230.650E+03    -29.5472E-03     55.3167E-03    -25.7696E-03     84.3807E-03    -30.8154E-03     56.9251E-03    -25.6769E-03     84.6633E-03
            1033     877.680E-06     97.4657E-03    -8.79337E+06    -52.0551E+06    -8.89808E+06    -3.40116E+06    -25.1319E-03     50.2877E-03    -25.1558E-03     5.88865E-03    -25.0876E-03     50.0533E-03    -25.1120E-03     5.84274E-03
            1034     1.75532E-03     97.4729E-03    -8.53828E+06    -52.5082E+06    -8.32507E+06    -5.94435E+06    -25.0793E-03     50.2022E-03    -25.1229E-03     10.9383E-03    -25.0341E-03     49.9644E-03    -25.0760E-03     10.8578E-03
            1035     2.63320E-03     97.4846E-03    -8.00820E+06    -52.9795E+06    -7.26102E+06    -8.32913E+06    -24.9990E-03     50.0836E-03    -25.0846E-03     16.2881E-03    -24.9524E-03     49.8416E-03    -25.0325E-03     16.1747E-03
            1036     3.51102E-03     97.5010E-03    -7.38213E+06    -53.4902E+06    -5.84495E+06    -10.1311E+06    -24.8954E-03     49.9305E-03    -25.0351E-03     21.7475E-03    -24.8476E-03     49.6836E-03    -24.9761E-03     21.6084E-03
            1037     4.38918E-03     97.5221E-03    -6.67917E+06    -53.6324E+06    -4.02593E+06    -11.4001E+06    -24.7854E-03     49.7610E-03    -24.9756E-03     27.2929E-03    -24.7376E-03     49.5107E-03    -24.9083E-03     27.1345E-03
            1038     5.26732E-03     97.5480E-03    -6.02866E+06    -52.9344E+06    -2.10412E+06    -12.0601E+06    -24.6851E-03     49.5926E-03    -24.9075E-03     32.9150E-03    -24.6394E-03     49.3436E-03    -24.8325E-03     32.7445E-03
            1039     6.14582E-03     97.5788E-03    -5.19682E+06    -52.2913E+06     415.768E+03    -12.4884E+06    -24.6216E-03     49.4602E-03    -24.8386E-03     38.5905E-03    -24.5784E-03     49.2117E-03    -24.7532E-03     38.4098E-03
            1040     7.02424E-03     97.6144E-03    -4.33122E+06    -49.8709E+06     3.12072E+06    -12.3514E+06    -24.6198E-03     49.3898E-03    -24.7700E-03     44.3366E-03    -24.5830E-03     49.1515E-03    -24.6758E-03     44.1518E-03
            1041     7.90296E-03     97.6550E-03    -3.41162E+06    -48.2528E+06     6.08964E+06    -11.4916E+06    -24.7222E-03     49.4347E-03    -24.7124E-03     50.1108E-03    -24.6923E-03     49.2036E-03    -24.6071E-03     49.9294E-03
            1042     8.78141E-03     97.7006E-03    -2.76646E+06    -47.8656E+06     7.24771E+06    -11.3702E+06    -24.9711E-03     49.6359E-03    -24.6648E-03     55.9133E-03    -24.9473E-03     49.4114E-03    -24.5551E-03     55.7234E-03
            1043     9.66003E-03     97.7510E-03    -2.53422E+06    -45.3612E+06     6.91724E+06    -11.0773E+06    -25.3942E-03     50.0269E-03    -24.6326E-03     61.7370E-03    -25.3833E-03     49.8258E-03    -24.5286E-03     61.5377E-03
            1044     10.5380E-03     97.8070E-03    -3.21415E+06    -45.4313E+06     6.17188E+06    -11.0955E+06    -25.9841E-03     50.6198E-03    -24.6357E-03     67.5911E-03    -25.9917E-03     50.4368E-03    -24.5343E-03     67.3744E-03
            1045     11.4160E-03     97.8677E-03    -3.72609E+06    -44.3188E+06     3.33268E+06    -10.7436E+06    -26.7984E-03     51.4635E-03    -24.6651E-03     73.4331E-03    -26.8310E-03     51.3159E-03    -24.5788E-03     73.1988E-03
            1046     12.2927E-03     97.9347E-03    -4.11418E+06    -38.8716E+06     965.718E+03    -9.97572E+06    -27.7895E-03     52.5243E-03    -24.7347E-03     79.3186E-03    -27.8676E-03     52.4470E-03    -24.6676E-03     79.0661E-03
            1047     13.1695E-03     98.0064E-03    -4.31431E+06    -32.4982E+06    -1.44322E+06    -9.54060E+06    -28.8686E-03     53.7145E-03    -24.8459E-03     86.0369E-03    -29.0196E-03     53.7390E-03    -24.7997E-03     85.7560E-03
            1048     14.0443E-03     98.0868E-03    -5.32268E+06    -19.3697E+06    -6.31311E+06    -8.05959E+06    -29.9193E-03     54.8867E-03    -24.9674E-03     96.8696E-03    -30.2228E-03     55.1209E-03    -24.9632E-03     96.5727E-03
            1049     14.9212E-03     98.1794E-03    -6.38258E+06     6.96348E+06    -13.0072E+06    -5.74224E+06    -31.5465E-03     56.6342E-03    -25.0877E-03     115.964E-03    -32.2444E-03     57.3719E-03    -25.1536E-03     115.690E-03
            1050     15.7914E-03     98.2981E-03    -7.05595E+06     85.3178E+06     3.69758E+06    -3.09605E+06    -32.4659E-03     57.7337E-03    -25.2678E-03     134.275E-03    -33.9645E-03     59.4992E-03    -25.3628E-03     134.298E-03
            1051     16.6624E-03     98.4278E-03    -4.56988E+06     146.299E+06     58.4861E+06    -778.278E+03    -30.4013E-03     56.0460E-03    -25.6446E-03     86.2619E-03    -31.6960E-03     57.6742E-03    -25.5577E-03     86.5233E-03
            1052     878.081E-06     98.4622E-03    -5.71835E+06    -45.1016E+06    -5.67873E+06    -3.49892E+06    -24.6015E-03     49.2367E-03    -24.6351E-03     5.96517E-03    -24.5565E-03     49.0279E-03    -24.5899E-03     5.91826E-03
            1053     1.75629E-03     98.4693E-03    -5.59055E+06    -46.0125E+06    -5.72615E+06    -6.19149E+06    -24.5491E-03     49.1435E-03    -24.5944E-03     11.0753E-03    -24.5023E-03     48.9301E-03    -24.5482E-03     10.9921E-03
            1054     2.63448E-03     98.4808E-03    -5.52423E+06    -47.4109E+06    -5.45918E+06    -8.50291E+06    -24.4460E-03     48.9951E-03    -24.5492E-03     16.4984E-03    -24.3976E-03     48.7746E-03    -24.4997E-03     16.3835E-03
            1055     3.51300E-03     98.4970E-03    -5.43396E+06    -48.8895E+06    -4.83584E+06    -10.2288E+06    -24.3246E-03     48.8144E-03    -24.4898E-03     22.0398E-03    -24.2752E-03     48.5861E-03    -24.4352E-03     21.9006E-03
            1056     4.39148E-03     98.5179E-03    -5.34401E+06    -49.9449E+06    -3.95604E+06    -11.3797E+06    -24.1960E-03     48.6151E-03    -24.4191E-03     27.6946E-03    -24.1467E-03     48.3809E-03    -24.3587E-03     27.5380E-03
            1057     5.27035E-03     98.5436E-03    -5.19088E+06    -50.3935E+06    -2.62160E+06    -11.8618E+06    -24.0799E-03     48.4212E-03    -24.3413E-03     33.4450E-03    -24.0325E-03     48.1840E-03    -24.2738E-03     33.2790E-03
            1058     6.14918E-03     98.5741E-03    -5.34154E+06    -49.8847E+06    -638.582E+03    -12.0102E+06    -24.0095E-03     48.2725E-03    -24.2629E-03     39.2862E-03    -23.9684E-03     48.0371E-03    -24.1861E-03     39.1142E-03
            1059     7.02837E-03     98.6096E-03    -5.58520E+06    -48.9308E+06     1.63122E+06    -11.7241E+06    -24.0220E-03     48.2118E-03    -24.1898E-03     45.2214E-03    -23.9898E-03     47.9813E-03    -24.1026E-03     45.0476E-03
            1060     7.90737E-03     98.6501E-03    -5.44265E+06    -47.4893E+06     4.17279E+06    -11.2272E+06    -24.1548E-03     48.2836E-03    -24.1287E-03     51.2310E-03    -24.1323E-03     48.0610E-03    -24.0311E-03     51.0564E-03
            1061     8.78665E-03     98.6957E-03    -5.16971E+06    -46.8076E+06     6.29283E+06    -10.5023E+06    -24.4780E-03     48.5664E-03    -24.0884E-03     57.2887E-03    -24.4652E-03     48.3508E-03    -23.9816E-03     57.1138E-03
            1062     9.66528E-03     98.7467E-03    -5.50695E+06    -44.9828E+06     6.26511E+06    -9.87078E+06    -24.9989E-03     49.0675E-03    -24.0686E-03     63.3574E-03    -25.0010E-03     48.8722E-03    -23.9641E-03     63.1776E-03
            1063     10.5441E-03     98.8029E-03    -5.81794E+06    -43.9871E+06     6.45903E+06    -9.43685E+06    -25.7595E-03     49.8515E-03    -24.0920E-03     69.4373E-03    -25.7815E-03     49.6779E-03    -23.9875E-03     69.2457E-03
            1064     11.4216E-03     98.8649E-03    -6.62406E+06    -44.0928E+06     3.94122E+06    -9.48083E+06    -26.7723E-03     50.9256E-03    -24.1533E-03     75.5525E-03    -26.8199E-03     50.7817E-03    -24.0600E-03     75.3375E-03
            1065     12.2991E-03     98.9323E-03    -6.97230E+06    -38.0263E+06     1.86923E+06    -9.52070E+06    -27.9371E-03     52.1970E-03    -24.2599E-03     81.5917E-03    -28.0319E-03     52.1267E-03    -24.1853E-03     81.3473E-03
            1066     13.1747E-03     99.0060E-03    -7.39376E+06    -33.0193E+06    -440.748E+03    -8.89427E+06    -29.1745E-03     53.5904E-03    -24.4159E-03     88.2697E-03    -29.3425E-03     53.6162E-03    -24.3595E-03     87.9983E-03
            1067     14.0510E-03     99.0864E-03    -7.15190E+06    -20.1395E+06    -4.44023E+06    -7.76726E+06    -30.7826E-03     55.3813E-03    -24.5987E-03     98.8082E-03    -31.1023E-03     55.6170E-03    -24.5813E-03     98.5091E-03
            1068     14.9236E-03     99.1812E-03    -6.82299E+06     4.27708E+06    -9.46906E+06    -5.49933E+06    -32.4140E-03     57.2098E-03    -24.7958E-03     117.862E-03    -33.1234E-03     57.9377E-03    -24.8395E-03     117.583E-03
            1069     15.8003E-03     99.3017E-03    -6.24256E+06     83.2599E+06     7.67136E+06    -2.97096E+06    -33.4898E-03     58.5288E-03    -25.0390E-03     136.048E-03    -35.0034E-03     60.2934E-03    -25.1123E-03     136.055E-03
            1070     16.6773E-03     99.4317E-03    -4.49016E+06     146.106E+06     60.2324E+06    -963.952E+03    -32.0820E-03     57.5648E-03    -25.4827E-03     86.4876E-03    -33.3912E-03     59.2020E-03    -25.3869E-03     86.7224E-03
            1071     878.727E-06     99.4576E-03    -3.41201E+06    -37.9613E+06    -3.74512E+06    -3.49525E+06    -23.9272E-03     47.8882E-03    -23.9609E-03     6.04078E-03    -23.8839E-03     47.7089E-03    -23.9197E-03     5.99424E-03
            1072     1.75742E-03     99.4645E-03    -3.78456E+06    -39.5168E+06    -4.33892E+06    -6.18398E+06    -23.8644E-03     47.7800E-03    -23.9156E-03     11.2184E-03    -23.8200E-03     47.5944E-03    -23.8745E-03     11.1358E-03
            1073     2.63636E-03     99.4759E-03    -4.23072E+06    -41.9407E+06    -5.00004E+06    -8.36936E+06    -23.7549E-03     47.6186E-03    -23.8636E-03     16.7284E-03    -23.7086E-03     47.4228E-03    -23.8217E-03     16.6162E-03
            1074     3.51528E-03     99.4918E-03    -4.80419E+06    -44.4895E+06    -5.53619E+06    -9.94515E+06    -23.6175E-03     47.4134E-03    -23.7959E-03     22.3663E-03    -23.5701E-03     47.2070E-03    -23.7521E-03     22.2320E-03
            1075     4.39459E-03     99.5125E-03    -5.53791E+06    -46.5820E+06    -5.53820E+06    -10.8137E+06    -23.4719E-03     47.1888E-03    -23.7169E-03     28.1355E-03    -23.4258E-03     46.9737E-03    -23.6690E-03     27.9880E-03
            1076     5.27389E-03     99.5378E-03    -6.50594E+06    -48.1946E+06    -4.87402E+06    -11.0232E+06    -23.3487E-03     46.9813E-03    -23.6326E-03     34.0292E-03    -23.3072E-03     46.7597E-03    -23.5776E-03     33.8762E-03
            1077     6.15360E-03     99.5681E-03    -7.56048E+06    -48.3539E+06    -3.44557E+06    -10.5307E+06    -23.2859E-03     46.8348E-03    -23.5489E-03     40.0527E-03    -23.2534E-03     46.6137E-03    -23.4851E-03     39.9024E-03
            1078     7.03317E-03     99.6034E-03    -8.81869E+06    -47.8703E+06    -1.21010E+06    -9.98950E+06    -23.3258E-03     46.8018E-03    -23.4760E-03     46.1934E-03    -23.3063E-03     46.5845E-03    -23.3998E-03     46.0452E-03
            1079     7.91308E-03     99.6440E-03    -10.2599E+06    -46.5983E+06     1.36474E+06    -9.49398E+06    -23.5240E-03     46.9451E-03    -23.4212E-03     52.4505E-03    -23.5215E-03     46.7369E-03    -23.3319E-03     52.3019E-03
            1080     8.79250E-03     99.6898E-03    -11.5747E+06    -46.6316E+06     3.56539E+06    -8.82961E+06    -23.9363E-03     47.3312E-03    -23.3948E-03     58.7910E-03    -23.9504E-03     47.1282E-03    -23.2926E-03     58.6416E-03
            1081     9.67207E-03     99.7412E-03    -11.9522E+06    -43.9614E+06     4.79775E+06    -8.50014E+06    -24.5923E-03     47.9903E-03    -23.3980E-03     65.1260E-03    -24.6245E-03     47.8100E-03    -23.2929E-03     64.9680E-03
            1082     10.5506E-03     99.7982E-03    -11.7833E+06    -43.4853E+06     5.23871E+06    -8.58550E+06    -25.5373E-03     48.9868E-03    -23.4495E-03     71.5426E-03    -25.5867E-03     48.8248E-03    -23.3432E-03     71.3658E-03
            1083     11.4290E-03     99.8612E-03    -11.0904E+06    -42.8309E+06     4.22058E+06    -8.48457E+06    -26.7742E-03     50.3260E-03    -23.5518E-03     77.9270E-03    -26.8457E-03     50.1938E-03    -23.4525E-03     77.7279E-03
            1084     12.3056E-03     99.9300E-03    -10.9110E+06    -36.9531E+06     2.52572E+06    -8.97364E+06    -28.1442E-03     51.8496E-03    -23.7054E-03     84.0386E-03    -28.2614E-03     51.7896E-03    -23.6234E-03     83.8033E-03
            1085     13.1822E-03     100.005E-03    -10.0467E+06    -33.2675E+06     419.798E+03    -8.88116E+06    -29.7785E-03     53.6994E-03    -23.9209E-03     90.6470E-03    -29.9630E-03     53.7290E-03    -23.8560E-03     90.3742E-03
            1086     14.0561E-03     100.087E-03    -9.45004E+06    -20.4215E+06    -3.20192E+06    -8.04486E+06    -31.7315E-03     55.9096E-03    -24.1781E-03     101.468E-03    -32.0712E-03     56.1527E-03    -24.1508E-03     101.159E-03
            1087     14.9302E-03     100.185E-03    -8.85976E+06     1.65658E+06    -7.12894E+06    -6.64364E+06    -33.6291E-03     58.0962E-03    -24.4671E-03     119.209E-03    -34.3588E-03     58.8211E-03    -24.4923E-03     118.900E-03
            1088     15.8016E-03     100.301E-03    -7.19566E+06     80.5940E+06     10.5194E+06    -3.80040E+06    -34.9401E-03     59.7413E-03    -24.8012E-03     136.756E-03    -36.4797E-03     61.5108E-03    -24.8550E-03     136.719E-03
            1089     16.6682E-03     100.440E-03    -4.86491E+06     144.122E+06     60.9810E+06    -1.26707E+06    -33.6198E-03     58.9418E-03    -25.3220E-03     85.9730E-03    -34.9387E-03     60.5782E-03    -25.2190E-03     86.1733E-03
            1090     879.374E-06     100.451E-03    -2.37545E+06    -30.9254E+06    -2.80808E+06    -3.44494E+06    -23.1113E-03     46.2220E-03    -23.1108E-03     6.11903E-03    -23.0743E-03     46.0750E-03    -23.0765E-03     6.07349E-03
            1091     1.75893E-03     100.458E-03    -3.15324E+06    -33.2950E+06    -4.16376E+06    -5.85141E+06    -23.0210E-03     46.0988E-03    -23.0779E-03     11.3559E-03    -22.9826E-03     45.9431E-03    -23.0458E-03     11.2783E-03
            1092     2.63846E-03     100.469E-03    -4.29047E+06    -36.8312E+06    -5.96899E+06    -7.84093E+06    -22.9044E-03     45.9229E-03    -23.0185E-03     16.9509E-03    -22.8642E-03     45.7540E-03    -22.9887E-03     16.8465E-03
            1093     3.51832E-03     100.485E-03    -5.81273E+06    -40.6280E+06    -7.79765E+06    -9.01330E+06    -22.7605E-03     45.7041E-03    -22.9436E-03     22.6964E-03    -22.7202E-03     45.5215E-03    -22.9153E-03     22.5756E-03
            1094     4.39818E-03     100.505E-03    -7.88121E+06    -44.1251E+06    -8.97035E+06    -9.21991E+06    -22.6130E-03     45.4726E-03    -22.8596E-03     28.5874E-03    -22.5769E-03     45.2778E-03    -22.8290E-03     28.4622E-03
            1095     5.27846E-03     100.531E-03    -10.3551E+06    -46.5829E+06    -9.03235E+06    -8.80164E+06    -22.4994E-03     45.2732E-03    -22.7738E-03     34.6297E-03    -22.4730E-03     45.0707E-03    -22.7364E-03     34.5076E-03
            1096     6.15865E-03     100.561E-03    -12.7945E+06    -47.6889E+06    -7.83678E+06    -8.13865E+06    -22.4615E-03     45.1555E-03    -22.6940E-03     40.8330E-03    -22.4489E-03     44.9509E-03    -22.6455E-03     40.7164E-03
            1097     7.03924E-03     100.596E-03    -14.8036E+06    -47.2217E+06    -4.90803E+06    -7.19970E+06    -22.5594E-03     45.1913E-03    -22.6319E-03     47.1917E-03    -22.5643E-03     44.9902E-03    -22.5665E-03     47.0828E-03
            1098     7.91944E-03     100.636E-03    -16.5743E+06    -46.2605E+06    -1.23749E+06    -6.32473E+06    -22.8506E-03     45.4468E-03    -22.5962E-03     53.7052E-03    -22.8752E-03     45.2518E-03    -22.5113E-03     53.6011E-03
            1099     8.79985E-03     100.683E-03    -17.7466E+06    -45.7184E+06     1.79262E+06    -6.17588E+06    -23.3833E-03     45.9761E-03    -22.5928E-03     60.3454E-03    -23.4256E-03     45.7879E-03    -22.4918E-03     60.2342E-03
            1100     9.67933E-03     100.735E-03    -18.2449E+06    -42.4600E+06     3.38938E+06    -6.93967E+06    -24.1901E-03     46.8145E-03    -22.6245E-03     67.0326E-03    -24.2524E-03     46.6515E-03    -22.5195E-03     66.8988E-03
            1101     10.5588E-03     100.793E-03    -17.7879E+06    -42.0989E+06     4.30055E+06    -7.84111E+06    -25.3479E-03     48.0624E-03    -22.7145E-03     73.8113E-03    -25.4268E-03     47.9162E-03    -22.6062E-03     73.6478E-03
            1102     11.4366E-03     100.857E-03    -16.5409E+06    -41.6326E+06     3.49838E+06    -8.87068E+06    -26.8176E-03     49.6812E-03    -22.8636E-03     80.4812E-03    -26.9164E-03     49.5634E-03    -22.7618E-03     80.2801E-03
            1103     12.3140E-03     100.927E-03    -14.2222E+06    -35.3907E+06     3.19375E+06    -9.37807E+06    -28.5365E-03     51.6158E-03    -23.0793E-03     86.6678E-03    -28.6744E-03     51.5683E-03    -22.9913E-03     86.4280E-03
            1104     13.1891E-03     101.004E-03    -12.3071E+06    -32.9925E+06     1.16841E+06    -9.90106E+06    -30.5846E-03     53.9545E-03    -23.3699E-03     93.6034E-03    -30.7862E-03     53.9921E-03    -23.2984E-03     93.3143E-03
            1105     14.0633E-03     101.089E-03    -10.2231E+06    -21.1873E+06    -1.85337E+06    -9.18378E+06    -32.7868E-03     56.5012E-03    -23.7143E-03     104.058E-03    -33.1383E-03     56.7466E-03    -23.6781E-03     103.727E-03
            1106     14.9359E-03     101.186E-03    -8.82831E+06     2.05713E+03    -4.59289E+06    -7.21157E+06    -35.2719E-03     59.3798E-03    -24.1079E-03     121.570E-03    -36.0241E-03     60.1142E-03    -24.1181E-03     121.230E-03
            1107     15.8062E-03     101.310E-03    -7.60831E+06     77.3724E+06     13.6071E+06    -4.79045E+06    -36.7450E-03     61.3014E-03    -24.5565E-03     138.883E-03    -38.3208E-03     63.0854E-03    -24.5896E-03     138.801E-03
            1108     16.6829E-03     101.442E-03    -4.99621E+06     141.987E+06     62.9446E+06    -1.80113E+06    -35.3362E-03     60.5075E-03    -25.1714E-03     86.9988E-03    -36.6742E-03     62.1494E-03    -25.0553E-03     87.1699E-03
            1109     880.325E-06     101.444E-03    -3.10088E+06    -24.4518E+06    -3.41771E+06    -3.04623E+06    -22.1174E-03     44.2154E-03    -22.0980E-03     6.17977E-03    -22.0925E-03     44.1027E-03    -22.0752E-03     6.13972E-03
            1110     1.76061E-03     101.450E-03    -4.41724E+06    -27.7696E+06    -5.81351E+06    -5.06775E+06    -22.0207E-03     44.0931E-03    -22.0725E-03     11.4912E-03    -21.9942E-03     43.9692E-03    -22.0549E-03     11.4244E-03
            1111     2.64117E-03     101.461E-03    -6.58893E+06    -32.6096E+06    -8.92453E+06    -6.45166E+06    -21.8982E-03     43.9083E-03    -22.0101E-03     17.1605E-03    -21.8712E-03     43.7680E-03    -21.9979E-03     17.0750E-03
            1112     3.52173E-03     101.477E-03    -9.68427E+06    -38.0300E+06    -12.1680E+06    -6.78356E+06    -21.7603E-03     43.6933E-03    -21.9330E-03     22.9849E-03    -21.7366E-03     43.5354E-03    -21.9247E-03     22.8942E-03
            1113     4.40266E-03     101.497E-03    -13.3305E+06    -43.0017E+06    -14.3631E+06    -6.16828E+06    -21.6345E-03     43.4861E-03    -21.8516E-03     28.9849E-03    -21.6191E-03     43.3123E-03    -21.8418E-03     28.9009E-03
            1114     5.28356E-03     101.521E-03    -17.0258E+06    -46.0301E+06    -14.4171E+06    -5.16583E+06    -21.5549E-03     43.3306E-03    -21.7757E-03     35.1670E-03    -21.5543E-03     43.1478E-03    -21.7563E-03     35.0941E-03
            1115     6.16482E-03     101.551E-03    -20.3579E+06    -47.3042E+06    -12.0913E+06    -4.34880E+06    -21.5768E-03     43.2919E-03    -21.7152E-03     41.5471E-03    -21.5957E-03     43.1056E-03    -21.6775E-03     41.4821E-03
            1116     7.04582E-03     101.587E-03    -22.7926E+06    -47.1529E+06    -8.22971E+06    -3.82316E+06    -21.7561E-03     43.4325E-03    -21.6764E-03     48.1350E-03    -21.7953E-03     43.2472E-03    -21.6161E-03     48.0726E-03
            1117     7.92706E-03     101.627E-03    -23.4932E+06    -45.7937E+06    -3.62378E+06    -3.65146E+06    -22.1556E-03     43.8221E-03    -21.6665E-03     54.9306E-03    -22.2108E-03     43.6418E-03    -21.5841E-03     54.8645E-03
            1118     8.80757E-03     101.674E-03    -22.6263E+06    -43.9941E+06     629.443E+03    -4.46651E+06    -22.8255E-03     44.5190E-03    -21.6935E-03     61.9036E-03    -22.8915E-03     44.3466E-03    -21.5938E-03     61.8182E-03
            1119     9.68806E-03     101.727E-03    -21.2681E+06    -40.8234E+06     3.26137E+06    -5.33369E+06    -23.8213E-03     45.5855E-03    -21.7642E-03     68.9596E-03    -23.8994E-03     45.4337E-03    -21.6579E-03     68.8502E-03
            1120     10.5672E-03     101.786E-03    -20.3216E+06    -39.5177E+06     4.63230E+06    -6.83277E+06    -25.2049E-03     47.1048E-03    -21.8999E-03     76.1647E-03    -25.2996E-03     46.9736E-03    -21.7900E-03     76.0176E-03
            1121     11.4457E-03     101.852E-03    -18.6169E+06    -38.4079E+06     4.32635E+06    -9.52983E+06    -26.9581E-03     49.0641E-03    -22.1060E-03     83.1626E-03    -27.0729E-03     48.9640E-03    -22.0017E-03     82.9552E-03
            1122     12.3222E-03     101.924E-03    -16.3433E+06    -34.9107E+06     3.34090E+06    -10.8521E+06    -29.0490E-03     51.4408E-03    -22.3918E-03     89.7200E-03    -29.2002E-03     51.4005E-03    -22.3008E-03     89.4610E-03
            1123     13.1975E-03     102.004E-03    -13.6934E+06    -30.8783E+06     2.12188E+06    -11.4301E+06    -31.4236E-03     54.1884E-03    -22.7648E-03     96.8715E-03    -31.6414E-03     54.2420E-03    -22.6896E-03     96.5590E-03
            1124     14.0705E-03     102.090E-03    -10.8234E+06    -22.0214E+06    -815.065E+03    -11.7940E+06    -34.1163E-03     57.3242E-03    -23.2079E-03     107.411E-03    -34.4827E-03     57.5766E-03    -23.1644E-03     107.035E-03
            1125     14.9410E-03     102.192E-03    -7.25462E+06    -3.64423E+06    -3.30644E+06    -8.90731E+06    -36.9927E-03     60.7049E-03    -23.7122E-03     124.605E-03    -37.7592E-03     61.4425E-03    -23.7129E-03     124.218E-03
            1126     15.8119E-03     102.314E-03    -4.94011E+06     74.4043E+06     19.2499E+06    -4.62014E+06    -38.8604E-03     63.1613E-03    -24.3009E-03     139.817E-03    -40.4553E-03     64.9470E-03    -24.3054E-03     139.687E-03
            1127     16.6739E-03     102.451E-03    -3.28788E+06     138.895E+06     67.1749E+06    -1.61288E+06    -37.4283E-03     62.4622E-03    -25.0339E-03     86.9059E-03    -38.7742E-03     64.0948E-03    -24.8947E-03     87.0349E-03
            1128     881.284E-06     102.434E-03    -6.66260E+06    -19.2419E+06    -7.17746E+06    -2.23896E+06    -20.9361E-03     41.8775E-03    -20.9414E-03     6.24017E-03    -20.9312E-03     41.8014E-03    -20.9397E-03     6.21086E-03
            1129     1.76271E-03     102.440E-03    -9.06336E+06    -23.8823E+06    -10.5734E+06    -3.26208E+06    -20.8671E-03     41.7719E-03    -20.9047E-03     11.5724E-03    -20.8626E-03     41.6809E-03    -20.9098E-03     11.5295E-03
            1130     2.64413E-03     102.451E-03    -12.9414E+06    -30.3406E+06    -14.8620E+06    -3.38696E+06    -20.7630E-03     41.6124E-03    -20.8494E-03     17.2864E-03    -20.7625E-03     41.5011E-03    -20.8609E-03     17.2414E-03
            1131     3.52583E-03     102.466E-03    -17.6748E+06    -37.2361E+06    -18.7063E+06    -2.72490E+06    -20.6546E-03     41.4394E-03    -20.7848E-03     23.1742E-03    -20.6622E-03     41.3063E-03    -20.7987E-03     23.1372E-03
            1132     4.40751E-03     102.486E-03    -22.4353E+06    -43.2615E+06    -20.6112E+06    -1.62980E+06    -20.5730E-03     41.2957E-03    -20.7227E-03     29.2603E-03    -20.5933E-03     41.1425E-03    -20.7305E-03     29.2364E-03
            1133     5.28952E-03     102.510E-03    -26.4260E+06    -46.3241E+06    -19.6454E+06    -637.904E+03    -20.5567E-03     41.2280E-03    -20.6714E-03     35.5706E-03    -20.5945E-03     41.0645E-03    -20.6641E-03     35.5580E-03
            1134     6.17135E-03     102.540E-03    -29.0887E+06    -47.2874E+06    -15.9121E+06    -145.253E+03    -20.6610E-03     41.3010E-03    -20.6400E-03     42.1358E-03    -20.7173E-03     41.1322E-03    -20.6088E-03     42.1273E-03
            1135     7.05341E-03     102.576E-03    -30.2291E+06    -46.3676E+06    -10.8159E+06    -516.763E+03    -20.9416E-03     41.5742E-03    -20.6326E-03     48.9707E-03    -21.0144E-03     41.4063E-03    -20.5756E-03     48.9538E-03
            1136     7.93493E-03     102.617E-03    -29.7352E+06    -44.0133E+06    -5.84047E+06    -2.19007E+06    -21.4519E-03     42.1054E-03    -20.6535E-03     56.0893E-03    -21.5364E-03     41.9450E-03    -20.5757E-03     56.0452E-03
            1137     8.81647E-03     102.664E-03    -27.9146E+06    -41.7785E+06    -1.27202E+06    -4.03627E+06    -22.2717E-03     42.9887E-03    -20.7170E-03     63.4313E-03    -22.3632E-03     42.8364E-03    -20.6223E-03     63.3548E-03
            1138     9.69687E-03     102.718E-03    -25.3638E+06    -39.5262E+06     1.86940E+06    -5.27188E+06    -23.4687E-03     44.3024E-03    -20.8338E-03     70.9223E-03    -23.5658E-03     44.1637E-03    -20.7303E-03     70.8173E-03
            1139     10.5768E-03     102.779E-03    -21.8152E+06    -35.6266E+06     4.45798E+06    -7.29796E+06    -25.0771E-03     46.0969E-03    -21.0197E-03     78.6057E-03    -25.1835E-03     45.9864E-03    -20.9142E-03     78.4559E-03
            1140     11.4549E-03     102.846E-03    -18.7904E+06    -34.4711E+06     4.84241E+06    -10.1621E+06    -27.1310E-03     48.4195E-03    -21.2884E-03     86.1055E-03    -27.2532E-03     48.3386E-03    -21.1870E-03     85.8921E-03
            1141     12.3316E-03     102.921E-03    -16.3746E+06    -33.4623E+06     3.47815E+06    -12.0519E+06    -29.5611E-03     51.2093E-03    -21.6482E-03     93.1319E-03    -29.7167E-03     51.1781E-03    -21.5586E-03     92.8574E-03
            1142     13.2061E-03     103.002E-03    -13.8291E+06    -28.3595E+06     2.65049E+06    -13.3771E+06    -32.3269E-03     54.4335E-03    -22.1066E-03     100.635E-03    -32.5555E-03     54.5048E-03    -22.0322E-03     100.293E-03
            1143     14.0783E-03     103.093E-03    -10.8971E+06    -21.2397E+06    -4.22187E+03    -14.6279E+06    -35.4448E-03     58.0961E-03    -22.6513E-03     111.346E-03    -35.8269E-03     58.3643E-03    -22.6047E-03     110.921E-03
            1144     14.9492E-03     103.197E-03    -8.46605E+06    -9.57051E+06    -4.84590E+06    -12.1188E+06    -38.9231E-03     62.1923E-03    -23.2692E-03     128.539E-03    -39.7100E-03     62.9295E-03    -23.2673E-03     128.082E-03
            1145     15.8146E-03     103.324E-03    -6.72563E+06     68.6144E+06     13.4920E+06    -4.71567E+06    -41.1519E-03     65.1167E-03    -23.9649E-03     143.305E-03    -42.7852E-03     66.9307E-03    -23.9872E-03     143.126E-03
            1146     16.6871E-03     103.461E-03    -3.95063E+06     137.785E+06     63.2311E+06    -590.865E+03    -39.8158E-03     64.6440E-03    -24.8282E-03     88.8321E-03    -41.1913E-03     66.3114E-03    -24.7061E-03     88.9315E-03
            1147     882.471E-06     103.421E-03    -15.1981E+06    -16.8817E+06    -15.1520E+06    -247.637E+03    -19.6391E-03     39.2823E-03    -19.6432E-03     6.24500E-03    -19.6687E-03     39.2420E-03    -19.6724E-03     6.24165E-03
            1148     1.76491E-03     103.428E-03    -19.1453E+06    -23.2790E+06    -19.3724E+06     495.678E+03    -19.5977E-03     39.2142E-03    -19.6165E-03     11.5562E-03    -19.6317E-03     39.1536E-03    -19.6518E-03     11.5622E-03
            1149     2.64753E-03     103.438E-03    -24.2807E+06    -30.8908E+06    -23.3615E+06     1.79444E+06    -19.5391E-03     39.1222E-03    -19.5831E-03     17.2765E-03    -19.5820E-03     39.0369E-03    -19.6199E-03     17.2991E-03
            1150     3.53012E-03     103.453E-03    -29.6551E+06    -38.4096E+06    -26.0666E+06     3.09493E+06    -19.4894E-03     39.0383E-03    -19.5488E-03     23.2071E-03    -19.5445E-03     38.9271E-03    -19.5805E-03     23.2461E-03
            1151     4.41294E-03     103.473E-03    -34.0994E+06    -44.1362E+06    -26.3682E+06     3.76324E+06    -19.4805E-03     39.0015E-03    -19.5210E-03     29.3690E-03    -19.5492E-03     38.8689E-03    -19.5394E-03     29.4160E-03
            1152     5.29564E-03     103.497E-03    -36.5898E+06    -46.6421E+06    -23.9579E+06     3.56555E+06    -19.5467E-03     39.0511E-03    -19.5044E-03     35.8087E-03    -19.6282E-03     38.9065E-03    -19.5035E-03     35.8520E-03
            1153     6.17854E-03     103.527E-03    -36.7328E+06    -46.6354E+06    -19.2056E+06     2.53389E+06    -19.7409E-03     39.2467E-03    -19.5058E-03     42.5663E-03    -19.8310E-03     39.0964E-03    -19.4809E-03     42.5944E-03
            1154     7.06106E-03     103.563E-03    -34.6289E+06    -44.5599E+06    -13.0605E+06     647.078E+03    -20.1214E-03     39.6527E-03    -19.5313E-03     49.6698E-03    -20.2146E-03     39.5026E-03    -19.4818E-03     49.6702E-03
            1155     7.94361E-03     103.604E-03    -31.6929E+06    -41.1024E+06    -6.75215E+06    -1.57882E+06    -20.7587E-03     40.3492E-03    -19.5905E-03     57.1175E-03    -20.8548E-03     40.2064E-03    -19.5187E-03     57.0840E-03
            1156     8.82530E-03     103.652E-03    -29.1821E+06    -39.5035E+06    -2.31754E+06    -3.66069E+06    -21.7334E-03     41.4280E-03    -19.6945E-03     64.8813E-03    -21.8317E-03     41.2891E-03    -19.6065E-03     64.8129E-03
            1157     9.70659E-03     103.708E-03    -26.2964E+06    -36.5793E+06     795.377E+03    -6.11838E+06    -23.0982E-03     42.9541E-03    -19.8559E-03     72.8977E-03    -23.2013E-03     42.8317E-03    -19.7608E-03     72.7851E-03
            1158     10.5863E-03     103.770E-03    -22.9351E+06    -31.6326E+06     3.40703E+06    -9.14129E+06    -24.9180E-03     45.0106E-03    -20.0927E-03     81.2030E-03    -25.0330E-03     44.9221E-03    -19.9965E-03     81.0327E-03
            1159     11.4649E-03     103.840E-03    -19.6618E+06    -31.4367E+06     4.30132E+06    -11.1143E+06    -27.2306E-03     47.6547E-03    -20.4241E-03     89.3209E-03    -27.3604E-03     47.5907E-03    -20.3285E-03     89.0977E-03
            1160     12.3413E-03     103.917E-03    -17.2605E+06    -30.2554E+06     3.33325E+06    -13.0947E+06    -30.0175E-03     50.8727E-03    -20.8552E-03     96.9523E-03    -30.1840E-03     50.8610E-03    -20.7696E-03     96.6647E-03
            1161     13.2155E-03     104.003E-03    -14.8321E+06    -25.6399E+06     2.33201E+06    -15.3353E+06    -33.1658E-03     54.5614E-03    -21.3956E-03     104.927E-03    -33.4084E-03     54.6538E-03    -21.3253E-03     104.556E-03
            1162     14.0872E-03     104.096E-03    -12.6804E+06    -19.1496E+06     47.5049E+03    -16.8882E+06    -36.8374E-03     58.8796E-03    -22.0422E-03     116.113E-03    -37.2457E-03     59.1751E-03    -21.9958E-03     115.646E-03
            1163     14.9549E-03     104.205E-03    -11.5870E+06    -17.0409E+06    -7.92016E+06    -13.3715E+06    -40.6333E-03     63.4034E-03    -22.7701E-03     133.055E-03    -41.4443E-03     64.1360E-03    -22.7682E-03     132.556E-03
            1164     15.8234E-03     104.334E-03    -10.3044E+06     61.4403E+06     4.24413E+06    -6.31465E+06    -43.1035E-03     66.6517E-03    -23.5482E-03     146.654E-03    -44.7548E-03     68.4724E-03    -23.6011E-03     146.403E-03
            1165     16.6826E-03     104.472E-03    -5.79030E+06     137.058E+06     56.5936E+06    -2.70312E+06    -42.9871E-03     67.5426E-03    -24.5556E-03     90.8933E-03    -44.3778E-03     69.2355E-03    -24.4629E-03     90.9031E-03
            1166     883.623E-06     104.406E-03    -30.8343E+06    -21.3958E+06    -28.2438E+06     4.92995E+06    -18.2897E-03     36.5720E-03    -18.2823E-03     6.15035E-03    -18.3719E-03     36.5507E-03    -18.3478E-03     6.21401E-03
            1167     1.76730E-03     104.412E-03    -35.6000E+06    -26.7505E+06    -30.9522E+06     7.00376E+06    -18.2862E-03     36.5750E-03    -18.2888E-03     11.4085E-03    -18.3806E-03     36.5377E-03    -18.3532E-03     11.4989E-03
            1168     2.65093E-03     104.423E-03    -39.9516E+06    -34.0789E+06    -32.8206E+06     8.20941E+06    -18.2917E-03     36.5825E-03    -18.2908E-03     17.0982E-03    -18.3945E-03     36.5175E-03    -18.3476E-03     17.2041E-03
            1169     3.53467E-03     104.438E-03    -42.7924E+06    -40.7647E+06    -32.7335E+06     8.82955E+06    -18.3210E-03     36.6168E-03    -18.2958E-03     23.0534E-03    -18.4285E-03     36.5225E-03    -18.3383E-03     23.1670E-03
            1170     4.41829E-03     104.457E-03    -43.8022E+06    -44.5078E+06    -30.4678E+06     7.97647E+06    -18.4005E-03     36.7065E-03    -18.3060E-03     29.2978E-03    -18.5110E-03     36.5918E-03    -18.3303E-03     29.4000E-03
            1171     5.30205E-03     104.482E-03    -42.7787E+06    -45.6365E+06    -26.5224E+06     5.71698E+06    -18.5603E-03     36.8853E-03    -18.3250E-03     35.8671E-03    -18.6702E-03     36.7581E-03    -18.3294E-03     35.9393E-03
            1172     6.18554E-03     104.512E-03    -40.0369E+06    -44.5376E+06    -21.3020E+06     2.83414E+06    -18.8383E-03     37.1967E-03    -18.3584E-03     42.8160E-03    -18.9444E-03     37.0642E-03    -18.3422E-03     42.8494E-03
            1173     7.06908E-03     104.548E-03    -36.6491E+06    -41.7317E+06    -15.2384E+06    -103.080E+03    -19.3033E-03     37.7191E-03    -18.4158E-03     50.1819E-03    -19.4068E-03     37.5885E-03    -18.3784E-03     50.1746E-03
            1174     7.95203E-03     104.590E-03    -33.0946E+06    -38.8446E+06    -9.09990E+06    -2.22751E+06    -20.0504E-03     38.5610E-03    -18.5105E-03     57.9932E-03    -20.1523E-03     38.4338E-03    -18.4517E-03     57.9538E-03
            1175     8.83466E-03     104.639E-03    -29.0129E+06    -36.2278E+06    -3.95462E+06    -4.51794E+06    -21.1507E-03     39.8040E-03    -18.6532E-03     66.2214E-03    -21.2492E-03     39.6822E-03    -18.5784E-03     66.1449E-03
            1176     9.71606E-03     104.696E-03    -24.9377E+06    -32.7371E+06    -83.6210E+03    -7.45074E+06    -22.6576E-03     41.5148E-03    -18.8572E-03     74.8295E-03    -22.7565E-03     41.4092E-03    -18.7740E-03     74.7033E-03
            1177     10.5966E-03     104.760E-03    -21.9126E+06    -27.7826E+06     2.90955E+06    -9.87597E+06    -24.6511E-03     43.7921E-03    -19.1410E-03     83.8371E-03    -24.7643E-03     43.7205E-03    -19.0544E-03     83.6610E-03
            1178     11.4751E-03     104.832E-03    -19.6889E+06    -28.7415E+06     3.78868E+06    -12.0871E+06    -27.2193E-03     46.7459E-03    -19.5266E-03     92.7274E-03    -27.3516E-03     46.6954E-03    -19.4375E-03     92.4950E-03
            1179     12.3517E-03     104.914E-03    -17.0215E+06    -26.3813E+06     3.62672E+06    -14.1215E+06    -30.3173E-03     50.3374E-03    -20.0201E-03     101.173E-03    -30.4896E-03     50.3452E-03    -19.9390E-03     100.874E-03
            1180     13.2256E-03     105.002E-03    -14.3794E+06    -21.3862E+06     3.18459E+06    -17.1059E+06    -33.9112E-03     54.5475E-03    -20.6363E-03     109.763E-03    -34.1640E-03     54.6643E-03    -20.5685E-03     109.367E-03
            1181     14.0965E-03     105.100E-03    -12.5412E+06    -18.8974E+06     477.318E+03    -17.3000E+06    -38.0700E-03     59.4464E-03    -21.3764E-03     121.688E-03    -38.4911E-03     59.7548E-03    -21.3284E-03     121.205E-03
            1182     14.9649E-03     105.213E-03    -11.0609E+06    -22.6738E+06    -8.82887E+06    -14.5766E+06    -42.5220E-03     64.7366E-03    -22.2146E-03     138.127E-03    -43.3428E-03     65.4637E-03    -22.2098E-03     137.581E-03
            1183     15.8280E-03     105.345E-03    -6.84665E+06     54.6755E+06     4.29699E+06    -9.54003E+06    -45.8267E-03     68.9603E-03    -23.1336E-03     150.350E-03    -47.4847E-03     70.7759E-03    -23.1814E-03     149.979E-03
            1184     16.6962E-03     105.489E-03    -4.24142E+06     133.638E+06     56.9712E+06    -3.78299E+06    -46.6737E-03     70.9898E-03    -24.3161E-03     94.0517E-03    -48.0828E-03     72.6935E-03    -24.2189E-03     93.9650E-03
            1185     884.813E-06     105.388E-03    -53.9612E+06    -35.2826E+06    -50.8714E+06     9.76703E+06    -16.9824E-03     33.9744E-03    -16.9920E-03     5.96182E-03    -17.1273E-03     33.9500E-03    -17.1169E-03     6.08795E-03
            1186     1.76953E-03     105.395E-03    -53.9907E+06    -34.6528E+06    -45.5798E+06     13.5358E+06    -17.0236E-03     34.0468E-03    -17.0232E-03     11.1176E-03    -17.1772E-03     34.0179E-03    -17.1226E-03     11.2924E-03
            1187     2.65425E-03     105.405E-03    -54.3907E+06    -38.1992E+06    -41.5783E+06     13.9484E+06    -17.0955E-03     34.1576E-03    -17.0621E-03     16.7768E-03    -17.2518E-03     34.1056E-03    -17.1357E-03     16.9570E-03
            1188     3.53887E-03     105.420E-03    -53.1677E+06    -42.1987E+06    -38.3195E+06     11.8970E+06    -17.2077E-03     34.3071E-03    -17.0994E-03     22.7537E-03    -17.3568E-03     34.2286E-03    -17.1527E-03     22.9073E-03
            1189     4.42356E-03     105.440E-03    -49.5904E+06    -43.2718E+06    -34.1711E+06     8.54926E+06    -17.3648E-03     34.5024E-03    -17.1377E-03     29.0519E-03    -17.5005E-03     34.4075E-03    -17.1739E-03     29.1620E-03
            1190     5.30804E-03     105.464E-03    -44.9579E+06    -43.1836E+06    -29.3622E+06     4.86999E+06    -17.5970E-03     34.7803E-03    -17.1833E-03     35.7230E-03    -17.7169E-03     34.6723E-03    -17.2023E-03     35.7850E-03
            1191     6.19252E-03     105.495E-03    -40.6088E+06    -41.3950E+06    -23.8367E+06     1.47221E+06    -17.9480E-03     35.1922E-03    -17.2442E-03     42.8446E-03    -18.0574E-03     35.0795E-03    -17.2445E-03     42.8616E-03
            1192     7.07662E-03     105.531E-03    -36.6176E+06    -38.7078E+06    -17.6957E+06    -1.38718E+06    -18.4977E-03     35.8297E-03    -17.3320E-03     50.4740E-03    -18.6012E-03     35.7170E-03    -17.3112E-03     50.4518E-03
            1193     7.96048E-03     105.574E-03    -32.4724E+06    -36.2531E+06    -11.7160E+06    -3.93506E+06    -19.3226E-03     36.7796E-03    -17.4570E-03     58.6478E-03    -19.4203E-03     36.6673E-03    -17.4159E-03     58.5886E-03
            1194     8.84349E-03     105.624E-03    -28.1706E+06    -32.3769E+06    -6.12696E+06    -6.69105E+06    -20.4947E-03     38.1253E-03    -17.6306E-03     67.3645E-03    -20.5899E-03     38.0233E-03    -17.5735E-03     67.2628E-03
            1195     9.72580E-03     105.683E-03    -24.1302E+06    -29.1370E+06    -1.34226E+06    -9.24872E+06    -22.1057E-03     39.9763E-03    -17.8706E-03     76.5733E-03    -22.2020E-03     39.8875E-03    -17.8001E-03     76.4275E-03
            1196     10.6065E-03     105.749E-03    -20.2897E+06    -24.9671E+06     2.59943E+06    -10.9964E+06    -24.2494E-03     42.4419E-03    -18.1925E-03     86.3314E-03    -24.3560E-03     42.3803E-03    -18.1138E-03     86.1452E-03
            1197     11.4857E-03     105.825E-03    -16.7424E+06    -25.0461E+06     4.74855E+06    -12.9387E+06    -27.0277E-03     45.6469E-03    -18.6192E-03     96.1118E-03    -27.1501E-03     45.6072E-03    -18.5349E-03     95.8728E-03
            1198     12.3624E-03     105.908E-03    -13.5444E+06    -22.3645E+06     5.31018E+06    -15.7843E+06    -30.4287E-03     49.5900E-03    -19.1613E-03     105.461E-03    -30.5912E-03     49.6098E-03    -19.0826E-03     105.143E-03
            1199     13.2364E-03     106.002E-03    -11.7214E+06    -17.8198E+06     5.34607E+06    -17.0517E+06    -34.4925E-03     54.3354E-03    -19.8428E-03     114.927E-03    -34.7434E-03     54.4662E-03    -19.7733E-03     114.531E-03
            1200     14.1069E-03     106.103E-03    -10.9143E+06    -18.5493E+06     2.43880E+06    -17.6074E+06    -39.2353E-03     59.9054E-03    -20.6701E-03     127.292E-03    -39.6610E-03     60.2199E-03    -20.6152E-03     126.795E-03
            1201     14.9733E-03     106.222E-03    -7.99032E+06    -24.7271E+06    -7.77785E+06    -17.4710E+06    -44.6773E-03     66.2962E-03    -21.6189E-03     143.854E-03    -45.5026E-03     67.0286E-03    -21.6103E-03     143.233E-03
            1202     15.8372E-03     106.360E-03    -5.79833E+06     47.1587E+06     2.27656E+06    -12.9228E+06    -49.5782E-03     72.2825E-03    -22.7042E-03     155.006E-03    -51.2732E-03     74.1184E-03    -22.7528E-03     154.479E-03
            1203     16.6908E-03     106.505E-03    -3.11148E+06     125.740E+06     55.1384E+06    -4.34498E+06    -50.5939E-03     74.6881E-03    -24.0942E-03     97.3778E-03    -52.0384E-03     76.4085E-03    -23.9963E-03     97.1753E-03
            1204     885.679E-06     106.368E-03    -85.3978E+06    -51.2702E+06    -85.7692E+06     6.86842E+06    -15.8545E-03     31.7456E-03    -15.8911E-03     5.74888E-03    -16.0827E-03     31.7375E-03    -16.1218E-03     5.83754E-03
            1205     1.77142E-03     106.375E-03    -76.2755E+06    -44.8633E+06    -72.0059E+06     10.9858E+06    -15.8950E-03     31.8037E-03    -15.9088E-03     10.7337E-03    -16.1069E-03     31.7944E-03    -16.0931E-03     10.8756E-03
            1206     2.65712E-03     106.385E-03    -65.6762E+06    -42.3869E+06    -56.6099E+06     12.3326E+06    -15.9984E-03     31.9647E-03    -15.9662E-03     16.3136E-03    -16.1833E-03     31.9300E-03    -16.0926E-03     16.4729E-03
            1207     3.54272E-03     106.400E-03    -56.9560E+06    -41.5400E+06    -45.8206E+06     9.96237E+06    -16.1746E-03     32.1970E-03    -16.0223E-03     22.2890E-03    -16.3327E-03     32.1382E-03    -16.1086E-03     22.4178E-03
            1208     4.42815E-03     106.420E-03    -50.8436E+06    -40.9973E+06    -39.3081E+06     6.24506E+06    -16.3942E-03     32.4706E-03    -16.0763E-03     28.6128E-03    -16.5320E-03     32.3962E-03    -16.1397E-03     28.6935E-03
            1209     5.31358E-03     106.445E-03    -46.3147E+06    -39.6595E+06    -34.0331E+06     2.43526E+06    -16.6732E-03     32.8114E-03    -16.1382E-03     35.3308E-03    -16.7980E-03     32.7296E-03    -16.1837E-03     35.3619E-03
            1210     6.19877E-03     106.476E-03    -41.4753E+06    -37.7428E+06    -27.9542E+06    -1.40148E+06    -17.0838E-03     33.3034E-03    -16.2197E-03     42.5801E-03    -17.1964E-03     33.2159E-03    -16.2446E-03     42.5608E-03
            1211     7.08376E-03     106.513E-03    -35.9076E+06    -35.6557E+06    -21.1151E+06    -4.39136E+06    -17.6965E-03     34.0266E-03    -16.3301E-03     50.4401E-03    -17.7954E-03     33.9326E-03    -16.3319E-03     50.3803E-03
            1212     7.96814E-03     106.556E-03    -30.5608E+06    -33.0393E+06    -14.3794E+06    -6.75217E+06    -18.5741E-03     35.0520E-03    -16.4779E-03     58.9525E-03    -18.6621E-03     34.9559E-03    -16.4576E-03     58.8589E-03
            1213     8.85202E-03     106.608E-03    -26.2129E+06    -28.9028E+06    -7.85406E+06    -8.82605E+06    -19.7913E-03     36.4671E-03    -16.6758E-03     68.1187E-03    -19.8777E-03     36.3805E-03    -16.6351E-03     67.9923E-03
            1214     9.73477E-03     106.667E-03    -22.6432E+06    -25.6309E+06    -2.22995E+06    -10.9839E+06    -21.4629E-03     38.4028E-03    -16.9399E-03     77.9127E-03    -21.5534E-03     38.3284E-03    -16.8810E-03     77.7483E-03
            1215     10.6163E-03     106.736E-03    -19.3601E+06    -22.4939E+06     2.10957E+06    -12.8127E+06    -23.7017E-03     40.9874E-03    -17.2857E-03     88.4453E-03    -23.8035E-03     40.9346E-03    -17.2145E-03     88.2405E-03
            1216     11.4959E-03     106.814E-03    -15.5341E+06    -20.5750E+06     5.45424E+06    -15.3486E+06    -26.6331E-03     44.3707E-03    -17.7376E-03     99.1985E-03    -26.7535E-03     44.3472E-03    -17.6579E-03     98.9340E-03
            1217     12.3732E-03     106.903E-03    -12.1546E+06    -19.1585E+06     6.42737E+06    -17.3009E+06    -30.3518E-03     48.6661E-03    -18.3143E-03     109.546E-03    -30.5108E-03     48.6955E-03    -18.2368E-03     109.214E-03
            1218     13.2471E-03     106.999E-03    -10.3045E+06    -17.6152E+06     6.21881E+06    -16.7079E+06    -34.8906E-03     53.9371E-03    -19.0464E-03     120.009E-03    -35.1354E-03     54.0651E-03    -18.9749E-03     119.619E-03
            1219     14.1174E-03     107.108E-03    -8.12358E+06    -13.3812E+06     5.90823E+06    -18.7656E+06    -40.3217E-03     60.2709E-03    -19.9492E-03     133.253E-03    -40.7510E-03     60.6073E-03    -19.8885E-03     132.732E-03
            1220     14.9834E-03     107.232E-03    -5.64935E+06    -25.7989E+06    -6.89093E+06    -20.9222E+06    -46.5517E-03     67.5454E-03    -20.9937E-03     150.975E-03    -47.3768E-03     68.2795E-03    -20.9826E-03     150.277E-03
            1221     15.8429E-03     107.377E-03    -4.34017E+06     35.6304E+06    -1.35988E+06    -12.4307E+06    -52.5520E-03     74.7538E-03    -22.2019E-03     164.427E-03    -54.2858E-03     76.6036E-03    -22.2540E-03     163.812E-03
            1222     16.7015E-03     107.531E-03    -3.69304E+06     119.088E+06     53.4697E+06    -3.01722E+06    -55.3845E-03     79.1738E-03    -23.7893E-03     105.573E-03    -56.8995E-03     80.9444E-03    -23.6893E-03     105.268E-03
            1223     886.300E-06     107.346E-03    -103.694E+06    -57.5154E+06    -104.825E+06    -591.416E+03    -15.0636E-03     30.1639E-03    -15.1003E-03     5.53963E-03    -15.3466E-03     30.1787E-03    -15.3907E-03     5.53192E-03
            1224     1.77270E-03     107.352E-03    -95.4071E+06    -50.7681E+06    -95.2255E+06     124.324E+03    -15.0541E-03     30.1394E-03    -15.0854E-03     10.3291E-03    -15.3194E-03     30.1620E-03    -15.3495E-03     10.3306E-03
            1225     2.65917E-03     107.363E-03    -83.0990E+06    -44.8533E+06    -81.5381E+06     752.289E+03    -15.0943E-03     30.1968E-03    -15.1024E-03     15.6766E-03    -15.3266E-03     30.2112E-03    -15.3246E-03     15.6863E-03
            1226     3.54566E-03     107.378E-03    -69.8579E+06    -40.5522E+06    -68.0765E+06     385.832E+03    -15.2245E-03     30.3567E-03    -15.1322E-03     21.4690E-03    -15.4162E-03     30.3539E-03    -15.3125E-03     21.4740E-03
            1227     4.43204E-03     107.399E-03    -58.2389E+06    -38.8080E+06    -55.2158E+06    -951.984E+03    -15.4572E-03     30.6422E-03    -15.1850E-03     27.7220E-03    -15.6121E-03     30.6127E-03    -15.3204E-03     27.7098E-03
            1228     5.31817E-03     107.424E-03    -48.5193E+06    -36.0416E+06    -43.2380E+06    -3.20967E+06    -15.7978E-03     31.0569E-03    -15.2591E-03     34.4985E-03    -15.9255E-03     31.0098E-03    -15.3527E-03     34.4570E-03
            1229     6.20411E-03     107.455E-03    -41.2619E+06    -33.7406E+06    -33.6203E+06    -6.00073E+06    -16.2764E-03     31.6303E-03    -15.3539E-03     41.8642E-03    -16.3855E-03     31.5705E-03    -15.4132E-03     41.7860E-03
            1230     7.08969E-03     107.492E-03    -36.0069E+06    -32.4836E+06    -25.8852E+06    -8.44561E+06    -16.9260E-03     32.4024E-03    -15.4764E-03     49.8825E-03    -17.0226E-03     32.3309E-03    -15.5065E-03     49.7713E-03
            1231     7.97492E-03     107.537E-03    -31.3061E+06    -29.8294E+06    -18.2497E+06    -10.4092E+06    -17.8198E-03     33.4567E-03    -15.6370E-03     58.6569E-03    -17.9096E-03     33.3825E-03    -15.6396E-03     58.5177E-03
            1232     8.85933E-03     107.590E-03    -26.4021E+06    -26.3419E+06    -10.3295E+06    -11.8214E+06    -19.0620E-03     34.9111E-03    -15.8491E-03     68.2119E-03    -19.1480E-03     34.8397E-03    -15.8242E-03     68.0494E-03
            1233     9.74289E-03     107.651E-03    -22.0611E+06    -22.5035E+06    -3.40463E+06    -12.9214E+06    -20.7524E-03     36.8761E-03    -16.1237E-03     78.5570E-03    -20.8402E-03     36.8156E-03    -16.0761E-03     78.3714E-03
            1234     10.6250E-03     107.722E-03    -18.3118E+06    -19.3152E+06     1.92796E+06    -14.7085E+06    -23.0378E-03     39.5164E-03    -16.4786E-03     89.8351E-03    -23.1348E-03     39.4743E-03    -16.4144E-03     89.6111E-03
            1235     11.5054E-03     107.803E-03    -15.5386E+06    -15.8836E+06     5.97286E+06    -17.0433E+06    -26.0834E-03     43.0232E-03    -16.9398E-03     101.585E-03    -26.2061E-03     43.0171E-03    -16.8644E-03     101.306E-03
            1236     12.3830E-03     107.895E-03    -13.1521E+06    -17.0742E+06     7.04588E+06    -18.8425E+06    -30.0378E-03     47.5731E-03    -17.5353E-03     113.130E-03    -30.1995E-03     47.6072E-03    -17.4562E-03     112.786E-03
            1237     13.2575E-03     107.998E-03    -9.90767E+06    -18.5158E+06     6.47524E+06    -18.2680E+06    -35.0431E-03     53.3384E-03    -18.2953E-03     124.995E-03    -35.2794E-03     53.4554E-03    -18.2217E-03     124.590E-03
            1238     14.1275E-03     108.111E-03    -7.10460E+06    -5.44419E+06     9.35264E+06    -20.3675E+06    -41.0903E-03     60.3405E-03    -19.2502E-03     139.445E-03    -41.5273E-03     60.7065E-03    -19.1853E-03     138.900E-03
            1239     14.9928E-03     108.243E-03    -7.64210E+06    -28.1056E+06    -5.52422E+06    -21.2053E+06    -47.9450E-03     68.3222E-03    -20.3772E-03     157.591E-03    -48.7712E-03     69.0383E-03    -20.3530E-03     156.867E-03
            1240     15.8548E-03     108.394E-03    -9.49012E+06     22.1289E+06    -3.75811E+06    -13.2497E+06    -54.9835E-03     76.6766E-03    -21.6931E-03     171.302E-03    -56.7543E-03     78.5045E-03    -21.7302E-03     170.583E-03
            1241     16.7083E-03     108.558E-03    -5.19955E+06     113.325E+06     52.3783E+06    -4.63603E+06    -60.4299E-03     83.8919E-03    -23.4620E-03     111.588E-03    -62.0069E-03     85.7026E-03    -23.3569E-03     111.117E-03
            1242     886.745E-06     108.323E-03    -94.5005E+06    -52.8971E+06    -94.0864E+06    -4.43072E+06    -14.6501E-03     29.2999E-03    -14.6498E-03     5.27536E-03    -14.9094E-03     29.3090E-03    -14.9065E-03     5.21797E-03
            1243     1.77350E-03     108.329E-03    -92.0475E+06    -48.0529E+06    -90.6249E+06    -7.06215E+06    -14.6365E-03     29.2836E-03    -14.6471E-03     9.86347E-03    -14.8957E-03     29.3082E-03    -14.8971E-03     9.77197E-03
            1244     2.66031E-03     108.340E-03    -87.3579E+06    -42.3204E+06    -85.6154E+06    -9.50143E+06    -14.6250E-03     29.2650E-03    -14.6400E-03     14.8794E-03    -14.8763E-03     29.3043E-03    -14.8801E-03     14.7564E-03
            1245     3.54722E-03     108.355E-03    -80.1376E+06    -38.2569E+06    -78.2839E+06    -11.0805E+06    -14.6390E-03     29.2775E-03    -14.6385E-03     20.2713E-03    -14.8708E-03     29.3160E-03    -14.8582E-03     20.1278E-03
            1246     4.43423E-03     108.375E-03    -70.6599E+06    -36.0155E+06    -68.4277E+06    -12.2015E+06    -14.7474E-03     29.4000E-03    -14.6525E-03     26.1709E-03    -14.9494E-03     29.4217E-03    -14.8400E-03     26.0129E-03
            1247     5.32119E-03     108.401E-03    -60.6304E+06    -32.8730E+06    -58.4887E+06    -13.2038E+06    -15.0095E-03     29.6916E-03    -14.6821E-03     32.7698E-03    -15.1804E-03     29.7002E-03    -14.8390E-03     32.5989E-03
            1248     6.20784E-03     108.432E-03    -51.0800E+06    -30.5478E+06    -48.7018E+06    -13.8900E+06    -15.4738E-03     30.2170E-03    -14.7432E-03     40.1679E-03    -15.6147E-03     30.2093E-03    -14.8684E-03     39.9878E-03
            1249     7.09409E-03     108.471E-03    -42.2464E+06    -29.1821E+06    -36.4992E+06    -14.9614E+06    -16.1710E-03     31.0313E-03    -14.8602E-03     48.3645E-03    -16.2880E-03     31.0005E-03    -14.9392E-03     48.1697E-03
            1250     7.97979E-03     108.516E-03    -34.1506E+06    -27.1146E+06    -23.9631E+06    -16.0302E+06    -17.1151E-03     32.1432E-03    -15.0281E-03     57.3527E-03    -17.2142E-03     32.0943E-03    -15.0590E-03     57.1421E-03
            1251     8.86491E-03     108.570E-03    -27.7988E+06    -25.0255E+06    -13.8320E+06    -15.8847E+06    -18.3500E-03     33.5917E-03    -15.2417E-03     67.1808E-03    -18.4382E-03     33.5325E-03    -15.2342E-03     66.9681E-03
            1252     9.74901E-03     108.633E-03    -23.2994E+06    -20.5710E+06    -5.46457E+06    -15.4096E+06    -20.0044E-03     35.5159E-03    -15.5115E-03     77.9928E-03    -20.0954E-03     35.4670E-03    -15.4752E-03     77.7788E-03
            1253     10.6319E-03     108.706E-03    -19.9262E+06    -15.2689E+06     1.22981E+06    -16.6854E+06    -22.2919E-03     38.1504E-03    -15.8585E-03     89.9986E-03    -22.3970E-03     38.1270E-03    -15.8013E-03     89.7548E-03
            1254     11.5128E-03     108.790E-03    -16.9448E+06    -13.0508E+06     5.93706E+06    -18.0029E+06    -25.3913E-03     41.7041E-03    -16.3128E-03     102.734E-03    -25.5174E-03     41.7067E-03    -16.2397E-03     102.450E-03
            1255     12.3913E-03     108.887E-03    -15.2935E+06    -13.6494E+06     7.98849E+06    -19.1733E+06    -29.4752E-03     46.3801E-03    -16.9049E-03     115.540E-03    -29.6432E-03     46.4224E-03    -16.8230E-03     115.201E-03
            1256     13.2664E-03     108.994E-03    -13.0326E+06    -16.7013E+06     6.68246E+06    -21.9434E+06    -34.9276E-03     52.5971E-03    -17.6695E-03     129.001E-03    -35.1696E-03     52.7147E-03    -17.5930E-03     128.558E-03
            1257     14.1369E-03     109.116E-03    -9.98339E+06    -1.79129E+06     10.3712E+06    -21.8315E+06    -41.6946E-03     60.3525E-03    -18.6579E-03     144.432E-03    -42.1357E-03     60.7224E-03    -18.5889E-03     143.871E-03
            1258     15.0020E-03     109.253E-03    -8.71006E+06    -29.7299E+06    -2.97042E+06    -20.1556E+06    -49.6147E-03     69.4862E-03    -19.8715E-03     162.459E-03    -50.4157E-03     70.1604E-03    -19.8306E-03     161.724E-03
            1259     15.8596E-03     109.413E-03    -5.31399E+06     10.3779E+06    -8.26233E+06    -14.6990E+06    -58.2228E-03     79.5089E-03    -21.2861E-03     178.405E-03    -59.9685E-03     81.2981E-03    -21.3347E-03     177.538E-03
            1260     16.7096E-03     109.589E-03    -2.44778E+06     105.393E+06     45.7049E+06    -5.58576E+06    -64.5083E-03     87.7204E-03    -23.2121E-03     122.002E-03    -66.1459E-03     89.5929E-03    -23.1328E-03     121.350E-03
            1261     886.926E-06     109.299E-03    -76.3652E+06    -43.9663E+06    -75.3645E+06    -4.93549E+06    -14.5778E-03     29.1244E-03    -14.5466E-03     4.91419E-03    -14.7866E-03     29.1247E-03    -14.7489E-03     4.85011E-03
            1262     1.77383E-03     109.305E-03    -74.5086E+06    -39.8362E+06    -71.9120E+06    -8.84081E+06    -14.6199E-03     29.1991E-03    -14.5792E-03     9.18690E-03    -14.8304E-03     29.2123E-03    -14.7730E-03     9.07209E-03
            1263     2.66065E-03     109.316E-03    -72.2478E+06    -35.3279E+06    -66.8049E+06    -12.4848E+06    -14.6564E-03     29.2657E-03    -14.6092E-03     13.8241E-03    -14.8698E-03     29.2909E-03    -14.7873E-03     13.6619E-03
            1264     3.54751E-03     109.331E-03    -69.9924E+06    -32.5602E+06    -62.2484E+06    -15.4545E+06    -14.6724E-03     29.3030E-03    -14.6305E-03     18.7453E-03    -14.8852E-03     29.3322E-03    -14.7931E-03     18.5446E-03
            1265     4.43442E-03     109.351E-03    -67.6016E+06    -30.8061E+06    -59.0870E+06    -18.1485E+06    -14.6878E-03     29.3243E-03    -14.6365E-03     24.0911E-03    -14.8959E-03     29.3544E-03    -14.7892E-03     23.8553E-03
            1266     5.32148E-03     109.377E-03    -63.8742E+06    -28.5237E+06    -55.5722E+06    -20.3365E+06    -14.7731E-03     29.4109E-03    -14.6378E-03     30.0836E-03    -14.9711E-03     29.4421E-03    -14.7817E-03     29.8195E-03
            1267     6.20859E-03     109.409E-03    -58.2577E+06    -26.9277E+06    -50.0697E+06    -22.0273E+06    -15.0268E-03     29.6837E-03    -14.6569E-03     36.9794E-03    -15.2072E-03     29.7069E-03    -14.7837E-03     36.6933E-03
            1268     7.09551E-03     109.448E-03    -51.3395E+06    -25.8266E+06    -42.2813E+06    -22.9468E+06    -15.5434E-03     30.2563E-03    -14.7129E-03     44.9763E-03    -15.7025E-03     30.2640E-03    -14.8124E-03     44.6781E-03
            1269     7.98182E-03     109.494E-03    -44.0112E+06    -24.2053E+06    -32.9786E+06    -23.6503E+06    -16.3898E-03     31.2092E-03    -14.8194E-03     54.1098E-03    -16.5290E-03     31.2019E-03    -14.8853E-03     53.8014E-03
            1270     8.86732E-03     109.549E-03    -35.4926E+06    -25.0215E+06    -22.1633E+06    -22.9782E+06    -17.6146E-03     32.6088E-03    -14.9942E-03     64.2739E-03    -17.7279E-03     32.5716E-03    -15.0173E-03     63.9714E-03
            1271     9.75204E-03     109.614E-03    -26.8883E+06    -20.7615E+06    -10.0761E+06    -20.4624E+06    -19.2688E-03     34.5086E-03    -15.2398E-03     75.5125E-03    -19.3678E-03     34.4677E-03    -15.2210E-03     75.2368E-03
            1272     10.6355E-03     109.688E-03    -20.9118E+06    -12.7561E+06     64.5266E+03    -18.7560E+06    -21.5024E-03     37.0638E-03    -15.5614E-03     88.1058E-03    -21.6086E-03     37.0504E-03    -15.5123E-03     87.8413E-03
            1273     11.5172E-03     109.776E-03    -18.7170E+06    -11.8069E+06     5.47577E+06    -18.0633E+06    -24.5362E-03     40.5220E-03    -15.9858E-03     101.761E-03    -24.6622E-03     40.5239E-03    -15.9142E-03     101.486E-03
            1274     12.3964E-03     109.875E-03    -17.7387E+06    -9.65695E+06     8.76837E+06    -18.6730E+06    -28.7643E-03     45.3124E-03    -16.5482E-03     115.993E-03    -28.9358E-03     45.3615E-03    -16.4646E-03     115.673E-03
            1275     13.2720E-03     109.989E-03    -17.6540E+06    -10.2625E+06     8.45249E+06    -22.2864E+06    -34.6739E-03     51.9758E-03    -17.3019E-03     131.225E-03    -34.9293E-03     52.1081E-03    -17.2192E-03     130.791E-03
            1276     14.1423E-03     110.117E-03    -17.0031E+06    -2.79319E+06     9.46168E+06    -24.1999E+06    -42.0173E-03     60.3184E-03    -18.3011E-03     148.066E-03    -42.4558E-03     60.6600E-03    -18.2251E-03     147.486E-03
            1277     15.0065E-03     110.265E-03    -12.1084E+06    -28.2295E+06    -260.027E+03    -24.5870E+06    -50.6034E-03     70.1599E-03    -19.5565E-03     168.260E-03    -51.3635E-03     70.7786E-03    -19.4993E-03     167.467E-03
            1278     15.8642E-03     110.434E-03    -6.97098E+06    -1.07756E+06    -12.9778E+06    -20.8911E+06    -60.1462E-03     81.1477E-03    -21.0014E-03     188.641E-03    -61.8509E-03     82.8630E-03    -21.0546E-03     187.614E-03
            1279     16.7156E-03     110.623E-03    -2.29500E+06     89.4965E+06     36.9719E+06    -6.80264E+06    -67.7646E-03     90.7701E-03    -23.0055E-03     135.873E-03    -69.4552E-03     92.6657E-03    -22.9471E-03     135.056E-03
            1280     886.694E-06     110.275E-03    -59.0109E+06    -34.1343E+06    -58.0766E+06    -4.91020E+06    -14.9520E-03     29.8858E-03    -14.9338E-03     4.41927E-03    -15.1133E-03     29.8850E-03    -15.0891E-03     4.35527E-03
            1281     1.77328E-03     110.282E-03    -58.2166E+06    -30.5394E+06    -54.9173E+06    -8.91155E+06    -15.0453E-03     30.0173E-03    -14.9721E-03     8.20288E-03    -15.2126E-03     30.0288E-03    -15.1180E-03     8.08669E-03
            1282     2.65984E-03     110.293E-03    -56.8733E+06    -27.2099E+06    -50.6210E+06    -12.3008E+06    -15.1638E-03     30.1930E-03    -15.0292E-03     12.3217E-03    -15.3356E-03     30.2131E-03    -15.1604E-03     12.1612E-03
            1283     3.54626E-03     110.308E-03    -54.9842E+06    -25.2418E+06    -45.8859E+06    -15.2599E+06    -15.3003E-03     30.3953E-03    -15.0950E-03     16.6472E-03    -15.4726E-03     30.4158E-03    -15.2081E-03     16.4478E-03
            1284     4.43264E-03     110.328E-03    -52.6418E+06    -23.4489E+06    -41.0120E+06    -18.3864E+06    -15.4112E-03     30.5711E-03    -15.1599E-03     21.3103E-03    -15.5818E-03     30.5905E-03    -15.2546E-03     21.0699E-03
            1285     5.31896E-03     110.354E-03    -50.5930E+06    -22.3186E+06    -36.3143E+06    -21.4317E+06    -15.4848E-03     30.7016E-03    -15.2168E-03     26.4960E-03    -15.6540E-03     30.7172E-03    -15.2927E-03     26.2157E-03
            1286     6.20533E-03     110.385E-03    -49.4245E+06    -21.4918E+06    -32.8682E+06    -23.7174E+06    -15.5484E-03     30.8064E-03    -15.2580E-03     32.4576E-03    -15.7183E-03     30.8198E-03    -15.3195E-03     32.1475E-03
            1287     7.09178E-03     110.424E-03    -48.3983E+06    -21.2541E+06    -31.4598E+06    -25.8329E+06    -15.6874E-03     30.9701E-03    -15.2826E-03     39.5255E-03    -15.8549E-03     30.9815E-03    -15.3389E-03     39.1879E-03
            1288     7.97843E-03     110.471E-03    -46.2188E+06    -19.9022E+06    -29.2747E+06    -27.6343E+06    -16.0821E-03     31.3972E-03    -15.3151E-03     48.0168E-03    -16.2444E-03     31.4096E-03    -15.3656E-03     47.6558E-03
            1289     8.86465E-03     110.527E-03    -42.8085E+06    -22.9247E+06    -24.8408E+06    -29.1088E+06    -16.9633E-03     32.3603E-03    -15.3971E-03     58.0563E-03    -17.1117E-03     32.3475E-03    -15.4260E-03     57.6750E-03
            1290     9.74977E-03     110.593E-03    -36.7408E+06    -22.2541E+06    -17.5458E+06    -28.1376E+06    -18.4312E-03     33.9790E-03    -15.5478E-03     69.7129E-03    -18.5638E-03     33.9532E-03    -15.5500E-03     69.3409E-03
            1291     10.6336E-03     110.670E-03    -28.9056E+06    -14.2405E+06    -6.74889E+06    -24.2119E+06    -20.5468E-03     36.3383E-03    -15.7915E-03     82.9856E-03    -20.6747E-03     36.3327E-03    -15.7627E-03     82.6567E-03
            1292     11.5160E-03     110.760E-03    -21.9168E+06    -12.8401E+06     2.71717E+06    -20.0483E+06    -23.5508E-03     39.7057E-03    -16.1549E-03     97.5148E-03    -23.6755E-03     39.6992E-03    -16.0909E-03     97.2242E-03
            1293     12.3960E-03     110.864E-03    -18.6247E+06    -7.57167E+06     9.07543E+06    -17.7340E+06    -27.8525E-03     44.5116E-03    -16.6591E-03     113.294E-03    -28.0118E-03     44.5518E-03    -16.5757E-03     113.002E-03
            1294     13.2720E-03     110.982E-03    -19.5114E+06    -4.12764E+06     12.1560E+06    -18.1621E+06    -33.8740E-03     51.2418E-03    -17.3677E-03     130.762E-03    -34.1195E-03     51.3685E-03    -17.2727E-03     130.403E-03
            1295     14.1431E-03     111.119E-03    -21.0622E+06     2.90888E+06     12.6725E+06    -23.4361E+06    -41.1489E-03     59.4586E-03    -18.3098E-03     149.842E-03    -41.5630E-03     59.7723E-03    -18.2201E-03     149.304E-03
            1296     15.0085E-03     111.274E-03    -17.6971E+06    -20.6506E+06     4.66266E+06    -33.3461E+06    -49.3826E-03     68.8784E-03    -19.4957E-03     172.796E-03    -50.0795E-03     69.4265E-03    -19.4168E-03     171.936E-03
            1297     15.8684E-03     111.453E-03    -10.9720E+06    -17.2641E+06    -10.4178E+06    -27.9459E+06    -59.7235E-03     80.5988E-03    -20.8753E-03     198.785E-03    -61.2945E-03     82.1014E-03    -20.8864E-03     197.662E-03
            1298     16.7168E-03     111.657E-03    -7.25600E+06     67.9622E+06     32.4506E+06    -9.22373E+06    -70.3786E-03     93.2293E-03    -22.8508E-03     153.677E-03    -72.0971E-03     95.0730E-03    -22.7765E-03     152.706E-03
            1299     885.836E-06     111.253E-03    -43.8701E+06    -24.6853E+06    -42.5710E+06    -4.42288E+06    -15.9906E-03     31.9673E-03    -15.9767E-03     3.74205E-03    -16.1125E-03     31.9693E-03    -16.0902E-03     3.68400E-03
            1300     1.77163E-03     111.260E-03    -43.1121E+06    -21.5404E+06    -40.2217E+06    -8.20076E+06    -16.1354E-03     32.1587E-03    -16.0233E-03     6.86093E-03    -16.2617E-03     32.1720E-03    -16.1307E-03     6.75325E-03
            1301     2.65723E-03     111.271E-03    -42.1045E+06    -19.4972E+06    -36.5651E+06    -11.4714E+06    -16.3569E-03     32.4687E-03    -16.1118E-03     10.2533E-03    -16.4866E-03     32.4856E-03    -16.2053E-03     10.1024E-03
            1302     3.54266E-03     111.286E-03    -40.7894E+06    -17.7547E+06    -31.7376E+06    -14.4897E+06    -16.6246E-03     32.8531E-03    -16.2285E-03     13.7714E-03    -16.7576E-03     32.8701E-03    -16.3023E-03     13.5805E-03
            1303     4.42779E-03     111.306E-03    -39.7661E+06    -16.4469E+06    -27.0479E+06    -17.1306E+06    -16.8853E-03     33.2430E-03    -16.3577E-03     17.5559E-03    -17.0223E-03     33.2586E-03    -16.4115E-03     17.3297E-03
            1304     5.31275E-03     111.332E-03    -39.3783E+06    -15.7278E+06    -23.7048E+06    -19.3321E+06    -17.0823E-03     33.5636E-03    -16.4814E-03     21.7886E-03    -17.2238E-03     33.5779E-03    -16.5200E-03     21.5328E-03
            1305     6.19760E-03     111.364E-03     -38.853E+06    -15.6551E+06    -20.8952E+06    -21.5320E+06    -17.1760E-03     33.7651E-03    -16.5891E-03     26.6674E-03    -17.3196E-03     33.7755E-03    -16.6146E-03     26.3822E-03
            1306     7.08256E-03     111.402E-03    -38.1015E+06    -15.0686E+06    -17.5608E+06    -23.8969E+06    -17.1707E-03     33.8454E-03    -16.6748E-03     32.4286E-03    -17.3169E-03     33.8535E-03    -16.6855E-03     32.1123E-03
            1307     7.96757E-03     111.449E-03    -38.4512E+06    -15.2212E+06    -15.7507E+06    -25.8094E+06    -17.1401E-03     33.8695E-03    -16.7295E-03     39.4305E-03    -17.2911E-03     33.8753E-03    -16.7304E-03     39.0893E-03
            1308     8.85298E-03     111.505E-03    -39.9035E+06    -17.3516E+06    -15.7623E+06    -27.7072E+06    -17.3135E-03     34.0783E-03    -16.7647E-03     48.1291E-03    -17.4695E-03     34.0763E-03    -16.7605E-03     47.7633E-03
            1309     9.73841E-03     111.572E-03    -40.9274E+06    -19.8281E+06    -15.8623E+06    -30.4218E+06    -18.0125E-03     34.8257E-03    -16.8132E-03     58.9920E-03    -18.1711E-03     34.8144E-03    -16.8044E-03     58.5904E-03
            1310     10.6231E-03     111.650E-03    -38.6992E+06    -17.0370E+06    -11.9835E+06    -29.5953E+06    -19.5238E-03     36.4469E-03    -16.9232E-03     72.2714E-03    -19.6842E-03     36.4443E-03    -16.9023E-03     71.8772E-03
            1311     11.5060E-03     111.742E-03    -32.7733E+06    -14.9565E+06    -3.46604E+06    -26.4081E+06    -22.1715E-03     39.3248E-03    -17.1532E-03     87.7810E-03    -22.3267E-03     39.3207E-03    -17.1013E-03     87.4187E-03
            1312     12.3862E-03     111.850E-03    -25.1855E+06    -11.7505E+06     6.30686E+06    -20.9511E+06    -26.2820E-03     43.8222E-03    -17.5401E-03     105.441E-03    -26.4403E-03     43.8314E-03    -17.4551E-03     105.128E-03
            1313     13.2635E-03     111.974E-03    -19.6146E+06    -2.52164E+06     15.2295E+06    -16.2131E+06    -31.9525E-03     50.0755E-03    -18.1230E-03     125.156E-03    -32.1609E-03     50.1617E-03    -18.0148E-03     124.856E-03
            1314     14.1361E-03     112.118E-03    -18.7132E+06     13.6342E+06     20.8016E+06    -19.0302E+06    -38.5209E-03     57.4353E-03    -18.9144E-03     145.808E-03    -38.8688E-03     57.7056E-03    -18.8031E-03     145.381E-03
            1315     15.0043E-03     112.280E-03    -23.3574E+06     1.04286E+06     14.3150E+06    -31.7913E+06    -45.9466E-03     65.8589E-03    -19.9123E-03     170.730E-03    -46.5637E-03     66.3561E-03    -19.8084E-03     169.972E-03
            1316     15.8669E-03     112.468E-03    -24.0553E+06    -32.8576E+06    -11.7890E+06    -39.5358E+06    -56.2374E-03     77.3187E-03    -21.0813E-03     203.177E-03    -57.5675E-03     78.4824E-03    -21.0577E-03     201.994E-03
            1317     16.7240E-03     112.689E-03    -9.74432E+06     34.5356E+06     17.7852E+06    -20.2109E+06    -69.6101E-03     92.4378E-03    -22.8277E-03     172.858E-03    -71.2289E-03     94.0978E-03    -22.7747E-03     171.686E-03
            1318     884.248E-06     112.233E-03    -29.4998E+06    -16.0148E+06    -29.6059E+06    -3.95939E+06    -17.9394E-03     35.8218E-03    -17.8823E-03     2.81284E-03    -18.0210E-03     35.8273E-03    -17.9644E-03     2.76034E-03
            1319     1.76836E-03     112.240E-03    -29.9950E+06    -13.5525E+06    -27.9678E+06    -7.18926E+06    -18.1547E-03     36.1229E-03    -17.9681E-03     5.12376E-03    -18.2449E-03     36.1391E-03    -18.0448E-03     5.02828E-03
            1320     2.65223E-03     112.252E-03    -29.9585E+06    -12.2261E+06    -24.2644E+06    -10.0675E+06    -18.4751E-03     36.5809E-03    -18.1059E-03     7.57912E-03    -18.5726E-03     36.5985E-03    -18.1660E-03     7.44501E-03
            1321     3.53571E-03     112.268E-03    -29.9496E+06    -11.1790E+06    -20.6464E+06    -12.4524E+06    -18.8415E-03     37.1153E-03    -18.2737E-03     10.1177E-03    -18.9461E-03     37.1331E-03    -18.3173E-03     9.95114E-03
            1322     4.41889E-03     112.288E-03    -30.0944E+06    -10.4767E+06    -17.5982E+06    -14.4193E+06    -19.2293E-03     37.6879E-03    -18.4586E-03     12.8742E-03    -19.3406E-03     37.7055E-03    -18.4878E-03     12.6805E-03
            1323     5.30166E-03     112.314E-03    -30.0484E+06    -10.0850E+06    -14.5534E+06    -16.3366E+06    -19.5922E-03     38.2456E-03    -18.6534E-03     15.9705E-03    -19.7088E-03     38.2612E-03    -18.6680E-03     15.7502E-03
            1324     6.18417E-03     112.346E-03    -30.3097E+06    -9.82244E+06    -11.5727E+06    -18.4098E+06    -19.8658E-03     38.7124E-03    -18.8466E-03     19.5544E-03    -19.9892E-03     38.7260E-03    -18.8462E-03     19.3056E-03
            1325     7.06641E-03     112.385E-03    -31.5270E+06    -9.91886E+06    -9.43491E+06    -20.0445E+06    -19.9958E-03     39.0180E-03    -19.0222E-03     23.8255E-03    -20.1291E-03     39.0306E-03    -19.0093E-03     23.5540E-03
            1326     7.94875E-03     112.431E-03    -32.9993E+06    -10.4891E+06    -7.80602E+06    -21.2811E+06    -19.9544E-03     39.1231E-03    -19.1687E-03     29.0329E-03    -20.0976E-03     39.1335E-03    -19.1446E-03     28.7444E-03
            1327     8.83118E-03     112.486E-03    -34.0244E+06    -11.7142E+06    -6.38961E+06    -23.2256E+06    -19.7750E-03     39.0532E-03    -19.2783E-03     35.5611E-03    -19.9246E-03     39.0578E-03    -19.2439E-03     35.2470E-03
            1328     9.71409E-03     112.552E-03    -35.5808E+06    -13.4567E+06    -5.62243E+06    -25.7618E+06    -19.6678E-03     39.0214E-03    -19.3535E-03     43.9297E-03    -19.8248E-03     39.0193E-03    -19.3105E-03     43.5829E-03
            1329     10.5974E-03     112.631E-03    -38.0582E+06    -15.8699E+06    -6.35014E+06    -27.9537E+06    -20.0055E-03     39.4194E-03    -19.4140E-03     54.8775E-03    -20.1716E-03     39.4115E-03    -19.3675E-03     54.5022E-03
            1330     11.4806E-03     112.724E-03    -39.3668E+06    -14.6502E+06    -3.70079E+06    -28.1196E+06    -21.2309E-03     40.7469E-03    -19.5160E-03     69.0105E-03    -21.4123E-03     40.7466E-03    -19.4562E-03     68.6305E-03
            1331     12.3624E-03     112.834E-03    -36.9426E+06    -16.4321E+06     1.30245E+06    -26.6467E+06    -23.9192E-03     43.6366E-03    -19.7174E-03     86.9714E-03    -24.1023E-03     43.6264E-03    -19.6335E-03     86.6012E-03
            1332     13.2407E-03     112.963E-03    -29.0986E+06    -6.47429E+06     11.1853E+06    -22.6717E+06    -28.2820E-03     48.3487E-03    -20.0668E-03     108.424E-03    -28.4807E-03     48.3894E-03    -19.9593E-03     108.078E-03
            1333     14.1156E-03     113.113E-03    -23.1286E+06     15.4947E+06     23.5232E+06    -16.7465E+06    -33.9135E-03     54.5170E-03    -20.6035E-03     130.589E-03    -34.1981E-03     54.7072E-03    -20.4748E-03     130.261E-03
            1334     14.9865E-03     113.280E-03    -29.3435E+06     20.9446E+06     22.7999E+06    -17.6897E+06    -40.4779E-03     61.7926E-03    -21.3147E-03     156.163E-03    -40.9771E-03     62.1968E-03    -21.1885E-03     155.700E-03
            1335     15.8543E-03     113.475E-03    -41.5963E+06    -11.7492E+06    -4.38996E+06    -38.8036E+06    -48.5509E-03     70.6890E-03    -22.1381E-03     193.517E-03    -49.5428E-03     71.5059E-03    -22.0827E-03     192.552E-03
            1336     16.7125E-03     113.709E-03    -37.7072E+06     1.24044E+06    -13.7608E+06    -49.9032E+06    -60.2813E-03     83.5813E-03    -23.3000E-03     187.905E-03    -61.6671E-03     84.8824E-03    -23.3159E-03     186.519E-03
            1337     881.660E-06     113.219E-03    -20.0547E+06    -8.70313E+06    -19.2722E+06    -3.33675E+06    -21.0127E-03     41.9693E-03    -20.9566E-03     1.68310E-03    -21.0729E-03     41.9824E-03    -21.0113E-03     1.63829E-03
            1338     1.76307E-03     113.226E-03    -20.5476E+06    -6.86727E+06    -18.0103E+06    -5.52850E+06    -21.3273E-03     42.3981E-03    -21.0708E-03     2.96971E-03    -21.3947E-03     42.4192E-03    -21.1211E-03     2.89491E-03
            1339     2.64410E-03     113.238E-03    -21.2878E+06    -6.45308E+06    -15.6734E+06    -7.61368E+06    -21.6924E-03     42.9401E-03    -21.2476E-03     4.29832E-03    -21.7677E-03     42.9611E-03    -21.2858E-03     4.19477E-03
            1340     3.52477E-03     113.254E-03    -22.0514E+06    -5.90419E+06    -13.3399E+06    -9.28438E+06    -22.1288E-03     43.5822E-03    -21.4534E-03     5.72803E-03    -22.2123E-03     43.6039E-03    -21.4796E-03     5.60091E-03
            1341     4.40494E-03     113.275E-03    -22.8570E+06    -5.58018E+06    -10.6198E+06    -10.9487E+06    -22.6401E-03     44.3307E-03    -21.6906E-03     7.32119E-03    -22.7324E-03     44.3515E-03    -21.7025E-03     7.17039E-03
            1342     5.28461E-03     113.302E-03    -24.0014E+06    -5.28125E+06    -7.79173E+06    -12.4946E+06    -23.1914E-03     45.1474E-03    -21.9561E-03     9.13328E-03    -23.2944E-03     45.1677E-03    -21.9526E-03     8.96015E-03
            1343     6.16367E-03     113.334E-03    -25.7218E+06    -5.36637E+06    -5.65940E+06    -13.6406E+06    -23.7282E-03     45.9682E-03    -22.2400E-03     11.2509E-03    -23.8435E-03     45.9879E-03    -22.2232E-03     11.0605E-03
            1344     7.04229E-03     113.373E-03    -27.5737E+06    -5.69368E+06    -3.84640E+06    -14.7778E+06    -24.1841E-03     46.7172E-03    -22.5331E-03     13.7895E-03    -24.3116E-03     46.7359E-03    -22.5041E-03     13.5819E-03
            1345     7.92039E-03     113.419E-03    -29.2005E+06    -6.27203E+06    -1.81271E+06    -16.2532E+06    -24.5008E-03     47.3262E-03    -22.8254E-03     16.9063E-03    -24.6396E-03     47.3422E-03    -22.7830E-03     16.6771E-03
            1346     8.79827E-03     113.474E-03    -31.3903E+06    -6.66104E+06    -122.629E+03    -17.8369E+06    -24.6199E-03     47.7226E-03    -23.1026E-03     20.8253E-03    -24.7728E-03     47.7380E-03    -23.0481E-03     20.5734E-03
            1347     9.67601E-03     113.539E-03    -34.3308E+06    -8.36299E+06     725.317E+03    -19.5358E+06    -24.5050E-03     47.8585E-03    -23.3535E-03     25.9022E-03    -24.6727E-03     47.8694E-03    -23.2880E-03     25.6268E-03
            1348     10.5540E-03     113.616E-03    -37.2407E+06    -10.4949E+06     1.49096E+06    -21.7416E+06    -24.1806E-03     47.7518E-03    -23.5712E-03     32.6688E-03    -24.3624E-03     47.7561E-03    -23.4945E-03     32.3640E-03
            1349     11.4323E-03     113.708E-03    -39.8080E+06    -12.3292E+06     1.55657E+06    -23.6862E+06    -23.8389E-03     47.5896E-03    -23.7507E-03     41.9907E-03    -24.0325E-03     47.5899E-03    -23.6673E-03     41.6606E-03
            1350     12.3112E-03     113.818E-03    -41.6281E+06    -13.2893E+06     1.92544E+06    -25.9582E+06    -23.9847E-03     47.8985E-03    -23.9137E-03     55.1268E-03    -24.1892E-03     47.8988E-03    -23.8245E-03     54.7666E-03
            1351     13.1909E-03     113.948E-03    -42.0282E+06    -10.0424E+06     5.08973E+06    -27.3742E+06    -24.9220E-03     49.0186E-03    -24.0966E-03     72.5041E-03    -25.1445E-03     49.0391E-03    -23.9957E-03     72.1200E-03
            1352     14.0688E-03     114.101E-03    -38.5336E+06     4.12048E+06     13.6061E+06    -19.9876E+06    -27.1099E-03     51.4412E-03    -24.3313E-03     93.4130E-03    -27.3694E-03     51.5392E-03    -24.2134E-03     93.1031E-03
            1353     14.9430E-03     114.274E-03    -34.6166E+06     21.2562E+06     22.3831E+06    -8.35384E+06    -31.5505E-03     56.2110E-03    -24.6605E-03     119.882E-03    -31.8998E-03     56.4499E-03    -24.5292E-03     119.662E-03
            1354     15.8125E-03     114.472E-03    -41.9667E+06     31.0522E+06     17.2374E+06    -17.8328E+06    -36.0674E-03     61.1057E-03    -25.0383E-03     156.286E-03    -36.6862E-03     61.6369E-03    -24.9363E-03     155.833E-03
            1355     16.6901E-03     114.708E-03    -93.5383E+06     33.3780E+03    -37.0598E+06    -24.6776E+06    -33.2508E-03     58.4221E-03    -25.1713E-03     171.907E-03    -34.2544E-03     59.2101E-03    -25.2210E-03     171.273E-03
            1356     877.796E-06     114.211E-03    -15.1073E+06    -3.38722E+06    -13.4198E+06    -2.17251E+06    -25.4831E-03     51.0531E-03    -25.5699E-03     57.8584E-06    -25.5354E-03     51.0765E-03    -25.6102E-03     28.2715E-06
            1357     1.75523E-03     114.219E-03    -15.1672E+06    -2.39633E+06    -12.3709E+06    -3.32746E+06    -25.7507E-03     51.3527E-03    -25.6020E-03     271.764E-06    -25.8063E-03     51.3795E-03    -25.6384E-03     225.726E-06
            1358     2.63237E-03     114.231E-03    -16.3202E+06    -2.43556E+06    -11.2145E+06    -4.38588E+06    -26.1429E-03     51.8984E-03    -25.7554E-03     449.246E-06    -26.2060E-03     51.9251E-03    -25.7843E-03     387.993E-06
            1359     3.50906E-03     114.248E-03    -17.8121E+06    -2.25022E+06    -9.11693E+06    -5.45654E+06    -26.6761E-03     52.6540E-03    -25.9779E-03     671.865E-06    -26.7500E-03     52.6808E-03    -25.9944E-03     595.100E-06
            1360     4.38516E-03     114.270E-03    -19.6639E+06    -1.96480E+06    -6.63104E+06    -6.41672E+06    -27.3531E-03     53.6159E-03    -26.2628E-03     930.969E-06    -27.4405E-03     53.6433E-03    -26.2646E-03     839.931E-06
            1361     5.26049E-03     114.297E-03    -21.8715E+06    -2.05120E+06    -4.51064E+06    -7.16748E+06    -28.1597E-03     54.7656E-03    -26.6059E-03     1.23405E-03    -28.2613E-03     54.7926E-03    -26.5937E-03     1.13123E-03
            1362     6.13500E-03     114.331E-03    -24.0730E+06    -2.26073E+06    -2.13064E+06    -7.92336E+06    -29.0727E-03     56.0799E-03    -27.0072E-03     1.59317E-03    -29.1889E-03     56.1057E-03    -26.9797E-03     1.47821E-03
            1363     7.00842E-03     114.370E-03    -26.2990E+06    -2.42463E+06     605.050E+03    -8.81283E+06    -30.0425E-03     57.5057E-03    -27.4632E-03     2.03599E-03    -30.1740E-03     57.5299E-03    -27.4185E-03     1.90682E-03
            1364     7.88085E-03     114.417E-03    -29.0886E+06    -2.48411E+06     2.65384E+06    -9.90270E+06    -31.0029E-03     58.9660E-03    -27.9632E-03     2.61699E-03    -31.1518E-03     58.9910E-03    -27.9041E-03     2.47070E-03
            1365     8.75213E-03     114.472E-03    -32.1815E+06    -3.34459E+06     4.15297E+06    -10.7704E+06    -31.8833E-03     60.3843E-03    -28.5010E-03     3.40019E-03    -32.0495E-03     60.4073E-03    -28.4287E-03     3.23936E-03
            1366     9.62231E-03     114.537E-03    -35.2188E+06    -3.75146E+06     6.09153E+06    -12.1492E+06    -32.5039E-03     61.5704E-03    -29.0665E-03     4.55426E-03    -32.6886E-03     61.5929E-03    -28.9796E-03     4.37222E-03
            1367     10.4915E-03     114.613E-03    -38.8785E+06    -5.71160E+06     6.46799E+06    -14.0345E+06    -32.6225E-03     62.2535E-03    -29.6310E-03     6.40311E-03    -32.8246E-03     62.2709E-03    -29.5340E-03     6.19369E-03
            1368     11.3603E-03     114.703E-03    -43.0634E+06    -7.04941E+06     5.17273E+06    -16.6641E+06    -32.1453E-03     62.3112E-03    -30.1659E-03     9.41287E-03    -32.3662E-03     62.3297E-03    -30.0674E-03     9.16721E-03
            1369     12.2292E-03     114.809E-03    -47.5407E+06    -8.12182E+06     4.30585E+06    -19.4840E+06    -30.7364E-03     61.3876E-03    -30.6512E-03     14.3702E-03    -30.9786E-03     61.4088E-03    -30.5490E-03     14.0874E-03
            1370     13.0979E-03     114.936E-03    -53.2346E+06    -7.29190E+06     3.68798E+06    -21.6481E+06    -27.6723E-03     58.6935E-03    -31.0212E-03     22.3266E-03    -27.9445E-03     58.7294E-03    -30.9150E-03     22.0186E-03
            1371     13.9705E-03     115.083E-03    -59.4592E+06    -5.10508E+06     1.20344E+06    -21.3840E+06    -24.1454E-03     55.3611E-03    -31.2157E-03     35.2447E-03    -24.4506E-03     55.4236E-03    -31.1161E-03     34.9431E-03
            1372     14.8476E-03     115.256E-03    -57.4798E+06     8.08155E+06     6.82020E+06    -13.8853E+06    -24.0307E-03     55.3924E-03    -31.3618E-03     53.8145E-03    -24.3674E-03     55.5228E-03    -31.2560E-03     53.5972E-03
            1373     15.7243E-03     115.456E-03    -57.5935E+06     34.7362E+06     14.1139E+06    -929.593E+03    -18.2499E-03     49.5920E-03    -31.3421E-03     76.2701E-03    -18.6830E-03     49.9048E-03    -31.2384E-03     76.1917E-03
            1374     16.5954E-03     115.681E-03    -64.4614E+06     6.37724E+06    -24.1530E+06     19.1604E+06    -766.219E-06     31.3073E-03    -30.5411E-03     82.5962E-03    -1.16379E-03     31.5581E-03    -30.5776E-03     82.8106E-03
            1375     16.6555E-03     57.4543E-03    -5.75202E+06     144.448E+06     74.9140E+06     836.723E+03    -26.9599E-03     53.4251E-03    -26.4652E-03     83.5179E-03    -28.2623E-03     55.0026E-03    -26.2917E-03     83.8411E-03
            1376     15.7793E-03     57.3155E-03    -10.8230E+06     126.704E+06     30.2613E+06     1.15496E+06    -29.3008E-03     55.5955E-03    -26.2947E-03     130.666E-03    -30.8932E-03     57.5115E-03    -26.3114E-03     130.787E-03
            1377     14.9026E-03     57.2018E-03    -10.0306E+06     72.8698E+06    -5.19066E+06     237.254E+03    -28.5394E-03     54.7354E-03    -26.1961E-03     107.744E-03    -29.3295E-03     55.7637E-03    -26.3131E-03     107.570E-03
            1378     14.0259E-03     57.1110E-03    -8.68358E+06     17.7646E+06    -7.17390E+06    -960.526E+03    -27.8838E-03     54.1543E-03    -26.2705E-03     88.0276E-03    -28.2422E-03     54.5658E-03    -26.3196E-03     87.8278E-03
            1379     13.1492E-03     57.0348E-03    -8.40401E+06    -16.9929E+06    -3.78619E+06    -564.397E+03    -27.5838E-03     53.9286E-03    -26.3449E-03     76.5695E-03    -27.7694E-03     54.0351E-03    -26.3270E-03     76.4005E-03
            1380     12.2724E-03     56.9659E-03    -8.98053E+06    -36.2190E+06    -1.56498E+06    -335.044E+03    -27.4220E-03     53.8134E-03    -26.3914E-03     69.8132E-03    -27.5251E-03     53.7606E-03    -26.3337E-03     69.6741E-03
            1381     11.3959E-03     56.9026E-03    -9.95507E+06    -48.4650E+06    -280.474E+03    -275.145E+03    -27.3080E-03     53.7313E-03    -26.4233E-03     64.7467E-03    -27.3641E-03     53.5809E-03    -26.3400E-03     64.6324E-03
            1382     10.5191E-03     56.8433E-03    -10.8410E+06    -57.2096E+06     1.52840E+06    -32.1935E+03    -27.1925E-03     53.6449E-03    -26.4524E-03     59.9305E-03    -27.2194E-03     53.4259E-03    -26.3461E-03     59.8397E-03
            1383     9.64256E-03     56.7890E-03    -12.0557E+06    -64.6496E+06     2.12996E+06     166.343E+03    -27.0927E-03     53.5662E-03    -26.4736E-03     55.2228E-03    -27.0996E-03     53.2947E-03    -26.3517E-03     55.1518E-03
            1384     8.76584E-03     56.7386E-03    -13.5881E+06    -71.4480E+06     1.85628E+06     109.007E+03    -26.9828E-03     53.4724E-03    -26.4897E-03     50.6234E-03    -26.9758E-03     53.1582E-03    -26.3571E-03     50.5662E-03
            1385     7.88927E-03     56.6929E-03    -15.3305E+06    -77.7953E+06     1.15253E+06     109.454E+03    -26.8813E-03     53.3851E-03    -26.5038E-03     45.9067E-03    -26.8648E-03     53.0346E-03    -26.3630E-03     45.8615E-03
            1386     7.01260E-03     56.6516E-03    -17.3270E+06    -84.9484E+06    -839.346E+03     136.941E+03    -26.7903E-03     53.3036E-03    -26.5132E-03     41.0697E-03    -26.7648E-03     52.9173E-03    -26.3691E-03     41.0349E-03
            1387     6.13602E-03     56.6150E-03    -19.3170E+06    -91.7395E+06    -4.18144E+06     61.8848E+03    -26.7102E-03     53.2258E-03    -26.5156E-03     36.1291E-03    -26.6758E-03     52.8092E-03    -26.3755E-03     36.1015E-03
            1388     5.25938E-03     56.5830E-03    -21.2339E+06    -96.9288E+06    -8.30692E+06     49.4182E+03    -26.6392E-03     53.1511E-03    -26.5119E-03     31.1090E-03    -26.5980E-03     52.7144E-03    -26.3821E-03     31.0880E-03
            1389     4.38281E-03     56.5559E-03    -23.2837E+06    -103.588E+06    -12.6060E+06     149.520E+03    -26.5855E-03     53.0951E-03    -26.5096E-03     25.9999E-03    -26.5366E-03     52.6324E-03    -26.3887E-03     25.9856E-03
            1390     3.50622E-03     56.5336E-03    -25.1382E+06    -109.942E+06    -17.0553E+06     82.9816E+03    -26.5453E-03     53.0505E-03    -26.5052E-03     20.8470E-03    -26.4887E-03     52.5639E-03    -26.3946E-03     20.8361E-03
            1391     2.62965E-03     56.5163E-03    -26.8832E+06    -114.555E+06    -22.0605E+06    -16.2117E+03    -26.5142E-03     53.0088E-03    -26.4946E-03     15.6946E-03    -26.4515E-03     52.5080E-03    -26.3999E-03     15.6861E-03
            1392     1.75308E-03     56.5038E-03    -28.4100E+06    -117.478E+06    -26.1877E+06    -89.9560E+03    -26.4922E-03     52.9775E-03    -26.4853E-03     10.5740E-03    -26.4264E-03     52.4698E-03    -26.4047E-03     10.5676E-03
            1393     876.554E-06     56.4962E-03    -29.3061E+06    -118.979E+06    -28.5317E+06    -45.5112E+03    -26.4646E-03     52.9638E-03    -26.4991E-03     5.71108E-03    -26.3974E-03     52.4530E-03    -26.4268E-03     5.70772E-03
            1394     16.6586E-03     56.4536E-03    -2.51574E+06     143.770E+06     80.0910E+06     1.51755E+06    -27.6851E-03     54.1205E-03    -26.4353E-03     84.6293E-03    -28.9767E-03     55.6813E-03    -26.2397E-03     84.9665E-03
            1395     15.7809E-03     56.3178E-03    -3.04074E+06     128.702E+06     36.4100E+06     1.27180E+06    -28.6288E-03     54.8891E-03    -26.2603E-03     131.579E-03    -30.1858E-03     56.7866E-03    -26.2605E-03     131.720E-03
            1396     14.9028E-03     56.2022E-03    -4.26155E+06     73.6416E+06    -4.99199E+06    -307.086E+03    -28.0536E-03     54.2257E-03    -26.1721E-03     108.216E-03    -28.8130E-03     55.2458E-03    -26.2976E-03     108.043E-03
            1397     14.0259E-03     56.1117E-03    -5.12116E+06     17.0889E+06    -7.27980E+06     52.4770E+03    -27.8300E-03     54.0983E-03    -26.2683E-03     88.0755E-03    -28.1693E-03     54.5012E-03    -26.3220E-03     87.8890E-03
            1398     13.1491E-03     56.0353E-03    -7.15289E+06    -17.2153E+06    -3.94879E+06     485.772E+03    -27.5994E-03     53.9467E-03    -26.3472E-03     76.4649E-03    -27.7783E-03     54.0505E-03    -26.3316E-03     76.3091E-03
            1399     12.2725E-03     55.9667E-03    -8.80983E+06    -35.9945E+06    -1.64365E+06     394.505E+03    -27.4119E-03     53.8072E-03    -26.3953E-03     69.7448E-03    -27.5142E-03     53.7552E-03    -26.3386E-03     69.6151E-03
            1400     11.3957E-03     55.9030E-03    -10.0267E+06    -48.2751E+06    -515.072E+03     89.3299E+03    -27.3120E-03     53.7393E-03    -26.4273E-03     64.6863E-03    -27.3683E-03     53.5901E-03    -26.3453E-03     64.5767E-03
            1401     10.5192E-03     55.8441E-03    -11.3079E+06    -57.5578E+06     1.21949E+06    -18.3506E+03    -27.2166E-03     53.6730E-03    -26.4564E-03     59.8922E-03    -27.2449E-03     53.4533E-03    -26.3505E-03     59.8014E-03
            1402     9.64243E-03     55.7894E-03    -12.4387E+06    -64.6514E+06     2.12225E+06     103.576E+03    -27.1051E-03     53.5820E-03    -26.4769E-03     55.1668E-03    -27.1139E-03     53.3110E-03    -26.3545E-03     55.0949E-03
            1403     8.76591E-03     55.7394E-03    -13.7641E+06    -71.4054E+06     2.08327E+06     134.823E+03    -26.9947E-03     53.4873E-03    -26.4926E-03     50.5810E-03    -26.9890E-03     53.1732E-03    -26.3587E-03     50.5240E-03
            1404     7.88921E-03     55.6935E-03    -15.4371E+06    -77.7623E+06     1.29897E+06     61.5546E+03    -26.8876E-03     53.3928E-03    -26.5052E-03     45.8883E-03    -26.8718E-03     53.0424E-03    -26.3636E-03     45.8425E-03
            1405     7.01264E-03     55.6523E-03    -17.2503E+06    -85.0072E+06    -476.646E+03     62.0329E+03    -26.7987E-03     53.3133E-03    -26.5147E-03     41.0481E-03    -26.7732E-03     52.9262E-03    -26.3688E-03     41.0123E-03
            1406     6.13599E-03     55.6156E-03    -19.4117E+06    -91.5040E+06    -3.83677E+06     2.66847E+03    -26.7159E-03     53.2314E-03    -26.5156E-03     36.1127E-03    -26.6828E-03     52.8157E-03    -26.3739E-03     36.0843E-03
            1407     5.25943E-03     55.5837E-03    -21.8095E+06    -97.1755E+06    -8.32248E+06     3.61975E+03    -26.6395E-03     53.1498E-03    -26.5103E-03     31.0971E-03    -26.6007E-03     52.7128E-03    -26.3794E-03     31.0755E-03
            1408     4.38281E-03     55.5565E-03    -23.9405E+06    -103.422E+06    -13.6557E+06     9.44316E+03    -26.5808E-03     53.0826E-03    -26.5019E-03     25.9977E-03    -26.5339E-03     52.6233E-03    -26.3855E-03     25.9816E-03
            1409     3.50623E-03     55.5343E-03    -25.7757E+06    -109.803E+06    -18.3526E+06    -210.933E+03    -26.5416E-03     53.0377E-03    -26.4960E-03     20.8465E-03    -26.4866E-03     52.5545E-03    -26.3912E-03     20.8319E-03
            1410     2.62967E-03     55.5169E-03    -27.2792E+06    -114.739E+06    -22.2763E+06    -128.001E+03    -26.5114E-03     53.0018E-03    -26.4904E-03     15.6907E-03    -26.4501E-03     52.5009E-03    -26.3958E-03     15.6807E-03
            1411     1.75312E-03     55.5045E-03    -28.4638E+06    -117.397E+06    -26.1456E+06    -5.92932E+03    -26.4884E-03     52.9691E-03    -26.4807E-03     10.5714E-03    -26.4230E-03     52.4617E-03    -26.3999E-03     10.5660E-03
            1412     876.523E-06     55.4968E-03    -29.3968E+06    -119.173E+06    -28.8152E+06    -174.098E+03    -26.4630E-03     52.9527E-03    -26.4897E-03     5.72557E-03    -26.3955E-03     52.4415E-03    -26.4183E-03     5.72053E-03
            1413     16.6566E-03     55.4541E-03    -3.49955E+06     141.893E+06     76.5941E+06    -1.17624E+06    -27.3647E-03     53.7809E-03    -26.4162E-03     84.5793E-03    -28.6524E-03     55.3378E-03    -26.2339E-03     84.8874E-03
            1414     15.7797E-03     55.3185E-03    -5.48726E+06     128.843E+06     38.7351E+06    -262.546E+03    -28.6081E-03     54.8871E-03    -26.2790E-03     132.056E-03    -30.1858E-03     56.7904E-03    -26.2642E-03     132.180E-03
            1415     14.9030E-03     55.2037E-03    -7.29750E+06     74.3915E+06    -562.894E+03     709.977E+03    -28.1351E-03     54.3353E-03    -26.2002E-03     108.843E-03    -28.9213E-03     55.3613E-03    -26.3003E-03     108.681E-03
            1416     14.0257E-03     55.1121E-03    -8.77767E+06     16.0827E+06    -8.21161E+06     1.11774E+06    -27.7985E-03     54.0706E-03    -26.2721E-03     88.3399E-03    -28.1521E-03     54.4739E-03    -26.3237E-03     88.1677E-03
            1417     13.1491E-03     55.0360E-03    -9.07617E+06    -16.7768E+06    -3.66279E+06     1.33356E+06    -27.6023E-03     53.9553E-03    -26.3531E-03     76.3578E-03    -27.7917E-03     54.0636E-03    -26.3339E-03     76.2128E-03
            1418     12.2724E-03     54.9673E-03    -9.58616E+06    -35.5530E+06    -1.25971E+06     857.939E+03    -27.4207E-03     53.8197E-03    -26.3989E-03     69.6923E-03    -27.5279E-03     53.7702E-03    -26.3398E-03     69.5687E-03
            1419     11.3958E-03     54.9037E-03    -10.3580E+06    -47.7105E+06     251.604E+03     343.928E+03    -27.3171E-03     53.7483E-03    -26.4312E-03     64.6618E-03    -27.3769E-03     53.6013E-03    -26.3457E-03     64.5554E-03
            1420     10.5191E-03     54.8445E-03    -11.1786E+06    -57.6221E+06     1.69413E+06    -3.67584E+03    -27.2256E-03     53.6839E-03    -26.4583E-03     59.8333E-03    -27.2539E-03     53.4630E-03    -26.3501E-03     59.7427E-03
            1421     9.64256E-03     54.7902E-03    -12.2855E+06    -64.6884E+06     2.52164E+06    -59.4910E+03    -27.1029E-03     53.5808E-03    -26.4779E-03     55.1278E-03    -27.1115E-03     53.3088E-03    -26.3537E-03     55.0538E-03
            1422     8.76583E-03     54.7399E-03    -13.6095E+06    -71.4893E+06     2.40354E+06    -6.55191E+03    -26.9953E-03     53.4885E-03    -26.4932E-03     50.5512E-03    -26.9891E-03     53.1732E-03    -26.3578E-03     50.4924E-03
            1423     7.88929E-03     54.6942E-03    -15.2001E+06    -77.6146E+06     1.69714E+06    -5.79259E+03    -26.8926E-03     53.3978E-03    -26.5052E-03     45.8582E-03    -26.8765E-03     53.0473E-03    -26.3622E-03     45.8115E-03
            1424     7.01261E-03     54.6528E-03    -17.1462E+06    -85.0526E+06    -427.656E+03    -85.7889E+03    -26.8003E-03     53.3131E-03    -26.5128E-03     41.0289E-03    -26.7743E-03     52.9255E-03    -26.3667E-03     40.9912E-03
            1425     6.13606E-03     54.6163E-03    -19.1899E+06    -91.5487E+06    -3.65257E+06     41.0981E+03    -26.7165E-03     53.2303E-03    -26.5138E-03     36.0916E-03    -26.6825E-03     52.8138E-03    -26.3715E-03     36.0637E-03
            1426     5.25941E-03     54.5843E-03    -21.3257E+06     -97.193E+06    -8.23759E+06     96.3718E+03    -26.6418E-03     53.1490E-03    -26.5072E-03     31.0798E-03    -26.6008E-03     52.7111E-03    -26.3765E-03     31.0594E-03
            1427     4.38284E-03     54.5572E-03    -23.4663E+06    -103.246E+06    -13.3746E+06    -33.1457E+03    -26.5844E-03     53.0830E-03    -26.4986E-03     25.9798E-03    -26.5358E-03     52.6234E-03    -26.3817E-03     25.9631E-03
            1428     3.50625E-03     54.5349E-03    -25.4928E+06    -109.660E+06    -18.1884E+06    -154.887E+03    -26.5391E-03     53.0308E-03    -26.4917E-03     20.8320E-03    -26.4831E-03     52.5478E-03    -26.3867E-03     20.8181E-03
            1429     2.62967E-03     54.5177E-03    -27.4569E+06    -115.081E+06    -22.5823E+06    -199.118E+03    -26.5070E-03     52.9919E-03    -26.4849E-03     15.6800E-03    -26.4457E-03     52.4901E-03    -26.3912E-03     15.6691E-03
            1430     1.75309E-03     54.5052E-03    -29.0005E+06    -117.440E+06    -26.7807E+06     17.4531E+03    -26.4858E-03     52.9581E-03    -26.4723E-03     10.5704E-03    -26.4221E-03     52.4522E-03    -26.3939E-03     10.5653E-03
            1431     876.588E-06     54.4976E-03    -29.9136E+06    -119.164E+06    -29.5342E+06     94.3641E+03    -26.4594E-03     52.9337E-03    -26.4742E-03     5.69790E-03    -26.3935E-03     52.4243E-03    -26.4057E-03     5.69634E-03
            1432     16.6578E-03     54.4557E-03    -5.33830E+06     143.197E+06     71.4929E+06    -1.30250E+06    -27.0290E-03     53.4444E-03    -26.4155E-03     84.5719E-03    -28.3229E-03     55.0205E-03    -26.2579E-03     84.8788E-03
            1433     15.7798E-03     54.3193E-03    -10.2367E+06     126.175E+06     28.3865E+06    -1.42068E+06    -28.8369E-03     55.1031E-03    -26.2663E-03     132.265E-03    -30.4250E-03     57.0205E-03    -26.2924E-03     132.366E-03
            1434     14.9025E-03     54.2044E-03    -10.8565E+06     73.4646E+06    -4.61260E+06     712.030E+03    -28.4535E-03     54.6535E-03    -26.2000E-03     108.858E-03    -29.2526E-03     55.6882E-03    -26.3138E-03     108.690E-03
            1435     14.0260E-03     54.1128E-03    -10.4758E+06     16.9218E+06    -7.41191E+06     1.02650E+06    -27.8891E-03     54.1675E-03    -26.2785E-03     88.3938E-03    -28.2535E-03     54.5764E-03    -26.3249E-03     88.2196E-03
            1436     13.1491E-03     54.0365E-03    -10.0484E+06    -16.9936E+06    -3.27509E+06     398.669E+03    -27.5684E-03     53.9241E-03    -26.3557E-03     76.3243E-03    -27.7624E-03     54.0316E-03    -26.3329E-03     76.1677E-03
            1437     12.2725E-03     53.9680E-03    -9.41038E+06    -34.8137E+06    -681.581E+03     396.864E+03    -27.4475E-03     53.8468E-03    -26.3993E-03     69.6411E-03    -27.5556E-03     53.7999E-03    -26.3386E-03     69.5115E-03
            1438     11.3958E-03     53.9043E-03    -9.44737E+06    -47.6120E+06     998.130E+03     195.630E+03    -27.3362E-03     53.7666E-03    -26.4304E-03     64.6569E-03    -27.3927E-03     53.6177E-03    -26.3427E-03     64.5486E-03
            1439     10.5192E-03     53.8452E-03    -10.3568E+06    -57.2468E+06     2.15704E+06     159.909E+03    -27.2151E-03     53.6706E-03    -26.4555E-03     59.8118E-03    -27.2404E-03     53.4496E-03    -26.3467E-03     59.7235E-03
            1440     9.64248E-03     53.7907E-03    -11.7774E+06    -64.8137E+06     2.64114E+06     9.22937E+03    -27.1017E-03     53.5767E-03    -26.4749E-03     55.1045E-03    -27.1077E-03     53.3031E-03    -26.3507E-03     55.0315E-03
            1441     8.76594E-03     53.7406E-03    -13.3609E+06    -71.3706E+06     2.31019E+06    -31.7716E+03    -26.9972E-03     53.4861E-03    -26.4889E-03     50.5259E-03    -26.9898E-03     53.1713E-03    -26.3545E-03     50.4668E-03
            1442     7.88925E-03     53.6947E-03    -15.1500E+06    -77.7192E+06     1.38898E+06    -15.7459E+03    -26.8927E-03     53.3928E-03    -26.5001E-03     45.8267E-03    -26.8757E-03     53.0421E-03    -26.3585E-03     45.7799E-03
            1443     7.01269E-03     53.6535E-03    -17.2342E+06    -84.9235E+06    -838.304E+03     35.8122E+03    -26.7965E-03     53.3033E-03    -26.5068E-03     40.9984E-03    -26.7705E-03     52.9170E-03    -26.3628E-03     40.9623E-03
            1444     6.13602E-03     53.6169E-03    -19.5086E+06    -91.7331E+06    -4.23633E+06    -55.1240E+03    -26.7114E-03     53.2190E-03    -26.5076E-03     36.0653E-03    -26.6779E-03     52.8029E-03    -26.3675E-03     36.0361E-03
            1445     5.25946E-03     53.5850E-03    -21.6029E+06    -97.1142E+06    -8.41780E+06    -20.8676E+03    -26.6405E-03     53.1427E-03    -26.5022E-03     31.0563E-03    -26.6007E-03     52.7059E-03    -26.3722E-03     31.0343E-03
            1446     4.38285E-03     53.5578E-03    -23.5595E+06    -103.165E+06    -13.4062E+06    -48.6417E+03    -26.5818E-03     53.0751E-03    -26.4934E-03     25.9600E-03    -26.5338E-03     52.6161E-03    -26.3766E-03     25.9430E-03
            1447     3.50627E-03     53.5357E-03    -25.4897E+06    -109.703E+06    -18.1689E+06    -4.68080E+03    -26.5355E-03     53.0217E-03    -26.4862E-03     20.8156E-03    -26.4794E-03     52.5384E-03    -26.3811E-03     20.8036E-03
            1448     2.62969E-03     53.5183E-03    -27.3489E+06    -115.204E+06    -22.7764E+06     151.405E+03    -26.5033E-03     52.9811E-03    -26.4778E-03     15.6678E-03    -26.4409E-03     52.4787E-03    -26.3850E-03     15.6614E-03
            1449     1.75314E-03     53.5059E-03    -28.9321E+06    -117.508E+06    -26.8616E+06     176.395E+03    -26.4769E-03     52.9434E-03    -26.4665E-03     10.5651E-03    -26.4126E-03     52.4372E-03    -26.3885E-03     10.5621E-03
            1450     876.527E-06     53.4982E-03    -29.7980E+06    -118.906E+06    -29.1803E+06     175.533E+03    -26.4651E-03     52.9258E-03    -26.4607E-03     5.71278E-03    -26.3995E-03     52.4170E-03    -26.3910E-03     5.71227E-03
            1451     16.6552E-03     53.4559E-03    -4.37494E+06     144.371E+06     73.9642E+06     286.377E+03    -26.9282E-03     53.3743E-03    -26.4460E-03     84.6741E-03    -28.2202E-03     54.9488E-03    -26.2792E-03     84.9969E-03
            1452     15.7787E-03     53.3200E-03    -8.42723E+06     125.864E+06     25.9237E+06    -320.253E+03    -29.1192E-03     55.3876E-03    -26.2684E-03     131.885E-03    -30.6881E-03     57.2982E-03    -26.3091E-03     131.989E-03
            1453     14.9026E-03     53.2045E-03    -9.24762E+06     71.7258E+06    -8.54247E+06    -404.133E+03    -28.6144E-03     54.7994E-03    -26.1850E-03     108.537E-03    -29.3960E-03     55.8275E-03    -26.3183E-03     108.353E-03
            1454     14.0259E-03     53.1136E-03    -8.36148E+06     17.4068E+06    -6.63248E+06     370.171E+03    -27.9578E-03     54.2340E-03    -26.2762E-03     88.1879E-03    -28.3139E-03     54.6414E-03    -26.3224E-03     88.0047E-03
            1455     13.1492E-03     53.0371E-03    -8.16300E+06    -16.4069E+06    -3.50102E+06    -9.20419E+03    -27.5816E-03     53.9275E-03    -26.3460E-03     76.3114E-03    -27.7661E-03     54.0350E-03    -26.3278E-03     76.1501E-03
            1456     12.2725E-03     52.9685E-03    -8.61181E+06    -35.0171E+06    -1.28260E+06    -311.231E+03    -27.4412E-03     53.8314E-03    -26.3902E-03     69.5800E-03    -27.5441E-03     53.7831E-03    -26.3333E-03     69.4414E-03
            1457     11.3959E-03     52.9049E-03    -9.37732E+06    -47.8760E+06     270.984E+03     309.729E+03    -27.3294E-03     53.7514E-03    -26.4220E-03     64.6202E-03    -27.3841E-03     53.6021E-03    -26.3377E-03     64.5135E-03
            1458     10.5192E-03     52.8458E-03    -10.5542E+06    -56.9286E+06     1.73210E+06     367.634E+03    -27.2117E-03     53.6599E-03    -26.4481E-03     59.7839E-03    -27.2378E-03     53.4414E-03    -26.3416E-03     59.6983E-03
            1459     9.64261E-03     52.7913E-03    -11.8113E+06    -64.6727E+06     2.20079E+06     169.751E+03    -27.1024E-03     53.5695E-03    -26.4671E-03     55.0618E-03    -27.1081E-03     53.2973E-03    -26.3451E-03     54.9908E-03
            1460     8.76592E-03     52.7412E-03    -13.3353E+06    -71.3340E+06     1.99471E+06     114.753E+03    -26.9938E-03     53.4751E-03    -26.4813E-03     50.4815E-03    -26.9859E-03     53.1608E-03    -26.3485E-03     50.4243E-03
            1461     7.88935E-03     52.6954E-03    -15.1534E+06    -77.7382E+06     1.05437E+06     109.434E+03    -26.8862E-03     53.3785E-03    -26.4923E-03     45.7883E-03    -26.8687E-03     53.0282E-03    -26.3523E-03     45.7430E-03
            1462     7.01269E-03     52.6541E-03    -17.1378E+06    -84.9941E+06    -936.233E+03     161.224E+03    -26.7888E-03     53.2889E-03    -26.5002E-03     40.9617E-03    -26.7620E-03     52.9023E-03    -26.3568E-03     40.9272E-03
            1463     6.13612E-03     52.6176E-03    -19.3824E+06    -91.5485E+06    -4.21856E+06     187.413E+03    -26.7047E-03     53.2061E-03    -26.5014E-03     36.0439E-03    -26.6709E-03     52.7907E-03    -26.3616E-03     36.0179E-03
            1464     5.25947E-03     52.5856E-03    -21.8409E+06    -97.0087E+06    -8.46605E+06    -90.2748E+03    -26.6291E-03     53.1258E-03    -26.4967E-03     31.0447E-03    -26.5906E-03     52.6899E-03    -26.3667E-03     31.0218E-03
            1465     4.38289E-03     52.5586E-03    -23.9643E+06    -103.179E+06    -13.7463E+06    -204.866E+03    -26.5697E-03     53.0574E-03    -26.4877E-03     25.9570E-03    -26.5232E-03     52.5994E-03    -26.3721E-03     25.9380E-03
            1466     3.50629E-03     52.5363E-03    -25.8269E+06    -110.106E+06    -18.6922E+06     84.2903E+03    -26.5294E-03     53.0104E-03    -26.4810E-03     20.8210E-03    -26.4736E-03     52.5263E-03    -26.3774E-03     20.8102E-03
            1467     2.62971E-03     52.5191E-03    -27.5812E+06    -115.106E+06    -22.6796E+06     326.583E+03    -26.4982E-03     52.9734E-03    -26.4752E-03     15.6778E-03    -26.4373E-03     52.4717E-03    -26.3817E-03     15.6737E-03
            1468     1.75311E-03     52.5066E-03    -28.8918E+06    -117.269E+06    -26.3816E+06     147.667E+03    -26.4709E-03     52.9368E-03    -26.4658E-03     10.5707E-03    -26.4075E-03     52.4310E-03    -26.3858E-03     10.5672E-03
            1469     876.583E-06     52.4990E-03    -29.6418E+06    -118.757E+06    -28.9524E+06    -30.1443E+03    -26.4689E-03     52.9227E-03    -26.4538E-03     5.72310E-03    -26.4031E-03     52.4141E-03    -26.3833E-03     5.71994E-03
            1470     16.6570E-03     52.4564E-03    -4.27024E+06     144.614E+06     75.8221E+06     634.026E+03    -27.1483E-03     53.5917E-03    -26.4434E-03     84.6944E-03    -28.4372E-03     55.1590E-03    -26.2678E-03     85.0184E-03
            1471     15.7799E-03     52.3204E-03    -6.73285E+06     127.458E+06     28.3927E+06    -404.300E+03    -29.0509E-03     55.3086E-03    -26.2577E-03     131.130E-03    -30.6076E-03     57.2115E-03    -26.2907E-03     131.235E-03
            1472     14.9027E-03     52.2050E-03    -6.91119E+06     70.2982E+06    -8.95192E+06    -798.142E+03    -28.4978E-03     54.6643E-03    -26.1664E-03     108.245E-03    -29.2635E-03     55.6809E-03    -26.3031E-03     108.059E-03
            1473     14.0260E-03     52.1140E-03    -6.90300E+06     16.6457E+06    -7.55762E+06     267.437E+03    -27.9216E-03     54.1805E-03    -26.2589E-03     87.8552E-03    -28.2673E-03     54.5827E-03    -26.3108E-03     87.6711E-03
            1474     13.1494E-03     52.0377E-03    -7.74727E+06    -15.3146E+06    -3.75931E+06     587.116E+03    -27.5600E-03     53.8917E-03    -26.3317E-03     76.1831E-03    -27.7437E-03     54.0043E-03    -26.3170E-03     76.0295E-03
            1475     12.2727E-03     51.9691E-03    -9.32924E+06    -35.4688E+06    -1.83207E+06     433.212E+03    -27.3979E-03     53.7775E-03    -26.3796E-03     69.5402E-03    -27.5030E-03     53.7289E-03    -26.3238E-03     69.4113E-03
            1476     11.3959E-03     51.9056E-03    -10.7109E+06    -47.9146E+06    -743.238E+03     338.762E+03    -27.3119E-03     53.7225E-03    -26.4106E-03     64.5751E-03    -27.3718E-03     53.5764E-03    -26.3293E-03     64.4687E-03
            1477     10.5193E-03     51.8464E-03    -11.3966E+06    -56.7614E+06     1.27931E+06     195.279E+03    -27.2059E-03     53.6441E-03    -26.4382E-03     59.7291E-03    -27.2358E-03     53.4284E-03    -26.3330E-03     59.6411E-03
            1478     9.64265E-03     51.7920E-03    -12.3574E+06    -64.5197E+06     1.90968E+06     130.460E+03    -27.0894E-03     53.5467E-03    -26.4572E-03     55.0194E-03    -27.0977E-03     53.2764E-03    -26.3362E-03     54.9480E-03
            1479     8.76605E-03     51.7418E-03    -13.7059E+06    -71.4037E+06     1.93552E+06     129.451E+03    -26.9780E-03     53.4509E-03    -26.4729E-03     50.4502E-03    -26.9718E-03     53.1369E-03    -26.3398E-03     50.3931E-03
            1480     7.88939E-03     51.6960E-03    -15.3317E+06    -77.6555E+06     1.18690E+06     150.143E+03    -26.8659E-03     53.3510E-03    -26.4852E-03     45.7644E-03    -26.8495E-03     53.0012E-03    -26.3444E-03     45.7198E-03
            1481     7.01278E-03     51.6548E-03    -17.2141E+06    -85.0638E+06    -813.092E+03     110.191E+03    -26.7716E-03     53.2660E-03    -26.4943E-03     40.9620E-03    -26.7454E-03     52.8790E-03    -26.3501E-03     40.9268E-03
            1482     6.13611E-03     51.6182E-03    -19.0969E+06    -91.5283E+06    -4.00579E+06     169.669E+03    -26.6896E-03     53.1863E-03    -26.4967E-03     36.0514E-03    -26.6547E-03     52.7703E-03    -26.3563E-03     36.0251E-03
            1483     5.25952E-03     51.5864E-03    -21.0272E+06    -96.4724E+06    -8.09301E+06     11.0215E+03    -26.6151E-03     53.1084E-03    -26.4933E-03     31.0583E-03    -26.5739E-03     52.6735E-03    -26.3634E-03     31.0368E-03
            1484     4.38288E-03     51.5592E-03    -23.2889E+06    -103.523E+06    -12.7117E+06    -131.998E+03    -26.5626E-03     53.0536E-03    -26.4911E-03     25.9655E-03    -26.5137E-03     52.5914E-03    -26.3707E-03     25.9475E-03
            1485     3.50628E-03     51.5371E-03    -25.5647E+06    -110.488E+06    -17.6100E+06     229.345E+03    -26.5243E-03     53.0110E-03    -26.4868E-03     20.8274E-03    -26.4682E-03     52.5231E-03    -26.3775E-03     20.8185E-03
            1486     2.62969E-03     51.5197E-03    -27.3757E+06    -114.712E+06    -22.1346E+06     137.495E+03    -26.4949E-03     52.9735E-03    -26.4787E-03     15.6879E-03    -26.4343E-03     52.4728E-03    -26.3833E-03     15.6814E-03
            1487     1.75314E-03     51.5073E-03    -28.6271E+06    -117.126E+06    -26.0487E+06    -113.010E+03    -26.4772E-03     52.9455E-03    -26.4683E-03     10.5795E-03    -26.4131E-03     52.4396E-03    -26.3872E-03     10.5728E-03
            1488     876.533E-06     51.4996E-03    -29.5655E+06    -118.849E+06    -28.9325E+06    -1.69140E+03    -26.4859E-03     52.9240E-03    -26.4382E-03     5.73228E-03    -26.4195E-03     52.4148E-03    -26.3676E-03     5.72951E-03
            1489     16.6569E-03     51.4564E-03    -4.12728E+06     144.575E+06     74.2314E+06     206.840E+03    -27.5175E-03     53.9222E-03    -26.4047E-03     84.5106E-03    -28.8073E-03     55.4953E-03    -26.2372E-03     84.8285E-03
            1490     15.7800E-03     51.3215E-03    -7.53298E+06     128.384E+06     30.3886E+06    -87.7335E+03    -28.8531E-03     55.0846E-03    -26.2315E-03     131.392E-03    -30.4254E-03     56.9978E-03    -26.2548E-03     131.506E-03
            1491     14.9032E-03     51.2055E-03    -10.3564E+06     70.3609E+06    -6.97144E+06    -640.174E+03    -28.3581E-03     54.5104E-03    -26.1522E-03     108.026E-03    -29.1442E-03     55.5296E-03    -26.2741E-03     107.843E-03
            1492     14.0264E-03     51.1148E-03    -10.1937E+06     15.4997E+06    -8.71354E+06    -710.309E+03    -27.6918E-03     53.9307E-03    -26.2389E-03     87.8500E-03    -28.0499E-03     54.3329E-03    -26.2901E-03     87.6556E-03
            1493     13.1495E-03     51.0384E-03    -9.40938E+06    -16.0331E+06    -3.41042E+06     810.150E+03    -27.4674E-03     53.7922E-03    -26.3248E-03     76.2784E-03    -27.6593E-03     53.9037E-03    -26.3050E-03     76.1279E-03
            1494     12.2727E-03     50.9699E-03    -9.86098E+06    -34.8523E+06    -951.673E+03     1.19589E+06    -27.3963E-03     53.7703E-03    -26.3740E-03     69.6214E-03    -27.5066E-03     53.7246E-03    -26.3139E-03     69.5020E-03
            1495     11.3961E-03     50.9061E-03    -10.4534E+06    -47.2377E+06     78.8476E+03     222.502E+03    -27.3161E-03     53.7186E-03    -26.4025E-03     64.5743E-03    -27.3770E-03     53.5745E-03    -26.3184E-03     64.4662E-03
            1496     10.5194E-03     50.8471E-03    -11.2616E+06    -56.8714E+06     1.71827E+06    -110.003E+03    -27.1808E-03     53.6103E-03    -26.4295E-03     59.7264E-03    -27.2105E-03     53.3931E-03    -26.3221E-03     59.6346E-03
            1497     9.64278E-03     50.7926E-03    -12.3027E+06    -64.4766E+06     2.40274E+06    -3.87706E+03    -27.0631E-03     53.5131E-03    -26.4500E-03     55.0419E-03    -27.0718E-03     53.2423E-03    -26.3267E-03     54.9687E-03
            1498     8.76612E-03     50.7424E-03    -13.6082E+06    -71.4368E+06     2.34081E+06    -2.86748E+03    -26.9516E-03     53.4186E-03    -26.4670E-03     50.4703E-03    -26.9454E-03     53.1037E-03    -26.3320E-03     50.4117E-03
            1499     7.88946E-03     50.6967E-03    -15.1692E+06    -77.6453E+06     1.61268E+06     1.72401E+03    -26.8413E-03     53.3226E-03    -26.4813E-03     45.8003E-03    -26.8248E-03     52.9719E-03    -26.3387E-03     45.7538E-03
            1500     7.01278E-03     50.6555E-03    -16.8955E+06    -84.9713E+06    -458.740E+03    -55.8691E+03    -26.7533E-03     53.2452E-03    -26.4919E-03     40.9963E-03    -26.7261E-03     52.8576E-03    -26.3465E-03     40.9591E-03
            1501     6.13616E-03     50.6189E-03    -18.7401E+06    -91.5588E+06    -3.78905E+06    -180.153E+03    -26.6738E-03     53.1697E-03    -26.4959E-03     36.0818E-03    -26.6373E-03     52.7527E-03    -26.3549E-03     36.0512E-03
            1502     5.25949E-03     50.5870E-03    -20.6218E+06    -96.3351E+06    -7.97456E+06    -131.413E+03    -26.6060E-03     53.0998E-03    -26.4938E-03     31.0828E-03    -26.5631E-03     52.6648E-03    -26.3641E-03     31.0595E-03
            1503     4.38287E-03     50.5600E-03    -22.7542E+06    -103.896E+06    -11.8255E+06     186.635E+03    -26.5624E-03     53.0598E-03    -26.4974E-03     25.9759E-03    -26.5116E-03     52.5937E-03    -26.3729E-03     25.9621E-03
            1504     3.50628E-03     50.5377E-03    -25.0165E+06    -110.496E+06    -16.2429E+06     261.317E+03    -26.5246E-03     53.0205E-03    -26.4959E-03     20.8298E-03    -26.4678E-03     52.5297E-03    -26.3806E-03     20.8213E-03
            1505     2.62969E-03     50.5205E-03    -26.9490E+06    -114.220E+06    -21.7794E+06     12.7988E+03    -26.4948E-03     52.9783E-03    -26.4835E-03     15.7003E-03    -26.4333E-03     52.4788E-03    -26.3877E-03     15.6922E-03
            1506     1.75309E-03     50.5080E-03    -28.5040E+06    -117.337E+06    -26.3399E+06    -83.4792E+03    -26.4843E-03     52.9565E-03    -26.4722E-03     10.5896E-03    -26.4189E-03     52.4498E-03    -26.3924E-03     10.5832E-03
            1507     876.593E-06     50.5004E-03    -29.3463E+06    -118.864E+06    -28.8655E+06     47.8709E+03    -26.4731E-03     52.9353E-03    -26.4623E-03     5.74085E-03    -26.4057E-03     52.4256E-03    -26.3917E-03     5.73871E-03
            1508     16.6587E-03     50.4600E-03    -4.55568E+06     144.259E+06     74.0285E+06     73.0839E+03    -27.7172E-03     54.1136E-03    -26.3964E-03     84.4091E-03    -29.0126E-03     55.6902E-03    -26.2288E-03     84.7189E-03
            1509     15.7805E-03     50.3207E-03    -6.77619E+06     128.290E+06     29.9088E+06     779.634E+03    -28.9324E-03     55.1457E-03    -26.2133E-03     131.931E-03    -30.5046E-03     57.0625E-03    -26.2399E-03     132.054E-03
            1510     14.9041E-03     50.2070E-03    -7.61351E+06     72.1815E+06    -6.59564E+06     444.668E+03    -28.2030E-03     54.3396E-03    -26.1366E-03     108.610E-03    -28.9788E-03     55.3637E-03    -26.2632E-03     108.444E-03
            1511     14.0265E-03     50.1156E-03    -8.92716E+06     14.8541E+06    -8.08444E+06    -320.025E+03    -27.6954E-03     53.9319E-03    -26.2365E-03     88.4557E-03    -28.0494E-03     54.3304E-03    -26.2855E-03     88.2661E-03
            1512     13.1495E-03     50.0393E-03    -9.84724E+06    -17.7787E+06    -3.67261E+06     151.363E+03    -27.4801E-03     53.8027E-03    -26.3227E-03     76.5983E-03    -27.6717E-03     53.9069E-03    -26.3010E-03     76.4393E-03
            1513     12.2728E-03     49.9704E-03    -9.21289E+06    -34.0091E+06    -317.943E+03     432.492E+03    -27.4365E-03     53.8060E-03    -26.3695E-03     69.7648E-03    -27.5460E-03     53.7630E-03    -26.3084E-03     69.6353E-03
            1514     11.3962E-03     49.9068E-03    -9.25752E+06    -46.6764E+06     1.26580E+06     223.119E+03    -27.3076E-03     53.7068E-03    -26.3992E-03     64.6303E-03    -27.3651E-03     53.5620E-03    -26.3118E-03     64.5223E-03
            1515     10.5195E-03     49.8478E-03    -10.3107E+06    -56.8490E+06     2.37692E+06     55.1836E+03    -27.1643E-03     53.5900E-03    -26.4257E-03     59.8334E-03    -27.1902E-03     53.3706E-03    -26.3164E-03     59.7439E-03
            1516     9.64284E-03     49.7932E-03    -11.6862E+06    -64.5108E+06     2.82913E+06    -36.1063E+03    -27.0416E-03     53.4891E-03    -26.4474E-03     55.1265E-03    -27.0478E-03     53.2165E-03    -26.3228E-03     55.0531E-03
            1517     8.76614E-03     49.7432E-03    -13.1696E+06    -71.3899E+06     2.62238E+06    -62.5425E+03    -26.9279E-03     53.3940E-03    -26.4662E-03     50.5453E-03    -26.9199E-03     53.0782E-03    -26.3304E-03     50.4861E-03
            1518     7.88945E-03     49.6974E-03    -14.8532E+06    -77.6626E+06     1.79690E+06    -126.504E+03    -26.8308E-03     53.3131E-03    -26.4823E-03     45.8657E-03    -26.8129E-03     52.9616E-03    -26.3392E-03     45.8177E-03
            1519     7.01279E-03     49.6562E-03    -16.7904E+06    -84.8680E+06    -435.059E+03    -181.704E+03    -26.7432E-03     53.2370E-03    -26.4938E-03     41.0440E-03    -26.7155E-03     52.8497E-03    -26.3486E-03     41.0053E-03
            1520     6.13610E-03     49.6196E-03    -18.9329E+06    -91.4847E+06    -3.91339E+06    -282.568E+03    -26.6693E-03     53.1683E-03    -26.4990E-03     36.1190E-03    -26.6337E-03     52.7520E-03    -26.3585E-03     36.0871E-03
            1521     5.25948E-03     49.5878E-03    -21.3183E+06    -96.8504E+06    -8.39836E+06    -51.9698E+03    -26.6057E-03     53.1035E-03    -26.4978E-03     31.1047E-03    -26.5649E-03     52.6675E-03    -26.3684E-03     31.0825E-03
            1522     4.38285E-03     49.5606E-03    -23.6074E+06    -104.000E+06    -13.0435E+06     228.595E+03    -26.5587E-03     53.0567E-03    -26.4980E-03     25.9953E-03    -26.5102E-03     52.5931E-03    -26.3782E-03     25.9821E-03
            1523     3.50625E-03     49.5385E-03    -25.4734E+06    -110.128E+06    -17.3561E+06     15.7511E+03    -26.5274E-03     53.0242E-03    -26.4968E-03     20.8510E-03    -26.4718E-03     52.5375E-03    -26.3869E-03     20.8394E-03
            1524     2.62966E-03     49.5211E-03    -27.1747E+06    -114.321E+06    -21.9838E+06     21.4356E+03    -26.5084E-03     52.9965E-03    -26.4881E-03     15.7059E-03    -26.4476E-03     52.4971E-03    -26.3928E-03     15.6979E-03
            1525     1.75312E-03     49.5087E-03    -28.6998E+06    -117.294E+06    -26.3583E+06     194.532E+03    -26.4853E-03     52.9618E-03    -26.4764E-03     10.5672E-03    -26.4210E-03     52.4556E-03    -26.3965E-03     10.5645E-03
            1526     876.513E-06     49.5010E-03    -29.8773E+06    -118.781E+06    -29.2376E+06     128.342E+03    -26.4471E-03     52.9409E-03    -26.4938E-03     5.73060E-03    -26.3819E-03     52.4330E-03    -26.4245E-03     5.72951E-03
            1527     16.6553E-03     49.4559E-03    -4.46165E+06     144.466E+06     74.4254E+06    -161.324E+03    -27.4056E-03     53.8294E-03    -26.4238E-03     85.2975E-03    -28.7063E-03     55.4113E-03    -26.2547E-03     85.6123E-03
            1528     15.7811E-03     49.3237E-03    -6.60354E+06     127.219E+06     27.0831E+06    -282.872E+03    -29.0802E-03     55.3108E-03    -26.2306E-03     131.912E-03    -30.6460E-03     57.2262E-03    -26.2701E-03     132.023E-03
            1529     14.9021E-03     49.2070E-03    -7.50347E+06     71.5425E+06    -9.18675E+06     1.05465E+06    -28.2878E-03     54.4390E-03    -26.1512E-03     109.464E-03    -29.0622E-03     55.4674E-03    -26.2899E-03     109.307E-03
            1530     14.0262E-03     49.1166E-03    -8.42232E+06     16.1684E+06    -7.70187E+06     1.51848E+06    -27.9601E-03     54.2151E-03    -26.2549E-03     88.5367E-03    -28.3156E-03     54.6203E-03    -26.3047E-03     88.3679E-03
            1531     13.1495E-03     49.0400E-03    -9.14800E+06    -17.1777E+06    -4.09776E+06    -251.656E+03    -27.6472E-03     53.9725E-03    -26.3253E-03     76.8300E-03    -27.8362E-03     54.0800E-03    -26.3077E-03     76.6646E-03
            1532     12.2729E-03     48.9709E-03    -9.13815E+06    -34.5445E+06    -1.01159E+06    -754.643E+03    -27.4431E-03     53.8116E-03    -26.3685E-03     69.8690E-03    -27.5503E-03     53.7666E-03    -26.3102E-03     69.7244E-03
            1533     11.3962E-03     48.9076E-03    -9.29099E+06    -47.0168E+06     934.638E+03     82.1093E+03    -27.2887E-03     53.6896E-03    -26.4009E-03     64.7223E-03    -27.3452E-03     53.5434E-03    -26.3146E-03     64.6128E-03
            1534     10.5195E-03     48.8483E-03    -10.1533E+06    -56.5887E+06     2.38811E+06     319.142E+03    -27.1626E-03     53.5919E-03    -26.4293E-03     59.9290E-03    -27.1881E-03     53.3735E-03    -26.3206E-03     59.8430E-03
            1535     9.64278E-03     48.7940E-03    -11.4422E+06    -64.4019E+06     2.77959E+06     93.9775E+03    -27.0357E-03     53.4876E-03    -26.4519E-03     55.2030E-03    -27.0406E-03     53.2152E-03    -26.3280E-03     55.1315E-03
            1536     8.76607E-03     48.7438E-03    -12.9754E+06    -71.3508E+06     2.54639E+06    -14.1559E+03    -26.9317E-03     53.4033E-03    -26.4716E-03     50.6164E-03    -26.9227E-03     53.0875E-03    -26.3366E-03     50.5579E-03
            1537     7.88940E-03     48.6981E-03    -14.7857E+06    -77.6019E+06     1.59824E+06    -39.5143E+03    -26.8358E-03     53.3235E-03    -26.4878E-03     45.9042E-03    -26.8173E-03     52.9724E-03    -26.3458E-03     45.8574E-03
            1538     7.01271E-03     48.6569E-03    -16.8946E+06    -84.8581E+06    -681.239E+03    -71.1173E+03    -26.7512E-03     53.2507E-03    -26.4995E-03     41.0623E-03    -26.7238E-03     52.8640E-03    -26.3553E-03     41.0250E-03
            1539     6.13608E-03     48.6203E-03    -19.3171E+06    -91.5461E+06    -4.29652E+06     36.3550E+03    -26.6780E-03     53.1821E-03    -26.5041E-03     36.1243E-03    -26.6436E-03     52.7667E-03    -26.3649E-03     36.0966E-03
            1540     5.25942E-03     48.5884E-03    -21.7979E+06    -97.3106E+06    -8.88154E+06     250.760E+03    -26.6134E-03     53.1161E-03    -26.5027E-03     31.0986E-03    -26.5735E-03     52.6792E-03    -26.3744E-03     31.0803E-03
            1541     4.38282E-03     48.5614E-03    -23.9423E+06    -103.640E+06    -14.1268E+06     159.014E+03    -26.5643E-03     53.0625E-03    -26.4982E-03     25.9881E-03    -26.5164E-03     52.6027E-03    -26.3839E-03     25.9739E-03
            1542     3.50620E-03     48.5391E-03    -25.8306E+06    -109.881E+06    -18.6294E+06    -170.998E+03    -26.5362E-03     53.0319E-03    -26.4956E-03     20.8445E-03    -26.4809E-03     52.5488E-03    -26.3920E-03     20.8305E-03
            1543     2.62966E-03     48.5218E-03    -27.5501E+06    -114.771E+06    -22.4131E+06    -66.1440E+03    -26.5180E-03     53.0086E-03    -26.4906E-03     15.6985E-03    -26.4578E-03     52.5081E-03    -26.3963E-03     15.6893E-03
            1544     1.75311E-03     48.5093E-03    -28.8802E+06    -117.185E+06    -26.2224E+06     197.562E+03    -26.4936E-03     52.9706E-03    -26.4770E-03     10.5473E-03    -26.4304E-03     52.4650E-03    -26.3963E-03     10.5446E-03
            1545     876.572E-06     48.5018E-03    -29.6788E+06    -118.486E+06    -29.0052E+06     209.004E+03    -26.4568E-03     52.9363E-03    -26.4795E-03     5.71662E-03    -26.3914E-03     52.4292E-03    -26.4097E-03     5.71658E-03
            1546     16.6573E-03     48.4557E-03    -4.18551E+06     144.551E+06     74.8447E+06    -170.553E+03    -26.7562E-03     53.1938E-03    -26.4376E-03     84.9192E-03    -28.0457E-03     54.7646E-03    -26.2669E-03     85.2482E-03
            1547     15.7780E-03     48.3241E-03    -8.75873E+06     125.314E+06     25.4040E+06    -350.707E+03    -28.8244E-03     55.0879E-03    -26.2634E-03     131.095E-03    -30.3898E-03     56.9933E-03    -26.3054E-03     131.211E-03
            1548     14.9032E-03     48.2078E-03    -10.3617E+06     69.8215E+06    -11.1530E+06     1.01017E+06    -28.7209E-03     54.8977E-03    -26.1768E-03     109.014E-03    -29.5067E-03     55.9269E-03    -26.3188E-03     108.848E-03
            1549     14.0256E-03     48.1169E-03    -9.59111E+06     17.7482E+06    -7.91953E+06     1.07313E+06    -28.0147E-03     54.2819E-03    -26.2672E-03     88.2380E-03    -28.3765E-03     54.6957E-03    -26.3186E-03     88.0631E-03
            1550     13.1494E-03     48.0403E-03    -8.66416E+06    -15.0466E+06    -3.56811E+06    -326.865E+03    -27.6930E-03     54.0278E-03    -26.3348E-03     76.6691E-03    -27.8835E-03     54.1445E-03    -26.3183E-03     76.5023E-03
            1551     12.2727E-03     47.9718E-03    -9.34347E+06    -35.5374E+06    -1.72859E+06    -882.370E+03    -27.4374E-03     53.8139E-03    -26.3764E-03     69.9140E-03    -27.5428E-03     53.7649E-03    -26.3200E-03     69.7680E-03
            1552     11.3960E-03     47.9081E-03    -10.1847E+06    -47.8398E+06     24.7448E+03    -232.837E+03    -27.2973E-03     53.7067E-03    -26.4094E-03     64.7778E-03    -27.3557E-03     53.5591E-03    -26.3251E-03     64.6642E-03
            1553     10.5194E-03     47.8491E-03    -10.8029E+06    -56.4641E+06     1.86560E+06     116.982E+03    -27.1644E-03     53.6029E-03    -26.4384E-03     59.9569E-03    -27.1925E-03     53.3867E-03    -26.3316E-03     59.8684E-03
            1554     9.64262E-03     47.7946E-03    -11.7534E+06    -64.2833E+06     2.33551E+06     123.511E+03    -27.0552E-03     53.5160E-03    -26.4608E-03     55.2260E-03    -27.0612E-03     53.2453E-03    -26.3389E-03     55.1549E-03
            1555     8.76598E-03     47.7446E-03    -13.2161E+06    -71.3322E+06     2.08227E+06     134.577E+03    -26.9589E-03     53.4381E-03    -26.4792E-03     50.6121E-03    -26.9504E-03     53.1234E-03    -26.3462E-03     50.5555E-03
            1556     7.88930E-03     47.6988E-03    -15.0646E+06    -77.5625E+06     1.15394E+06     136.551E+03    -26.8575E-03     53.3512E-03    -26.4937E-03     45.8798E-03    -26.8398E-03     53.0013E-03    -26.3536E-03     45.8353E-03
            1557     7.01267E-03     47.6576E-03    -17.2122E+06    -84.9124E+06    -1.08872E+06     216.371E+03    -26.7714E-03     53.2753E-03    -26.5039E-03     41.0260E-03    -26.7449E-03     52.8894E-03    -26.3613E-03     40.9924E-03
            1558     6.13602E-03     47.6210E-03    -19.4892E+06    -91.7062E+06    -4.60404E+06     346.739E+03    -26.6951E-03     53.2021E-03    -26.5070E-03     36.0807E-03    -26.6609E-03     52.7866E-03    -26.3688E-03     36.0569E-03
            1559     5.25942E-03     47.5891E-03    -21.6241E+06    -97.2600E+06    -9.04335E+06     333.548E+03    -26.6276E-03     53.1311E-03    -26.5035E-03     31.0516E-03    -26.5868E-03     52.6945E-03    -26.3763E-03     31.0344E-03
            1560     4.38280E-03     47.5620E-03    -23.5966E+06    -103.230E+06    -13.8735E+06     124.549E+03    -26.5812E-03     53.0787E-03    -26.4976E-03     25.9427E-03    -26.5325E-03     52.6201E-03    -26.3831E-03     25.9282E-03
            1561     3.50625E-03     47.5398E-03    -25.5369E+06    -109.777E+06    -18.4233E+06    -13.8141E+03    -26.5426E-03     53.0349E-03    -26.4923E-03     20.8000E-03    -26.4862E-03     52.5516E-03    -26.3882E-03     20.7879E-03
            1562     2.62965E-03     47.5225E-03    -27.3782E+06    -114.998E+06    -22.5972E+06    -77.3809E+03    -26.5053E-03     52.9918E-03    -26.4865E-03     15.6645E-03    -26.4437E-03     52.4903E-03    -26.3930E-03     15.6552E-03
            1563     1.75309E-03     47.5100E-03    -28.7884E+06    -117.280E+06    -26.3293E+06    -42.4437E+03    -26.4924E-03     52.9676E-03    -26.4752E-03     10.5471E-03    -26.4286E-03     52.4616E-03    -26.3950E-03     10.5413E-03
            1564     876.568E-06     47.5025E-03    -29.5720E+06    -118.262E+06    -28.7925E+06     1.05205E+03    -26.4750E-03     52.9344E-03    -26.4595E-03     5.69130E-03    -26.4097E-03     52.4280E-03    -26.3891E-03     5.68856E-03
            1565     16.6572E-03     47.4619E-03    -3.63525E+06     144.919E+06     75.0834E+06     467.214E+03    -26.8903E-03     53.3110E-03    -26.4207E-03     84.0086E-03    -28.1659E-03     54.8704E-03    -26.2501E-03     84.3408E-03
            1566     15.7794E-03     47.3226E-03    -7.45893E+06     125.020E+06     23.6938E+06     1.83109E+06    -28.5197E-03     54.7642E-03    -26.2445E-03     131.631E-03    -30.0668E-03     56.6600E-03    -26.2965E-03     131.778E-03
            1567     14.9021E-03     47.2087E-03    -9.38671E+06     70.0643E+06    -13.2409E+06     959.247E+03    -28.6665E-03     54.8331E-03    -26.1666E-03     108.426E-03    -29.4399E-03     55.8603E-03    -26.3208E-03     108.260E-03
            1568     14.0262E-03     47.1170E-03    -8.34731E+06     18.6006E+06    -7.79978E+06    -455.525E+03    -27.9814E-03     54.2504E-03    -26.2690E-03     88.2291E-03    -28.3381E-03     54.6661E-03    -26.3228E-03     88.0348E-03
            1569     13.1492E-03     47.0411E-03    -7.99062E+06    -14.8352E+06    -3.07831E+06    -192.658E+03    -27.5778E-03     53.9234E-03    -26.3456E-03     76.6017E-03    -27.7650E-03     54.0385E-03    -26.3279E-03     76.4379E-03
            1570     12.2725E-03     46.9722E-03    -8.95688E+06    -35.2640E+06    -1.28372E+06     16.4313E+03    -27.4506E-03     53.8422E-03    -26.3916E-03     69.8878E-03    -27.5550E-03     53.7933E-03    -26.3339E-03     69.7535E-03
            1571     11.3959E-03     46.9088E-03    -10.0951E+06    -48.3843E+06    -625.070E+03    -323.776E+03    -27.3310E-03     53.7510E-03    -26.4200E-03     64.7564E-03    -27.3871E-03     53.6014E-03    -26.3383E-03     64.6416E-03
            1572     10.5191E-03     46.8497E-03    -11.0354E+06    -56.6237E+06     1.25075E+06    -97.5008E+03    -27.2052E-03     53.6523E-03    -26.4471E-03     59.9106E-03    -27.2333E-03     53.4366E-03    -26.3428E-03     59.8192E-03
            1573     9.64256E-03     46.7953E-03    -12.2657E+06    -64.3582E+06     1.66112E+06     161.281E+03    -27.0957E-03     53.5623E-03    -26.4665E-03     55.1522E-03    -27.1032E-03     53.2929E-03    -26.3471E-03     55.0814E-03
            1574     8.76589E-03     46.7451E-03    -13.7791E+06    -71.3431E+06     1.51597E+06     243.921E+03    -26.9908E-03     53.4730E-03    -26.4822E-03     50.5178E-03    -26.9843E-03     53.1599E-03    -26.3512E-03     50.4625E-03
            1575     7.88930E-03     46.6995E-03    -15.5501E+06    -77.6017E+06     754.559E+03     304.446E+03    -26.8847E-03     53.3790E-03    -26.4943E-03     45.7875E-03    -26.8689E-03     53.0303E-03    -26.3554E-03     45.7450E-03
            1576     7.01265E-03     46.6582E-03    -17.5404E+06    -84.9534E+06    -1.32391E+06     359.252E+03    -26.7928E-03     53.2947E-03    -26.5019E-03     40.9384E-03    -26.7675E-03     52.9094E-03    -26.3599E-03     40.9065E-03
            1577     6.13606E-03     46.6217E-03    -19.5898E+06    -91.7252E+06    -4.69196E+06     373.671E+03    -26.7085E-03     53.2108E-03    -26.5024E-03     35.9944E-03    -26.6746E-03     52.7954E-03    -26.3644E-03     35.9710E-03
            1578     5.25944E-03     46.5898E-03    -21.6599E+06    -96.9689E+06    -9.02009E+06     269.674E+03    -26.6365E-03     53.1324E-03    -26.4959E-03     30.9898E-03    -26.5963E-03     52.6972E-03    -26.3690E-03     30.9716E-03
            1579     4.38287E-03     46.5627E-03    -23.7066E+06    -103.059E+06    -13.8112E+06     138.442E+03    -26.5839E-03     53.0715E-03    -26.4876E-03     25.8986E-03    -26.5362E-03     52.6138E-03    -26.3728E-03     25.8841E-03
            1580     3.50628E-03     46.5405E-03    -25.6172E+06    -109.696E+06    -18.3276E+06     76.2879E+03    -26.5363E-03     53.0164E-03    -26.4802E-03     20.7538E-03    -26.4806E-03     52.5335E-03    -26.3756E-03     20.7430E-03
            1581     2.62972E-03     46.5232E-03    -27.2965E+06    -114.936E+06    -22.5678E+06    -4.44319E+03    -26.4934E-03     52.9660E-03    -26.4726E-03     15.6244E-03    -26.4315E-03     52.4646E-03    -26.3792E-03     15.6160E-03
            1582     1.75311E-03     46.5107E-03    -28.6796E+06    -117.324E+06    -26.4366E+06    -121.622E+03    -26.4710E-03     52.9340E-03    -26.4630E-03     10.5323E-03    -26.4064E-03     52.4277E-03    -26.3834E-03     10.5254E-03
            1583     876.554E-06     46.5031E-03    -29.5577E+06    -118.373E+06    -28.9872E+06    -163.483E+03    -26.4705E-03     52.9160E-03    -26.4455E-03     5.61260E-03    -26.4047E-03     52.4093E-03    -26.3759E-03     5.60778E-03
            1584     16.6575E-03     46.4613E-03    -5.36251E+06     143.023E+06     73.3227E+06     726.185E+03    -27.1627E-03     53.5980E-03    -26.4353E-03     84.6732E-03    -28.4603E-03     55.1716E-03    -26.2683E-03     85.0038E-03
            1585     15.7801E-03     46.3258E-03    -8.70760E+06     126.108E+06     27.2166E+06     2.02095E+06    -29.0127E-03     55.2769E-03    -26.2642E-03     133.303E-03    -30.5890E-03     57.1911E-03    -26.2984E-03     133.448E-03
            1586     14.9027E-03     46.2079E-03    -7.58106E+06     72.3554E+06    -8.30781E+06     301.922E+03    -28.4442E-03     54.6277E-03    -26.1835E-03     108.870E-03    -29.2162E-03     55.6537E-03    -26.3189E-03     108.700E-03
            1587     14.0257E-03     46.1183E-03    -7.10492E+06     18.2216E+06    -8.46441E+06    -450.349E+03    -27.9156E-03     54.1880E-03    -26.2724E-03     88.1566E-03    -28.2638E-03     54.6002E-03    -26.3308E-03     87.9634E-03
            1588     13.1490E-03     46.0414E-03    -8.14891E+06    -15.6543E+06    -4.08219E+06     221.992E+03    -27.6133E-03     53.9650E-03    -26.3517E-03     76.6170E-03    -27.7985E-03     54.0776E-03    -26.3376E-03     76.4585E-03
            1589     12.2724E-03     45.9730E-03    -8.79360E+06    -34.9166E+06    -1.46045E+06     569.073E+03    -27.4690E-03     53.8673E-03    -26.3983E-03     69.7193E-03    -27.5727E-03     53.8201E-03    -26.3422E-03     69.5920E-03
            1590     11.3956E-03     45.9093E-03    -9.87109E+06    -47.9695E+06    -819.693E+03     259.437E+03    -27.3767E-03     53.8009E-03    -26.4242E-03     64.5751E-03    -27.4321E-03     53.6533E-03    -26.3444E-03     64.4676E-03
            1591     10.5192E-03     45.8504E-03    -11.3259E+06    -57.0060E+06     974.781E+03     91.1731E+03    -27.2585E-03     53.7072E-03    -26.4487E-03     59.7114E-03    -27.2872E-03     53.4904E-03    -26.3447E-03     59.6221E-03
            1592     9.64253E-03     45.7959E-03    -12.6673E+06    -64.3521E+06     1.50405E+06     215.851E+03    -27.1263E-03     53.5904E-03    -26.4641E-03     54.9957E-03    -27.1356E-03     53.3219E-03    -26.3449E-03     54.9254E-03
            1593     8.76598E-03     45.7458E-03    -14.0844E+06    -71.4578E+06     1.40138E+06     268.053E+03    -27.0094E-03     53.4862E-03    -26.4768E-03     50.3808E-03    -27.0041E-03     53.1732E-03    -26.3457E-03     50.3257E-03
            1594     7.88934E-03     45.7001E-03    -15.7461E+06    -77.5496E+06     748.918E+03     328.047E+03    -26.9018E-03     53.3877E-03    -26.4859E-03     45.6806E-03    -26.8870E-03     53.0396E-03    -26.3469E-03     45.6383E-03
            1595     7.01277E-03     45.6589E-03    -17.6142E+06    -84.9596E+06    -1.29368E+06     316.330E+03    -26.8060E-03     53.2963E-03    -26.4902E-03     40.8347E-03    -26.7812E-03     52.9110E-03    -26.3480E-03     40.8022E-03
            1596     6.13615E-03     45.6223E-03    -19.6448E+06    -91.6028E+06    -4.60010E+06     294.364E+03    -26.7128E-03     53.2003E-03    -26.4875E-03     35.9062E-03    -26.6796E-03     52.7855E-03    -26.3492E-03     35.8816E-03
            1597     5.25956E-03     45.5905E-03    -21.7234E+06    -96.7844E+06    -8.91985E+06     215.663E+03    -26.6322E-03     53.1103E-03    -26.4782E-03     30.9152E-03    -26.5927E-03     52.6760E-03    -26.3509E-03     30.8963E-03
            1598     4.38293E-03     45.5634E-03    -23.7372E+06    -102.937E+06    -13.7237E+06     127.133E+03    -26.5681E-03     53.0360E-03    -26.4679E-03     25.8314E-03    -26.5208E-03     52.5788E-03    -26.3529E-03     25.8168E-03
            1599     3.50636E-03     45.5412E-03    -25.6179E+06    -109.632E+06    -18.2433E+06     50.9251E+03    -26.5189E-03     52.9783E-03    -26.4594E-03     20.6922E-03    -26.4634E-03     52.4956E-03    -26.3545E-03     20.6810E-03
            1600     2.62975E-03     45.5239E-03    -27.3428E+06    -114.823E+06    -22.5109E+06    -4.78525E+03    -26.4823E-03     52.9311E-03    -26.4488E-03     15.5834E-03    -26.4208E-03     52.4302E-03    -26.3552E-03     15.5751E-03
            1601     1.75319E-03     45.5115E-03    -28.7183E+06    -117.319E+06    -26.5119E+06    -58.7372E+03    -26.4485E-03     52.8836E-03    -26.4351E-03     10.5061E-03    -26.3840E-03     52.3775E-03    -26.3559E-03     10.5000E-03
            1602     876.580E-06     45.5039E-03    -29.6272E+06    -118.549E+06    -29.1266E+06    -65.4389E+03    -26.4437E-03     52.8579E-03    -26.4142E-03     5.60217E-03    -26.3778E-03     52.3506E-03    -26.3450E-03     5.59861E-03
            1603     16.6541E-03     45.4619E-03    -4.18816E+06     141.019E+06     76.9572E+06     1.06020E+06    -27.2754E-03     53.7557E-03    -26.4804E-03     84.6951E-03    -28.5753E-03     55.3182E-03    -26.2940E-03     85.0233E-03
            1604     15.7784E-03     45.3244E-03    -7.48499E+06     127.451E+06     37.7941E+06     608.048E+03    -29.4301E-03     55.7510E-03    -26.3209E-03     131.858E-03    -31.0206E-03     57.6577E-03    -26.3059E-03     131.972E-03
            1605     14.9025E-03     45.2096E-03    -8.42077E+06     74.1089E+06    -2.45539E+06    -433.321E+03    -28.3646E-03     54.5696E-03    -26.2050E-03     108.298E-03    -29.1501E-03     55.5953E-03    -26.3125E-03     108.118E-03
            1606     14.0254E-03     45.1183E-03    -8.80825E+06     16.6459E+06    -9.41722E+06    -275.565E+03    -27.8234E-03     54.0924E-03    -26.2690E-03     87.9594E-03    -28.1755E-03     54.4996E-03    -26.3274E-03     87.7692E-03
            1607     13.1491E-03     45.0421E-03    -8.94274E+06    -16.2410E+06    -4.18549E+06     562.752E+03    -27.6762E-03     54.0254E-03    -26.3492E-03     76.1624E-03    -27.8647E-03     54.1367E-03    -26.3336E-03     76.0070E-03
            1608     12.2724E-03     44.9734E-03    -9.90221E+06    -34.9191E+06    -1.63451E+06     756.875E+03    -27.4841E-03     53.8749E-03    -26.3908E-03     69.4484E-03    -27.5930E-03     53.8295E-03    -26.3340E-03     69.3232E-03
            1609     11.3959E-03     44.9098E-03    -10.6580E+06    -47.1977E+06    -424.174E+03     527.841E+03    -27.3817E-03     53.7971E-03    -26.4154E-03     64.3308E-03    -27.4426E-03     53.6539E-03    -26.3336E-03     64.2266E-03
            1610     10.5193E-03     44.8509E-03    -11.4077E+06    -57.1308E+06     1.22074E+06     236.329E+03    -27.2592E-03     53.6967E-03    -26.4374E-03     59.5196E-03    -27.2884E-03     53.4790E-03    -26.3320E-03     59.4321E-03
            1611     9.64275E-03     44.7965E-03    -12.5849E+06    -64.3606E+06     1.79017E+06     247.420E+03    -27.1291E-03     53.5799E-03    -26.4508E-03     54.8508E-03    -27.1383E-03     53.3108E-03    -26.3303E-03     54.7809E-03
            1612     8.76609E-03     44.7464E-03    -14.0228E+06    -71.4445E+06     1.48759E+06     237.417E+03    -27.0151E-03     53.4754E-03    -26.4603E-03     50.2704E-03    -27.0095E-03     53.1621E-03    -26.3289E-03     50.2148E-03
            1613     7.88953E-03     44.7007E-03    -15.6598E+06    -77.5669E+06     849.782E+03     254.705E+03    -26.9076E-03     53.3743E-03    -26.4667E-03     45.5706E-03    -26.8924E-03     53.0257E-03    -26.3273E-03     45.5274E-03
            1614     7.01289E-03     44.6595E-03    -17.5522E+06    -84.8653E+06    -1.18541E+06     261.924E+03    -26.8038E-03     53.2717E-03    -26.4680E-03     40.7278E-03    -26.7788E-03     52.8867E-03    -26.3254E-03     40.6946E-03
            1615     6.13632E-03     44.6230E-03    -19.5947E+06    -91.5348E+06    -4.49019E+06     213.298E+03    -26.7103E-03     53.1724E-03    -26.4621E-03     35.8106E-03    -26.6770E-03     52.7577E-03    -26.3234E-03     35.7850E-03
            1616     5.25970E-03     44.5911E-03    -21.6945E+06    -96.6359E+06    -8.80336E+06     158.009E+03    -26.6203E-03     53.0697E-03    -26.4494E-03     30.8262E-03    -26.5811E-03     52.6359E-03    -26.3218E-03     30.8067E-03
            1617     4.38310E-03     44.5641E-03    -23.7358E+06    -102.836E+06    -13.5886E+06     65.9571E+03    -26.5437E-03     52.9806E-03    -26.4369E-03     25.7467E-03    -26.4967E-03     52.5237E-03    -26.3213E-03     25.7313E-03
            1618     3.50646E-03     44.5419E-03    -25.6334E+06    -109.555E+06    -18.1692E+06     1.96380E+03    -26.4894E-03     52.9161E-03    -26.4267E-03     20.6260E-03    -26.4342E-03     52.4336E-03    -26.3215E-03     20.6142E-03
            1619     2.62987E-03     44.5247E-03    -27.3283E+06    -114.812E+06    -22.5358E+06    -13.9087E+03    -26.4529E-03     52.8670E-03    -26.4142E-03     15.5322E-03    -26.3913E-03     52.3663E-03    -26.3207E-03     15.5238E-03
            1620     1.75323E-03     44.5122E-03    -28.7523E+06    -117.323E+06    -26.4375E+06     27.4139E+03    -26.4157E-03     52.8148E-03    -26.3991E-03     10.4673E-03    -26.3514E-03     52.3087E-03    -26.3195E-03     10.4623E-03
            1621     876.629E-06     44.5047E-03    -29.7036E+06    -118.616E+06    -29.0761E+06     66.5246E+03    -26.3848E-03     52.7833E-03    -26.3986E-03     5.63029E-03    -26.3192E-03     52.2757E-03    -26.3289E-03     5.62842E-03
            1622     16.6578E-03     44.4618E-03    -3.67403E+06     141.896E+06     76.8442E+06     548.351E+03    -27.8064E-03     54.2396E-03    -26.4333E-03     83.5372E-03    -29.0877E-03     55.7888E-03    -26.2495E-03     83.8552E-03
            1623     15.7810E-03     44.3246E-03    -5.24808E+06     128.120E+06     35.9677E+06    -117.284E+03    -28.7183E-03     54.9812E-03    -26.2628E-03     130.524E-03    -30.2790E-03     56.8738E-03    -26.2612E-03     130.639E-03
            1624     14.9032E-03     44.2110E-03    -7.37502E+06     74.1518E+06    -4.21084E+06     505.800E+03    -28.1304E-03     54.3031E-03    -26.1727E-03     108.250E-03    -28.9082E-03     55.3302E-03    -26.2906E-03     108.084E-03
            1625     14.0263E-03     44.1188E-03    -8.70519E+06     16.6032E+06    -9.27030E+06     386.119E+03    -27.8828E-03     54.1348E-03    -26.2520E-03     88.2437E-03    -28.2354E-03     54.5423E-03    -26.3098E-03     88.0609E-03
            1626     13.1494E-03     44.0427E-03    -9.59044E+06    -17.2652E+06    -4.56832E+06     619.617E+03    -27.6643E-03     53.9940E-03    -26.3297E-03     76.0538E-03    -27.8536E-03     54.1012E-03    -26.3136E-03     75.8992E-03
            1627     12.2729E-03     43.9740E-03    -9.72673E+06    -34.2092E+06    -1.15765E+06     860.778E+03    -27.4883E-03     53.8586E-03    -26.3704E-03     69.3382E-03    -27.5978E-03     53.8156E-03    -26.3124E-03     69.2144E-03
            1628     11.3961E-03     43.9105E-03    -10.3159E+06    -46.9187E+06    -153.970E+03     362.720E+03    -27.3471E-03     53.7408E-03    -26.3937E-03     64.3052E-03    -27.4068E-03     53.5978E-03    -26.3115E-03     64.1992E-03
            1629     10.5196E-03     43.8514E-03    -11.2699E+06    -57.0466E+06     1.23252E+06     273.215E+03    -27.2449E-03     53.6600E-03    -26.4151E-03     59.4540E-03    -27.2734E-03     53.4425E-03    -26.3099E-03     59.3671E-03
            1630     9.64291E-03     43.7971E-03    -12.4724E+06    -64.4200E+06     1.83393E+06     284.472E+03    -27.1304E-03     53.5577E-03    -26.4273E-03     54.7569E-03    -27.1390E-03     53.2880E-03    -26.3067E-03     54.6875E-03
            1631     8.76635E-03     43.7470E-03    -13.9290E+06    -71.2814E+06     1.60559E+06     249.195E+03    -27.0241E-03     53.4579E-03    -26.4337E-03     50.1608E-03    -27.0185E-03     53.1451E-03    -26.3021E-03     50.1054E-03
            1632     7.88974E-03     43.7014E-03    -15.6181E+06    -77.6384E+06     842.652E+03     176.831E+03    -26.9027E-03     53.3391E-03    -26.4364E-03     45.4449E-03    -26.8872E-03     52.9901E-03    -26.2970E-03     45.4007E-03
            1633     7.01315E-03     43.6602E-03    -17.4810E+06    -84.7880E+06    -1.03308E+06     202.641E+03    -26.7923E-03     53.2274E-03    -26.4351E-03     40.6145E-03    -26.7673E-03     52.8424E-03    -26.2920E-03     40.5806E-03
            1634     6.13653E-03     43.6237E-03    -19.5421E+06    -91.4337E+06    -4.36984E+06     150.779E+03    -26.6942E-03     53.1202E-03    -26.4260E-03     35.7017E-03    -26.6610E-03     52.7057E-03    -26.2869E-03     35.6754E-03
            1635     5.25992E-03     43.5919E-03    -21.6414E+06    -96.5412E+06    -8.63386E+06     80.1403E+03    -26.5951E-03     53.0057E-03    -26.4105E-03     30.7281E-03    -26.5560E-03     52.5720E-03    -26.2823E-03     30.7076E-03
            1636     4.38327E-03     43.5649E-03    -23.6928E+06    -102.735E+06    -13.5113E+06     32.9298E+03    -26.5144E-03     52.9092E-03    -26.3948E-03     25.6692E-03    -26.4674E-03     52.4527E-03    -26.2791E-03     25.6534E-03
            1637     3.50664E-03     43.5428E-03    -25.6519E+06    -109.526E+06    -18.1405E+06    -25.3698E+03    -26.4555E-03     52.8372E-03    -26.3817E-03     20.5607E-03    -26.4005E-03     52.3549E-03    -26.2764E-03     20.5486E-03
            1638     2.62996E-03     43.5255E-03    -27.4208E+06    -114.857E+06    -22.4548E+06    -18.5653E+03    -26.4061E-03     52.7740E-03    -26.3680E-03     15.4706E-03    -26.3450E-03     52.2730E-03    -26.2739E-03     15.4621E-03
            1639     1.75333E-03     43.5131E-03    -28.8223E+06    -117.375E+06    -26.4368E+06     39.1500E+03    -26.3641E-03     52.7178E-03    -26.3537E-03     10.4181E-03    -26.3001E-03     52.2114E-03    -26.2739E-03     10.4134E-03
            1640     876.641E-06     43.5056E-03    -29.6968E+06    -118.509E+06    -29.0381E+06      39.548E+03    -26.3224E-03     52.6945E-03    -26.3721E-03     5.62487E-03    -26.2570E-03     52.1874E-03    -26.3024E-03     5.62266E-03
            1641     16.6590E-03     43.4614E-03    -3.91767E+06     141.375E+06     74.1494E+06    -386.555E+03    -27.4531E-03     53.8614E-03    -26.4082E-03     84.9423E-03    -28.7399E-03     55.4211E-03    -26.2368E-03     85.2597E-03
            1642     15.7804E-03     43.3278E-03    -6.55299E+06     127.277E+06     33.2575E+06     401.395E+03    -28.6354E-03     54.8940E-03    -26.2586E-03     133.158E-03    -30.2117E-03     56.8024E-03    -26.2674E-03     133.288E-03
            1643     14.9027E-03     43.2108E-03    -8.43913E+06     73.7085E+06    -5.29039E+06     1.49659E+06    -28.5213E-03     54.6949E-03    -26.1735E-03     109.455E-03    -29.3078E-03     55.7283E-03    -26.2946E-03     109.298E-03
            1644     14.0261E-03     43.1199E-03    -9.63320E+06     17.8434E+06    -10.6272E+06     1.85327E+06    -28.0726E-03     54.3059E-03    -26.2334E-03     88.4368E-03    -28.4293E-03     54.7227E-03    -26.2984E-03     88.2720E-03
            1645     13.1497E-03     43.0428E-03    -10.2193E+06    -16.8599E+06    -5.83688E+06     420.525E+03    -27.6991E-03     54.0036E-03    -26.3045E-03     76.1539E-03    -27.8895E-03     54.1149E-03    -26.2945E-03     75.9973E-03
            1646     12.2730E-03     42.9748E-03    -10.1902E+06    -34.4561E+06    -2.22653E+06     124.271E+03    -27.4894E-03     53.8338E-03    -26.3443E-03     69.3267E-03    -27.5991E-03     53.7914E-03    -26.2907E-03     69.1937E-03
            1647     11.3964E-03     42.9110E-03    -10.4192E+06    -46.5390E+06    -87.1270E+03     436.832E+03    -27.3589E-03     53.7286E-03    -26.3697E-03     64.3191E-03    -27.4197E-03     53.5875E-03    -26.2876E-03     64.2142E-03
            1648     10.5198E-03     42.8522E-03    -11.3987E+06    -57.1166E+06     1.26404E+06     303.396E+03    -27.2625E-03     53.6507E-03    -26.3883E-03     59.3754E-03    -27.2915E-03     53.4329E-03    -26.2826E-03     59.2889E-03
            1649     9.64325E-03     42.7977E-03    -12.5527E+06    -64.2593E+06     1.98723E+06     242.605E+03    -27.1516E-03     53.5476E-03    -26.3961E-03     54.6418E-03    -27.1610E-03     53.2786E-03    -26.2747E-03     54.5719E-03
            1650     8.76667E-03     42.7477E-03    -13.8401E+06    -71.2833E+06     1.82821E+06     166.193E+03    -27.0238E-03     53.4220E-03    -26.3982E-03     50.0290E-03    -27.0180E-03     53.1087E-03    -26.2656E-03     49.9726E-03
            1651     7.89008E-03     42.7020E-03    -15.4160E+06    -77.5052E+06     1.10633E+06     133.930E+03    -26.8895E-03     53.2866E-03    -26.3971E-03     45.3226E-03    -26.8735E-03     52.9376E-03    -26.2569E-03     45.2779E-03
            1652     7.01345E-03     42.6609E-03    -17.3010E+06    -84.8692E+06    -870.622E+03     102.744E+03    -26.7729E-03     53.1654E-03    -26.3925E-03     40.5127E-03    -26.7471E-03     52.7794E-03    -26.2487E-03     40.4776E-03
            1653     6.13683E-03     42.6245E-03    -19.3312E+06    -91.2653E+06    -4.10833E+06     113.921E+03    -26.6639E-03     53.0444E-03    -26.3806E-03     35.6005E-03    -26.6302E-03     52.6301E-03    -26.2408E-03     35.5738E-03
            1654     5.26017E-03     42.5927E-03    -21.4821E+06    -96.5005E+06    -8.47763E+06     34.2682E+03    -26.5614E-03     52.9237E-03    -26.3623E-03     30.6308E-03    -26.5217E-03     52.4897E-03    -26.2336E-03     30.6098E-03
            1655     4.38350E-03     42.5658E-03    -23.5999E+06    -102.700E+06    -13.3757E+06     34.5068E+03    -26.4779E-03     52.8215E-03    -26.3436E-03     25.5807E-03    -26.4308E-03     52.3648E-03    -26.2274E-03     25.5650E-03
            1656     3.50682E-03     42.5437E-03    -25.6192E+06    -109.477E+06    -18.0161E+06     31.7070E+03    -26.4108E-03     52.7383E-03    -26.3275E-03     20.4907E-03    -26.3559E-03     52.2560E-03    -26.2217E-03     20.4793E-03
            1657     2.63015E-03     42.5265E-03    -27.4788E+06    -114.882E+06    -22.3415E+06    -7.51573E+03    -26.3555E-03     52.6668E-03    -26.3113E-03     15.4125E-03    -26.2949E-03     52.1656E-03    -26.2166E-03     15.4041E-03
            1658     1.75341E-03     42.5141E-03    -28.9803E+06    -117.399E+06    -26.4721E+06    -19.9866E+03    -26.3115E-03     52.6043E-03    -26.2928E-03     10.3684E-03    -26.2482E-03     52.0981E-03    -26.2129E-03     10.3629E-03
            1659     876.712E-06     42.5066E-03    -29.8934E+06    -118.495E+06    -29.2383E+06    -24.1687E+03    -26.2921E-03     52.5664E-03    -26.2742E-03     5.58462E-03    -26.2274E-03     52.0598E-03    -26.2053E-03     5.58161E-03
            1660     16.6545E-03     42.4644E-03    -4.97550E+06     140.335E+06     72.9640E+06    -208.603E+03    -26.8991E-03     53.3683E-03    -26.4692E-03     85.4602E-03    -28.1946E-03     54.9328E-03    -26.3007E-03     85.7702E-03
            1661     15.7776E-03     42.3262E-03    -11.3488E+06     125.516E+06     34.4563E+06     1.45609E+06    -29.6442E-03     55.9691E-03    -26.3249E-03     132.199E-03    -31.2492E-03     57.8794E-03    -26.3182E-03     132.313E-03
            1662     14.9028E-03     42.2117E-03    -14.3248E+06     74.1210E+06    -3.39192E+06     1.76933E+06    -29.0122E-03     55.2079E-03    -26.1956E-03     108.394E-03    -29.8322E-03     56.2499E-03    -26.2993E-03     108.232E-03
            1663     14.0264E-03     42.1197E-03    -13.4135E+06     19.0804E+06    -10.7859E+06     140.163E+03    -28.1634E-03     54.3824E-03    -26.2189E-03     87.8542E-03    -28.5403E-03     54.8106E-03    -26.2811E-03     87.6666E-03
            1664     13.1499E-03     42.0438E-03    -11.1944E+06    -15.8282E+06    -4.89170E+06    -536.029E+03    -27.6632E-03     53.9500E-03    -26.2868E-03     75.8888E-03    -27.8610E-03     54.0661E-03    -26.2721E-03     75.7202E-03
            1665     12.2733E-03     41.9751E-03    -10.8468E+06    -35.2085E+06    -2.34596E+06    -624.916E+03    -27.5048E-03     53.8263E-03    -26.3215E-03     69.2043E-03    -27.6166E-03     53.7814E-03    -26.2665E-03     69.0614E-03
            1666     11.3968E-03     41.9118E-03    -10.9297E+06    -46.7893E+06     153.591E+03    -149.836E+03    -27.4095E-03     53.7522E-03    -26.3427E-03     64.1748E-03    -27.4730E-03     53.6104E-03    -26.2583E-03     64.0619E-03
            1667     10.5202E-03     41.8526E-03    -11.2228E+06    -56.9459E+06     1.62177E+06     113.380E+03    -27.2891E-03     53.6433E-03    -26.3542E-03     59.2687E-03    -27.3180E-03     53.4254E-03    -26.2472E-03     59.1797E-03
            1668     9.64366E-03     41.7984E-03    -12.1663E+06    -64.2888E+06     2.40554E+06     103.842E+03    -27.1574E-03     53.5147E-03    -26.3573E-03     54.5135E-03    -27.1653E-03     53.2443E-03    -26.2345E-03     54.4418E-03
            1669     8.76707E-03     41.7483E-03    -13.5755E+06    -71.1345E+06     2.05922E+06     115.228E+03    -27.0091E-03     53.3638E-03    -26.3547E-03     49.9225E-03    -27.0024E-03     53.0504E-03    -26.2216E-03     49.8655E-03
            1670     7.89046E-03     41.7028E-03    -15.2798E+06    -77.5406E+06     1.25748E+06     74.7533E+03    -26.8704E-03     53.2209E-03    -26.3504E-03     45.2237E-03    -26.8539E-03     52.8712E-03    -26.2096E-03     45.1784E-03
            1671     7.01382E-03     41.6617E-03    -17.2120E+06    -84.7837E+06    -803.788E+03     79.4141E+03    -26.7440E-03     53.0861E-03    -26.3421E-03     40.4188E-03    -26.7180E-03     52.7003E-03    -26.1982E-03     40.3835E-03
            1672     6.13716E-03     41.6254E-03    -19.2947E+06    -91.2698E+06    -4.10829E+06     17.8359E+03    -26.6280E-03     52.9553E-03    -26.3273E-03     35.5093E-03    -26.5941E-03     52.5408E-03    -26.1875E-03     35.4814E-03
            1673     5.26047E-03     41.5937E-03    -21.4301E+06    -96.4537E+06    -8.37527E+06     73.4838E+03    -26.5244E-03     52.8308E-03    -26.3063E-03     30.5415E-03    -26.4847E-03     52.3968E-03    -26.1773E-03     30.5210E-03
            1674     4.38378E-03     41.5668E-03    -23.6092E+06    -102.730E+06    -13.2608E+06     77.8731E+03    -26.4308E-03     52.7156E-03    -26.2848E-03     25.4965E-03    -26.3838E-03     52.2586E-03    -26.1680E-03     25.4814E-03
            1675     3.50704E-03     41.5447E-03    -25.6320E+06    -109.391E+06    -17.9299E+06     62.2818E+03    -26.3551E-03     52.6213E-03    -26.2662E-03     20.4259E-03    -26.3005E-03     52.1393E-03    -26.1600E-03     20.4150E-03
            1676     2.63028E-03     41.5275E-03    -27.4590E+06    -114.862E+06    -22.3364E+06     16.1977E+03    -26.3028E-03     52.5495E-03    -26.2467E-03     15.3546E-03    -26.2421E-03     52.0484E-03    -26.1520E-03     15.3467E-03
            1677     1.75357E-03     41.5153E-03    -28.9663E+06    -117.383E+06    -26.3845E+06    -8.22480E+03    -26.2566E-03     52.4792E-03    -26.2226E-03     10.3286E-03    -26.1934E-03     51.9730E-03    -26.1423E-03     10.3233E-03
            1678     876.805E-06     41.5076E-03    -29.9969E+06    -118.565E+06    -29.3093E+06    -11.6165E+03    -26.2495E-03     52.4167E-03    -26.1672E-03     5.57654E-03    -26.1851E-03     51.9101E-03    -26.0984E-03     5.57369E-03
            1679     16.6548E-03     41.4615E-03    -5.13392E+06     140.163E+06     73.9651E+06     1.60985E+06    -27.6665E-03     54.1076E-03    -26.4412E-03     82.9854E-03    -28.9451E-03     55.6512E-03    -26.2671E-03     83.3055E-03
            1680     15.7808E-03     41.3270E-03     -9.1013E+06     124.373E+06     30.0414E+06     2.44479E+06    -29.4011E-03     55.6452E-03    -26.2441E-03     129.559E-03    -30.9639E-03     57.5301E-03    -26.2610E-03     129.686E-03
            1681     14.9033E-03     41.2111E-03    -8.58125E+06     76.3617E+06    -5.49398E+06     1.46367E+06    -28.6893E-03     54.8138E-03    -26.1245E-03     107.278E-03    -29.4751E-03     55.8561E-03    -26.2502E-03     107.116E-03
            1682     14.0271E-03     41.1206E-03    -7.67897E+06     20.7748E+06    -7.28149E+06    -807.511E+03    -27.9467E-03     54.1360E-03    -26.1893E-03     87.4370E-03    -28.3024E-03     54.5593E-03    -26.2447E-03     87.2387E-03
            1683     13.1503E-03     41.0443E-03    -8.56463E+06    -16.5681E+06    -3.90663E+06    -1.12670E+06    -27.6176E-03     53.8767E-03    -26.2591E-03     75.8729E-03    -27.8028E-03     53.9841E-03    -26.2422E-03     75.6969E-03
            1684     12.2738E-03     40.9759E-03    -8.93166E+06    -35.1280E+06    -1.50486E+06    -687.883E+03    -27.5385E-03     53.8304E-03    -26.2919E-03     69.2092E-03    -27.6423E-03     53.7822E-03    -26.2355E-03     69.0652E-03
            1685     11.3972E-03     40.9123E-03    -9.72475E+06    -47.6629E+06     304.888E+03    -458.993E+03    -27.4489E-03     53.7562E-03    -26.3073E-03     64.1050E-03    -27.5054E-03     53.6081E-03    -26.2226E-03     63.9880E-03
            1686     10.5207E-03     40.8534E-03    -10.7232E+06    -56.8161E+06     1.77370E+06    -124.875E+03    -27.2993E-03     53.6128E-03    -26.3135E-03     59.2245E-03    -27.3260E-03     53.3946E-03    -26.2067E-03     59.1325E-03
            1687     9.64407E-03     40.7990E-03    -11.8451E+06    -64.6277E+06     2.32661E+06     51.8556E+03    -27.1460E-03     53.4589E-03    -26.3129E-03     54.4535E-03    -27.1517E-03     53.1864E-03    -26.1904E-03     54.3813E-03
            1688     8.76751E-03     40.7492E-03    -13.3202E+06    -70.9507E+06     2.29489E+06     216.124E+03    -26.9989E-03     53.3067E-03    -26.3078E-03     49.8384E-03    -26.9915E-03     52.9935E-03    -26.1741E-03     49.7829E-03
            1689     7.89085E-03     40.7036E-03    -15.1383E+06    -77.5085E+06     1.30462E+06     127.974E+03    -26.8525E-03     53.1516E-03    -26.2991E-03     45.1399E-03    -26.8352E-03     52.8017E-03    -26.1583E-03     45.0954E-03
            1690     7.01422E-03     40.6627E-03    -17.1092E+06    -84.7073E+06    -663.284E+03     53.3646E+03    -26.7169E-03     53.0044E-03    -26.2875E-03     40.3193E-03    -26.6905E-03     52.6185E-03    -26.1432E-03     40.2838E-03
            1691     6.13751E-03     40.6263E-03    -19.2489E+06    -91.2614E+06    -4.05116E+06     40.9385E+03    -26.5920E-03     52.8608E-03    -26.2688E-03     35.4175E-03    -26.5579E-03     52.4462E-03    -26.1288E-03     35.3901E-03
            1692     5.26081E-03     40.5947E-03    -21.4822E+06    -96.5561E+06    -8.29094E+06     65.5508E+03    -26.4748E-03     52.7202E-03    -26.2454E-03     30.4503E-03    -26.4352E-03     52.2856E-03    -26.1157E-03     30.4299E-03
            1693     4.38404E-03     40.5679E-03    -23.5920E+06    -102.645E+06    -13.1712E+06     111.150E+03    -26.3755E-03     52.5970E-03    -26.2215E-03     25.4195E-03    -26.3286E-03     52.1402E-03    -26.1043E-03     25.4051E-03
            1694     3.50728E-03     40.5459E-03    -25.6041E+06    -109.363E+06    -17.8514E+06     58.3898E+03    -26.3029E-03     52.5030E-03    -26.2000E-03     20.3628E-03    -26.2483E-03     52.0210E-03    -26.0936E-03     20.3520E-03
            1695     2.63050E-03     40.5288E-03    -27.4295E+06    -114.795E+06    -22.2832E+06     32.4240E+03    -26.2395E-03     52.4169E-03    -26.1774E-03     15.2947E-03    -26.1788E-03     51.9159E-03    -26.0826E-03     15.2871E-03
            1696     1.75367E-03     40.5164E-03    -28.8291E+06    -117.371E+06    -26.4096E+06    -52.6834E+03    -26.1806E-03     52.3343E-03    -26.1537E-03     10.2899E-03    -26.1166E-03     51.8280E-03    -26.0738E-03     10.2840E-03
            1697     876.833E-06     40.5090E-03    -29.6401E+06    -118.625E+06    -28.9813E+06    -81.6201E+03    -26.1556E-03     52.2862E-03    -26.1307E-03     5.58508E-03    -26.0898E-03     51.7783E-03    -26.0606E-03     5.58132E-03
            1698     16.6622E-03     40.4651E-03    -3.76891E+06     138.065E+06     77.2833E+06     1.72647E+06    -28.3951E-03     54.7983E-03    -26.4033E-03     85.2592E-03    -29.6795E-03     56.3355E-03    -26.2116E-03     85.5799E-03
            1699     15.7811E-03     40.3270E-03    -3.26250E+06     125.592E+06     36.0778E+06     1.87058E+06    -29.1974E-03     55.3964E-03    -26.1990E-03     131.557E-03    -30.7464E-03     57.2749E-03    -26.1960E-03     131.688E-03
            1700     14.9052E-03     40.2124E-03    -3.59128E+06     78.0431E+06    -3.68557E+06     685.320E+03    -28.2567E-03     54.3373E-03    -26.0807E-03     108.237E-03    -29.0209E-03     55.3765E-03    -26.2071E-03     108.075E-03
            1701     14.0273E-03     40.1213E-03    -4.63007E+06     21.5816E+06    -7.21050E+06     941.834E+03    -27.8134E-03     53.9727E-03    -26.1593E-03     88.0582E-03    -28.1561E-03     54.3965E-03    -26.2199E-03     87.8843E-03
            1702     13.1507E-03     40.0451E-03    -6.32609E+06    -16.1301E+06    -4.01339E+06     241.622E+03    -27.7091E-03     53.9407E-03    -26.2316E-03     76.1302E-03    -27.8845E-03     54.0480E-03    -26.2191E-03     75.9710E-03
            1703     12.2740E-03     39.9764E-03    -8.06579E+06    -35.4789E+06    -1.46383E+06    -238.903E+03    -27.6052E-03     53.8671E-03    -26.2620E-03     69.3081E-03    -27.7043E-03     53.8160E-03    -26.2061E-03     69.1696E-03
            1704     11.3976E-03     39.9129E-03    -9.17958E+06    -47.8171E+06     205.820E+03    -29.9722E+03    -27.4772E-03     53.7487E-03    -26.2715E-03     64.1036E-03    -27.5305E-03     53.5990E-03    -26.1878E-03     63.9921E-03
            1705     10.5210E-03     39.8540E-03    -10.4287E+06    -57.1820E+06     1.84746E+06     83.6970E+03    -27.3123E-03     53.5871E-03    -26.2747E-03     59.1740E-03    -27.3371E-03     53.3664E-03    -26.1675E-03     59.0848E-03
            1706     9.64452E-03     39.7999E-03    -11.8435E+06    -64.5788E+06     2.27742E+06     147.131E+03    -27.1494E-03     53.4185E-03    -26.2690E-03     54.4014E-03    -27.1550E-03     53.1461E-03    -26.1468E-03     54.3306E-03
            1707     8.76790E-03     39.7500E-03    -13.2674E+06    -71.2149E+06     2.36948E+06     196.368E+03    -27.0002E-03     53.2603E-03    -26.2601E-03     49.7558E-03    -26.9921E-03     52.9455E-03    -26.1258E-03     49.7003E-03
            1708     7.89131E-03     39.7046E-03    -14.9204E+06    -77.1541E+06     1.61629E+06     249.962E+03    -26.8418E-03     53.0882E-03    -26.2464E-03     45.0398E-03    -26.8243E-03     52.7392E-03    -26.1049E-03     44.9971E-03
            1709     7.01460E-03     39.6636E-03    -16.9552E+06    -84.7492E+06    -508.851E+03     78.8860E+03    -26.6915E-03     52.9216E-03    -26.2300E-03     40.2189E-03    -26.6645E-03     52.5350E-03    -26.0851E-03     40.1840E-03
            1710     6.13793E-03     39.6274E-03    -19.1496E+06    -91.2402E+06    -3.82664E+06     132.015E+03    -26.5497E-03     52.7578E-03    -26.2081E-03     35.3275E-03    -26.5154E-03     52.3427E-03    -26.0672E-03     35.3014E-03
            1711     5.26113E-03     39.5958E-03    -21.4009E+06    -96.5562E+06    -8.21482E+06     102.906E+03    -26.4222E-03     52.6037E-03    -26.1815E-03     30.3670E-03    -26.3823E-03     52.1689E-03    -26.0515E-03     30.3472E-03
            1712     4.38436E-03     39.5691E-03    -23.5667E+06    -102.606E+06    -13.0444E+06     55.9995E+03    -26.3212E-03     52.4766E-03    -26.1554E-03     25.3408E-03    -26.2744E-03     52.0198E-03    -26.0377E-03     25.3257E-03
            1713     3.50751E-03     39.5471E-03    -25.5457E+06    -109.308E+06    -17.7579E+06     64.8218E+03    -26.2389E-03     52.3706E-03    -26.1317E-03     20.2994E-03    -26.1842E-03     51.8887E-03    -26.0250E-03     20.2888E-03
            1714     2.63068E-03     39.5300E-03    -27.3515E+06    -114.740E+06    -22.2605E+06     25.1079E+03    -26.1698E-03     52.2779E-03    -26.1081E-03     15.2453E-03    -26.1089E-03     51.7771E-03    -26.0134E-03     15.2376E-03
            1715     1.75379E-03     39.5179E-03    -28.8616E+06    -117.289E+06    -26.4262E+06    -39.3186E+03    -26.1140E-03     52.1973E-03    -26.0833E-03     10.2354E-03    -26.0503E-03     51.6915E-03    -26.0035E-03     10.2298E-03
            1716     876.895E-06     39.5103E-03    -29.9307E+06    -118.809E+06    -29.2579E+06    -145.840E+03    -26.0433E-03     52.1419E-03    -26.0987E-03     5.52632E-03    -25.9783E-03     51.6339E-03    -26.0293E-03     5.52180E-03
            1717     16.6520E-03     39.4606E-03    -4.36873E+06     137.048E+06     76.5809E+06    -263.316E+03    -28.2416E-03     54.6593E-03    -26.4178E-03     84.6082E-03    -29.5251E-03     56.1918E-03    -26.2273E-03     84.9051E-03
            1718     15.7819E-03     39.3281E-03    -6.76504E+06     125.422E+06     40.5193E+06    -535.169E+03    -29.1979E-03     55.4394E-03    -26.2416E-03     130.668E-03    -30.7725E-03     57.3176E-03    -26.2110E-03     130.768E-03
            1719     14.9033E-03     39.2134E-03    -8.75914E+06     77.6624E+06     544.403E+03     797.658E+03    -28.3144E-03     54.4364E-03    -26.1220E-03     109.307E-03    -29.1193E-03     55.4843E-03    -26.2191E-03     109.145E-03
            1720     14.0273E-03     39.1220E-03    -9.44801E+06     21.8774E+06    -7.84060E+06     977.786E+03    -28.1468E-03     54.3103E-03    -26.1635E-03     88.4008E-03    -28.5153E-03     54.7456E-03    -26.2208E-03     88.2229E-03
            1721     13.1507E-03     39.0455E-03    -8.69869E+06    -15.0562E+06    -4.11212E+06     587.004E+03    -27.8642E-03     54.0812E-03    -26.2170E-03     76.1182E-03    -28.0534E-03     54.1979E-03    -26.2031E-03     75.9621E-03
            1722     12.2745E-03     38.9770E-03    -8.68042E+06    -35.5918E+06    -1.52698E+06     274.866E+03    -27.6811E-03     53.9179E-03    -26.2368E-03     69.2415E-03    -27.7830E-03     53.8670E-03    -26.1802E-03     69.1093E-03
            1723     11.3979E-03     38.9135E-03    -9.56633E+06    -47.8189E+06     333.009E+03     256.607E+03    -27.5071E-03     53.7474E-03    -26.2404E-03     64.0353E-03    -27.5623E-03     53.5979E-03    -26.1555E-03     63.9275E-03
            1724     10.5215E-03     38.8548E-03    -10.5372E+06    -57.3493E+06     1.89408E+06     312.901E+03    -27.3397E-03     53.5774E-03    -26.2377E-03     59.0841E-03    -27.3647E-03     53.3559E-03    -26.1298E-03     58.9979E-03
            1725     9.64490E-03     38.8006E-03    -11.7436E+06    -64.3802E+06     2.47655E+06     277.041E+03    -27.1690E-03     53.3950E-03    -26.2261E-03     54.3085E-03    -27.1744E-03     53.1231E-03    -26.1033E-03     54.2395E-03
            1726     8.76837E-03     38.7508E-03    -13.2526E+06    -71.3342E+06     2.28836E+06     175.571E+03    -27.0017E-03     53.2125E-03    -26.2108E-03     49.6564E-03    -26.9932E-03     52.8970E-03    -26.0767E-03     49.6008E-03
            1727     7.89171E-03     38.7055E-03    -14.9560E+06    -77.1257E+06     1.67203E+06     226.245E+03    -26.8295E-03     53.0220E-03    -26.1925E-03     44.9353E-03    -26.8123E-03     52.6730E-03    -26.0506E-03     44.8925E-03
            1728     7.01506E-03     38.6647E-03    -16.9597E+06    -84.5739E+06    -428.615E+03     268.994E+03    -26.6640E-03     52.8354E-03    -26.1714E-03     40.1152E-03    -26.6373E-03     52.4494E-03    -26.0263E-03     40.0830E-03
            1729     6.13826E-03     38.6286E-03    -19.2071E+06    -91.2853E+06    -3.80830E+06     156.507E+03    -26.5081E-03     52.6539E-03    -26.1458E-03     35.2228E-03    -26.4740E-03     52.2386E-03    -26.0046E-03     35.1973E-03
            1730     5.26150E-03     38.5971E-03    -21.4035E+06    -96.3989E+06    -8.14340E+06     129.152E+03    -26.3733E-03     52.4891E-03    -26.1158E-03     30.2744E-03    -26.3337E-03     52.0549E-03    -25.9857E-03     30.2551E-03
            1731     4.38464E-03     38.5704E-03    -23.5564E+06    -102.599E+06    -13.1173E+06     53.2190E+03    -26.2643E-03     52.3508E-03    -26.0865E-03     25.2595E-03    -26.2174E-03     51.8940E-03    -25.9691E-03     25.2445E-03
            1732     3.50779E-03     38.5485E-03    -25.5794E+06    -109.282E+06    -17.8842E+06     45.8147E+03    -26.1698E-03     52.2308E-03    -26.0610E-03     20.2171E-03    -26.1150E-03     51.7492E-03    -25.9549E-03     20.2063E-03
            1733     2.63083E-03     38.5316E-03    -27.3975E+06    -114.697E+06    -22.3787E+06     57.9320E+03    -26.0988E-03     52.1360E-03    -26.0372E-03     15.1762E-03    -26.0379E-03     51.6356E-03    -25.9431E-03     15.1690E-03
            1734     1.75394E-03     38.5193E-03    -28.8573E+06    -117.225E+06    -26.4913E+06     17.7674E+03    -26.0507E-03     52.0609E-03    -26.0102E-03     10.1901E-03    -25.9870E-03     51.5555E-03    -25.9309E-03     10.1854E-03
            1735     877.006E-06     38.5120E-03    -29.7297E+06    -118.878E+06    -29.1877E+06    -29.3046E+03    -25.9890E-03     51.9928E-03    -26.0039E-03     5.46820E-03    -25.9230E-03     51.4841E-03    -25.9343E-03     5.46525E-03
            1736     16.6629E-03     38.4595E-03    -4.13108E+06     137.709E+06     75.6210E+06    -165.401E+03    -27.3266E-03     53.7770E-03    -26.4503E-03     86.0424E-03    -28.6107E-03     55.3159E-03    -26.2659E-03     86.3613E-03
            1737     15.7799E-03     38.3305E-03    -8.30128E+06     123.207E+06     35.0056E+06    -300.093E+03    -29.4796E-03     55.7590E-03    -26.2794E-03     131.349E-03    -31.0546E-03     57.6402E-03    -26.2710E-03     131.448E-03
            1738     14.9036E-03     38.2132E-03    -9.46824E+06     77.2348E+06    -2.16080E+06     357.657E+03    -29.2792E-03     55.4164E-03    -26.1371E-03     109.009E-03    -30.0880E-03     56.4719E-03    -26.2462E-03     108.825E-03
            1739     14.0273E-03     38.1222E-03    -8.41683E+06     22.6110E+06    -6.60328E+06     261.195E+03    -28.3818E-03     54.5394E-03    -26.1577E-03     87.6745E-03    -28.7461E-03     54.9733E-03    -26.2113E-03     87.4855E-03
            1740     13.1512E-03     38.0460E-03    -8.43791E+06    -15.1686E+06    -3.58463E+06     74.8911E+03    -27.9257E-03     54.1240E-03    -26.1983E-03     75.8857E-03    -28.1137E-03     54.2385E-03    -26.1820E-03     75.7228E-03
            1741     12.2747E-03     37.9775E-03    -8.86142E+06    -35.4269E+06    -1.45131E+06     331.631E+03    -27.7220E-03     53.9325E-03    -26.2104E-03     69.1290E-03    -27.8248E-03     53.8822E-03    -26.1535E-03     68.9976E-03
            1742     11.3984E-03     37.9142E-03    -9.43167E+06    -47.9972E+06     474.064E+03     407.642E+03    -27.5493E-03     53.7581E-03    -26.2088E-03     63.9191E-03    -27.6035E-03     53.6071E-03    -26.1232E-03     63.8134E-03
            1743     10.5218E-03     37.8554E-03    -10.4667E+06    -57.1166E+06     1.94986E+06     425.438E+03    -27.3692E-03     53.5685E-03    -26.1993E-03     58.9812E-03    -27.3939E-03     53.3476E-03    -26.0916E-03     58.8968E-03
            1744     9.64539E-03     37.8014E-03    -11.7108E+06    -64.3648E+06     2.51523E+06     320.874E+03    -27.1919E-03     53.3737E-03    -26.1818E-03     54.1815E-03    -27.1970E-03     53.1015E-03    -26.0590E-03     54.1133E-03
            1745     8.76877E-03     37.7517E-03    -13.1731E+06    -71.1071E+06     2.37300E+06     278.569E+03    -27.0014E-03     53.1619E-03    -26.1605E-03     49.5252E-03    -26.9927E-03     52.8471E-03    -26.0264E-03     49.4712E-03
            1746     7.89217E-03     37.7065E-03    -14.9537E+06    -77.2943E+06     1.60440E+06     234.657E+03    -26.8142E-03     52.9514E-03    -26.1372E-03     44.7969E-03    -26.7965E-03     52.6015E-03    -25.9954E-03     44.7545E-03
            1747     7.01542E-03     37.6658E-03    -16.9036E+06    -84.4555E+06    -343.373E+03     318.179E+03    -26.6416E-03     52.7529E-03    -26.1114E-03     39.9663E-03    -26.6147E-03     52.3673E-03    -25.9661E-03     39.9349E-03
            1748     6.13871E-03     37.6298E-03    -19.0133E+06    -91.1156E+06    -3.66792E+06     238.731E+03    -26.4772E-03     52.5578E-03    -26.0806E-03     35.0715E-03    -26.4425E-03     52.1428E-03    -25.9392E-03     35.0473E-03
            1749     5.26183E-03     37.5985E-03    -21.2828E+06    -96.3638E+06    -8.13047E+06     132.918E+03    -26.3239E-03     52.3697E-03    -26.0459E-03     30.1382E-03    -26.2837E-03     51.9355E-03    -25.9159E-03     30.1192E-03
            1750     4.38497E-03     37.5719E-03    -23.4767E+06    -102.510E+06    -13.2518E+06     141.749E+03    -26.2010E-03     52.2139E-03    -26.0128E-03     25.1352E-03    -26.1536E-03     51.7576E-03    -25.8964E-03     25.1216E-03
            1751     3.50800E-03     37.5501E-03    -25.5387E+06    -109.268E+06    -18.0033E+06     90.2067E+03    -26.1048E-03     52.0900E-03    -25.9852E-03     20.1046E-03    -26.0496E-03     51.6085E-03    -25.8798E-03     20.0945E-03
            1752     2.63109E-03     37.5331E-03    -27.3401E+06    -114.697E+06    -22.4708E+06     98.1567E+03    -26.0223E-03     51.9824E-03    -25.9602E-03     15.0947E-03    -25.9610E-03     51.4821E-03    -25.8666E-03     15.0881E-03
            1753     1.75403E-03     37.5211E-03    -28.7701E+06    -117.146E+06    -26.6965E+06     152.321E+03    -25.9636E-03     51.8996E-03    -25.9360E-03     10.1410E-03    -25.8993E-03     51.3947E-03    -25.8579E-03     10.1380E-03
            1754     877.010E-06     37.5136E-03    -29.7999E+06    -118.772E+06    -29.2902E+06     117.399E+03    -25.9460E-03     51.8531E-03    -25.9071E-03     5.42767E-03    -25.8804E-03     51.3452E-03    -25.8381E-03     5.42664E-03
            1755     16.6490E-03     37.4633E-03    -4.10622E+06     137.060E+06     75.3497E+06     175.982E+03    -27.0757E-03     53.5260E-03    -26.4503E-03     84.3792E-03    -28.3366E-03     55.0404E-03    -26.2663E-03     84.6887E-03
            1756     15.7770E-03     37.3261E-03    -7.88008E+06     123.348E+06     36.2414E+06    -553.482E+03    -29.7896E-03     56.0668E-03    -26.2772E-03     128.779E-03    -31.3380E-03     57.9198E-03    -26.2634E-03     128.855E-03
            1757     14.9042E-03     37.2132E-03    -7.98385E+06     77.2852E+06     462.777E+03    -1.11094E+06    -29.3171E-03     55.4386E-03    -26.1215E-03     106.694E-03    -30.1119E-03     56.4781E-03    -26.2197E-03     106.490E-03
            1758     14.0280E-03     37.1224E-03    -7.50314E+06     21.7431E+06    -6.06388E+06    -169.839E+03    -28.2422E-03     54.3734E-03    -26.1312E-03     87.3931E-03    -28.6002E-03     54.7996E-03    -26.1822E-03     87.2004E-03
            1759     13.1514E-03     37.0466E-03    -7.65139E+06    -14.9615E+06    -3.40902E+06     600.114E+03    -27.9199E-03     54.0911E-03    -26.1712E-03     75.8199E-03    -28.1034E-03     54.2042E-03    -26.1555E-03     75.6644E-03
            1760     12.2751E-03     36.9779E-03    -8.54428E+06    -35.6039E+06    -1.46769E+06     481.305E+03    -27.7605E-03     53.9410E-03    -26.1804E-03     68.9690E-03    -27.8609E-03     53.8889E-03    -26.1238E-03     68.8396E-03
            1761     11.3986E-03     36.9148E-03    -9.48771E+06    -47.9593E+06     350.083E+03     582.502E+03    -27.5787E-03     53.7520E-03    -26.1733E-03     63.7542E-03    -27.6327E-03     53.6010E-03    -26.0883E-03     63.6510E-03
            1762     10.5223E-03     36.8561E-03    -10.5238E+06    -56.8919E+06     2.02878E+06     480.134E+03    -27.4028E-03     53.5614E-03    -26.1586E-03     58.8287E-03    -27.4280E-03     53.3414E-03    -26.0507E-03     58.7451E-03
            1763     9.64576E-03     36.8022E-03    -11.7038E+06    -64.2344E+06     2.54721E+06     364.067E+03    -27.2073E-03     53.3417E-03    -26.1345E-03     53.9950E-03    -27.2124E-03     53.0699E-03    -26.0116E-03     53.9276E-03
            1764     8.76928E-03     36.7527E-03    -13.1880E+06    -71.0482E+06     2.39214E+06     327.221E+03    -27.0064E-03     53.1134E-03    -26.1069E-03     49.3295E-03    -26.9977E-03     52.7987E-03    -25.9728E-03     49.2764E-03
            1765     7.89259E-03     36.7076E-03    -14.9432E+06    -77.2352E+06     1.54673E+06     335.838E+03    -26.8052E-03     52.8821E-03    -26.0769E-03     44.5978E-03    -26.7872E-03     52.5324E-03    -25.9355E-03     44.5570E-03
            1766     7.01594E-03     36.6671E-03    -16.9488E+06    -84.4679E+06    -613.406E+03     291.544E+03    -26.6179E-03     52.6622E-03    -26.0443E-03     39.7677E-03    -26.5908E-03     52.2768E-03    -25.9003E-03     39.7363E-03
            1767     6.13910E-03     36.6312E-03    -19.1129E+06    -90.9198E+06    -3.92909E+06     296.569E+03    -26.4408E-03     52.4485E-03    -26.0077E-03     34.8858E-03    -26.4065E-03     52.0349E-03    -25.8678E-03     34.8626E-03
            1768     5.26228E-03     36.5999E-03    -21.3255E+06    -96.2746E+06    -8.30277E+06     220.690E+03    -26.2776E-03     52.2455E-03    -25.9679E-03     29.9657E-03    -26.2374E-03     51.8119E-03    -25.8389E-03     29.9480E-03
            1769     4.38530E-03     36.5735E-03    -23.4416E+06    -102.489E+06    -13.3465E+06     174.660E+03    -26.1370E-03     52.0675E-03    -25.9305E-03     24.9781E-03    -26.0893E-03     51.6114E-03    -25.8146E-03     24.9650E-03
            1770     3.50835E-03     36.5518E-03    -25.4116E+06    -109.224E+06    -18.1853E+06     238.939E+03    -26.0228E-03     51.9228E-03    -25.9000E-03     19.9717E-03    -25.9669E-03     51.4416E-03    -25.7957E-03     19.9637E-03
            1771     2.63125E-03     36.5350E-03    -27.3410E+06    -114.677E+06    -22.6522E+06     285.825E+03    -25.9420E-03     51.8158E-03    -25.8738E-03     14.9963E-03    -25.8804E-03     51.3158E-03    -25.7812E-03     14.9923E-03
            1772     1.75421E-03     36.5229E-03    -28.8605E+06    -116.989E+06    -26.6065E+06     277.016E+03    -25.8798E-03     51.7286E-03    -25.8488E-03     10.0542E-03    -25.8163E-03     51.2244E-03    -25.7703E-03     10.0530E-03
            1773     877.106E-06     36.5155E-03    -29.6374E+06    -118.467E+06    -29.1076E+06     175.084E+03    -25.8357E-03     51.6756E-03    -25.8399E-03     5.37923E-03    -25.7699E-03     51.1686E-03    -25.7707E-03     5.37900E-03
            1774     16.6648E-03     36.4637E-03    -2.37188E+06     138.347E+06     78.2283E+06    -561.510E+03    -28.3525E-03     54.7016E-03    -26.3491E-03     81.6673E-03    -29.5977E-03     56.2027E-03    -26.1551E-03     81.9574E-03
            1775     15.7852E-03     36.3279E-03    -3.54729E+06     125.581E+06     38.4923E+06    -727.552E+03    -28.5129E-03     54.6779E-03    -26.1650E-03     129.437E-03    -30.0349E-03     56.5213E-03    -26.1495E-03     129.542E-03
            1776     14.9049E-03     36.2132E-03    -5.29448E+06     75.6496E+06    -816.638E+03    -901.723E+03    -28.3738E-03     54.4357E-03    -26.0619E-03     107.346E-03    -29.1436E-03     55.4576E-03    -26.1680E-03     107.159E-03
            1777     14.0281E-03     36.1234E-03    -6.17403E+06     19.9354E+06    -5.41065E+06     322.848E+03    -28.2554E-03     54.3662E-03    -26.1107E-03     87.5277E-03    -28.6056E-03     54.7809E-03    -26.1577E-03     87.3407E-03
            1778     13.1518E-03     36.0466E-03    -7.44635E+06    -14.8480E+06    -2.81681E+06     1.36664E+06    -27.9848E-03     54.1302E-03    -26.1453E-03     75.7237E-03    -28.1678E-03     54.2422E-03    -26.1271E-03     75.5780E-03
            1779     12.2755E-03     35.9786E-03    -8.60673E+06    -35.0778E+06    -1.01485E+06     1.18056E+06    -27.7795E-03     53.9278E-03    -26.1483E-03     68.7907E-03    -27.8810E-03     53.8772E-03    -26.0901E-03     68.6708E-03
            1780     11.3992E-03     35.9153E-03    -9.68748E+06    -47.7647E+06     259.475E+03     641.989E+03    -27.6258E-03     53.7593E-03    -26.1335E-03     63.6140E-03    -27.6806E-03     53.6093E-03    -26.0489E-03     63.5117E-03
            1781     10.5227E-03     35.8569E-03    -10.5252E+06    -56.6995E+06     1.99359E+06     451.652E+03    -27.4394E-03     53.5509E-03    -26.1115E-03     58.6009E-03    -27.4645E-03     53.3315E-03    -26.0040E-03     58.5172E-03
            1782     9.64635E-03     35.8030E-03    -11.7292E+06    -64.1673E+06     2.39938E+06     431.630E+03    -27.2234E-03     53.3032E-03    -26.0798E-03     53.7561E-03    -27.2282E-03     53.0316E-03    -25.9577E-03     53.6900E-03
            1783     8.76975E-03     35.7537E-03    -13.2162E+06    -71.0160E+06     2.17194E+06     413.206E+03    -27.0119E-03     53.0568E-03    -26.0448E-03     49.0756E-03    -27.0029E-03     52.7424E-03    -25.9118E-03     49.0239E-03
            1784     7.89318E-03     35.7088E-03    -14.9699E+06    -77.1567E+06     1.26924E+06     399.010E+03    -26.7982E-03     52.8053E-03    -26.0071E-03     44.3498E-03    -26.7799E-03     52.4563E-03    -25.8672E-03     44.3101E-03
            1785     7.01640E-03     35.6684E-03    -16.9374E+06    -84.3882E+06    -941.158E+03     394.226E+03    -26.5936E-03     52.5606E-03    -25.9670E-03     39.5153E-03    -26.5660E-03     52.1760E-03    -25.8247E-03     39.4854E-03
            1786     6.13964E-03     35.6326E-03    -19.1114E+06    -90.8824E+06    -4.28961E+06     397.185E+03    -26.3993E-03     52.3229E-03    -25.9235E-03     34.6363E-03    -26.3644E-03     51.9099E-03    -25.7855E-03     34.6145E-03
            1787     5.26268E-03     35.6016E-03    -21.4107E+06    -96.0321E+06    -8.55535E+06     355.348E+03    -26.2215E-03     52.0994E-03    -25.8779E-03     29.7359E-03    -26.1816E-03     51.6674E-03    -25.7504E-03     29.7201E-03
            1788     4.38575E-03     35.5752E-03    -23.6367E+06    -102.483E+06    -13.6688E+06     247.564E+03    -26.0656E-03     51.9006E-03    -25.8350E-03     24.7768E-03    -26.0183E-03     51.4452E-03    -25.7205E-03     24.7648E-03
            1789     3.50863E-03     35.5537E-03    -25.6866E+06    -109.337E+06    -18.5089E+06     405.334E+03    -25.9389E-03     51.7389E-03    -25.8000E-03     19.7979E-03    -25.8836E-03     51.2580E-03    -25.6967E-03     19.7921E-03
            1790     2.63155E-03     35.5369E-03    -27.4724E+06    -114.359E+06    -22.4977E+06     428.927E+03    -25.8495E-03     51.6205E-03    -25.7710E-03     14.8584E-03    -25.7893E-03     51.1221E-03    -25.6778E-03     14.8563E-03
            1791     1.75439E-03     35.5249E-03    -28.8363E+06    -116.732E+06    -26.2704E+06     138.213E+03    -25.7802E-03     51.5223E-03    -25.7421E-03     9.95450E-03    -25.7174E-03     51.0189E-03    -25.6623E-03     9.95145E-03
            1792     877.212E-06     35.5176E-03    -29.5953E+06    -118.266E+06    -28.9289E+06     76.6294E+03    -25.7129E-03     51.4548E-03    -25.7419E-03     5.34606E-03    -25.6475E-03     50.9486E-03    -25.6722E-03     5.34457E-03
            1793     16.6581E-03     35.4655E-03    -5.26387E+06     139.054E+06     73.4569E+06    -2.53262E+06    -28.2024E-03     54.5611E-03    -26.3586E-03     86.5564E-03    -29.4979E-03     56.1187E-03    -26.1853E-03     86.8273E-03
            1794     15.7800E-03     35.3298E-03    -6.61424E+06     125.007E+06     30.9458E+06    -1.73673E+06    -29.3708E-03     55.5287E-03    -26.1579E-03     133.866E-03    -30.9360E-03     57.4244E-03    -26.1748E-03     133.947E-03
            1795     14.9045E-03     35.2142E-03    -7.13713E+06     73.9809E+06    -4.97737E+06    -352.943E+03    -28.7771E-03     54.8247E-03    -26.0477E-03     109.152E-03    -29.5545E-03     55.8539E-03    -26.1695E-03     108.967E-03
            1796     14.0284E-03     35.1230E-03    -7.94295E+06     18.8236E+06    -7.12485E+06     1.00551E+06    -28.5182E-03     54.6086E-03    -26.0904E-03     87.4779E-03    -28.8728E-03     55.0224E-03    -26.1418E-03     87.2975E-03
            1797     13.1524E-03     35.0473E-03    -8.17993E+06    -14.9702E+06    -3.47421E+06     1.69689E+06    -28.0661E-03     54.1806E-03    -26.1145E-03     75.5633E-03    -28.2511E-03     54.2935E-03    -26.0983E-03     75.4216E-03
            1798     12.2759E-03     34.9790E-03    -8.59614E+06    -34.1468E+06    -1.01891E+06     1.51621E+06    -27.8517E-03     53.9619E-03    -26.1102E-03     68.7088E-03    -27.9541E-03     53.9155E-03    -26.0533E-03     68.5932E-03
            1799     11.3996E-03     34.9159E-03    -9.20360E+06    -47.1181E+06     296.706E+03     837.762E+03    -27.7070E-03     53.7932E-03    -26.0862E-03     63.3658E-03    -27.7600E-03     53.6454E-03    -26.0030E-03     63.2660E-03
            1800     10.5234E-03     34.8575E-03    -10.4039E+06    -56.7263E+06     1.69565E+06     609.969E+03    -27.4793E-03     53.5338E-03    -26.0546E-03     58.3213E-03    -27.5029E-03     53.3142E-03    -25.9488E-03     58.2399E-03
            1801     9.64688E-03     34.8040E-03    -11.7544E+06    -63.9662E+06     2.08729E+06     569.543E+03    -27.2497E-03     53.2637E-03    -26.0140E-03     53.4497E-03    -27.2542E-03     52.9933E-03    -25.8938E-03     53.3855E-03
            1802     8.77043E-03     34.7547E-03    -13.2584E+06    -70.9850E+06     1.84776E+06     503.935E+03    -27.0227E-03     52.9929E-03    -25.9702E-03     48.7563E-03    -27.0132E-03     52.6790E-03    -25.8388E-03     48.7060E-03
            1803     7.89375E-03     34.7101E-03    -14.9838E+06    -77.0652E+06     1.08714E+06     506.395E+03    -26.7916E-03     52.7154E-03    -25.9238E-03     44.0033E-03    -26.7731E-03     52.3670E-03    -25.7849E-03     43.9651E-03
            1804     7.01708E-03     34.6698E-03    -16.9162E+06    -84.2526E+06    -1.05974E+06     425.948E+03    -26.5642E-03     52.4391E-03    -25.8749E-03     39.1755E-03    -26.5363E-03     52.0552E-03    -25.7335E-03     39.1462E-03
            1805     6.14021E-03     34.6343E-03    -18.8831E+06    -90.9058E+06    -4.36661E+06     437.690E+03    -26.3502E-03     52.1736E-03    -25.8234E-03     34.3205E-03    -26.3138E-03     51.7602E-03    -25.6861E-03     34.2994E-03
            1806     5.26330E-03     34.6033E-03    -20.8585E+06    -95.7700E+06    -8.56499E+06     419.964E+03    -26.1479E-03     51.9184E-03    -25.7704E-03     29.4509E-03    -26.1057E-03     51.4869E-03    -25.6442E-03     29.4361E-03
            1807     4.38618E-03     34.5772E-03    -22.9862E+06    -102.552E+06    -12.8471E+06     496.057E+03    -25.9834E-03     51.7095E-03    -25.7260E-03     24.5214E-03    -25.9339E-03     51.2516E-03    -25.6082E-03     24.5128E-03
            1808     3.50910E-03     34.5557E-03    -25.1983E+06    -109.335E+06    -17.3821E+06     610.877E+03    -25.8527E-03     51.5379E-03    -25.6852E-03     19.5907E-03    -25.7967E-03     51.0546E-03    -25.5770E-03     19.5877E-03
            1809     2.63189E-03     34.5391E-03    -27.0779E+06    -113.793E+06    -22.1369E+06     382.802E+03    -25.7352E-03     51.3804E-03    -25.6452E-03     14.7030E-03    -25.6744E-03     50.8837E-03    -25.5516E-03     14.7004E-03
            1810     1.75461E-03     34.5271E-03    -28.5442E+06    -116.484E+06    -26.1879E+06     137.513E+03    -25.6474E-03     51.2624E-03    -25.6150E-03     9.84998E-03    -25.5836E-03     50.7597E-03    -25.5356E-03     9.84697E-03
            1811     877.310E-06     34.5199E-03    -29.6276E+06    -118.206E+06    -28.9724E+06     26.7389E+03    -25.5814E-03     51.2041E-03    -25.6227E-03     5.30976E-03    -25.5162E-03     50.6983E-03    -25.5532E-03     5.30764E-03
            1812     16.6514E-03     34.4589E-03    -5.28712E+06     140.971E+06     68.7013E+06    -1.56566E+06    -27.2389E-03     53.6417E-03    -26.4028E-03     82.6451E-03    -28.5073E-03     55.1927E-03    -26.2561E-03     82.9227E-03
            1813     15.7813E-03     34.3303E-03    -12.0258E+06     122.640E+06     21.9717E+06    -3.82506E+06    -30.1925E-03     56.3779E-03    -26.1855E-03     129.491E-03    -31.7556E-03     58.2699E-03    -26.2360E-03     129.519E-03
            1814     14.9044E-03     34.2136E-03    -12.2978E+06     71.3341E+06    -8.61152E+06    -1.49370E+06    -29.5668E-03     55.6135E-03    -26.0467E-03     108.107E-03    -30.3669E-03     56.6481E-03    -26.1753E-03     107.893E-03
            1815     14.0288E-03     34.1231E-03    -11.2303E+06     18.3914E+06    -9.23084E+06     588.181E+03    -28.5574E-03     54.6201E-03    -26.0626E-03     86.9689E-03    -28.9226E-03     55.0374E-03    -26.1192E-03     86.7829E-03
            1816     13.1524E-03     34.0478E-03    -10.5867E+06    -15.2928E+06    -5.50346E+06     676.884E+03    -28.1916E-03     54.2684E-03    -26.0769E-03     75.3356E-03    -28.3850E-03     54.3860E-03    -26.0669E-03     75.1800E-03
            1817     12.2765E-03     33.9793E-03    -9.73417E+06    -33.7421E+06    -2.03459E+06     761.943E+03    -27.9976E-03     54.0592E-03    -26.0616E-03     68.4156E-03    -28.1045E-03     54.0177E-03    -26.0087E-03     68.2897E-03
            1818     11.4004E-03     33.9165E-03    -9.94877E+06    -46.7926E+06    -319.767E+03     940.496E+03    -27.7660E-03     53.7927E-03    -26.0267E-03     63.0200E-03    -27.8217E-03     53.6480E-03    -25.9461E-03     62.9217E-03
            1819     10.5240E-03     33.8583E-03    -10.7944E+06    -56.5338E+06     1.23724E+06     834.609E+03    -27.5357E-03     53.5206E-03    -25.9849E-03     57.9503E-03    -27.5605E-03     53.3028E-03    -25.8811E-03     57.8718E-03
            1820     9.64771E-03     33.8049E-03    -12.0473E+06    -63.7379E+06     1.92455E+06     673.647E+03    -27.2811E-03     53.2154E-03    -25.9343E-03     53.0517E-03    -27.2868E-03     52.9466E-03    -25.8148E-03     52.9891E-03
            1821     8.77115E-03     33.7559E-03    -13.5173E+06    -70.8619E+06     1.61741E+06     568.002E+03    -27.0345E-03     52.9136E-03    -25.8790E-03     48.3588E-03    -27.0260E-03     52.6008E-03    -25.7486E-03     48.3095E-03
            1822     7.89464E-03     33.7113E-03    -15.1530E+06    -76.9713E+06     977.989E+03     499.534E+03    -26.7719E-03     52.5944E-03    -25.8225E-03     43.6060E-03    -26.7541E-03     52.2466E-03    -25.6840E-03     43.5680E-03
            1823     7.01783E-03     33.6714E-03    -17.0253E+06    -84.0793E+06    -1.17583E+06     463.063E+03    -26.5181E-03     52.2818E-03    -25.7638E-03     38.8102E-03    -26.4907E-03     51.8989E-03    -25.6230E-03     38.7817E-03
            1824     6.14098E-03     33.6360E-03    -19.0454E+06    -90.8066E+06    -4.57159E+06     313.049E+03    -26.2818E-03     51.9852E-03    -25.7034E-03     33.9801E-03    -26.2461E-03     51.5727E-03    -25.5669E-03     33.9576E-03
            1825     5.26392E-03     33.6054E-03    -21.0693E+06    -95.8287E+06    -8.74307E+06     400.057E+03    -26.0624E-03     51.7052E-03    -25.6427E-03     29.1362E-03    -26.0208E-03     51.2739E-03    -25.5169E-03     29.1213E-03
            1826     4.38683E-03     33.5793E-03    -23.1384E+06    -102.623E+06    -12.9386E+06     633.603E+03    -25.8785E-03     51.4699E-03    -25.5914E-03     24.2544E-03    -25.8295E-03     51.0119E-03    -25.4737E-03     24.2477E-03
            1827     3.50957E-03     33.5580E-03    -25.0449E+06    -109.000E+06    -17.1617E+06     595.454E+03    -25.7264E-03     51.2720E-03    -25.5457E-03     19.3795E-03    -25.6703E-03     50.7899E-03    -25.4371E-03     19.3763E-03
            1828     2.63227E-03     33.5415E-03    -26.7639E+06    -113.382E+06    -21.9883E+06     461.798E+03    -25.6010E-03     51.1024E-03    -25.5014E-03     14.5411E-03    -25.5394E-03     50.6070E-03    -25.4081E-03     14.5396E-03
            1829     1.75489E-03     33.5297E-03    -28.1621E+06    -116.138E+06    -26.1870E+06     283.765E+03    -25.5098E-03     50.9764E-03    -25.4666E-03     9.74648E-03    -25.4446E-03     50.4749E-03    -25.3883E-03     9.74541E-03
            1830     877.432E-06     33.5224E-03    -28.8812E+06    -118.090E+06    -28.4845E+06     55.1799E+03    -25.4368E-03     50.9089E-03    -25.4721E-03     5.23237E-03    -25.3688E-03     50.4018E-03    -25.4014E-03     5.23066E-03
            1831     16.6645E-03     33.4658E-03    -3.03662E+06     142.871E+06     71.4476E+06     1.04873E+06    -27.7424E-03     54.1057E-03    -26.3633E-03     84.2194E-03    -29.0035E-03     55.6560E-03    -26.2088E-03     84.5282E-03
            1832     15.7791E-03     33.3278E-03    -7.89219E+06     125.190E+06     24.5705E+06     569.999E+03    -29.7526E-03     55.8986E-03    -26.1460E-03     130.693E-03    -31.2978E-03     57.7887E-03    -26.1933E-03     130.784E-03
            1833     14.9059E-03     33.2133E-03    -12.4159E+06     69.2271E+06    -10.7445E+06    -1.87514E+06    -29.5441E-03     55.5531E-03    -26.0090E-03     106.933E-03    -30.3303E-03     56.5721E-03    -26.1451E-03     106.714E-03
            1834     14.0290E-03     33.1239E-03    -12.0441E+06     16.8913E+06    -9.96880E+06    -1.09867E+06    -28.6019E-03     54.6292E-03    -26.0274E-03     86.8308E-03    -28.9666E-03     55.0401E-03    -26.0842E-03     86.6236E-03
            1835     13.1532E-03     33.0475E-03    -10.7584E+06    -14.8444E+06    -5.25651E+06    -351.181E+03    -28.3575E-03     54.3900E-03    -26.0325E-03     74.9398E-03    -28.5528E-03     54.5096E-03    -26.0216E-03     74.7695E-03
            1836     12.2773E-03     32.9799E-03    -10.9230E+06    -34.6076E+06    -2.75824E+06    -154.117E+03    -28.0828E-03     54.0852E-03    -26.0023E-03     68.0060E-03    -28.1929E-03     54.0416E-03    -25.9501E-03     67.8679E-03
            1837     11.4010E-03     32.9170E-03    -11.0145E+06    -46.9160E+06    -568.632E+03     469.807E+03    -27.8420E-03     53.7985E-03    -25.9565E-03     62.6724E-03    -27.9022E-03     53.6547E-03    -25.8754E-03     62.5679E-03
            1838     10.5250E-03     32.8590E-03    -11.4027E+06    -56.2729E+06     1.09578E+06     592.361E+03    -27.5913E-03     53.4926E-03    -25.9013E-03     57.5304E-03    -27.6190E-03     53.2769E-03    -25.7977E-03     57.4489E-03
            1839     9.64857E-03     32.8059E-03    -12.2430E+06    -63.7033E+06     1.93182E+06     599.705E+03    -27.3152E-03     53.1535E-03    -25.8383E-03     52.6336E-03    -27.3217E-03     52.8847E-03    -25.7185E-03     52.5702E-03
            1840     8.77221E-03     32.7571E-03    -13.5061E+06    -70.5698E+06     1.66301E+06     577.142E+03    -27.0259E-03     52.7963E-03    -25.7704E-03     47.9353E-03    -27.0175E-03     52.4846E-03    -25.6402E-03     47.8864E-03
            1841     7.89550E-03     32.7129E-03    -15.1473E+06    -76.9103E+06     784.601E+03     454.163E+03    -26.7347E-03     52.4371E-03    -25.7024E-03     43.2027E-03    -26.7164E-03     52.0897E-03    -25.5650E-03     43.1644E-03
            1842     7.01877E-03     32.6731E-03    -16.9994E+06    -83.9857E+06    -1.22409E+06     468.915E+03    -26.4616E-03     52.0959E-03    -25.6343E-03     38.4169E-03    -26.4340E-03     51.7134E-03    -25.4940E-03     38.3887E-03
            1843     6.14180E-03     32.6380E-03    -19.1490E+06    -90.5943E+06    -4.62475E+06     470.768E+03    -26.2013E-03     51.7655E-03    -25.5642E-03     33.6043E-03    -26.1662E-03     51.3542E-03    -25.4282E-03     33.5842E-03
            1844     5.26474E-03     32.6075E-03    -21.5530E+06    -96.0932E+06    -8.97159E+06     552.460E+03    -25.9597E-03     51.4546E-03    -25.4949E-03     28.7979E-03    -25.9197E-03     51.0229E-03    -25.3692E-03     28.7853E-03
            1845     4.38749E-03     32.5817E-03    -23.6856E+06    -102.385E+06    -13.8985E+06     588.599E+03    -25.7483E-03     51.1802E-03    -25.4319E-03     23.9704E-03    -25.7009E-03     50.7256E-03    -25.3186E-03     23.9633E-03
            1846     3.51014E-03     32.5606E-03    -25.4631E+06    -108.649E+06    -18.1708E+06     365.922E+03    -25.5753E-03     50.9564E-03    -25.3811E-03     19.1444E-03    -25.5204E-03     50.4780E-03    -25.2774E-03     19.1385E-03
            1847     2.63268E-03     32.5442E-03    -26.9719E+06    -113.285E+06    -22.0146E+06     349.731E+03    -25.4427E-03     50.7818E-03    -25.3391E-03     14.3482E-03    -25.3822E-03     50.2872E-03    -25.2458E-03     14.3453E-03
            1848     1.75515E-03     32.5325E-03    -28.1422E+06    -115.651E+06    -25.9636E+06     316.563E+03    -25.3518E-03     50.6530E-03    -25.3012E-03     9.63514E-03    -25.2875E-03     50.1536E-03    -25.2226E-03     9.63456E-03
            1849     877.626E-06     32.5253E-03    -29.0033E+06    -117.897E+06    -28.5149E+06     107.780E+03    -25.2979E-03     50.5714E-03    -25.2735E-03     5.16622E-03    -25.2306E-03     50.0655E-03    -25.2031E-03     5.16522E-03
            1850     16.6512E-03     32.4662E-03    -5.28101E+06     141.461E+06     73.5105E+06     294.995E+03    -28.7901E-03     55.1443E-03    -26.3542E-03     83.4587E-03    -30.0678E-03     56.6923E-03    -26.1841E-03     83.7318E-03
            1851     15.7834E-03     32.3260E-03    -6.76893E+06     127.027E+06     30.0854E+06     1.50942E+06    -29.8413E-03     55.9518E-03    -26.1105E-03     130.096E-03    -31.3866E-03     57.8365E-03    -26.1344E-03     130.190E-03
            1852     14.9051E-03     32.2144E-03    -6.87560E+06     71.6798E+06    -5.77634E+06     700.341E+03    -28.9999E-03     54.9723E-03    -25.9725E-03     106.430E-03    -29.7610E-03     55.9803E-03    -26.0953E-03     106.252E-03
            1853     14.0298E-03     32.1231E-03    -8.64742E+06     15.8245E+06    -7.76344E+06    -1.44917E+06    -28.8570E-03     54.8474E-03    -25.9904E-03     86.6559E-03    -29.2088E-03     55.2472E-03    -26.0396E-03     86.4404E-03
            1854     13.1541E-03     32.0480E-03    -9.40914E+06    -15.5289E+06    -4.31977E+06    -746.375E+03    -28.4476E-03     54.4248E-03    -25.9772E-03     74.5904E-03    -28.6358E-03     54.5370E-03    -25.9626E-03     74.4145E-03
            1855     12.2779E-03     31.9801E-03    -9.78748E+06    -34.9035E+06    -2.05771E+06    -79.4528E+03    -28.1774E-03     54.1117E-03    -25.9343E-03     67.6910E-03    -28.2819E-03     54.0635E-03    -25.8798E-03     67.5536E-03
            1856     11.4022E-03     31.9176E-03    -10.5181E+06    -47.3330E+06    -704.738E+03    -51.1107E+03    -27.9410E-03     53.8129E-03    -25.8720E-03     62.2813E-03    -27.9974E-03     53.6661E-03    -25.7916E-03     62.1700E-03
            1857     10.5259E-03     31.8598E-03    -11.1868E+06    -56.3410E+06     960.679E+03     253.988E+03    -27.6470E-03     53.4495E-03    -25.8024E-03     57.1244E-03    -27.6729E-03     53.2328E-03    -25.6997E-03     57.0388E-03
            1858     9.64977E-03     31.8069E-03    -12.1528E+06    -63.7926E+06     1.63375E+06     449.056E+03    -27.3363E-03     53.0617E-03    -25.7254E-03     52.1978E-03    -27.3414E-03     52.7925E-03    -25.6071E-03     52.1329E-03
            1859     8.77321E-03     31.7585E-03    -13.4808E+06    -70.4324E+06     1.48188E+06     540.769E+03    -27.0122E-03     52.6577E-03    -25.6454E-03     47.4922E-03    -27.0033E-03     52.3465E-03    -25.5163E-03     47.4433E-03
            1860     7.89664E-03     31.7145E-03    -15.1415E+06    -76.7686E+06     607.461E+03     537.177E+03    -26.6962E-03     52.2616E-03    -25.5655E-03     42.7599E-03    -26.6775E-03     51.9149E-03    -25.4292E-03     42.7232E-03
            1861     7.01978E-03     31.6751E-03    -17.1679E+06    -83.9960E+06    -1.40560E+06     542.993E+03    -26.3944E-03     51.8806E-03    -25.4862E-03     37.9797E-03    -26.3672E-03     51.4983E-03    -25.3466E-03     37.9529E-03
            1862     6.14281E-03     31.6402E-03    -19.2912E+06      -90.52E+06    -4.67907E+06     654.977E+03    -26.1058E-03     51.5118E-03    -25.4060E-03     33.1960E-03    -26.0713E-03     51.1010E-03    -25.2701E-03     33.1786E-03
            1863     5.26560E-03     31.6100E-03    -21.3198E+06    -96.0408E+06    -8.84121E+06     665.501E+03    -25.8378E-03     51.1656E-03    -25.3279E-03     28.4281E-03    -25.7968E-03     50.7336E-03    -25.2019E-03     28.4172E-03
            1864     4.38826E-03     31.5844E-03    -23.2591E+06    -102.035E+06    -13.5385E+06     520.838E+03    -25.6058E-03     50.8633E-03    -25.2576E-03     23.6481E-03    -25.5572E-03     50.4093E-03    -25.1436E-03     23.6404E-03
            1865     3.51077E-03     31.5635E-03    -25.1369E+06    -108.341E+06    -17.9757E+06     350.259E+03    -25.4160E-03     50.6156E-03    -25.1996E-03     18.8815E-03    -25.3601E-03     50.1380E-03    -25.0959E-03     18.8756E-03
            1866     2.63319E-03     31.5473E-03    -26.9377E+06    -113.225E+06    -22.1100E+06     203.710E+03    -25.2688E-03     50.4203E-03    -25.1516E-03     14.1465E-03    -25.2080E-03     49.9261E-03    -25.0589E-03     14.1419E-03
            1867     1.75550E-03     31.5357E-03    -28.2828E+06    -115.394E+06    -25.9054E+06     183.654E+03    -25.1621E-03     50.2736E-03    -25.1115E-03     9.49132E-03    -25.0990E-03     49.7755E-03    -25.0326E-03     9.48912E-03
            1868     877.730E-06     31.5285E-03    -28.9768E+06    -117.563E+06    -28.3991E+06     120.119E+03    -25.1094E-03     50.1898E-03    -25.0804E-03     5.08814E-03    -25.0427E-03     49.6853E-03    -25.0099E-03     5.08732E-03
            1869     16.6652E-03     31.4604E-03    -4.56862E+06     142.163E+06     73.7050E+06     434.614E+03    -29.0310E-03     55.3971E-03    -26.3661E-03     85.4689E-03    -30.3205E-03     56.9612E-03    -26.1971E-03     85.7448E-03
            1870     15.7835E-03     31.3304E-03    -6.38234E+06     126.266E+06     27.2640E+06    -884.964E+03    -30.4377E-03     56.5240E-03    -26.0862E-03     130.701E-03    -31.9811E-03     58.4136E-03    -26.1237E-03     130.756E-03
            1871     14.9066E-03     31.2133E-03    -5.51828E+06     71.9728E+06    -9.05574E+06     286.197E+03    -29.3849E-03     55.3020E-03    -25.9171E-03     107.856E-03    -30.1395E-03     56.3188E-03    -26.0588E-03     107.670E-03
            1872     14.0308E-03     31.1233E-03    -4.84466E+06     17.0333E+06    -8.01544E+06     1.29177E+06    -28.9871E-03     54.9176E-03    -25.9305E-03     86.4162E-03    -29.3201E-03     55.3171E-03    -25.9882E-03     86.2352E-03
            1873     13.1547E-03     31.0480E-03    -7.20025E+06    -16.5023E+06    -4.53144E+06     305.938E+03    -28.6018E-03     54.5123E-03    -25.9105E-03     74.3351E-03    -28.7764E-03     54.6160E-03    -25.8988E-03     74.1722E-03
            1874     12.2792E-03     30.9804E-03    -8.62889E+06    -34.5821E+06    -1.98811E+06     357.339E+03    -28.3312E-03     54.1842E-03    -25.8530E-03     67.3018E-03    -28.4301E-03     54.1355E-03    -25.8002E-03     67.1694E-03
            1875     11.4030E-03     30.9181E-03    -9.70033E+06    -47.4440E+06    -1.00283E+06     250.018E+03    -28.0309E-03     53.8048E-03    -25.7738E-03     61.8500E-03    -28.0821E-03     53.6560E-03    -25.6960E-03     61.7427E-03
            1876     10.5272E-03     30.8606E-03    -10.9105E+06    -56.5284E+06     770.761E+03     268.334E+03    -27.6986E-03     53.3897E-03    -25.6910E-03     56.6560E-03    -27.7221E-03     53.1715E-03    -25.5894E-03     56.5709E-03
            1877     9.65084E-03     30.8081E-03    -12.1350E+06    -63.9408E+06     1.41285E+06     435.881E+03    -27.3489E-03     52.9491E-03    -25.6002E-03     51.7297E-03    -27.3529E-03     52.6789E-03    -25.4829E-03     51.6651E-03
            1878     8.77451E-03     30.7599E-03    -13.5428E+06    -70.4601E+06     1.39959E+06     568.978E+03    -27.0073E-03     52.5141E-03    -25.5068E-03     46.9998E-03    -26.9982E-03     52.2027E-03    -25.3780E-03     46.9517E-03
            1879     7.89780E-03     30.7163E-03    -15.2413E+06    -76.6142E+06     593.596E+03     628.125E+03    -26.6564E-03     52.0692E-03    -25.4128E-03     42.2787E-03    -26.6382E-03     51.7232E-03    -25.2767E-03     42.2436E-03
            1880     7.02097E-03     30.6772E-03    -17.0801E+06    -83.9633E+06    -1.30973E+06     622.150E+03    -26.3190E-03     51.6399E-03    -25.3210E-03     37.5058E-03    -26.2913E-03     51.2573E-03    -25.1810E-03     37.4805E-03
            1881     6.14387E-03     30.6427E-03    -19.0674E+06    -90.5051E+06    -4.55647E+06     652.334E+03    -25.9971E-03     51.2262E-03    -25.2291E-03     32.7482E-03    -25.9615E-03     50.8148E-03    -25.0930E-03     32.7312E-03
            1882     5.26661E-03     30.6128E-03    -21.1499E+06    -95.7887E+06    -8.66256E+06     624.633E+03    -25.7031E-03     50.8438E-03    -25.1407E-03     28.0178E-03    -25.6617E-03     50.4124E-03    -25.0145E-03     28.0068E-03
            1883     4.38913E-03     30.5875E-03    -23.1854E+06    -101.720E+06    -13.3054E+06     490.818E+03    -25.4475E-03     50.5090E-03    -25.0615E-03     23.2880E-03    -25.3993E-03     50.0560E-03    -24.9470E-03     23.2802E-03
            1884     3.51150E-03     30.5668E-03    -25.0736E+06    -108.110E+06    -17.8225E+06     378.019E+03    -25.2384E-03     50.2335E-03    -24.9951E-03     18.5846E-03    -25.1827E-03     49.7567E-03    -24.8911E-03     18.5792E-03
            1885     2.63373E-03     30.5507E-03    -26.7543E+06    -112.999E+06    -22.1189E+06     307.056E+03    -25.0768E-03     50.0156E-03    -24.9388E-03     13.9189E-03    -25.0154E-03     49.5222E-03    -24.8468E-03     13.9158E-03
            1886     1.75589E-03     30.5392E-03    -28.1615E+06    -115.232E+06    -26.1793E+06     168.097E+03    -24.9519E-03     49.8441E-03    -24.8922E-03     9.33587E-03    -24.8880E-03     49.3470E-03    -24.8152E-03     9.33358E-03
            1887     877.985E-06     30.5322E-03    -28.9652E+06    -117.343E+06    -28.5653E+06     82.5123E+03    -24.8728E-03     49.7497E-03    -24.8769E-03     5.02211E-03    -24.8061E-03     49.2466E-03    -24.8076E-03     5.02085E-03
            1888     16.6487E-03     30.4573E-03    -4.02710E+06     141.730E+06     72.4242E+06     180.600E+03    -28.4140E-03     54.7736E-03    -26.3596E-03     84.3215E-03    -29.6756E-03     56.3140E-03    -26.1972E-03     84.5975E-03
            1889     15.7801E-03     30.3276E-03    -8.67814E+06     126.070E+06     28.8926E+06    -727.967E+03    -30.4842E-03     56.5896E-03    -26.1054E-03     128.268E-03    -32.0253E-03     58.4632E-03    -26.1312E-03     128.317E-03
            1890     14.9068E-03     30.2132E-03    -11.5909E+06     70.7541E+06    -7.18785E+06    -927.086E+03    -30.1095E-03     56.0236E-03    -25.9142E-03     107.147E-03    -30.9020E-03     57.0471E-03    -26.0359E-03     106.932E-03
            1891     14.0310E-03     30.1232E-03    -11.1867E+06     16.2477E+06    -10.0172E+06    -168.677E+03    -29.1632E-03     55.0384E-03    -25.8751E-03     86.0992E-03    -29.5222E-03     55.4444E-03    -25.9326E-03     85.8977E-03
            1892     13.1559E-03     30.0477E-03    -8.81454E+06    -15.9549E+06    -4.83266E+06     956.953E+03    -28.7652E-03     54.6029E-03    -25.8377E-03     73.8979E-03    -28.9475E-03     54.7113E-03    -25.8259E-03     73.7425E-03
            1893     12.2800E-03     29.9807E-03    -9.17342E+06    -34.7323E+06    -2.14575E+06     707.857E+03    -28.4612E-03     54.2244E-03    -25.7631E-03     66.8122E-03    -28.5616E-03     54.1751E-03    -25.7102E-03     66.6841E-03
            1894     11.4045E-03     29.9185E-03    -9.85027E+06    -46.8690E+06    -591.591E+03     546.877E+03    -28.1096E-03     53.7785E-03    -25.6689E-03     61.3624E-03    -28.1622E-03     53.6315E-03    -25.5897E-03     61.2591E-03
            1895     10.5283E-03     29.8616E-03    -10.7260E+06    -56.8535E+06     980.965E+03     450.006E+03    -27.7439E-03     53.3146E-03    -25.5707E-03     56.1657E-03    -27.7655E-03     53.0935E-03    -25.4678E-03     56.0835E-03
            1896     9.65228E-03     29.8093E-03    -11.9255E+06    -63.7735E+06     1.68966E+06     508.891E+03    -27.3800E-03     52.8438E-03    -25.4638E-03     51.2047E-03    -27.3831E-03     52.5732E-03    -25.3456E-03     51.1416E-03
            1897     8.77579E-03     29.7616E-03    -13.2748E+06    -70.6943E+06     1.55963E+06     570.334E+03    -26.9993E-03     52.3534E-03    -25.3542E-03     46.4573E-03    -26.9882E-03     52.0398E-03    -25.2246E-03     46.4098E-03
            1898     7.89918E-03     29.7183E-03    -14.8481E+06    -76.4350E+06     854.847E+03     712.865E+03    -26.6120E-03     51.8566E-03    -25.2446E-03     41.7331E-03    -26.5921E-03     51.5101E-03    -25.1079E-03     41.6996E-03
            1899     7.02225E-03     29.6796E-03    -16.8175E+06    -83.9025E+06    -1.28954E+06     690.919E+03    -26.2360E-03     51.3735E-03    -25.1375E-03     36.9846E-03    -26.2068E-03     50.9906E-03    -24.9979E-03     36.9607E-03
            1900     6.14510E-03     29.6455E-03    -18.9531E+06    -90.3936E+06    -4.51194E+06     708.463E+03    -25.8834E-03     50.9160E-03    -25.0326E-03     32.2543E-03    -25.8473E-03     50.5048E-03    -24.8966E-03     32.2384E-03
            1901     5.26770E-03     29.6159E-03    -21.0276E+06    -95.4958E+06    -8.66696E+06     600.721E+03    -25.5575E-03     50.4890E-03    -24.9315E-03     27.5666E-03    -25.5158E-03     50.0588E-03    -24.8058E-03     27.5556E-03
            1902     4.39009E-03     29.5909E-03    -23.0233E+06    -101.540E+06    -13.2156E+06     527.225E+03    -25.2746E-03     50.1165E-03    -24.8419E-03     22.8869E-03    -25.2259E-03     49.6639E-03    -24.7274E-03     22.8798E-03
            1903     3.51230E-03     29.5705E-03    -25.0228E+06    -107.827E+06    -17.7590E+06     461.512E+03    -25.0410E-03     49.8069E-03    -24.7659E-03     18.2581E-03    -24.9855E-03     49.3313E-03    -24.6621E-03     18.2541E-03
            1904     2.63438E-03     29.5546E-03    -26.8068E+06    -112.828E+06    -22.2860E+06     353.173E+03    -24.8546E-03     49.5562E-03    -24.7016E-03     13.6676E-03    -24.7935E-03     49.0640E-03    -24.6106E-03     13.6652E-03
            1905     1.75631E-03     29.5433E-03    -28.0838E+06    -114.969E+06    -26.3210E+06     390.892E+03    -24.7121E-03     49.3644E-03    -24.6522E-03     9.16824E-03    -24.6480E-03     48.8687E-03    -24.5764E-03     9.16892E-03
            1906     878.140E-06     29.5363E-03    -28.9152E+06    -116.999E+06    -28.6241E+06     275.197E+03    -24.6479E-03     49.2711E-03    -24.6233E-03     4.96566E-03    -24.5813E-03     48.7697E-03    -24.5548E-03     4.96696E-03
            1907     16.6684E-03     29.4623E-03    -3.14285E+06     142.497E+06     73.8009E+06     917.204E+03    -28.9247E-03     55.2380E-03    -26.3132E-03     83.2777E-03    -30.1704E-03     56.7643E-03    -26.1463E-03     83.5594E-03
            1908     15.7842E-03     29.3263E-03    -6.37362E+06     126.455E+06     28.3095E+06     1.10755E+06    -30.0906E-03     56.1373E-03    -26.0467E-03     128.992E-03    -31.6100E-03     58.0004E-03    -26.0793E-03     129.071E-03
            1909     14.9073E-03     29.2126E-03    -7.98962E+06     71.5760E+06    -8.07369E+06     238.118E+03    -30.2061E-03     56.0645E-03    -25.8584E-03     106.275E-03    -30.9756E-03     57.0831E-03    -25.9909E-03     106.072E-03
            1910     14.0326E-03     29.1225E-03    -8.95854E+06     15.5884E+06    -9.08481E+06    -698.219E+03    -29.4630E-03     55.2790E-03    -25.8161E-03     85.6644E-03    -29.8100E-03     55.6759E-03    -25.8711E-03     85.4533E-03
            1911     13.1568E-03     29.0480E-03    -10.0593E+06    -16.8901E+06    -5.27518E+06    -93.9485E+03    -28.9183E-03     54.6757E-03    -25.7574E-03     73.6208E-03    -29.1035E-03     54.7806E-03    -25.7447E-03     73.4514E-03
            1912     12.2815E-03     28.9805E-03    -9.39318E+06    -34.1549E+06    -1.99308E+06     542.385E+03    -28.5697E-03     54.2357E-03    -25.6660E-03     66.4140E-03    -28.6710E-03     54.1882E-03    -25.6128E-03     66.2841E-03
            1913     11.4056E-03     28.9194E-03    -9.74803E+06    -47.0800E+06    -542.243E+03     500.868E+03    -28.2164E-03     53.7715E-03    -25.5551E-03     60.8687E-03    -28.2674E-03     53.6223E-03    -25.4754E-03     60.7651E-03
            1914     10.5299E-03     28.8624E-03    -10.6433E+06    -56.5968E+06     984.851E+03     607.078E+03    -27.8250E-03     53.2624E-03    -25.4374E-03     55.6195E-03    -27.8459E-03     53.0417E-03    -25.3350E-03     55.5398E-03
            1915     9.65366E-03     28.8108E-03    -11.8410E+06    -63.8733E+06     1.64012E+06     583.838E+03    -27.4116E-03     52.7238E-03    -25.3122E-03     50.6013E-03    -27.4134E-03     52.4521E-03    -25.1942E-03     50.5397E-03
            1916     8.77733E-03     28.7633E-03    -13.2904E+06    -70.5513E+06     1.36136E+06     593.451E+03    -26.9913E-03     52.1752E-03    -25.1839E-03     45.8518E-03    -26.9798E-03     51.8621E-03    -25.0555E-03     45.8053E-03
            1917     7.90063E-03     28.7206E-03    -14.8650E+06    -76.6276E+06     555.508E+03     647.721E+03    -26.5596E-03     51.6169E-03    -25.0573E-03     41.1160E-03    -26.5387E-03     51.2697E-03    -24.9219E-03     41.0823E-03
            1918     7.02366E-03     28.6822E-03    -16.6633E+06    -83.7409E+06    -1.36466E+06     899.053E+03    -26.1453E-03     51.0802E-03    -24.9349E-03     36.3902E-03    -26.1152E-03     50.6977E-03    -24.7962E-03     36.3695E-03
            1919     6.14642E-03     28.6486E-03    -18.7470E+06    -90.1787E+06    -4.62145E+06     800.475E+03    -25.7583E-03     50.5732E-03    -24.8149E-03     31.7002E-03    -25.7211E-03     50.1627E-03    -24.6801E-03     31.6860E-03
            1920     5.26892E-03     28.6193E-03    -20.8917E+06    -95.1961E+06     -8.7745E+06     690.168E+03    -25.3985E-03     50.0986E-03    -24.7001E-03     27.0623E-03    -25.3563E-03     49.6698E-03    -24.5757E-03     27.0528E-03
            1921     4.39117E-03     28.5947E-03    -23.0510E+06    -101.423E+06    -13.4439E+06     649.823E+03    -25.0840E-03     49.6823E-03    -24.5983E-03     22.4514E-03    -25.0352E-03     49.2306E-03    -24.4850E-03     22.4462E-03
            1922     3.51320E-03     28.5746E-03    -25.0009E+06    -107.459E+06    -17.8569E+06     570.235E+03    -24.8211E-03     49.3333E-03    -24.5122E-03     17.8974E-03    -24.7659E-03     48.8596E-03    -24.4094E-03     17.8950E-03
            1923     2.63504E-03     28.5590E-03    -26.6960E+06    -112.602E+06    -21.9603E+06     377.335E+03    -24.6097E-03     49.0523E-03    -24.4426E-03     13.3831E-03    -24.5489E-03     48.5606E-03    -24.3504E-03     13.3813E-03
            1924     1.75677E-03     28.5478E-03    -27.9124E+06    -114.845E+06    -25.7360E+06     338.180E+03    -24.4557E-03     48.8447E-03    -24.3889E-03     8.97197E-03    -24.3918E-03     48.3485E-03    -24.3106E-03     8.97209E-03
            1925     878.403E-06     28.5410E-03    -28.4850E+06    -116.324E+06    -28.0913E+06     466.214E+03    -24.3888E-03     48.7355E-03    -24.3467E-03     4.90142E-03    -24.3218E-03     48.2361E-03    -24.2772E-03     4.90523E-03
            1926     16.6510E-03     28.4597E-03    -3.94758E+06     141.373E+06     73.4922E+06    -83.4815E+03    -29.3348E-03     55.6558E-03    -26.3211E-03     83.9342E-03    -30.5952E-03     57.1910E-03    -26.1529E-03     84.1887E-03
            1927     15.7820E-03     28.3261E-03    -5.11338E+06     127.530E+06     30.4294E+06     1.54672E+06    -30.9169E-03     56.9488E-03    -26.0319E-03     130.594E-03    -32.4452E-03     58.8231E-03    -26.0573E-03     130.664E-03
            1928     14.9082E-03     28.2108E-03    -6.56220E+06     72.3917E+06    -6.89660E+06     1.41254E+06    -30.3455E-03     56.1594E-03    -25.8138E-03     106.412E-03    -31.1046E-03     57.1721E-03    -25.9438E-03     106.222E-03
            1929     14.0328E-03     28.1225E-03    -7.62831E+06     16.0508E+06    -8.62243E+06     1.18489E+06    -29.7361E-03     55.4891E-03    -25.7530E-03     85.2116E-03    -30.0754E-03     55.8833E-03    -25.8084E-03     85.0228E-03
            1930     13.1580E-03     28.0472E-03    -8.24889E+06    -16.7240E+06    -5.15709E+06     187.606E+03    -29.1530E-03     54.8237E-03    -25.6706E-03     73.0866E-03    -29.3279E-03     54.9249E-03    -25.6602E-03     72.9201E-03
            1931     12.2825E-03     27.9812E-03    -9.28398E+06    -34.7699E+06    -2.90743E+06     39.0706E+03    -28.7188E-03     54.2760E-03    -25.5572E-03     65.8893E-03    -28.8159E-03     54.2251E-03    -25.5078E-03     65.7532E-03
            1932     11.4071E-03     27.9195E-03    -9.82088E+06    -47.1178E+06    -918.160E+03      668.66E+03    -28.3621E-03     53.7897E-03    -25.4276E-03     60.2004E-03    -28.4118E-03     53.6400E-03    -25.3496E-03     60.0992E-03
            1933     10.5314E-03     27.8636E-03    -10.8150E+06    -56.4948E+06     596.641E+03     696.881E+03    -27.9135E-03     53.2014E-03    -25.2879E-03     54.9049E-03    -27.9340E-03     52.9813E-03    -25.1873E-03     54.8268E-03
            1934     9.65531E-03     27.8120E-03    -11.9813E+06    -63.7855E+06     1.20152E+06     686.345E+03    -27.4394E-03     52.5813E-03    -25.1420E-03     49.9027E-03    -27.4407E-03     52.3103E-03    -25.0261E-03     49.8431E-03
            1935     8.77894E-03     27.7654E-03    -13.4058E+06    -70.4863E+06     1.00137E+06     719.112E+03    -26.9730E-03     51.9681E-03    -24.9951E-03     45.1381E-03    -26.9611E-03     51.6555E-03    -24.8684E-03     45.0939E-03
            1936     7.90225E-03     27.7230E-03    -15.2526E+06    -76.6811E+06     84.0423E+03     817.943E+03    -26.4989E-03     51.3492E-03    -24.8504E-03     40.4177E-03    -26.4788E-03     51.0025E-03    -24.7166E-03     40.3869E-03
            1937     7.02526E-03     27.6853E-03    -17.1782E+06    -83.6882E+06    -2.03009E+06     806.160E+03    -26.0439E-03     50.7535E-03    -24.7097E-03     35.7299E-03    -26.0152E-03     50.3727E-03    -24.5736E-03     35.7086E-03
            1938     6.14789E-03     27.6520E-03    -18.9355E+06    -89.8292E+06    -5.02983E+06     785.823E+03    -25.6138E-03     50.1878E-03    -24.5741E-03     31.0802E-03    -25.5772E-03     49.7798E-03    -24.4415E-03     31.0663E-03
            1939     5.27026E-03     27.6233E-03    -20.8714E+06    -95.1818E+06    -9.01718E+06     825.514E+03    -25.2169E-03     49.6631E-03    -24.4462E-03     26.4983E-03    -25.1741E-03     49.2345E-03    -24.3230E-03     26.4910E-03
            1940     4.39232E-03     27.5990E-03    -22.9417E+06    -101.113E+06    -13.5819E+06     904.891E+03    -24.8725E-03     49.2044E-03    -24.3319E-03     21.9684E-03    -24.8233E-03     48.7542E-03    -24.2199E-03     21.9669E-03
            1941     3.51417E-03     27.5792E-03    -25.0384E+06    -107.065E+06    -17.9998E+06     725.485E+03    -24.5790E-03     48.8142E-03    -24.2352E-03     17.4925E-03    -24.5242E-03     48.3426E-03    -24.1336E-03     17.4925E-03
            1942     2.63582E-03     27.5638E-03    -26.9073E+06    -112.092E+06    -21.9956E+06     428.035E+03    -24.3469E-03     48.5040E-03    -24.1571E-03     13.0790E-03    -24.2877E-03     48.0152E-03    -24.0656E-03     13.0780E-03
            1943     1.75730E-03     27.5529E-03    -28.5074E+06    -114.883E+06    -25.8132E+06     254.868E+03    -24.1886E-03     48.2803E-03    -24.0916E-03     8.76647E-03    -24.1274E-03     47.7849E-03    -24.0128E-03     8.76565E-03
            1944     878.681E-06     27.5461E-03    -29.6537E+06    -115.656E+06    -28.8383E+06     466.752E+03    -24.0518E-03     48.1134E-03    -24.0616E-03     4.77157E-03    -23.9906E-03     47.6201E-03    -23.9951E-03     4.77544E-03
            1945     16.6638E-03     27.4586E-03    -4.71985E+06     141.030E+06     73.2734E+06    -693.582E+03    -29.5453E-03     55.8627E-03    -26.3174E-03     81.4369E-03    -30.7985E-03     57.3873E-03    -26.1487E-03     81.6670E-03
            1946     15.7849E-03     27.3241E-03    -8.72277E+06     125.684E+06     29.8077E+06    -367.562E+03    -31.2669E-03     57.2775E-03    -26.0107E-03     128.982E-03    -32.8040E-03     59.1433E-03    -26.0312E-03     129.012E-03
            1947     14.9085E-03     27.2108E-03    -8.39793E+06     72.2906E+06    -6.34844E+06     1.43676E+06    -30.7606E-03     56.5249E-03    -25.7643E-03     105.596E-03    -31.5251E-03     57.5346E-03    -25.8887E-03     105.399E-03
            1948     14.0343E-03     27.1205E-03    -7.93054E+06     17.1394E+06    -8.77382E+06     1.52513E+06    -29.9275E-03     55.5985E-03    -25.6710E-03     84.2313E-03    -30.2656E-03     55.9948E-03    -25.7282E-03     84.0455E-03
            1949     13.1593E-03     27.0477E-03    -8.41044E+06    -16.0679E+06    -5.10255E+06     831.812E+03    -29.3492E-03     54.9184E-03    -25.5692E-03     72.1365E-03    -29.5241E-03     55.0211E-03    -25.5592E-03     71.9775E-03
            1950     12.2842E-03     26.9807E-03    -9.12269E+06    -34.9266E+06    -2.79362E+06     571.808E+03    -28.8996E-03     54.3335E-03    -25.4339E-03     65.1074E-03    -28.9945E-03     54.2801E-03    -25.3840E-03     64.9781E-03
            1951     11.4088E-03     26.9204E-03    -10.1022E+06    -47.5347E+06    -1.49546E+06     587.960E+03    -28.4620E-03     53.7418E-03    -25.2797E-03     59.3966E-03    -28.5106E-03     53.5901E-03    -25.2036E-03     59.2949E-03
            1952     10.5331E-03     26.8644E-03    -10.8405E+06    -56.3042E+06     410.780E+03     879.503E+03    -27.9766E-03     53.0965E-03    -25.1199E-03     54.0873E-03    -27.9964E-03     52.8767E-03    -25.0204E-03     54.0123E-03
            1953     9.65715E-03     26.8139E-03    -12.0825E+06    -63.6778E+06     971.760E+03     832.859E+03    -27.4626E-03     52.4155E-03    -24.9529E-03     49.0940E-03    -27.4635E-03     52.1447E-03    -24.8382E-03     49.0371E-03
            1954     8.78076E-03     26.7674E-03    -13.5961E+06    -70.5032E+06     721.223E+03     925.345E+03    -26.9388E-03     51.7247E-03    -24.7858E-03     44.3318E-03    -26.9269E-03     51.4121E-03    -24.6603E-03     44.2910E-03
            1955     7.90407E-03     26.7259E-03    -15.1911E+06    -76.5582E+06    -56.5075E+03     955.380E+03    -26.4249E-03     51.0471E-03    -24.6222E-03     39.6350E-03    -26.4040E-03     50.7007E-03    -24.4895E-03     39.6067E-03
            1956     7.02693E-03     26.6885E-03    -16.9553E+06    -83.3836E+06    -2.15310E+06     818.430E+03    -25.9298E-03     50.3924E-03    -24.4627E-03     34.9799E-03    -25.8999E-03     50.0127E-03    -24.3279E-03     34.9594E-03
            1957     6.14953E-03     26.6559E-03    -18.9731E+06    -89.7376E+06    -5.31390E+06     725.122E+03    -25.4507E-03     49.7607E-03    -24.3100E-03     30.3818E-03    -25.4138E-03     49.3533E-03    -24.1789E-03     30.3678E-03
            1958     5.27171E-03     26.6276E-03    -20.9303E+06    -95.1611E+06    -9.25758E+06     848.298E+03    -25.0135E-03     49.1812E-03    -24.1677E-03     25.8721E-03    -24.9705E-03     48.7530E-03    -24.0457E-03     25.8656E-03
            1959     4.39362E-03     26.6038E-03    -22.7958E+06    -101.007E+06    -13.5689E+06     1.01388E+06    -24.6333E-03     48.6750E-03    -24.0417E-03     21.4253E-03    -24.5835E-03     48.2250E-03    -23.9300E-03     21.4256E-03
            1960     3.51523E-03     26.5843E-03    -24.5730E+06    -106.404E+06    -17.7381E+06     964.968E+03    -24.3113E-03     48.2462E-03    -23.9349E-03     17.0424E-03    -24.2555E-03     47.7769E-03    -23.8336E-03     17.0457E-03
            1961     2.63661E-03     26.5693E-03    -26.3793E+06    -111.557E+06    -21.9140E+06     614.801E+03    -24.0626E-03     47.9100E-03    -23.8474E-03     12.7524E-03    -24.0016E-03     47.4229E-03    -23.7570E-03     12.7540E-03
            1962     1.75786E-03     26.5585E-03    -28.0025E+06    -114.692E+06    -25.4848E+06     461.734E+03    -23.8870E-03     47.6631E-03    -23.7761E-03     8.56196E-03    -23.8240E-03     47.1675E-03    -23.6966E-03     8.56394E-03
            1963     879.017E-06     26.5520E-03    -29.1612E+06    -115.066E+06    -28.0218E+06     178.453E+03    -23.7250E-03     47.4767E-03    -23.7517E-03     4.61100E-03    -23.6633E-03     46.9845E-03    -23.6827E-03     4.61123E-03
            1964     16.6559E-03     26.4581E-03    -4.49334E+06     141.502E+06      73.761E+06     554.221E+03    -30.1544E-03     56.4624E-03    -26.3080E-03     83.6844E-03    -31.4161E-03     57.9966E-03    -26.1379E-03     83.9098E-03
            1965     15.7827E-03     26.3224E-03    -8.47241E+06     125.456E+06     29.0470E+06     692.314E+03    -32.1339E-03     58.0925E-03    -25.9586E-03     129.440E-03    -33.6682E-03     59.9578E-03    -25.9830E-03     129.454E-03
            1966     14.9107E-03     26.2083E-03    -10.4252E+06     71.3387E+06    -8.45115E+06    -120.206E+03    -31.0892E-03     56.7610E-03    -25.6718E-03     104.345E-03    -31.8514E-03     57.7639E-03    -25.8024E-03     104.122E-03
            1967     14.0356E-03     26.1207E-03    -9.29493E+06     17.5430E+06    -9.37268E+06     692.582E+03    -29.9998E-03     55.5619E-03    -25.5622E-03     83.4994E-03    -30.3403E-03     55.9589E-03    -25.6210E-03     83.3034E-03
            1968     13.1608E-03     26.0464E-03    -8.71075E+06    -15.6962E+06    -5.29770E+06     991.279E+03    -29.4890E-03     54.9335E-03    -25.4445E-03     71.4462E-03    -29.6636E-03     55.0368E-03    -25.4356E-03     71.2893E-03
            1969     12.2860E-03     25.9813E-03    -9.19017E+06    -34.5842E+06    -2.87806E+06     926.109E+03    -29.0543E-03     54.3425E-03    -25.2882E-03     64.2900E-03    -29.1485E-03     54.2897E-03    -25.2391E-03     64.1652E-03
            1970     11.4106E-03     25.9206E-03    -9.88032E+06    -47.5818E+06    -1.59125E+06     879.088E+03    -28.5357E-03     53.6482E-03    -25.1125E-03     58.6045E-03    -28.5816E-03     53.4947E-03    -25.0371E-03     58.5073E-03
            1971     10.5351E-03     25.8659E-03    -10.9556E+06    -56.3866E+06     238.808E+03     869.093E+03    -28.0243E-03     52.9562E-03    -24.9319E-03     53.2324E-03    -28.0432E-03     52.7354E-03    -24.8331E-03     53.1580E-03
            1972     9.65912E-03     25.8154E-03    -12.0312E+06    -63.5940E+06     971.998E+03     1.08049E+06    -27.4700E-03     52.2138E-03    -24.7437E-03     48.2095E-03    -27.4701E-03     51.9425E-03    -24.6292E-03     48.1566E-03
            1973     8.78284E-03     25.7701E-03    -13.3887E+06    -70.3794E+06     662.577E+03     1.01615E+06    -26.9047E-03     51.4592E-03    -24.5545E-03     43.4581E-03    -26.8912E-03     51.1465E-03    -24.4298E-03     43.4194E-03
            1974     7.90600E-03     25.7288E-03    -14.9501E+06    -76.3522E+06    -113.670E+03     939.717E+03    -26.3397E-03     50.7096E-03    -24.3698E-03     38.7739E-03    -26.3174E-03     50.3635E-03    -24.2380E-03     38.7462E-03
            1975     7.02892E-03     25.6923E-03    -16.7105E+06    -83.1083E+06    -2.16048E+06     915.099E+03    -25.7854E-03     49.9769E-03    -24.1915E-03     34.1499E-03    -25.7544E-03     49.5978E-03    -24.0576E-03     34.1314E-03
            1976     6.15127E-03     25.6601E-03    -18.6786E+06    -89.6245E+06    -5.37131E+06     913.135E+03    -25.2659E-03     49.2878E-03    -24.0219E-03     29.6266E-03    -25.2274E-03     48.8804E-03    -23.8917E-03     29.6156E-03
            1977     5.27334E-03     25.6325E-03    -20.8623E+06    -95.1516E+06    -9.19487E+06     971.432E+03    -24.7894E-03     48.6548E-03    -23.8653E-03     25.1956E-03    -24.7461E-03     48.2262E-03    -23.7431E-03     25.1913E-03
            1978     4.39500E-03     25.6091E-03    -22.9705E+06    -100.903E+06    -13.8343E+06     1.09541E+06    -24.3666E-03     48.0916E-03    -23.7250E-03     20.8391E-03    -24.3173E-03     47.6426E-03    -23.6145E-03     20.8409E-03
            1979     3.51638E-03     25.5901E-03    -24.7761E+06    -105.784E+06    -18.6425E+06     1.02664E+06    -24.0160E-03     47.6202E-03    -23.6043E-03     16.5655E-03    -23.9607E-03     47.1555E-03    -23.5082E-03     16.5699E-03
            1980     2.63752E-03     25.5753E-03    -26.1979E+06    -110.990E+06    -22.2423E+06     794.578E+03    -23.7461E-03     47.2579E-03    -23.5118E-03     12.3878E-03    -23.6845E-03     46.7738E-03    -23.4241E-03     12.3920E-03
            1981     1.75845E-03     25.5648E-03    -27.3088E+06    -114.068E+06    -25.2206E+06     440.422E+03    -23.5444E-03     46.9865E-03    -23.4421E-03     8.31189E-03    -23.4792E-03     46.4926E-03    -23.3632E-03     8.31374E-03
            1982     879.201E-06     25.5583E-03    -27.8119E+06    -114.701E+06    -27.4667E+06    -122.438E+03    -23.4358E-03     46.8202E-03    -23.3844E-03     4.43768E-03    -23.3688E-03     46.3271E-03    -23.3151E-03     4.43411E-03
            1983     16.6587E-03     25.4531E-03    -4.64921E+06     140.519E+06      73.506E+06     471.771E+03    -31.0300E-03     57.2841E-03    -26.2542E-03     80.1582E-03    -32.2694E-03     58.7928E-03    -26.0836E-03     80.3570E-03
            1984     15.7875E-03     25.3192E-03    -6.90808E+06     126.703E+06     30.8936E+06     524.731E+03    -32.1756E-03     58.0473E-03    -25.8717E-03     126.447E-03    -33.6842E-03     59.8916E-03    -25.8909E-03     126.450E-03
            1985     14.9117E-03     25.2076E-03    -7.53106E+06     71.6661E+06    -6.64326E+06     651.642E+03    -31.0191E-03     56.5924E-03    -25.5733E-03     103.495E-03    -31.7631E-03     57.5833E-03    -25.6995E-03     103.282E-03
            1986     14.0375E-03     25.1194E-03    -8.49913E+06     16.5867E+06    -9.54535E+06     305.456E+03    -30.1989E-03     55.6455E-03    -25.4466E-03     83.0960E-03    -30.5321E-03     56.0351E-03    -25.5061E-03     82.8932E-03
            1987     13.1628E-03     25.0464E-03    -9.04088E+06    -15.6315E+06    -5.56551E+06     1.00433E+06    -29.6735E-03     54.9807E-03    -25.3072E-03     70.8841E-03    -29.8475E-03     55.0833E-03    -25.2993E-03     70.7269E-03
            1988     12.2879E-03     24.9808E-03    -9.52673E+06    -34.4594E+06    -2.92482E+06     1.10988E+06    -29.1713E-03     54.3011E-03    -25.1298E-03     63.4818E-03    -29.2656E-03     54.2477E-03    -25.0806E-03     63.3599E-03
            1989     11.4129E-03     24.9217E-03    -10.2116E+06    -47.1972E+06    -1.82477E+06     930.566E+03    -28.6550E-03     53.5844E-03    -24.9294E-03     57.8114E-03    -28.7014E-03     53.4324E-03    -24.8553E-03     57.7156E-03
            1990     10.5372E-03     24.8668E-03    -10.8674E+06     -56.578E+06     42.4516E+03     979.111E+03    -28.0827E-03     52.8075E-03    -24.7248E-03     52.3343E-03    -28.0995E-03     52.5848E-03    -24.6268E-03     52.2623E-03
            1991     9.66144E-03     24.8177E-03    -11.9382E+06    -63.4855E+06     879.686E+03     1.04130E+06    -27.4715E-03     51.9847E-03    -24.5132E-03     47.2562E-03    -27.4702E-03     51.7131E-03    -24.3995E-03     47.2038E-03
            1992     8.78497E-03     24.7725E-03    -13.1220E+06    -70.1713E+06     664.937E+03     1.05186E+06    -26.8597E-03     51.1609E-03    -24.3012E-03     42.5226E-03    -26.8445E-03     50.8481E-03    -24.1771E-03     42.4853E-03
            1993     7.90831E-03     24.7324E-03    -14.6183E+06    -76.1265E+06    -119.236E+03     1.00017E+06    -26.2346E-03     50.3292E-03    -24.0946E-03     37.8516E-03    -26.2104E-03     49.9833E-03    -23.9636E-03     37.8256E-03
            1994     7.03089E-03     24.6963E-03    -16.4387E+06    -83.0380E+06    -2.17567E+06     1.04575E+06    -25.6236E-03     49.5207E-03    -23.8971E-03     33.2777E-03    -25.5909E-03     49.1412E-03    -23.7637E-03     33.2617E-03
            1995     6.15324E-03     24.6650E-03    -18.4771E+06    -89.4812E+06    -5.26554E+06     1.15875E+06    -25.0563E-03     48.7672E-03    -23.7109E-03     28.8157E-03    -25.0169E-03     48.3598E-03    -23.5807E-03     28.8086E-03
            1996     5.27503E-03     24.6378E-03    -20.5891E+06    -95.0657E+06    -9.15358E+06     1.26660E+06    -24.5393E-03     48.0782E-03    -23.5389E-03     24.4696E-03    -24.4946E-03     47.6494E-03    -23.4169E-03     24.4696E-03
            1997     4.39652E-03     24.6151E-03    -22.6465E+06    -100.634E+06    -13.6065E+06     1.30123E+06    -24.0844E-03     47.4701E-03    -23.3857E-03     20.2070E-03    -24.0341E-03     47.0216E-03    -23.2750E-03     20.2119E-03
            1998     3.51761E-03     24.5964E-03    -24.5258E+06    -105.274E+06    -18.4843E+06     1.23455E+06    -23.7004E-03     46.9535E-03    -23.2532E-03     16.0511E-03    -23.6447E-03     46.4907E-03    -23.1574E-03     16.0586E-03
            1999     2.63844E-03     24.5821E-03    -26.2446E+06    -110.215E+06    -22.5421E+06     969.865E+03    -23.4029E-03     46.5532E-03    -23.1503E-03     11.9916E-03    -23.3422E-03     46.0735E-03    -23.0651E-03     11.9983E-03
            2000     1.75908E-03     24.5718E-03    -27.4814E+06    -113.155E+06    -25.6190E+06     307.003E+03    -23.1882E-03     46.2621E-03    -23.0739E-03     8.03087E-03    -23.1246E-03     45.7736E-03    -22.9981E-03     8.03116E-03
            2001     879.613E-06     24.5656E-03    -28.2582E+06    -114.718E+06    -27.8240E+06    -23.4424E+03    -23.0718E-03     46.0809E-03    -23.0091E-03     4.31469E-03    -23.0064E-03     45.5888E-03    -22.9409E-03     4.31248E-03
            2002     16.6652E-03     24.4522E-03    -4.07284E+06     140.441E+06     73.2657E+06     620.390E+03    -31.8553E-03     58.0649E-03    -26.2096E-03     83.3244E-03    -33.1041E-03     59.5854E-03    -26.0410E-03     83.5131E-03
            2003     15.7866E-03     24.3180E-03    -6.62137E+06     126.486E+06     30.5862E+06     607.174E+03    -32.3572E-03     58.1620E-03    -25.8048E-03     128.354E-03    -33.8673E-03     60.0088E-03    -25.8256E-03     128.351E-03
            2004     14.9134E-03     24.2058E-03    -8.39799E+06     71.8841E+06    -7.27417E+06     760.938E+03    -31.2994E-03     56.7924E-03    -25.4930E-03     103.944E-03    -32.0433E-03     57.7828E-03    -25.6214E-03     103.728E-03
            2005     14.0387E-03     24.1186E-03    -8.48368E+06     16.4906E+06    -9.82607E+06     1.33372E+06    -30.6624E-03     56.0021E-03    -25.3397E-03     82.8237E-03    -30.9932E-03     56.3899E-03    -25.4005E-03     82.6303E-03
            2006     13.1646E-03     24.0454E-03    -9.16321E+06    -15.8277E+06    -5.49380E+06     1.15953E+06    -29.9618E-03     55.1314E-03    -25.1696E-03     70.2444E-03    -30.1340E-03     55.2309E-03    -25.1608E-03     70.0882E-03
            2007     12.2900E-03     23.9814E-03    -9.45527E+06    -34.1067E+06    -2.85300E+06     1.06301E+06    -29.3699E-03     54.3324E-03    -24.9624E-03     62.7509E-03    -29.4626E-03     54.2787E-03    -24.9135E-03     62.6286E-03
            2008     11.4149E-03     23.9220E-03    -9.80209E+06    -47.0672E+06    -1.58855E+06     958.361E+03    -28.8164E-03     53.5506E-03    -24.7342E-03     56.8744E-03    -28.8599E-03     53.3968E-03    -24.6597E-03     56.7795E-03
            2009     10.5398E-03     23.8686E-03    -10.5953E+06    -56.4786E+06     156.561E+03     918.068E+03    -28.1540E-03     52.6552E-03    -24.5013E-03     51.3337E-03    -28.1685E-03     52.4312E-03    -24.4032E-03     51.2619E-03
            2010     9.66372E-03     23.8197E-03    -11.4576E+06    -63.4702E+06     1.11488E+06     1.00392E+06    -27.4746E-03     51.7390E-03    -24.2643E-03     46.2525E-03    -27.4704E-03     51.4655E-03    -24.1501E-03     46.2008E-03
            2011     8.78754E-03     23.7757E-03    -12.7154E+06     -69.952E+06     788.837E+03     1.05986E+06    -26.7902E-03     50.8181E-03    -24.0279E-03     41.5166E-03    -26.7728E-03     50.5050E-03    -23.9041E-03     41.4805E-03
            2012     7.91049E-03     23.7360E-03    -14.2741E+06    -76.0977E+06    -171.334E+03     1.14856E+06    -26.1066E-03     49.9061E-03    -23.7995E-03     36.8718E-03    -26.0801E-03     49.5593E-03    -23.6693E-03     36.8488E-03
            2013     7.03325E-03     23.7010E-03    -16.1400E+06    -82.9714E+06    -2.20880E+06     1.31607E+06    -25.4521E-03     49.0341E-03    -23.5820E-03     32.3433E-03    -25.4176E-03     48.6541E-03    -23.4493E-03     32.3317E-03
            2014     6.15525E-03     23.6702E-03    -18.1979E+06    -89.3816E+06    -5.39506E+06     1.44952E+06    -24.8325E-03     48.2093E-03    -23.3769E-03     27.9573E-03    -24.7913E-03     47.8019E-03    -23.2479E-03     27.9547E-03
            2015     5.27692E-03     23.6438E-03    -20.3002E+06    -94.8588E+06    -9.15031E+06     1.53413E+06    -24.2727E-03     47.4618E-03    -23.1892E-03     23.6891E-03    -24.2266E-03     47.0335E-03    -23.0679E-03     23.6932E-03
            2016     4.39808E-03     23.6215E-03    -22.2629E+06    -100.145E+06    -13.5215E+06     1.44701E+06    -23.7824E-03     46.8040E-03    -23.0215E-03     19.5248E-03    -23.7309E-03     46.3571E-03    -22.9117E-03     19.5321E-03
            2017     3.51896E-03     23.6036E-03    -23.9852E+06    -105.004E+06    -17.6859E+06     1.45337E+06    -23.3661E-03     46.2464E-03    -22.8803E-03     15.4870E-03    -23.3092E-03     45.7829E-03    -22.7816E-03     15.4976E-03
            2018     2.63948E-03     23.5895E-03    -25.5113E+06    -109.046E+06    -21.7513E+06     1.27097E+06    -23.0364E-03     45.8031E-03    -22.7668E-03     11.5662E-03    -22.9749E-03     45.3270E-03    -22.6804E-03     11.5770E-03
            2019     1.75979E-03     23.5796E-03    -26.8323E+06    -112.154E+06    -25.1810E+06     498.122E+03    -22.8008E-03     45.4862E-03    -22.6854E-03     7.76384E-03    -22.7360E-03     45.0011E-03    -22.6098E-03     7.76676E-03
            2020     879.917E-06     23.5734E-03    -27.6975E+06    -114.707E+06    -27.1512E+06     75.3215E+03    -22.6498E-03     45.3078E-03    -22.6580E-03     4.20896E-03    -22.5826E-03     44.8140E-03    -22.5873E-03     4.20810E-03
            2021     16.6533E-03     23.4435E-03    -4.42658E+06     139.766E+06     73.1969E+06    -202.985E+03    -31.7956E-03     58.0392E-03    -26.2437E-03     81.9490E-03    -33.0284E-03     59.5402E-03    -26.0739E-03     82.1088E-03
            2022     15.7878E-03     23.3155E-03    -7.44871E+06     124.554E+06     28.2517E+06     233.893E+03    -33.3271E-03     59.1234E-03    -25.7964E-03     125.564E-03    -34.8157E-03     60.9456E-03    -25.8249E-03     125.524E-03
            2023     14.9131E-03     23.2042E-03    -8.25333E+06     71.8402E+06    -8.33776E+06     1.82195E+06    -32.1353E-03     57.5635E-03    -25.4282E-03     103.320E-03    -32.8767E-03     58.5548E-03    -25.5621E-03     103.104E-03
            2024     14.0404E-03     23.1164E-03    -9.09804E+06     17.1737E+06    -9.12311E+06     1.30092E+06    -31.1580E-03     56.3945E-03    -25.2365E-03     81.6666E-03    -31.4897E-03     56.7814E-03    -25.2938E-03     81.4679E-03
            2025     13.1664E-03     23.0452E-03    -8.58326E+06    -15.5830E+06    -4.79516E+06     1.01049E+06    -30.2974E-03     55.3254E-03    -25.0280E-03     69.2749E-03    -30.4654E-03     55.4215E-03    -25.0169E-03     69.1158E-03
            2026     12.2920E-03     22.9809E-03    -8.70036E+06    -33.9089E+06    -2.38160E+06     920.475E+03    -29.6795E-03     54.4636E-03    -24.7841E-03     61.7258E-03    -29.7674E-03     54.4072E-03    -24.7342E-03     61.6013E-03
            2027     11.4176E-03     22.9230E-03    -9.15143E+06    -46.9102E+06    -1.24367E+06     934.578E+03    -28.9607E-03     53.4829E-03    -24.5222E-03     55.7440E-03    -28.9999E-03     53.3267E-03    -24.4471E-03     55.6497E-03
            2028     10.5421E-03     22.8699E-03    -9.75268E+06    -56.4311E+06     357.609E+03     961.421E+03    -28.2096E-03     52.4699E-03    -24.2603E-03     50.2334E-03    -28.2189E-03     52.2432E-03    -24.1625E-03     50.1634E-03
            2029     9.66651E-03     22.8223E-03    -10.8267E+06    -63.4405E+06     1.16463E+06     1.01479E+06    -27.4644E-03     51.4613E-03    -23.9969E-03     45.1731E-03    -27.4560E-03     51.1860E-03    -23.8834E-03     45.1227E-03
            2030     8.78993E-03     22.7790E-03    -12.0973E+06    -70.0014E+06     831.758E+03     1.21489E+06    -26.7166E-03     50.4527E-03    -23.7361E-03     40.4263E-03    -26.6952E-03     50.1375E-03    -23.6129E-03     40.3934E-03
            2031     7.91315E-03     22.7403E-03    -13.7509E+06    -76.0999E+06    -306.175E+03     1.47293E+06    -25.9690E-03     49.4533E-03    -23.4843E-03     35.8035E-03    -25.9391E-03     49.1053E-03    -23.3555E-03     35.7858E-03
            2032     7.03545E-03     22.7060E-03    -15.7390E+06    -82.9920E+06    -2.44352E+06     1.72782E+06    -25.2581E-03     48.5043E-03    -23.2461E-03     31.3332E-03    -25.2208E-03     48.1236E-03    -23.1152E-03     31.3279E-03
            2033     6.15748E-03     22.6761E-03    -17.8846E+06    -89.1104E+06    -5.44877E+06     1.86240E+06    -24.5988E-03     47.6214E-03    -23.0226E-03     27.0244E-03    -24.5562E-03     47.2147E-03    -22.8947E-03     27.0280E-03
            2034     5.27884E-03     22.6503E-03    -19.9741E+06    -94.4896E+06    -9.13297E+06     1.76488E+06    -23.9915E-03     46.8089E-03    -22.8174E-03     22.8564E-03    -23.9443E-03     46.3818E-03    -22.6971E-03     22.8641E-03
            2035     4.39984E-03     22.6289E-03    -21.9846E+06    -99.6546E+06    -13.4438E+06     1.71680E+06    -23.4563E-03     46.0914E-03    -22.6351E-03     18.8053E-03    -23.4041E-03     45.6464E-03    -22.5259E-03     18.8166E-03
            2036     3.52034E-03     22.6113E-03    -24.0044E+06    -104.635E+06    -17.8264E+06     1.70480E+06    -23.0075E-03     45.4886E-03    -22.4811E-03     14.8996E-03    -22.9510E-03     45.0271E-03    -22.3837E-03     14.9139E-03
            2037     2.64057E-03     22.5978E-03    -25.6485E+06    -107.858E+06    -21.9861E+06     1.44696E+06    -22.6457E-03     45.0027E-03    -22.3570E-03     11.1180E-03    -22.5862E-03     44.5331E-03    -22.2734E-03     11.1314E-03
            2038     1.76048E-03     22.5881E-03    -26.7708E+06    -110.925E+06    -25.4172E+06     818.121E+03    -22.3876E-03     44.6594E-03    -22.2719E-03     7.45131E-03    -22.3239E-03     44.1807E-03    -22.1993E-03     7.45855E-03
            2039     880.256E-06     22.5822E-03    -27.5651E+06    -114.358E+06    -27.3411E+06     314.603E+03    -22.2614E-03     44.4853E-03    -22.2240E-03     4.03158E-03    -22.1937E-03     43.9933E-03    -22.1549E-03     4.03391E-03
            2040     16.6663E-03     22.4389E-03    -3.42128E+06     140.516E+06     73.6424E+06     508.165E+03    -31.8564E-03     58.0969E-03    -26.2405E-03     82.6453E-03    -33.0732E-03     59.5868E-03    -26.0711E-03     82.8076E-03
            2041     15.7867E-03     22.3134E-03    -7.79333E+06     122.279E+06     24.0511E+06     255.093E+03    -34.0008E-03     59.7572E-03    -25.7564E-03     125.028E-03    -35.4643E-03     61.5572E-03    -25.8022E-03     124.965E-03
            2042     14.9155E-03     22.1998E-03    -8.13342E+06     71.2595E+06    -11.9894E+06     1.31374E+06    -33.1966E-03     58.5297E-03    -25.3330E-03     101.580E-03    -33.9225E-03     59.5145E-03    -25.4845E-03     101.337E-03
            2043     14.0422E-03     22.1155E-03    -6.69695E+06     18.6053E+06    -8.70071E+06     1.49894E+06    -31.4923E-03     56.5964E-03    -25.1041E-03     80.2131E-03    -31.8077E-03     56.9793E-03    -25.1649E-03     80.0157E-03
            2044     13.1684E-03     22.0436E-03    -7.11936E+06    -15.5328E+06    -4.76708E+06     960.647E+03    -30.6599E-03     55.5224E-03    -24.8625E-03     68.1095E-03    -30.8176E-03     55.6136E-03    -24.8535E-03     67.9488E-03
            2045     12.2948E-03     21.9810E-03    -7.51736E+06    -33.5725E+06    -2.39005E+06     1.05197E+06    -29.9036E-03     54.4874E-03    -24.5837E-03     60.4888E-03    -29.9836E-03     54.4284E-03    -24.5361E-03     60.3665E-03
            2046     11.4199E-03     21.9236E-03    -8.18979E+06    -47.0519E+06    -1.42586E+06     1.07805E+06    -29.0896E-03     53.3807E-03    -24.2910E-03     54.5227E-03    -29.1217E-03     53.2208E-03    -24.2181E-03     54.4313E-03
            2047     10.5451E-03     21.8719E-03    -9.20466E+06    -56.1614E+06     238.764E+03     1.21532E+06    -28.2506E-03     52.2516E-03    -24.0011E-03     49.0411E-03    -28.2558E-03     52.0241E-03    -23.9051E-03     48.9758E-03
            2048     9.66902E-03     21.8249E-03    -10.4345E+06    -63.5954E+06     825.793E+03     1.28945E+06    -27.4428E-03     51.1537E-03    -23.7109E-03     43.9742E-03    -27.4306E-03     50.8763E-03    -23.5994E-03     43.9288E-03
            2049     8.79284E-03     21.7827E-03    -11.9754E+06    -70.0473E+06     486.449E+03     1.53452E+06    -26.6303E-03     50.0554E-03    -23.4250E-03     39.2278E-03    -26.6070E-03     49.7394E-03    -23.3036E-03     39.2004E-03
            2050     7.91563E-03     21.7450E-03    -13.6287E+06    -76.2319E+06    -685.198E+03     1.81288E+06    -25.8235E-03     48.9729E-03    -23.1493E-03     34.6497E-03    -25.7917E-03     48.6240E-03    -23.0224E-03     34.6375E-03
            2051     7.03810E-03     21.7116E-03    -15.3775E+06    -82.9795E+06    -2.59676E+06     2.15135E+06    -25.0564E-03     47.9461E-03    -22.8897E-03     30.2345E-03    -25.0167E-03     47.5647E-03    -22.7601E-03     30.2357E-03
            2052     6.15973E-03     21.6825E-03    -17.2917E+06    -88.6822E+06    -5.40342E+06     2.25635E+06    -24.3373E-03     46.9840E-03    -22.6467E-03     26.0093E-03    -24.2921E-03     46.5782E-03    -22.5200E-03     26.0188E-03
            2053     5.28097E-03     21.6577E-03    -19.4206E+06    -94.0129E+06    -9.03026E+06     2.22311E+06    -23.6838E-03     46.1090E-03    -22.4252E-03     21.9573E-03    -23.6344E-03     45.6831E-03    -22.3058E-03     21.9717E-03
            2054     4.40157E-03     21.6368E-03    -21.6891E+06    -99.1947E+06    -13.3333E+06     2.21978E+06    -23.1121E-03     45.3410E-03    -22.2288E-03     18.0364E-03    -23.0591E-03     44.8975E-03    -22.1202E-03     18.0547E-03
            2055     3.52184E-03     21.6199E-03    -23.7024E+06    -103.949E+06    -17.5332E+06     2.11765E+06    -22.6346E-03     44.6968E-03    -22.0622E-03     14.2569E-03    -22.5780E-03     44.2378E-03    -21.9648E-03     14.2769E-03
            2056     2.64168E-03     21.6068E-03    -25.4212E+06    -106.610E+06    -22.0811E+06     1.76159E+06    -22.2485E-03     44.1712E-03    -21.9227E-03     10.6012E-03    -22.1895E-03     43.7075E-03    -21.8417E-03     10.6189E-03
            2057     1.76129E-03     21.5975E-03    -26.6782E+06    -109.577E+06    -25.4220E+06     1.10417E+06    -21.9728E-03     43.7958E-03    -21.8230E-03     7.10163E-03    -21.9106E-03     43.3237E-03    -21.7525E-03     7.11276E-03
            2058     880.709E-06     21.5917E-03    -27.4284E+06    -113.515E+06    -26.9082E+06     573.734E+03    -21.8074E-03     43.5736E-03    -21.7661E-03     3.88935E-03    -21.7410E-03     43.0850E-03    -21.6963E-03     3.89512E-03
            2059     16.6535E-03     21.4400E-03    -4.20755E+06     139.555E+06     74.3758E+06     918.351E+03    -32.7807E-03     58.9961E-03    -26.2154E-03     81.3692E-03    -33.9825E-03     60.4627E-03    -26.0398E-03     81.5030E-03
            2060     15.7869E-03     21.3032E-03    -7.59488E+06     123.048E+06     27.7439E+06     1.19463E+06    -34.5693E-03     60.2672E-03    -25.6979E-03     123.364E-03    -36.0095E-03     62.0366E-03    -25.7266E-03     123.284E-03
            2061     14.9170E-03     21.1983E-03    -8.52528E+06     71.1146E+06    -10.2454E+06    -123.787E+03    -33.5137E-03     58.7436E-03    -25.2299E-03     98.7398E-03    -34.2253E-03     59.7072E-03    -25.3719E-03     98.4725E-03
            2062     14.0439E-03     21.1126E-03    -7.63384E+06     18.1414E+06    -9.63025E+06     483.971E+03    -31.9380E-03     56.8898E-03    -24.9518E-03     78.9106E-03    -32.2521E-03     57.2691E-03    -25.0152E-03     78.6967E-03
            2063     13.1713E-03     21.0429E-03    -6.86672E+06    -15.1808E+06    -5.41648E+06     1.49650E+06    -30.8948E-03     55.5681E-03    -24.6732E-03     66.7766E-03    -31.0468E-03     55.6575E-03    -24.6684E-03     66.6230E-03
            2064     12.2970E-03     20.9805E-03    -7.62854E+06    -33.6257E+06    -3.09177E+06     1.32408E+06    -30.0446E-03     54.4107E-03    -24.3661E-03     59.2860E-03    -30.1212E-03     54.3499E-03    -24.3218E-03     59.1685E-03
            2065     11.4231E-03     20.9246E-03    -8.25676E+06    -46.7984E+06    -1.83734E+06     1.39466E+06    -29.2116E-03     53.2567E-03    -24.0451E-03     53.1764E-03    -29.2416E-03     53.0966E-03    -23.9744E-03     53.0903E-03
            2066     10.5477E-03     20.8738E-03    -9.09579E+06    -56.2331E+06    -18.4902E+03     1.48924E+06    -28.3075E-03     52.0331E-03    -23.7256E-03     47.7288E-03    -28.3101E-03     51.8039E-03    -23.6310E-03     47.6685E-03
            2067     9.67221E-03     20.8280E-03    -10.3008E+06    -63.5756E+06     536.811E+03     1.77929E+06    -27.4096E-03     50.8162E-03    -23.4066E-03     42.6544E-03    -27.3952E-03     50.5380E-03    -23.2968E-03     42.6169E-03
            2068     8.79555E-03     20.7868E-03    -11.8031E+06    -70.1248E+06     173.094E+03     1.98396E+06    -26.5235E-03     49.6184E-03    -23.0949E-03     37.9335E-03    -26.4978E-03     49.3014E-03    -22.9753E-03     37.9133E-03
            2069     7.91857E-03     20.7501E-03    -13.5680E+06    -76.2702E+06    -971.954E+03     2.26973E+06    -25.6653E-03     48.4606E-03    -22.7953E-03     33.4044E-03    -25.6321E-03     48.1112E-03    -22.6699E-03     33.3994E-03
            2070     7.04064E-03     20.7178E-03    -15.4496E+06    -82.8441E+06    -3.22019E+06     2.43490E+06    -24.8397E-03     47.3506E-03    -22.5109E-03     29.0660E-03    -24.7991E-03     46.9704E-03    -22.3845E-03     29.0719E-03
            2071     6.16226E-03     20.6897E-03    -17.2577E+06    -88.2712E+06    -5.88448E+06     2.54153E+06    -24.0604E-03     46.3080E-03    -22.2475E-03     24.9305E-03    -24.0145E-03     45.9045E-03    -22.1240E-03     24.9446E-03
            2072     5.28308E-03     20.6656E-03    -19.2155E+06    -93.7362E+06    -9.14644E+06     2.78330E+06    -23.3602E-03     45.3701E-03    -22.0099E-03     20.9671E-03    -23.3098E-03     44.9453E-03    -21.8919E-03     20.9894E-03
            2073     4.40351E-03     20.6455E-03    -21.2997E+06    -98.3966E+06    -13.3577E+06     2.81515E+06    -22.7508E-03     44.5477E-03    -21.7970E-03     17.1682E-03    -22.6968E-03     44.1076E-03    -21.6902E-03     17.1948E-03
            2074     3.52337E-03     20.6292E-03    -23.2971E+06    -102.990E+06    -17.3614E+06     2.48753E+06    -22.2361E-03     43.8533E-03    -21.6172E-03     13.5483E-03    -22.1790E-03     43.3982E-03    -21.5209E-03     13.5735E-03
            2075     2.64294E-03     20.6167E-03    -24.7554E+06    -105.236E+06    -21.3942E+06     2.03008E+06    -21.8254E-03     43.2926E-03    -21.4671E-03     10.0778E-03    -21.7660E-03     42.8337E-03    -21.3856E-03     10.0993E-03
            2076     1.76212E-03     20.6077E-03    -25.7769E+06    -108.080E+06    -24.5989E+06     1.46655E+06    -21.5326E-03     42.8869E-03    -21.3543E-03     6.76641E-03    -21.4693E-03     42.4197E-03    -21.2832E-03     6.78241E-03
            2077     881.130E-06     20.6022E-03    -26.6606E+06    -112.204E+06    -26.2424E+06     774.494E+03    -21.3111E-03     42.6210E-03    -21.3099E-03     3.64337E-03    -21.2437E-03     42.1369E-03    -21.2397E-03     3.65184E-03
            2078     16.6680E-03     20.4328E-03    -4.07538E+06     139.688E+06     75.8690E+06     569.092E+03    -34.5232E-03     60.6778E-03    -26.1546E-03     80.2688E-03    -35.7165E-03     62.1326E-03    -25.9719E-03     80.3650E-03
            2079     15.7929E-03     20.3014E-03    -5.31483E+06     124.638E+06     30.4097E+06     960.852E+03    -34.6378E-03     60.2195E-03    -25.5817E-03     122.461E-03    -36.0487E-03     61.9657E-03    -25.6027E-03     122.373E-03
            2080     14.9181E-03     20.1933E-03    -6.59198E+06     71.2530E+06    -11.3348E+06     763.631E+03    -33.3565E-03     58.4485E-03    -25.0920E-03     98.2452E-03    -34.0442E-03     59.3986E-03    -25.2425E-03     97.9933E-03
            2081     14.0472E-03     20.1105E-03    -7.70072E+06     17.4890E+06    -11.4773E+06     817.248E+03    -32.4968E-03     57.2883E-03    -24.7915E-03     77.5130E-03    -32.8023E-03     57.6619E-03    -24.8631E-03     77.2985E-03
            2082     13.1734E-03     20.0417E-03    -8.44443E+06    -15.5761E+06    -6.89305E+06     1.23758E+06    -31.2026E-03     55.6776E-03    -24.4750E-03     65.6079E-03    -31.3556E-03     55.7654E-03    -24.4747E-03     65.4509E-03
            2083     12.3003E-03     19.9804E-03    -8.08314E+06    -33.1147E+06    -3.46170E+06     1.57812E+06    -30.2473E-03     54.3830E-03    -24.1357E-03     57.9241E-03    -30.3234E-03     54.3229E-03    -24.0933E-03     57.8109E-03
            2084     11.4256E-03     19.9256E-03    -8.55422E+06    -46.8229E+06    -2.34587E+06     1.43829E+06    -29.3173E-03     53.0994E-03    -23.7822E-03     51.7173E-03    -29.3456E-03     52.9380E-03    -23.7136E-03     51.6334E-03
            2085     10.5511E-03     19.8759E-03    -9.31504E+06    -56.4633E+06    -515.356E+03     1.81428E+06    -28.3457E-03     51.7780E-03    -23.4323E-03     46.2526E-03    -28.3467E-03     51.5470E-03    -23.3395E-03     46.1981E-03
            2086     9.67509E-03     19.8314E-03    -10.4301E+06    -63.5837E+06     176.817E+03     2.12219E+06    -27.3566E-03     50.4415E-03    -23.0849E-03     41.2634E-03    -27.3410E-03     50.1626E-03    -22.9767E-03     41.2319E-03
            2087     8.79879E-03     19.7913E-03    -11.7304E+06    -70.1392E+06    -212.644E+03     2.38910E+06    -26.4182E-03     49.1642E-03    -22.7460E-03     36.5661E-03    -26.3906E-03     48.8466E-03    -22.6284E-03     36.5526E-03
            2088     7.92141E-03     19.7558E-03    -13.2011E+06    -76.2650E+06    -1.27944E+06     2.68141E+06    -25.4926E-03     47.9133E-03    -22.4208E-03     32.0693E-03    -25.4563E-03     47.5632E-03    -22.2974E-03     32.0709E-03
            2089     7.04353E-03     19.7245E-03    -14.8794E+06    -82.4682E+06    -3.23551E+06     2.85249E+06    -24.6103E-03     46.7237E-03    -22.1134E-03     27.7930E-03    -24.5669E-03     46.3441E-03    -21.9885E-03     27.8055E-03
            2090     6.16475E-03     19.6975E-03    -16.8890E+06    -88.0520E+06    -6.00787E+06     2.99945E+06    -23.7888E-03     45.6159E-03    -21.8271E-03     23.7397E-03    -23.7409E-03     45.2129E-03    -21.7050E-03     23.7606E-03
            2091     5.28549E-03     19.6743E-03    -18.9085E+06    -93.3546E+06    -9.27674E+06     3.18633E+06    -23.0334E-03     44.6008E-03    -21.5674E-03     19.8878E-03    -22.9816E-03     44.1774E-03    -21.4510E-03     19.9161E-03
            2092     4.40550E-03     19.6550E-03    -20.7519E+06    -97.5765E+06    -13.2217E+06     3.26895E+06    -22.3658E-03     43.7021E-03    -21.3364E-03     16.2347E-03    -22.3103E-03     43.2649E-03    -21.2309E-03     16.2677E-03
            2093     3.52508E-03     19.6395E-03    -22.4970E+06    -101.517E+06    -16.9589E+06     2.92386E+06    -21.8071E-03     42.9495E-03    -21.1424E-03     12.7702E-03    -21.7486E-03     42.4999E-03    -21.0474E-03     12.8015E-03
            2094     2.64414E-03     19.6274E-03    -24.1006E+06    -103.764E+06    -20.8480E+06     2.17083E+06    -21.3621E-03     42.3454E-03    -20.9833E-03     9.48045E-03    -21.3023E-03     41.8922E-03    -20.9022E-03     9.50412E-03
            2095     1.76296E-03     19.6189E-03    -24.9908E+06    -106.638E+06    -24.0107E+06     1.65467E+06    -21.0453E-03     41.9119E-03    -20.8665E-03     6.35594E-03    -20.9810E-03     41.4499E-03    -20.7957E-03     6.37457E-03
            2096     881.562E-06     19.6136E-03    -25.4532E+06    -110.252E+06    -25.3832E+06     1.24884E+06    -20.8435E-03     41.6468E-03    -20.8033E-03     3.39957E-03    -20.7741E-03     41.1694E-03    -20.7334E-03     3.41429E-03
            2097     16.6570E-03     19.4204E-03    -4.58236E+06     138.274E+06     73.9123E+06    -442.001E+03    -34.7366E-03     60.8606E-03    -26.1240E-03     80.4705E-03    -35.9280E-03     62.3123E-03    -25.9483E-03     80.5441E-03
            2098     15.7907E-03     19.2996E-03    -8.61221E+06     122.838E+06     30.7339E+06     592.002E+03    -35.4550E-03     60.9930E-03    -25.5380E-03     123.024E-03    -36.8854E-03     62.7397E-03    -25.5500E-03     122.908E-03
            2099     14.9203E-03     19.1884E-03    -10.3583E+06     71.9393E+06    -8.35634E+06     1.67837E+06    -34.3797E-03     59.3813E-03    -25.0016E-03     97.8014E-03    -35.0876E-03     60.3322E-03    -25.1327E-03     97.5410E-03
            2100     14.0479E-03     19.1079E-03    -10.4436E+06     17.7918E+06    -12.0939E+06     919.741E+03    -32.8488E-03     57.4785E-03    -24.6297E-03     75.4803E-03    -33.1567E-03     57.8476E-03    -24.7008E-03     75.2661E-03
            2101     13.1765E-03     19.0399E-03    -9.11061E+06    -15.8285E+06    -8.00381E+06     387.399E+03    -31.6410E-03     55.9077E-03    -24.2667E-03     63.8227E-03    -31.7911E-03     55.9925E-03    -24.2706E-03     63.6538E-03
            2102     12.3029E-03     18.9806E-03    -8.55165E+06    -33.5427E+06    -4.67322E+06     872.834E+03    -30.4667E-03     54.3521E-03    -23.8855E-03     56.3370E-03    -30.5392E-03     54.2888E-03    -23.8478E-03     56.2162E-03
            2103     11.4293E-03     18.9265E-03    -8.57095E+06    -46.8782E+06    -2.64457E+06     1.75382E+06    -29.3995E-03     52.9014E-03    -23.5019E-03     50.1623E-03    -29.4250E-03     52.7378E-03    -23.4347E-03     50.0844E-03
            2104     10.5541E-03     18.8786E-03    -9.46599E+06    -56.7698E+06    -1.04233E+06     2.05476E+06    -28.3333E-03     51.4557E-03    -23.1224E-03     44.7087E-03    -28.3319E-03     51.2222E-03    -23.0315E-03     44.6593E-03
            2105     9.67854E-03     18.8350E-03    -10.4393E+06    -63.5297E+06    -206.223E+03     2.36308E+06    -27.3152E-03     50.0617E-03    -22.7465E-03     39.7869E-03    -27.2978E-03     49.7824E-03    -22.6403E-03     39.7603E-03
            2106     8.80185E-03     18.7964E-03    -11.6514E+06    -70.2114E+06    -693.770E+03     2.65737E+06    -26.3169E-03     48.6948E-03    -22.3780E-03     35.0797E-03    -26.2871E-03     48.3765E-03    -22.2628E-03     35.0713E-03
            2107     7.92464E-03     18.7619E-03    -13.0613E+06    -76.1354E+06    -1.63421E+06     2.93680E+06    -25.3289E-03     47.3534E-03    -22.0245E-03     30.6037E-03    -25.2909E-03     47.0035E-03    -21.9033E-03     30.6101E-03
            2108     7.04639E-03     18.7320E-03    -14.6764E+06    -82.3153E+06    -3.52717E+06     3.27174E+06    -24.3896E-03     46.0791E-03    -21.6895E-03     26.3810E-03    -24.3444E-03     45.6999E-03    -21.5665E-03     26.4001E-03
            2109     6.16758E-03     18.7059E-03    -16.4797E+06    -87.6912E+06    -6.11588E+06     3.58756E+06    -23.5087E-03     44.8854E-03    -21.3767E-03     22.3999E-03    -23.4587E-03     44.4834E-03    -21.2563E-03     22.4295E-03
            2110     5.28792E-03     18.6838E-03    -18.4735E+06    -92.7902E+06    -9.49099E+06     3.68931E+06    -22.6923E-03     43.7835E-03    -21.0912E-03     18.6589E-03    -22.6386E-03     43.3623E-03    -20.9773E-03     18.6944E-03
            2111     4.40770E-03     18.6654E-03    -20.4505E+06    -96.7699E+06    -13.5062E+06     3.71352E+06    -21.9669E-03     42.8039E-03    -20.8370E-03     15.1580E-03    -21.9105E-03     42.3706E-03    -20.7346E-03     15.1974E-03
            2112     3.52683E-03     18.6506E-03    -22.2761E+06    -99.8085E+06    -17.3654E+06     3.41856E+06    -21.3560E-03     41.9777E-03    -20.6217E-03     11.8548E-03    -21.2982E-03     41.5368E-03    -20.5315E-03     11.8930E-03
            2113     2.64560E-03     18.6392E-03    -23.7335E+06    -101.831E+06    -21.0597E+06     2.53211E+06    -20.8642E-03     41.3121E-03    -20.4479E-03     8.75884E-03    -20.8051E-03     40.8682E-03    -20.3711E-03     8.78752E-03
            2114     1.76391E-03     18.6310E-03    -24.8870E+06    -105.405E+06    -23.6309E+06     1.83752E+06    -20.5030E-03     40.8326E-03    -20.3296E-03     5.84629E-03    -20.4405E-03     40.3760E-03    -20.2588E-03     5.86752E-03
            2115     881.975E-06     18.6261E-03    -25.7164E+06    -107.706E+06    -25.1068E+06     1.46764E+06    -20.3047E-03     40.5660E-03    -20.2613E-03     3.16353E-03    -20.2407E-03     40.1013E-03    -20.1934E-03     3.18118E-03
            2116     16.6670E-03     18.4230E-03    -3.65005E+06     138.219E+06     74.8794E+06     1.08543E+06    -35.0791E-03     61.2158E-03    -26.1367E-03     78.4990E-03    -36.2427E-03     62.6400E-03    -25.9574E-03     78.5570E-03
            2117     15.7904E-03     18.2878E-03    -8.85182E+06     122.212E+06     31.0578E+06     1.27694E+06    -36.9943E-03     62.4918E-03    -25.4975E-03     121.120E-03    -38.4046E-03     64.2143E-03    -25.5066E-03     120.959E-03
            2118     14.9227E-03     18.1856E-03    -9.20916E+06     72.4011E+06    -8.19542E+06     796.879E+03    -35.6303E-03     60.4957E-03    -24.8654E-03     93.8745E-03    -36.3141E-03     61.4278E-03    -24.9980E-03     93.5806E-03
            2119     14.0519E-03     18.1037E-03    -8.03341E+06     18.6497E+06    -12.1694E+06     528.807E+03    -33.1767E-03     57.6023E-03    -24.4256E-03     73.2336E-03    -33.4626E-03     57.9612E-03    -24.5018E-03     73.0146E-03
            2120     13.1793E-03     18.0389E-03    -8.34199E+06    -15.8206E+06    -8.70469E+06     203.456E+03    -31.7843E-03     55.8144E-03    -24.0302E-03     61.7416E-03    -31.9236E-03     55.8933E-03    -24.0387E-03     61.5720E-03
            2121     12.3066E-03     17.9800E-03    -8.84044E+06    -34.5189E+06    -5.50489E+06     638.456E+03    -30.6030E-03     54.2240E-03    -23.6211E-03     54.6453E-03    -30.6707E-03     54.1539E-03    -23.5857E-03     54.5233E-03
            2122     11.4323E-03     17.9282E-03    -9.10193E+06    -47.6475E+06    -3.47018E+06     1.52104E+06    -29.4575E-03     52.6644E-03    -23.2068E-03     48.5492E-03    -29.4806E-03     52.4961E-03    -23.1419E-03     48.4704E-03
            2123     10.5577E-03     17.8811E-03    -9.30094E+06    -56.7627E+06    -1.38462E+06     2.25943E+06    -28.3741E-03     51.1702E-03    -22.7961E-03     43.0826E-03    -28.3694E-03     50.9350E-03    -22.7072E-03     43.0379E-03
            2124     9.68181E-03     17.8393E-03    -10.2562E+06    -63.6614E+06    -520.665E+03     2.59711E+06    -27.3057E-03     49.6924E-03    -22.3867E-03     38.0899E-03    -27.2852E-03     49.4111E-03    -22.2821E-03     38.0683E-03
            2125     8.80539E-03     17.8016E-03    -11.3264E+06    -70.0438E+06    -1.01842E+06     2.80622E+06    -26.2390E-03     48.2221E-03    -21.9831E-03     33.3556E-03    -26.2062E-03     47.9034E-03    -21.8702E-03     33.3510E-03
            2126     7.92787E-03     17.7688E-03    -12.5170E+06    -76.2950E+06    -2.03107E+06     3.19794E+06    -25.1937E-03     46.7884E-03    -21.5948E-03     28.8797E-03    -25.1513E-03     46.4367E-03    -21.4761E-03     28.8910E-03
            2127     7.04969E-03     17.7399E-03    -14.1059E+06    -82.2222E+06    -3.78231E+06     3.78934E+06    -24.1806E-03     45.4062E-03    -21.2256E-03     24.7032E-03    -24.1317E-03     45.0264E-03    -21.1049E-03     24.7304E-03
            2128     6.17054E-03     17.7152E-03    -16.0251E+06    -87.3705E+06    -6.31493E+06     4.18409E+06    -23.2163E-03     44.0967E-03    -20.8804E-03     20.8070E-03    -23.1639E-03     43.6955E-03    -20.7620E-03     20.8454E-03
            2129     5.29070E-03     17.6941E-03    -18.0865E+06    -92.0473E+06    -9.71513E+06     4.43677E+06    -22.3326E-03     42.8963E-03    -20.5637E-03     17.1880E-03    -22.2774E-03     42.4783E-03    -20.4526E-03     17.2342E-03
            2130     4.41010E-03     17.6767E-03    -20.1588E+06    -95.7263E+06    -13.7362E+06     4.38992E+06    -21.5422E-03     41.8227E-03    -20.2806E-03     13.8595E-03    -21.4853E-03     41.3943E-03    -20.1812E-03     13.9083E-03
            2131     3.52892E-03     17.6627E-03    -21.8272E+06    -97.8847E+06    -17.6088E+06     3.85996E+06    -20.8592E-03     40.8979E-03    -20.0387E-03     10.7808E-03    -20.8014E-03     40.4662E-03    -19.9532E-03     10.8253E-03
            2132     2.64713E-03     17.6520E-03    -23.1439E+06    -99.7662E+06    -21.0439E+06     3.06969E+06    -20.3092E-03     40.1562E-03    -19.8470E-03     7.92862E-03    -20.2501E-03     39.7217E-03    -19.7740E-03     7.96463E-03
            2133     1.76499E-03     17.6443E-03    -24.4157E+06    -103.671E+06    -22.9039E+06     2.33131E+06    -19.9150E-03     39.6336E-03    -19.7186E-03     5.27990E-03    -19.8537E-03     39.1839E-03    -19.6474E-03     5.30773E-03
            2134     882.574E-06     17.6397E-03    -25.6439E+06    -104.888E+06    -24.6940E+06     1.49096E+06    -19.6819E-03     39.3229E-03    -19.6410E-03     2.90825E-03    -19.6222E-03     38.8716E-03    -19.5752E-03     2.92631E-03
            2135     16.6562E-03     17.4127E-03    -4.18802E+06     137.581E+06     75.3592E+06     850.354E+03    -37.1359E-03     63.2275E-03    -26.0916E-03     76.7340E-03    -38.2911E-03     64.6377E-03    -25.9082E-03     76.7307E-03
            2136     15.7948E-03     17.2807E-03    -5.27224E+06     124.621E+06     34.6108E+06     1.69459E+06    -38.0877E-03     63.4515E-03    -25.3638E-03     118.423E-03    -39.4545E-03     65.1415E-03    -25.3639E-03     118.227E-03
            2137     14.9251E-03     17.1781E-03    -7.37998E+06     72.6042E+06    -7.44875E+06     1.09578E+06    -35.5792E-03     60.2574E-03    -24.6782E-03     90.5031E-03    -36.2235E-03     61.1550E-03    -24.8100E-03     90.2156E-03
            2138     14.0548E-03     17.1020E-03    -8.08461E+06     19.3351E+06    -12.2438E+06     938.403E+03    -33.4580E-03     57.6690E-03    -24.2110E-03     71.3399E-03    -33.7362E-03     58.0228E-03    -24.2886E-03     71.1262E-03
            2139     13.1828E-03     17.0366E-03    -8.17637E+06    -15.4199E+06    -9.28657E+06     789.436E+03    -31.8934E-03     55.6763E-03    -23.7829E-03     60.3233E-03    -32.0253E-03     55.7515E-03    -23.7951E-03     60.1643E-03
            2140     12.3097E-03     16.9806E-03    -8.46384E+06    -35.2079E+06    -6.14175E+06     948.959E+03    -30.7580E-03     54.1033E-03    -23.3453E-03     52.9570E-03    -30.8180E-03     54.0261E-03    -23.3126E-03     52.8411E-03
            2141     11.4360E-03     16.9293E-03    -8.93349E+06    -48.3263E+06    -4.07659E+06     1.43668E+06    -29.6358E-03     52.5304E-03    -22.8946E-03     46.7376E-03    -29.6531E-03     52.3563E-03    -22.8320E-03     46.6600E-03
            2142     10.5612E-03     16.8843E-03    -9.51740E+06    -57.3442E+06    -2.17455E+06     2.12202E+06    -28.5145E-03     50.9555E-03    -22.4410E-03     41.1266E-03    -28.5065E-03     50.7165E-03    -22.3549E-03     41.0823E-03
            2143     9.68573E-03     16.8435E-03    -9.92532E+06    -63.4596E+06    -832.893E+03     2.60272E+06    -27.3596E-03     49.3474E-03    -21.9878E-03     36.0248E-03    -27.3355E-03     49.0652E-03    -21.8856E-03     36.0054E-03
            2144     8.80910E-03     16.8077E-03    -10.6841E+06    -70.1148E+06    -1.36313E+06     2.86463E+06    -26.2055E-03     47.7455E-03    -21.5400E-03     31.2484E-03    -26.1676E-03     47.4247E-03    -21.4296E-03     31.2466E-03
            2145     7.93174E-03     16.7759E-03    -11.8574E+06    -76.6131E+06    -2.46565E+06     3.52470E+06    -25.0706E-03     46.1787E-03    -21.1081E-03     26.7783E-03    -25.0228E-03     45.8241E-03    -20.9921E-03     26.7956E-03
            2146     7.05330E-03     16.7487E-03    -13.3042E+06    -82.3699E+06    -3.88850E+06     4.32545E+06    -23.9530E-03     44.6517E-03    -20.6987E-03     22.6671E-03    -23.8991E-03     44.2695E-03    -20.5794E-03     22.7028E-03
            2147     6.17403E-03     16.7251E-03    -14.9858E+06    -86.8789E+06    -6.11810E+06     4.86838E+06    -22.8888E-03     43.2045E-03    -20.3157E-03     18.9193E-03    -22.8317E-03     42.8035E-03    -20.1986E-03     18.9678E-03
            2148     5.29384E-03     16.7053E-03    -16.7917E+06    -91.4179E+06    -8.84164E+06     5.13809E+06    -21.9151E-03     41.8830E-03    -19.9679E-03     15.5037E-03    -21.8553E-03     41.4647E-03    -19.8552E-03     15.5599E-03
            2149     4.41290E-03     16.6890E-03    -18.4505E+06    -94.0719E+06    -12.3826E+06     5.00385E+06    -21.0420E-03     40.6978E-03    -19.6558E-03     12.4204E-03    -20.9808E-03     40.2731E-03    -19.5546E-03     12.4779E-03
            2150     3.53121E-03     16.6760E-03    -19.9668E+06    -95.9449E+06    -16.1656E+06     4.33869E+06    -20.2956E-03     39.6848E-03    -19.3892E-03     9.61431E-03    -20.2334E-03     39.2580E-03    -19.3020E-03     9.66546E-03
            2151     2.64896E-03     16.6660E-03    -21.3591E+06    -97.7648E+06    -19.5235E+06     3.81635E+06    -19.7019E-03     38.8775E-03    -19.1756E-03     7.01485E-03    -19.6389E-03     38.4482E-03    -19.1005E-03     7.06088E-03
            2152     1.76621E-03     16.6589E-03    -22.6095E+06    -100.999E+06    -21.6865E+06     2.94439E+06    -19.2726E-03     38.2926E-03    -19.0200E-03     4.63271E-03    -19.2079E-03     37.8520E-03    -18.9492E-03     4.66872E-03
            2153     883.182E-06     16.6545E-03    -23.4853E+06    -101.758E+06    -23.0314E+06     1.68692E+06    -18.9942E-03     37.9033E-03    -18.9090E-03     2.53734E-03    -18.9307E-03     37.4621E-03    -18.8426E-03     2.55807E-03
            2154     16.6698E-03     16.4011E-03    -4.83552E+06     136.842E+06     73.2001E+06    -507.730E+03    -38.6789E-03     64.6684E-03    -25.9895E-03     75.7914E-03    -39.8206E-03     66.0665E-03    -25.8149E-03     75.7366E-03
            2155     15.7981E-03     16.2732E-03    -6.97032E+06     122.614E+06     31.8666E+06     375.864E+03    -38.2189E-03     63.4264E-03    -25.2075E-03     117.028E-03    -39.5592E-03     65.0848E-03    -25.2159E-03     116.801E-03
            2156     14.9283E-03     16.1737E-03    -7.13536E+06     72.8632E+06    -7.86890E+06     2.24878E+06    -35.6767E-03     60.1862E-03    -24.5095E-03     89.5913E-03    -36.2986E-03     61.0643E-03    -24.6442E-03     89.3187E-03
            2157     14.0574E-03     16.0978E-03    -7.43810E+06     20.5052E+06    -12.6332E+06     1.70111E+06    -33.8790E-03     57.8907E-03    -24.0117E-03     69.4801E-03    -34.1446E-03     58.2394E-03    -24.0938E-03     69.2755E-03
            2158     13.1858E-03     16.0360E-03    -7.85711E+06    -15.2188E+06    -9.48006E+06     1.07959E+06    -32.3828E-03     55.9226E-03    -23.5399E-03     58.4948E-03    -32.5068E-03     55.9924E-03    -23.5538E-03     58.3398E-03
            2159     12.3132E-03     15.9800E-03    -8.10088E+06    -35.4855E+06    -6.59875E+06     1.36458E+06    -31.1479E-03     54.1977E-03    -23.0498E-03     50.9364E-03    -31.2004E-03     54.1147E-03    -23.0196E-03     50.8274E-03
            2160     11.4398E-03     15.9313E-03    -8.70505E+06    -48.5759E+06    -4.43014E+06     1.71298E+06    -29.9855E-03     52.5307E-03    -22.5453E-03     44.4062E-03    -29.9973E-03     52.3521E-03    -22.4844E-03     44.3340E-03
            2161     10.5655E-03     15.8870E-03     -9.0589E+06    -57.6534E+06    -2.65788E+06     1.87312E+06    -28.7419E-03     50.7758E-03    -22.0339E-03     38.7026E-03    -28.7278E-03     50.5327E-03    -21.9505E-03     38.6574E-03
            2162     9.69004E-03     15.8484E-03    -9.46458E+06    -63.7658E+06    -1.27844E+06     2.32247E+06    -27.4842E-03     49.0085E-03    -21.5243E-03     33.4815E-03    -27.4547E-03     48.7228E-03    -21.4245E-03     33.4609E-03
            2163     8.81370E-03     15.8138E-03    -10.3087E+06    -70.3023E+06    -1.50165E+06     3.11435E+06    -26.1955E-03     47.2176E-03    -21.0221E-03     28.6799E-03    -26.1536E-03     46.8940E-03    -20.9128E-03     28.6835E-03
            2164     7.93617E-03     15.7840E-03    -11.3777E+06    -76.9469E+06    -2.50018E+06     3.70329E+06    -24.9059E-03     45.4453E-03    -20.5394E-03     24.2730E-03    -24.8541E-03     45.0873E-03    -20.4238E-03     24.2947E-03
            2165     7.05766E-03     15.7580E-03    -12.4123E+06    -82.7838E+06    -3.74499E+06     4.58722E+06    -23.6490E-03     43.7345E-03    -20.0854E-03     20.3135E-03    -23.5895E-03     43.3479E-03    -19.9661E-03     20.3542E-03
            2166     6.17806E-03     15.7361E-03    -13.7003E+06    -86.4027E+06    -5.35868E+06     5.37940E+06    -22.4581E-03     42.1241E-03    -19.6659E-03     16.8091E-03    -22.3959E-03     41.7220E-03    -19.5475E-03     16.8656E-03
            2167     5.29748E-03     15.7176E-03    -15.1866E+06    -90.4791E+06    -7.78085E+06     5.55543E+06    -21.3800E-03     40.6685E-03    -19.2886E-03     13.6755E-03    -21.3148E-03     40.2508E-03    -19.1742E-03     13.7382E-03
            2168     4.41600E-03     15.7025E-03    -16.6583E+06    -92.4829E+06    -11.3336E+06     5.45916E+06    -20.4323E-03     39.3845E-03    -18.9522E-03     10.8852E-03    -20.3658E-03     38.9635E-03    -18.8507E-03     10.9493E-03
            2169     3.53377E-03     15.6904E-03    -18.2832E+06    -93.8923E+06    -14.7263E+06     5.12312E+06    -19.6450E-03     38.3126E-03    -18.6677E-03     8.38688E-03    -19.5793E-03     37.8914E-03    -18.5786E-03     8.44868E-03
            2170     2.65092E-03     15.6813E-03    -19.7232E+06    -95.5535E+06    -17.8557E+06     4.45463E+06    -19.0233E-03     37.4577E-03    -18.4345E-03     6.09015E-03    -18.9577E-03     37.0346E-03    -18.3566E-03     6.14478E-03
            2171     1.76763E-03     15.6748E-03    -20.5009E+06    -97.6252E+06    -19.8466E+06     3.43593E+06    -18.5588E-03     36.8119E-03    -18.2531E-03     4.00591E-03    -18.4911E-03     36.3824E-03    -18.1811E-03     4.04850E-03
            2172     883.972E-06     15.6709E-03    -21.2303E+06     -98.184E+06    -20.7627E+06     1.93060E+06    -18.2184E-03     36.3455E-03    -18.1272E-03     2.13210E-03    -18.1520E-03     35.9156E-03    -18.0578E-03     2.15610E-03
            2173     16.6616E-03     15.3903E-03    -3.94934E+06     137.266E+06     73.0266E+06     243.309E+03    -39.1379E-03     65.1064E-03    -25.9686E-03     76.9564E-03    -40.2588E-03     66.4889E-03    -25.7968E-03     76.8888E-03
            2174     15.7968E-03     15.2649E-03    -7.29076E+06     121.062E+06     28.8820E+06     1.22084E+06    -39.3509E-03     64.4846E-03    -25.1338E-03     115.854E-03    -40.6582E-03     66.1121E-03    -25.1543E-03     115.604E-03
            2175     14.9291E-03     15.1674E-03    -9.23788E+06     71.8693E+06    -11.2131E+06     1.18471E+06    -36.8278E-03     61.1895E-03    -24.3618E-03     86.6197E-03    -37.4323E-03     62.0491E-03    -24.5087E-03     86.3168E-03
            2176     14.0599E-03     15.0943E-03    -8.49854E+06     21.4863E+06    -13.5283E+06     1.55079E+06    -34.5644E-03     58.3648E-03    -23.8004E-03     66.6552E-03    -34.8208E-03     58.7066E-03    -23.8869E-03     66.4476E-03
            2177     13.1892E-03     15.0337E-03    -7.95835E+06    -14.8645E+06    -9.70588E+06     1.47289E+06    -33.0788E-03     56.3451E-03    -23.2663E-03     55.7045E-03    -33.1964E-03     56.4100E-03    -23.2817E-03     55.5537E-03
            2178     12.3174E-03     14.9802E-03    -8.17252E+06    -35.6165E+06    -6.80439E+06     1.41870E+06    -31.7565E-03     54.4627E-03    -22.7062E-03     48.2736E-03    -31.8037E-03     54.3743E-03    -22.6767E-03     48.1662E-03
            2179     11.4445E-03     14.9324E-03    -8.00538E+06    -48.6124E+06    -4.27340E+06     1.63727E+06    -30.4298E-03     52.5607E-03    -22.1309E-03     41.5359E-03    -30.4343E-03     52.3767E-03    -22.0702E-03     41.4648E-03
            2180     10.5705E-03     14.8907E-03    -8.30225E+06    -57.6028E+06    -2.36710E+06     1.81749E+06    -29.0546E-03     50.6042E-03    -21.5495E-03     35.7320E-03    -29.0343E-03     50.3568E-03    -21.4658E-03     35.6887E-03
            2181     9.69541E-03     14.8531E-03    -9.07424E+06    -64.4419E+06    -1.12458E+06     2.37908E+06    -27.6235E-03     48.5952E-03    -20.9717E-03     30.4520E-03    -27.5890E-03     48.3031E-03    -20.8707E-03     30.4347E-03
            2182     8.81912E-03     14.8209E-03    -9.80424E+06    -70.6212E+06    -1.17308E+06     3.08218E+06    -26.1409E-03     46.5467E-03    -20.4059E-03     25.6589E-03    -26.0950E-03     46.2188E-03    -20.2951E-03     25.6647E-03
            2183     7.94156E-03     14.7925E-03    -10.6593E+06    -77.2515E+06    -1.85586E+06     3.86538E+06    -24.6436E-03     44.5131E-03    -19.8695E-03     21.4187E-03    -24.5877E-03     44.1505E-03    -19.7513E-03     21.4448E-03
            2184     7.06273E-03     14.7686E-03    -11.8880E+06    -83.2191E+06    -3.14065E+06     4.69839E+06    -23.2183E-03     42.5899E-03    -19.3716E-03     17.6872E-03    -23.1557E-03     42.1988E-03    -19.2494E-03     17.7312E-03
            2185     6.18268E-03     14.7481E-03    -12.9269E+06    -86.0261E+06    -5.21675E+06     5.38666E+06    -21.8971E-03     40.8108E-03    -18.9137E-03     14.4613E-03    -21.8313E-03     40.4089E-03    -18.7963E-03     14.5193E-03
            2186     5.30155E-03     14.7313E-03    -13.8481E+06    -89.4041E+06    -7.45732E+06     5.71909E+06    -20.7171E-03     39.2272E-03    -18.5101E-03     11.6181E-03    -20.6469E-03     38.8121E-03    -18.3977E-03     11.6839E-03
            2187     4.41946E-03     14.7174E-03    -15.0051E+06    -91.1841E+06    -10.0875E+06     5.82423E+06    -19.7017E-03     37.8620E-03    -18.1603E-03     9.16707E-03    -19.6305E-03     37.4430E-03    -18.0568E-03     9.23671E-03
            2188     3.53659E-03     14.7064E-03    -15.9992E+06    -91.6727E+06    -12.3952E+06     5.55533E+06    -18.8712E-03     36.7391E-03    -17.8678E-03     7.03655E-03    -18.8007E-03     36.3222E-03    -17.7737E-03     7.10447E-03
            2189     2.65306E-03     14.6980E-03    -16.7302E+06    -92.8660E+06    -14.5063E+06     4.72550E+06    -18.2230E-03     35.8557E-03    -17.6327E-03     5.09486E-03    -18.1511E-03     35.4368E-03    -17.5463E-03     5.15334E-03
            2190     1.76901E-03     14.6922E-03    -17.5594E+06    -94.2207E+06    -16.3781E+06     3.72299E+06    -17.7386E-03     35.1924E-03    -17.4538E-03     3.35383E-03    -17.6661E-03     34.7706E-03    -17.3736E-03     3.40034E-03
            2191     884.628E-06     14.6887E-03    -18.3299E+06    -93.9230E+06    -17.8697E+06     2.19081E+06    -17.4265E-03     34.7464E-03    -17.3199E-03     1.71998E-03    -17.3559E-03     34.3294E-03    -17.2465E-03     1.74747E-03
            2192     16.6653E-03     14.3795E-03    -4.41610E+06     136.029E+06     73.4537E+06     31.8149E+03    -40.1602E-03     66.1265E-03    -25.9663E-03     73.7390E-03    -41.2550E-03     67.4755E-03    -25.7898E-03     73.6229E-03
            2193     15.7988E-03     14.2528E-03    -7.28987E+06     120.442E+06     30.3372E+06     1.03011E+06    -41.0347E-03     66.0852E-03    -25.0505E-03     110.889E-03    -42.3027E-03     67.6671E-03    -25.0629E-03     110.580E-03
            2194     14.9332E-03     14.1610E-03    -7.67774E+06     72.4524E+06    -9.30856E+06     1.89765E+06    -38.0002E-03     62.1755E-03    -24.1753E-03     81.1099E-03    -38.5703E-03     63.0028E-03    -24.3158E-03     80.7978E-03
            2195     14.0639E-03     14.0898E-03    -8.41205E+06     21.8370E+06    -12.4184E+06     1.18274E+06    -35.2174E-03     58.7516E-03    -23.5342E-03     63.1566E-03    -35.4600E-03     59.0780E-03    -23.6158E-03     62.9442E-03
            2196     13.1937E-03     14.0315E-03    -8.18041E+06    -14.5878E+06    -9.52635E+06     1.21896E+06    -33.7753E-03     56.7021E-03    -22.9268E-03     52.6406E-03    -33.8864E-03     56.7602E-03    -22.9414E-03     52.4867E-03
            2197     12.3225E-03     13.9794E-03    -7.62195E+06    -35.6962E+06    -6.78937E+06     1.25079E+06    -32.4648E-03     54.7504E-03    -22.2856E-03     45.0478E-03    -32.5034E-03     54.6550E-03    -22.2567E-03     44.9395E-03
            2198     11.4502E-03     13.9341E-03    -7.82352E+06    -48.6855E+06    -4.02904E+06     1.45848E+06    -30.9635E-03     52.5905E-03    -21.6270E-03     38.1867E-03    -30.9629E-03     52.4011E-03    -21.5652E-03     38.1159E-03
            2199     10.5767E-03     13.8938E-03    -8.26640E+06    -57.8245E+06    -2.14143E+06     1.98371E+06    -29.3923E-03     50.3547E-03    -20.9624E-03     32.2500E-03    -29.3686E-03     50.1028E-03    -20.8773E-03     32.2118E-03
            2200     9.70190E-03     13.8589E-03    -8.81713E+06    -64.6820E+06     -803.95E+03     2.29913E+06    -27.7099E-03     48.0171E-03    -20.3071E-03     26.9622E-03    -27.6721E-03     47.7207E-03    -20.2046E-03     26.9469E-03
            2201     8.82561E-03     13.8283E-03    -9.46347E+06    -71.2014E+06    -841.376E+03     2.92497E+06    -25.9766E-03     45.6511E-03    -19.6745E-03     22.2626E-03    -25.9271E-03     45.3178E-03    -19.5617E-03     22.2691E-03
            2202     7.94784E-03     13.8025E-03    -10.4510E+06    -77.8647E+06    -1.11267E+06     4.02324E+06    -24.2807E-03     43.3647E-03    -19.0840E-03     18.2049E-03    -24.2228E-03     42.9967E-03    -18.9615E-03     18.2353E-03
            2203     7.06858E-03     13.7802E-03    -11.4551E+06    -82.9641E+06    -2.33922E+06     4.65813E+06    -22.6815E-03     41.2202E-03    -18.5386E-03     14.7171E-03    -22.6177E-03     40.8279E-03    -18.4134E-03     14.7625E-03
            2204     6.18807E-03     13.7618E-03    -12.1870E+06    -85.7958E+06    -4.37014E+06     4.89774E+06    -21.2252E-03     39.2695E-03    -18.0443E-03     11.7729E-03    -21.1568E-03     38.8660E-03    -17.9241E-03     11.8260E-03
            2205     5.30629E-03     13.7463E-03    -12.7829E+06    -88.7348E+06    -6.17078E+06     5.50177E+06    -19.9436E-03     37.5579E-03    -17.6143E-03     9.26033E-03    -19.8707E-03     37.1425E-03    -17.4980E-03     9.32442E-03
            2206     4.42351E-03     13.7339E-03    -13.2695E+06    -89.6434E+06    -7.69346E+06     5.52949E+06    -18.8480E-03     36.0968E-03    -17.2488E-03     7.16005E-03    -18.7737E-03     35.6794E-03    -17.1380E-03     7.22669E-03
            2207     3.53980E-03     13.7239E-03    -13.4787E+06    -89.5457E+06    -9.54486E+06     5.03554E+06    -17.9441E-03     34.8932E-03    -16.9491E-03     5.42295E-03    -17.8681E-03     34.4791E-03    -16.8474E-03     5.48475E-03
            2208     2.65543E-03     13.7165E-03    -13.7626E+06    -90.3352E+06    -11.3364E+06     4.54689E+06    -17.2648E-03     33.9858E-03    -16.7210E-03     3.89952E-03    -17.1863E-03     33.5706E-03    -16.6268E-03     3.95610E-03
            2209     1.77057E-03     13.7113E-03    -14.1361E+06    -90.6896E+06    -12.5234E+06     3.62981E+06    -16.7963E-03     33.3580E-03    -16.5617E-03     2.51926E-03    -16.7174E-03     32.9432E-03    -16.4723E-03     2.56484E-03
            2210     885.313E-06     13.7083E-03    -14.4565E+06    -89.6235E+06    -13.7536E+06     2.08054E+06    -16.5827E-03     32.9818E-03    -16.3990E-03     1.26036E-03    -16.5051E-03     32.5746E-03    -16.3169E-03     1.28659E-03
            2211     16.6651E-03     13.3681E-03     -3.8574E+06     136.124E+06     73.2178E+06     437.524E+03    -42.1865E-03     68.0676E-03    -25.8811E-03     72.9433E-03    -43.2537E-03     69.3920E-03    -25.7067E-03     72.7753E-03
            2212     15.8017E-03     13.2395E-03    -7.34637E+06     117.996E+06     26.5154E+06     116.188E+03    -42.1682E-03     67.0264E-03    -24.8582E-03     107.631E-03    -43.3755E-03     68.5499E-03    -24.8861E-03     107.263E-03
            2213     14.9366E-03     13.1532E-03    -7.39742E+06     72.4289E+06    -12.6597E+06     1.60378E+06    -38.7391E-03     62.6488E-03    -23.9097E-03     76.7988E-03    -39.2680E-03     63.4455E-03    -24.0673E-03     76.4769E-03
            2214     14.0686E-03     13.0857E-03    -6.42879E+06     23.7191E+06    -12.7098E+06     2.28406E+06    -36.2865E-03     59.4867E-03    -23.2002E-03     60.1868E-03    -36.5080E-03     59.8066E-03    -23.2888E-03     59.9855E-03
            2215     13.1991E-03     13.0283E-03    -7.06702E+06    -14.4565E+06    -9.85120E+06     1.21398E+06    -34.7240E-03     57.2273E-03    -22.5032E-03     49.4863E-03    -34.8203E-03     57.2759E-03    -22.5213E-03     49.3327E-03
            2216     12.3288E-03     12.9787E-03    -7.53257E+06    -35.6582E+06    -6.99710E+06     1.39462E+06    -33.2470E-03     55.0146E-03    -21.7676E-03     41.2820E-03    -33.2785E-03     54.9132E-03    -21.7399E-03     41.1775E-03
            2217     11.4573E-03     12.9352E-03    -7.96452E+06    -48.9767E+06    -3.82652E+06     1.73038E+06    -31.5199E-03     52.5351E-03    -21.0152E-03     34.3049E-03    -31.5153E-03     52.3397E-03    -20.9517E-03     34.2408E-03
            2218     10.5842E-03     12.8976E-03     -8.4677E+06    -57.7590E+06    -2.03681E+06     1.84030E+06    -29.6577E-03     49.9168E-03    -20.2591E-03     28.3713E-03    -29.6320E-03     49.6621E-03    -20.1733E-03     28.3348E-03
            2219     9.70960E-03     12.8648E-03    -9.01682E+06    -65.0238E+06    -725.192E+03     2.22865E+06    -27.6837E-03     47.2082E-03    -19.5245E-03     23.1218E-03    -27.6442E-03     46.9081E-03    -19.4208E-03     23.1090E-03
            2220     8.83321E-03     12.8371E-03    -10.0914E+06    -71.7641E+06    -471.294E+03     3.02571E+06    -25.6988E-03     44.5253E-03    -18.8265E-03     18.6232E-03    -25.6507E-03     44.1881E-03    -18.7101E-03     18.6340E-03
            2221     7.95512E-03     12.8133E-03    -11.0175E+06    -78.3909E+06    -580.092E+03     3.76911E+06    -23.8153E-03     41.9943E-03    -18.1790E-03     14.8148E-03    -23.7594E-03     41.6228E-03    -18.0523E-03     14.8443E-03
            2222     7.07554E-03     12.7935E-03    -11.6781E+06    -82.3321E+06    -1.35579E+06      4.1339E+06    -22.0528E-03     39.6374E-03    -17.5846E-03     11.6406E-03    -21.9918E-03     39.2466E-03    -17.4550E-03     11.6810E-03
            2223     6.19434E-03     12.7768E-03    -12.4678E+06    -85.5760E+06    -2.92987E+06     4.37877E+06    -20.4531E-03     37.5061E-03    -17.0530E-03     9.03044E-03    -20.3882E-03     37.1016E-03    -16.9255E-03     9.07821E-03
            2224     5.31189E-03     12.7633E-03    -13.1033E+06    -88.1165E+06    -4.51070E+06     4.56161E+06    -19.0573E-03     35.6496E-03    -16.5923E-03     6.90447E-03    -18.9892E-03     35.2352E-03    -16.4680E-03     6.95738E-03
            2225     4.42827E-03     12.7522E-03    -13.2037E+06    -87.9481E+06    -6.16402E+06     4.29326E+06    -17.8727E-03     34.0740E-03    -16.2013E-03     5.19860E-03    -17.8026E-03     33.6627E-03    -16.0855E-03     5.24994E-03
            2226     3.54373E-03     12.7436E-03    -13.2197E+06    -87.9625E+06    -8.13320E+06     3.89863E+06    -16.9044E-03     32.7919E-03    -15.8875E-03     3.83103E-03    -16.8314E-03     32.3832E-03    -15.7814E-03     3.87861E-03
            2227     2.65833E-03     12.7369E-03    -12.9415E+06    -88.0545E+06    -9.95352E+06     3.41776E+06    -16.1771E-03     31.8327E-03    -15.6556E-03     2.71210E-03    -16.0998E-03     31.4256E-03    -15.5589E-03     2.75443E-03
            2228     1.77245E-03     12.7324E-03    -12.1424E+06    -87.5243E+06    -10.4342E+06     2.39534E+06    -15.7221E-03     31.2246E-03    -15.5025E-03     1.74033E-03    -15.6408E-03     30.8196E-03    -15.4102E-03     1.77017E-03
            2229     886.358E-06     12.7295E-03    -11.3478E+06    -86.3915E+06    -10.6030E+06     1.14912E+06    -15.5079E-03     30.8762E-03    -15.3684E-03     870.631E-06    -15.4239E-03     30.4762E-03    -15.2797E-03     884.938E-06
            2230     16.6674E-03     12.3493E-03    -3.68643E+06     136.258E+06     74.0064E+06     725.220E+03    -43.9687E-03     69.7519E-03    -25.7832E-03     71.8267E-03    -45.0039E-03     71.0431E-03    -25.6054E-03     71.6093E-03
            2231     15.8062E-03     12.2284E-03    -6.92118E+06     117.754E+06     28.1011E+06     1.28334E+06    -43.3253E-03     67.9957E-03    -24.6704E-03     103.085E-03    -44.4704E-03     69.4530E-03    -24.6906E-03     102.692E-03
            2232     14.9399E-03     12.1445E-03    -9.64030E+06     71.2421E+06    -12.4089E+06     1.07899E+06    -39.7841E-03     63.4194E-03    -23.6353E-03     72.5075E-03    -40.2896E-03     64.1798E-03    -23.7866E-03     72.1693E-03
            2233     14.0736E-03     12.0796E-03    -9.33247E+06     24.5132E+06    -12.9930E+06     1.43982E+06    -37.7504E-03     60.5676E-03    -22.8173E-03     56.1981E-03    -37.9732E-03     60.8823E-03    -22.9043E-03     55.9791E-03
            2234     13.2060E-03     12.0249E-03    -8.22324E+06    -13.6558E+06    -10.1190E+06     1.64989E+06    -35.9706E-03     57.9664E-03    -21.9957E-03     45.6399E-03    -36.0645E-03     58.0122E-03    -22.0146E-03     45.4908E-03
            2235     12.3366E-03     11.9773E-03    -8.35344E+06    -35.8217E+06    -7.22749E+06     1.58959E+06    -34.0421E-03     55.1890E-03    -21.1469E-03     37.1930E-03    -34.0705E-03     55.0817E-03    -21.1189E-03     37.0938E-03
            2236     11.4657E-03     11.9369E-03    -8.52752E+06    -48.9011E+06    -3.74151E+06     1.79954E+06    -31.9712E-03     52.2656E-03    -20.2944E-03     30.1907E-03    -31.9651E-03     52.0667E-03    -20.2298E-03     30.1314E-03
            2237     10.5930E-03     11.9016E-03    -9.08122E+06    -57.5962E+06    -1.47028E+06     1.90307E+06    -29.7517E-03     49.2047E-03    -19.4530E-03     24.3242E-03    -29.7271E-03     48.9479E-03    -19.3636E-03     24.2926E-03
            2238     9.71834E-03     11.8720E-03    -9.98596E+06    -65.3547E+06    -232.438E+03     2.20121E+06    -27.4780E-03     46.1242E-03    -18.6462E-03     19.3058E-03    -27.4416E-03     45.8212E-03    -18.5381E-03     19.2962E-03
            2239     8.84175E-03     11.8468E-03    -10.6296E+06    -72.3470E+06     381.518E+03     2.84956E+06    -25.2731E-03     43.1622E-03    -17.8892E-03     15.1482E-03    -25.2268E-03     42.8204E-03    -17.7670E-03     15.1595E-03
            2240     7.96330E-03     11.8259E-03    -11.4219E+06    -78.1715E+06     489.929E+03     3.26177E+06    -23.1876E-03     40.3797E-03    -17.1921E-03     11.7541E-03    -23.1348E-03     40.0076E-03    -17.0598E-03     11.7792E-03
            2241     7.08300E-03     11.8082E-03    -12.4141E+06    -82.1261E+06     422.570E+03     3.44159E+06    -21.2804E-03     37.8428E-03    -16.5624E-03     9.01225E-03    -21.2256E-03     37.4512E-03    -16.4232E-03     9.04522E-03
            2242     6.20121E-03     11.7939E-03    -13.3632E+06    -85.0586E+06    -1.03680E+06     3.61915E+06    -19.5749E-03     35.5741E-03    -15.9992E-03     6.82639E-03    -19.5178E-03     35.1706E-03    -15.8616E-03     6.86529E-03
            2243     5.31791E-03     11.7821E-03    -14.0207E+06    -86.9291E+06    -3.37466E+06     3.16231E+06    -18.0831E-03     33.5917E-03    -15.5085E-03     5.11095E-03    -18.0228E-03     33.1828E-03    -15.3790E-03     5.14636E-03
            2244     4.43338E-03     11.7727E-03    -14.3867E+06    -86.7420E+06    -5.17411E+06     2.55463E+06    -16.8325E-03     31.9311E-03    -15.0985E-03     3.77563E-03    -16.7715E-03     31.5260E-03    -14.9778E-03     3.80485E-03
            2245     3.54781E-03     11.7652E-03    -14.3690E+06    -86.6629E+06    -7.23955E+06     2.09070E+06    -15.8428E-03     30.6096E-03    -14.7668E-03     2.72246E-03    -15.7787E-03     30.2078E-03    -14.6565E-03     2.74684E-03
            2246     2.66155E-03     11.7597E-03    -13.8523E+06    -86.2874E+06    -9.65775E+06     1.37906E+06    -15.0943E-03     29.6039E-03    -14.5096E-03     1.89875E-03    -15.0246E-03     29.2066E-03    -14.4127E-03     1.91481E-03
            2247     1.77461E-03     11.7555E-03    -13.2129E+06    -85.6265E+06    -11.4891E+06     634.413E+03    -14.5757E-03     28.9071E-03    -14.3315E-03     1.20576E-03    -14.5010E-03     28.5148E-03    -14.2456E-03     1.21289E-03
            2248     887.356E-06     11.7531E-03    -12.7425E+06    -85.0013E+06    -12.3556E+06     94.7598E+03    -14.2897E-03     28.5190E-03    -14.2293E-03     544.066E-06    -14.2122E-03     28.1304E-03    -14.1493E-03     544.746E-06
            2249     16.6697E-03     11.3316E-03    -3.85486E+06     135.221E+06     74.4926E+06     460.185E+03    -45.6457E-03     71.3340E-03    -25.6883E-03     71.2487E-03    -46.6490E-03     72.5877E-03    -25.5063E-03     70.9776E-03
            2250     15.8076E-03     11.2144E-03    -6.52949E+06     117.473E+06     30.5188E+06     1.97689E+06    -45.1089E-03     69.5843E-03    -24.4754E-03     98.3976E-03    -46.1976E-03     70.9787E-03    -24.4837E-03     97.9650E-03
            2251     14.9460E-03     11.1350E-03    -7.81711E+06     72.1896E+06    -9.92809E+06     2.26131E+06    -41.7289E-03     65.0361E-03    -23.3071E-03     67.9049E-03    -42.1998E-03     65.7646E-03    -23.4501E-03     67.5622E-03
            2252     14.0804E-03     11.0726E-03    -8.36017E+06     25.0012E+06    -11.7742E+06     1.46191E+06    -39.2490E-03     61.5995E-03    -22.3505E-03     51.8537E-03    -39.4539E-03     61.8979E-03    -22.4335E-03     51.6312E-03
            2253     13.2139E-03     11.0202E-03    -8.76422E+06    -13.8130E+06    -9.43544E+06     1.36867E+06    -37.0803E-03     58.4862E-03    -21.4059E-03     41.3408E-03    -37.1682E-03     58.5216E-03    -21.4203E-03     41.1891E-03
            2254     12.3455E-03     10.9763E-03    -8.79414E+06    -35.6254E+06    -6.20218E+06     1.92007E+06    -34.7353E-03     55.1817E-03    -20.4465E-03     33.0270E-03    -34.7612E-03     55.0683E-03    -20.4131E-03     32.9360E-03
            2255     11.4751E-03     10.9383E-03    -9.51946E+06    -48.4751E+06    -2.78299E+06     1.84402E+06    -32.2020E-03     51.7021E-03    -19.5001E-03     26.1454E-03    -32.1987E-03     51.5012E-03    -19.4299E-03     26.0915E-03
            2256     10.6025E-03     10.9069E-03    -10.0220E+06    -57.4295E+06    -514.341E+03     1.71760E+06    -29.5793E-03     48.1654E-03    -18.5861E-03     20.5303E-03    -29.5584E-03     47.9067E-03    -18.4908E-03     20.5008E-03
            2257     9.72761E-03     10.8801E-03    -10.3949E+06    -65.4987E+06     1.02418E+06     1.88983E+06    -27.0023E-03     44.7299E-03    -17.7276E-03     15.9797E-03    -26.9680E-03     44.4234E-03    -17.6125E-03     15.9697E-03
            2258     8.85057E-03     10.8582E-03    -11.1619E+06    -72.7938E+06     1.61063E+06     2.30164E+06    -24.5773E-03     41.5124E-03    -16.9350E-03     12.3531E-03    -24.5340E-03     41.1665E-03    -16.8052E-03     12.3600E-03
            2259     7.97140E-03     10.8399E-03    -12.0184E+06    -77.8140E+06     1.86546E+06     2.66053E+06    -22.3385E-03     38.5537E-03    -16.2152E-03     9.50240E-03    -22.2908E-03     38.1818E-03    -16.0756E-03     9.52143E-03
            2260     7.09041E-03     10.8250E-03    -13.0046E+06    -81.7948E+06     2.09848E+06     2.65457E+06    -20.3324E-03     35.9077E-03    -15.5753E-03     7.28916E-03    -20.2832E-03     35.5159E-03    -15.4274E-03     7.31300E-03
            2261     6.20763E-03     10.8128E-03    -14.0380E+06    -84.4045E+06     878.187E+03     2.43376E+06    -18.5835E-03     33.5919E-03    -15.0084E-03     5.54983E-03    -18.5334E-03     33.1898E-03    -14.8613E-03     5.57396E-03
            2262     5.32348E-03     10.8031E-03    -15.0225E+06    -85.4026E+06    -2.06308E+06     1.78221E+06    -17.0873E-03     31.5992E-03    -14.5119E-03     4.22333E-03    -17.0361E-03     31.1975E-03    -14.3766E-03     4.24115E-03
            2263     4.43806E-03     10.7952E-03    -15.8671E+06    -85.7215E+06    -4.70259E+06     776.267E+03    -15.8542E-03     29.9488E-03    -14.0946E-03     3.18530E-03    -15.8028E-03     29.5503E-03    -13.9708E-03     3.19159E-03
            2264     3.55166E-03     10.7891E-03    -16.3985E+06    -85.7256E+06    -8.16177E+06     12.4305E+03    -14.8771E-03     28.6228E-03    -13.7457E-03     2.32410E-03    -14.8231E-03     28.2299E-03    -13.6384E-03     2.32160E-03
            2265     2.66442E-03     10.7844E-03    -16.8190E+06    -85.5955E+06    -12.1430E+06    -364.084E+03    -14.1239E-03     27.5856E-03    -13.4617E-03     1.64633E-03    -14.0664E-03     27.1997E-03    -13.3740E-03     1.63979E-03
            2266     1.77674E-03     10.7812E-03    -17.1793E+06    -85.2401E+06    -15.1784E+06    -428.790E+03    -13.5533E-03     26.8050E-03    -13.2517E-03     1.06242E-03    -13.4936E-03     26.4257E-03    -13.1791E-03     1.05573E-03
            2267     888.449E-06     10.7790E-03    -17.4482E+06    -85.0963E+06    -17.0293E+06    -336.543E+03    -13.2065E-03     26.3241E-03    -13.1176E-03     518.654E-06    -13.1456E-03     25.9487E-03    -13.0541E-03     513.696E-06
            2268     16.6696E-03     10.3117E-03    -4.40325E+06     133.784E+06     73.0359E+06    -41.3017E+03    -47.8312E-03     73.3914E-03    -25.5602E-03     68.5989E-03    -48.7943E-03     74.6022E-03    -25.3826E-03     68.2589E-03
            2269     15.8127E-03     10.1982E-03    -7.81042E+06     115.445E+06     29.9177E+06     1.40882E+06    -47.1617E-03     71.3819E-03    -24.2202E-03     92.3017E-03    -48.1891E-03     72.7050E-03    -24.2267E-03     91.8068E-03
            2270     14.9509E-03     10.1232E-03    -8.90859E+06     73.2449E+06    -8.62390E+06     2.96098E+06    -43.6451E-03     66.5603E-03    -22.9152E-03     62.6981E-03    -44.0924E-03     67.2615E-03    -23.0516E-03     62.3472E-03
            2271     14.0885E-03     10.0644E-03    -9.08562E+06     26.7992E+06    -11.2775E+06     2.13933E+06    -40.7449E-03     62.5604E-03    -21.8155E-03     47.4741E-03    -40.9417E-03     62.8532E-03    -21.8976E-03     47.2580E-03
            2272     13.2228E-03     10.0158E-03    -9.08604E+06    -13.9028E+06    -8.85398E+06     1.61746E+06    -37.9667E-03     58.7210E-03    -20.7543E-03     37.0818E-03    -38.0473E-03     58.7460E-03    -20.7652E-03     36.9373E-03
            2273     12.3551E-03     9.97463E-03    -9.39853E+06    -35.7373E+06    -5.42256E+06     1.91699E+06    -35.0934E-03     54.7948E-03    -19.7015E-03     28.9057E-03    -35.1174E-03     54.6747E-03    -19.6631E-03     28.8201E-03
            2274     11.4849E-03     9.94111E-03    -9.42633E+06    -47.4540E+06    -1.05243E+06     1.71801E+06    -32.0508E-03     50.7394E-03    -18.6887E-03     22.4382E-03    -32.0474E-03     50.5375E-03    -18.6115E-03     22.3883E-03
            2275     10.6119E-03     9.91283E-03    -9.81478E+06    -57.2487E+06     1.04032E+06     1.24393E+06    -29.0203E-03     46.7547E-03    -17.7344E-03     17.4109E-03    -28.9988E-03     46.4924E-03    -17.6319E-03     17.3799E-03
            2276     9.73654E-03     9.89008E-03    -10.7096E+06    -65.7234E+06     2.71034E+06     1.55277E+06    -26.1588E-03     43.0215E-03    -16.8626E-03     13.5331E-03    -26.1272E-03     42.7108E-03    -16.7383E-03     13.5221E-03
            2277     8.85855E-03     9.87109E-03    -11.7967E+06    -72.7679E+06     3.58503E+06     1.80036E+06    -23.5472E-03     39.6246E-03    -16.0774E-03     10.5878E-03    -23.5095E-03     39.2764E-03    -15.9369E-03     10.5904E-03
            2278     7.97850E-03     9.85597E-03    -12.8333E+06    -77.6129E+06     3.38051E+06     1.76546E+06    -21.2318E-03     36.6093E-03    -15.3775E-03     8.37969E-03    -21.1905E-03     36.2372E-03    -15.2294E-03     8.38848E-03
            2279     7.09641E-03     9.84353E-03    -13.8289E+06    -81.1897E+06     2.97761E+06     1.60081E+06    -19.2251E-03     33.9919E-03    -14.7668E-03     6.75447E-03    -19.1822E-03     33.6031E-03    -14.6141E-03     6.76539E-03
            2280     6.21276E-03     9.83369E-03    -14.9327E+06    -83.5970E+06     1.64130E+06     1.09879E+06    -17.5392E-03     31.7761E-03    -14.2369E-03     5.46579E-03    -17.4959E-03     31.3783E-03    -14.0858E-03     5.47299E-03
            2281     5.32764E-03     9.82575E-03    -15.9722E+06    -84.0938E+06    -1.03431E+06     266.381E+03    -16.1517E-03     29.9284E-03    -13.7767E-03     4.44291E-03    -16.1087E-03     29.5331E-03    -13.6368E-03     4.44124E-03
            2282     4.44143E-03     9.81953E-03    -17.1001E+06    -84.7600E+06    -5.06363E+06    -659.200E+03    -15.0217E-03     28.4033E-03    -13.3817E-03     3.61711E-03    -14.9773E-03     28.0120E-03    -13.2593E-03     3.60485E-03
            2283     3.55431E-03     9.81460E-03    -18.5530E+06    -85.5319E+06    -10.6698E+06    -1.17968E+06    -14.1158E-03     27.1608E-03    -13.0450E-03     2.86402E-03    -14.0693E-03     26.7758E-03    -12.9475E-03     2.84607E-03
            2284     2.66651E-03     9.81103E-03    -19.8197E+06    -85.8600E+06    -15.3830E+06    -1.21541E+06    -13.3979E-03     26.1730E-03    -12.7751E-03     2.18320E-03    -13.3504E-03     25.7949E-03    -12.6988E-03     2.16564E-03
            2285     1.77794E-03     9.80839E-03    -20.7506E+06    -85.9256E+06    -18.5757E+06    -954.287E+03    -12.8706E-03     25.4452E-03    -12.5745E-03     1.49477E-03    -12.8229E-03     25.0726E-03    -12.5127E-03     1.48126E-03
            2286     889.158E-06     9.80697E-03    -21.2682E+06    -85.8555E+06    -20.4173E+06    -523.623E+03    -12.5559E-03     24.9716E-03    -12.4157E-03     829.645E-06    -12.5080E-03     24.6029E-03    -12.3625E-03     822.254E-06
            2287     16.6755E-03     9.28908E-03    -4.24067E+06     133.159E+06      73.474E+06     709.452E+03    -50.4133E-03     75.8261E-03    -25.4129E-03     67.6388E-03    -51.3427E-03     77.0003E-03    -25.2324E-03     67.2411E-03
            2288     15.8174E-03     9.18102E-03    -8.44556E+06     113.977E+06     31.1550E+06     2.30539E+06    -49.5564E-03     73.4857E-03    -23.9293E-03     87.4626E-03    -50.5253E-03     74.7395E-03    -23.9266E-03     86.9238E-03
            2289     14.9588E-03     9.10967E-03    -9.68448E+06     73.4047E+06    -6.03973E+06     2.62422E+06    -45.4305E-03     67.9133E-03    -22.4828E-03     57.4337E-03    -45.8527E-03     68.5798E-03    -22.6054E-03     57.0669E-03
            2290     14.0962E-03     9.05530E-03    -9.20795E+06     28.0727E+06    -9.20249E+06     2.29422E+06    -41.9041E-03     63.1571E-03    -21.2530E-03     42.5579E-03    -42.0907E-03     63.4379E-03    -21.3264E-03     42.3463E-03
            2291     13.2321E-03     9.01052E-03    -9.64420E+06    -13.0972E+06    -7.46495E+06     2.12583E+06    -38.4657E-03     58.5582E-03    -20.0925E-03     32.7771E-03    -38.5435E-03     58.5774E-03    -20.0969E-03     32.6454E-03
            2292     12.3646E-03     8.97422E-03    -9.85676E+06    -35.2120E+06    -4.22042E+06     1.50954E+06    -34.8958E-03     53.8739E-03    -18.9780E-03     25.2520E-03    -34.9196E-03     53.7503E-03    -18.9338E-03     25.1687E-03
            2293     11.4939E-03     8.94442E-03    -9.99838E+06    -46.8150E+06     440.982E+03     1.00989E+06    -31.3392E-03     49.2832E-03    -17.9440E-03     19.4410E-03    -31.3389E-03     49.0803E-03    -17.8594E-03     19.3883E-03
            2294     10.6203E-03     8.92084E-03    -10.4508E+06    -56.8514E+06     3.19643E+06     909.218E+03    -27.9480E-03     44.9523E-03    -17.0043E-03     15.2632E-03    -27.9320E-03     44.6883E-03    -16.8907E-03     15.2326E-03
            2295     9.74365E-03     8.90144E-03    -11.0686E+06    -66.0090E+06     4.96163E+06     855.711E+03    -24.8790E-03     41.0521E-03    -16.1732E-03     12.2822E-03    -24.8514E-03     40.7367E-03    -16.0366E-03     12.2654E-03
            2296     8.86466E-03     8.88621E-03    -11.6592E+06    -72.4244E+06     6.55873E+06     935.889E+03    -22.1901E-03     37.6424E-03    -15.4523E-03     10.1611E-03    -22.1563E-03     37.2912E-03    -15.2976E-03     10.1545E-03
            2297     7.98324E-03     8.87376E-03    -12.6737E+06    -77.3692E+06     6.49055E+06     802.347E+03    -19.9114E-03     34.7432E-03    -14.8319E-03     8.66288E-03    -19.8741E-03     34.3676E-03    -14.6689E-03     8.66041E-03
            2298     7.10008E-03     8.86404E-03    -14.0245E+06    -80.5501E+06     5.13872E+06     440.529E+03    -18.0359E-03     32.3400E-03    -14.3041E-03     7.56553E-03    -17.9981E-03     31.9516E-03    -14.1412E-03     7.56211E-03
            2299     6.21528E-03     8.85608E-03    -15.2523E+06    -82.5298E+06     2.53296E+06    -426.617E+03    -16.5328E-03     30.3903E-03    -13.8574E-03     6.69648E-03    -16.4941E-03     29.9970E-03    -13.7030E-03     6.68435E-03
            2300     5.32944E-03     8.84991E-03    -16.4310E+06    -83.3817E+06    -916.813E+03    -1.26316E+06    -15.3542E-03     28.8352E-03    -13.4811E-03     5.91185E-03    -15.3147E-03     28.4441E-03    -13.3409E-03     5.89066E-03
            2301     4.44257E-03     8.84499E-03    -17.9562E+06    -84.5243E+06    -6.07318E+06    -1.54671E+06    -14.4233E-03     27.5856E-03    -13.1623E-03     5.14396E-03    -14.3821E-03     27.1983E-03    -13.0441E-03     5.12042E-03
            2302     3.55494E-03     8.84126E-03    -19.5911E+06    -85.8190E+06    -12.2339E+06    -1.61286E+06    -13.6893E-03     26.5876E-03    -12.8983E-03     4.29742E-03    -13.6453E-03     26.2049E-03    -12.8067E-03     4.27402E-03
            2303     2.66665E-03     8.83849E-03    -21.0304E+06    -86.6165E+06    -16.8251E+06    -1.54373E+06    -13.1333E-03     25.8309E-03    -12.6975E-03     3.40005E-03    -13.0886E-03     25.4528E-03    -12.6256E-03     3.37837E-03
            2304     1.77808E-03     8.83659E-03    -22.0198E+06    -86.9710E+06    -19.8997E+06    -1.34253E+06    -12.7477E-03     25.3041E-03    -12.5563E-03     2.39393E-03    -12.7029E-03     24.9301E-03    -12.4978E-03     2.37552E-03
            2305     889.058E-06     8.83544E-03    -22.5267E+06    -87.2281E+06    -21.7373E+06    -837.935E+03    -12.5409E-03     24.9899E-03    -12.4490E-03     1.35485E-03    -12.4954E-03     24.6181E-03    -12.3986E-03     1.34347E-03
            2306     16.6735E-03     8.26365E-03    -4.74368E+06     131.550E+06     74.5608E+06     924.677E+03    -53.1439E-03     78.4002E-03    -25.2563E-03     65.6018E-03    -54.0312E-03     79.5216E-03    -25.0673E-03     65.1409E-03
            2307     15.8221E-03     8.15942E-03    -7.49896E+06     113.114E+06     33.4024E+06     1.99318E+06    -52.0880E-03     75.7025E-03    -23.6145E-03     80.6780E-03    -52.9842E-03     76.8774E-03    -23.6006E-03     80.0840E-03
            2308     14.9653E-03     8.09529E-03    -8.11013E+06     73.5937E+06    -2.70707E+06     2.79952E+06    -47.0398E-03     69.0630E-03    -22.0232E-03     51.0431E-03    -47.4269E-03     69.6912E-03    -22.1317E-03     50.6719E-03
            2309     14.1053E-03     8.04533E-03    -8.98440E+06     28.9339E+06    -5.53122E+06     3.24709E+06    -42.3583E-03     63.0559E-03    -20.6976E-03     37.5974E-03    -42.5343E-03     63.3194E-03    -20.7542E-03     37.4084E-03
            2310     13.2406E-03     8.00617E-03    -10.0888E+06    -11.5560E+06    -4.53049E+06     2.52244E+06    -38.1562E-03     57.6434E-03    -19.4872E-03     28.8081E-03    -38.2347E-03     57.6587E-03    -19.4785E-03     28.6918E-03
            2311     12.3726E-03     7.97441E-03    -10.7685E+06    -33.7803E+06    -1.13521E+06     1.11410E+06    -33.9627E-03     52.3350E-03    -18.3724E-03     22.1828E-03    -33.9932E-03     52.2112E-03    -18.3134E-03     22.1035E-03
            2312     11.5011E-03     7.94988E-03    -11.3022E+06    -46.2448E+06     3.12018E+06     352.063E+03    -29.8997E-03     47.2801E-03    -17.3804E-03     17.5499E-03    -29.9086E-03     47.0760E-03    -17.2814E-03     17.4961E-03
            2313     10.6259E-03     7.93037E-03    -11.6475E+06    -56.3351E+06     6.11904E+06    -259.151E+03    -26.2850E-03     42.8075E-03    -16.5224E-03     14.5318E-03    -26.2792E-03     42.5428E-03    -16.3933E-03     14.4910E-03
            2314     9.74800E-03     7.91518E-03    -11.6720E+06    -65.9430E+06     8.05886E+06    -640.295E+03    -23.1640E-03     38.9643E-03    -15.8003E-03     12.6292E-03    -23.1438E-03     38.6454E-03    -15.6475E-03     12.5964E-03
            2315     8.86720E-03     7.90300E-03    -12.0711E+06    -72.5721E+06     9.07430E+06     -542.59E+03    -20.5836E-03     35.7878E-03    -15.2042E-03     11.3683E-03    -20.5553E-03     35.4328E-03    -15.0361E-03     11.3448E-03
            2316     7.98454E-03     7.89349E-03    -12.8029E+06    -77.0263E+06     8.95972E+06    -533.640E+03    -18.5296E-03     33.2493E-03    -14.7197E-03     10.5024E-03    -18.4971E-03     32.8721E-03    -14.5447E-03     10.4839E-03
            2317     7.10008E-03     7.88575E-03    -13.7390E+06    -79.9702E+06     7.10489E+06    -1.01811E+06    -16.9437E-03     31.2716E-03    -14.3279E-03     9.79021E-03    -16.9082E-03     30.8829E-03    -14.1565E-03     9.76880E-03
            2318     6.21453E-03     7.87967E-03    -14.9477E+06    -81.4251E+06     3.24945E+06    -1.89688E+06    -15.7432E-03     29.7542E-03    -14.0110E-03     9.08294E-03    -15.7056E-03     29.3651E-03    -13.8550E-03     9.05246E-03
            2319     5.32786E-03     7.87468E-03    -16.3769E+06    -83.4773E+06    -1.30354E+06    -2.57275E+06    -14.8698E-03     28.6327E-03    -13.7629E-03     8.28081E-03    -14.8294E-03     28.2416E-03    -13.6246E-03     8.24324E-03
            2320     4.44065E-03     7.87084E-03    -17.6435E+06    -85.1213E+06    -6.46230E+06    -2.46046E+06    -14.2518E-03     27.8187E-03    -13.5669E-03     7.28990E-03    -14.2076E-03     27.4284E-03    -13.4502E-03     7.25498E-03
            2321     3.55295E-03     7.86787E-03    -18.7401E+06    -86.5404E+06    -11.7383E+06    -2.11292E+06    -13.8060E-03     27.2212E-03    -13.4151E-03     6.10688E-03    -13.7575E-03     26.8329E-03    -13.3212E-03     6.07737E-03
            2322     2.66497E-03     7.86571E-03    -19.6682E+06    -87.4680E+06    -15.6011E+06    -1.87398E+06    -13.4953E-03     26.8047E-03    -13.3095E-03     4.79657E-03    -13.4443E-03     26.4186E-03    -13.2321E-03     4.77088E-03
            2323     1.77665E-03     7.86412E-03    -20.4823E+06    -88.2559E+06    -18.4906E+06    -1.57794E+06    -13.3100E-03     26.5525E-03    -13.2424E-03     3.35941E-03    -13.2578E-03     26.1677E-03    -13.1772E-03     3.33813E-03
            2324     888.382E-06     7.86325E-03    -21.0979E+06    -89.0749E+06    -20.5801E+06    -1.00883E+06    -13.2126E-03     26.4254E-03    -13.2128E-03     1.84531E-03    -13.1590E-03     26.0406E-03    -13.1559E-03     1.83181E-03
            2325     16.6821E-03     7.23534E-03    -3.82109E+06     130.797E+06     75.6252E+06     1.14173E+06    -56.4878E-03     81.5323E-03    -25.0445E-03     62.1211E-03    -57.3284E-03     82.6049E-03    -24.8505E-03     61.6008E-03
            2326     15.8290E-03     7.13688E-03    -7.83883E+06     110.778E+06     33.9906E+06     1.26616E+06    -53.6371E-03     76.8896E-03    -23.2525E-03     73.8021E-03    -54.4660E-03     77.9862E-03    -23.2318E-03     73.1742E-03
            2327     14.9739E-03     7.07881E-03    -9.84599E+06     72.5098E+06    -357.386E+03     3.51513E+06    -47.6395E-03     69.2174E-03    -21.5780E-03     44.4738E-03    -48.0033E-03     69.8057E-03    -21.6706E-03     44.1215E-03
            2328     14.1125E-03     7.03697E-03    -11.0752E+06     30.5617E+06    -1.26732E+06     4.25936E+06    -41.9190E-03     62.1387E-03    -20.2197E-03     33.0282E-03    -42.0994E-03     62.3927E-03    -20.2543E-03     32.8694E-03
            2329     13.2475E-03     7.00219E-03    -12.1482E+06    -9.09561E+06    -242.698E+03     2.55274E+06    -36.7952E-03     55.8268E-03    -19.0316E-03     25.7091E-03    -36.8866E-03     55.8440E-03    -19.0020E-03     25.6088E-03
            2330     12.3784E-03     6.97699E-03    -12.5341E+06    -31.8490E+06     2.88180E+06     628.981E+03    -31.9709E-03     49.9700E-03    -17.9991E-03     20.5006E-03    -32.0154E-03     49.8490E-03    -17.9203E-03     20.4274E-03
            2331     11.5046E-03     6.95724E-03    -12.7477E+06    -45.1061E+06     6.81381E+06    -1.02758E+06    -27.6726E-03     44.8093E-03    -17.1367E-03     17.5804E-03    -27.6943E-03     44.6061E-03    -17.0187E-03     17.5173E-03
            2332     10.6277E-03     6.94241E-03    -12.7270E+06    -55.6187E+06     9.74961E+06    -2.05363E+06    -24.0978E-03     40.5372E-03    -16.4394E-03     15.8485E-03    -24.1031E-03     40.2718E-03    -16.2915E-03     15.7900E-03
            2333     9.74744E-03     6.93077E-03    -13.0491E+06    -65.7617E+06     11.6471E+06    -2.72469E+06    -21.2295E-03     37.1247E-03    -15.8952E-03     14.9065E-03    -21.2214E-03     36.8033E-03    -15.7227E-03     14.8502E-03
            2334     8.86523E-03     6.92163E-03    -13.1042E+06    -73.1069E+06     12.1562E+06    -2.89929E+06    -19.0246E-03     34.5025E-03    -15.4779E-03     14.2619E-03    -19.0051E-03     34.1418E-03    -15.2921E-03     14.2101E-03
            2335     7.98105E-03     6.91425E-03    -13.1790E+06    -77.1563E+06     10.5539E+06    -2.72138E+06    -17.4201E-03     32.5799E-03    -15.1598E-03     13.6591E-03    -17.3917E-03     32.2002E-03    -14.9760E-03     13.6139E-03
            2336     7.09582E-03     6.90822E-03    -13.5624E+06    -79.4725E+06     7.36274E+06    -3.05506E+06    -16.2918E-03     31.2141E-03    -14.9222E-03     12.8905E-03    -16.2566E-03     30.8272E-03    -14.7505E-03     12.8439E-03
            2337     6.20960E-03     6.90326E-03    -14.1402E+06    -81.2292E+06     3.18703E+06    -3.51684E+06    -15.5216E-03     30.2712E-03    -14.7495E-03     11.8963E-03    -15.4801E-03     29.8818E-03    -14.5953E-03     11.8458E-03
            2338     5.32300E-03     6.89919E-03    -15.0480E+06    -83.8638E+06    -1.67967E+06    -3.72396E+06    -15.0188E-03     29.6477E-03    -14.6289E-03     10.6658E-03    -14.9706E-03     29.2532E-03    -14.4939E-03     10.6140E-03
            2339     4.43598E-03     6.89581E-03    -15.9852E+06    -86.3122E+06    -6.64108E+06    -3.68901E+06    -14.7162E-03     29.2636E-03    -14.5474E-03     9.19808E-03    -14.6618E-03     28.8652E-03    -14.4323E-03     9.14784E-03
            2340     3.54885E-03     6.89323E-03    -16.3579E+06    -87.8213E+06    -10.5443E+06    -3.13180E+06    -14.5613E-03     29.0567E-03    -14.4954E-03     7.54603E-03    -14.5007E-03     28.6567E-03    -14.3970E-03     7.50375E-03
            2341     2.66160E-03     6.89125E-03    -16.7038E+06    -88.7790E+06    -13.1680E+06    -2.43914E+06    -14.4822E-03     28.9471E-03    -14.4649E-03     5.79679E-03    -14.4180E-03     28.5465E-03    -14.3778E-03     5.76404E-03
            2342     1.77444E-03     6.88984E-03    -17.3406E+06    -89.8556E+06    -15.4345E+06    -1.70130E+06    -14.4436E-03     28.8912E-03    -14.4476E-03     3.98313E-03    -14.3778E-03     28.4894E-03    -14.3693E-03     3.96040E-03
            2343     887.191E-06     6.88886E-03    -18.0130E+06    -91.0443E+06    -17.4750E+06    -984.865E+03    -14.4371E-03     28.8729E-03    -14.4358E-03     2.15501E-03    -14.3697E-03     28.4692E-03    -14.3651E-03     2.14189E-03
            2344     16.6833E-03     6.20614E-03    -3.75381E+06     129.623E+06     75.9460E+06     1.17274E+06    -59.7537E-03     84.5864E-03    -24.8326E-03     57.7317E-03    -60.5517E-03     85.6119E-03    -24.6354E-03     57.1577E-03
            2345     15.8345E-03     6.11179E-03    -6.71999E+06     109.034E+06     35.9846E+06     3.65275E+06    -54.2902E-03     77.2162E-03    -22.9260E-03     67.2050E-03    -55.0466E-03     78.2327E-03    -22.8945E-03     66.6107E-03
            2346     14.9789E-03     6.06401E-03    -11.1483E+06     71.2819E+06     2.07800E+06     5.14044E+06    -46.7937E-03     68.0311E-03    -21.2374E-03     38.8098E-03    -47.1274E-03     68.5733E-03    -21.3142E-03     38.5152E-03
            2347     14.1181E-03     6.02836E-03    -13.7230E+06     32.4031E+06     2.17856E+06     4.72334E+06    -40.1574E-03     60.0940E-03    -19.9366E-03     29.8242E-03    -40.3451E-03     60.3425E-03    -19.9528E-03     29.6979E-03
            2348     13.2513E-03     6.00146E-03    -14.6973E+06    -5.53276E+06     4.39276E+06     2.53983E+06    -34.0708E-03     52.9487E-03    -18.8779E-03     24.8472E-03    -34.1799E-03     52.9739E-03    -18.8266E-03     24.7689E-03
            2349     12.3787E-03     5.98189E-03    -15.5315E+06    -28.7695E+06     6.91570E+06    -917.116E+03    -28.9871E-03     47.0189E-03    -18.0318E-03     21.7703E-03    -29.0540E-03     46.9089E-03    -17.9330E-03     21.6920E-03
            2350     11.5027E-03     5.96745E-03    -15.0824E+06    -43.7309E+06     10.3276E+06    -3.51581E+06    -24.9698E-03     42.3544E-03    -17.3846E-03     20.2266E-03    -25.0090E-03     42.1552E-03    -17.2477E-03     20.1403E-03
            2351     10.6229E-03     5.95652E-03    -14.6618E+06    -55.2661E+06     12.9288E+06    -4.54169E+06    -21.8793E-03     38.7866E-03    -16.9074E-03     19.4332E-03    -21.8988E-03     38.5206E-03    -16.7413E-03     19.3482E-03
            2352     9.74115E-03     5.94792E-03    -14.3744E+06    -65.2615E+06     14.5626E+06    -5.42017E+06    -19.6559E-03     36.2264E-03    -16.5705E-03     18.7740E-03    -19.6591E-03     35.9048E-03    -16.3822E-03     18.6865E-03
            2353     8.85734E-03     5.94104E-03    -14.2134E+06    -73.8058E+06     14.1207E+06    -6.11292E+06    -18.1162E-03     34.4525E-03    -16.3363E-03     18.0652E-03    -18.1038E-03     34.0867E-03    -16.1380E-03     17.9743E-03
            2354     7.97269E-03     5.93507E-03    -13.6529E+06    -77.9929E+06     11.0449E+06    -6.00733E+06    -17.1271E-03     33.2947E-03    -16.1676E-03     17.0318E-03    -17.1003E-03     32.9105E-03    -15.9795E-03     16.9458E-03
            2355     7.08724E-03     5.93006E-03    -13.0056E+06    -79.8265E+06     6.79515E+06    -5.75743E+06    -16.5141E-03     32.5642E-03    -16.0501E-03     15.6495E-03    -16.4745E-03     32.1753E-03    -15.8815E-03     15.5692E-03
            2356     6.20158E-03     5.92567E-03    -12.9585E+06    -82.1862E+06     2.19230E+06    -5.47310E+06    -16.1566E-03     32.1308E-03    -15.9742E-03     14.0038E-03    -16.1063E-03     31.7362E-03    -15.8252E-03     13.9289E-03
            2357     5.31561E-03     5.92194E-03    -13.2894E+06    -84.8669E+06    -2.62316E+06    -4.97982E+06    -15.9508E-03     31.8780E-03    -15.9272E-03     12.1706E-03    -15.8910E-03     31.4772E-03    -15.7980E-03     12.1032E-03
            2358     4.42963E-03     5.91881E-03    -13.8228E+06    -87.6185E+06    -7.40462E+06    -4.59187E+06    -15.8557E-03     31.7568E-03    -15.9011E-03     10.2312E-03    -15.7874E-03     31.3497E-03    -15.7910E-03     10.1697E-03
            2359     3.54360E-03     5.91620E-03    -14.4329E+06    -89.7854E+06    -11.0520E+06    -3.98953E+06    -15.8445E-03     31.7351E-03    -15.8905E-03     8.19044E-03    -15.7707E-03     31.3232E-03    -15.7947E-03     8.13733E-03
            2360     2.65770E-03     5.91426E-03    -14.8794E+06    -90.8187E+06    -12.7020E+06    -2.85415E+06    -15.8639E-03     31.7534E-03    -15.8895E-03     6.16001E-03    -15.7883E-03     31.3393E-03    -15.7998E-03     6.12204E-03
            2361     1.77176E-03     5.91277E-03    -15.4842E+06    -91.7808E+06    -14.1196E+06    -1.74013E+06    -15.8735E-03     31.7618E-03    -15.8883E-03     4.17260E-03    -15.7975E-03     31.3457E-03    -15.8033E-03     4.14944E-03
            2362     885.881E-06     5.91195E-03    -16.0549E+06    -92.8912E+06    -15.6680E+06    -909.520E+03    -15.8890E-03     31.7667E-03    -15.8777E-03     2.27938E-03    -15.8118E-03     31.3483E-03    -15.7980E-03     2.26727E-03
            2363     16.6888E-03     5.17002E-03    -4.99489E+06     127.024E+06     75.5106E+06     791.922E+03    -61.8088E-03     86.5631E-03    -24.7543E-03     54.9812E-03    -62.5577E-03     87.5272E-03    -24.5537E-03     54.3691E-03
            2364     15.8399E-03     5.08935E-03    -8.97868E+06     105.410E+06     40.1831E+06     5.45385E+06    -54.3980E-03     77.2029E-03    -22.8049E-03     60.5254E-03    -55.0777E-03     78.1102E-03    -22.7438E-03     59.9872E-03
            2365     14.9823E-03     5.04994E-03    -12.6130E+06     70.9482E+06     7.06060E+06     8.90299E+06    -44.0693E-03     65.2465E-03    -21.1772E-03     35.4518E-03    -44.3761E-03     65.7410E-03    -21.2264E-03     35.2718E-03
            2366     14.1179E-03     5.02278E-03    -16.9531E+06     36.3870E+06     3.73800E+06     7.21707E+06    -36.3568E-03     56.4057E-03    -20.0489E-03     29.9126E-03    -36.5556E-03     56.6635E-03    -20.0584E-03     29.8583E-03
            2367     13.2469E-03     5.00428E-03    -19.9662E+06     367.063E+03     6.49068E+06     1.37450E+06    -30.3837E-03     49.6270E-03    -19.2434E-03     27.7092E-03    -30.5253E-03     49.6809E-03    -19.1825E-03     27.6404E-03
            2368     12.3716E-03     4.98965E-03    -18.9646E+06    -24.6886E+06     9.23563E+06    -4.39951E+06    -25.8913E-03     44.5507E-03    -18.6594E-03     26.0765E-03    -25.9819E-03     44.4600E-03    -18.5499E-03     25.9678E-03
            2369     11.4924E-03     4.97996E-03    -17.3371E+06    -42.9415E+06     11.5121E+06    -7.02316E+06    -22.7123E-03     40.9691E-03    -18.2567E-03     25.0323E-03    -22.7641E-03     40.7737E-03    -18.1118E-03     24.9094E-03
            2370     10.6112E-03     4.97165E-03    -16.0767E+06    -55.1795E+06     13.4639E+06    -8.11413E+06    -20.6180E-03     38.6068E-03    -17.9889E-03     24.0753E-03    -20.6444E-03     38.3414E-03    -17.8182E-03     23.9494E-03
            2371     9.72821E-03     4.96532E-03    -15.1569E+06    -65.2708E+06     14.1434E+06    -8.83875E+06    -19.2924E-03     37.1055E-03    -17.8131E-03     22.7212E-03    -19.2982E-03     36.7847E-03    -17.6258E-03     22.5929E-03
            2372     8.84468E-03     4.95949E-03    -14.4493E+06    -74.1986E+06     12.7487E+06    -9.62554E+06    -18.5122E-03     36.2048E-03    -17.6926E-03     21.1069E-03    -18.4979E-03     35.8387E-03    -17.5003E-03     20.9727E-03
            2373     7.96053E-03     4.95440E-03    -13.4841E+06    -79.4802E+06     8.65594E+06    -10.0160E+06    -18.0442E-03     35.6398E-03    -17.5956E-03     19.1546E-03    -18.0107E-03     35.2509E-03    -17.4175E-03     19.0183E-03
            2374     7.07627E-03     4.94969E-03    -12.2091E+06    -81.9239E+06     3.89813E+06    -9.04516E+06    -17.7702E-03     35.2884E-03    -17.5182E-03     16.9759E-03    -17.7192E-03     34.8918E-03    -17.3623E-03     16.8542E-03
            2375     6.19180E-03     4.94558E-03    -11.4125E+06    -84.3913E+06    -376.821E+03    -7.42834E+06    -17.6022E-03     35.0640E-03    -17.4618E-03     14.6968E-03    -17.5370E-03     34.6597E-03    -17.3248E-03     14.5973E-03
            2376     5.30735E-03     4.94198E-03    -11.5604E+06    -86.9322E+06    -4.55146E+06    -5.98389E+06    -17.4972E-03     34.9167E-03    -17.4195E-03     12.4250E-03    -17.4228E-03     34.5057E-03    -17.2995E-03     12.3450E-03
            2377     4.42280E-03     4.93889E-03    -12.4139E+06    -89.5153E+06    -8.58666E+06    -4.66820E+06    -17.4316E-03     34.8189E-03    -17.3873E-03     10.2197E-03    -17.3517E-03     34.4019E-03    -17.2825E-03     10.1575E-03
            2378     3.53829E-03     4.93631E-03    -13.5767E+06    -91.8189E+06    -12.0277E+06    -3.65432E+06    -17.3908E-03     34.7546E-03    -17.3638E-03     8.06750E-03    -17.3083E-03     34.3326E-03    -17.2711E-03     8.01889E-03
            2379     2.65369E-03     4.93430E-03    -14.5726E+06    -93.2187E+06    -13.9656E+06    -2.71759E+06    -17.3660E-03     34.7158E-03    -17.3498E-03     5.99733E-03    -17.2836E-03     34.2911E-03    -17.2633E-03     5.96124E-03
            2380     1.76914E-03     4.93287E-03    -15.2134E+06    -93.9102E+06    -14.8807E+06    -1.44838E+06    -17.3507E-03     34.6917E-03    -17.3410E-03     4.01504E-03    -17.2691E-03     34.2657E-03    -17.2572E-03     3.99570E-03
            2381     884.584E-06     4.93195E-03    -15.8119E+06    -94.2436E+06    -15.8895E+06    -459.669E+03    -17.3282E-03     34.6696E-03    -17.3414E-03     2.18350E-03    -17.2475E-03     34.2444E-03    -17.2613E-03     2.17722E-03
            2382     16.6818E-03     4.12805E-03    -6.42352E+06     121.254E+06     71.8834E+06     2.78366E+06    -61.8276E-03     86.7395E-03    -24.9119E-03     53.1303E-03    -62.5002E-03     87.6125E-03    -24.7190E-03     52.5635E-03
            2383     15.8366E-03     4.06649E-03    -14.1017E+06     99.1097E+06     39.7539E+06     7.96745E+06    -52.1350E-03     75.1840E-03    -23.0490E-03     53.4775E-03    -52.7261E-03     75.9639E-03    -22.9735E-03     53.0614E-03
            2384     14.9774E-03     4.03981E-03    -18.5804E+06     71.2308E+06     11.3731E+06     12.1959E+06    -39.4374E-03     61.0803E-03    -21.6429E-03     34.9733E-03    -39.7455E-03     61.5439E-03    -21.6624E-03     34.9115E-03
            2385     14.1073E-03     4.02313E-03    -21.0988E+06     44.9601E+06     5.36370E+06     8.23623E+06    -31.4875E-03     52.2881E-03    -20.8005E-03     34.2907E-03    -31.7109E-03     52.5813E-03    -20.8083E-03     34.2906E-03
            2386     13.2327E-03     4.00868E-03    -20.0510E+06     9.78055E+06     6.45404E+06    -2.03486E+06    -27.1155E-03     47.4059E-03    -20.2904E-03     33.1844E-03    -27.2655E-03     47.5012E-03    -20.2432E-03     33.0929E-03
            2387     12.3546E-03     4.00018E-03    -18.7342E+06    -22.2169E+06     6.50079E+06    -8.24024E+06    -24.1143E-03     44.0641E-03    -19.9498E-03     31.5215E-03    -24.1999E-03     43.9856E-03    -19.8579E-03     31.3752E-03
            2388     11.4744E-03     3.99217E-03    -17.8689E+06    -41.9576E+06     6.68675E+06    -10.6151E+06    -22.2809E-03     41.9993E-03    -19.7183E-03     29.6482E-03    -22.3277E-03     41.8141E-03    -19.5981E-03     29.4858E-03
            2389     10.5930E-03     3.98622E-03    -16.4160E+06    -55.6105E+06     6.21483E+06    -12.2250E+06    -21.2509E-03     40.8013E-03    -19.5503E-03     27.2746E-03    -21.2666E-03     40.5429E-03    -19.4148E-03     27.0998E-03
            2390     9.71131E-03     3.98033E-03    -14.2981E+06    -66.0048E+06     5.88988E+06    -12.8654E+06    -20.6782E-03     40.0969E-03    -19.4187E-03     24.6390E-03    -20.6657E-03     39.7819E-03    -19.2728E-03     24.4612E-03
            2391     8.82924E-03     3.97532E-03    -12.2779E+06    -74.9243E+06     4.99906E+06    -13.3381E+06    -20.3196E-03     39.6226E-03    -19.3031E-03     21.8805E-03    -20.2816E-03     39.2603E-03    -19.1516E-03     21.7000E-03
            2392     7.94707E-03     3.97042E-03    -11.0347E+06    -81.6264E+06     2.06477E+06    -13.1660E+06    -20.0236E-03     39.2113E-03    -19.1877E-03     19.1560E-03    -19.9647E-03     38.8172E-03    -19.0430E-03     18.9802E-03
            2393     7.06467E-03     3.96613E-03    -10.4862E+06    -85.7544E+06    -1.98370E+06    -11.5615E+06    -19.7590E-03     38.8338E-03    -19.0747E-03     16.4887E-03    -19.6851E-03     38.4236E-03    -18.9451E-03     16.3352E-03
            2394     6.18210E-03     3.96216E-03    -10.2727E+06    -88.2470E+06    -5.21375E+06    -8.79440E+06    -19.5211E-03     38.4952E-03    -18.9740E-03     13.9296E-03    -19.4376E-03     38.0767E-03    -18.8572E-03     13.8129E-03
            2395     5.29930E-03     3.95879E-03    -10.7391E+06    -90.2104E+06    -7.60758E+06    -5.99912E+06    -19.3066E-03     38.1941E-03    -18.8876E-03     11.5419E-03    -19.2188E-03     37.7699E-03    -18.7792E-03     11.4621E-03
            2396     4.41640E-03     3.95583E-03    -11.8004E+06    -92.0269E+06    -10.0141E+06    -3.94913E+06    -19.1116E-03     37.9238E-03    -18.8122E-03     9.35387E-03    -19.0229E-03     37.4953E-03    -18.7117E-03     9.30118E-03
            2397     3.53328E-03     3.95343E-03    -12.9814E+06    -93.7139E+06    -12.4205E+06    -2.61660E+06    -18.9436E-03     37.6923E-03    -18.7487E-03     7.30436E-03    -18.8548E-03     37.2605E-03    -18.6561E-03     7.26933E-03
            2398     2.65008E-03     3.95150E-03    -14.2015E+06    -95.0432E+06    -14.2068E+06    -1.72635E+06    -18.8131E-03     37.5132E-03    -18.7000E-03     5.37665E-03    -18.7258E-03     37.0791E-03    -18.6127E-03     5.35348E-03
            2399     1.76677E-03     3.95014E-03    -15.0946E+06    -95.7804E+06    -15.1395E+06    -935.825E+03    -18.7169E-03     37.3835E-03    -18.6666E-03     3.57161E-03    -18.6316E-03     36.9483E-03    -18.5815E-03     3.55895E-03
            2400     883.386E-06     3.94927E-03    -15.3140E+06    -95.0040E+06    -15.4471E+06    -131.430E+03    -18.6510E-03     37.3049E-03    -18.6539E-03     1.92461E-03    -18.5672E-03     36.8746E-03    -18.5712E-03     1.92261E-03
            2401     16.6807E-03     3.09346E-03    -6.09998E+06     115.589E+06     69.2613E+06     7.30304E+06    -59.7552E-03     85.2006E-03    -25.4454E-03     48.8561E-03    -60.3210E-03     85.9569E-03    -25.2579E-03     48.4279E-03
            2402     15.8258E-03     3.04324E-03    -12.4146E+06     95.6729E+06     42.8918E+06     12.5308E+06    -44.9025E-03     68.7823E-03    -23.8798E-03     48.6364E-03    -45.3776E-03     69.4312E-03    -23.7861E-03     48.4319E-03
            2403     14.9599E-03     3.03839E-03    -16.8808E+06     74.0728E+06     21.0207E+06     10.8262E+06    -33.8982E-03     56.7961E-03    -22.8979E-03     38.9620E-03    -34.1898E-03     57.2311E-03    -22.8758E-03     38.9485E-03
            2404     14.0852E-03     3.02445E-03    -14.0293E+06     55.4927E+06     10.8775E+06     3.41763E+06    -28.6835E-03     51.0199E-03    -22.3364E-03     41.7925E-03    -28.8849E-03     51.3372E-03    -22.3422E-03     41.7582E-03
            2405     13.2083E-03     3.01590E-03    -12.2294E+06     17.5350E+06     796.749E+03    -3.97933E+06    -26.3795E-03     48.3634E-03    -21.9839E-03     38.7163E-03    -26.4860E-03     48.4863E-03    -21.9876E-03     38.6169E-03
            2406     12.3299E-03     3.00823E-03    -13.5865E+06    -20.0856E+06    -3.18751E+06    -9.19863E+06    -25.2277E-03     46.9680E-03    -21.7403E-03     34.7317E-03    -25.2723E-03     46.9018E-03    -21.7074E-03     34.5822E-03
            2407     11.4515E-03     3.00245E-03    -13.8676E+06    -40.4503E+06    -5.71341E+06    -12.8584E+06    -24.4427E-03     45.9542E-03    -21.5116E-03     30.6854E-03    -24.4511E-03     45.7859E-03    -21.4614E-03     30.4990E-03
            2408     10.5727E-03     2.99661E-03    -12.6536E+06    -55.8153E+06    -9.91819E+06    -15.2635E+06    -23.8763E-03     45.1603E-03    -21.2840E-03     26.8426E-03    -23.8479E-03     44.9171E-03    -21.2343E-03     26.6317E-03
            2409     9.69356E-03     2.99164E-03    -10.7696E+06    -67.4878E+06    -11.6667E+06    -16.1536E+06    -23.4378E-03     44.5088E-03    -21.0709E-03     23.2132E-03    -23.3791E-03     44.2057E-03    -21.0158E-03     22.9950E-03
            2410     8.81417E-03     2.98682E-03    -9.23662E+06    -77.0901E+06    -11.3673E+06    -15.5821E+06    -22.9685E-03     43.8396E-03    -20.8711E-03     19.8809E-03    -22.8878E-03     43.4850E-03    -20.8027E-03     19.6729E-03
            2411     7.93436E-03     2.98267E-03    -8.83512E+06    -84.9542E+06    -11.1269E+06    -14.0695E+06    -22.4682E-03     43.1477E-03    -20.6795E-03     16.9284E-03    -22.3739E-03     42.7524E-03    -20.5991E-03     16.7419E-03
            2412     7.05408E-03     2.97876E-03    -9.34785E+06    -90.3975E+06    -11.1864E+06    -11.6824E+06    -21.9675E-03     42.4653E-03    -20.4978E-03     14.2718E-03    -21.8675E-03     42.0434E-03    -20.4091E-03     14.1175E-03
            2413     6.17338E-03     2.97538E-03    -10.3119E+06    -93.3162E+06    -11.0946E+06    -8.51650E+06    -21.4874E-03     41.8179E-03    -20.3305E-03     11.8559E-03    -21.3879E-03     41.3825E-03    -20.2357E-03     11.7434E-03
            2414     5.29232E-03     2.97239E-03    -11.1547E+06    -94.1368E+06    -11.0992E+06    -5.38682E+06    -21.0455E-03     41.2240E-03    -20.1785E-03     9.69729E-03    -20.9489E-03     40.7857E-03    -20.0813E-03     9.62587E-03
            2415     4.41084E-03     2.96988E-03    -11.8183E+06    -94.7613E+06    -11.6685E+06    -3.06457E+06    -20.6566E-03     40.7007E-03    -20.0441E-03     7.75923E-03    -20.5615E-03     40.2610E-03    -19.9479E-03     7.71829E-03
            2416     3.52909E-03     2.96776E-03    -12.6797E+06    -95.5244E+06    -12.7992E+06    -1.45405E+06    -20.3266E-03     40.2569E-03    -19.9303E-03     6.00946E-03    -20.2330E-03     39.8163E-03    -19.8374E-03     5.98968E-03
            2417     2.64705E-03     2.96614E-03    -13.6191E+06    -96.1259E+06    -13.6818E+06    -515.685E+03    -20.0677E-03     39.9090E-03    -19.8413E-03     4.40645E-03    -19.9767E-03     39.4680E-03    -19.7506E-03     4.39909E-03
            2418     1.76482E-03     2.96494E-03    -14.4971E+06    -96.5974E+06    -14.2800E+06    -165.341E+03    -19.8831E-03     39.6586E-03    -19.7756E-03     2.90869E-03    -19.7948E-03     39.2173E-03    -19.6859E-03     2.90610E-03
            2419     882.450E-06     2.96423E-03    -15.4638E+06    -95.3852E+06    -15.2967E+06     52.0371E+03    -19.7442E-03     39.4853E-03    -19.7411E-03     1.57404E-03    -19.6608E-03     39.0531E-03    -19.6568E-03     1.57445E-03
            2420     16.6624E-03     2.05816E-03    -4.32252E+06     109.041E+06     67.1354E+06     9.38168E+06    -52.7126E-03     79.5627E-03    -26.8500E-03     52.6247E-03    -53.1721E-03     80.2035E-03    -26.6662E-03     52.3675E-03
            2421     15.7999E-03     2.03858E-03    -4.88638E+06     96.0794E+06     54.2304E+06     12.6788E+06    -38.3060E-03     64.0610E-03    -25.7550E-03     57.8603E-03    -38.6766E-03     64.5992E-03    -25.6161E-03     57.8044E-03
            2422     14.9246E-03     2.03432E-03    -3.74118E+06     81.0408E+06     31.5803E+06     5.63142E+06    -32.8501E-03     57.9050E-03    -25.0549E-03     49.5759E-03    -33.0777E-03     58.3144E-03    -25.0091E-03     49.5469E-03
            2423     14.0522E-03     2.02693E-03    -2.03495E+06     60.0307E+06     6.59730E+06     822.917E+03    -31.6389E-03     56.1235E-03    -24.4845E-03     46.4570E-03    -31.7676E-03     56.4376E-03    -24.5356E-03     46.4117E-03
            2424     13.1773E-03     2.01815E-03    -3.63102E+06     22.0550E+06    -11.9192E+06    -2.21624E+06    -30.3436E-03     54.3515E-03    -24.0079E-03     38.2875E-03    -30.3872E-03     54.4939E-03    -24.0942E-03     38.2251E-03
            2425     12.3038E-03     2.01193E-03    -4.10555E+06    -15.3887E+06    -19.5892E+06    -7.94577E+06    -29.2816E-03     52.8929E-03    -23.6113E-03     31.2822E-03    -29.2574E-03     52.8555E-03    -23.6810E-03     31.1567E-03
            2426     11.4293E-03     2.00668E-03    -4.16824E+06    -38.7209E+06    -24.5542E+06    -12.5734E+06    -28.3849E-03     51.6095E-03    -23.2246E-03     26.0585E-03    -28.3174E-03     51.4604E-03    -23.2852E-03     25.8809E-03
            2427     10.5542E-03     2.00223E-03    -4.47824E+06    -55.8094E+06    -29.7508E+06    -14.6942E+06    -27.5014E-03     50.3424E-03    -22.8410E-03     21.8111E-03    -27.4017E-03     50.1145E-03    -22.9023E-03     21.6111E-03
            2428     9.67828E-03     1.99786E-03    -5.36286E+06    -69.4899E+06    -31.7056E+06    -15.1332E+06    -26.5504E-03     49.0373E-03    -22.4869E-03     18.2117E-03    -26.4316E-03     48.7445E-03    -22.5369E-03     18.0092E-03
            2429     8.80154E-03     1.99429E-03    -6.54978E+06    -80.5073E+06    -29.1444E+06    -14.0716E+06    -25.6257E-03     47.8004E-03    -22.1747E-03     15.2199E-03    -25.5002E-03     47.4501E-03    -22.1942E-03     15.0333E-03
            2430     7.92393E-03     1.99097E-03    -7.80773E+06    -89.1389E+06    -25.4801E+06    -11.9210E+06    -24.7524E-03     46.6417E-03    -21.8893E-03     12.7067E-03    -24.6257E-03     46.2445E-03    -21.8761E-03     12.5493E-03
            2431     7.04564E-03     1.98807E-03    -9.25152E+06    -95.0184E+06    -21.6776E+06    -9.31802E+06    -23.9228E-03     45.5507E-03    -21.6279E-03     10.5442E-03    -23.8002E-03     45.1206E-03    -21.5851E-03     10.4214E-03
            2432     6.16659E-03     1.98549E-03    -10.5426E+06    -97.8803E+06    -17.5491E+06    -6.71934E+06    -23.1571E-03     44.5507E-03    -21.3936E-03     8.65963E-03    -23.0426E-03     44.1021E-03    -21.3241E-03     8.57110E-03
            2433     5.28686E-03     1.98329E-03    -11.4340E+06    -97.8738E+06    -15.1705E+06    -4.28022E+06    -22.4784E-03     43.6564E-03    -21.1780E-03     7.01721E-03    -22.3718E-03     43.2056E-03    -21.0953E-03     6.96065E-03
            2434     4.40664E-03     1.98140E-03    -12.1957E+06    -97.4457E+06    -13.8714E+06    -2.08349E+06    -21.8952E-03     42.8846E-03    -20.9893E-03     5.57122E-03    -21.7949E-03     42.4351E-03    -20.8997E-03     5.54337E-03
            2435     3.52587E-03     1.97990E-03    -12.7442E+06    -96.9728E+06    -13.1768E+06    -647.921E+03    -21.4121E-03     42.2435E-03    -20.8314E-03     4.28578E-03    -21.3161E-03     41.7962E-03    -20.7382E-03     4.27673E-03
            2436     2.64474E-03     1.97865E-03    -13.0051E+06    -96.7795E+06    -13.1525E+06     28.9867E+03    -21.0312E-03     41.7366E-03    -20.7054E-03     3.12571E-03    -20.9368E-03     41.2906E-03    -20.6120E-03     3.12560E-03
            2437     1.76332E-03     1.97779E-03    -13.1960E+06    -96.7164E+06    -13.2025E+06     429.337E+03    -20.7617E-03     41.3763E-03    -20.6146E-03     2.07556E-03    -20.6683E-03     40.9310E-03    -20.5212E-03     2.08080E-03
            2438     881.747E-06     1.97723E-03    -13.4821E+06    -94.9611E+06    -13.4433E+06     471.038E+03    -20.5869E-03     41.1493E-03    -20.5623E-03     1.11523E-03    -20.4968E-03     40.7137E-03    -20.4723E-03     1.12115E-03
            2439     16.6099E-03     1.03668E-03    -229.055E+03     105.374E+06     68.6709E+06     5.74293E+06    -49.0963E-03     78.6193E-03    -29.5230E-03     61.7533E-03    -49.4578E-03     79.1538E-03    -29.3321E-03     61.5952E-03
            2440     15.7432E-03     1.02926E-03     1.59508E+06     97.5390E+06     53.3313E+06     3.21398E+06    -44.4048E-03     72.8532E-03    -28.4484E-03     56.6495E-03    -44.6716E-03     73.3143E-03    -28.3255E-03     56.5802E-03
            2441     14.8801E-03     1.02589E-03     5.14731E+06     84.4601E+06     22.5751E+06     2.78531E+06    -41.4551E-03     68.8813E-03    -27.4262E-03     41.6569E-03    -41.6023E-03     69.2790E-03    -27.4432E-03     41.6453E-03
            2442     14.0154E-03     1.01719E-03     4.85531E+06     61.2709E+06    -8.31731E+06     2.47959E+06    -39.2321E-03     65.7210E-03    -26.4889E-03     32.3242E-03    -39.2924E-03     66.0390E-03    -26.6263E-03     32.3259E-03
            2443     13.1522E-03     1.01248E-03     6.14838E+06     26.7496E+06    -25.6433E+06    -1.06681E+06    -36.4438E-03     62.1467E-03    -25.7029E-03     24.5150E-03    -36.4185E-03     62.3119E-03    -25.8788E-03     24.4816E-03
            2444     12.2835E-03     1.00865E-03     6.50272E+06    -10.8529E+06    -35.6293E+06    -5.29590E+06    -34.0603E-03     59.1039E-03    -25.0437E-03     19.1725E-03    -33.9624E-03     59.0937E-03    -25.2155E-03     19.0917E-03
            2445     11.4131E-03     1.00533E-03     4.98791E+06    -37.0928E+06    -42.5165E+06    -7.99163E+06    -32.1742E-03     56.6267E-03    -24.4525E-03     15.2186E-03    -32.0349E-03     56.4966E-03    -24.6186E-03     15.1071E-03
            2446     10.5413E-03     1.00243E-03     2.10346E+06     -56.244E+06    -46.2946E+06    -9.04642E+06    -30.5062E-03     54.4260E-03    -23.9197E-03     12.2990E-03    -30.3476E-03     54.2093E-03    -24.0727E-03     12.1765E-03
            2447     9.66796E-03     1.00026E-03    -1.18298E+06    -71.3049E+06    -45.8464E+06    -8.94394E+06    -28.9644E-03     52.4148E-03    -23.4504E-03     10.0890E-03    -28.8008E-03     52.1268E-03    -23.5745E-03     9.96972E-03
            2448     8.79306E-03     998.103E-06    -4.41267E+06    -83.3232E+06    -41.8226E+06    -8.26736E+06    -27.5858E-03     50.6265E-03    -23.0407E-03     8.30337E-03    -27.4266E-03     50.2771E-03    -23.1225E-03     8.19403E-03
            2449     7.91718E-03     996.319E-06    -7.15055E+06    -92.8459E+06    -35.3488E+06    -6.91892E+06    -26.3593E-03     49.0413E-03    -22.6821E-03     6.82452E-03    -26.2093E-03     48.6388E-03    -22.7138E-03     6.73336E-03
            2450     7.04013E-03     994.730E-06    -9.29248E+06    -98.4296E+06    -29.6370E+06    -5.15217E+06    -25.2541E-03     47.6093E-03    -22.3552E-03     5.61694E-03    -25.1149E-03     47.1736E-03    -22.3472E-03     5.54915E-03
            2451     6.16218E-03     993.358E-06    -10.8163E+06    -100.693E+06    -24.5727E+06    -3.85757E+06    -24.2772E-03     46.3387E-03    -22.0615E-03     4.59208E-03    -24.1497E-03     45.8866E-03    -22.0227E-03     4.54139E-03
            2452     5.28344E-03     992.166E-06    -11.8281E+06    -100.948E+06    -19.4615E+06    -2.34630E+06    -23.4237E-03     45.2303E-03    -21.8066E-03     3.69541E-03    -23.3082E-03     44.7709E-03    -21.7404E-03     3.66448E-03
            2453     4.40391E-03     991.194E-06    -12.4545E+06    -99.2346E+06    -15.8935E+06     -960.99E+03    -22.6990E-03     44.2821E-03    -21.5831E-03     2.91682E-03    -22.5943E-03     43.8270E-03    -21.5006E-03     2.90394E-03
            2454     3.52387E-03     990.340E-06    -12.6520E+06    -97.9086E+06    -13.7009E+06    -304.134E+03    -22.1093E-03     43.5041E-03    -21.3948E-03     2.23237E-03    -22.0108E-03     43.0527E-03    -21.3029E-03     2.22810E-03
            2455     2.64334E-03     989.739E-06    -12.6105E+06    -97.0820E+06    -12.6160E+06     92.8890E+03    -21.6470E-03     42.8903E-03    -21.2433E-03     1.61809E-03    -21.5510E-03     42.4414E-03    -21.1473E-03     1.61905E-03
            2456     1.76242E-03     989.246E-06    -12.5538E+06    -96.7063E+06    -12.2101E+06     215.048E+03    -21.3124E-03     42.4442E-03    -21.1318E-03     1.05470E-03    -21.2172E-03     41.9965E-03    -21.0344E-03     1.05733E-03
            2457     881.202E-06     988.955E-06    -12.1949E+06    -94.2781E+06    -11.8981E+06     242.440E+03    -21.1118E-03     42.1658E-03    -21.0541E-03     560.916E-06    -21.0183E-03     41.7295E-03    -20.9592E-03     564.021E-06


