********************************************************************************
Field Output Report, written Tue May 28 22:27:16 2024

Source 1
---------

   ODB: G:/Abaqus_calc_2019/1740/Vel_10/odb/zeides_2a_40_red_2000_cal_75_vel_10_fric_050.odb
   Step: Step-1
   Frame: Increment  17059221: Step Time =    1.571

Loc 1 : Nodal values from source 1

Output sorted by column "Nodal Label".

Field Output reported at nodes for region: DIE_2A_40_D0_36-1.Region_1
   Computation algorithm: EXTRAPOLATE_COMPUTE_AVERAGE
   Averaged at nodes
   Averaging regions: ODB_REGIONS

      Node Label     COORD.COOR1     COORD.COOR2
                          @Loc 1          @Loc 1
-------------------------------------------------
               1     19.3251E-03     170.950E-03


Field Output reported at nodes for region: DIE_2A_40_D0_36-1.Region_2
   Computation algorithm: EXTRAPOLATE_COMPUTE_AVERAGE
   Averaged at nodes
   Averaging regions: ODB_REGIONS

      Node Label     COORD.COOR1     COORD.COOR2
                          @Loc 1          @Loc 1
-------------------------------------------------
               1     19.3251E-03     170.950E-03


Field Output reported at nodes for part: WIRE-1
   Computation algorithm: EXTRAPOLATE_COMPUTE_AVERAGE
   Averaged at nodes
   Averaging regions: ODB_REGIONS

      Node Label     COORD.COOR1     COORD.COOR2           S.S11           S.S22           S.S33           S.S12         PE.PE11         PE.PE22         PE.PE33         PE.PE12         LE.LE11         LE.LE22         LE.LE33         LE.LE12
                          @Loc 1          @Loc 1          @Loc 1          @Loc 1          @Loc 1          @Loc 1          @Loc 1          @Loc 1          @Loc 1          @Loc 1          @Loc 1          @Loc 1          @Loc 1          @Loc 1
-------------------------------------------------------------------------------------------------------------------------------------------------------------------------------------------------------------------------------------------------
               1    -200.344E-09     84.6612E-03    -118.534E+06    -285.970E+06    -119.000E+06    -2.10719E+06    -231.245E-03     461.853E-03    -230.607E-03     14.1448E-03    -231.277E-03     460.794E-03    -230.616E-03     12.4243E-03
               2     14.2953E-03     89.1853E-03    -2.66890E+06     68.3694E+06     79.0764E+06    -283.739E+03    -228.869E-03     459.541E-03    -230.672E-03     98.4998E-03    -232.815E-03     463.491E-03    -230.372E-03     76.7715E-03
               3     13.7190E-03     177.347E-03     40.4672E+06    -23.2500E+06     107.323E+06     41.8362E+06     149.908E-03     106.532E-03    -256.440E-03    -1.86278E-03     149.633E-03     105.845E-03    -255.928E-03    -1.31798E-03
               4    -7.64073E-06     169.120E-03    -44.2102E+06    -28.6848E+06    -58.6244E+06    -13.2107E+06    -218.903E-03     447.575E-03    -228.672E-03    -61.1466E-03    -219.649E-03     446.834E-03    -228.860E-03    -62.4438E-03
               5     506.328E-09     5.52336E-15    -73.2648E+06    -260.149E+06    -73.5115E+06    -607.360E+03    -208.038E-03     415.428E-03    -207.390E-03     2.41490E-03    -207.918E-03     414.341E-03    -207.275E-03     2.29795E-03
               6     13.9577E-03     5.52336E-15    -2.21399E+06     80.4637E+06     84.1761E+06     3.98185E+06    -587.088E-03     826.670E-03    -239.582E-03     305.897E-03    -596.241E-03     835.798E-03    -239.275E-03     248.728E-03
               7     714.529E-06     84.6797E-03    -118.378E+06    -278.150E+06    -116.876E+06    -1.94566E+06    -231.162E-03     461.911E-03    -230.749E-03     24.3411E-03    -231.271E-03     460.951E-03    -230.758E-03     21.4525E-03
               8     1.42882E-03     84.7265E-03    -116.630E+06    -264.948E+06    -108.732E+06    -1.00106E+06    -231.244E-03     462.145E-03    -230.901E-03     45.4064E-03    -231.567E-03     461.429E-03    -230.892E-03     40.0554E-03
               9     2.14324E-03     84.8033E-03    -112.497E+06    -254.270E+06    -95.2931E+06    -339.536E+03    -231.699E-03     462.634E-03    -230.935E-03     67.2053E-03    -232.368E-03     462.277E-03    -230.879E-03     59.1640E-03
              10     2.85767E-03     84.9094E-03    -106.507E+06    -244.810E+06    -80.0200E+06    -253.659E+03    -232.314E-03     463.298E-03    -230.984E-03     89.0292E-03    -233.469E-03     463.438E-03    -230.875E-03     78.1537E-03
              11     3.57243E-03     85.0457E-03    -100.036E+06    -214.852E+06    -65.3405E+06     219.515E+03    -232.940E-03     463.934E-03    -230.995E-03     110.887E-03    -234.778E-03     464.844E-03    -230.865E-03     97.0171E-03
              12     4.28699E-03     85.2108E-03    -93.4964E+06    -171.777E+06    -50.2280E+06     703.053E+03    -233.657E-03     464.636E-03    -230.979E-03     132.838E-03    -236.400E-03     466.583E-03    -230.846E-03     115.733E-03
              13     5.00120E-03     85.4050E-03    -86.5984E+06    -139.902E+06    -33.6058E+06     757.640E+03    -234.445E-03     465.431E-03    -230.986E-03     154.575E-03    -238.307E-03     468.586E-03    -230.826E-03     133.985E-03
              14     5.71631E-03     85.6266E-03    -80.2536E+06    -117.839E+06    -18.2358E+06     132.291E+03    -235.132E-03     466.132E-03    -231.000E-03     175.836E-03    -240.351E-03     470.701E-03    -230.804E-03     151.533E-03
              15     6.43055E-03     85.8766E-03    -73.9483E+06    -74.8549E+06    -2.31297E+06    -927.610E+03    -235.585E-03     466.559E-03    -230.974E-03     196.876E-03    -242.464E-03     472.917E-03    -230.770E-03     168.713E-03
              16     7.14541E-03     86.1541E-03    -67.4316E+06    -19.2706E+06     13.6553E+06    -2.02053E+06    -235.903E-03     466.815E-03    -230.911E-03     217.838E-03    -244.775E-03     475.339E-03    -230.717E-03     185.665E-03
              17     7.86120E-03     86.4568E-03    -60.0547E+06     7.04505E+06     24.9745E+06    -2.05053E+06    -236.335E-03     467.197E-03    -230.862E-03     238.179E-03    -247.442E-03     478.043E-03    -230.660E-03     201.949E-03
              18     8.57511E-03     86.7855E-03    -51.0001E+06     20.1344E+06     34.7064E+06    -788.400E+03    -236.668E-03     467.497E-03    -230.828E-03     256.839E-03    -250.144E-03     480.762E-03    -230.610E-03     216.835E-03
              19     9.29096E-03     87.1393E-03    -41.6329E+06     32.5756E+06     48.9315E+06     297.544E+03    -236.528E-03     467.351E-03    -230.823E-03     271.529E-03    -252.271E-03     482.920E-03    -230.565E-03     228.406E-03
              20     10.0062E-03     87.5040E-03    -33.6320E+06     42.3840E+06     63.9890E+06     354.804E+03    -235.820E-03     466.650E-03    -230.830E-03     277.857E-03    -253.185E-03     483.861E-03    -230.523E-03     232.878E-03
              21     10.7212E-03     87.8701E-03    -25.9462E+06     51.2257E+06     74.5211E+06     12.5716E+03    -234.469E-03     465.301E-03    -230.832E-03     271.772E-03    -252.236E-03     482.942E-03    -230.496E-03     226.685E-03
              22     11.4349E-03     88.2174E-03    -18.6570E+06     58.2960E+06     76.7345E+06    -282.353E+03    -232.492E-03     463.298E-03    -230.806E-03     255.591E-03    -249.394E-03     480.118E-03    -230.479E-03     212.015E-03
              23     12.1508E-03     88.5363E-03    -13.3139E+06     61.9837E+06     76.6352E+06     431.675E+03    -230.457E-03     461.220E-03    -230.763E-03     229.823E-03    -245.103E-03     475.816E-03    -230.450E-03     189.585E-03
              24     12.8672E-03     88.8112E-03    -8.44418E+06     67.4219E+06     80.0393E+06     1.38561E+06    -229.372E-03     460.096E-03    -230.724E-03     207.476E-03    -241.935E-03     472.636E-03    -230.409E-03     170.138E-03
              25     13.5815E-03     89.0661E-03    -4.24747E+06     69.9915E+06     80.3132E+06     578.686E+03    -229.039E-03     459.725E-03    -230.687E-03     149.846E-03    -237.026E-03     467.713E-03    -230.380E-03     120.647E-03
              26     14.2983E-03     90.6876E-03    -1.35883E+06     70.1803E+06     80.2782E+06     533.093E+03    -228.590E-03     459.246E-03    -230.656E-03     98.3140E-03    -232.531E-03     463.198E-03    -230.354E-03     76.6414E-03
              27     14.2948E-03     92.1918E-03    -1.56757E+06     70.7540E+06     79.9456E+06     175.220E+03    -229.173E-03     459.865E-03    -230.692E-03     96.9110E-03    -233.097E-03     463.803E-03    -230.392E-03     75.2053E-03
              28     14.2957E-03     93.6953E-03    -2.90796E+06     68.5559E+06     80.0165E+06    -674.430E+03    -229.211E-03     459.950E-03    -230.739E-03     97.5231E-03    -233.153E-03     463.893E-03    -230.434E-03     75.7859E-03
              29     14.2950E-03     95.1994E-03    -1.92638E+06     67.6433E+06     80.6320E+06     24.6475E+03    -228.225E-03     458.967E-03    -230.742E-03     97.7271E-03    -232.173E-03     462.915E-03    -230.434E-03     76.0641E-03
              30     14.2969E-03     96.7018E-03    -1.92921E+06     68.7021E+06     80.6586E+06     463.891E+03    -228.029E-03     458.752E-03    -230.723E-03     98.0803E-03    -231.994E-03     462.720E-03    -230.417E-03     76.3968E-03
              31     14.2950E-03     98.2041E-03    -2.54137E+06     69.7380E+06     80.0708E+06     12.6540E+03    -228.886E-03     459.586E-03    -230.700E-03     98.0489E-03    -232.853E-03     463.560E-03    -230.398E-03     76.2797E-03
              32     14.2967E-03     99.7105E-03    -2.36121E+06     69.0845E+06     79.7361E+06    -348.054E+03    -228.580E-03     459.283E-03    -230.702E-03     97.3757E-03    -232.531E-03     463.239E-03    -230.400E-03     75.6095E-03
              33     14.2954E-03     101.209E-03    -1.77051E+06     68.8034E+06     80.1108E+06    -151.255E+03    -228.047E-03     458.744E-03    -230.697E-03     97.7855E-03    -232.004E-03     462.707E-03    -230.394E-03     76.0818E-03
              34     14.2975E-03     102.716E-03    -2.27147E+06     68.7602E+06     80.4051E+06     459.833E+03    -228.977E-03     459.651E-03    -230.674E-03     98.1405E-03    -232.921E-03     463.598E-03    -230.369E-03     76.4688E-03
              35     14.2949E-03     104.219E-03    -2.31203E+06     69.4071E+06     81.9724E+06     290.068E+03    -229.078E-03     459.781E-03    -230.703E-03     96.9324E-03    -233.008E-03     463.711E-03    -230.390E-03     75.2489E-03
              36     14.2966E-03     105.723E-03    -1.35207E+06     69.3484E+06     80.5647E+06    -1.22587E+06    -227.711E-03     458.425E-03    -230.714E-03     98.0339E-03    -231.691E-03     462.412E-03    -230.409E-03     76.2381E-03
              37     14.2966E-03     107.223E-03    -2.76582E+06     68.8343E+06     80.3502E+06    -310.425E+03    -228.523E-03     459.227E-03    -230.704E-03     98.4679E-03    -232.511E-03     463.217E-03    -230.398E-03     76.6850E-03
              38     14.2943E-03     108.733E-03    -2.06399E+06     71.0924E+06     83.1312E+06     645.131E+03    -229.493E-03     460.250E-03    -230.757E-03     98.1208E-03    -233.428E-03     464.189E-03    -230.441E-03     76.5139E-03
              39     14.2951E-03     110.232E-03    -2.43629E+06     70.4230E+06     83.0946E+06     4.61603E+03    -228.825E-03     459.648E-03    -230.822E-03     99.1828E-03    -232.758E-03     463.581E-03    -230.505E-03     77.6588E-03
              40     14.2933E-03     111.740E-03    -2.72464E+06     67.5463E+06     79.5304E+06    -641.398E+03    -228.499E-03     459.322E-03    -230.823E-03     100.394E-03    -232.429E-03     463.252E-03    -230.520E-03     78.8984E-03
              41     14.2960E-03     113.239E-03    -964.145E+03     67.6372E+06     80.2868E+06     717.945E+03    -228.133E-03     458.919E-03    -230.786E-03     100.436E-03    -232.055E-03     462.845E-03    -230.481E-03     78.9648E-03
              42     14.2952E-03     114.743E-03    -1.41691E+06     69.8372E+06     82.7207E+06     1.12306E+06    -228.305E-03     459.085E-03    -230.780E-03     97.6431E-03    -232.189E-03     462.972E-03    -230.466E-03     76.2200E-03
              43     14.2945E-03     116.244E-03    -2.82641E+06     69.9244E+06     80.5462E+06    -1.60472E+06    -228.375E-03     459.136E-03    -230.761E-03     98.3766E-03    -232.312E-03     463.078E-03    -230.456E-03     76.6872E-03
              44     14.2970E-03     117.747E-03    -3.08563E+06     69.1217E+06     80.4243E+06    -671.168E+03    -229.373E-03     460.127E-03    -230.754E-03     97.8253E-03    -233.339E-03     464.094E-03    -230.448E-03     76.0342E-03
              45     14.2916E-03     119.259E-03    -1.92613E+06     68.1316E+06     79.5908E+06    -600.968E+03    -229.214E-03     460.023E-03    -230.809E-03     97.6948E-03    -233.133E-03     463.946E-03    -230.507E-03     76.0630E-03
              46     14.2969E-03     120.752E-03    -1.93546E+06     67.2600E+06     79.9117E+06     69.3532E+03    -228.062E-03     458.868E-03    -230.807E-03     99.4414E-03    -232.001E-03     462.809E-03    -230.502E-03     77.9241E-03
              47     14.2937E-03     122.263E-03    -505.277E+03     70.6901E+06     83.4864E+06     1.39620E+06    -228.826E-03     459.598E-03    -230.772E-03     98.9522E-03    -232.748E-03     463.527E-03    -230.457E-03     77.4992E-03
              48     14.2962E-03     123.765E-03    -1.49823E+06     70.4136E+06     82.3061E+06    -233.798E+03    -227.984E-03     458.769E-03    -230.785E-03     98.9236E-03    -231.917E-03     462.708E-03    -230.473E-03     77.3737E-03
              49     14.2947E-03     125.264E-03    -4.34438E+06     66.5975E+06     80.5386E+06    -301.215E+03    -228.564E-03     459.384E-03    -230.819E-03     98.1588E-03    -232.514E-03     463.321E-03    -230.507E-03     76.5207E-03
              50     14.2924E-03     126.774E-03    -2.21357E+06     69.2748E+06     84.0415E+06     577.622E+03    -228.990E-03     459.815E-03    -230.825E-03     99.7430E-03    -232.966E-03     463.785E-03    -230.502E-03     78.0077E-03
              51     14.2983E-03     128.270E-03    -2.54083E+06     74.8108E+06     86.0471E+06     751.010E+03    -227.638E-03     458.404E-03    -230.766E-03     100.659E-03    -231.602E-03     462.375E-03    -230.441E-03     79.1938E-03
              52     14.2943E-03     129.781E-03    -1.34861E+06     77.6949E+06     86.8707E+06     912.001E+03    -227.863E-03     458.583E-03    -230.720E-03     101.178E-03    -231.796E-03     462.535E-03    -230.396E-03     79.8910E-03
              53     14.2986E-03     131.275E-03    -1.12937E+06     79.7153E+06     88.7459E+06     1.04465E+06    -227.615E-03     458.322E-03    -230.707E-03     99.5908E-03    -231.564E-03     462.293E-03    -230.377E-03     78.1691E-03
              54     14.2952E-03     132.777E-03    -2.72705E+06     81.5468E+06     87.4715E+06     1.52055E+06    -228.062E-03     458.781E-03    -230.719E-03     96.5034E-03    -231.978E-03     462.724E-03    -230.396E-03     75.1169E-03
              55     14.2958E-03     134.283E-03    -2.69253E+06     85.1364E+06     86.9031E+06     545.187E+03    -227.037E-03     457.770E-03    -230.734E-03     98.0252E-03    -230.998E-03     461.772E-03    -230.419E-03     76.5707E-03
              56     14.2983E-03     135.777E-03    -1.81321E+06     87.6755E+06     89.7717E+06     238.170E+03    -225.940E-03     456.640E-03    -230.700E-03     97.7014E-03    -229.912E-03     460.657E-03    -230.376E-03     76.2823E-03
              57     14.2966E-03     137.281E-03    -2.46884E+06     87.2477E+06     90.8957E+06     263.499E+03    -226.947E-03     457.602E-03    -230.656E-03     97.6835E-03    -230.897E-03     461.590E-03    -230.324E-03     76.3029E-03
              58     14.2990E-03     138.782E-03    -1.91080E+06     85.9557E+06     90.0087E+06    -493.990E+03    -225.220E-03     455.821E-03    -230.601E-03     98.6325E-03    -229.181E-03     459.820E-03    -230.273E-03     77.3234E-03
              59     14.3013E-03     140.276E-03    -1.87169E+06     84.8374E+06     88.8516E+06    -186.252E+03    -223.482E-03     453.974E-03    -230.491E-03     98.3421E-03    -227.473E-03     458.001E-03    -230.167E-03     77.0351E-03
              60     14.3026E-03     141.769E-03    -3.77500E+06     85.5111E+06     89.4401E+06     306.331E+03    -224.242E-03     454.561E-03    -230.318E-03     98.3530E-03    -228.239E-03     458.588E-03    -229.990E-03     77.0263E-03
              61     14.3065E-03     143.270E-03    -2.17517E+06     87.8964E+06     94.6083E+06     1.15062E+06    -223.741E-03     453.843E-03    -230.102E-03     100.289E-03    -227.723E-03     457.854E-03    -229.753E-03     79.1588E-03
              62     14.3115E-03     144.764E-03    -2.51116E+06     90.9971E+06     98.3289E+06     844.134E+03    -221.516E-03     451.248E-03    -229.732E-03     104.607E-03    -225.582E-03     455.343E-03    -229.369E-03     83.5493E-03
              63     14.3225E-03     146.251E-03    -290.474E+03     92.0297E+06     100.581E+06     526.915E+03    -220.782E-03     449.910E-03    -229.128E-03     106.972E-03    -224.907E-03     454.069E-03    -228.758E-03     85.7857E-03
              64     14.3308E-03     147.743E-03    -1.40837E+06     96.9313E+06     104.074E+06     2.81929E+06    -223.836E-03     452.187E-03    -228.351E-03     109.625E-03    -228.084E-03     456.473E-03    -227.970E-03     87.9073E-03
              65     14.3429E-03     149.241E-03    -5.54743E+06     103.537E+06     103.819E+06     1.45483E+06    -227.771E-03     455.186E-03    -227.415E-03     113.374E-03    -232.162E-03     459.625E-03    -227.038E-03     91.0323E-03
              66     14.3569E-03     150.742E-03    -342.456E+03     109.200E+06     106.684E+06     2.73095E+06    -232.607E-03     458.931E-03    -226.324E-03     119.379E-03    -237.115E-03     463.518E-03    -225.949E-03     96.3894E-03
              67     14.3712E-03     152.257E-03    -5.38023E+06     113.468E+06     111.079E+06     950.025E+03    -242.647E-03     467.758E-03    -225.111E-03     127.672E-03    -247.403E-03     472.577E-03    -224.712E-03     103.371E-03
              68     14.3841E-03     153.789E-03    -1.34277E+06     117.153E+06     119.298E+06     2.24216E+06    -256.715E-03     480.611E-03    -223.896E-03     134.542E-03    -261.656E-03     485.621E-03    -223.468E-03     108.604E-03
              69     14.3947E-03     155.346E-03    -5.92886E+06     118.675E+06     122.727E+06     977.575E+03    -273.796E-03     496.628E-03    -222.832E-03     140.897E-03    -278.942E-03     501.823E-03    -222.382E-03     113.000E-03
              70     14.3987E-03     156.928E-03    -1.05114E+06     127.168E+06     126.841E+06     3.66078E+06    -293.905E-03     515.884E-03    -221.978E-03     146.295E-03    -299.133E-03     521.196E-03    -221.527E-03     116.520E-03
              71     14.4017E-03     158.543E-03    -7.94380E+06     120.237E+06     115.852E+06    -5.78805E+06    -313.981E-03     535.286E-03    -221.306E-03     151.905E-03    -319.299E-03     540.673E-03    -220.890E-03     120.094E-03
              72     14.4017E-03     160.183E-03     1.71513E+06     117.782E+06     114.497E+06    -1.73183E+06    -332.556E-03     553.375E-03    -220.819E-03     156.935E-03    -337.912E-03     558.829E-03    -220.419E-03     123.341E-03
              73     14.4017E-03     161.854E-03    -4.50066E+06     115.904E+06     109.166E+06     1.44031E+06    -348.138E-03     568.610E-03    -220.472E-03     162.093E-03    -353.630E-03     574.186E-03    -220.087E-03     126.720E-03
              74     14.4011E-03     163.541E-03    -2.71743E+06     108.369E+06     106.559E+06    -4.73538E+06    -362.269E-03     582.420E-03    -220.151E-03     169.139E-03    -367.925E-03     588.146E-03    -219.772E-03     131.824E-03
              75     14.4032E-03     165.249E-03    -1.32413E+06     106.597E+06     115.077E+06    -1.07495E+06    -373.287E-03     593.223E-03    -219.936E-03     168.232E-03    -378.903E-03     598.883E-03    -219.513E-03     129.892E-03
              76     14.4003E-03     166.971E-03    -2.94446E+06     83.3352E+06     115.884E+06    -1.27880E+06    -380.781E-03     600.588E-03    -219.806E-03     174.011E-03    -386.476E-03     606.237E-03    -219.343E-03     134.872E-03
              77     14.4052E-03     168.709E-03    -3.76290E+06     54.7261E+06     120.913E+06    -8.31284E+06    -379.423E-03     599.299E-03    -219.877E-03     175.155E-03    -385.209E-03     604.921E-03    -219.346E-03     135.395E-03
              78     14.3996E-03     170.421E-03     1.44458E+06     26.7345E+06     147.257E+06    -3.54778E+06    -368.941E-03     589.137E-03    -220.196E-03     182.874E-03    -374.987E-03     594.857E-03    -219.500E-03     143.820E-03
              79     14.4114E-03     172.113E-03    -2.13766E+06     36.3358E+06     179.354E+06     10.5980E+06    -344.063E-03     564.755E-03    -220.692E-03     197.149E-03    -350.412E-03     570.723E-03    -219.845E-03     161.019E-03
              80     14.4076E-03     173.788E-03    -1.52929E+06     71.2757E+06     172.577E+06     7.75985E+06    -289.983E-03     511.687E-03    -221.704E-03     247.365E-03    -297.617E-03     519.093E-03    -220.942E-03     215.616E-03
              81     14.4241E-03     175.330E-03    -17.0990E+06     37.2585E+06     121.297E+06    -24.0283E+06    -134.042E-03     360.175E-03    -226.132E-03     270.355E-03    -138.844E-03     364.944E-03    -225.555E-03     254.817E-03
              82     14.3666E-03     176.412E-03    -24.5234E+06    -16.7859E+06     90.5214E+06    -10.2792E+06     68.7493E-03     174.406E-03    -243.155E-03     119.542E-03     68.1965E-03     174.434E-03    -242.643E-03     118.938E-03
              83     12.9169E-03     176.842E-03     17.3210E+06     37.2999E+06     106.830E+06    -21.1019E+06     129.834E-03     134.142E-03    -263.976E-03     28.9371E-03     129.647E-03     134.192E-03    -263.521E-03     28.7037E-03
              84     11.9454E-03     176.290E-03    -14.7916E+06    -21.7222E+06     78.1804E+06    -15.9777E+06     96.2126E-03     181.121E-03    -277.333E-03     10.0868E-03     96.0289E-03     181.284E-03    -276.889E-03     9.75474E-03
              85     11.1741E-03     175.644E-03    -1.83788E+06    -25.3222E+06     120.153E+06    -6.75347E+06     85.6597E-03     201.984E-03    -287.644E-03    -30.7909E-03     85.2455E-03     202.061E-03    -287.004E-03    -31.3156E-03
              86     10.3789E-03     174.978E-03    -15.6855E+06        1.38E+03     150.830E+06    -22.6460E+06     81.5799E-03     213.985E-03    -295.564E-03    -55.0272E-03     81.1018E-03     214.164E-03    -294.788E-03    -56.1536E-03
              87     9.63407E-03     174.309E-03    -19.0823E+06    -27.9680E+06     136.745E+06    -11.4689E+06     70.8811E-03     229.531E-03    -300.412E-03    -126.705E-03     70.6687E-03     229.285E-03    -299.660E-03    -128.282E-03
              88     8.94642E-03     173.644E-03    -4.04100E+06    -7.13065E+06     135.848E+06    -18.9459E+06     61.3123E-03     240.171E-03    -301.484E-03    -199.723E-03     61.5119E-03     239.512E-03    -300.788E-03    -201.981E-03
              89     8.28853E-03     173.008E-03    -13.3874E+06    -18.1419E+06     110.026E+06    -12.6325E+06     47.2087E-03     251.993E-03    -299.202E-03    -269.499E-03     47.8795E-03     250.716E-03    -298.606E-03    -272.231E-03
              90     7.66276E-03     172.404E-03    -16.7151E+06    -9.77678E+06     88.9163E+06    -19.7465E+06     28.9621E-03     265.094E-03    -294.056E-03    -335.867E-03     30.0960E-03     263.250E-03    -293.573E-03    -339.227E-03
              91     7.05058E-03     171.851E-03    -27.3722E+06    -16.9460E+06     64.6605E+06    -19.8254E+06     5.56105E-03     281.266E-03    -286.827E-03    -391.489E-03     7.03932E-03     278.890E-03    -286.439E-03    -395.355E-03
              92     6.44799E-03     171.349E-03    -33.4472E+06    -15.3599E+06     50.7262E+06    -27.8920E+06    -23.6221E-03     301.920E-03    -278.298E-03    -430.477E-03    -21.9847E-03     299.220E-03    -277.973E-03    -434.917E-03
              93     5.84609E-03     170.901E-03    -41.3272E+06    -23.5635E+06     36.2735E+06    -31.2309E+06    -56.3800E-03     325.545E-03    -269.165E-03    -448.341E-03    -54.7889E-03     322.713E-03    -268.890E-03    -453.193E-03
              94     5.23876E-03     170.510E-03    -44.1890E+06    -25.9628E+06     26.3579E+06    -36.5067E+06    -90.4304E-03     350.528E-03    -260.097E-03    -444.369E-03    -89.0483E-03     347.783E-03    -259.864E-03    -449.526E-03
              95     4.62257E-03     170.173E-03    -45.7611E+06    -30.7710E+06     15.8187E+06    -37.1570E+06    -123.226E-03     374.795E-03    -251.569E-03    -419.232E-03    -122.155E-03     372.304E-03    -251.379E-03    -424.437E-03
              96     3.99435E-03     169.887E-03    -44.5160E+06    -33.0340E+06     6.57396E+06    -36.6148E+06    -151.698E-03     395.596E-03    -243.898E-03    -377.780E-03    -150.967E-03     393.473E-03    -243.753E-03    -382.798E-03
              97     3.35178E-03     169.650E-03    -41.7883E+06    -29.6651E+06    -652.232E+03    -33.4958E+06    -174.268E-03     411.553E-03    -237.285E-03    -326.580E-03    -173.855E-03     409.840E-03    -237.185E-03    -331.216E-03
              98     2.69557E-03     169.458E-03    -38.9475E+06    -22.0161E+06    -9.13127E+06    -29.8961E+06    -190.999E-03     422.822E-03    -231.823E-03    -269.474E-03    -190.905E-03     421.512E-03    -231.780E-03    -273.484E-03
              99     2.02975E-03     169.309E-03    -36.3803E+06    -19.9874E+06    -18.9113E+06    -25.0794E+06    -202.532E-03     430.283E-03    -227.751E-03    -208.989E-03    -202.713E-03     429.303E-03    -227.764E-03    -212.151E-03
             100     1.35344E-03     169.202E-03    -34.2326E+06    -18.2400E+06    -27.7455E+06    -19.5180E+06    -210.511E-03     436.028E-03    -225.518E-03    -147.734E-03    -210.904E-03     435.292E-03    -225.580E-03    -149.949E-03
             101     671.524E-06     169.138E-03    -38.8211E+06    -24.1432E+06    -46.0382E+06    -14.6857E+06    -216.429E-03     443.226E-03    -226.797E-03    -89.1801E-03    -217.046E-03     442.528E-03    -226.936E-03    -90.6859E-03
             102     2.57175E-06     167.625E-03    -79.9895E+06    -44.1866E+06    -78.3011E+06    -7.42504E+06    -177.986E-03     359.841E-03    -181.854E-03    -31.6311E-03    -178.585E-03     359.425E-03    -182.066E-03    -32.3674E-03
             103    -440.171E-09     166.385E-03    -147.289E+06    -87.5502E+06    -141.679E+06    -8.79048E+06    -117.773E-03     234.842E-03    -117.069E-03     4.17117E-03    -118.241E-03     234.762E-03    -117.437E-03     3.93013E-03
             104    -5.50063E-09     165.232E-03    -215.703E+06    -143.655E+06    -217.225E+06    -13.9839E+06    -91.5590E-03     182.185E-03    -90.6258E-03     14.9075E-03    -92.1281E-03     182.084E-03    -91.1908E-03     14.6608E-03
             105     2.00521E-06     164.114E-03    -281.520E+06    -194.519E+06    -281.288E+06    -11.1415E+06    -85.5729E-03     167.711E-03    -82.1384E-03     22.5505E-03    -86.2911E-03     167.555E-03    -82.8546E-03     22.3990E-03
             106     1.44667E-06     162.994E-03    -272.469E+06    -225.462E+06    -268.351E+06    -3.84100E+06    -92.8945E-03     182.235E-03    -89.3404E-03     27.0128E-03    -93.5471E-03     181.885E-03    -89.9602E-03     26.9797E-03
             107     708.610E-09     161.844E-03    -190.390E+06    -224.522E+06    -189.363E+06     4.41709E+06    -109.948E-03     217.426E-03    -107.478E-03     28.3919E-03    -110.319E-03     216.837E-03    -107.823E-03     28.4244E-03
             108     911.787E-09     160.641E-03    -144.013E+06    -207.806E+06    -143.684E+06     3.38159E+06    -132.029E-03     262.650E-03    -130.621E-03     28.2200E-03    -132.267E-03     262.011E-03    -130.829E-03     28.1276E-03
             109    -479.736E-09     159.378E-03    -125.215E+06    -202.334E+06    -124.134E+06     -988.68E+03    -154.659E-03     308.297E-03    -153.638E-03     26.2478E-03    -154.841E-03     307.638E-03    -153.784E-03     25.9180E-03
             110     1.45727E-06     158.061E-03    -108.847E+06    -209.897E+06    -111.126E+06    -1.76851E+06    -175.686E-03     349.607E-03    -173.922E-03     23.8223E-03    -175.793E-03     348.876E-03    -174.015E-03     23.2687E-03
             111     58.1122E-09     156.690E-03    -103.653E+06    -221.910E+06    -111.297E+06    -2.54283E+06    -193.221E-03     384.496E-03    -191.274E-03     21.6247E-03    -193.283E-03     383.705E-03    -191.359E-03     20.8431E-03
             112     1.11580E-06     155.275E-03    -110.260E+06    -236.218E+06    -112.097E+06    -2.80366E+06    -207.044E-03     412.253E-03    -205.209E-03     19.8315E-03    -207.116E-03     411.409E-03    -205.267E-03     18.8141E-03
             113     256.423E-09     153.827E-03    -121.897E+06    -251.797E+06    -121.343E+06    -2.61425E+06    -217.263E-03     433.072E-03    -215.809E-03     18.0655E-03    -217.356E-03     432.186E-03    -215.874E-03     16.8209E-03
             114     380.405E-09     152.353E-03    -128.287E+06    -263.378E+06    -130.669E+06    -1.27447E+06    -224.167E-03     447.481E-03    -223.314E-03     16.4519E-03    -224.263E-03     446.564E-03    -223.400E-03     14.9901E-03
             115     101.605E-09     150.863E-03    -134.471E+06    -270.998E+06    -133.079E+06    -693.213E+03    -228.731E-03     457.028E-03    -228.297E-03     15.6957E-03    -228.844E-03     456.087E-03    -228.374E-03     14.1249E-03
             116    -24.5207E-09     149.360E-03    -134.976E+06    -278.164E+06    -136.019E+06    -1.52072E+06    -231.426E-03     462.844E-03    -231.418E-03     15.0196E-03    -231.526E-03     461.872E-03    -231.499E-03     13.3967E-03
             117    -120.540E-09     147.852E-03    -132.782E+06    -287.931E+06    -132.631E+06    -1.73348E+06    -233.098E-03     466.033E-03    -232.935E-03     15.0671E-03    -233.179E-03     465.007E-03    -232.988E-03     13.3401E-03
             118     430.658E-09     146.339E-03    -130.834E+06    -298.475E+06    -131.101E+06    -1.39854E+06    -233.934E-03     467.368E-03    -233.434E-03     15.2980E-03    -233.994E-03     466.286E-03    -233.467E-03     13.5072E-03
             119    -99.8156E-09     144.828E-03    -126.126E+06    -307.719E+06    -125.454E+06    -1.85325E+06    -233.593E-03     467.003E-03    -233.410E-03     14.8829E-03    -233.624E-03     465.858E-03    -233.408E-03     13.0759E-03
             120    -26.2419E-09     143.318E-03    -125.160E+06    -318.459E+06    -126.273E+06    -1.61600E+06    -232.851E-03     466.240E-03    -233.389E-03     14.6219E-03    -232.860E-03     465.041E-03    -233.377E-03     12.8342E-03
             121    -684.239E-09     141.809E-03    -130.296E+06    -317.195E+06    -130.204E+06     1.99525E+06    -232.711E-03     465.904E-03    -233.193E-03     13.9661E-03    -232.740E-03     464.723E-03    -233.195E-03     12.2684E-03
             122     655.958E-09     140.301E-03    -119.642E+06    -307.259E+06    -119.330E+06     973.137E+03    -232.931E-03     465.515E-03    -232.584E-03     13.8770E-03    -232.937E-03     464.353E-03    -232.561E-03     12.1691E-03
             123    -180.965E-09     138.791E-03    -120.786E+06    -308.450E+06    -121.054E+06    -1.33255E+06    -232.691E-03     464.699E-03    -232.008E-03     14.2416E-03    -232.699E-03     463.536E-03    -231.991E-03     12.4859E-03
             124     623.288E-09     137.286E-03    -126.588E+06    -314.298E+06    -127.071E+06    -335.752E+03    -232.205E-03     463.908E-03    -231.704E-03     14.3800E-03    -232.224E-03     462.732E-03    -231.700E-03     12.6646E-03
             125    -413.599E-09     135.779E-03    -123.826E+06    -310.952E+06    -123.413E+06     1.11421E+06    -231.808E-03     463.397E-03    -231.589E-03     14.6843E-03    -231.825E-03     462.229E-03    -231.575E-03     12.9842E-03
             126     459.244E-09     134.274E-03    -127.867E+06    -305.327E+06    -127.564E+06     639.219E+03    -231.521E-03     463.041E-03    -231.520E-03     14.7596E-03    -231.560E-03     461.914E-03    -231.530E-03     13.0423E-03
             127    -563.199E-09     132.770E-03    -126.180E+06    -300.582E+06    -126.424E+06     984.891E+03    -231.551E-03     462.924E-03    -231.373E-03     14.3325E-03    -231.590E-03     461.816E-03    -231.386E-03     12.6201E-03
             128     862.582E-09     131.265E-03    -126.333E+06    -298.668E+06    -126.076E+06    -107.546E+03    -231.608E-03     462.460E-03    -230.853E-03     14.1183E-03    -231.650E-03     461.361E-03    -230.867E-03     12.3953E-03
             129    -135.132E-09     129.762E-03    -125.327E+06    -297.235E+06    -126.433E+06     214.367E+03    -231.216E-03     462.169E-03    -230.953E-03     15.0045E-03    -231.256E-03     461.078E-03    -230.973E-03     13.2586E-03
             130    -292.541E-09     128.257E-03    -127.205E+06    -295.807E+06    -126.163E+06    -493.468E+03    -231.088E-03     462.110E-03    -231.023E-03     14.5647E-03    -231.139E-03     461.027E-03    -231.040E-03     12.8308E-03
             131     763.333E-09     126.754E-03    -120.920E+06    -302.909E+06    -121.216E+06    -1.39349E+06    -231.447E-03     462.072E-03    -230.625E-03     14.5549E-03    -231.463E-03     460.936E-03    -230.617E-03     12.8381E-03
             132    -123.585E-09     125.252E-03    -119.145E+06    -303.043E+06    -119.454E+06     1.22429E+06    -231.353E-03     462.394E-03    -231.041E-03     14.6885E-03    -231.364E-03     461.254E-03    -231.026E-03     12.9785E-03
             133    -134.636E-09     123.746E-03    -124.598E+06    -297.838E+06    -124.301E+06     280.342E+03    -231.098E-03     462.167E-03    -231.069E-03     14.5094E-03    -231.136E-03     461.067E-03    -231.078E-03     12.7921E-03
             134     377.235E-09     122.244E-03    -114.913E+06    -300.323E+06    -115.094E+06    -993.943E+03    -231.233E-03     462.194E-03    -230.960E-03     15.3891E-03    -231.234E-03     461.056E-03    -230.934E-03     13.6120E-03
             135    -301.071E-09     120.738E-03    -115.427E+06    -302.548E+06    -115.859E+06     122.354E+03    -231.461E-03     462.376E-03    -230.914E-03     14.8771E-03    -231.460E-03     461.227E-03    -230.887E-03     13.1513E-03
             136     938.980E-09     119.236E-03    -120.838E+06    -296.207E+06    -121.136E+06     2.30478E+06    -231.512E-03     462.107E-03    -230.595E-03     14.4970E-03    -231.538E-03     461.005E-03    -230.596E-03     12.8262E-03
             137    -328.687E-09     117.733E-03    -117.916E+06    -286.975E+06    -117.180E+06     941.260E+03    -231.347E-03     462.255E-03    -230.908E-03     14.1277E-03    -231.376E-03     461.189E-03    -230.907E-03     12.4370E-03
             138     296.075E-09     116.229E-03    -116.225E+06    -284.421E+06    -116.642E+06    -424.819E+03    -231.469E-03     462.509E-03    -231.040E-03     13.9168E-03    -231.494E-03     461.452E-03    -231.043E-03     12.2262E-03
             139     292.081E-09     114.724E-03    -119.757E+06    -286.960E+06    -119.916E+06    -247.202E+03    -231.526E-03     462.361E-03    -230.836E-03     14.6479E-03    -231.562E-03     461.302E-03    -230.845E-03     12.9288E-03
             140     43.1516E-09     113.220E-03    -123.757E+06    -287.298E+06    -123.911E+06     463.346E+03    -230.989E-03     461.848E-03    -230.859E-03     14.7674E-03    -231.038E-03     460.798E-03    -230.882E-03     13.0835E-03
             141    -257.631E-09     111.718E-03    -124.057E+06    -283.666E+06    -123.547E+06     222.759E+03    -230.695E-03     461.616E-03    -230.921E-03     14.7336E-03    -230.752E-03     460.586E-03    -230.948E-03     13.0238E-03
             142     91.6208E-09     110.214E-03    -120.847E+06    -288.764E+06    -120.329E+06    -2.10528E+06    -230.921E-03     461.575E-03    -230.654E-03     14.7042E-03    -230.959E-03     460.510E-03    -230.662E-03     12.9408E-03
             143     399.382E-09     108.712E-03    -118.560E+06    -303.545E+06    -118.801E+06    -2.41878E+06    -231.043E-03     461.349E-03    -230.307E-03     14.5673E-03    -231.050E-03     460.204E-03    -230.288E-03     12.8463E-03
             144     98.6649E-09     107.211E-03    -117.690E+06    -311.071E+06    -118.363E+06    -70.0067E+03    -231.193E-03     461.666E-03    -230.473E-03     14.3706E-03    -231.185E-03     460.481E-03    -230.443E-03     12.6502E-03
             145     367.757E-09     105.706E-03    -115.299E+06    -310.021E+06    -115.237E+06     235.271E+03    -231.482E-03     462.390E-03    -230.908E-03     14.5238E-03    -231.469E-03     461.203E-03    -230.867E-03     12.7949E-03
             146    -72.4735E-09     104.202E-03    -119.756E+06    -303.120E+06    -120.529E+06     1.64017E+06    -231.278E-03     462.405E-03    -231.127E-03     14.5955E-03    -231.289E-03     461.265E-03    -231.117E-03     12.9345E-03
             147    -77.4707E-09     102.698E-03    -123.724E+06    -291.341E+06    -123.006E+06     2.41628E+06    -231.039E-03     462.117E-03    -231.078E-03     14.9409E-03    -231.084E-03     461.047E-03    -231.091E-03     13.2527E-03
             148     112.037E-09     101.194E-03    -123.292E+06    -285.801E+06    -123.219E+06    -181.407E+03    -231.250E-03     461.864E-03    -230.614E-03     14.7312E-03    -231.301E-03     460.821E-03    -230.637E-03     13.0005E-03
             149     700.762E-09     99.6926E-03    -123.620E+06    -284.559E+06    -124.079E+06     491.365E+03    -231.443E-03     461.659E-03    -230.215E-03     14.4985E-03    -231.496E-03     460.623E-03    -230.244E-03     12.7970E-03
             150     177.136E-09     98.1892E-03    -122.558E+06    -282.266E+06    -122.641E+06     271.211E+03    -231.289E-03     461.693E-03    -230.404E-03     14.6096E-03    -231.342E-03     460.665E-03    -230.430E-03     12.8913E-03
             151     149.009E-09     96.6854E-03    -124.580E+06    -282.196E+06    -124.526E+06    -143.280E+03    -231.002E-03     461.607E-03    -230.605E-03     14.7009E-03    -231.062E-03     460.585E-03    -230.638E-03     12.9957E-03
             152     30.0156E-09     95.1835E-03    -120.408E+06    -287.361E+06    -119.503E+06    -1.92788E+06    -231.059E-03     461.717E-03    -230.658E-03     14.8174E-03    -231.099E-03     460.657E-03    -230.664E-03     13.0506E-03
             153     311.085E-09     93.6792E-03    -115.390E+06    -301.616E+06    -116.028E+06    -2.89252E+06    -231.175E-03     461.987E-03    -230.812E-03     14.9700E-03    -231.175E-03     460.844E-03    -230.788E-03     13.1716E-03
             154    -203.429E-09     92.1768E-03    -114.781E+06    -309.688E+06    -115.897E+06     586.225E+03    -231.054E-03     462.210E-03    -231.155E-03     15.0143E-03    -231.039E-03     461.025E-03    -231.119E-03     13.2893E-03
             155    -124.206E-09     90.6720E-03    -117.650E+06    -298.076E+06    -117.167E+06     3.01379E+06    -231.163E-03     462.133E-03    -230.970E-03     14.5804E-03    -231.176E-03     461.011E-03    -230.953E-03     12.9092E-03
             156     671.957E-09     89.1694E-03    -121.603E+06    -286.109E+06    -121.385E+06     1.01112E+06    -231.266E-03     461.848E-03    -230.582E-03     14.7122E-03    -231.311E-03     460.799E-03    -230.597E-03     13.0073E-03
             157    -301.712E-09     87.6665E-03    -121.389E+06    -280.907E+06    -121.736E+06     649.524E+03    -231.123E-03     461.752E-03    -230.629E-03     14.4796E-03    -231.174E-03     460.729E-03    -230.654E-03     12.7563E-03
             158     576.513E-09     86.1633E-03    -122.453E+06    -278.344E+06    -121.772E+06     -99.788E+03    -231.075E-03     461.659E-03    -230.584E-03     14.2080E-03    -231.133E-03     460.649E-03    -230.612E-03     12.5007E-03
             159     676.015E-09     83.1571E-03    -114.282E+06    -299.126E+06    -114.311E+06    -1.96210E+06    -231.278E-03     462.064E-03    -230.787E-03     14.1632E-03    -231.276E-03     460.928E-03    -230.759E-03     12.4356E-03
             160    -506.052E-09     81.6536E-03    -112.588E+06    -305.726E+06    -112.759E+06    -223.127E+03    -230.940E-03     462.035E-03    -231.095E-03     14.5896E-03    -230.924E-03     460.862E-03    -231.052E-03     12.8549E-03
             161     53.9392E-09     80.1499E-03    -118.203E+06    -298.819E+06    -118.571E+06     2.17206E+06    -230.908E-03     461.932E-03    -231.024E-03     14.5367E-03    -230.920E-03     460.809E-03    -231.013E-03     12.8505E-03
             162     167.423E-09     78.6464E-03    -122.070E+06    -286.102E+06    -121.783E+06     1.96027E+06    -230.979E-03     461.552E-03    -230.574E-03     14.5579E-03    -231.025E-03     460.504E-03    -230.591E-03     12.8719E-03
             163     131.994E-09     77.1449E-03    -120.819E+06    -279.910E+06    -120.293E+06    -32.6003E+03    -230.796E-03     461.288E-03    -230.492E-03     14.5580E-03    -230.846E-03     460.266E-03    -230.513E-03     12.8414E-03
             164    -53.3283E-09     75.6420E-03    -120.568E+06    -279.312E+06    -121.169E+06     54.9076E+03    -230.651E-03     461.402E-03    -230.751E-03     14.6474E-03    -230.701E-03     460.385E-03    -230.777E-03     12.9218E-03
             165    -234.922E-09     74.1392E-03    -121.242E+06    -278.661E+06    -120.918E+06     457.689E+03    -230.608E-03     461.501E-03    -230.893E-03     14.5971E-03    -230.662E-03     460.488E-03    -230.918E-03     12.8676E-03
             166     59.0850E-09     72.6365E-03    -121.261E+06    -278.082E+06    -121.356E+06    -526.768E+03    -230.822E-03     461.456E-03    -230.634E-03     14.3938E-03    -230.875E-03     460.445E-03    -230.662E-03     12.6753E-03
             167     325.999E-09     71.1341E-03    -120.480E+06    -278.766E+06    -120.791E+06     152.910E+03    -230.956E-03     461.369E-03    -230.413E-03     14.3191E-03    -231.005E-03     460.352E-03    -230.438E-03     12.6251E-03
             168     4.28801E-09     69.6318E-03    -121.272E+06    -279.030E+06    -120.773E+06     65.4545E+03    -230.862E-03     461.205E-03    -230.344E-03     14.2315E-03    -230.914E-03     460.188E-03    -230.367E-03     12.5568E-03
             169     352.168E-09     68.1292E-03    -120.551E+06    -278.426E+06    -120.808E+06     358.921E+03    -231.173E-03     461.329E-03    -230.156E-03     14.4284E-03    -231.222E-03     460.314E-03    -230.182E-03     12.7559E-03
             170     680.836E-09     66.6264E-03    -119.923E+06    -277.195E+06    -120.400E+06     165.962E+03    -231.325E-03     461.400E-03    -230.075E-03     14.5441E-03    -231.374E-03     460.390E-03    -230.101E-03     12.8474E-03
             171     6.21784E-09     65.1238E-03    -122.299E+06    -278.320E+06    -122.339E+06    -566.298E+03    -230.774E-03     461.183E-03    -230.409E-03     14.9291E-03    -230.831E-03     460.174E-03    -230.440E-03     13.2247E-03
             172    -239.573E-09     63.6212E-03    -117.154E+06    -283.667E+06    -116.979E+06    -942.256E+03    -230.625E-03     461.223E-03    -230.598E-03     14.7503E-03    -230.657E-03     460.172E-03    -230.602E-03     13.0471E-03
             173     449.428E-09     62.1197E-03    -116.926E+06    -285.917E+06    -117.383E+06     277.593E+03    -230.871E-03     461.137E-03    -230.266E-03     14.4308E-03    -230.896E-03     460.074E-03    -230.269E-03     12.7711E-03
             174     139.729E-09     60.6172E-03    -121.870E+06    -280.612E+06    -122.157E+06     1.37248E+06    -230.855E-03     460.966E-03    -230.111E-03     14.5787E-03    -230.906E-03     459.944E-03    -230.138E-03     12.9120E-03
             175     268.871E-09     59.1157E-03    -121.690E+06    -277.112E+06    -121.500E+06    -88.0202E+03    -230.540E-03     460.975E-03    -230.435E-03     14.7971E-03    -230.598E-03     459.971E-03    -230.464E-03     13.0603E-03
             176    -588.296E-09     57.6132E-03    -122.509E+06    -277.125E+06    -121.927E+06     158.985E+03    -230.463E-03     460.862E-03    -230.399E-03     14.5250E-03    -230.523E-03     459.859E-03    -230.430E-03     12.8141E-03
             177     943.775E-09     56.1117E-03    -120.524E+06    -276.475E+06    -120.382E+06     38.7925E+03    -230.658E-03     460.459E-03    -229.801E-03     14.4614E-03    -230.711E-03     459.454E-03    -229.827E-03     12.7718E-03
             178    -132.909E-09     54.6110E-03    -120.054E+06    -277.218E+06    -120.685E+06    -575.669E+03    -230.244E-03     459.989E-03    -229.746E-03     14.7444E-03    -230.294E-03     458.981E-03    -229.773E-03     13.0361E-03
             179    -34.6348E-09     53.1109E-03    -120.101E+06    -276.927E+06    -119.748E+06     320.375E+03    -229.518E-03     459.613E-03    -230.095E-03     14.3580E-03    -229.569E-03     458.603E-03    -230.118E-03     12.6841E-03
             180    -679.336E-09     51.6120E-03    -119.362E+06    -275.703E+06    -118.943E+06     15.8934E+03    -229.326E-03     459.633E-03    -230.307E-03     14.3408E-03    -229.376E-03     458.627E-03    -230.329E-03     12.6695E-03
             181    -65.8277E-09     50.1107E-03    -119.272E+06    -276.422E+06    -118.479E+06    -148.614E+03    -229.927E-03     459.737E-03    -229.810E-03     14.1113E-03    -229.977E-03     458.727E-03    -229.828E-03     12.4286E-03
             182     931.133E-09     48.6108E-03    -118.852E+06    -277.316E+06    -119.010E+06     108.174E+03    -230.120E-03     459.193E-03    -229.072E-03     14.3785E-03    -230.166E-03     458.179E-03    -229.093E-03     12.6966E-03
             183    -357.402E-09     47.1128E-03    -119.483E+06    -275.657E+06    -118.945E+06     382.653E+03    -229.651E-03     458.465E-03    -228.814E-03     14.1497E-03    -229.702E-03     457.460E-03    -228.836E-03     12.4683E-03
             184     931.117E-09     45.6147E-03    -119.524E+06    -275.110E+06    -120.626E+06    -346.546E+03    -229.336E-03     457.821E-03    -228.485E-03     14.1844E-03    -229.385E-03     456.821E-03    -228.516E-03     12.5349E-03
             185    -353.835E-09     44.1176E-03    -120.789E+06    -276.264E+06    -122.155E+06    -121.617E+03    -228.779E-03     457.041E-03    -228.262E-03     14.4837E-03    -228.831E-03     456.039E-03    -228.297E-03     12.8231E-03
             186     442.871E-09     42.6223E-03    -122.754E+06    -276.195E+06    -120.954E+06     215.107E+03    -228.381E-03     456.252E-03    -227.870E-03     14.2040E-03    -228.445E-03     455.251E-03    -227.896E-03     12.5608E-03
             187     159.822E-09     41.1284E-03    -120.504E+06    -275.192E+06    -121.014E+06     65.1702E+03    -228.006E-03     455.603E-03    -227.597E-03     14.1477E-03    -228.060E-03     454.604E-03    -227.628E-03     12.5068E-03
             188    -237.465E-09     39.6351E-03    -120.648E+06    -275.408E+06    -119.851E+06    -46.9998E+03    -227.469E-03     454.827E-03    -227.358E-03     13.7004E-03    -227.524E-03     453.826E-03    -227.383E-03     12.0429E-03
             189     431.177E-09     38.1428E-03    -119.131E+06    -276.312E+06    -119.523E+06    -108.575E+03    -226.861E-03     453.638E-03    -226.777E-03     13.5531E-03    -226.907E-03     452.629E-03    -226.801E-03     11.9474E-03
             190    -558.569E-09     36.6535E-03    -117.423E+06    -274.833E+06    -118.155E+06     536.429E+03    -225.759E-03     452.323E-03    -226.564E-03     13.4197E-03    -225.799E-03     451.315E-03    -226.586E-03     11.8488E-03
             191    -527.583E-09     35.1656E-03    -116.944E+06    -273.352E+06    -117.522E+06    -210.611E+03    -225.318E-03     451.318E-03    -226.000E-03     12.8377E-03    -225.359E-03     450.316E-03    -226.022E-03     11.2524E-03
             192     586.450E-09     33.6787E-03    -118.982E+06    -274.577E+06    -119.504E+06    -290.124E+03    -225.494E-03     450.331E-03    -224.837E-03     12.9433E-03    -225.540E-03     449.329E-03    -224.864E-03     11.3492E-03
             193     250.495E-09     32.1925E-03    -120.570E+06    -275.651E+06    -120.202E+06    -8.89467E+03    -224.588E-03     449.030E-03    -224.443E-03     13.7079E-03    -224.640E-03     448.026E-03    -224.469E-03     12.1450E-03
             194    -929.411E-09     30.7096E-03    -120.579E+06    -277.820E+06    -121.152E+06    -482.288E+03    -223.198E-03     447.493E-03    -224.295E-03     13.4758E-03    -223.246E-03     446.481E-03    -224.324E-03     11.8953E-03
             195    -25.9958E-09     29.2294E-03    -119.299E+06    -279.701E+06    -120.102E+06    -213.554E+03    -222.762E-03     445.902E-03    -223.140E-03     12.8770E-03    -222.802E-03     444.876E-03    -223.162E-03     11.3009E-03
             196     387.902E-09     27.7512E-03    -118.175E+06    -280.476E+06    -118.591E+06    -275.519E+03    -222.128E-03     444.121E-03    -221.993E-03     12.7696E-03    -222.163E-03     443.086E-03    -222.008E-03     11.2281E-03
             197    -601.138E-09     26.2765E-03    -117.075E+06    -280.386E+06    -116.853E+06     431.582E+03    -221.197E-03     442.402E-03    -221.205E-03     12.2612E-03    -221.228E-03     441.363E-03    -221.213E-03     10.7517E-03
             198     769.073E-09     24.8037E-03    -116.761E+06    -279.969E+06    -115.943E+06    -49.6436E+03    -220.739E-03     440.304E-03    -219.564E-03     11.1251E-03    -220.768E-03     439.262E-03    -219.569E-03     9.69758E-03
             199     741.490E-09     23.3349E-03    -115.634E+06    -280.017E+06    -115.354E+06    -117.827E+03    -219.188E-03     436.966E-03    -217.779E-03     10.8661E-03    -219.211E-03     435.921E-03    -217.782E-03     9.47457E-03
             200    -237.702E-09     21.8717E-03    -113.641E+06    -279.113E+06    -112.809E+06     428.693E+03    -215.803E-03     431.901E-03    -216.098E-03     10.0488E-03    -215.820E-03     430.852E-03    -216.093E-03     8.72249E-03
             201    -706.788E-09     20.4173E-03    -108.917E+06    -276.398E+06    -108.888E+06     683.870E+03    -212.183E-03     424.881E-03    -212.698E-03     8.66530E-03    -212.183E-03     423.829E-03    -212.683E-03     7.47839E-03
             202     898.072E-09     18.9753E-03    -103.839E+06    -272.294E+06    -103.546E+06     654.659E+03    -207.984E-03     415.943E-03    -207.959E-03     7.77478E-03    -207.970E-03     414.894E-03    -207.931E-03     6.68722E-03
             203    -1.05170E-06     17.5468E-03    -101.785E+06    -269.321E+06    -102.057E+06     162.590E+03    -201.914E-03     404.435E-03    -202.520E-03     6.48215E-03    -201.896E-03     403.393E-03    -202.493E-03     5.47894E-03
             204     319.824E-09     16.1373E-03    -101.434E+06    -267.423E+06    -102.067E+06     616.376E+03    -195.356E-03     390.940E-03    -195.585E-03     5.17886E-03    -195.336E-03     389.905E-03    -195.560E-03     4.28307E-03
             205     90.7091E-09     14.7475E-03    -103.183E+06    -266.205E+06    -102.598E+06    -160.298E+03    -188.292E-03     376.035E-03    -187.743E-03     3.68694E-03    -188.281E-03     375.007E-03    -187.721E-03     2.89921E-03
             206     347.491E-09     13.3807E-03    -112.856E+06    -267.595E+06    -112.971E+06    -541.610E+03    -179.912E-03     359.649E-03    -179.737E-03     2.39978E-03    -179.931E-03     358.642E-03    -179.750E-03     1.73648E-03
             207    -496.986E-09     12.0339E-03    -109.706E+06    -261.264E+06    -111.133E+06     2.77030E+06    -171.175E-03     342.218E-03    -171.043E-03     1.28439E-03    -171.189E-03     341.233E-03    -171.061E-03     766.804E-06
             208     869.125E-09     10.7137E-03    -98.1132E+06    -245.389E+06    -96.9744E+06     3.37184E+06    -162.698E-03     324.743E-03    -162.044E-03     622.506E-06    -162.697E-03     323.800E-03    -162.031E-03     165.026E-06
             209    -197.061E-09     9.41482E-03    -92.4394E+06    -235.580E+06    -91.7068E+06     287.044E+03    -155.119E-03     309.589E-03    -154.471E-03     496.012E-06    -155.111E-03     308.681E-03    -154.454E-03    -5.41353E-06
             210     550.307E-09     8.13367E-03    -87.6212E+06    -232.808E+06    -87.7534E+06     413.716E+03    -150.619E-03     301.529E-03    -150.911E-03     2.39989E-03    -150.596E-03     300.625E-03    -150.885E-03     1.88227E-03
             211    -1.34821E-06     6.85569E-03    -89.8380E+06    -233.545E+06    -88.9627E+06    -913.795E+03    -152.551E-03     306.858E-03    -154.307E-03     6.15370E-03    -152.541E-03     305.955E-03    -154.283E-03     5.61898E-03
             212    -537.910E-09     5.56000E-03    -93.1495E+06    -243.268E+06    -93.5689E+06    -2.55130E+06    -163.015E-03     327.548E-03    -164.533E-03     8.95653E-03    -163.008E-03     326.602E-03    -164.513E-03     8.40382E-03
             213     131.867E-09     4.22798E-03    -85.6564E+06    -253.852E+06    -85.5328E+06    -938.196E+03    -178.899E-03     357.984E-03    -179.085E-03     10.0085E-03    -178.851E-03     356.959E-03    -179.020E-03     9.51441E-03
             214     44.5938E-09     2.84959E-03    -75.0181E+06    -256.835E+06    -74.5116E+06     48.3305E+03    -193.931E-03     387.764E-03    -193.832E-03     8.24969E-03    -193.836E-03     386.694E-03    -193.724E-03     7.86967E-03
             215    -35.0329E-09     1.43491E-03    -74.1283E+06    -258.984E+06    -73.3841E+06    -461.491E+03    -204.272E-03     408.226E-03    -203.953E-03     4.52511E-03    -204.163E-03     407.145E-03    -203.837E-03     4.30724E-03
             216     729.791E-06     5.52336E-15    -72.7323E+06    -258.782E+06    -71.3636E+06    -124.958E+03    -207.979E-03     415.575E-03    -207.596E-03     4.24408E-03    -207.864E-03     414.490E-03    -207.472E-03     4.05325E-03
             217     1.45946E-03     5.52336E-15    -71.0922E+06    -255.404E+06    -66.3883E+06    -19.5224E+03    -207.821E-03     415.642E-03    -207.821E-03     7.73680E-03    -207.713E-03     414.567E-03    -207.680E-03     7.36262E-03
             218     2.18913E-03     5.52336E-15    -68.9077E+06    -243.029E+06    -61.4777E+06     389.903E+03    -207.417E-03     415.204E-03    -207.787E-03     11.0905E-03    -207.327E-03     414.183E-03    -207.642E-03     10.5165E-03
             219     2.91970E-03     5.52336E-15    -66.7770E+06    -219.124E+06    -57.5954E+06    -187.532E+03    -206.671E-03     414.287E-03    -207.616E-03     14.2718E-03    -206.616E-03     413.383E-03    -207.489E-03     13.4809E-03
             220     3.65054E-03     5.52336E-15    -62.7459E+06    -187.413E+06    -53.5409E+06    -3.55579E+06    -205.755E-03     413.091E-03    -207.335E-03     17.6545E-03    -205.738E-03     412.340E-03    -207.240E-03     16.6213E-03
             221     4.38214E-03     5.52336E-15    -56.3799E+06    -150.858E+06    -49.3117E+06    -5.77717E+06    -204.957E-03     411.950E-03    -206.993E-03     21.2226E-03    -204.975E-03     411.374E-03    -206.939E-03     19.9689E-03
             222     5.11429E-03     5.52336E-15    -48.6147E+06    -108.482E+06    -43.3333E+06    -7.98047E+06    -204.317E-03     410.956E-03    -206.639E-03     24.7263E-03    -204.376E-03     410.582E-03    -206.628E-03     23.2241E-03
             223     5.84650E-03     5.52336E-15    -37.4275E+06    -53.3379E+06    -33.4154E+06    -12.7294E+06    -203.857E-03     410.156E-03    -206.299E-03     28.5686E-03    -203.968E-03     410.040E-03    -206.334E-03     26.7662E-03
             224     6.57925E-03     5.52336E-15    -25.0649E+06    -10.2201E+06    -16.6616E+06    -10.1595E+06    -203.880E-03     409.935E-03    -206.056E-03     31.8378E-03    -204.029E-03     410.007E-03    -206.088E-03     29.8276E-03
             225     7.31222E-03     5.52336E-15    -17.1201E+06     6.46234E+06     1.97804E+06    -2.46303E+06    -204.592E-03     410.549E-03    -205.957E-03     35.0491E-03    -204.769E-03     410.682E-03    -205.932E-03     32.8809E-03
             226     8.04325E-03     5.52336E-15    -13.8439E+06     12.8900E+06     15.2697E+06     325.055E+03    -206.129E-03     412.117E-03    -205.988E-03     39.1757E-03    -206.341E-03     412.280E-03    -205.910E-03     36.7381E-03
             227     8.77336E-03     5.52336E-15    -12.4935E+06     16.9690E+06     26.9752E+06     2.31782E+06    -209.085E-03     415.295E-03    -206.210E-03     43.0593E-03    -209.343E-03     415.491E-03    -206.081E-03     40.2106E-03
             228     9.50210E-03     5.52336E-15    -11.8706E+06     20.7370E+06     44.5978E+06     2.48881E+06    -214.725E-03     421.490E-03    -206.764E-03     45.5654E-03    -215.049E-03     421.716E-03    -206.554E-03     42.1142E-03
             229     10.2259E-03     5.52336E-15    -9.79694E+06     29.3887E+06     64.2850E+06     1.91585E+06    -223.388E-03     431.144E-03    -207.756E-03     47.5010E-03    -223.781E-03     431.422E-03    -207.463E-03     43.3991E-03
             230     10.9409E-03     5.52336E-15    -7.00621E+06     39.3844E+06     73.4706E+06    -412.729E+03    -237.562E-03     446.874E-03    -209.313E-03     53.8380E-03    -238.039E-03     447.257E-03    -208.992E-03     48.7526E-03
             231     11.6440E-03     5.52336E-15    -5.50945E+06     45.6157E+06     76.1466E+06    -747.949E+03    -265.199E-03     477.094E-03    -211.894E-03     63.4075E-03    -265.882E-03     477.711E-03    -211.572E-03     55.6938E-03
             232     12.3270E-03     5.52336E-15    -4.23747E+06     53.0883E+06     79.2404E+06     2.22115E+06    -311.938E-03     528.142E-03    -216.204E-03     75.9602E-03    -312.902E-03     529.077E-03    -215.879E-03     64.6549E-03
             233     12.9596E-03     5.52336E-15    -7.39719E+06     57.8925E+06     77.3071E+06     4.95515E+06    -388.285E-03     611.331E-03    -223.046E-03     101.954E-03    -389.865E-03     612.944E-03    -222.733E-03     84.0182E-03
             234     13.5510E-03     5.52336E-15    -6.70946E+06     69.5882E+06     79.1121E+06     5.76005E+06    -511.716E-03     745.113E-03    -233.397E-03     212.834E-03    -517.327E-03     750.748E-03    -233.092E-03     172.792E-03
             235     14.1806E-03     2.41271E-03    -2.30242E+06     81.8940E+06     74.1798E+06    -897.691E+03    -483.185E-03     719.838E-03    -236.654E-03     289.441E-03    -493.144E-03     729.795E-03    -236.398E-03     237.438E-03
             236     14.2350E-03     4.05573E-03    -2.83888E+06     76.6470E+06     64.3462E+06    -3.92564E+06    -357.495E-03     590.105E-03    -232.610E-03     231.785E-03    -366.284E-03     598.921E-03    -232.395E-03     189.414E-03
             237     14.2639E-03     5.70477E-03     915.915E+03     76.0147E+06     73.6787E+06    -1.70850E+06    -329.754E-03     560.768E-03    -231.015E-03     168.913E-03    -336.062E-03     567.128E-03    -230.758E-03     132.003E-03
             238     14.2686E-03     7.35369E-03     296.695E+03     75.9297E+06     79.5356E+06     1.66030E+06    -317.359E-03     547.838E-03    -230.479E-03     142.056E-03    -322.859E-03     553.375E-03    -230.192E-03     107.790E-03
             239     14.2752E-03     8.97661E-03    -1.91536E+06     70.9143E+06     77.1672E+06     1.23601E+06    -303.136E-03     533.477E-03    -230.341E-03     134.414E-03    -308.188E-03     538.546E-03    -230.055E-03     102.587E-03
             240     14.2834E-03     10.5682E-03    -2.27806E+06     69.0833E+06     78.0378E+06    -1.14434E+06    -290.039E-03     520.262E-03    -230.223E-03     125.273E-03    -294.724E-03     524.956E-03    -229.930E-03     95.2777E-03
             241     14.2844E-03     12.1629E-03    -2.22983E+06     67.3228E+06     79.4273E+06     520.563E+03    -278.518E-03     508.891E-03    -230.374E-03     112.709E-03    -282.768E-03     513.142E-03    -230.071E-03     85.0053E-03
             242     14.2812E-03     13.7176E-03    -1.83144E+06     64.6878E+06     76.1345E+06    -2.17409E+06    -264.416E-03     495.117E-03    -230.702E-03     102.427E-03    -268.287E-03     498.989E-03    -230.412E-03     77.0108E-03
             243     14.2865E-03     15.2479E-03    -1.40227E+06     65.1208E+06     77.4851E+06    -2.39336E+06    -253.285E-03     484.257E-03    -230.973E-03     91.1454E-03    -256.815E-03     487.789E-03    -230.678E-03     67.6171E-03
             244     14.2794E-03     16.7885E-03    -1.36556E+06     65.0492E+06     76.5650E+06     2.74159E+06    -246.486E-03     477.687E-03    -231.201E-03     85.8794E-03    -249.814E-03     481.019E-03    -230.910E-03     63.8491E-03
             245     14.2848E-03     18.3079E-03    -2.81996E+06     63.2494E+06     74.1639E+06     2.19171E+06    -240.175E-03     471.471E-03    -231.296E-03     87.6041E-03    -243.546E-03     474.842E-03    -231.013E-03     66.0209E-03
             246     14.2843E-03     19.8232E-03    -1.52597E+06     65.5955E+06     77.6491E+06     7.84081E+03    -239.053E-03     470.266E-03    -231.212E-03     87.9648E-03    -242.507E-03     473.721E-03    -230.917E-03     66.1409E-03
             247     14.2867E-03     21.3519E-03    -2.09661E+06     65.2977E+06     77.7748E+06    -901.917E+03    -239.859E-03     470.918E-03    -231.059E-03     89.5496E-03    -243.349E-03     474.407E-03    -230.762E-03     67.5694E-03
             248     14.2900E-03     22.8665E-03    -2.46927E+06     64.8266E+06     78.2856E+06    -857.317E+03    -239.727E-03     470.681E-03    -230.954E-03     89.5972E-03    -243.234E-03     474.183E-03    -230.653E-03     67.6212E-03
             249     14.2873E-03     24.3983E-03    -1.73139E+06     65.5897E+06     77.3039E+06     934.829E+03    -239.046E-03     469.954E-03    -230.908E-03     91.8167E-03    -242.593E-03     473.503E-03    -230.614E-03     70.0158E-03
             250     14.2927E-03     25.9096E-03    -2.01299E+06     65.8012E+06     76.8264E+06     453.258E+03    -237.746E-03     468.612E-03    -230.866E-03     93.0136E-03    -241.389E-03     472.258E-03    -230.574E-03     70.9785E-03
             251     14.2885E-03     27.4297E-03    -3.39733E+06     64.9248E+06     77.0028E+06     503.747E+03    -237.940E-03     468.758E-03    -230.818E-03     92.9102E-03    -241.616E-03     472.429E-03    -230.522E-03     70.7944E-03
             252     14.2940E-03     28.9489E-03    -1.33025E+06     67.5194E+06     80.1063E+06     819.028E+03    -236.784E-03     467.520E-03    -230.736E-03     96.1010E-03    -240.517E-03     471.256E-03    -230.432E-03     74.0209E-03
             253     14.2941E-03     30.4627E-03    -1.66682E+06     67.5485E+06     80.3429E+06    -265.765E+03    -236.239E-03     466.908E-03    -230.669E-03     95.2659E-03    -240.026E-03     470.696E-03    -230.363E-03     72.9764E-03
             254     14.2929E-03     31.9812E-03    -2.35593E+06     66.1796E+06     78.2000E+06     87.7126E+03    -235.837E-03     466.497E-03    -230.660E-03     95.8127E-03    -239.651E-03     470.311E-03    -230.362E-03     73.5590E-03
             255     14.2958E-03     33.4903E-03    -1.12503E+06     66.5102E+06     77.9659E+06     -60.893E+03    -234.266E-03     464.894E-03    -230.628E-03     95.8866E-03    -238.098E-03     468.731E-03    -230.333E-03     73.6996E-03
             256     14.2950E-03     35.0027E-03    -1.75601E+06     66.6246E+06     78.1958E+06     108.554E+03    -233.558E-03     464.161E-03    -230.603E-03     95.1502E-03    -237.394E-03     468.000E-03    -230.306E-03     73.0320E-03
             257     14.2961E-03     36.5155E-03    -1.95638E+06     67.1771E+06     78.5496E+06     248.321E+03    -233.203E-03     463.808E-03    -230.605E-03     96.6160E-03    -237.072E-03     467.680E-03    -230.306E-03     74.5186E-03
             258     14.2953E-03     38.0232E-03    -2.04513E+06     67.2120E+06     78.7665E+06    -127.225E+03    -232.873E-03     463.491E-03    -230.618E-03     95.7490E-03    -236.734E-03     467.355E-03    -230.319E-03     73.6722E-03
             259     14.2956E-03     39.5338E-03    -2.28064E+06     66.5142E+06     78.5588E+06    -678.078E+03    -232.022E-03     462.656E-03    -230.634E-03     95.3183E-03    -235.892E-03     466.526E-03    -230.335E-03     73.2465E-03
             260     14.2961E-03     41.0384E-03    -3.38840E+06     65.1062E+06     77.6119E+06    -254.290E+03    -231.790E-03     462.436E-03    -230.646E-03     94.6913E-03    -235.658E-03     466.298E-03    -230.347E-03     72.7210E-03
             261     14.2944E-03     42.5516E-03    -2.45442E+06     65.6792E+06     78.5148E+06     516.609E+03    -231.470E-03     462.162E-03    -230.692E-03     95.7220E-03    -235.352E-03     466.041E-03    -230.391E-03     73.8442E-03
             262     14.2954E-03     44.0578E-03    -1.25643E+06     66.3597E+06     79.7869E+06    -90.3165E+03    -229.918E-03     460.631E-03    -230.714E-03     98.1468E-03    -233.832E-03     464.545E-03    -230.409E-03     76.3171E-03
             263     14.2965E-03     45.5604E-03    -1.29122E+06     66.9665E+06     79.4795E+06     31.1143E+03    -229.802E-03     460.456E-03    -230.654E-03     97.6844E-03    -233.709E-03     464.366E-03    -230.352E-03     75.8801E-03
             264     14.2966E-03     47.0659E-03    -1.46953E+06     67.6714E+06     78.6923E+06    -348.026E+03    -230.648E-03     461.259E-03    -230.611E-03     96.0163E-03    -234.551E-03     465.169E-03    -230.313E-03     74.0594E-03
             265     14.2961E-03     48.5751E-03    -4.34669E+06     65.4600E+06     77.3288E+06     16.1562E+03    -230.914E-03     461.574E-03    -230.660E-03     96.5614E-03    -234.844E-03     465.497E-03    -230.362E-03     74.6168E-03
             266     14.2939E-03     50.0835E-03    -1.21437E+06     68.0188E+06     80.0422E+06     222.840E+03    -230.223E-03     460.958E-03    -230.734E-03     97.8928E-03    -234.142E-03     464.882E-03    -230.431E-03     76.1121E-03
             267     14.2961E-03     51.5844E-03    -1.20659E+06     67.7513E+06     78.7402E+06    -621.402E+03    -229.307E-03     460.044E-03    -230.737E-03     97.8701E-03    -233.208E-03     463.953E-03    -230.439E-03     76.1449E-03
             268     14.2948E-03     53.0904E-03    -3.62804E+06     65.9334E+06     76.6874E+06     452.993E+03    -229.889E-03     460.610E-03    -230.721E-03     97.5330E-03    -233.796E-03     464.516E-03    -230.428E-03     75.8139E-03
             269     14.2949E-03     54.5982E-03    -1.22642E+06     68.1073E+06     77.9685E+06     346.067E+03    -229.460E-03     460.194E-03    -230.733E-03     98.1602E-03    -233.373E-03     464.118E-03    -230.441E-03     76.4454E-03
             270     14.2959E-03     56.0985E-03    -2.06022E+06     67.0678E+06     78.6193E+06    -619.010E+03    -228.920E-03     459.648E-03    -230.728E-03     98.8594E-03    -232.846E-03     463.577E-03    -230.429E-03     77.1716E-03
             271     14.2953E-03     57.6061E-03    -2.08868E+06     66.8318E+06     80.3653E+06     312.319E+03    -229.429E-03     460.145E-03    -230.716E-03     98.7233E-03    -233.322E-03     464.035E-03    -230.408E-03     77.1840E-03
             272     14.2960E-03     59.1093E-03    -2.20651E+06     66.3867E+06     78.6729E+06    -79.4091E+03    -229.194E-03     459.877E-03    -230.683E-03     98.9220E-03    -233.110E-03     463.792E-03    -230.382E-03     77.2735E-03
             273     14.2969E-03     60.6103E-03    -969.067E+03     67.7242E+06     78.2523E+06     448.313E+03    -229.163E-03     459.805E-03    -230.642E-03     96.9541E-03    -233.068E-03     463.720E-03    -230.347E-03     75.2420E-03
             274     14.2963E-03     62.1171E-03    -1.69240E+06     67.9596E+06     79.1527E+06    -6.02381E+03    -229.108E-03     459.769E-03    -230.661E-03     95.8550E-03    -232.989E-03     463.656E-03    -230.361E-03     74.1870E-03
             275     14.2959E-03     63.6194E-03    -2.88749E+06     67.4009E+06     79.6725E+06    -181.057E+03    -228.998E-03     459.692E-03    -230.694E-03     97.4326E-03    -232.928E-03     463.620E-03    -230.390E-03     75.7324E-03
             276     14.2959E-03     65.1267E-03    -2.02065E+06     68.1965E+06     80.0577E+06     701.010E+03    -228.959E-03     459.675E-03    -230.716E-03     97.6964E-03    -232.891E-03     463.610E-03    -230.411E-03     76.0238E-03
             277     14.2952E-03     66.6276E-03    -1.97606E+06     68.1038E+06     79.2848E+06    -399.509E+03    -228.804E-03     459.533E-03    -230.729E-03     97.8790E-03    -232.730E-03     463.464E-03    -230.428E-03     76.1851E-03
             278     14.2959E-03     68.1321E-03    -1.71926E+06     68.2039E+06     78.4129E+06     61.8943E+03    -228.915E-03     459.617E-03    -230.702E-03     98.0817E-03    -232.848E-03     463.558E-03    -230.406E-03     76.3869E-03
             279     14.2962E-03     69.6359E-03    -1.05844E+06     68.2858E+06     79.3815E+06     214.284E+03    -228.875E-03     459.557E-03    -230.682E-03     97.4705E-03    -232.810E-03     463.500E-03    -230.382E-03     75.7366E-03
             280     14.2962E-03     71.1391E-03    -2.47225E+06     66.9056E+06     78.6410E+06    -1.17145E+06    -229.154E-03     459.826E-03    -230.672E-03     97.7906E-03    -233.140E-03     463.813E-03    -230.372E-03     75.8233E-03
             281     14.2960E-03     72.6448E-03    -3.40792E+06     66.0902E+06     77.5693E+06     328.488E+03    -229.374E-03     460.058E-03    -230.684E-03     97.3348E-03    -233.352E-03     464.033E-03    -230.387E-03     75.4583E-03
             282     14.2953E-03     74.1498E-03    -1.63604E+06     67.8185E+06     79.4654E+06     619.484E+03    -228.579E-03     459.304E-03    -230.725E-03     97.8608E-03    -232.520E-03     463.250E-03    -230.423E-03     76.2117E-03
             283     14.2962E-03     75.6508E-03    -2.00021E+06     68.0977E+06     80.8504E+06    -543.005E+03    -228.728E-03     459.476E-03    -230.748E-03     98.4657E-03    -232.689E-03     463.438E-03    -230.440E-03     76.7234E-03
             284     14.2940E-03     77.1579E-03    -2.32869E+06     67.3471E+06     79.9935E+06     275.677E+03    -229.372E-03     460.140E-03    -230.768E-03     97.8403E-03    -233.306E-03     464.073E-03    -230.462E-03     76.1442E-03
             285     14.2952E-03     78.6593E-03    -1.89702E+06     67.6818E+06     78.7004E+06    -187.165E+03    -228.535E-03     459.293E-03    -230.758E-03     98.4873E-03    -232.465E-03     463.229E-03    -230.460E-03     76.8273E-03
             286     14.2963E-03     80.1623E-03    -1.87386E+06     68.6052E+06     78.8558E+06     101.338E+03    -228.486E-03     459.208E-03    -230.722E-03     98.4328E-03    -232.425E-03     463.156E-03    -230.425E-03     76.7974E-03
             287     14.2949E-03     81.6691E-03    -1.26277E+06     69.7408E+06     79.0266E+06     901.188E+03    -228.648E-03     459.372E-03    -230.724E-03     98.7512E-03    -232.578E-03     463.316E-03    -230.428E-03     77.1952E-03
             288     14.2962E-03     83.1698E-03    -1.79188E+06     69.4928E+06     80.2145E+06     106.385E+03    -228.061E-03     458.807E-03    -230.746E-03     98.5794E-03    -232.005E-03     462.759E-03    -230.444E-03     76.9662E-03
             289     14.2950E-03     84.6707E-03    -2.74586E+06     68.2286E+06     79.8636E+06    -718.667E+03    -228.678E-03     459.423E-03    -230.745E-03     97.1206E-03    -232.607E-03     463.353E-03    -230.441E-03     75.4275E-03
             290     14.2953E-03     86.1760E-03    -2.13085E+06     67.7886E+06     78.3957E+06     32.9045E+03    -229.004E-03     459.725E-03    -230.721E-03     97.1105E-03    -232.922E-03     463.648E-03    -230.424E-03     75.4198E-03
             291     14.2964E-03     87.6785E-03    -1.89273E+06     68.0408E+06     78.9094E+06     8.74825E+03    -229.005E-03     459.704E-03    -230.699E-03     97.2546E-03    -232.936E-03     463.640E-03    -230.400E-03     75.5198E-03
             292     714.477E-06     86.1830E-03    -121.540E+06    -274.988E+06    -118.398E+06    -163.108E+03    -231.095E-03     461.818E-03    -230.723E-03     24.2859E-03    -231.222E-03     460.881E-03    -230.740E-03     21.4178E-03
             293     1.42897E-03     86.2298E-03    -118.054E+06    -266.039E+06    -108.607E+06    -84.2596E+03    -231.309E-03     462.203E-03    -230.894E-03     45.3434E-03    -231.638E-03     461.483E-03    -230.880E-03     40.0021E-03
             294     2.14347E-03     86.3065E-03    -112.625E+06    -254.752E+06    -94.6330E+06     461.233E+03    -231.789E-03     462.749E-03    -230.959E-03     67.2797E-03    -232.460E-03     462.389E-03    -230.900E-03     59.2454E-03
             295     2.85780E-03     86.4133E-03    -107.083E+06    -244.945E+06    -79.6621E+06     994.516E+03    -232.371E-03     463.392E-03    -231.021E-03     89.1072E-03    -233.530E-03     463.533E-03    -230.909E-03     78.2427E-03
             296     3.57193E-03     86.5487E-03    -100.743E+06    -215.332E+06    -65.5462E+06     907.848E+03    -232.947E-03     463.976E-03    -231.029E-03     111.006E-03    -234.792E-03     464.889E-03    -230.899E-03     97.1242E-03
             297     4.28662E-03     86.7142E-03    -93.7111E+06    -173.295E+06    -51.1160E+06     951.949E+03    -233.592E-03     464.592E-03    -231.001E-03     132.853E-03    -236.334E-03     466.535E-03    -230.869E-03     115.745E-03
             298     5.00177E-03     86.9083E-03    -86.7236E+06    -141.294E+06    -34.9896E+06     1.82520E+06    -234.358E-03     465.349E-03    -230.991E-03     154.418E-03    -238.212E-03     468.495E-03    -230.835E-03     133.860E-03
             299     5.71576E-03     87.1308E-03    -79.1319E+06    -116.051E+06    -17.7241E+06     1.98295E+06    -235.130E-03     466.131E-03    -231.001E-03     175.939E-03    -240.355E-03     470.714E-03    -230.806E-03     151.647E-03
             300     6.43046E-03     87.3802E-03    -71.1856E+06    -71.6919E+06     156.289E+03     1.53299E+06    -235.609E-03     466.588E-03    -230.979E-03     197.115E-03    -242.496E-03     472.967E-03    -230.771E-03     168.960E-03
             301     7.14592E-03     87.6564E-03    -63.2748E+06    -16.3818E+06     16.9604E+06     1.94556E+06    -235.936E-03     466.855E-03    -230.919E-03     217.794E-03    -244.794E-03     475.381E-03    -230.719E-03     185.683E-03
             302     7.86041E-03     87.9602E-03    -56.0620E+06     10.4411E+06     29.4972E+06     770.921E+03    -236.416E-03     467.295E-03    -230.878E-03     238.185E-03    -247.510E-03     478.141E-03    -230.665E-03     202.006E-03
             303     8.57578E-03     88.2898E-03    -49.7124E+06     20.4107E+06     38.3627E+06    -2.33088E+06    -236.664E-03     467.512E-03    -230.849E-03     257.223E-03    -250.146E-03     480.779E-03    -230.614E-03     217.211E-03
             304     9.29057E-03     88.6402E-03    -42.7225E+06     28.9107E+06     49.3761E+06    -3.48248E+06    -236.521E-03     467.352E-03    -230.831E-03     271.718E-03    -252.265E-03     482.904E-03    -230.565E-03     228.557E-03
             305     10.0061E-03     89.0077E-03    -34.1391E+06     39.7769E+06      63.975E+06    -2.20129E+06    -235.951E-03     466.789E-03    -230.839E-03     277.624E-03    -253.295E-03     483.968E-03    -230.527E-03     232.627E-03
             306     10.7204E-03     89.3741E-03    -26.0615E+06     50.8745E+06     75.1225E+06    -1.12996E+06    -234.346E-03     465.185E-03    -230.839E-03     272.046E-03    -252.106E-03     482.816E-03    -230.499E-03     226.993E-03
             307     11.4362E-03     89.7215E-03    -20.4410E+06     57.8030E+06     75.9175E+06    -264.061E+03    -232.252E-03     463.043E-03    -230.791E-03     256.467E-03    -249.179E-03     479.882E-03    -230.465E-03     212.953E-03
             308     12.1507E-03     90.0387E-03    -15.5803E+06     60.2619E+06     75.1484E+06     250.685E+03    -230.601E-03     461.338E-03    -230.738E-03     230.607E-03    -245.281E-03     475.959E-03    -230.427E-03     190.355E-03
             309     12.8654E-03     90.3125E-03    -9.59716E+06     66.2182E+06      78.896E+06    -4.79528E+03    -229.566E-03     460.271E-03    -230.705E-03     208.020E-03    -242.158E-03     472.835E-03    -230.393E-03     170.594E-03
             310     13.5815E-03     90.5698E-03    -3.80740E+06     70.9852E+06     80.5214E+06     233.011E+03    -228.921E-03     459.592E-03    -230.671E-03     149.971E-03    -236.917E-03     467.593E-03    -230.366E-03     120.757E-03
             311     714.436E-06     87.6861E-03    -120.118E+06    -275.771E+06    -117.972E+06     684.714E+03    -231.152E-03     461.920E-03    -230.768E-03     24.4566E-03    -231.271E-03     460.977E-03    -230.784E-03     21.5826E-03
             312     1.42884E-03     87.7331E-03    -117.398E+06    -266.763E+06    -108.952E+06     1.05078E+06    -231.381E-03     462.324E-03    -230.942E-03     45.3114E-03    -231.706E-03     461.600E-03    -230.930E-03     39.9781E-03
             313     2.14308E-03     87.8102E-03    -113.124E+06    -256.612E+06    -95.8465E+06     1.51732E+06    -231.769E-03     462.770E-03    -231.001E-03     67.1775E-03    -232.436E-03     462.402E-03    -230.944E-03     59.1634E-03
             314     2.85755E-03     87.9166E-03    -106.754E+06    -245.416E+06    -79.9223E+06     1.55677E+06    -232.291E-03     463.332E-03    -231.040E-03     89.1227E-03    -233.448E-03     463.470E-03    -230.929E-03     78.2684E-03
             315     3.57236E-03     88.0525E-03    -99.8375E+06    -215.167E+06    -65.0941E+06     1.37880E+06    -232.978E-03     464.017E-03    -231.039E-03     111.091E-03    -234.822E-03     464.932E-03    -230.908E-03     97.2039E-03
             316     4.28675E-03     88.2177E-03    -92.9867E+06    -174.412E+06    -50.7710E+06     1.31113E+06    -233.666E-03     464.684E-03    -231.018E-03     132.944E-03    -236.406E-03     466.622E-03    -230.884E-03     115.829E-03
             317     5.00081E-03     88.4117E-03    -85.4315E+06    -142.837E+06    -34.9604E+06     1.44773E+06    -234.313E-03     465.317E-03    -231.004E-03     154.599E-03    -238.162E-03     468.457E-03    -230.848E-03     134.034E-03
             318     5.71628E-03     88.6340E-03    -77.2675E+06    -116.410E+06    -17.6315E+06     1.65783E+06    -234.931E-03     465.924E-03    -230.993E-03     175.961E-03    -240.140E-03     470.497E-03    -230.800E-03     151.706E-03
             319     6.43132E-03     88.8839E-03    -69.2983E+06    -73.1692E+06     851.452E+03     2.50588E+06    -235.570E-03     466.532E-03    -230.961E-03     196.931E-03    -242.439E-03     472.892E-03    -230.751E-03     168.821E-03
             320     7.14539E-03     89.1600E-03    -61.5172E+06    -16.5953E+06     18.7563E+06     2.75951E+06    -236.077E-03     466.988E-03    -230.911E-03     217.872E-03    -244.926E-03     475.505E-03    -230.704E-03     185.773E-03
             321     7.86068E-03     89.4635E-03    -52.8450E+06     14.1118E+06     32.5297E+06     1.74164E+06    -236.303E-03     467.171E-03    -230.868E-03     238.460E-03    -247.391E-03     478.028E-03    -230.649E-03     202.315E-03
             322     8.57594E-03     89.7921E-03    -44.0473E+06     25.7739E+06     44.7189E+06     1.14821E+06    -236.600E-03     467.440E-03    -230.839E-03     257.318E-03    -250.080E-03     480.725E-03    -230.589E-03     217.345E-03
             323     9.29123E-03     90.1447E-03    -37.2336E+06     33.0202E+06     56.6866E+06     293.438E+03    -236.836E-03     467.672E-03    -230.836E-03     272.013E-03    -252.579E-03     483.237E-03    -230.547E-03     228.878E-03
             324     10.0053E-03     90.5108E-03    -32.2615E+06     40.3476E+06     66.5964E+06    -635.503E+03    -235.905E-03     466.739E-03    -230.834E-03     278.337E-03    -253.255E-03     483.925E-03    -230.513E-03     233.414E-03
             325     10.7211E-03     90.8773E-03    -27.6830E+06     48.4788E+06     74.3604E+06    -539.195E+03    -233.925E-03     464.728E-03    -230.803E-03     272.739E-03    -251.676E-03     482.336E-03    -230.461E-03     227.847E-03
             326     11.4365E-03     91.2231E-03    -21.1554E+06     56.6309E+06     76.5307E+06     185.592E+03    -232.077E-03     462.810E-03    -230.733E-03     256.837E-03    -248.981E-03     479.618E-03    -230.402E-03     213.458E-03
             327     12.1526E-03     91.5434E-03    -14.3954E+06     61.9073E+06     77.3716E+06    -270.328E+03    -230.840E-03     461.523E-03    -230.682E-03     230.995E-03    -245.537E-03     476.164E-03    -230.364E-03     190.702E-03
             328     12.8677E-03     91.8165E-03    -9.40162E+06     65.6786E+06     79.3656E+06    -1.11786E+06    -230.329E-03     461.005E-03    -230.677E-03     208.255E-03    -242.980E-03     473.626E-03    -230.361E-03     170.584E-03
             329     13.5819E-03     92.0725E-03    -4.30189E+06     69.7962E+06     79.8693E+06    -431.157E+03    -229.720E-03     460.405E-03    -230.685E-03     149.190E-03    -237.745E-03     468.431E-03    -230.381E-03     119.789E-03
             330     714.457E-06     89.1893E-03    -120.416E+06    -279.645E+06    -118.297E+06     1.63956E+06    -231.262E-03     462.031E-03    -230.769E-03     24.6930E-03    -231.378E-03     461.070E-03    -230.780E-03     21.8356E-03
             331     1.42867E-03     89.2370E-03    -117.650E+06    -268.317E+06    -109.250E+06     1.82490E+06    -231.395E-03     462.379E-03    -230.984E-03     45.5187E-03    -231.719E-03     461.649E-03    -230.970E-03     40.1955E-03
             332     2.14312E-03     89.3135E-03    -112.720E+06    -257.360E+06    -96.1359E+06     1.08942E+06    -231.745E-03     462.768E-03    -231.022E-03     67.2934E-03    -232.409E-03     462.396E-03    -230.966E-03     59.2823E-03
             333     2.85776E-03     89.4199E-03    -105.981E+06    -246.162E+06    -80.7383E+06     985.920E+03    -232.303E-03     463.351E-03    -231.048E-03     89.1977E-03    -233.454E-03     463.486E-03    -230.941E-03     78.3357E-03
             334     3.57196E-03     89.5560E-03    -99.1962E+06    -215.950E+06    -65.5187E+06     1.35212E+06    -232.958E-03     464.002E-03    -231.044E-03     111.093E-03    -234.796E-03     464.911E-03    -230.915E-03     97.2096E-03
             335     4.28657E-03     89.7213E-03    -91.8485E+06    -174.377E+06    -50.0576E+06     1.01136E+06    -233.613E-03     464.632E-03    -231.019E-03     132.936E-03    -236.348E-03     466.567E-03    -230.883E-03     115.831E-03
             336     5.00177E-03     89.9152E-03    -84.1709E+06    -143.065E+06    -33.9234E+06     598.593E+03    -234.297E-03     465.298E-03    -231.002E-03     154.586E-03    -238.142E-03     468.436E-03    -230.842E-03     134.006E-03
             337     5.71590E-03     90.1373E-03     -76.879E+06    -118.046E+06    -17.6893E+06     1.18912E+06    -234.948E-03     465.937E-03    -230.989E-03     175.830E-03    -240.146E-03     470.494E-03    -230.795E-03     151.582E-03
             338     6.43054E-03     90.3865E-03    -69.1253E+06    -76.1577E+06     579.442E+03     1.83120E+06    -235.441E-03     466.394E-03    -230.953E-03     196.963E-03    -242.292E-03     472.728E-03    -230.739E-03     168.895E-03
             339     7.14625E-03     90.6640E-03    -60.0677E+06    -17.1101E+06     20.1399E+06     1.75597E+06    -235.783E-03     466.666E-03    -230.883E-03     218.042E-03    -244.621E-03     475.171E-03    -230.670E-03     185.981E-03
             340     7.86113E-03     90.9662E-03    -51.6057E+06     15.8386E+06     34.7898E+06     1.26501E+06    -236.280E-03     467.106E-03    -230.826E-03     238.676E-03    -247.372E-03     477.970E-03    -230.600E-03     202.539E-03
             341     8.57622E-03     91.2954E-03    -44.8074E+06     25.9990E+06     43.5783E+06     1.37874E+06    -236.817E-03     467.610E-03    -230.793E-03     257.728E-03    -250.312E-03     480.911E-03    -230.548E-03     217.734E-03
             342     9.29100E-03     91.6478E-03    -38.6380E+06     34.5603E+06     51.5516E+06     2.50729E+06    -236.632E-03     467.401E-03    -230.769E-03     272.312E-03    -252.382E-03     482.987E-03    -230.505E-03     229.232E-03
             343     10.0069E-03     92.0151E-03    -32.2849E+06     42.7559E+06     62.9344E+06     2.38868E+06    -235.535E-03     466.286E-03    -230.751E-03     278.348E-03    -252.889E-03     483.495E-03    -230.452E-03     233.487E-03
             344     10.7223E-03     92.3784E-03    -24.8478E+06     50.2158E+06     75.6707E+06     1.32318E+06    -234.122E-03     464.862E-03    -230.740E-03     272.448E-03    -251.857E-03     482.468E-03    -230.399E-03     227.552E-03
             345     11.4378E-03     92.7276E-03    -18.1513E+06     57.3193E+06     78.8028E+06     212.072E+03    -232.521E-03     463.228E-03    -230.707E-03     255.799E-03    -249.406E-03     480.023E-03    -230.370E-03     212.301E-03
             346     12.1523E-03     93.0446E-03    -13.0163E+06     62.2798E+06     78.4477E+06     39.6497E+03    -231.130E-03     461.820E-03    -230.690E-03     229.332E-03    -245.812E-03     476.449E-03    -230.369E-03     188.891E-03
             347     12.8669E-03     93.3220E-03    -8.62618E+06     67.1680E+06     80.6943E+06     409.878E+03    -230.521E-03     461.230E-03    -230.709E-03     206.721E-03    -243.112E-03     473.795E-03    -230.391E-03     169.101E-03
             348     13.5799E-03     93.5785E-03    -4.81455E+06     69.7383E+06     80.5656E+06    -321.040E+03    -229.807E-03     460.536E-03    -230.729E-03     148.841E-03    -237.798E-03     468.524E-03    -230.420E-03     119.502E-03
             349     714.344E-06     90.6930E-03    -117.574E+06    -286.099E+06    -116.863E+06     2.36486E+06    -231.163E-03     462.141E-03    -230.978E-03     24.6306E-03    -231.257E-03     461.141E-03    -230.976E-03     21.7874E-03
             350     1.42883E-03     90.7403E-03    -115.277E+06    -267.977E+06    -110.318E+06     1.21195E+06    -231.332E-03     462.322E-03    -230.990E-03     45.4583E-03    -231.642E-03     461.591E-03    -230.986E-03     40.1324E-03
             351     2.14328E-03     90.8170E-03    -110.871E+06    -256.692E+06    -96.4047E+06     499.751E+03    -231.770E-03     462.784E-03    -231.014E-03     67.1953E-03    -232.424E-03     462.413E-03    -230.963E-03     59.1791E-03
             352     2.85748E-03     90.9234E-03    -105.151E+06    -246.617E+06    -80.5851E+06     50.6238E+03    -232.335E-03     463.387E-03    -231.052E-03     89.2217E-03    -233.482E-03     463.519E-03    -230.945E-03     78.3460E-03
             353     3.57217E-03     91.0596E-03    -97.8550E+06    -216.872E+06    -65.6440E+06    -91.8828E+03    -232.908E-03     463.951E-03    -231.043E-03     111.210E-03    -234.739E-03     464.856E-03    -230.915E-03     97.3061E-03
             354     4.28683E-03     91.2245E-03    -90.7460E+06    -175.428E+06    -50.1806E+06     822.872E+03    -233.546E-03     464.551E-03    -231.006E-03     132.986E-03    -236.270E-03     466.476E-03    -230.871E-03     115.900E-03
             355     5.00099E-03     91.4186E-03    -84.3381E+06    -143.089E+06    -33.2155E+06     1.26800E+06    -234.238E-03     465.222E-03    -230.984E-03     154.641E-03    -238.079E-03     468.352E-03    -230.820E-03     134.111E-03
             356     5.71626E-03     91.6405E-03    -77.2782E+06    -118.949E+06    -16.6653E+06     984.794E+03    -234.880E-03     465.846E-03    -230.966E-03     176.128E-03    -240.082E-03     470.400E-03    -230.764E-03     151.899E-03
             357     6.43130E-03     91.8901E-03    -69.1611E+06    -75.7354E+06     1.16103E+06     790.801E+03    -235.326E-03     466.240E-03    -230.914E-03     197.310E-03    -242.188E-03     472.584E-03    -230.698E-03     169.228E-03
             358     7.14606E-03     92.1657E-03    -61.3143E+06    -16.5392E+06     19.6822E+06     202.665E+03    -235.699E-03     466.532E-03    -230.833E-03     218.126E-03    -244.544E-03     475.043E-03    -230.621E-03     186.054E-03
             359     7.86190E-03     92.4696E-03    -53.6172E+06     13.8664E+06     32.0233E+06     1.14110E+06    -236.252E-03     467.021E-03    -230.769E-03     238.571E-03    -247.338E-03     477.873E-03    -230.551E-03     202.450E-03
             360     8.57683E-03     92.7991E-03    -46.6894E+06     24.3478E+06      40.808E+06     2.62310E+06    -236.689E-03     467.421E-03    -230.732E-03     257.797E-03    -250.170E-03     480.704E-03    -230.495E-03     217.878E-03
             361     9.29187E-03     93.1516E-03    -39.9838E+06     33.3867E+06     52.1164E+06     1.94321E+06    -236.532E-03     467.250E-03    -230.718E-03     272.198E-03    -252.283E-03     482.826E-03    -230.448E-03     229.137E-03
             362     10.0072E-03     93.5156E-03    -32.0629E+06     44.1346E+06     65.6757E+06     1.32047E+06    -235.883E-03     466.607E-03    -230.724E-03     277.516E-03    -253.228E-03     483.804E-03    -230.413E-03     232.576E-03
             363     10.7224E-03     93.8833E-03    -24.8021E+06     52.5354E+06     76.0078E+06     765.089E+03    -234.598E-03     465.342E-03    -230.744E-03     271.184E-03    -252.341E-03     482.963E-03    -230.404E-03     226.089E-03
             364     11.4363E-03     94.2297E-03    -19.3197E+06     57.1931E+06     77.3839E+06     336.618E+03    -232.952E-03     463.702E-03    -230.750E-03     255.072E-03    -249.872E-03     480.531E-03    -230.418E-03     211.351E-03
             365     12.1506E-03     94.5501E-03    -14.2488E+06     61.1645E+06     77.9101E+06     1.01337E+06    -231.547E-03     462.314E-03    -230.766E-03     229.540E-03    -246.256E-03     476.962E-03    -230.445E-03     189.004E-03
             366     12.8644E-03     94.8250E-03    -9.10324E+06     68.4376E+06     80.7070E+06     792.912E+03    -230.152E-03     460.931E-03    -230.779E-03     207.137E-03    -242.729E-03     473.485E-03    -230.462E-03     169.642E-03
             367     13.5812E-03     95.0823E-03    -4.28010E+06     70.9210E+06     81.1485E+06     170.926E+03    -228.827E-03     459.585E-03    -230.758E-03     149.113E-03    -236.789E-03     467.548E-03    -230.449E-03     119.974E-03
             368     714.232E-06     92.1963E-03    -114.373E+06    -289.686E+06    -116.135E+06     288.590E+03    -231.106E-03     462.172E-03    -231.066E-03     24.8765E-03    -231.180E-03     461.149E-03    -231.061E-03     21.9927E-03
             369     1.42867E-03     92.2438E-03    -113.675E+06    -266.222E+06    -111.009E+06    -275.208E+03    -231.312E-03     462.290E-03    -230.978E-03     45.5542E-03    -231.615E-03     461.567E-03    -230.982E-03     40.2141E-03
             370     2.14303E-03     92.3205E-03    -110.303E+06    -256.577E+06    -97.3602E+06    -554.357E+03    -231.735E-03     462.728E-03    -230.993E-03     67.4137E-03    -232.386E-03     462.359E-03    -230.948E-03     59.3877E-03
             371     2.85771E-03     92.4270E-03    -104.465E+06    -246.065E+06    -80.8987E+06    -543.526E+03    -232.295E-03     463.319E-03    -231.024E-03     89.3710E-03    -233.439E-03     463.454E-03    -230.921E-03     78.4972E-03
             372     3.57211E-03     92.5627E-03    -98.9007E+06    -217.541E+06    -66.1926E+06    -462.029E+03    -232.861E-03     463.875E-03    -231.013E-03     111.277E-03    -234.696E-03     464.778E-03    -230.885E-03     97.3808E-03
             373     4.28672E-03     92.7280E-03    -92.4375E+06    -177.319E+06    -51.1870E+06    -58.8081E+03    -233.458E-03     464.427E-03    -230.969E-03     133.122E-03    -236.187E-03     466.347E-03    -230.834E-03     116.036E-03
             374     5.00203E-03     92.9218E-03    -84.5327E+06    -144.575E+06    -33.5399E+06     1.19423E+06    -234.067E-03     464.999E-03    -230.933E-03     154.789E-03    -237.903E-03     468.120E-03    -230.768E-03     134.290E-03
             375     5.71658E-03     93.1437E-03    -76.8897E+06    -118.180E+06    -16.0153E+06     1.71456E+06    -234.705E-03     465.603E-03    -230.898E-03     176.252E-03    -239.908E-03     470.160E-03    -230.695E-03     152.051E-03
             376     6.43159E-03     93.3925E-03    -69.8472E+06    -74.7421E+06     691.182E+03     846.561E+03    -235.355E-03     466.195E-03    -230.841E-03     197.289E-03    -242.226E-03     472.551E-03    -230.628E-03     169.186E-03
             377     7.14709E-03     93.6692E-03    -62.9001E+06    -16.6428E+06     17.4978E+06     1.59926E+06    -235.902E-03     466.676E-03    -230.774E-03     218.040E-03    -244.756E-03     475.196E-03    -230.571E-03     185.953E-03
             378     7.86142E-03     93.9720E-03    -56.6572E+06     12.2696E+06     29.0223E+06     1.38092E+06    -236.385E-03     467.117E-03    -230.732E-03     238.503E-03    -247.482E-03     477.972E-03    -230.522E-03     202.354E-03
             379     8.57694E-03     94.3015E-03    -48.9835E+06     22.2175E+06     37.9187E+06     279.009E+03    -236.692E-03     467.403E-03    -230.711E-03     257.003E-03    -250.166E-03     480.673E-03    -230.483E-03     217.004E-03
             380     9.29282E-03     94.6539E-03    -40.3883E+06     34.3835E+06     51.0342E+06     1.00927E+06    -236.708E-03     467.431E-03    -230.723E-03     270.687E-03    -252.427E-03     482.980E-03    -230.459E-03     227.547E-03
             381     10.0070E-03     95.0209E-03    -33.7040E+06     44.5985E+06     64.7275E+06     541.087E+03    -236.151E-03     466.914E-03    -230.763E-03     276.610E-03    -253.487E-03     484.101E-03    -230.455E-03     231.580E-03
             382     10.7206E-03     95.3861E-03    -27.7259E+06     51.0813E+06     74.0107E+06    -254.027E+03    -234.766E-03     465.566E-03    -230.800E-03     271.435E-03    -252.533E-03     483.201E-03    -230.464E-03     226.283E-03
             383     11.4358E-03     95.7341E-03    -21.0490E+06     56.8024E+06     76.8471E+06     537.531E+03    -233.038E-03     463.847E-03    -230.809E-03     256.054E-03    -249.981E-03     480.694E-03    -230.476E-03     212.367E-03
             384     12.1503E-03     96.0547E-03    -14.8594E+06     61.8137E+06     78.2449E+06     643.717E+03    -231.207E-03     462.013E-03    -230.806E-03     230.596E-03    -245.935E-03     476.681E-03    -230.483E-03     190.137E-03
             385     12.8656E-03     96.3297E-03    -9.31481E+06     68.8561E+06     80.7138E+06     16.6888E+03    -229.739E-03     460.526E-03    -230.787E-03     208.001E-03    -242.341E-03     473.106E-03    -230.470E-03     170.564E-03
             386     13.5793E-03     96.5836E-03    -4.18680E+06     71.1249E+06     81.2004E+06     242.786E+03    -228.644E-03     459.390E-03    -230.746E-03     149.687E-03    -236.629E-03     467.377E-03    -230.437E-03     120.553E-03
             387     714.533E-06     93.7002E-03    -115.936E+06    -286.032E+06    -116.992E+06    -2.48458E+06    -231.133E-03     461.984E-03    -230.851E-03     24.8803E-03    -231.219E-03     460.983E-03    -230.853E-03     21.9570E-03
             388     1.42884E-03     93.7471E-03    -114.996E+06    -265.897E+06    -110.913E+06    -1.67243E+06    -231.258E-03     462.161E-03    -230.902E-03     45.6815E-03    -231.569E-03     461.441E-03    -230.905E-03     40.3275E-03
             389     2.14350E-03     93.8238E-03    -111.665E+06    -256.498E+06    -97.6451E+06    -1.09521E+06    -231.651E-03     462.572E-03    -230.921E-03     67.5629E-03    -232.309E-03     462.206E-03    -230.875E-03     59.5313E-03
             390     2.85782E-03     93.9304E-03    -107.049E+06    -246.962E+06    -82.6636E+06    -221.681E+03    -232.184E-03     463.126E-03    -230.942E-03     89.5285E-03    -233.337E-03     463.261E-03    -230.842E-03     78.6789E-03
             391     3.57246E-03     94.0660E-03    -100.897E+06    -217.461E+06    -66.6968E+06     383.874E+03    -232.798E-03     463.729E-03    -230.931E-03     111.535E-03    -234.641E-03     464.635E-03    -230.802E-03     97.6747E-03
             392     4.28725E-03     94.2310E-03    -94.5561E+06    -176.468E+06    -51.5295E+06     196.284E+03    -233.402E-03     464.291E-03    -230.889E-03     133.309E-03    -236.147E-03     466.223E-03    -230.754E-03     116.218E-03
             393     5.00171E-03     94.4244E-03    -88.4224E+06    -147.875E+06    -36.7732E+06     223.619E+03    -234.046E-03     464.901E-03    -230.854E-03     154.728E-03    -237.898E-03     468.020E-03    -230.696E-03     134.185E-03
             394     5.71726E-03     94.6460E-03    -81.3752E+06    -118.929E+06    -21.3075E+06     531.644E+03    -234.765E-03     465.588E-03    -230.823E-03     175.908E-03    -239.976E-03     470.150E-03    -230.639E-03     151.683E-03
             395     6.43231E-03     94.8959E-03     -73.826E+06    -73.8354E+06    -2.96227E+06     736.865E+03    -235.448E-03     466.240E-03    -230.792E-03     196.807E-03    -242.320E-03     472.596E-03    -230.593E-03     168.715E-03
             396     7.14664E-03     95.1719E-03    -65.5274E+06    -19.6303E+06     15.0103E+06     471.433E+03    -236.028E-03     466.785E-03    -230.757E-03     217.535E-03    -244.885E-03     475.296E-03    -230.558E-03     185.383E-03
             397     7.86240E-03     95.4754E-03    -55.8243E+06     13.2493E+06     30.1766E+06     1.05084E+06    -236.644E-03     467.395E-03    -230.751E-03     237.832E-03    -247.738E-03     478.250E-03    -230.538E-03     201.603E-03
             398     8.57664E-03     95.8051E-03    -48.1054E+06     23.6208E+06     41.1827E+06     1.12209E+06    -237.115E-03     467.891E-03    -230.776E-03     256.367E-03    -250.591E-03     481.161E-03    -230.535E-03     216.307E-03
             399     9.28991E-03     96.1567E-03    -42.5486E+06     33.4129E+06     50.3523E+06     285.463E+03    -236.897E-03     467.697E-03    -230.800E-03     270.826E-03    -252.636E-03     483.257E-03    -230.535E-03     227.636E-03
             400     10.0051E-03     96.5234E-03    -35.7422E+06     44.9440E+06     62.9269E+06    -94.2275E+03    -235.988E-03     466.813E-03    -230.825E-03     277.334E-03    -253.353E-03     484.028E-03    -230.523E-03     232.301E-03
             401     10.7214E-03     96.8898E-03    -27.8948E+06     52.1561E+06     74.2069E+06    -66.0973E+03    -234.659E-03     465.506E-03    -230.847E-03     271.931E-03    -252.427E-03     483.145E-03    -230.511E-03     226.828E-03
             402     11.4355E-03     97.2390E-03    -21.0254E+06     55.6867E+06     76.3150E+06    -277.882E+03    -232.636E-03     463.468E-03    -230.832E-03     256.134E-03    -249.559E-03     480.293E-03    -230.501E-03     212.550E-03
             403     12.1504E-03     97.5578E-03    -14.6902E+06     62.0993E+06     77.4332E+06    -622.424E+03    -230.520E-03     461.310E-03    -230.791E-03     230.726E-03    -245.240E-03     475.974E-03    -230.472E-03     190.386E-03
             404     12.8656E-03     97.8322E-03    -9.07277E+06     68.9685E+06     80.5182E+06    -263.099E+03    -229.466E-03     460.213E-03    -230.748E-03     208.076E-03    -242.068E-03     472.795E-03    -230.432E-03     170.682E-03
             405     13.5825E-03     98.0880E-03     -4.7111E+06     70.1788E+06     80.4621E+06    -60.1490E+03    -229.076E-03     459.788E-03    -230.712E-03     149.554E-03    -237.071E-03     467.782E-03    -230.405E-03     120.339E-03
             406     714.321E-06     95.2028E-03    -120.182E+06    -279.644E+06    -117.520E+06    -1.88122E+06    -231.024E-03     461.760E-03    -230.737E-03     24.7480E-03    -231.138E-03     460.797E-03    -230.745E-03     21.8449E-03
             407     1.42911E-03     95.2503E-03    -118.279E+06    -267.170E+06    -110.233E+06    -1.01102E+06    -231.147E-03     461.966E-03    -230.819E-03     45.5967E-03    -231.474E-03     461.244E-03    -230.811E-03     40.2468E-03
             408     2.14338E-03     95.3270E-03    -114.183E+06    -257.217E+06    -97.2761E+06    -34.1475E+03    -231.546E-03     462.380E-03    -230.834E-03     67.4896E-03    -232.215E-03     462.013E-03    -230.782E-03     59.4730E-03
             409     2.85829E-03     95.4331E-03    -108.448E+06    -247.771E+06    -81.9536E+06     215.453E+03    -232.094E-03     462.953E-03    -230.858E-03     89.3982E-03    -233.254E-03     463.085E-03    -230.751E-03     78.5472E-03
             410     3.57304E-03     95.5690E-03    -101.786E+06    -218.264E+06    -67.4261E+06     551.662E+03    -232.701E-03     463.544E-03    -230.843E-03     111.243E-03    -234.543E-03     464.445E-03    -230.716E-03     97.3914E-03
             411     4.28767E-03     95.7341E-03    -94.7159E+06    -177.554E+06    -52.7370E+06     1.11303E+06    -233.401E-03     464.208E-03    -230.807E-03     132.950E-03    -236.136E-03     466.130E-03    -230.676E-03     115.891E-03
             412     5.00284E-03     95.9274E-03    -87.4797E+06    -147.923E+06    -36.6022E+06     1.48595E+06    -234.272E-03     465.079E-03    -230.806E-03     154.416E-03    -238.118E-03     468.195E-03    -230.648E-03     133.870E-03
             413     5.71690E-03     96.1491E-03    -80.3306E+06    -118.191E+06    -20.6459E+06     1.19132E+06    -235.066E-03     465.886E-03    -230.820E-03     175.522E-03    -240.274E-03     470.448E-03    -230.635E-03     151.260E-03
             414     6.43145E-03     96.3983E-03    -72.4676E+06    -73.3075E+06    -2.81709E+06     852.947E+03    -235.646E-03     466.467E-03    -230.820E-03     196.383E-03    -242.508E-03     472.819E-03    -230.623E-03     168.258E-03
             415     7.14692E-03     96.6754E-03    -64.4282E+06    -18.5252E+06     17.0632E+06     340.922E+03    -236.240E-03     467.056E-03    -230.817E-03     217.188E-03    -245.096E-03     475.569E-03    -230.611E-03     184.989E-03
             416     7.86057E-03     96.9786E-03    -57.6692E+06     11.2959E+06     29.4304E+06    -202.130E+03    -236.747E-03     467.567E-03    -230.820E-03     237.644E-03    -247.851E-03     478.420E-03    -230.605E-03     201.357E-03
             417     8.57538E-03     97.3088E-03    -50.1043E+06     22.2708E+06     37.8463E+06     576.765E+03    -236.915E-03     467.735E-03    -230.820E-03     256.853E-03    -250.380E-03     480.992E-03    -230.590E-03     216.873E-03
             418     9.29135E-03     97.6613E-03    -41.2935E+06     34.1148E+06     51.1164E+06     766.476E+03    -236.791E-03     467.621E-03    -230.830E-03     271.771E-03    -252.557E-03     483.213E-03    -230.564E-03     228.599E-03
             419     10.0064E-03     98.0265E-03    -33.3600E+06     47.1241E+06     66.7974E+06     634.666E+03    -236.209E-03     467.068E-03    -230.859E-03     278.000E-03    -253.615E-03     484.329E-03    -230.545E-03     232.905E-03
             420     10.7196E-03     98.3940E-03    -26.6749E+06     54.5110E+06     76.6844E+06     233.921E+03    -234.512E-03     465.384E-03    -230.872E-03     272.421E-03    -252.301E-03     483.050E-03    -230.529E-03     227.347E-03
             421     11.4350E-03     98.7418E-03    -20.3592E+06     55.5033E+06     76.8115E+06    -729.889E+03    -232.220E-03     463.050E-03    -230.829E-03     256.516E-03    -249.162E-03     479.893E-03    -230.496E-03     212.971E-03
             422     12.1512E-03     99.0598E-03    -14.6844E+06     61.4858E+06     77.2904E+06    -923.577E+03    -230.483E-03     461.256E-03    -230.773E-03     230.470E-03    -245.195E-03     475.910E-03    -230.454E-03     190.135E-03
             423     12.8668E-03     99.3358E-03    -9.25928E+06     68.1982E+06     80.2790E+06    -628.943E+03    -229.706E-03     460.445E-03    -230.739E-03     207.270E-03    -242.272E-03     472.987E-03    -230.423E-03     169.866E-03
             424     13.5802E-03     99.5902E-03    -4.24772E+06     69.6950E+06     80.4647E+06    -285.554E+03    -229.095E-03     459.809E-03    -230.714E-03     148.805E-03    -237.052E-03     467.764E-03    -230.406E-03     119.604E-03
             425     714.726E-06     96.7061E-03    -123.085E+06    -277.437E+06    -120.254E+06     106.909E+03    -230.968E-03     461.661E-03    -230.693E-03     24.6108E-03    -231.096E-03     460.717E-03    -230.714E-03     21.7443E-03
             426     1.42892E-03     96.7530E-03    -120.014E+06    -268.311E+06    -110.735E+06     367.715E+03    -231.066E-03     461.844E-03    -230.779E-03     45.4246E-03    -231.399E-03     461.120E-03    -230.769E-03     40.0864E-03
             427     2.14397E-03     96.8296E-03    -115.055E+06    -257.839E+06    -97.3134E+06     532.530E+03    -231.505E-03     462.295E-03    -230.790E-03     67.2908E-03    -232.176E-03     461.924E-03    -230.736E-03     59.2974E-03
             428     2.85827E-03     96.9361E-03    -108.507E+06    -248.013E+06    -81.7249E+06     430.738E+03    -232.162E-03     462.992E-03    -230.830E-03     89.0940E-03    -233.319E-03     463.121E-03    -230.722E-03     78.2518E-03
             429     3.57275E-03     97.0716E-03    -101.660E+06    -219.178E+06    -67.6184E+06     422.192E+03    -232.796E-03     463.637E-03    -230.841E-03     110.724E-03    -234.632E-03     464.530E-03    -230.714E-03     96.8572E-03
             430     4.28776E-03     97.2365E-03    -94.6898E+06    -178.754E+06    -52.9145E+06     695.059E+03    -233.486E-03     464.315E-03    -230.830E-03     132.288E-03    -236.210E-03     466.223E-03    -230.698E-03     115.221E-03
             431     5.00200E-03     97.4305E-03    -87.2082E+06    -148.723E+06    -36.3755E+06     802.850E+03    -234.309E-03     465.152E-03    -230.843E-03     153.902E-03    -238.143E-03     468.253E-03    -230.683E-03     133.356E-03
             432     5.71695E-03     97.6528E-03    -78.7620E+06    -117.745E+06    -18.8246E+06     856.702E+03    -235.149E-03     466.016E-03    -230.867E-03     175.365E-03    -240.348E-03     470.571E-03    -230.676E-03     151.101E-03
             433     6.43157E-03     97.9019E-03    -70.7917E+06    -73.2895E+06    -1.03131E+06     891.254E+03    -235.872E-03     466.752E-03    -230.880E-03     196.514E-03    -242.743E-03     473.114E-03    -230.676E-03     168.329E-03
             434     7.14540E-03     98.1786E-03    -63.2217E+06    -19.7051E+06     16.6810E+06     1.92486E+06    -236.267E-03     467.139E-03    -230.872E-03     217.671E-03    -245.124E-03     475.653E-03    -230.668E-03     185.493E-03
             435     7.86084E-03     98.4833E-03    -55.0178E+06     12.9209E+06     31.1531E+06     2.31365E+06    -236.488E-03     467.341E-03    -230.853E-03     238.486E-03    -247.585E-03     478.198E-03    -230.636E-03     202.323E-03
             436     8.57593E-03     98.8112E-03    -47.7932E+06     24.3149E+06     40.6534E+06     762.933E+03    -236.729E-03     467.556E-03    -230.826E-03     257.487E-03    -250.214E-03     480.840E-03    -230.589E-03     217.513E-03
             437     9.29076E-03     99.1636E-03    -41.0492E+06     33.6211E+06     51.9632E+06    -78.1470E+03    -236.871E-03     467.695E-03    -230.823E-03     272.105E-03    -252.640E-03     483.286E-03    -230.553E-03     228.915E-03
             438     10.0050E-03     99.5313E-03    -33.3913E+06     46.7503E+06     66.7935E+06    -91.1290E+03    -236.173E-03     467.020E-03    -230.847E-03     278.349E-03    -253.588E-03     484.289E-03    -230.532E-03     233.251E-03
             439     10.7210E-03     99.8975E-03    -26.0058E+06     55.1511E+06     76.8140E+06     329.406E+03    -234.255E-03     465.102E-03    -230.847E-03     272.590E-03    -252.066E-03     482.794E-03    -230.505E-03     227.525E-03
             440     11.4368E-03     100.244E-03    -19.6062E+06     57.2214E+06     77.7695E+06     378.482E+03    -232.364E-03     463.168E-03    -230.804E-03     256.542E-03    -249.310E-03     480.022E-03    -230.470E-03     212.994E-03
             441     12.1507E-03     100.564E-03    -13.7714E+06     61.9629E+06     78.7073E+06    -612.326E+03    -231.018E-03     461.791E-03    -230.773E-03     230.214E-03    -245.717E-03     476.433E-03    -230.449E-03     189.816E-03
             442     12.8650E-03     100.837E-03    -8.81974E+06     67.3134E+06     80.9375E+06    -884.852E+03    -229.836E-03     460.594E-03    -230.757E-03     207.502E-03    -242.422E-03     473.152E-03    -230.438E-03     170.026E-03
             443     13.5811E-03     101.096E-03    -4.33612E+06     69.1867E+06     80.3832E+06    -415.076E+03    -228.674E-03     459.393E-03    -230.720E-03     149.529E-03    -236.670E-03     467.387E-03    -230.412E-03     120.312E-03
             444     714.218E-06     98.2087E-03    -122.233E+06    -278.742E+06    -120.644E+06     522.807E+03    -231.106E-03     461.703E-03    -230.598E-03     24.5025E-03    -231.228E-03     460.752E-03    -230.620E-03     21.6318E-03
             445     1.42924E-03     98.2557E-03    -119.315E+06    -268.938E+06    -111.554E+06     661.810E+03    -231.148E-03     461.954E-03    -230.806E-03     45.2137E-03    -231.473E-03     461.224E-03    -230.801E-03     39.8988E-03
             446     2.14340E-03     98.3323E-03    -114.229E+06    -258.056E+06    -97.4426E+06     620.875E+03    -231.628E-03     462.472E-03    -230.845E-03     66.9767E-03    -232.290E-03     462.096E-03    -230.792E-03     58.9972E-03
             447     2.85822E-03     98.4391E-03    -108.478E+06    -248.444E+06    -82.0467E+06     691.343E+03    -232.216E-03     463.113E-03    -230.898E-03     88.7879E-03    -233.368E-03     463.236E-03    -230.790E-03     77.9570E-03
             448     3.57275E-03     98.5748E-03    -101.839E+06    -219.014E+06    -66.8888E+06     404.380E+03    -232.915E-03     463.833E-03    -230.919E-03     110.567E-03    -234.752E-03     464.726E-03    -230.788E-03     96.6910E-03
             449     4.28680E-03     98.7398E-03    -94.6776E+06    -178.636E+06    -51.8215E+06     257.421E+03    -233.621E-03     464.540E-03    -230.919E-03     132.386E-03    -236.352E-03     466.451E-03    -230.782E-03     115.282E-03
             450     5.00175E-03     98.9336E-03    -87.3649E+06    -148.831E+06     -35.806E+06     56.3058E+03    -234.308E-03     465.236E-03    -230.927E-03     154.035E-03    -238.145E-03     468.337E-03    -230.764E-03     133.475E-03
             451     5.71639E-03     99.1556E-03    -80.3072E+06    -118.657E+06    -19.7099E+06    -192.495E+03    -235.010E-03     465.937E-03    -230.927E-03     175.478E-03    -240.207E-03     470.485E-03    -230.737E-03     151.236E-03
             452     6.43089E-03     99.4060E-03    -72.7721E+06    -74.9479E+06    -2.30659E+06     213.092E+03    -235.634E-03     466.542E-03    -230.908E-03     196.972E-03    -242.508E-03     472.899E-03    -230.705E-03     168.836E-03
             453     7.14608E-03     99.6826E-03    -64.1216E+06    -21.7551E+06     15.6254E+06     246.791E+03    -236.036E-03     466.903E-03    -230.867E-03     218.169E-03    -244.899E-03     475.416E-03    -230.664E-03     186.000E-03
             454     7.86112E-03     99.9850E-03    -55.2336E+06     12.3359E+06     29.8395E+06     757.533E+03    -236.370E-03     467.195E-03    -230.825E-03     238.474E-03    -247.462E-03     478.048E-03    -230.613E-03     202.302E-03
             455     8.57644E-03     100.316E-03    -46.4819E+06     26.5571E+06     42.1210E+06     2.13671E+06    -236.856E-03     467.666E-03    -230.810E-03     257.322E-03    -250.357E-03     480.974E-03    -230.570E-03     217.295E-03
             456     9.29107E-03     100.667E-03    -39.2829E+06     36.0112E+06     55.2537E+06     1.58683E+06    -236.886E-03     467.710E-03    -230.823E-03     272.158E-03    -252.653E-03     483.304E-03    -230.542E-03     228.986E-03
             457     10.0067E-03     101.036E-03    -33.5449E+06     46.7484E+06     67.6474E+06     164.762E+03    -235.846E-03     466.675E-03    -230.829E-03     278.136E-03    -253.208E-03     483.888E-03    -230.510E-03     233.207E-03
             458     10.7212E-03     101.400E-03    -26.7479E+06     54.3054E+06     75.7935E+06    -454.807E+03    -234.327E-03     465.143E-03    -230.816E-03     272.081E-03    -252.115E-03     482.809E-03    -230.477E-03     227.014E-03
             459     11.4355E-03     101.748E-03    -19.2203E+06     57.2119E+06     77.2577E+06    -810.276E+03    -232.636E-03     463.426E-03    -230.790E-03     256.240E-03    -249.584E-03     480.284E-03    -230.458E-03     212.580E-03
             460     12.1512E-03     102.068E-03    -12.8684E+06     62.3039E+06     78.7082E+06    -85.1018E+03    -230.757E-03     461.518E-03    -230.761E-03     230.625E-03    -245.455E-03     476.164E-03    -230.440E-03     190.291E-03
             461     12.8661E-03     102.343E-03    -7.95256E+06     67.4436E+06     81.1983E+06     257.845E+03    -229.461E-03     460.187E-03    -230.726E-03     208.450E-03    -242.082E-03     472.784E-03    -230.406E-03     171.020E-03
             462     13.5812E-03     102.595E-03    -3.94320E+06     69.4130E+06     81.0922E+06     157.521E+03    -229.032E-03     459.720E-03    -230.688E-03     150.167E-03    -237.053E-03     467.739E-03    -230.377E-03     120.931E-03
             463     714.725E-06     99.7116E-03    -122.212E+06    -279.656E+06    -120.400E+06     292.461E+03    -231.311E-03     461.856E-03    -230.545E-03     24.4353E-03    -231.432E-03     460.900E-03    -230.564E-03     21.5648E-03
             464     1.42873E-03     99.7587E-03    -119.020E+06    -269.761E+06    -111.284E+06     328.087E+03    -231.353E-03     462.261E-03    -230.909E-03     45.2132E-03    -231.675E-03     461.527E-03    -230.901E-03     39.8841E-03
             465     2.14338E-03     99.8358E-03    -114.447E+06    -259.345E+06    -97.9590E+06     757.987E+03    -231.758E-03     462.729E-03    -230.971E-03     66.9549E-03    -232.420E-03     462.348E-03    -230.919E-03     58.9600E-03
             466     2.85753E-03     99.9419E-03    -108.445E+06    -248.703E+06    -82.0054E+06     939.190E+03    -232.259E-03     463.275E-03    -231.016E-03     88.7696E-03    -233.411E-03     463.397E-03    -230.909E-03     77.9322E-03
             467     3.57210E-03     100.078E-03    -102.100E+06    -218.482E+06    -66.6181E+06     936.770E+03    -232.837E-03     463.848E-03    -231.011E-03     110.665E-03    -234.676E-03     464.742E-03    -230.879E-03     96.8170E-03
             468     4.28707E-03     100.243E-03    -95.2955E+06    -177.962E+06    -51.3707E+06     290.956E+03    -233.530E-03     464.511E-03    -230.981E-03     132.592E-03    -236.268E-03     466.428E-03    -230.841E-03     115.496E-03
             469     5.00138E-03     100.437E-03    -87.8495E+06    -148.491E+06    -35.2608E+06     87.6132E+03    -234.290E-03     465.260E-03    -230.970E-03     154.419E-03    -238.135E-03     468.367E-03    -230.803E-03     133.862E-03
             470     5.71597E-03     100.659E-03    -80.3912E+06    -118.809E+06    -19.2296E+06     513.113E+03    -234.915E-03     465.867E-03    -230.952E-03     175.998E-03    -240.125E-03     470.425E-03    -230.759E-03     151.764E-03
             471     6.43132E-03     100.908E-03    -72.9387E+06    -75.0886E+06    -2.16917E+06     307.829E+03    -235.392E-03     466.298E-03    -230.906E-03     197.188E-03    -242.268E-03     472.654E-03    -230.702E-03     169.076E-03
             472     7.14648E-03     101.186E-03    -65.5687E+06    -20.7441E+06     16.0668E+06    -539.189E+03    -235.912E-03     466.760E-03    -230.848E-03     217.918E-03    -244.773E-03     475.268E-03    -230.643E-03     185.775E-03
             473     7.86117E-03     101.489E-03    -58.1256E+06     11.6121E+06     29.7546E+06    -1.02239E+06    -236.590E-03     467.407E-03    -230.817E-03     238.281E-03    -247.694E-03     478.260E-03    -230.601E-03     202.060E-03
             474     8.57576E-03     101.818E-03     -50.868E+06     22.8181E+06     37.5230E+06    -1.15755E+06    -237.018E-03     467.825E-03    -230.807E-03     257.270E-03    -250.530E-03     481.129E-03    -230.579E-03     217.161E-03
             475     9.29091E-03     102.172E-03    -42.9072E+06     35.7383E+06     48.5790E+06    -646.769E+03    -236.663E-03     467.471E-03    -230.808E-03     271.512E-03    -252.437E-03     483.079E-03    -230.555E-03     228.285E-03
             476     10.0055E-03     102.536E-03    -34.2825E+06     48.7006E+06     64.1446E+06    -57.2914E+03    -235.699E-03     466.518E-03    -230.819E-03     277.355E-03    -253.038E-03     483.722E-03    -230.519E-03     232.431E-03
             477     10.7213E-03     102.905E-03    -26.3656E+06     55.3089E+06     75.2240E+06    -1.70957E+06    -234.281E-03     465.098E-03    -230.817E-03     272.067E-03    -252.052E-03     482.753E-03    -230.483E-03     226.990E-03
             478     11.4364E-03     103.252E-03    -20.0214E+06     55.7573E+06     76.0817E+06    -1.98191E+06    -232.356E-03     463.137E-03    -230.781E-03     256.417E-03    -249.295E-03     479.982E-03    -230.452E-03     212.819E-03
             479     12.1507E-03     103.571E-03    -14.2138E+06     60.3934E+06     76.9393E+06    -356.261E+03    -230.421E-03     461.154E-03    -230.733E-03     230.400E-03    -245.114E-03     475.788E-03    -230.415E-03     190.122E-03
             480     12.8677E-03     103.844E-03    -8.89781E+06     67.5060E+06     80.7612E+06     348.005E+03    -229.733E-03     460.438E-03    -230.705E-03     207.254E-03    -242.325E-03     473.004E-03    -230.386E-03     169.771E-03
             481     13.5827E-03     104.102E-03    -4.59734E+06     69.2369E+06     81.5449E+06     426.459E+03    -229.493E-03     460.191E-03    -230.698E-03     148.581E-03    -237.465E-03     468.156E-03    -230.384E-03     119.320E-03
             482     714.265E-06     101.215E-03    -121.855E+06    -280.985E+06    -119.868E+06     326.005E+03    -231.266E-03     462.060E-03    -230.794E-03     24.6172E-03    -231.384E-03     461.096E-03    -230.809E-03     21.7387E-03
             483     1.42874E-03     101.262E-03    -119.055E+06    -270.853E+06    -110.775E+06     885.936E+03    -231.449E-03     462.458E-03    -231.009E-03     45.3842E-03    -231.772E-03     461.718E-03    -230.997E-03     40.0544E-03
             484     2.14287E-03     101.339E-03    -114.814E+06    -259.996E+06    -97.8186E+06     756.204E+03    -231.790E-03     462.848E-03    -231.058E-03     67.1328E-03    -232.455E-03     462.466E-03    -231.004E-03     59.1350E-03
             485     2.85752E-03     101.446E-03    -108.472E+06    -249.289E+06    -82.1473E+06     851.575E+03    -232.233E-03     463.311E-03    -231.078E-03     89.0433E-03    -233.386E-03     463.432E-03    -230.970E-03     78.2135E-03
             486     3.57204E-03     101.581E-03    -101.233E+06    -218.806E+06    -66.1737E+06     1.26784E+06    -232.773E-03     463.820E-03    -231.047E-03     111.050E-03    -234.611E-03     464.714E-03    -230.914E-03     97.2010E-03
             487     4.28654E-03     101.746E-03    -94.2647E+06    -176.922E+06    -50.2707E+06     1.42712E+06    -233.429E-03     464.423E-03    -230.993E-03     132.939E-03    -236.168E-03     466.345E-03    -230.852E-03     115.865E-03
             488     5.00161E-03     101.940E-03    -87.2581E+06    -147.452E+06    -34.0742E+06     519.615E+03    -234.153E-03     465.115E-03    -230.961E-03     154.627E-03    -238.004E-03     468.231E-03    -230.791E-03     134.066E-03
             489     5.71674E-03     102.162E-03    -79.2234E+06    -120.000E+06    -18.1788E+06     227.788E+03    -234.908E-03     465.844E-03    -230.936E-03     176.000E-03    -240.115E-03     470.396E-03    -230.738E-03     151.749E-03
             490     6.43121E-03     102.412E-03    -70.9657E+06    -75.9334E+06    -781.303E+03     1.27914E+06    -235.574E-03     466.476E-03    -230.903E-03     196.984E-03    -242.443E-03     472.826E-03    -230.694E-03     168.854E-03
             491     7.14591E-03     102.689E-03    -63.2219E+06    -18.5536E+06     18.4569E+06     2.04519E+06    -236.032E-03     466.895E-03    -230.863E-03     217.676E-03    -244.875E-03     475.394E-03    -230.652E-03     185.577E-03
             492     7.86137E-03     102.992E-03    -55.9713E+06     14.3172E+06     32.1530E+06     1.32309E+06    -236.564E-03     467.399E-03    -230.835E-03     238.268E-03    -247.658E-03     478.252E-03    -230.614E-03     202.106E-03
             493     8.57599E-03     103.323E-03    -48.0876E+06     24.6850E+06     41.8483E+06    -781.929E+03    -236.962E-03     467.790E-03    -230.828E-03     257.531E-03    -250.480E-03     481.103E-03    -230.584E-03     217.439E-03
             494     9.29040E-03     103.674E-03    -39.8829E+06     34.2236E+06     53.8988E+06    -1.50502E+06    -236.799E-03     467.634E-03    -230.836E-03     271.968E-03    -252.571E-03     483.230E-03    -230.558E-03     228.763E-03
             495     10.0060E-03     104.041E-03    -31.9775E+06     47.3027E+06     67.7283E+06    -1.22798E+06    -235.914E-03     466.758E-03    -230.844E-03     277.978E-03    -253.293E-03     483.995E-03    -230.528E-03     232.955E-03
             496     10.7204E-03     104.406E-03    -25.3331E+06     57.3215E+06     77.5264E+06    -656.175E+03    -234.208E-03     465.040E-03    -230.833E-03     272.396E-03    -251.978E-03     482.699E-03    -230.492E-03     227.373E-03
             497     11.4360E-03     104.755E-03    -19.7933E+06     56.6875E+06     77.0781E+06     46.5622E+03    -232.136E-03     462.918E-03    -230.782E-03     255.771E-03    -249.024E-03     479.713E-03    -230.450E-03     212.335E-03
             498     12.1525E-03     105.072E-03    -15.3776E+06     59.4544E+06     76.7268E+06    -281.804E+03    -230.908E-03     461.653E-03    -230.745E-03     229.629E-03    -245.609E-03     476.288E-03    -230.426E-03     189.219E-03
             499     12.8652E-03     105.349E-03    -10.5939E+06     66.6568E+06     80.2988E+06     12.3241E+03    -230.288E-03     461.038E-03    -230.750E-03     206.977E-03    -242.874E-03     473.590E-03    -230.430E-03     169.428E-03
             500     13.5786E-03     105.605E-03    -4.32061E+06     69.3432E+06     81.1220E+06    -245.951E+03    -228.796E-03     459.531E-03    -230.734E-03     149.011E-03    -236.768E-03     467.498E-03    -230.423E-03     119.778E-03
             501     714.398E-06     102.719E-03    -122.972E+06    -284.701E+06    -120.040E+06     2.07975E+06    -231.134E-03     462.192E-03    -231.058E-03     24.8455E-03    -231.252E-03     461.211E-03    -231.067E-03     21.9991E-03
             502     1.42868E-03     102.766E-03    -119.177E+06    -271.383E+06    -110.448E+06     1.33116E+06    -231.367E-03     462.410E-03    -231.043E-03     45.5260E-03    -231.691E-03     461.668E-03    -231.029E-03     40.2089E-03
             503     2.14311E-03     102.843E-03    -113.701E+06    -259.242E+06    -96.6037E+06     730.163E+03    -231.669E-03     462.713E-03    -231.045E-03     67.2694E-03    -232.331E-03     462.332E-03    -230.987E-03     59.2769E-03
             504     2.85753E-03     102.949E-03    -107.639E+06    -249.458E+06    -81.3048E+06     226.018E+03    -232.150E-03     463.188E-03    -231.038E-03     89.3203E-03    -233.302E-03     463.309E-03    -230.927E-03     78.4779E-03
             505     3.57226E-03     103.085E-03    -99.9548E+06    -220.047E+06    -66.1405E+06     44.2258E+03    -232.804E-03     463.807E-03    -231.003E-03     111.309E-03    -234.640E-03     464.699E-03    -230.870E-03     97.4209E-03
             506     4.28717E-03     103.249E-03    -91.5323E+06    -178.370E+06    -50.2063E+06     600.497E+03    -233.500E-03     464.460E-03    -230.960E-03     133.047E-03    -236.226E-03     466.373E-03    -230.819E-03     115.950E-03
             507     5.00175E-03     103.444E-03    -82.9133E+06    -145.816E+06    -31.8544E+06     823.289E+03    -234.252E-03     465.199E-03    -230.947E-03     154.446E-03    -238.087E-03     468.315E-03    -230.775E-03     133.877E-03
             508     5.71632E-03     103.665E-03    -74.9279E+06    -120.971E+06    -14.6617E+06     670.035E+03    -235.013E-03     465.962E-03    -230.949E-03     175.709E-03    -240.202E-03     470.497E-03    -230.738E-03     151.438E-03
             509     6.43126E-03     103.916E-03    -66.8086E+06    -79.2397E+06     1.41103E+06     1.16313E+06    -235.635E-03     466.557E-03    -230.922E-03     196.866E-03    -242.475E-03     472.874E-03    -230.703E-03     168.748E-03
             510     7.14619E-03     104.191E-03    -57.3916E+06    -20.7688E+06     19.1927E+06     3.14542E+06    -236.159E-03     467.035E-03    -230.876E-03     217.813E-03    -244.976E-03     475.519E-03    -230.667E-03     185.719E-03
             511     7.86046E-03     104.496E-03    -48.4929E+06     15.9520E+06     34.7598E+06     4.44844E+06    -236.494E-03     467.340E-03    -230.846E-03     238.507E-03    -247.575E-03     478.205E-03    -230.625E-03     202.355E-03
             512     8.57599E-03     104.825E-03    -41.7028E+06     31.0197E+06     46.7325E+06     3.48060E+06    -236.688E-03     467.513E-03    -230.826E-03     257.521E-03    -250.166E-03     480.818E-03    -230.577E-03     217.577E-03
             513     9.29170E-03     105.179E-03    -36.1782E+06     37.5567E+06     57.2889E+06     1.71583E+06    -236.709E-03     467.526E-03    -230.817E-03     271.975E-03    -252.458E-03     483.113E-03    -230.533E-03     228.860E-03
             514     10.0058E-03     105.543E-03    -30.9764E+06     48.2657E+06     69.6671E+06     296.161E+03    -235.999E-03     466.826E-03    -230.826E-03     278.086E-03    -253.411E-03     484.097E-03    -230.503E-03     233.005E-03
             515     10.7215E-03     105.911E-03    -24.9105E+06     56.4952E+06     79.5961E+06     1.30919E+06    -234.406E-03     465.238E-03    -230.831E-03     272.199E-03    -252.171E-03     482.884E-03    -230.479E-03     227.219E-03
             516     11.4363E-03     106.257E-03    -18.8030E+06     56.5143E+06     79.4312E+06     2.02548E+06    -232.623E-03     463.425E-03    -230.803E-03     255.898E-03    -249.538E-03     480.245E-03    -230.460E-03     212.366E-03
             517     12.1497E-03     106.576E-03    -13.5641E+06     60.7439E+06     79.4675E+06     1.56315E+06    -231.269E-03     462.056E-03    -230.787E-03     230.533E-03    -246.011E-03     476.735E-03    -230.458E-03     190.062E-03
             518     12.8653E-03     106.854E-03    -8.39787E+06     68.0418E+06     82.1883E+06     399.874E+03    -229.704E-03     460.477E-03    -230.773E-03     207.711E-03    -242.289E-03     473.035E-03    -230.449E-03     170.302E-03
             519     13.5823E-03     107.107E-03    -4.29721E+06     69.9346E+06     81.3783E+06    -649.023E+03    -228.611E-03     459.340E-03    -230.728E-03     149.385E-03    -236.598E-03     467.323E-03    -230.417E-03     120.194E-03
             520     714.255E-06     104.222E-03    -118.935E+06    -289.627E+06    -119.218E+06     1.45793E+06    -231.193E-03     462.285E-03    -231.091E-03     24.6523E-03    -231.285E-03     461.272E-03    -231.095E-03     21.8132E-03
             521     1.42861E-03     104.270E-03    -116.741E+06    -270.274E+06    -111.789E+06     698.567E+03    -231.169E-03     462.184E-03    -231.015E-03     45.4443E-03    -231.480E-03     461.445E-03    -231.012E-03     40.1201E-03
             522     2.14329E-03     104.346E-03    -112.674E+06    -258.510E+06    -97.4410E+06    -14.3053E+03    -231.509E-03     462.468E-03    -230.960E-03     67.2135E-03    -232.165E-03     462.090E-03    -230.909E-03     59.2202E-03
             523     2.85809E-03     104.452E-03    -106.486E+06    -248.217E+06    -81.0125E+06    -651.737E+03    -232.163E-03     463.119E-03    -230.956E-03     89.2632E-03    -233.311E-03     463.243E-03    -230.847E-03     78.4085E-03
             524     3.57260E-03     104.587E-03    -99.4501E+06    -219.615E+06    -66.2113E+06    -1.42515E+06    -232.895E-03     463.843E-03    -230.948E-03     111.192E-03    -234.727E-03     464.734E-03    -230.816E-03     97.2890E-03
             525     4.28695E-03     104.753E-03    -92.4240E+06    -179.519E+06    -51.6448E+06    -1.74829E+06    -233.623E-03     464.554E-03    -230.931E-03     132.879E-03    -236.349E-03     466.464E-03    -230.795E-03     115.741E-03
             526     5.00168E-03     104.946E-03    -85.2916E+06    -147.324E+06    -35.0999E+06    -1.18957E+06    -234.367E-03     465.300E-03    -230.934E-03     154.496E-03    -238.205E-03     468.415E-03    -230.772E-03     133.905E-03
             527     5.71629E-03     105.169E-03    -77.6894E+06    -122.049E+06    -17.7893E+06    -843.488E+03    -235.055E-03     466.000E-03    -230.946E-03     175.918E-03    -240.257E-03     470.546E-03    -230.745E-03     151.617E-03
             528     6.43100E-03     105.417E-03    -70.1015E+06    -80.8389E+06    -419.896E+03    -563.967E+03    -235.627E-03     466.554E-03    -230.927E-03     197.057E-03    -242.477E-03     472.870E-03    -230.710E-03     168.928E-03
             529     7.14584E-03     105.696E-03    -62.8509E+06    -25.1179E+06     15.4789E+06    -1.20286E+06    -236.082E-03     466.954E-03    -230.873E-03     218.050E-03    -244.921E-03     475.436E-03    -230.668E-03     185.898E-03
             530     7.86138E-03     105.998E-03    -54.3021E+06     11.0100E+06     29.7660E+06    -622.907E+03    -236.477E-03     467.313E-03    -230.836E-03     238.482E-03    -247.582E-03     478.178E-03    -230.624E-03     202.228E-03
             531     8.57611E-03     106.329E-03    -45.4760E+06     28.7801E+06     42.0192E+06     2.83529E+06    -236.734E-03     467.549E-03    -230.816E-03     257.175E-03    -250.222E-03     480.857E-03    -230.582E-03     217.184E-03
             532     9.29079E-03     106.680E-03    -38.8536E+06     41.2890E+06     54.0110E+06     3.82647E+06    -236.531E-03     467.338E-03    -230.807E-03     271.487E-03    -252.301E-03     482.960E-03    -230.540E-03     228.342E-03
             533     10.0067E-03     107.049E-03    -32.7626E+06     52.4766E+06     68.2294E+06     2.47618E+06    -235.831E-03     466.649E-03    -230.818E-03     277.437E-03    -253.210E-03     483.901E-03    -230.506E-03     232.457E-03
             534     10.7208E-03     107.413E-03    -26.3209E+06     55.3715E+06     77.7530E+06     1.34299E+06    -234.422E-03     465.252E-03    -230.830E-03     271.556E-03    -252.193E-03     482.901E-03    -230.483E-03     226.504E-03
             535     11.4359E-03     107.761E-03    -19.9087E+06     54.7478E+06     77.8597E+06     1.38995E+06    -232.672E-03     463.483E-03    -230.810E-03     256.224E-03    -249.630E-03     480.338E-03    -230.471E-03     212.569E-03
             536     12.1513E-03     108.082E-03    -13.7209E+06     60.2343E+06     78.8892E+06     1.84070E+06    -230.983E-03     461.769E-03    -230.786E-03     231.028E-03    -245.715E-03     476.438E-03    -230.459E-03     190.635E-03
             537     12.8660E-03     108.356E-03    -8.54442E+06     69.1404E+06     82.8703E+06     797.715E+03    -229.659E-03     460.428E-03    -230.768E-03     206.763E-03    -242.272E-03     473.015E-03    -230.442E-03     169.233E-03
             538     13.5808E-03     108.608E-03    -4.14288E+06     71.9642E+06     83.4934E+06     241.771E+03    -229.369E-03     460.125E-03    -230.756E-03     148.349E-03    -237.361E-03     468.115E-03    -230.437E-03     119.088E-03
             539     714.075E-06     105.726E-03    -116.193E+06    -291.890E+06    -117.006E+06     60.8490E+03    -231.207E-03     462.144E-03    -230.937E-03     24.5193E-03    -231.285E-03     461.113E-03    -230.930E-03     21.6497E-03
             540     1.42887E-03     105.772E-03    -116.288E+06    -268.476E+06    -113.102E+06    -354.099E+03    -231.083E-03     462.006E-03    -230.923E-03     45.3358E-03    -231.391E-03     461.276E-03    -230.930E-03     40.0218E-03
             541     2.14354E-03     105.849E-03    -112.525E+06    -257.399E+06    -99.0887E+06    -1.03569E+06    -231.566E-03     462.453E-03    -230.887E-03     67.1504E-03    -232.222E-03     462.083E-03    -230.846E-03     59.1373E-03
             542     2.85796E-03     105.955E-03    -106.580E+06    -247.099E+06    -82.5052E+06    -1.44720E+06    -232.257E-03     463.178E-03    -230.921E-03     89.0597E-03    -233.403E-03     463.309E-03    -230.821E-03     78.1896E-03
             543     3.57248E-03     106.091E-03    -100.579E+06    -218.759E+06    -67.2653E+06    -1.57506E+06    -232.922E-03     463.861E-03    -230.939E-03     110.984E-03    -234.756E-03     464.756E-03    -230.812E-03     97.0879E-03
             544     4.28721E-03     106.256E-03    -94.4728E+06    -178.484E+06    -52.6041E+06    -1.58999E+06    -233.592E-03     464.518E-03    -230.926E-03     132.854E-03    -236.325E-03     466.435E-03    -230.794E-03     115.732E-03
             545     5.00164E-03     106.450E-03    -88.0725E+06    -147.286E+06    -37.2501E+06    -1.87836E+06    -234.275E-03     465.194E-03    -230.919E-03     154.573E-03    -238.126E-03     468.317E-03    -230.764E-03     133.977E-03
             546     5.71658E-03     106.672E-03    -81.2084E+06    -123.135E+06    -21.1885E+06    -1.58056E+06    -234.998E-03     465.916E-03    -230.918E-03     176.063E-03    -240.206E-03     470.460E-03    -230.727E-03     151.782E-03
             547     6.43125E-03     106.922E-03    -74.3000E+06    -82.0624E+06    -3.57351E+06    -666.700E+03    -235.665E-03     466.565E-03    -230.901E-03     197.273E-03    -242.537E-03     472.894E-03    -230.692E-03     169.131E-03
             548     7.14621E-03     107.198E-03    -67.4456E+06    -22.5367E+06     14.7963E+06    -1.00240E+06    -236.145E-03     467.007E-03    -230.862E-03     218.202E-03    -245.023E-03     475.523E-03    -230.657E-03     186.011E-03
             549     7.86067E-03     107.503E-03    -61.3886E+06     10.2334E+06     26.7091E+06    -2.79988E+06    -236.619E-03     467.453E-03    -230.834E-03     238.436E-03    -247.755E-03     478.330E-03    -230.626E-03     202.133E-03
             550     8.57566E-03     107.831E-03    -54.6444E+06     20.3357E+06     34.4702E+06    -3.47865E+06    -236.898E-03     467.722E-03    -230.824E-03     257.144E-03    -250.442E-03     481.044E-03    -230.602E-03     216.961E-03
             551     9.29080E-03     108.185E-03    -44.6110E+06     37.9103E+06     49.8841E+06    -1.41808E+06    -236.680E-03     467.516E-03    -230.836E-03     271.505E-03    -252.486E-03     483.153E-03    -230.577E-03     228.229E-03
             552     10.0051E-03     108.549E-03    -34.5979E+06     51.3252E+06     66.5055E+06     778.746E+03    -235.778E-03     466.631E-03    -230.853E-03     277.352E-03    -253.143E-03     483.862E-03    -230.545E-03     232.384E-03
             553     10.7210E-03     108.918E-03    -26.7536E+06     54.5293E+06     76.2888E+06     1.35305E+06    -234.269E-03     465.122E-03    -230.854E-03     271.823E-03    -252.058E-03     482.789E-03    -230.513E-03     226.749E-03
             554     11.4355E-03     109.264E-03    -20.3794E+06     55.5166E+06     77.4208E+06     1.22496E+06    -232.608E-03     463.436E-03    -230.828E-03     256.169E-03    -249.574E-03     480.302E-03    -230.492E-03     212.488E-03
             555     12.1506E-03     109.585E-03    -15.0381E+06     59.3303E+06     77.6446E+06     996.804E+03    -231.164E-03     461.975E-03    -230.811E-03     229.671E-03    -245.863E-03     476.606E-03    -230.487E-03     189.216E-03
             556     12.8660E-03     109.859E-03    -9.44944E+06     70.9650E+06     82.6929E+06     1.03085E+06    -230.141E-03     460.963E-03    -230.821E-03     205.378E-03    -242.733E-03     473.533E-03    -230.497E-03     167.780E-03
             557     13.5790E-03     110.115E-03    -4.47156E+06     74.0068E+06     84.0719E+06     664.670E+03    -229.287E-03     460.111E-03    -230.825E-03     148.476E-03    -237.268E-03     468.096E-03    -230.505E-03     119.268E-03
             558     714.673E-06     107.229E-03    -118.174E+06    -290.982E+06    -118.756E+06    -302.490E+03    -231.120E-03     461.741E-03    -230.621E-03     24.3519E-03    -231.205E-03     460.719E-03    -230.622E-03     21.4848E-03
             559     1.42902E-03     107.276E-03    -117.349E+06    -266.020E+06    -112.848E+06    -1.12286E+06    -231.237E-03     462.038E-03    -230.802E-03     45.2355E-03    -231.554E-03     461.322E-03    -230.810E-03     39.9018E-03
             560     2.14345E-03     107.352E-03    -113.470E+06    -255.848E+06    -99.5429E+06    -1.74894E+06    -231.699E-03     462.561E-03    -230.862E-03     67.1910E-03    -232.362E-03     462.201E-03    -230.824E-03     59.1551E-03
             561     2.85791E-03     107.459E-03    -108.158E+06    -246.701E+06    -84.2143E+06    -1.51013E+06    -232.290E-03     463.212E-03    -230.922E-03     89.1947E-03    -233.444E-03     463.351E-03    -230.829E-03     78.3198E-03
             562     3.57236E-03     107.594E-03    -102.358E+06    -218.381E+06    -68.9317E+06    -1.15804E+06    -232.875E-03     463.813E-03    -230.937E-03     111.114E-03    -234.716E-03     464.715E-03    -230.817E-03     97.2335E-03
             563     4.28690E-03     107.759E-03    -95.8722E+06    -177.677E+06    -53.6402E+06    -1.08087E+06    -233.476E-03     464.388E-03    -230.912E-03     132.978E-03    -236.216E-03     466.313E-03    -230.784E-03     115.877E-03
             564     5.00190E-03     107.953E-03    -88.8569E+06    -146.280E+06    -37.0935E+06    -949.525E+03    -234.227E-03     465.125E-03    -230.898E-03     154.650E-03    -238.084E-03     468.254E-03    -230.742E-03     134.071E-03
             565     5.71652E-03     108.175E-03    -81.9113E+06    -123.335E+06    -21.1193E+06    -479.588E+03    -235.060E-03     465.961E-03    -230.902E-03     175.990E-03    -240.271E-03     470.505E-03    -230.710E-03     151.712E-03
             566     6.43154E-03     108.425E-03    -74.3188E+06    -82.6231E+06    -4.53370E+06    -339.493E+03    -235.724E-03     466.615E-03    -230.891E-03     196.937E-03    -242.597E-03     472.945E-03    -230.687E-03     168.761E-03
             567     7.14613E-03     108.702E-03    -65.4022E+06    -22.6255E+06     13.9454E+06     56.5891E+03    -236.225E-03     467.086E-03    -230.861E-03     217.798E-03    -245.083E-03     475.591E-03    -230.664E-03     185.613E-03
             568     7.86122E-03     109.006E-03    -55.8958E+06     13.5389E+06     29.3167E+06     709.447E+03    -236.653E-03     467.500E-03    -230.847E-03     238.353E-03    -247.770E-03     478.382E-03    -230.639E-03     202.093E-03
             569     8.57569E-03     109.336E-03    -47.6549E+06     25.4626E+06     41.6088E+06    -597.360E+03    -236.982E-03     467.839E-03    -230.856E-03     257.227E-03    -250.509E-03     481.166E-03    -230.616E-03     217.089E-03
             570     9.29028E-03     109.687E-03    -41.4152E+06     35.3977E+06     54.4564E+06    -2.32224E+06    -236.869E-03     467.746E-03    -230.877E-03     271.716E-03    -252.659E-03     483.357E-03    -230.596E-03     228.445E-03
             571     10.0055E-03     110.055E-03    -34.8721E+06     45.8583E+06     66.8409E+06    -1.42449E+06    -235.952E-03     466.844E-03    -230.892E-03     277.608E-03    -253.351E-03     484.088E-03    -230.573E-03     232.532E-03
             572     10.7202E-03     110.418E-03    -27.5987E+06     52.5111E+06     76.0785E+06     557.186E+03    -234.512E-03     465.409E-03    -230.898E-03     271.739E-03    -252.304E-03     483.070E-03    -230.554E-03     226.605E-03
             573     11.4358E-03     110.770E-03    -20.9662E+06     55.4743E+06     77.0525E+06     919.651E+03    -232.950E-03     463.838E-03    -230.888E-03     255.412E-03    -249.898E-03     480.685E-03    -230.552E-03     211.662E-03
             574     12.1496E-03     111.087E-03    -14.4364E+06     59.6300E+06     78.3251E+06     996.096E+03    -231.399E-03     462.291E-03    -230.892E-03     229.502E-03    -246.090E-03     476.916E-03    -230.566E-03     189.042E-03
             575     12.8623E-03     111.366E-03    -9.36698E+06     73.4046E+06     82.4686E+06     1.33347E+06    -229.750E-03     460.634E-03    -230.884E-03     206.193E-03    -242.344E-03     473.217E-03    -230.565E-03     168.734E-03
             576     13.5795E-03     111.614E-03    -5.23685E+06     75.1162E+06     81.3587E+06     296.713E+03    -228.689E-03     459.532E-03    -230.843E-03     149.467E-03    -236.689E-03     467.544E-03    -230.538E-03     120.326E-03
             577     714.667E-06     108.732E-03    -118.241E+06    -286.863E+06    -119.156E+06    -2.29729E+06    -231.074E-03     461.571E-03    -230.497E-03     24.4305E-03    -231.165E-03     460.570E-03    -230.505E-03     21.5457E-03
             578     1.42910E-03     108.779E-03    -116.695E+06    -264.767E+06    -112.615E+06    -1.60753E+06    -231.299E-03     462.049E-03    -230.750E-03     45.2615E-03    -231.616E-03     461.338E-03    -230.760E-03     39.9028E-03
             579     2.14344E-03     108.855E-03    -114.101E+06    -255.152E+06    -98.8331E+06    -814.438E+03    -231.706E-03     462.554E-03    -230.847E-03     67.2754E-03    -232.375E-03     462.198E-03    -230.806E-03     59.2487E-03
             580     2.85799E-03     108.961E-03    -109.422E+06    -246.546E+06    -83.7141E+06    -557.879E+03    -232.213E-03     463.119E-03    -230.906E-03     89.3088E-03    -233.375E-03     463.260E-03    -230.808E-03     78.4528E-03
             581     3.57259E-03     109.098E-03    -102.978E+06    -217.838E+06    -68.6548E+06    -556.036E+03    -232.835E-03     463.745E-03    -230.910E-03     111.216E-03    -234.681E-03     464.650E-03    -230.788E-03     97.3476E-03
             582     4.28740E-03     109.262E-03    -96.1995E+06    -177.260E+06    -53.6456E+06    -620.931E+03    -233.552E-03     464.442E-03    -230.890E-03     132.936E-03    -236.297E-03     466.372E-03    -230.762E-03     115.821E-03
             583     5.00200E-03     109.456E-03    -89.0918E+06    -146.448E+06    -37.6017E+06    -528.081E+03    -234.379E-03     465.275E-03    -230.896E-03     154.387E-03    -238.234E-03     468.403E-03    -230.742E-03     133.791E-03
             584     5.71678E-03     109.678E-03    -81.2740E+06    -122.887E+06    -21.4127E+06    -737.297E+03    -235.199E-03     466.121E-03    -230.922E-03     175.617E-03    -240.410E-03     470.669E-03    -230.733E-03     151.296E-03
             585     6.43086E-03     109.929E-03     -72.889E+06    -81.8170E+06    -3.72491E+06    -932.088E+03    -235.800E-03     466.730E-03    -230.930E-03     196.695E-03    -242.671E-03     473.063E-03    -230.725E-03     168.475E-03
             586     7.14571E-03     110.205E-03    -64.8628E+06    -22.9431E+06     14.6010E+06    -1.55185E+06    -236.165E-03     467.067E-03    -230.902E-03     217.673E-03    -245.018E-03     475.567E-03    -230.702E-03     185.466E-03
             587     7.86031E-03     110.509E-03    -56.2280E+06     12.0230E+06     29.2878E+06    -2.59300E+06    -236.593E-03     467.473E-03    -230.880E-03     238.239E-03    -247.701E-03     478.340E-03    -230.670E-03     201.950E-03
             588     8.57576E-03     110.839E-03    -47.3206E+06     25.7378E+06     40.6260E+06    -1.06466E+06    -236.978E-03     467.857E-03    -230.878E-03     256.865E-03    -250.482E-03     481.166E-03    -230.644E-03     216.734E-03
             589     9.29055E-03     111.192E-03    -40.1686E+06     37.3845E+06     52.6022E+06     791.816E+03    -236.809E-03     467.702E-03    -230.893E-03     271.008E-03    -252.585E-03     483.316E-03    -230.626E-03     227.743E-03
             590     10.0053E-03     111.556E-03    -34.3884E+06     45.0169E+06     65.5942E+06     661.159E+03    -236.147E-03     467.074E-03    -230.927E-03     276.979E-03    -253.540E-03     484.315E-03    -230.614E-03     231.850E-03
             591     10.7199E-03     111.925E-03    -28.1586E+06     50.6767E+06     75.4752E+06    -7.60648E+03    -234.953E-03     465.916E-03    -230.963E-03     271.550E-03    -252.751E-03     483.575E-03    -230.618E-03     226.303E-03
             592     11.4331E-03     112.271E-03    -20.8212E+06     55.1781E+06     76.9150E+06    -203.456E+03    -232.934E-03     463.894E-03    -230.960E-03     255.956E-03    -249.881E-03     480.740E-03    -230.625E-03     212.257E-03
             593     12.1479E-03     112.594E-03    -14.7322E+06     58.6937E+06     76.6342E+06     468.004E+03    -230.675E-03     461.599E-03    -230.924E-03     230.495E-03    -245.357E-03     476.215E-03    -230.605E-03     190.251E-03
             594     12.8656E-03     112.866E-03    -8.88789E+06     73.2812E+06     80.6550E+06     604.394E+03    -229.253E-03     460.120E-03    -230.867E-03     207.422E-03    -241.858E-03     472.720E-03    -230.557E-03     170.051E-03
             595     13.5789E-03     113.121E-03    -3.04689E+06     76.1959E+06     81.7176E+06     540.252E+03    -228.503E-03     459.311E-03    -230.809E-03     150.225E-03    -236.511E-03     467.342E-03    -230.506E-03     121.081E-03
             596     714.500E-06     110.235E-03    -120.598E+06    -280.326E+06    -118.369E+06    -1.89819E+06    -230.942E-03     461.648E-03    -230.706E-03     24.6070E-03    -231.057E-03     460.684E-03    -230.717E-03     21.6947E-03
             597     1.42905E-03     110.282E-03    -118.999E+06    -266.830E+06    -111.055E+06    -807.152E+03    -231.191E-03     461.975E-03    -230.784E-03     45.3761E-03    -231.521E-03     461.257E-03    -230.780E-03     40.0125E-03
             598     2.14362E-03     110.358E-03    -114.766E+06    -256.140E+06    -97.8221E+06     289.916E+03    -231.661E-03     462.502E-03    -230.841E-03     67.1654E-03    -232.332E-03     462.141E-03    -230.793E-03     59.1519E-03
             599     2.85809E-03     110.465E-03    -108.756E+06    -246.201E+06    -82.1269E+06     453.093E+03    -232.227E-03     463.127E-03    -230.900E-03     89.0766E-03    -233.387E-03     463.265E-03    -230.796E-03     78.2315E-03
             600     3.57276E-03     110.600E-03    -102.207E+06    -217.291E+06    -67.2783E+06     482.393E+03    -232.928E-03     463.846E-03    -230.919E-03     110.864E-03    -234.772E-03     464.751E-03    -230.792E-03     96.9874E-03
             601     4.28717E-03     110.766E-03    -95.4663E+06    -176.692E+06    -52.4912E+06     362.796E+03    -233.735E-03     464.661E-03    -230.926E-03     132.489E-03    -236.477E-03     466.589E-03    -230.794E-03     115.363E-03
             602     5.00155E-03     110.960E-03    -88.5027E+06    -145.327E+06    -36.5971E+06    -217.257E+03    -234.517E-03     465.470E-03    -230.954E-03     154.109E-03    -238.371E-03     468.601E-03    -230.798E-03     133.494E-03
             603     5.71574E-03     111.182E-03    -81.5591E+06    -121.539E+06    -20.5524E+06    -1.18146E+06    -235.178E-03     466.162E-03    -230.984E-03     175.617E-03    -240.396E-03     470.719E-03    -230.792E-03     151.276E-03
             604     6.43085E-03     111.432E-03    -74.0121E+06    -81.0816E+06    -3.29147E+06    -2.11509E+06    -235.719E-03     466.699E-03    -230.980E-03     196.866E-03    -242.606E-03     473.045E-03    -230.772E-03     168.614E-03
             605     7.14542E-03     111.709E-03    -65.4371E+06    -20.2631E+06     16.2138E+06    -2.86024E+06    -236.198E-03     467.145E-03    -230.948E-03     217.758E-03    -245.069E-03     475.666E-03    -230.742E-03     185.507E-03
             606     7.86074E-03     112.012E-03    -58.0051E+06     12.6863E+06     30.3485E+06    -2.66579E+06    -236.741E-03     467.673E-03    -230.932E-03     238.230E-03    -247.846E-03     478.529E-03    -230.714E-03     201.964E-03
             607     8.57463E-03     112.344E-03    -52.0028E+06     21.5720E+06     37.9957E+06    -3.02870E+06    -237.063E-03     467.991E-03    -230.928E-03     256.899E-03    -250.574E-03     481.284E-03    -230.694E-03     216.751E-03
             608     9.28946E-03     112.694E-03    -44.0824E+06     33.7286E+06     48.8692E+06    -2.64040E+06    -236.957E-03     467.898E-03    -230.941E-03     271.051E-03    -252.752E-03     483.515E-03    -230.682E-03     227.695E-03
             609     10.0040E-03     113.062E-03    -34.2465E+06     43.0220E+06     63.1854E+06    -511.593E+03    -236.332E-03     467.312E-03    -230.980E-03     277.393E-03    -253.743E-03     484.571E-03    -230.677E-03     232.175E-03
             610     10.7185E-03     113.427E-03    -25.5399E+06     51.2096E+06     75.0854E+06     858.336E+03    -234.702E-03     465.709E-03    -231.007E-03     272.298E-03    -252.504E-03     483.384E-03    -230.669E-03     227.118E-03
             611     11.4341E-03     113.779E-03    -19.6654E+06     56.0262E+06     76.3593E+06     1.30815E+06    -232.262E-03     463.225E-03    -230.963E-03     256.615E-03    -249.177E-03     480.048E-03    -230.634E-03     213.168E-03
             612     12.1501E-03     114.094E-03    -14.5202E+06     60.0049E+06     75.7992E+06    -366.717E+03    -230.339E-03     461.227E-03    -230.888E-03     230.899E-03    -245.002E-03     475.832E-03    -230.575E-03     190.765E-03
             613     12.8638E-03     114.371E-03    -9.63857E+06     72.2268E+06     79.6779E+06    -1.17932E+06    -229.366E-03     460.194E-03    -230.829E-03     207.342E-03    -241.984E-03     472.804E-03    -230.521E-03     169.864E-03
             614     13.5811E-03     114.623E-03    -4.67020E+06     74.3955E+06     81.6578E+06     337.260E+03    -228.660E-03     459.450E-03    -230.790E-03     148.649E-03    -236.661E-03     467.462E-03    -230.483E-03     119.444E-03
             615     714.437E-06     111.737E-03    -122.726E+06    -279.028E+06    -119.346E+06     682.705E+03    -230.859E-03     461.727E-03    -230.868E-03     24.7195E-03    -230.986E-03     460.775E-03    -230.883E-03     21.8419E-03
             616     1.42905E-03     111.785E-03    -119.229E+06    -268.302E+06    -109.325E+06     937.627E+03    -231.230E-03     462.069E-03    -230.839E-03     45.4303E-03    -231.561E-03     461.342E-03    -230.824E-03     40.0861E-03
             617     2.14343E-03     111.861E-03    -113.946E+06    -256.930E+06    -96.2346E+06     731.241E+03    -231.719E-03     462.614E-03    -230.895E-03     66.9800E-03    -232.386E-03     462.244E-03    -230.839E-03     58.9708E-03
             618     2.85800E-03     111.968E-03    -107.623E+06    -246.791E+06    -80.8708E+06     1.00765E+06    -232.366E-03     463.332E-03    -230.965E-03     88.8013E-03    -233.520E-03     463.462E-03    -230.856E-03     77.9551E-03
             619     3.57220E-03     112.104E-03    -100.979E+06    -217.495E+06    -65.6344E+06     1.22828E+06    -233.065E-03     464.068E-03    -231.003E-03     110.738E-03    -234.904E-03     464.967E-03    -230.870E-03     96.8583E-03
             620     4.28662E-03     112.269E-03    -94.0427E+06    -176.532E+06    -50.3049E+06     1.20093E+06    -233.748E-03     464.760E-03    -231.012E-03     132.633E-03    -236.488E-03     466.685E-03    -230.871E-03     115.513E-03
             621     5.00109E-03     112.464E-03    -87.0766E+06    -144.015E+06    -33.6121E+06     1.22445E+06    -234.438E-03     465.461E-03    -231.024E-03     154.384E-03    -238.296E-03     468.597E-03    -230.856E-03     133.791E-03
             622     5.71610E-03     112.685E-03    -79.6903E+06    -119.444E+06    -16.7405E+06     910.155E+03    -235.153E-03     466.191E-03    -231.038E-03     175.846E-03    -240.373E-03     470.752E-03    -230.833E-03     151.543E-03
             623     6.43036E-03     112.936E-03    -72.5993E+06    -77.0796E+06     41.1613E+03    -543.257E+03    -235.793E-03     466.818E-03    -231.025E-03     196.880E-03    -242.683E-03     473.176E-03    -230.808E-03     168.647E-03
             624     7.14543E-03     113.212E-03    -66.2761E+06    -17.9998E+06     17.2200E+06    -1.64538E+06    -236.328E-03     467.322E-03    -230.994E-03     217.627E-03    -245.201E-03     475.846E-03    -230.786E-03     185.387E-03
             625     7.85935E-03     113.517E-03    -58.7300E+06     12.8272E+06     30.0226E+06    -2.01124E+06    -236.758E-03     467.737E-03    -230.979E-03     238.155E-03    -247.863E-03     478.591E-03    -230.762E-03     201.895E-03
             626     8.57505E-03     113.846E-03    -49.1920E+06      23.961E+06     40.8645E+06    -2.43363E+06    -237.050E-03     468.027E-03    -230.977E-03     257.122E-03    -250.544E-03     481.313E-03    -230.736E-03     217.028E-03
             627     9.28945E-03     114.200E-03    -40.8781E+06     32.6557E+06     53.3606E+06    -3.14334E+06    -237.059E-03     468.054E-03    -230.994E-03     271.702E-03    -252.849E-03     483.659E-03    -230.715E-03     228.371E-03
             628     10.0041E-03     114.565E-03    -34.4364E+06     38.4000E+06     64.0262E+06    -2.92374E+06    -236.207E-03     467.219E-03    -231.012E-03     278.212E-03    -253.629E-03     484.469E-03    -230.697E-03     233.028E-03
             629     10.7190E-03     114.934E-03    -27.9793E+06     46.9279E+06     72.0853E+06    -936.267E+03    -234.230E-03     465.222E-03    -230.992E-03     272.730E-03    -252.002E-03     482.852E-03    -230.659E-03     227.730E-03
             630     11.4343E-03     115.278E-03    -20.9866E+06     55.7215E+06     74.0312E+06     182.562E+03    -232.027E-03     462.945E-03    -230.919E-03     256.324E-03    -248.918E-03     479.745E-03    -230.599E-03     212.927E-03
             631     12.1496E-03     115.599E-03    -15.2312E+06     63.7684E+06     75.8184E+06    -19.6611E+03    -230.443E-03     461.293E-03    -230.850E-03     230.469E-03    -245.125E-03     475.927E-03    -230.541E-03     190.220E-03
             632     12.8661E-03     115.873E-03    -10.2925E+06     72.1366E+06     80.5857E+06    -67.9600E+03    -229.557E-03     460.370E-03    -230.813E-03     207.521E-03    -242.173E-03     472.971E-03    -230.500E-03     170.090E-03
             633     13.5786E-03     116.128E-03    -5.06546E+06     72.6466E+06      81.485E+06    -735.663E+03    -228.838E-03     459.617E-03    -230.779E-03     149.313E-03    -236.846E-03     467.628E-03    -230.469E-03     120.088E-03
             634     714.618E-06     113.240E-03    -121.509E+06    -281.872E+06    -119.731E+06     616.882E+03    -231.077E-03     461.972E-03    -230.895E-03     24.6223E-03    -231.192E-03     461.003E-03    -230.909E-03     21.7617E-03
             635     1.42882E-03     113.288E-03    -116.964E+06    -269.384E+06    -109.301E+06     958.845E+03    -231.324E-03     462.273E-03    -230.948E-03     45.2938E-03    -231.641E-03     461.535E-03    -230.935E-03     39.9632E-03
             636     2.14330E-03     113.365E-03    -112.034E+06    -257.420E+06    -95.0456E+06     1.32697E+06    -231.803E-03     462.802E-03    -230.998E-03     67.0364E-03    -232.462E-03     462.424E-03    -230.938E-03     59.0402E-03
             637     2.85744E-03     113.471E-03    -106.277E+06    -247.856E+06    -79.1444E+06     1.42931E+06    -232.450E-03     463.516E-03    -231.065E-03     88.9748E-03    -233.600E-03     463.637E-03    -230.947E-03     78.1277E-03
             638     3.57196E-03     113.607E-03    -99.4698E+06    -218.417E+06    -63.7712E+06     1.62175E+06    -233.051E-03     464.140E-03    -231.089E-03     110.973E-03    -234.887E-03     465.032E-03    -230.947E-03     97.0987E-03
             639     4.28650E-03     113.773E-03    -92.0461E+06    -176.936E+06    -47.7045E+06     1.82283E+06    -233.671E-03     464.746E-03    -231.075E-03     132.813E-03    -236.406E-03     466.665E-03    -230.924E-03     115.704E-03
             640     5.00130E-03     113.967E-03    -84.0874E+06    -144.862E+06    -30.7497E+06     2.11181E+06    -234.414E-03     465.484E-03    -231.070E-03     154.372E-03    -238.261E-03     468.607E-03    -230.892E-03     133.787E-03
             641     5.71558E-03     114.189E-03    -76.0881E+06    -119.147E+06    -13.8477E+06     2.45119E+06    -235.212E-03     466.290E-03    -231.078E-03     175.680E-03    -240.411E-03     470.836E-03    -230.864E-03     151.409E-03
             642     6.43052E-03     114.439E-03    -68.4639E+06    -74.3237E+06     4.00199E+06     2.80699E+06    -235.922E-03     466.993E-03    -231.071E-03     196.872E-03    -242.789E-03     473.342E-03    -230.844E-03     168.712E-03
             643     7.14445E-03     114.717E-03    -60.1675E+06    -14.2916E+06     21.8469E+06     2.56244E+06    -236.374E-03     467.414E-03    -231.040E-03     217.831E-03    -245.237E-03     475.949E-03    -230.823E-03     185.634E-03
             644     7.86003E-03     115.020E-03    -52.0742E+06     17.2507E+06     35.7107E+06     949.665E+03    -236.710E-03     467.730E-03    -231.020E-03     238.407E-03    -247.808E-03     478.601E-03    -230.791E-03     202.177E-03
             645     8.57394E-03     115.350E-03    -46.1581E+06     25.9666E+06     44.5124E+06    -1.11469E+06    -236.962E-03     467.965E-03    -231.003E-03     257.475E-03    -250.450E-03     481.253E-03    -230.751E-03     217.431E-03
             646     9.28936E-03     115.702E-03    -40.3136E+06     33.0687E+06     53.1474E+06    -1.22832E+06    -236.798E-03     467.783E-03    -230.985E-03     272.236E-03    -252.575E-03     483.381E-03    -230.709E-03     229.030E-03
             647     10.0041E-03     116.071E-03    -33.9839E+06     40.1702E+06     64.1170E+06    -1.03084E+06    -235.864E-03     466.838E-03    -230.974E-03     278.447E-03    -253.266E-03     484.076E-03    -230.662E-03     233.419E-03
             648     10.7198E-03     116.434E-03    -27.0777E+06     44.9405E+06     72.7049E+06    -1.83556E+06    -234.184E-03     465.132E-03    -230.948E-03     272.516E-03    -251.941E-03     482.742E-03    -230.610E-03     227.532E-03
             649     11.4352E-03     116.784E-03    -20.3644E+06     52.2295E+06     73.7421E+06    -973.653E+03    -232.284E-03     463.167E-03    -230.883E-03     256.392E-03    -249.178E-03     479.961E-03    -230.561E-03     212.927E-03
             650     12.1499E-03     117.100E-03    -13.1787E+06     64.3560E+06     77.3530E+06     756.435E+03    -230.677E-03     461.509E-03    -230.832E-03     230.714E-03    -245.382E-03     476.171E-03    -230.519E-03     190.425E-03
             651     12.8644E-03     117.376E-03    -7.56950E+06     73.4291E+06     82.0412E+06     162.138E+03    -229.402E-03     460.197E-03    -230.795E-03     207.504E-03    -242.002E-03     472.793E-03    -230.480E-03     170.096E-03
             652     13.5822E-03     117.631E-03    -4.83027E+06     72.3712E+06     80.8975E+06    -962.958E+03    -229.089E-03     459.849E-03    -230.760E-03     148.958E-03    -237.083E-03     467.848E-03    -230.454E-03     119.706E-03
             653     714.005E-06     114.744E-03    -118.788E+06    -282.143E+06    -117.277E+06    -343.808E+03    -231.365E-03     462.336E-03    -230.972E-03     24.5948E-03    -231.469E-03     461.358E-03    -230.977E-03     21.7163E-03
             654     1.42858E-03     114.791E-03    -115.886E+06    -271.141E+06    -108.816E+06    -5.70866E+03    -231.387E-03     462.488E-03    -231.101E-03     45.3523E-03    -231.697E-03     461.740E-03    -231.084E-03     40.0111E-03
             655     2.14296E-03     114.868E-03    -111.144E+06    -259.644E+06    -94.8991E+06     978.048E+03    -231.808E-03     462.915E-03    -231.107E-03     67.1201E-03    -232.459E-03     462.525E-03    -231.044E-03     59.1185E-03
             656     2.85755E-03     114.975E-03    -104.948E+06    -249.422E+06    -78.0369E+06     1.72339E+06    -232.382E-03     463.522E-03    -231.140E-03     89.0827E-03    -233.525E-03     463.632E-03    -231.016E-03     78.2464E-03
             657     3.57183E-03     115.111E-03    -97.9352E+06    -219.255E+06    -61.9683E+06     1.99923E+06    -233.040E-03     464.180E-03    -231.140E-03     111.004E-03    -234.869E-03     465.063E-03    -230.990E-03     97.1363E-03
             658     4.28641E-03     115.276E-03    -90.3825E+06    -177.621E+06    -46.4616E+06     1.75641E+06    -233.716E-03     464.833E-03    -231.118E-03     132.745E-03    -236.442E-03     466.743E-03    -230.961E-03     115.634E-03
             659     5.00073E-03     115.471E-03    -82.7236E+06    -146.098E+06    -30.2552E+06     1.58972E+06    -234.468E-03     465.578E-03    -231.110E-03     154.400E-03    -238.307E-03     468.692E-03    -230.930E-03     133.803E-03
             660     5.71557E-03     115.693E-03    -74.8947E+06    -121.102E+06    -13.6852E+06     2.25063E+06    -235.266E-03     466.383E-03    -231.118E-03     175.845E-03    -240.458E-03     470.920E-03    -230.902E-03     151.566E-03
             661     6.42977E-03     115.943E-03    -66.2794E+06    -75.9869E+06     4.82179E+06     2.87530E+06    -235.842E-03     466.945E-03    -231.103E-03     197.068E-03    -242.696E-03     473.280E-03    -230.873E-03     168.931E-03
             662     7.14519E-03     116.221E-03    -57.5424E+06    -13.5713E+06     24.1610E+06     2.84457E+06    -236.225E-03     467.281E-03    -231.057E-03     218.048E-03    -245.075E-03     475.809E-03    -230.833E-03     185.900E-03
             663     7.85916E-03     116.524E-03    -49.5147E+06     20.2875E+06     37.5806E+06     2.95921E+06    -236.594E-03     467.608E-03    -231.014E-03     238.625E-03    -247.697E-03     478.498E-03    -230.784E-03     202.421E-03
             664     8.57511E-03     116.854E-03    -41.7749E+06     29.4382E+06     47.5623E+06     3.99194E+06    -236.784E-03     467.768E-03    -230.984E-03     257.807E-03    -250.276E-03     481.079E-03    -230.728E-03     217.840E-03
             665     9.28959E-03     117.207E-03    -35.7141E+06     35.1365E+06     57.9964E+06     3.91381E+06    -236.574E-03     467.530E-03    -230.956E-03     272.522E-03    -252.324E-03     483.110E-03    -230.666E-03     229.480E-03
             666     10.0056E-03     117.573E-03    -29.4947E+06     44.2023E+06     69.5010E+06     2.01957E+06    -235.776E-03     466.707E-03    -230.931E-03     278.420E-03    -253.138E-03     483.920E-03    -230.605E-03     233.516E-03
             667     10.7201E-03     117.940E-03    -23.6521E+06     47.3837E+06     76.5778E+06     645.532E+03    -234.292E-03     465.196E-03    -230.905E-03     272.451E-03    -252.053E-03     482.819E-03    -230.556E-03     227.456E-03
             668     11.4349E-03     118.285E-03    -18.3215E+06     51.3806E+06     75.7068E+06     560.226E+03    -232.535E-03     463.387E-03    -230.852E-03     256.395E-03    -249.441E-03     480.191E-03    -230.522E-03     212.894E-03
             669     12.1508E-03     118.605E-03    -13.9666E+06     62.5803E+06     77.2449E+06     309.749E+03    -230.929E-03     461.744E-03    -230.815E-03     230.392E-03    -245.635E-03     476.399E-03    -230.499E-03     190.055E-03
             670     12.8660E-03     118.880E-03    -9.56057E+06     73.9156E+06     81.1764E+06     8.31441E+03    -230.036E-03     460.840E-03    -230.804E-03     206.534E-03    -242.648E-03     473.446E-03    -230.491E-03     168.965E-03
             671     13.5796E-03     119.131E-03    -3.92795E+06     74.4053E+06     81.1231E+06    -201.548E+03    -229.567E-03     460.370E-03    -230.803E-03     148.224E-03    -237.540E-03     468.358E-03    -230.500E-03     118.952E-03
             672     714.353E-06     116.248E-03    -116.594E+06    -281.580E+06    -115.344E+06    -332.038E+03    -231.376E-03     462.487E-03    -231.110E-03     24.3137E-03    -231.473E-03     461.505E-03    -231.110E-03     21.4544E-03
             673     1.42850E-03     116.295E-03    -115.086E+06    -272.746E+06    -107.978E+06     261.535E+03    -231.449E-03     462.620E-03    -231.171E-03     45.5413E-03    -231.754E-03     461.862E-03    -231.149E-03     40.2115E-03
             674     2.14275E-03     116.372E-03    -110.414E+06    -261.773E+06    -93.8012E+06     1.04271E+06    -231.836E-03     463.006E-03    -231.170E-03     67.3048E-03    -232.485E-03     462.605E-03    -231.099E-03     59.2937E-03
             675     2.85715E-03     116.478E-03    -104.267E+06    -251.466E+06    -77.4214E+06     1.58406E+06    -232.369E-03     463.555E-03    -231.185E-03     89.1967E-03    -233.507E-03     463.654E-03    -231.057E-03     78.3531E-03
             676     3.57180E-03     116.615E-03    -97.1776E+06    -220.773E+06    -62.0252E+06     1.70486E+06    -233.020E-03     464.188E-03    -231.167E-03     111.140E-03    -234.844E-03     465.063E-03    -231.016E-03     97.2722E-03
             677     4.28608E-03     116.780E-03    -89.9316E+06    -178.342E+06    -46.6033E+06     1.70806E+06    -233.759E-03     464.896E-03    -231.137E-03     132.993E-03    -236.483E-03     466.803E-03    -230.981E-03     115.886E-03
             678     5.00088E-03     116.974E-03    -82.7773E+06    -146.127E+06    -29.6899E+06     1.82607E+06    -234.520E-03     465.653E-03    -231.133E-03     154.645E-03    -238.362E-03     468.769E-03    -230.950E-03     134.057E-03
             679     5.71524E-03     117.197E-03    -75.3104E+06    -122.098E+06    -13.2602E+06     1.64841E+06    -235.231E-03     466.369E-03    -231.138E-03     176.111E-03    -240.430E-03     470.905E-03    -230.918E-03     151.822E-03
             680     6.43018E-03     117.447E-03    -67.8721E+06    -78.0037E+06     3.57956E+06     1.84042E+06    -235.739E-03     466.846E-03    -231.107E-03     197.227E-03    -242.600E-03     473.178E-03    -230.877E-03     169.080E-03
             681     7.14453E-03     117.724E-03    -60.5688E+06    -14.2053E+06     22.1847E+06     2.41073E+06    -236.038E-03     467.078E-03    -231.040E-03     218.165E-03    -244.892E-03     475.603E-03    -230.821E-03     186.054E-03
             682     7.86043E-03     118.028E-03    -53.4448E+06     19.0323E+06     34.8514E+06     2.33179E+06    -236.394E-03     467.372E-03    -230.979E-03     238.737E-03    -247.509E-03     478.265E-03    -230.754E-03     202.564E-03
             683     8.57456E-03     118.357E-03    -46.6734E+06     26.8663E+06     41.6382E+06     2.38007E+06    -236.684E-03     467.612E-03    -230.929E-03     257.540E-03    -250.195E-03     480.932E-03    -230.692E-03     217.524E-03
             684     9.29084E-03     118.710E-03    -38.6619E+06     35.8544E+06     51.7073E+06     2.61518E+06    -236.531E-03     467.429E-03    -230.898E-03     271.786E-03    -252.285E-03     483.023E-03    -230.636E-03     228.657E-03
             685     10.0051E-03     119.076E-03    -31.7154E+06     45.0107E+06     65.6961E+06     2.40866E+06    -235.655E-03     466.547E-03    -230.892E-03     277.598E-03    -253.001E-03     483.750E-03    -230.583E-03     232.669E-03
             686     10.7210E-03     119.442E-03    -25.3086E+06     48.9862E+06     76.3442E+06     2.15446E+06    -234.235E-03     465.121E-03    -230.886E-03     271.644E-03    -251.968E-03     482.717E-03    -230.539E-03     226.695E-03
             687     11.4364E-03     119.790E-03    -19.5510E+06     52.9801E+06     76.2471E+06     1.59169E+06    -232.710E-03     463.560E-03    -230.850E-03     255.704E-03    -249.617E-03     480.364E-03    -230.517E-03     212.156E-03
             688     12.1497E-03     120.109E-03    -15.0800E+06     63.6598E+06     77.3655E+06     952.758E+03    -231.303E-03     462.138E-03    -230.835E-03     229.612E-03    -246.016E-03     476.799E-03    -230.518E-03     189.152E-03
             689     12.8646E-03     120.382E-03    -8.99425E+06     75.7979E+06     82.3805E+06    -141.850E+03    -230.211E-03     461.053E-03    -230.843E-03     206.830E-03    -242.821E-03     473.662E-03    -230.528E-03     169.266E-03
             690     13.5776E-03     120.643E-03    -3.84760E+06     73.9411E+06     81.5313E+06    -462.560E+03    -228.916E-03     459.739E-03    -230.823E-03     149.949E-03    -236.906E-03     467.742E-03    -230.517E-03     120.791E-03
             691     714.074E-06     117.752E-03    -117.303E+06    -283.167E+06    -114.508E+06     1.06492E+06    -231.348E-03     462.367E-03    -231.019E-03     24.4681E-03    -231.448E-03     461.378E-03    -231.010E-03     21.6120E-03
             692     1.42851E-03     117.799E-03    -115.348E+06    -274.392E+06    -106.843E+06     1.27295E+06    -231.477E-03     462.611E-03    -231.134E-03     45.6191E-03    -231.783E-03     461.843E-03    -231.104E-03     40.2982E-03
             693     2.14303E-03     117.876E-03    -110.738E+06    -263.196E+06    -93.6977E+06     1.29838E+06    -231.872E-03     463.026E-03    -231.154E-03     67.4175E-03    -232.520E-03     462.618E-03    -231.080E-03     59.4129E-03
             694     2.85734E-03     117.983E-03    -103.987E+06    -252.394E+06    -77.4280E+06     1.39818E+06    -232.443E-03     463.627E-03    -231.183E-03     89.3393E-03    -233.581E-03     463.723E-03    -231.054E-03     78.4805E-03
             695     3.57164E-03     118.118E-03    -97.3974E+06    -221.824E+06    -62.2822E+06     1.78847E+06    -233.033E-03     464.207E-03    -231.174E-03     111.225E-03    -234.858E-03     465.079E-03    -231.022E-03     97.3472E-03
             696     4.28654E-03     118.284E-03    -90.7839E+06    -178.882E+06    -46.6244E+06     2.24758E+06    -233.714E-03     464.855E-03    -231.141E-03     133.016E-03    -236.440E-03     466.759E-03    -230.983E-03     115.926E-03
             697     5.00072E-03     118.478E-03    -83.7364E+06    -146.983E+06    -30.0354E+06     2.34854E+06    -234.473E-03     465.601E-03    -231.129E-03     154.727E-03    -238.320E-03     468.716E-03    -230.944E-03     134.143E-03
             698     5.71547E-03     118.701E-03    -76.8775E+06    -122.474E+06    -13.8794E+06     2.62271E+06    -235.154E-03     466.278E-03    -231.124E-03     176.228E-03    -240.363E-03     470.820E-03    -230.905E-03     151.948E-03
             699     6.43002E-03     118.951E-03    -69.8648E+06    -78.5366E+06     2.43657E+06     2.64200E+06    -235.660E-03     466.744E-03    -231.084E-03     197.304E-03    -242.529E-03     473.079E-03    -230.856E-03     169.183E-03
             700     7.14532E-03     119.228E-03    -62.2817E+06    -15.4592E+06     19.5421E+06     2.78468E+06    -235.978E-03     466.984E-03    -231.006E-03     218.121E-03    -244.844E-03     475.518E-03    -230.796E-03     185.995E-03
             701     7.85983E-03     119.531E-03    -54.7509E+06     17.9297E+06     32.9519E+06     3.97174E+06    -236.347E-03     467.294E-03    -230.947E-03     238.507E-03    -247.448E-03     478.168E-03    -230.729E-03     202.389E-03
             702     8.57586E-03     119.861E-03    -47.3978E+06     28.2705E+06     43.5691E+06     2.90061E+06    -236.800E-03     467.718E-03    -230.918E-03     257.406E-03    -250.314E-03     481.038E-03    -230.673E-03     217.393E-03
             703     9.28929E-03     120.212E-03    -41.1778E+06     35.8772E+06     53.5030E+06     1.03021E+06    -236.764E-03     467.674E-03    -230.910E-03     271.758E-03    -252.565E-03     483.301E-03    -230.635E-03     228.507E-03
             704     10.0053E-03     120.579E-03    -34.0144E+06     44.7224E+06     66.0842E+06     1.44203E+06    -235.934E-03     466.854E-03    -230.920E-03     277.257E-03    -253.295E-03     484.061E-03    -230.605E-03     232.264E-03
             705     10.7199E-03     120.945E-03    -26.4483E+06     50.0319E+06     75.4638E+06     1.98351E+06    -234.512E-03     465.439E-03    -230.928E-03     271.171E-03    -252.245E-03     483.038E-03    -230.584E-03     226.138E-03
             706     11.4341E-03     121.293E-03    -19.7835E+06     52.2493E+06     74.3485E+06     1.64029E+06    -232.657E-03     463.555E-03    -230.898E-03     255.087E-03    -249.543E-03     480.341E-03    -230.573E-03     211.492E-03
             707     12.1502E-03     121.612E-03     -12.558E+06     64.7653E+06     77.8124E+06     749.581E+03    -230.908E-03     461.780E-03    -230.872E-03     230.066E-03    -245.588E-03     476.420E-03    -230.559E-03     189.715E-03
             708     12.8631E-03     121.890E-03    -7.95841E+06     75.5735E+06     82.6100E+06     119.316E+03    -229.290E-03     460.128E-03    -230.838E-03     207.582E-03    -241.895E-03     472.734E-03    -230.523E-03     170.174E-03
             709     13.5826E-03     122.138E-03    -3.66868E+06     74.1753E+06     82.8871E+06     719.735E+03    -228.615E-03     459.404E-03    -230.790E-03     149.552E-03    -236.599E-03     467.398E-03    -230.477E-03     120.490E-03
             710     714.648E-06     119.256E-03    -119.299E+06    -287.949E+06    -116.862E+06     2.29254E+06    -231.436E-03     462.274E-03    -230.839E-03     24.4507E-03    -231.535E-03     461.267E-03    -230.833E-03     21.6088E-03
             711     1.42875E-03     119.303E-03    -115.536E+06    -274.719E+06    -106.475E+06     1.68541E+06    -231.492E-03     462.599E-03    -231.107E-03     45.3404E-03    -231.798E-03     461.828E-03    -231.073E-03     40.0225E-03
             712     2.14291E-03     119.380E-03    -110.474E+06    -264.139E+06    -93.5680E+06     1.09215E+06    -231.879E-03     463.022E-03    -231.142E-03     67.2738E-03    -232.525E-03     462.609E-03    -231.067E-03     59.2613E-03
             713     2.85736E-03     119.486E-03    -104.404E+06    -253.952E+06    -78.1859E+06     1.51048E+06    -232.448E-03     463.624E-03    -231.176E-03     89.1921E-03    -233.585E-03     463.716E-03    -231.048E-03     78.3192E-03
             714     3.57182E-03     119.622E-03    -97.6737E+06    -223.415E+06    -62.6924E+06     2.27584E+06    -233.052E-03     464.225E-03    -231.173E-03     111.151E-03    -234.876E-03     465.092E-03    -231.021E-03     97.2690E-03
             715     4.28592E-03     119.788E-03    -90.9160E+06    -180.014E+06    -47.4987E+06     2.89405E+06    -233.666E-03     464.802E-03    -231.135E-03     133.105E-03    -236.393E-03     466.705E-03    -230.980E-03     116.016E-03
             716     5.00100E-03     119.982E-03    -84.0433E+06    -148.355E+06    -31.2449E+06     3.30799E+06    -234.376E-03     465.487E-03    -231.111E-03     154.787E-03    -238.221E-03     468.598E-03    -230.930E-03     134.225E-03
             717     5.71560E-03     120.204E-03    -76.6343E+06    -124.526E+06    -15.2886E+06     4.05307E+06    -235.072E-03     466.168E-03    -231.096E-03     176.107E-03    -240.272E-03     470.698E-03    -230.881E-03     151.861E-03
             718     6.43051E-03     120.454E-03    -69.4432E+06    -79.3396E+06     2.11035E+06     5.07200E+06    -235.570E-03     466.623E-03    -231.053E-03     197.188E-03    -242.433E-03     472.952E-03    -230.826E-03     169.112E-03
             719     7.14515E-03     120.731E-03    -63.0627E+06    -15.8200E+06     19.9269E+06     5.04304E+06    -236.010E-03     466.990E-03    -230.980E-03     218.078E-03    -244.880E-03     475.522E-03    -230.766E-03     185.984E-03
             720     7.86054E-03     121.034E-03    -55.3799E+06     18.5356E+06     33.2220E+06     3.30743E+06    -236.537E-03     467.470E-03    -230.932E-03     238.498E-03    -247.656E-03     478.361E-03    -230.713E-03     202.309E-03
             721     8.57473E-03     121.363E-03    -46.5835E+06     29.2070E+06     44.4569E+06     2.55897E+06    -236.951E-03     467.872E-03    -230.922E-03     257.315E-03    -250.460E-03     481.191E-03    -230.674E-03     217.270E-03
             722     9.29111E-03     121.718E-03    -37.8398E+06     37.7887E+06     57.4947E+06     3.77169E+06    -236.957E-03     467.896E-03    -230.939E-03     271.237E-03    -252.730E-03     483.502E-03    -230.652E-03     228.025E-03
             723     10.0046E-03     122.082E-03    -31.1115E+06     46.2474E+06     69.3552E+06     3.99375E+06    -236.184E-03     467.150E-03    -230.966E-03     276.951E-03    -253.543E-03     484.361E-03    -230.641E-03     231.940E-03
             724     10.7192E-03     122.450E-03    -25.6806E+06     50.7419E+06     76.4656E+06     2.50565E+06    -234.558E-03     465.529E-03    -230.971E-03     271.991E-03    -252.313E-03     483.151E-03    -230.625E-03     226.967E-03
             725     11.4343E-03     122.797E-03    -19.2702E+06     54.2225E+06     75.9928E+06     629.389E+03    -232.561E-03     463.488E-03    -230.927E-03     256.698E-03    -249.485E-03     480.315E-03    -230.598E-03     213.162E-03
             726     12.1479E-03     123.116E-03    -14.3852E+06     64.0816E+06     77.3497E+06     542.992E+03    -230.605E-03     461.479E-03    -230.874E-03     230.764E-03    -245.315E-03     476.142E-03    -230.560E-03     190.457E-03
             727     12.8673E-03     123.390E-03    -9.66841E+06     76.0054E+06     82.8045E+06     1.62204E+06    -229.465E-03     460.305E-03    -230.840E-03     206.032E-03    -242.037E-03     472.873E-03    -230.522E-03     168.655E-03
             728     13.5782E-03     123.645E-03    -4.13535E+06     75.8049E+06     83.3981E+06     857.419E+03    -228.629E-03     459.432E-03    -230.803E-03     148.188E-03    -236.577E-03     467.393E-03    -230.490E-03     119.095E-03
             729     713.999E-06     120.760E-03    -115.017E+06    -291.563E+06    -115.913E+06     141.267E+03    -231.405E-03     462.424E-03    -231.019E-03     24.5737E-03    -231.479E-03     461.391E-03    -231.009E-03     21.6899E-03
             730     1.42841E-03     120.807E-03    -112.859E+06    -275.893E+06    -108.923E+06     602.526E+03    -231.491E-03     462.628E-03    -231.137E-03     45.2727E-03    -231.780E-03     461.853E-03    -231.118E-03     39.9226E-03
             731     2.14296E-03     120.884E-03    -109.472E+06    -265.745E+06    -94.2616E+06     1.41989E+06    -231.857E-03     463.018E-03    -231.161E-03     67.2600E-03    -232.494E-03     462.597E-03    -231.088E-03     59.2431E-03
             732     2.85722E-03     120.990E-03    -104.322E+06    -255.997E+06    -78.5113E+06     1.98490E+06    -232.375E-03     463.555E-03    -231.180E-03     89.2558E-03    -233.508E-03     463.636E-03    -231.050E-03     78.4021E-03
             733     3.57162E-03     121.126E-03    -97.5595E+06    -225.487E+06    -63.8187E+06     2.42791E+06    -232.986E-03     464.141E-03    -231.155E-03     111.280E-03    -234.805E-03     464.999E-03    -231.006E-03     97.4119E-03
             734     4.28666E-03     121.291E-03    -90.6742E+06    -182.788E+06    -49.2408E+06     3.24934E+06    -233.668E-03     464.777E-03    -231.110E-03     133.161E-03    -236.390E-03     466.671E-03    -230.959E-03     116.070E-03
             735     5.00091E-03     121.486E-03    -83.5910E+06    -150.675E+06    -32.6634E+06     4.36453E+06    -234.356E-03     465.443E-03    -231.086E-03     154.765E-03    -238.190E-03     468.540E-03    -230.910E-03     134.232E-03
             736     5.71567E-03     121.708E-03    -76.6860E+06    -126.430E+06    -15.9553E+06     4.68515E+06    -235.005E-03     466.077E-03    -231.072E-03     176.060E-03    -240.198E-03     470.595E-03    -230.857E-03     151.844E-03
             737     6.43046E-03     121.957E-03    -68.5357E+06    -81.9500E+06     1.79473E+06     5.06934E+06    -235.621E-03     466.652E-03    -231.031E-03     197.062E-03    -242.473E-03     472.965E-03    -230.804E-03     168.980E-03
             738     7.14574E-03     122.234E-03    -57.9094E+06    -15.8869E+06     22.3698E+06     5.87337E+06    -236.162E-03     467.138E-03    -230.976E-03     217.773E-03    -244.998E-03     475.647E-03    -230.757E-03     185.688E-03
             739     7.86027E-03     122.538E-03    -48.5817E+06     21.3735E+06     38.4026E+06     6.06205E+06    -236.702E-03     467.655E-03    -230.953E-03     238.101E-03    -247.802E-03     478.547E-03    -230.721E-03     201.891E-03
             740     8.57551E-03     122.868E-03    -42.4476E+06     30.7960E+06     48.3686E+06     5.83117E+06    -237.181E-03     468.141E-03    -230.960E-03     256.970E-03    -250.661E-03     481.439E-03    -230.701E-03     216.968E-03
             741     9.28863E-03     123.220E-03    -37.2412E+06     35.8787E+06     57.4540E+06     5.04001E+06    -236.971E-03     467.945E-03    -230.974E-03     271.317E-03    -252.708E-03     483.511E-03    -230.685E-03     228.199E-03
             742     10.0042E-03     123.588E-03    -30.3682E+06     45.3684E+06     69.2840E+06     4.73476E+06    -235.948E-03     466.931E-03    -230.982E-03     277.519E-03    -253.315E-03     484.150E-03    -230.658E-03     232.548E-03
             743     10.7196E-03     123.951E-03    -22.5159E+06     54.8301E+06     80.3937E+06     4.64781E+06    -234.252E-03     465.224E-03    -230.973E-03     272.275E-03    -252.016E-03     482.870E-03    -230.618E-03     227.318E-03
             744     11.4350E-03     124.302E-03    -17.7888E+06     57.6101E+06     80.1799E+06     4.33713E+06    -232.247E-03     463.160E-03    -230.913E-03     256.410E-03    -249.158E-03     479.980E-03    -230.570E-03     212.984E-03
             745     12.1520E-03     124.619E-03    -13.9985E+06     66.3369E+06     80.9971E+06     3.59326E+06    -231.090E-03     461.958E-03    -230.868E-03     230.559E-03    -245.780E-03     476.599E-03    -230.539E-03     190.307E-03
             746     12.8616E-03     124.895E-03    -9.53082E+06     80.5791E+06     85.3950E+06     1.68995E+06    -230.048E-03     460.903E-03    -230.854E-03     206.868E-03    -242.661E-03     473.520E-03    -230.531E-03     169.422E-03
             747     13.5799E-03     125.147E-03    -5.95948E+06     76.3843E+06     82.9210E+06     132.803E+03    -228.899E-03     459.730E-03    -230.830E-03     148.615E-03    -236.907E-03     467.747E-03    -230.518E-03     119.414E-03
             748     714.423E-06     122.264E-03    -115.462E+06    -290.827E+06    -114.622E+06    -689.138E+03    -231.286E-03     462.302E-03    -231.015E-03     25.0708E-03    -231.367E-03     461.272E-03    -230.999E-03     22.1664E-03
             749     1.42863E-03     122.311E-03    -115.114E+06    -278.365E+06    -109.379E+06     109.549E+03    -231.501E-03     462.592E-03    -231.091E-03     45.6122E-03    -231.798E-03     461.809E-03    -231.067E-03     40.2558E-03
             750     2.14277E-03     122.387E-03    -111.197E+06    -268.469E+06    -96.3493E+06     1.21627E+06    -231.850E-03     462.974E-03    -231.125E-03     67.4380E-03    -232.490E-03     462.546E-03    -231.056E-03     59.4177E-03
             751     2.85744E-03     122.494E-03    -105.358E+06    -257.727E+06    -80.2812E+06     1.88467E+06    -232.363E-03     463.510E-03    -231.147E-03     89.3153E-03    -233.496E-03     463.587E-03    -231.022E-03     78.4677E-03
             752     3.57211E-03     122.629E-03    -98.8243E+06    -227.530E+06    -65.4280E+06     2.38281E+06    -232.991E-03     464.120E-03    -231.130E-03     111.162E-03    -234.810E-03     464.971E-03    -230.984E-03     97.2899E-03
             753     4.28622E-03     122.795E-03    -91.6900E+06    -185.368E+06    -50.4576E+06     2.79078E+06    -233.648E-03     464.739E-03    -231.091E-03     133.025E-03    -236.366E-03     466.620E-03    -230.941E-03     115.939E-03
             754     5.00112E-03     122.989E-03    -84.3042E+06    -154.888E+06    -34.2407E+06     3.43530E+06    -234.337E-03     465.406E-03    -231.069E-03     154.620E-03    -238.166E-03     468.485E-03    -230.893E-03     134.071E-03
             755     5.71601E-03     123.211E-03    -75.8732E+06    -127.336E+06    -16.2941E+06     4.36300E+06    -235.110E-03     466.172E-03    -231.063E-03     175.822E-03    -240.292E-03     470.681E-03    -230.849E-03     151.596E-03
             756     6.43078E-03     123.461E-03    -67.5088E+06    -82.1093E+06     2.00417E+06     3.38359E+06    -235.830E-03     466.876E-03    -231.045E-03     196.671E-03    -242.675E-03     473.183E-03    -230.818E-03     168.528E-03
             757     7.14499E-03     123.738E-03    -60.3837E+06    -20.3834E+06     19.7864E+06     2.89394E+06    -236.315E-03     467.325E-03    -231.010E-03     217.411E-03    -245.150E-03     475.817E-03    -230.794E-03     185.238E-03
             758     7.85989E-03     124.042E-03    -52.8804E+06     17.1150E+06     33.7206E+06     4.34932E+06    -236.784E-03     467.775E-03    -230.990E-03     237.883E-03    -247.869E-03     478.634E-03    -230.770E-03     201.690E-03
             759     8.57413E-03     124.372E-03    -44.7636E+06     29.4980E+06     43.6816E+06     6.71521E+06    -236.986E-03     467.969E-03    -230.982E-03     256.871E-03    -250.452E-03     481.254E-03    -230.742E-03     216.935E-03
             760     9.29015E-03     124.726E-03    -37.5697E+06     36.8446E+06     55.9858E+06     7.00219E+06    -236.612E-03     467.593E-03    -230.981E-03     271.501E-03    -252.348E-03     483.164E-03    -230.700E-03     228.451E-03
             761     10.0051E-03     125.089E-03    -31.5921E+06     47.1238E+06     70.1689E+06     5.01151E+06    -235.770E-03     466.749E-03    -230.979E-03     277.517E-03    -253.127E-03     483.958E-03    -230.651E-03     232.608E-03
             762     10.7198E-03     125.457E-03    -27.0056E+06     53.6396E+06     78.8116E+06     4.69055E+06    -234.341E-03     465.307E-03    -230.967E-03     271.659E-03    -252.111E-03     482.943E-03    -230.611E-03     226.668E-03
             763     11.4348E-03     125.802E-03    -20.4770E+06     57.1179E+06     80.4046E+06     5.29078E+06    -232.639E-03     463.577E-03    -230.938E-03     255.337E-03    -249.555E-03     480.390E-03    -230.589E-03     211.789E-03
             764     12.1481E-03     126.124E-03    -13.5870E+06     70.2204E+06     82.9225E+06     4.19701E+06    -230.731E-03     461.632E-03    -230.901E-03     229.538E-03    -245.393E-03     476.255E-03    -230.569E-03     189.303E-03
             765     12.8675E-03     126.401E-03    -8.34830E+06     83.9289E+06     86.6403E+06     2.94291E+06    -229.375E-03     460.234E-03    -230.859E-03     205.986E-03    -241.924E-03     472.800E-03    -230.535E-03     168.751E-03
             766     13.5799E-03     126.649E-03    -3.82445E+06     78.9695E+06     85.9389E+06     1.82629E+06    -229.056E-03     459.886E-03    -230.830E-03     148.921E-03    -237.033E-03     467.880E-03    -230.509E-03     119.806E-03
             767     714.487E-06     123.767E-03    -123.150E+06    -291.450E+06    -120.156E+06     752.073E+03    -231.121E-03     462.173E-03    -231.053E-03     24.4789E-03    -231.229E-03     461.159E-03    -231.052E-03     21.6121E-03
             768     1.42883E-03     123.814E-03    -119.412E+06    -279.648E+06    -109.938E+06     939.384E+03    -231.347E-03     462.387E-03    -231.040E-03     45.3414E-03    -231.660E-03     461.602E-03    -231.011E-03     40.0219E-03
             769     2.14331E-03     123.891E-03    -113.873E+06    -269.587E+06    -97.1729E+06     474.387E+03    -231.836E-03     462.898E-03    -231.062E-03     67.2997E-03    -232.486E-03     462.469E-03    -230.992E-03     59.2853E-03
             770     2.85751E-03     123.997E-03    -107.356E+06    -260.014E+06    -82.5733E+06     793.966E+03    -232.446E-03     463.551E-03    -231.105E-03     89.2999E-03    -233.583E-03     463.623E-03    -230.985E-03     78.4262E-03
             771     3.57163E-03     124.133E-03    -100.740E+06    -229.506E+06    -67.7396E+06     1.42833E+06    -233.067E-03     464.179E-03    -231.112E-03     111.165E-03    -234.892E-03     465.028E-03    -230.972E-03     97.2663E-03
             772     4.28663E-03     124.298E-03    -94.2301E+06    -187.239E+06    -52.5455E+06     1.87662E+06    -233.696E-03     464.786E-03    -231.090E-03     132.885E-03    -236.422E-03     466.665E-03    -230.945E-03     115.768E-03
             773     5.00116E-03     124.493E-03     -87.451E+06    -157.741E+06    -36.3589E+06     2.21947E+06    -234.467E-03     465.555E-03    -231.088E-03     154.259E-03    -238.299E-03     468.621E-03    -230.914E-03     133.685E-03
             774     5.71557E-03     124.714E-03    -80.2813E+06    -128.793E+06    -20.6511E+06     1.94026E+06    -235.246E-03     466.336E-03    -231.090E-03     175.505E-03    -240.438E-03     470.846E-03    -230.890E-03     151.225E-03
             775     6.42984E-03     124.965E-03    -73.4214E+06    -82.6605E+06    -2.93905E+06     2.12490E+06    -235.879E-03     466.959E-03    -231.080E-03     196.706E-03    -242.739E-03     473.274E-03    -230.869E-03     168.555E-03
             776     7.14471E-03     125.242E-03    -66.2421E+06    -22.4259E+06     15.9729E+06     2.51548E+06    -236.370E-03     467.423E-03    -231.053E-03     217.642E-03    -245.230E-03     475.922E-03    -230.844E-03     185.462E-03
             777     7.85934E-03     125.546E-03    -59.4864E+06     13.6935E+06     29.3666E+06     3.16717E+06    -236.734E-03     467.760E-03    -231.026E-03     238.240E-03    -247.828E-03     478.607E-03    -230.813E-03     202.091E-03
             778     8.57434E-03     125.876E-03    -53.4045E+06     23.3508E+06     37.1469E+06     3.12416E+06    -236.805E-03     467.805E-03    -231.000E-03     256.976E-03    -250.308E-03     481.094E-03    -230.771E-03     216.984E-03
             779     9.28912E-03     126.226E-03    -46.5009E+06     36.3937E+06     47.7607E+06     3.14948E+06    -236.597E-03     467.577E-03    -230.980E-03     271.018E-03    -252.375E-03     483.180E-03    -230.726E-03     227.832E-03
             780     10.0041E-03     126.595E-03    -39.3012E+06     48.5098E+06     62.3663E+06     3.59680E+06    -235.825E-03     466.814E-03    -230.989E-03     276.498E-03    -253.196E-03     484.036E-03    -230.690E-03     231.486E-03
             781     10.7196E-03     126.958E-03    -30.6656E+06     51.6631E+06     74.3890E+06     3.16308E+06    -234.460E-03     465.469E-03    -231.009E-03     270.713E-03    -252.213E-03     483.081E-03    -230.668E-03     225.634E-03
             782     11.4338E-03     127.309E-03    -23.1695E+06     55.6985E+06     78.4823E+06     2.50768E+06    -232.781E-03     463.783E-03    -231.002E-03     255.212E-03    -249.694E-03     480.584E-03    -230.657E-03     211.611E-03
             783     12.1490E-03     127.626E-03    -17.0116E+06     70.7989E+06     81.2045E+06     2.17957E+06    -230.604E-03     461.571E-03    -230.966E-03     228.887E-03    -245.314E-03     476.236E-03    -230.638E-03     188.542E-03
             784     12.8619E-03     127.899E-03    -10.3689E+06      84.354E+06     85.3176E+06     2.07074E+06    -228.438E-03     459.338E-03    -230.899E-03     205.471E-03    -241.006E-03     471.920E-03    -230.580E-03     168.232E-03
             785     13.5790E-03     128.157E-03    -5.03372E+06     80.6745E+06     86.0968E+06     1.22230E+06    -227.558E-03     458.368E-03    -230.809E-03     149.649E-03    -235.530E-03     466.358E-03    -230.489E-03     120.707E-03
             786     713.857E-06     125.270E-03    -118.995E+06    -293.771E+06    -118.774E+06     595.308E+03    -231.259E-03     462.320E-03    -231.061E-03     24.6269E-03    -231.346E-03     461.287E-03    -231.056E-03     21.7494E-03
             787     1.42861E-03     125.318E-03    -117.140E+06    -279.799E+06    -112.218E+06     116.303E+03    -231.339E-03     462.409E-03    -231.069E-03     45.2858E-03    -231.637E-03     461.623E-03    -231.055E-03     39.9537E-03
             788     2.14308E-03     125.394E-03    -113.537E+06    -270.221E+06    -98.7350E+06     511.550E+03    -231.796E-03     462.869E-03    -231.074E-03     67.0508E-03    -232.438E-03     462.436E-03    -231.011E-03     59.0436E-03
             789     2.85754E-03     125.501E-03    -108.489E+06    -261.424E+06    -83.3820E+06     868.611E+03    -232.417E-03     463.529E-03    -231.112E-03     89.0844E-03    -233.554E-03     463.594E-03    -230.992E-03     78.2211E-03
             790     3.57226E-03     125.637E-03    -102.387E+06    -231.215E+06    -69.2616E+06     1.34482E+06    -233.108E-03     464.226E-03    -231.118E-03     111.027E-03    -234.935E-03     465.070E-03    -230.981E-03     97.1255E-03
             791     4.28616E-03     125.802E-03    -95.8669E+06      -188.9E+06    -54.5951E+06     1.99858E+06    -233.846E-03     464.955E-03    -231.110E-03     132.744E-03    -236.573E-03     466.830E-03    -230.970E-03     115.614E-03
             792     5.00061E-03     125.996E-03    -88.8731E+06    -159.192E+06    -38.1494E+06     2.55936E+06    -234.587E-03     465.711E-03    -231.123E-03     154.387E-03    -238.418E-03     468.771E-03    -230.954E-03     133.831E-03
             793     5.71501E-03     126.219E-03    -82.3524E+06    -129.523E+06    -22.0102E+06     2.69381E+06    -235.327E-03     466.459E-03    -231.132E-03     175.901E-03    -240.530E-03     470.974E-03    -230.934E-03     151.632E-03
             794     6.43005E-03     126.468E-03    -75.3426E+06    -83.5507E+06    -5.14342E+06     2.81603E+06    -235.964E-03     467.083E-03    -231.119E-03     196.879E-03    -242.835E-03     473.405E-03    -230.914E-03     168.719E-03
             795     7.14461E-03     126.747E-03    -68.2696E+06    -24.2478E+06     13.4835E+06     3.81883E+06    -236.370E-03     467.462E-03    -231.091E-03     217.464E-03    -245.221E-03     475.945E-03    -230.890E-03     185.332E-03
             796     7.85924E-03     127.049E-03    -61.2436E+06     12.4064E+06     27.8459E+06     5.18244E+06    -236.619E-03     467.684E-03    -231.065E-03     237.663E-03    -247.726E-03     478.537E-03    -230.855E-03     201.485E-03
             797     8.57451E-03     127.379E-03    -53.6270E+06     25.4703E+06     38.8752E+06     5.03315E+06    -236.859E-03     467.911E-03    -231.052E-03     256.309E-03    -250.361E-03     481.200E-03    -230.817E-03     216.285E-03
             798     9.28889E-03     127.732E-03    -46.2954E+06     36.2842E+06     52.5919E+06     3.23250E+06    -236.878E-03     467.942E-03    -231.065E-03     270.730E-03    -252.645E-03     483.522E-03    -230.787E-03     227.538E-03
             799     10.0035E-03     128.097E-03    -37.7077E+06     48.2118E+06     67.5757E+06     2.27683E+06    -236.223E-03     467.318E-03    -231.094E-03     276.593E-03    -253.604E-03     484.540E-03    -230.772E-03     231.518E-03
             800     10.7173E-03     128.464E-03    -29.9021E+06     52.9441E+06     76.2716E+06     1.83121E+06    -234.606E-03     465.717E-03    -231.110E-03     270.806E-03    -252.385E-03     483.356E-03    -230.762E-03     225.644E-03
             801     11.4326E-03     128.810E-03    -23.2085E+06     54.8861E+06     78.0649E+06     1.39581E+06    -232.040E-03     463.113E-03    -231.073E-03     255.093E-03    -248.941E-03     479.901E-03    -230.729E-03     211.583E-03
             802     12.1478E-03     129.131E-03    -16.0068E+06     70.7702E+06     82.3531E+06     1.22957E+06    -229.642E-03     460.624E-03    -230.982E-03     230.140E-03    -244.306E-03     475.243E-03    -230.649E-03     190.113E-03
             803     12.8637E-03     129.404E-03    -9.87799E+06     84.2410E+06     86.5586E+06     1.05328E+06    -228.144E-03     459.010E-03    -230.866E-03     207.890E-03    -240.813E-03     471.692E-03    -230.541E-03     170.584E-03
             804     13.5821E-03     129.649E-03    -4.20210E+06     81.7868E+06     87.0616E+06     1.02057E+06    -227.715E-03     458.478E-03    -230.763E-03     150.989E-03    -235.781E-03     466.567E-03    -230.440E-03     121.908E-03
             805     714.805E-06     126.775E-03    -120.081E+06    -293.786E+06    -119.211E+06    -561.884E+03    -231.411E-03     462.251E-03    -230.840E-03     24.5299E-03    -231.502E-03     461.219E-03    -230.836E-03     21.6522E-03
             806     1.42859E-03     126.821E-03    -118.575E+06    -280.865E+06    -112.263E+06     547.951E+03    -231.508E-03     462.590E-03    -231.082E-03     45.3741E-03    -231.813E-03     461.803E-03    -231.064E-03     40.0281E-03
             807     2.14287E-03     126.898E-03    -115.234E+06    -271.740E+06    -100.095E+06     1.14014E+06    -231.879E-03     463.005E-03    -231.126E-03     67.1580E-03    -232.527E-03     462.570E-03    -231.066E-03     59.1464E-03
             808     2.85735E-03     127.004E-03    -110.002E+06    -262.536E+06    -84.5418E+06     1.68080E+06    -232.434E-03     463.600E-03    -231.166E-03     88.9804E-03    -233.574E-03     463.662E-03    -231.048E-03     78.1300E-03
             809     3.57144E-03     127.141E-03    -103.992E+06    -232.791E+06    -70.0507E+06     1.89691E+06    -233.089E-03     464.254E-03    -231.165E-03     110.946E-03    -234.918E-03     465.091E-03    -231.027E-03     97.0569E-03
             810     4.28633E-03     127.306E-03    -97.0136E+06    -190.704E+06    -55.5778E+06     2.19243E+06    -233.832E-03     464.977E-03    -231.145E-03     132.844E-03    -236.560E-03     466.844E-03    -231.005E-03     115.728E-03
             811     5.00068E-03     127.500E-03    -90.3094E+06    -161.505E+06    -39.3963E+06     2.83049E+06    -234.648E-03     465.804E-03    -231.156E-03     154.356E-03    -238.483E-03     468.860E-03    -230.988E-03     133.781E-03
             812     5.71564E-03     127.722E-03    -83.3823E+06    -131.034E+06    -22.9725E+06     3.72441E+06    -235.469E-03     466.643E-03    -231.175E-03     175.618E-03    -240.668E-03     471.148E-03    -230.979E-03     151.351E-03
             813     6.42936E-03     127.974E-03    -76.9669E+06    -84.8523E+06    -5.75662E+06     4.70101E+06    -236.088E-03     467.267E-03    -231.179E-03     196.485E-03    -242.962E-03     473.583E-03    -230.973E-03     168.320E-03
             814     7.14374E-03     128.249E-03    -70.5148E+06    -26.8895E+06     12.5179E+06     5.80821E+06    -236.430E-03     467.592E-03    -231.162E-03     217.073E-03    -245.285E-03     476.065E-03    -230.958E-03     184.932E-03
             815     7.85871E-03     128.554E-03    -62.3509E+06     11.8087E+06     27.4798E+06     4.95123E+06    -236.773E-03     467.917E-03    -231.144E-03     237.298E-03    -247.893E-03     478.778E-03    -230.933E-03     201.046E-03
             816     8.57259E-03     128.882E-03     -53.344E+06     26.8621E+06     39.0761E+06     3.34540E+06    -237.058E-03     468.202E-03    -231.144E-03     255.899E-03    -250.564E-03     481.501E-03    -230.910E-03     215.771E-03
             817     9.28809E-03     129.235E-03    -44.5317E+06     37.8210E+06     51.6515E+06     4.00466E+06    -236.864E-03     468.020E-03    -231.156E-03     270.072E-03    -252.598E-03     483.581E-03    -230.888E-03     226.888E-03
             818     10.0026E-03     129.602E-03    -38.2055E+06     50.5732E+06     65.9125E+06     3.03927E+06    -235.834E-03     467.001E-03    -231.167E-03     276.536E-03    -253.207E-03     484.226E-03    -230.855E-03     231.529E-03
             819     10.7176E-03     129.968E-03    -31.3354E+06     54.9053E+06     77.3172E+06    -302.607E+03    -233.914E-03     465.064E-03    -231.149E-03     272.039E-03    -251.707E-03     482.716E-03    -230.797E-03     227.041E-03
             820     11.4319E-03     130.314E-03    -22.0967E+06     54.1535E+06     80.5386E+06    -1.57855E+06    -231.372E-03     462.430E-03    -231.058E-03     256.798E-03    -248.275E-03     479.213E-03    -230.702E-03     213.509E-03
             821     12.1490E-03     130.630E-03    -14.4065E+06     67.6840E+06     83.4924E+06     260.789E+03    -229.030E-03     459.944E-03    -230.914E-03     230.579E-03    -243.679E-03     474.540E-03    -230.573E-03     190.676E-03
             822     12.8686E-03     130.903E-03    -8.94159E+06     83.5386E+06     87.6506E+06     1.72403E+06    -228.592E-03     459.385E-03    -230.794E-03     206.678E-03    -241.188E-03     471.992E-03    -230.464E-03     169.414E-03
             823     13.5795E-03     131.160E-03    -3.89317E+06     83.9564E+06     88.6744E+06     1.38880E+06    -228.364E-03     459.092E-03    -230.728E-03     149.408E-03    -236.377E-03     467.132E-03    -230.400E-03     120.288E-03
             824     713.980E-06     128.278E-03    -126.122E+06    -292.585E+06    -123.245E+06    -330.028E+03    -231.180E-03     462.220E-03    -231.041E-03     24.5258E-03    -231.298E-03     461.210E-03    -231.050E-03     21.6277E-03
             825     1.42869E-03     128.325E-03    -122.207E+06    -283.837E+06    -113.843E+06     665.923E+03    -231.508E-03     462.598E-03    -231.090E-03     45.3720E-03    -231.825E-03     461.804E-03    -231.070E-03     40.0217E-03
             826     2.14298E-03     128.402E-03    -117.118E+06    -273.522E+06    -100.247E+06     1.49443E+06    -232.000E-03     463.156E-03    -231.155E-03     67.1997E-03    -232.655E-03     462.714E-03    -231.090E-03     59.1888E-03
             827     2.85705E-03     128.508E-03    -110.896E+06    -264.287E+06    -84.9402E+06     1.64039E+06    -232.555E-03     463.772E-03    -231.217E-03     89.0899E-03    -233.698E-03     463.829E-03    -231.098E-03     78.2275E-03
             828     3.57175E-03     128.644E-03    -104.093E+06    -234.336E+06    -70.2506E+06     1.99103E+06    -233.179E-03     464.406E-03    -231.227E-03     110.968E-03    -235.006E-03     465.236E-03    -231.088E-03     97.0765E-03
             829     4.28589E-03     128.810E-03    -97.9330E+06    -193.725E+06    -56.2095E+06     2.62851E+06    -233.931E-03     465.146E-03    -231.215E-03     132.577E-03    -236.659E-03     467.002E-03    -231.073E-03     115.436E-03
             830     5.00054E-03     129.004E-03    -91.1715E+06    -163.911E+06    -40.3442E+06     3.91826E+06    -234.836E-03     466.077E-03    -231.240E-03     153.897E-03    -238.673E-03     469.125E-03    -231.072E-03     133.284E-03
             831     5.71396E-03     129.227E-03    -84.5338E+06    -133.138E+06    -23.7427E+06     4.76480E+06    -235.587E-03     466.863E-03    -231.275E-03     175.190E-03    -240.784E-03     471.356E-03    -231.079E-03     150.912E-03
             832     6.42900E-03     129.477E-03    -76.2967E+06    -87.6604E+06    -5.58467E+06     5.41790E+06    -236.050E-03     467.331E-03    -231.281E-03     196.181E-03    -242.903E-03     473.618E-03    -231.071E-03     168.052E-03
             833     7.14354E-03     129.755E-03    -66.2717E+06    -29.7036E+06     13.9979E+06     6.15258E+06    -236.468E-03     467.724E-03    -231.256E-03     216.960E-03    -245.305E-03     476.180E-03    -231.047E-03     184.799E-03
             834     7.85763E-03     130.057E-03    -57.5628E+06     13.0482E+06     31.0646E+06     6.93003E+06    -236.929E-03     468.169E-03    -231.240E-03     237.449E-03    -248.022E-03     479.014E-03    -231.020E-03     201.229E-03
             835     8.57287E-03     130.388E-03    -51.2671E+06     31.2713E+06     43.9088E+06     6.39215E+06    -237.194E-03     468.438E-03    -231.244E-03     256.281E-03    -250.701E-03     481.747E-03    -230.995E-03     216.228E-03
             836     9.28604E-03     130.739E-03    -45.6400E+06     39.0199E+06     53.2488E+06     3.90027E+06    -236.690E-03     467.922E-03    -231.232E-03     271.111E-03    -252.469E-03     483.523E-03    -230.956E-03     227.951E-03
             837     10.0013E-03     131.105E-03    -36.6150E+06     52.4668E+06     67.4379E+06     1.69405E+06    -235.203E-03     466.393E-03    -231.190E-03     277.866E-03    -252.591E-03     483.642E-03    -230.876E-03     232.974E-03
             838     10.7177E-03     131.469E-03    -26.4462E+06     61.9000E+06     81.8454E+06    -95.1709E+03    -233.027E-03     464.138E-03    -231.112E-03     272.212E-03    -250.767E-03     481.768E-03    -230.754E-03     227.451E-03
             839     11.4360E-03     131.817E-03    -19.8577E+06     55.2922E+06     82.4716E+06    -1.76243E+06    -230.957E-03     461.940E-03    -230.984E-03     255.299E-03    -247.788E-03     478.658E-03    -230.623E-03     212.112E-03
             840     12.1517E-03     132.132E-03    -14.9785E+06     59.5930E+06     81.9388E+06    -483.390E+03    -229.928E-03     460.799E-03    -230.871E-03     228.994E-03    -244.576E-03     475.368E-03    -230.526E-03     188.831E-03
             841     12.8625E-03     132.406E-03    -9.65996E+06     82.0464E+06     87.3701E+06     1.93666E+06    -229.138E-03     459.939E-03    -230.801E-03     206.446E-03    -241.744E-03     472.548E-03    -230.469E-03     169.056E-03
             842     13.5826E-03     132.660E-03    -4.77870E+06     87.7091E+06     88.6794E+06     1.88284E+06    -228.298E-03     459.042E-03    -230.744E-03     148.077E-03    -236.283E-03     467.065E-03    -230.421E-03     119.050E-03
             843     714.540E-06     129.782E-03     -124.74E+06    -292.974E+06    -123.143E+06     336.205E+03    -231.280E-03     462.304E-03    -231.024E-03     24.8685E-03    -231.391E-03     461.290E-03    -231.034E-03     21.9727E-03
             844     1.42861E-03     129.829E-03    -122.450E+06    -285.043E+06    -114.593E+06     135.317E+03    -231.573E-03     462.702E-03    -231.129E-03     45.4844E-03    -231.888E-03     461.903E-03    -231.111E-03     40.1301E-03
             845     2.14276E-03     129.906E-03    -117.548E+06    -276.083E+06    -101.608E+06     515.110E+03    -232.060E-03     463.261E-03    -231.201E-03     67.1060E-03    -232.711E-03     462.809E-03    -231.138E-03     59.0770E-03
             846     2.85723E-03     130.012E-03    -111.710E+06    -266.461E+06    -86.3076E+06     1.62751E+06    -232.700E-03     463.976E-03    -231.277E-03     88.9213E-03    -233.841E-03     464.026E-03    -231.160E-03     78.0390E-03
             847     3.57107E-03     130.149E-03    -105.224E+06    -236.573E+06    -71.5099E+06     2.01847E+06    -233.440E-03     464.759E-03    -231.319E-03     110.711E-03    -235.268E-03     465.581E-03    -231.181E-03     96.7858E-03
             848     4.28548E-03     130.314E-03    -97.8190E+06    -195.740E+06    -56.4504E+06     2.39714E+06    -234.203E-03     465.545E-03    -231.342E-03     132.424E-03    -236.927E-03     467.390E-03    -231.198E-03     115.257E-03
             849     4.99915E-03     130.509E-03    -90.1036E+06    -167.725E+06    -40.3366E+06     3.58495E+06    -234.944E-03     466.324E-03    -231.379E-03     153.976E-03    -238.774E-03     469.355E-03    -231.207E-03     133.335E-03
             850     5.71419E-03     130.731E-03    -81.0405E+06    -135.480E+06    -22.6266E+06     4.91889E+06    -235.571E-03     466.973E-03    -231.401E-03     175.208E-03    -240.748E-03     471.446E-03    -231.201E-03     150.935E-03
             851     6.42784E-03     130.982E-03    -72.5821E+06    -89.6830E+06    -4.34498E+06     4.96748E+06    -236.057E-03     467.446E-03    -231.389E-03     196.219E-03    -242.890E-03     473.716E-03    -231.176E-03     168.084E-03
             852     7.14243E-03     131.258E-03    -65.8862E+06    -34.3715E+06     14.1611E+06     5.71658E+06    -236.439E-03     467.793E-03    -231.354E-03     217.036E-03    -245.261E-03     476.218E-03    -231.137E-03     184.880E-03
             853     7.85753E-03     131.563E-03    -58.7414E+06     10.2626E+06     30.1825E+06     7.27852E+06    -236.735E-03     468.045E-03    -231.310E-03     237.587E-03    -247.806E-03     478.856E-03    -231.089E-03     201.462E-03
             854     8.57133E-03     131.892E-03    -49.7186E+06     33.0578E+06     43.3911E+06     7.65389E+06    -236.657E-03     467.918E-03    -231.261E-03     256.801E-03    -250.128E-03     481.204E-03    -231.020E-03     216.939E-03
             855     9.28789E-03     132.244E-03    -39.5223E+06     45.6150E+06     58.5858E+06     5.50823E+06    -236.126E-03     467.337E-03    -231.211E-03     271.612E-03    -251.901E-03     482.963E-03    -230.927E-03     228.562E-03
             856     10.0038E-03     132.607E-03    -31.6141E+06     57.2579E+06     74.8747E+06     2.24069E+06    -235.117E-03     466.277E-03    -231.160E-03     277.511E-03    -252.496E-03     483.530E-03    -230.823E-03     232.639E-03
             857     10.7191E-03     132.973E-03    -26.5676E+06     65.2607E+06     85.4578E+06     1.03753E+06    -233.302E-03     464.395E-03    -231.092E-03     270.713E-03    -251.028E-03     482.010E-03    -230.721E-03     225.919E-03
             858     11.4331E-03     133.315E-03    -22.1360E+06     56.7824E+06     83.0653E+06     1.01065E+06    -231.444E-03     462.441E-03    -230.997E-03     254.062E-03    -248.300E-03     479.180E-03    -230.632E-03     210.721E-03
             859     12.1483E-03     133.635E-03    -17.2569E+06     57.6979E+06     81.5224E+06     468.231E+03    -230.113E-03     461.026E-03    -230.914E-03     228.753E-03    -244.780E-03     475.601E-03    -230.565E-03     188.492E-03
             860     12.8677E-03     133.910E-03    -11.5418E+06     79.9163E+06     86.8444E+06     424.049E+03    -229.093E-03     459.941E-03    -230.849E-03     205.766E-03    -241.688E-03     472.528E-03    -230.513E-03     168.384E-03
             861     13.5788E-03     134.162E-03    -5.63966E+06     88.0715E+06     87.7878E+06     789.772E+03    -227.867E-03     458.641E-03    -230.774E-03     148.185E-03    -235.857E-03     466.669E-03    -230.454E-03     119.151E-03
             862     714.181E-06     131.285E-03    -125.197E+06    -294.578E+06    -123.346E+06     281.765E+03    -231.538E-03     462.580E-03    -231.043E-03     24.3857E-03    -231.647E-03     461.558E-03    -231.051E-03     21.5082E-03
             863     1.42843E-03     131.333E-03    -122.385E+06    -286.127E+06    -114.706E+06     1.05856E+06    -231.660E-03     462.919E-03    -231.259E-03     45.3580E-03    -231.973E-03     462.115E-03    -231.240E-03     40.0057E-03
             864     2.14267E-03     131.410E-03    -118.803E+06    -277.275E+06    -102.096E+06     1.23569E+06    -232.147E-03     463.465E-03    -231.318E-03     66.9733E-03    -232.802E-03     463.010E-03    -231.254E-03     58.9375E-03
             865     2.85658E-03     131.517E-03    -112.991E+06    -268.206E+06    -87.2044E+06     914.994E+03    -232.864E-03     464.260E-03    -231.396E-03     88.9376E-03    -234.010E-03     464.305E-03    -231.279E-03     78.0269E-03
             866     3.57081E-03     131.653E-03    -105.466E+06    -238.121E+06    -71.9912E+06     1.31759E+06    -233.641E-03     465.091E-03    -231.450E-03     110.818E-03    -235.470E-03     465.909E-03    -231.312E-03     96.8644E-03
             867     4.28451E-03     131.819E-03    -98.7510E+06    -197.326E+06    -56.9247E+06     2.03997E+06    -234.291E-03     465.767E-03    -231.476E-03     132.547E-03    -237.014E-03     467.604E-03    -231.331E-03     115.388E-03
             868     4.99916E-03     132.014E-03    -92.0695E+06    -170.177E+06    -41.5033E+06     1.74332E+06    -234.909E-03     466.404E-03    -231.495E-03     154.178E-03    -238.740E-03     469.425E-03    -231.322E-03     133.537E-03
             869     5.71265E-03     132.236E-03    -84.9971E+06    -138.477E+06    -26.4083E+06     1.39204E+06    -235.511E-03     466.996E-03    -231.485E-03     175.466E-03    -240.699E-03     471.467E-03    -231.293E-03     151.152E-03
             870     6.42784E-03     132.486E-03    -77.2252E+06    -93.8466E+06    -8.09971E+06     2.96025E+06    -236.049E-03     467.507E-03    -231.459E-03     196.513E-03    -242.891E-03     473.766E-03    -231.251E-03     168.369E-03
             871     7.14221E-03     132.763E-03    -68.1829E+06    -39.2567E+06     12.5621E+06     5.18757E+06    -236.397E-03     467.813E-03    -231.417E-03     217.380E-03    -245.212E-03     476.211E-03    -231.198E-03     185.264E-03
             872     7.85645E-03     133.066E-03    -58.3574E+06     8.77591E+06     30.5475E+06     5.53850E+06    -236.414E-03     467.761E-03    -231.347E-03     237.800E-03    -247.474E-03     478.556E-03    -231.122E-03     201.719E-03
             873     8.57294E-03     133.396E-03    -48.9721E+06     31.4229E+06     44.2392E+06     4.04586E+06    -236.317E-03     467.589E-03    -231.272E-03     256.285E-03    -249.780E-03     480.862E-03    -231.026E-03     216.376E-03
             874     9.28781E-03     133.745E-03    -41.8760E+06     46.6764E+06     57.1926E+06     3.88463E+06    -236.024E-03     467.234E-03    -231.210E-03     269.912E-03    -251.770E-03     482.831E-03    -230.931E-03     226.803E-03
             875     10.0026E-03     134.111E-03    -36.0275E+06     63.1104E+06     72.4935E+06     3.75466E+06    -235.037E-03     466.205E-03    -231.168E-03     275.219E-03    -252.361E-03     483.416E-03    -230.845E-03     230.377E-03
             876     10.7179E-03     134.474E-03    -29.3839E+06     65.3377E+06     83.7195E+06     2.72259E+06    -233.405E-03     464.535E-03    -231.130E-03     269.436E-03    -251.107E-03     482.122E-03    -230.763E-03     224.610E-03
             877     11.4343E-03     134.821E-03    -22.7331E+06     55.9448E+06     83.2909E+06     3.27376E+06    -231.732E-03     462.792E-03    -231.060E-03     254.068E-03    -248.608E-03     479.545E-03    -230.692E-03     210.660E-03
             878     12.1499E-03     135.137E-03    -16.7333E+06     62.9530E+06     83.3180E+06     2.12612E+06    -230.088E-03     461.067E-03    -230.979E-03     228.713E-03    -244.770E-03     475.672E-03    -230.630E-03     188.471E-03
             879     12.8615E-03     135.411E-03    -10.6022E+06     80.2048E+06     87.5308E+06    -592.886E+03    -228.388E-03     459.279E-03    -230.891E-03     205.958E-03    -240.959E-03     471.843E-03    -230.554E-03     168.719E-03
             880     13.5805E-03     135.666E-03    -4.60254E+06     86.0487E+06     88.9793E+06    -670.622E+03    -226.754E-03     457.523E-03    -230.769E-03     148.399E-03    -234.726E-03     465.527E-03    -230.442E-03     119.489E-03
             881     713.915E-06     132.790E-03    -125.707E+06    -296.839E+06    -123.733E+06     883.895E+03    -231.571E-03     462.972E-03    -231.401E-03     24.5691E-03    -231.680E-03     461.940E-03    -231.407E-03     21.6912E-03
             882     1.42810E-03     132.837E-03    -123.180E+06    -288.808E+06    -115.554E+06     1.10607E+06    -231.760E-03     463.194E-03    -231.433E-03     45.4676E-03    -232.073E-03     462.379E-03    -231.414E-03     40.1153E-03
             883     2.14213E-03     132.915E-03    -117.887E+06    -277.818E+06    -101.734E+06     1.42293E+06    -232.277E-03     463.745E-03    -231.468E-03     67.1331E-03    -232.928E-03     463.287E-03    -231.403E-03     59.0962E-03
             884     2.85637E-03     133.021E-03    -111.468E+06    -267.741E+06    -85.3401E+06     1.15917E+06    -232.997E-03     464.539E-03    -231.543E-03     89.1195E-03    -234.138E-03     464.582E-03    -231.419E-03     78.2131E-03
             885     3.57012E-03     133.158E-03    -105.319E+06    -239.493E+06    -71.2254E+06     1.16587E+06    -233.656E-03     465.236E-03    -231.580E-03     110.944E-03    -235.480E-03     466.043E-03    -231.437E-03     97.0098E-03
             886     4.28443E-03     133.324E-03    -98.1910E+06    -199.658E+06    -56.9957E+06     1.55693E+06    -234.247E-03     465.823E-03    -231.577E-03     132.630E-03    -236.962E-03     467.646E-03    -231.430E-03     115.477E-03
             887     4.99822E-03     133.518E-03    -90.3583E+06    -170.263E+06    -40.2205E+06     1.94873E+06    -234.866E-03     466.440E-03    -231.574E-03     154.260E-03    -238.684E-03     469.449E-03    -231.398E-03     133.651E-03
             888     5.71340E-03     133.741E-03    -83.1337E+06    -139.672E+06    -23.1444E+06     2.72876E+06    -235.531E-03     467.092E-03    -231.561E-03     175.543E-03    -240.713E-03     471.550E-03    -231.354E-03     151.244E-03
             889     6.42712E-03     133.990E-03    -75.9068E+06    -96.7012E+06    -6.46050E+06     3.07927E+06    -236.069E-03     467.594E-03    -231.525E-03     196.396E-03    -242.902E-03     473.833E-03    -231.307E-03     168.233E-03
             890     7.14189E-03     134.268E-03    -67.6458E+06    -42.1143E+06     11.7628E+06     2.61184E+06    -236.311E-03     467.777E-03    -231.467E-03     216.880E-03    -245.105E-03     476.148E-03    -231.249E-03     184.739E-03
             891     7.85745E-03     134.570E-03    -59.0356E+06     6.58380E+06     29.5795E+06     2.81890E+06    -236.434E-03     467.836E-03    -231.402E-03     236.635E-03    -247.489E-03     478.619E-03    -231.178E-03     200.432E-03
             892     8.57148E-03     134.898E-03    -52.0723E+06     31.2108E+06     42.5490E+06     3.91271E+06    -236.572E-03     467.923E-03    -231.351E-03     254.814E-03    -250.033E-03     481.187E-03    -231.108E-03     214.786E-03
             893     9.28618E-03     135.250E-03    -44.6807E+06     45.5810E+06     57.3714E+06     3.62481E+06    -236.215E-03     467.542E-03    -231.327E-03     268.773E-03    -251.919E-03     483.083E-03    -231.041E-03     225.673E-03
             894     10.0014E-03     135.613E-03    -35.8159E+06     63.1871E+06     74.6083E+06     3.81189E+06    -235.015E-03     466.312E-03    -231.297E-03     274.427E-03    -252.294E-03     483.472E-03    -230.964E-03     229.636E-03
             895     10.7173E-03     135.977E-03    -28.1618E+06     65.6497E+06     84.1286E+06     4.87170E+06    -233.280E-03     464.523E-03    -231.243E-03     268.623E-03    -250.955E-03     482.087E-03    -230.877E-03     223.807E-03
             896     11.4320E-03     136.322E-03    -21.0451E+06     56.6967E+06     83.5232E+06     3.70451E+06    -231.359E-03     462.515E-03    -231.156E-03     253.063E-03    -248.183E-03     479.224E-03    -230.790E-03     209.712E-03
             897     12.1466E-03     136.641E-03    -14.4983E+06     67.6060E+06     85.0972E+06     1.93249E+06    -229.119E-03     460.154E-03    -231.036E-03     228.363E-03    -243.738E-03     474.715E-03    -230.687E-03     188.349E-03
             898     12.8659E-03     136.914E-03    -9.13519E+06     83.4662E+06     89.5703E+06     820.319E+03    -227.091E-03     457.975E-03    -230.884E-03     206.330E-03    -239.661E-03     470.549E-03    -230.544E-03     169.301E-03
             899     13.5817E-03     137.162E-03    -4.45731E+06     85.5935E+06     90.4116E+06     287.795E+03    -226.646E-03     457.372E-03    -230.727E-03     148.584E-03    -234.630E-03     465.383E-03    -230.392E-03     119.742E-03
             900     714.153E-06     134.295E-03    -126.557E+06    -300.241E+06    -124.612E+06     1.03842E+06    -231.630E-03     463.147E-03    -231.517E-03     24.7024E-03    -231.737E-03     462.100E-03    -231.521E-03     21.8322E-03
             901     1.42793E-03     134.342E-03    -123.320E+06    -289.493E+06    -115.656E+06     855.650E+03    -231.932E-03     463.468E-03    -231.535E-03     45.5682E-03    -232.244E-03     462.649E-03    -231.515E-03     40.2255E-03
             902     2.14210E-03     134.419E-03    -117.931E+06    -278.058E+06    -102.025E+06     85.5338E+03    -232.465E-03     464.058E-03    -231.593E-03     67.4096E-03    -233.116E-03     463.598E-03    -231.529E-03     59.3591E-03
             903     2.85577E-03     134.527E-03    -111.612E+06    -269.370E+06    -86.5100E+06     350.060E+03    -233.080E-03     464.745E-03    -231.666E-03     89.2039E-03    -234.215E-03     464.780E-03    -231.546E-03     78.3018E-03
             904     3.56990E-03     134.663E-03    -104.803E+06    -240.867E+06    -71.1152E+06     1.24830E+06    -233.611E-03     465.297E-03    -231.686E-03     110.972E-03    -235.430E-03     466.095E-03    -231.541E-03     97.0489E-03
             905     4.28390E-03     134.829E-03    -98.2083E+06    -200.611E+06    -55.6680E+06     1.76063E+06    -234.234E-03     465.900E-03    -231.666E-03     132.567E-03    -236.949E-03     467.716E-03    -231.511E-03     115.406E-03
             906     4.99857E-03     135.023E-03    -92.1828E+06    -171.857E+06    -39.4166E+06     2.26862E+06    -234.976E-03     466.639E-03    -231.663E-03     153.887E-03    -238.800E-03     469.640E-03    -231.477E-03     133.247E-03
             907     5.71218E-03     135.245E-03    -84.9598E+06    -141.700E+06    -23.1787E+06     2.67273E+06    -235.652E-03     467.311E-03    -231.659E-03     174.940E-03    -240.835E-03     471.757E-03    -231.446E-03     150.596E-03
             908     6.42702E-03     135.496E-03    -77.3789E+06    -97.5615E+06    -6.15177E+06     2.88827E+06    -236.166E-03     467.802E-03    -231.636E-03     195.528E-03    -242.998E-03     474.031E-03    -231.413E-03     167.313E-03
             909     7.14132E-03     135.772E-03    -70.5056E+06    -41.4838E+06     11.7096E+06     2.63156E+06    -236.487E-03     468.082E-03    -231.595E-03     215.654E-03    -245.284E-03     476.448E-03    -231.374E-03     183.435E-03
             910     7.85512E-03     136.075E-03    -63.9403E+06     4.73337E+06     27.7401E+06     1.95993E+06    -236.705E-03     468.260E-03    -231.554E-03     235.481E-03    -247.754E-03     479.018E-03    -231.330E-03     199.209E-03
             911     8.57001E-03     136.403E-03    -55.3862E+06     28.3377E+06     40.1979E+06     1.62308E+06    -236.671E-03     468.187E-03    -231.516E-03     254.001E-03    -250.098E-03     481.402E-03    -231.276E-03     213.958E-03
             912     9.28507E-03     136.753E-03    -46.4084E+06     45.9133E+06     54.2681E+06     2.01713E+06    -236.025E-03     467.498E-03    -231.473E-03     268.057E-03    -251.689E-03     483.002E-03    -231.201E-03     224.997E-03
             913     10.0002E-03     137.116E-03    -39.1819E+06     59.9272E+06     70.4636E+06     2.75796E+06    -234.876E-03     466.305E-03    -231.429E-03     273.958E-03    -252.157E-03     483.455E-03    -231.107E-03     229.138E-03
             914     10.7149E-03     137.479E-03    -30.9544E+06     64.3761E+06     82.5310E+06     2.01730E+06    -233.133E-03     464.502E-03    -231.369E-03     268.863E-03    -250.841E-03     482.089E-03    -231.005E-03     223.981E-03
             915     11.4306E-03     137.825E-03    -22.3620E+06     59.1807E+06     83.6705E+06     1.00415E+06    -230.681E-03     461.928E-03    -231.247E-03     253.782E-03    -247.521E-03     478.656E-03    -230.882E-03     210.530E-03
             916     12.1480E-03     138.141E-03    -15.3082E+06     66.6229E+06     84.4012E+06     1.76311E+06    -228.129E-03     459.198E-03    -231.069E-03     227.986E-03    -242.716E-03     473.722E-03    -230.721E-03     188.180E-03
             917     12.8640E-03     138.410E-03    -9.98632E+06     85.7831E+06     89.8062E+06     2.14631E+06    -226.637E-03     457.516E-03    -230.879E-03     204.617E-03    -239.154E-03     470.042E-03    -230.540E-03     167.693E-03
             918     13.5818E-03     138.665E-03    -4.94614E+06     87.8240E+06     90.4387E+06     588.152E+03    -225.781E-03     456.474E-03    -230.693E-03     148.102E-03    -233.749E-03     464.474E-03    -230.361E-03     119.298E-03
             919     713.787E-06     135.800E-03    -123.336E+06    -303.722E+06    -122.159E+06     1.07485E+06    -231.832E-03     463.455E-03    -231.623E-03     24.5470E-03    -231.921E-03     462.383E-03    -231.614E-03     21.6771E-03
             920     1.42802E-03     135.847E-03    -121.320E+06    -290.246E+06    -115.018E+06     1.36056E+06    -232.108E-03     463.791E-03    -231.683E-03     45.3840E-03    -232.408E-03     462.963E-03    -231.661E-03     40.0490E-03
             921     2.14160E-03     135.925E-03    -118.411E+06    -278.362E+06    -101.682E+06     1.49963E+06    -232.582E-03     464.326E-03    -231.743E-03     67.2780E-03    -233.234E-03     463.864E-03    -231.676E-03     59.2502E-03
             922     2.85560E-03     136.032E-03    -113.711E+06    -268.580E+06    -86.1763E+06     459.727E+03    -233.094E-03     464.895E-03    -231.801E-03     89.0351E-03    -234.241E-03     464.935E-03    -231.678E-03     78.1250E-03
             923     3.56953E-03     136.169E-03    -107.076E+06    -243.124E+06    -71.4208E+06     166.860E+03    -233.685E-03     465.495E-03    -231.810E-03     110.677E-03    -235.512E-03     466.286E-03    -231.660E-03     96.7082E-03
             924     4.28377E-03     136.334E-03    -99.7853E+06    -204.384E+06    -55.9792E+06     2.38136E+06    -234.410E-03     466.208E-03    -231.798E-03     132.128E-03    -237.125E-03     468.005E-03    -231.637E-03     114.940E-03
             925     4.99733E-03     136.529E-03    -91.7999E+06    -172.063E+06    -38.9327E+06     3.16495E+06    -235.247E-03     467.059E-03    -231.812E-03     153.376E-03    -239.070E-03     470.058E-03    -231.624E-03     132.689E-03
             926     5.71168E-03     136.751E-03    -83.9702E+06    -142.766E+06    -22.9516E+06     2.63479E+06    -235.970E-03     467.804E-03    -231.834E-03     174.253E-03    -241.139E-03     472.235E-03    -231.620E-03     149.853E-03
             927     6.42531E-03     137.000E-03    -76.2970E+06    -100.808E+06    -6.31953E+06     3.95445E+06    -236.435E-03     468.270E-03    -231.835E-03     194.661E-03    -243.239E-03     474.463E-03    -231.609E-03     166.428E-03
             928     7.13931E-03     137.277E-03    -68.4101E+06    -42.1974E+06     12.9351E+06     5.60303E+06    -236.681E-03     468.488E-03    -231.808E-03     214.945E-03    -245.451E-03     476.828E-03    -231.583E-03     182.734E-03
             929     7.85399E-03     137.579E-03    -60.2814E+06     8.06913E+06     31.3297E+06     5.25164E+06    -236.740E-03     468.507E-03    -231.766E-03     235.068E-03    -247.748E-03     479.238E-03    -231.534E-03     198.877E-03
             930     8.56830E-03     137.907E-03    -52.9399E+06     31.3657E+06     45.2241E+06     2.64323E+06    -236.549E-03     468.268E-03    -231.719E-03     253.590E-03    -249.940E-03     481.451E-03    -231.461E-03     213.632E-03
             931     9.28293E-03     138.256E-03    -46.0338E+06     43.1335E+06     57.4295E+06     2.29826E+06    -235.916E-03     467.573E-03    -231.657E-03     267.681E-03    -251.565E-03     483.045E-03    -231.366E-03     224.655E-03
             932     9.99835E-03     138.619E-03    -37.6927E+06     58.1805E+06     71.7324E+06     3.45626E+06    -234.513E-03     466.087E-03    -231.573E-03     273.919E-03    -251.768E-03     483.206E-03    -231.245E-03     229.180E-03
             933     10.7145E-03     138.982E-03    -29.5705E+06     69.5503E+06     85.0272E+06     1.41731E+06    -232.364E-03     463.822E-03    -231.458E-03     269.123E-03    -250.020E-03     481.373E-03    -231.091E-03     224.479E-03
             934     11.4310E-03     139.326E-03    -22.8013E+06     59.0511E+06     85.0069E+06    -16.8735E+03    -229.902E-03     461.184E-03    -231.282E-03     253.478E-03    -246.692E-03     477.856E-03    -230.910E-03     210.455E-03
             935     12.1472E-03     139.640E-03    -16.9316E+06     62.1932E+06     83.2748E+06     1.26129E+06    -227.807E-03     458.872E-03    -231.065E-03     228.060E-03    -242.409E-03     473.394E-03    -230.714E-03     188.286E-03
             936     12.8642E-03     139.912E-03    -10.2981E+06     88.1877E+06     89.6188E+06     1.54482E+06    -226.349E-03     457.196E-03    -230.847E-03     206.384E-03    -238.908E-03     469.771E-03    -230.511E-03     169.516E-03
             937     13.5807E-03     140.161E-03    -4.04077E+06     90.6879E+06     90.5649E+06     441.640E+03    -224.611E-03     455.226E-03    -230.615E-03     149.158E-03    -232.603E-03     463.263E-03    -230.288E-03     120.443E-03
             938     713.837E-06     137.305E-03    -125.416E+06    -306.877E+06    -123.875E+06     367.287E+03    -232.211E-03     464.043E-03    -231.832E-03     24.4290E-03    -232.303E-03     462.961E-03    -231.825E-03     21.5405E-03
             939     1.42725E-03     137.353E-03    -122.508E+06    -292.830E+06    -115.174E+06     1.19322E+06    -232.339E-03     464.312E-03    -231.973E-03     45.2371E-03    -232.641E-03     463.473E-03    -231.947E-03     39.8782E-03
             940     2.14122E-03     137.431E-03    -116.976E+06    -279.132E+06    -101.090E+06     1.16684E+06    -232.649E-03     464.640E-03    -231.991E-03     66.8845E-03    -233.291E-03     464.170E-03    -231.923E-03     58.8427E-03
             941     2.85507E-03     137.538E-03    -109.278E+06    -266.005E+06    -82.6992E+06     1.02458E+06    -233.199E-03     465.215E-03    -232.016E-03     88.6001E-03    -234.331E-03     465.254E-03    -231.885E-03     77.6790E-03
             942     3.56887E-03     137.674E-03    -101.700E+06    -245.815E+06    -65.6118E+06     1.72779E+06    -233.976E-03     466.018E-03    -232.042E-03     110.146E-03    -235.778E-03     466.776E-03    -231.866E-03     96.1610E-03
             943     4.28247E-03     137.840E-03    -94.0615E+06    -209.623E+06    -52.5605E+06     2.58177E+06    -234.767E-03     466.811E-03    -232.044E-03     131.554E-03    -237.449E-03     468.567E-03    -231.866E-03     114.312E-03
             944     4.99658E-03     138.035E-03    -86.2320E+06    -172.385E+06    -38.4403E+06     2.98162E+06    -235.523E-03     467.576E-03    -232.053E-03     152.722E-03    -239.306E-03     470.552E-03    -231.870E-03     132.010E-03
             945     5.70993E-03     138.257E-03    -78.8456E+06    -145.737E+06    -21.2844E+06     4.43472E+06    -236.204E-03     468.295E-03    -232.091E-03     173.558E-03    -241.327E-03     472.683E-03    -231.872E-03     149.182E-03
             946     6.42372E-03     138.507E-03    -71.5130E+06    -104.045E+06    -3.85045E+06     5.69692E+06    -236.610E-03     468.704E-03    -232.094E-03     194.230E-03    -243.376E-03     474.858E-03    -231.859E-03     166.001E-03
             947     7.13787E-03     138.782E-03    -63.2912E+06    -46.2070E+06     14.1515E+06     6.59514E+06    -236.717E-03     468.766E-03    -232.048E-03     214.598E-03    -245.438E-03     477.056E-03    -231.819E-03     182.411E-03
             948     7.85193E-03     139.085E-03    -55.1042E+06      7.8145E+06     32.5672E+06     8.09477E+06    -236.553E-03     468.528E-03    -231.975E-03     234.476E-03    -247.506E-03     479.219E-03    -231.744E-03     198.365E-03
             949     8.56689E-03     139.411E-03    -47.5848E+06     38.2760E+06     48.7545E+06     8.08395E+06    -236.236E-03     468.127E-03    -231.891E-03     253.138E-03    -249.563E-03     481.279E-03    -231.634E-03     213.381E-03
             950     9.28222E-03     139.761E-03    -40.4413E+06     43.0608E+06     61.8862E+06     6.81107E+06    -235.608E-03     467.411E-03    -231.802E-03     267.713E-03    -251.195E-03     482.827E-03    -231.497E-03     224.884E-03
             951     9.99731E-03     140.122E-03    -33.8366E+06     60.1575E+06     77.2381E+06     5.08655E+06    -234.067E-03     465.749E-03    -231.682E-03     273.886E-03    -251.285E-03     482.837E-03    -231.334E-03     229.292E-03
             952     10.7137E-03     140.482E-03    -26.7895E+06     76.2041E+06     90.9292E+06     3.91279E+06    -231.624E-03     463.140E-03    -231.517E-03     268.592E-03    -249.213E-03     480.641E-03    -231.134E-03     224.240E-03
             953     11.4307E-03     140.826E-03    -20.4820E+06     58.7781E+06     88.6393E+06     3.57114E+06    -229.009E-03     460.293E-03    -231.284E-03     253.299E-03    -245.717E-03     476.880E-03    -230.896E-03     210.640E-03
             954     12.1481E-03     141.139E-03    -15.2264E+06     63.1988E+06     86.4158E+06     2.50324E+06    -226.777E-03     457.777E-03    -231.000E-03     229.054E-03    -241.365E-03     472.284E-03    -230.638E-03     189.529E-03
             955     12.8666E-03     141.409E-03    -10.3782E+06     90.6156E+06     91.8488E+06     601.798E+03    -225.173E-03     455.885E-03    -230.712E-03     207.460E-03    -237.759E-03     468.489E-03    -230.369E-03     170.762E-03
             956     13.5864E-03     141.660E-03    -6.04927E+06     91.0088E+06     91.1680E+06    -104.180E+03    -224.406E-03     454.850E-03    -230.444E-03     149.450E-03    -232.410E-03     462.891E-03    -230.111E-03     120.811E-03
             957     713.350E-06     138.812E-03    -120.029E+06    -306.675E+06    -119.257E+06    -1.04280E+06    -232.600E-03     464.765E-03    -232.165E-03     24.4273E-03    -232.673E-03     463.669E-03    -232.142E-03     21.5021E-03
             958     1.42691E-03     138.860E-03    -117.175E+06    -294.442E+06    -112.905E+06    -553.516E+03    -232.626E-03     464.932E-03    -232.307E-03     45.2329E-03    -232.902E-03     464.075E-03    -232.274E-03     39.8294E-03
             959     2.14036E-03     138.937E-03    -113.288E+06    -277.907E+06    -101.056E+06    -667.219E+03    -232.954E-03     465.249E-03    -232.295E-03     66.6857E-03    -233.580E-03     464.779E-03    -232.233E-03     58.5926E-03
             960     2.85407E-03     139.044E-03    -108.730E+06    -268.045E+06    -85.4564E+06    -237.995E+03    -233.511E-03     465.824E-03    -232.314E-03     88.2983E-03    -234.630E-03     465.854E-03    -232.195E-03     77.3458E-03
             961     3.56775E-03     139.181E-03    -102.177E+06    -249.202E+06    -69.3109E+06     962.030E+03    -234.299E-03     466.641E-03    -232.342E-03     109.856E-03    -236.086E-03     467.381E-03    -232.179E-03     95.8573E-03
             962     4.28121E-03     139.347E-03    -94.9895E+06    -212.234E+06    -54.3357E+06     1.35955E+06    -235.109E-03     467.467E-03    -232.358E-03     131.247E-03    -237.782E-03     469.206E-03    -232.184E-03     113.974E-03
             963     4.99434E-03     139.541E-03     -88.464E+06    -174.813E+06    -40.0087E+06     2.10820E+06    -235.756E-03     468.125E-03    -232.369E-03     152.384E-03    -239.530E-03     471.081E-03    -232.188E-03     131.671E-03
             964     5.70818E-03     139.764E-03    -81.1723E+06    -149.392E+06    -24.4294E+06     2.59756E+06    -236.241E-03     468.623E-03    -232.382E-03     173.270E-03    -241.354E-03     472.988E-03    -232.170E-03     148.876E-03
             965     6.42210E-03     140.013E-03    -72.4218E+06    -108.422E+06    -6.29009E+06     3.52408E+06    -236.558E-03     468.916E-03    -232.357E-03     193.853E-03    -243.300E-03     475.034E-03    -232.127E-03     165.611E-03
             966     7.13591E-03     140.289E-03    -64.2394E+06    -52.4617E+06     11.9268E+06     5.56237E+06    -236.617E-03     468.900E-03    -232.283E-03     214.169E-03    -245.295E-03     477.129E-03    -232.054E-03     182.036E-03
             967     7.85046E-03     140.589E-03    -56.6063E+06     3.31342E+06     30.1515E+06     7.44521E+06    -236.310E-03     468.482E-03    -232.172E-03     234.031E-03    -247.217E-03     479.112E-03    -231.944E-03     198.011E-03
             968     8.56544E-03     140.916E-03    -49.3497E+06     38.4217E+06     45.6119E+06     9.08133E+06    -235.757E-03     467.790E-03    -232.033E-03     252.633E-03    -249.037E-03     480.899E-03    -231.789E-03     213.020E-03
             969     9.28093E-03     141.263E-03    -42.9948E+06     43.9348E+06     57.4642E+06     8.60971E+06    -234.854E-03     466.734E-03    -231.881E-03     267.275E-03    -250.378E-03     482.095E-03    -231.595E-03     224.664E-03
             970     9.99755E-03     141.625E-03    -35.9465E+06     64.9219E+06     75.6705E+06     6.20940E+06    -233.279E-03     464.984E-03    -231.704E-03     273.674E-03    -250.425E-03     482.012E-03    -231.368E-03     229.389E-03
             971     10.7136E-03     141.984E-03    -28.6415E+06     78.2965E+06     90.7134E+06     4.57310E+06    -230.829E-03     462.318E-03    -231.489E-03     268.846E-03    -248.400E-03     479.803E-03    -231.107E-03     224.718E-03
             972     11.4314E-03     142.324E-03    -21.2733E+06     59.4515E+06     89.9226E+06     4.05732E+06    -228.014E-03     459.218E-03    -231.204E-03     253.857E-03    -244.719E-03     475.798E-03    -230.810E-03     211.398E-03
             973     12.1507E-03     142.637E-03    -13.9303E+06     65.8189E+06     89.9866E+06     3.06649E+06    -225.829E-03     456.698E-03    -230.868E-03     229.104E-03    -240.366E-03     471.158E-03    -230.494E-03     189.841E-03
             974     12.8692E-03     142.906E-03    -7.96129E+06     91.9715E+06     96.7187E+06     2.79500E+06    -224.272E-03     454.814E-03    -230.542E-03     206.689E-03    -236.807E-03     467.367E-03    -230.180E-03     170.206E-03
             975     13.5872E-03     143.154E-03    -3.76453E+06     93.5708E+06     97.1088E+06     2.20124E+06    -223.650E-03     453.895E-03    -230.245E-03     149.875E-03    -231.629E-03     461.911E-03    -229.890E-03     121.429E-03
             976     713.177E-06     140.320E-03    -119.666E+06    -304.243E+06    -117.832E+06    -63.3558E+03    -232.844E-03     465.476E-03    -232.632E-03     24.0954E-03    -232.919E-03     464.388E-03    -232.606E-03     21.2100E-03
             977     1.42652E-03     140.368E-03    -119.468E+06    -294.744E+06    -113.869E+06    -414.542E+03    -232.905E-03     465.556E-03    -232.650E-03     44.9445E-03    -233.189E-03     464.700E-03    -232.619E-03     39.5612E-03
             978     2.13985E-03     140.445E-03    -117.940E+06    -279.114E+06    -104.191E+06     1.26482E+06    -233.302E-03     465.927E-03    -232.625E-03     66.4531E-03    -233.942E-03     465.460E-03    -232.571E-03     58.3846E-03
             979     2.85304E-03     140.552E-03    -113.480E+06    -265.632E+06    -88.2558E+06     7.94928E+03    -233.926E-03     466.583E-03    -232.657E-03     88.2567E-03    -235.067E-03     466.633E-03    -232.548E-03     77.2953E-03
             980     3.56622E-03     140.688E-03    -106.464E+06    -250.051E+06    -73.3152E+06    -2.50147E+06    -234.638E-03     467.330E-03    -232.692E-03     109.879E-03    -236.439E-03     468.079E-03    -232.542E-03     95.7996E-03
             981     4.27959E-03     140.855E-03    -98.6372E+06    -215.851E+06    -59.0795E+06    -1.21604E+06    -235.268E-03     467.959E-03    -232.691E-03     131.218E-03    -237.938E-03     469.684E-03    -232.531E-03     113.928E-03
             982     4.99309E-03     141.050E-03    -90.1825E+06    -176.662E+06    -42.9352E+06     212.389E+03    -235.834E-03     468.507E-03    -232.673E-03     152.430E-03    -239.604E-03     471.454E-03    -232.501E-03     131.701E-03
             983     5.70652E-03     141.271E-03    -81.7856E+06    -150.527E+06    -26.7951E+06     286.728E+03    -236.327E-03     468.982E-03    -232.655E-03     173.303E-03    -241.426E-03     473.335E-03    -232.452E-03     148.892E-03
             984     6.42007E-03     141.520E-03    -74.4095E+06    -113.920E+06    -10.7263E+06     991.324E+03    -236.489E-03     469.085E-03    -232.596E-03     193.798E-03    -243.204E-03     475.163E-03    -232.376E-03     165.577E-03
             985     7.13448E-03     141.795E-03    -66.4977E+06    -60.9361E+06     7.24788E+06     3.79068E+06    -236.325E-03     468.804E-03    -232.479E-03     214.100E-03    -244.954E-03     476.959E-03    -232.258E-03     182.068E-03
             986     7.84909E-03     142.095E-03    -58.6099E+06    -4.03093E+06     26.2740E+06     7.54422E+06    -235.947E-03     468.263E-03    -232.316E-03     233.980E-03    -246.793E-03     478.810E-03    -232.093E-03     198.142E-03
             987     8.56427E-03     142.419E-03    -51.5392E+06     35.0358E+06     42.2212E+06     9.61223E+06    -235.314E-03     467.436E-03    -232.122E-03     252.712E-03    -248.560E-03     480.501E-03    -231.887E-03     213.243E-03
             988     9.28041E-03     142.766E-03    -43.5571E+06     47.6391E+06     57.0040E+06     9.07496E+06    -234.166E-03     466.080E-03    -231.914E-03     267.380E-03    -249.628E-03     481.391E-03    -231.635E-03     225.034E-03
             989     9.99689E-03     143.125E-03    -36.1515E+06     66.8467E+06     74.0588E+06     8.46014E+06    -232.137E-03     463.793E-03    -231.656E-03     273.828E-03    -249.166E-03     480.715E-03    -231.330E-03     230.015E-03
             990     10.7157E-03     143.483E-03    -30.2939E+06     80.9920E+06     89.2348E+06     7.77896E+06    -229.572E-03     460.924E-03    -231.352E-03     269.098E-03    -247.042E-03     478.315E-03    -230.979E-03     225.463E-03
             991     11.4341E-03     143.822E-03    -24.8558E+06     66.3924E+06     91.6180E+06     3.30401E+06    -227.298E-03     458.313E-03    -231.014E-03     254.594E-03    -244.001E-03     474.897E-03    -230.617E-03     212.361E-03
             992     12.1520E-03     144.133E-03    -19.3201E+06     65.0533E+06     89.0952E+06     462.411E+03    -225.219E-03     455.861E-03    -230.642E-03     230.372E-03    -239.779E-03     470.325E-03    -230.263E-03     191.240E-03
             993     12.8713E-03     144.402E-03    -13.2306E+06     89.5572E+06     95.8581E+06     1.73682E+06    -223.248E-03     453.523E-03    -230.275E-03     208.711E-03    -235.823E-03     466.091E-03    -229.906E-03     172.409E-03
             994     13.5922E-03     144.648E-03    -6.27970E+06     96.3476E+06     99.8965E+06     1.71234E+06    -221.962E-03     451.877E-03    -229.916E-03     153.426E-03    -230.032E-03     459.978E-03    -229.547E-03     125.080E-03
             995     712.853E-06     141.829E-03    -129.286E+06    -306.429E+06    -126.579E+06     1.97050E+06    -232.915E-03     465.976E-03    -233.061E-03     24.1417E-03    -233.022E-03     464.903E-03    -233.062E-03     21.2945E-03
             996     1.42574E-03     141.876E-03    -125.864E+06    -296.449E+06    -114.894E+06     1.95321E+06    -233.285E-03     466.245E-03    -232.960E-03     45.0274E-03    -233.597E-03     465.391E-03    -232.922E-03     39.6808E-03
             997     2.13888E-03     141.953E-03    -119.311E+06    -280.606E+06    -102.028E+06     1.08270E+06    -233.715E-03     466.696E-03    -232.981E-03     66.5043E-03    -234.362E-03     466.219E-03    -232.911E-03     58.4189E-03
             998     2.85209E-03     142.060E-03    -111.204E+06    -258.021E+06    -88.4709E+06    -1.28889E+06    -234.308E-03     467.306E-03    -232.998E-03     88.2513E-03    -235.446E-03     467.390E-03    -232.905E-03     77.2594E-03
             999     3.56506E-03     142.198E-03    -104.309E+06    -247.765E+06    -71.8553E+06    -2.90758E+06    -234.919E-03     467.963E-03    -233.044E-03     109.877E-03    -236.712E-03     468.715E-03    -232.893E-03     95.7877E-03
            1000     4.27805E-03     142.363E-03    -97.8378E+06    -217.726E+06    -58.9578E+06    -3.00814E+06    -235.383E-03     468.402E-03    -233.018E-03     131.161E-03    -238.040E-03     470.109E-03    -232.856E-03     113.854E-03
            1001     4.99160E-03     142.557E-03    -91.1520E+06    -178.020E+06    -47.2113E+06    -2.74626E+06    -235.786E-03     468.724E-03    -232.938E-03     152.306E-03    -239.537E-03     471.656E-03    -232.784E-03     131.576E-03
            1002     5.70515E-03     142.779E-03    -84.5885E+06    -152.767E+06    -32.2023E+06    -1.96252E+06    -236.113E-03     468.978E-03    -232.864E-03     173.304E-03    -241.188E-03     473.303E-03    -232.681E-03     148.966E-03
            1003     6.41913E-03     143.027E-03    -76.9771E+06    -117.248E+06    -15.1534E+06    -1.24436E+06    -236.186E-03     468.936E-03    -232.750E-03     194.073E-03    -242.868E-03     474.972E-03    -232.544E-03     165.967E-03
            1004     7.13339E-03     143.301E-03    -69.0210E+06    -69.7550E+06     1.68663E+06     694.673E+03    -235.950E-03     468.524E-03    -232.574E-03     214.467E-03    -244.527E-03     476.604E-03    -232.365E-03     182.571E-03
            1005     7.84865E-03     143.600E-03    -60.6589E+06    -16.3883E+06     20.3564E+06     5.71403E+06    -235.414E-03     467.763E-03    -232.349E-03     234.481E-03    -246.183E-03     478.200E-03    -232.136E-03     198.875E-03
            1006     8.56465E-03     143.923E-03    -51.6590E+06     30.8284E+06     39.3319E+06     9.47587E+06    -234.609E-03     466.693E-03    -232.084E-03     253.356E-03    -247.773E-03     479.669E-03    -231.857E-03     214.206E-03
            1007     9.28097E-03     144.267E-03    -44.6449E+06     49.6641E+06     54.0470E+06     9.97916E+06    -233.198E-03     464.984E-03    -231.786E-03     268.262E-03    -248.574E-03     480.221E-03    -231.523E-03     226.352E-03
            1008     9.99910E-03     144.624E-03    -38.6327E+06     65.4830E+06     70.8539E+06     10.0789E+06    -231.045E-03     462.487E-03    -231.443E-03     275.268E-03    -247.999E-03     479.332E-03    -231.127E-03     231.946E-03
            1009     10.7175E-03     144.980E-03    -31.4168E+06     82.2219E+06     89.5957E+06     10.2070E+06    -228.470E-03     459.532E-03    -231.062E-03     271.021E-03    -245.870E-03     476.852E-03    -230.688E-03     227.912E-03
            1010     11.4374E-03     145.318E-03    -24.6391E+06     79.9764E+06     98.0985E+06     7.16264E+06    -225.941E-03     456.584E-03    -230.643E-03     257.645E-03    -242.612E-03     473.166E-03    -230.233E-03     216.038E-03
            1011     12.1575E-03     145.629E-03    -18.4624E+06     70.1688E+06     93.6883E+06     1.82025E+06    -223.908E-03     454.086E-03    -230.178E-03     234.859E-03    -238.490E-03     468.579E-03    -229.784E-03     196.253E-03
            1012     12.8783E-03     145.894E-03    -11.3687E+06     85.1448E+06     96.8293E+06     554.610E+03    -222.265E-03     451.995E-03    -229.730E-03     213.889E-03    -234.917E-03     464.628E-03    -229.353E-03     177.825E-03
            1013     13.5994E-03     146.140E-03    -3.88924E+06     98.5337E+06     102.603E+06     1.04598E+06    -221.134E-03     450.460E-03    -229.326E-03     157.312E-03    -229.305E-03     458.669E-03    -228.950E-03     128.935E-03
            1014     713.053E-06     143.338E-03    -124.277E+06    -311.566E+06    -124.637E+06     292.801E+03    -233.173E-03     466.441E-03    -233.268E-03     24.4126E-03    -233.251E-03     465.333E-03    -233.259E-03     21.5177E-03
            1015     1.42592E-03     143.386E-03    -121.398E+06    -297.155E+06    -118.531E+06     948.803E+03    -233.682E-03     466.862E-03    -233.180E-03     45.0047E-03    -233.964E-03     466.002E-03    -233.166E-03     39.6441E-03
            1016     2.13842E-03     143.463E-03    -117.647E+06    -275.223E+06    -108.441E+06    -1.81169E+06    -234.115E-03     467.343E-03    -233.228E-03     66.7686E-03    -234.753E-03     466.901E-03    -233.200E-03     58.6342E-03
            1017     2.85088E-03     143.570E-03    -114.117E+06    -254.950E+06    -95.5922E+06    -3.06488E+06    -234.570E-03     467.830E-03    -233.260E-03     88.5469E-03    -235.716E-03     467.943E-03    -233.203E-03     77.5302E-03
            1018     3.56383E-03     143.707E-03    -109.498E+06    -243.869E+06    -79.2050E+06    -3.73898E+06    -234.994E-03     468.275E-03    -233.280E-03     110.095E-03    -236.797E-03     469.053E-03    -233.164E-03     96.0590E-03
            1019     4.27706E-03     143.872E-03    -102.829E+06    -215.823E+06     -63.236E+06    -5.27310E+06    -235.402E-03     468.633E-03    -233.231E-03     131.565E-03    -238.071E-03     470.354E-03    -233.085E-03     114.288E-03
            1020     4.99015E-03     144.066E-03    -95.3622E+06    -179.963E+06    -49.8938E+06    -4.89771E+06    -235.627E-03     468.741E-03    -233.114E-03     152.854E-03    -239.377E-03     471.658E-03    -232.964E-03     132.190E-03
            1021     5.70416E-03     144.287E-03    -88.0255E+06    -153.242E+06    -36.0228E+06    -4.26092E+06    -235.645E-03     468.604E-03    -232.959E-03     173.890E-03    -240.700E-03     472.907E-03    -232.789E-03     149.695E-03
            1022     6.41877E-03     144.534E-03    -80.8609E+06    -118.961E+06    -20.1757E+06    -4.36852E+06    -235.589E-03     468.344E-03    -232.755E-03     194.776E-03    -242.223E-03     474.327E-03    -232.566E-03     166.909E-03
            1023     7.13384E-03     144.807E-03    -73.3812E+06    -76.4263E+06    -2.93597E+06    -2.65689E+06    -235.269E-03     467.773E-03    -232.503E-03     215.329E-03    -243.786E-03     475.767E-03    -232.301E-03     183.723E-03
            1024     7.84946E-03     145.103E-03    -65.3465E+06    -29.9122E+06     14.8299E+06     1.29401E+06    -234.533E-03     466.728E-03    -232.195E-03     235.845E-03    -245.235E-03     477.048E-03    -231.982E-03     200.550E-03
            1025     8.56599E-03     145.425E-03    -58.1313E+06     19.1662E+06     31.8717E+06     6.43659E+06    -233.349E-03     465.158E-03    -231.809E-03     255.310E-03    -246.404E-03     477.982E-03    -231.593E-03     216.706E-03
            1026     9.28428E-03     145.767E-03    -50.9646E+06     48.1963E+06     46.8117E+06     8.78999E+06    -231.764E-03     463.135E-03    -231.371E-03     270.752E-03    -247.043E-03     478.268E-03    -231.133E-03     229.502E-03
            1027     10.0035E-03     146.122E-03    -42.5100E+06     64.4893E+06     64.1102E+06     8.00229E+06    -229.661E-03     460.564E-03    -230.903E-03     278.586E-03    -246.530E-03     477.326E-03    -230.615E-03     235.920E-03
            1028     10.7242E-03     146.476E-03    -32.9264E+06     80.3960E+06     85.5177E+06     7.34169E+06    -226.962E-03     457.375E-03    -230.413E-03     275.856E-03    -244.309E-03     474.643E-03    -230.054E-03     233.434E-03
            1029     11.4453E-03     146.812E-03    -22.0955E+06     86.3371E+06     101.683E+06     6.42498E+06    -224.197E-03     454.086E-03    -229.889E-03     263.355E-03    -240.837E-03     470.659E-03    -229.473E-03     222.497E-03
            1030     12.1689E-03     147.121E-03    -13.3930E+06     77.9654E+06     100.133E+06     4.59515E+06    -222.355E-03     451.676E-03    -229.320E-03     240.578E-03    -236.921E-03     466.180E-03    -228.913E-03     202.663E-03
            1031     12.8909E-03     147.388E-03    -8.70473E+06     84.6852E+06     100.759E+06     2.57605E+06    -222.045E-03     450.872E-03    -228.827E-03     219.452E-03    -234.753E-03     463.558E-03    -228.434E-03     183.678E-03
            1032     13.6129E-03     147.631E-03    -4.20126E+06     99.2547E+06     106.066E+06     2.23782E+06    -223.049E-03     451.537E-03    -228.488E-03     161.224E-03    -231.324E-03     459.842E-03    -228.096E-03     132.594E-03
            1033     712.555E-06     144.849E-03    -125.412E+06    -308.994E+06    -125.248E+06    -2.59993E+06    -233.662E-03     467.112E-03    -233.450E-03     24.4311E-03    -233.748E-03     466.020E-03    -233.446E-03     21.4816E-03
            1034     1.42494E-03     144.896E-03    -124.541E+06    -294.238E+06    -126.202E+06    -3.45560E+06    -233.819E-03     467.265E-03    -233.446E-03     44.8922E-03    -234.107E-03     466.433E-03    -233.470E-03     39.4871E-03
            1035     2.13780E-03     144.973E-03    -123.488E+06    -269.744E+06    -119.671E+06    -3.69335E+06    -234.088E-03     467.484E-03    -233.397E-03     66.9071E-03    -234.743E-03     467.091E-03    -233.425E-03     58.7910E-03
            1036     2.85070E-03     145.081E-03    -120.269E+06    -252.861E+06    -103.307E+06    -4.31465E+06    -234.445E-03     467.820E-03    -233.375E-03     88.8983E-03    -235.604E-03     467.954E-03    -233.350E-03     77.9540E-03
            1037     3.56351E-03     145.217E-03    -113.923E+06    -237.492E+06    -85.1002E+06    -6.14283E+06    -234.789E-03     468.115E-03    -233.326E-03     110.807E-03    -236.604E-03     468.929E-03    -233.242E-03     96.8513E-03
            1038     4.27668E-03     145.382E-03    -106.795E+06    -212.563E+06    -67.5354E+06    -7.68310E+06    -235.014E-03     468.228E-03    -233.213E-03     132.654E-03    -237.687E-03     469.962E-03    -233.088E-03     115.496E-03
            1039     4.99067E-03     145.574E-03    -99.4361E+06    -181.658E+06    -52.1933E+06    -7.61011E+06    -235.107E-03     468.135E-03    -233.028E-03     154.175E-03    -238.849E-03     471.030E-03    -232.881E-03     133.689E-03
            1040     5.70492E-03     145.793E-03    -91.2909E+06    -152.589E+06    -37.8709E+06    -7.22906E+06    -235.064E-03     467.850E-03    -232.787E-03     175.546E-03    -240.099E-03     472.130E-03    -232.622E-03     151.590E-03
            1041     6.41984E-03     146.039E-03    -83.8092E+06    -119.423E+06    -22.7183E+06    -6.45115E+06    -234.701E-03     467.185E-03    -232.484E-03     196.788E-03    -241.287E-03     473.116E-03    -232.303E-03     169.310E-03
            1042     7.13583E-03     146.310E-03    -76.5792E+06    -81.4062E+06    -5.81671E+06    -4.56629E+06    -234.008E-03     466.121E-03    -232.113E-03     218.016E-03    -242.450E-03     474.019E-03    -231.913E-03     186.953E-03
            1043     7.85282E-03     146.606E-03    -69.4307E+06    -41.7965E+06     10.6217E+06    -1.20727E+06    -233.013E-03     464.674E-03    -231.661E-03     239.385E-03    -243.624E-03     474.859E-03    -231.447E-03     204.736E-03
            1044     8.57157E-03     146.925E-03    -60.9718E+06     7.02059E+06     28.3902E+06     3.51497E+06    -231.636E-03     462.755E-03    -231.119E-03     259.528E-03    -244.567E-03     475.412E-03    -230.899E-03     221.719E-03
            1045     9.29173E-03     147.265E-03    -50.8012E+06     46.8727E+06     46.0863E+06     5.73156E+06    -229.861E-03     460.369E-03    -230.509E-03     275.940E-03    -245.007E-03     475.367E-03    -230.272E-03     235.623E-03
            1046     10.0129E-03     147.617E-03    -40.8661E+06     63.7179E+06     62.8411E+06     5.02766E+06    -227.649E-03     457.515E-03    -229.866E-03     285.010E-03    -244.402E-03     474.167E-03    -229.585E-03     243.335E-03
            1047     10.7359E-03     147.967E-03    -31.8968E+06     80.4883E+06     82.7625E+06     4.18001E+06    -225.178E-03     454.393E-03    -229.215E-03     283.071E-03    -242.449E-03     471.597E-03    -228.872E-03     241.592E-03
            1048     11.4610E-03     148.304E-03    -24.8441E+06     86.0487E+06     97.4726E+06     3.52422E+06    -223.306E-03     451.901E-03    -228.594E-03     270.378E-03    -239.927E-03     468.455E-03    -228.196E-03     230.224E-03
            1049     12.1837E-03     148.610E-03    -18.9915E+06     78.8359E+06     97.9045E+06     3.68884E+06    -222.615E-03     450.645E-03    -228.031E-03     246.588E-03    -237.230E-03     465.190E-03    -227.628E-03     209.003E-03
            1050     12.9078E-03     148.877E-03    -13.0132E+06     86.4787E+06     100.168E+06     3.96747E+06    -223.718E-03     451.343E-03    -227.625E-03     224.606E-03    -236.523E-03     464.118E-03    -227.230E-03     188.765E-03
            1051     13.6271E-03     149.127E-03    -7.81804E+06     100.429E+06     104.877E+06     2.69065E+06    -226.329E-03     453.779E-03    -227.450E-03     165.566E-03    -234.719E-03     462.194E-03    -227.060E-03     136.498E-03
            1052     712.222E-06     146.361E-03    -129.923E+06    -297.383E+06    -127.690E+06    -3.34728E+06    -233.775E-03     467.289E-03    -233.514E-03     24.8863E-03    -233.897E-03     466.265E-03    -233.533E-03     21.9411E-03
            1053     1.42491E-03     146.407E-03    -127.343E+06    -288.109E+06    -121.417E+06    -5.41805E+06    -233.677E-03     467.205E-03    -233.528E-03     45.6275E-03    -233.996E-03     466.402E-03    -233.533E-03     40.2242E-03
            1054     2.13753E-03     146.484E-03    -123.976E+06    -267.818E+06    -115.301E+06    -5.22747E+06    -233.775E-03     467.152E-03    -233.377E-03     67.7539E-03    -234.437E-03     466.758E-03    -233.386E-03     59.7062E-03
            1055     2.85057E-03     146.591E-03    -120.027E+06    -247.459E+06    -103.937E+06    -5.55376E+06    -233.876E-03     467.088E-03    -233.211E-03     89.8432E-03    -235.030E-03     467.238E-03    -233.198E-03     79.0455E-03
            1056     3.56422E-03     146.726E-03    -114.706E+06    -229.339E+06    -86.7451E+06    -7.74023E+06    -234.018E-03     467.049E-03    -233.031E-03     112.185E-03    -235.830E-03     467.892E-03    -232.966E-03     98.4285E-03
            1057     4.27821E-03     146.890E-03    -107.599E+06    -207.911E+06    -68.9200E+06    -9.75487E+06    -234.093E-03     466.894E-03    -232.802E-03     134.461E-03    -236.746E-03     468.627E-03    -232.689E-03     117.584E-03
            1058     4.99275E-03     147.081E-03    -99.8781E+06    -181.043E+06    -52.8073E+06    -10.1271E+06    -234.019E-03     466.520E-03    -232.501E-03     156.561E-03    -237.722E-03     469.379E-03    -232.358E-03     136.451E-03
            1059     5.70810E-03     147.300E-03    -92.4673E+06    -152.429E+06    -38.6601E+06    -9.58482E+06    -233.724E-03     465.849E-03    -232.125E-03     178.719E-03    -238.710E-03     470.078E-03    -231.963E-03     155.262E-03
            1060     6.42447E-03     147.543E-03    -84.5629E+06    -121.676E+06    -23.5998E+06    -8.28103E+06    -233.058E-03     464.727E-03    -231.669E-03     200.939E-03    -239.573E-03     470.578E-03    -231.488E-03     174.123E-03
            1061     7.14224E-03     147.812E-03    -76.4428E+06    -86.0776E+06    -7.01954E+06    -6.16632E+06    -231.994E-03     463.111E-03    -231.116E-03     223.268E-03    -240.337E-03     470.897E-03    -230.916E-03     193.037E-03
            1062     7.86194E-03     148.105E-03    -67.2660E+06    -48.8413E+06     11.0911E+06    -3.46638E+06    -230.769E-03     461.242E-03    -230.473E-03     245.561E-03    -241.232E-03     471.259E-03    -230.249E-03     211.946E-03
            1063     8.58272E-03     148.421E-03    -56.9836E+06    -2.09926E+06     30.2215E+06     125.996E+03    -229.343E-03     459.079E-03    -229.737E-03     266.801E-03    -242.123E-03     471.562E-03    -229.500E-03     230.105E-03
            1064     9.30527E-03     148.758E-03    -47.7523E+06     44.0633E+06     48.3354E+06     3.32424E+06    -227.497E-03     456.424E-03    -228.926E-03     284.238E-03    -242.504E-03     471.277E-03    -228.679E-03     245.132E-03
            1065     10.0309E-03     149.107E-03    -40.5653E+06     64.2025E+06     63.6487E+06     4.10765E+06    -225.682E-03     453.791E-03    -228.109E-03     293.669E-03    -242.297E-03     470.305E-03    -227.825E-03     253.248E-03
            1066     10.7570E-03     149.458E-03    -35.2767E+06     80.1719E+06     79.9301E+06     4.71203E+06    -224.333E-03     451.685E-03    -227.352E-03     291.690E-03    -241.540E-03     468.819E-03    -227.017E-03     251.195E-03
            1067     11.4815E-03     149.791E-03    -29.2587E+06     89.9937E+06     96.2336E+06     3.53159E+06    -223.933E-03     450.676E-03    -226.743E-03     278.863E-03    -240.581E-03     467.261E-03    -226.350E-03     239.278E-03
            1068     12.2062E-03     150.101E-03    -20.2842E+06     76.2508E+06     99.2539E+06     1.34327E+06    -225.292E-03     451.616E-03    -226.323E-03     254.855E-03    -239.995E-03     466.229E-03    -225.908E-03     217.309E-03
            1069     12.9249E-03     150.369E-03    -11.2414E+06     83.0406E+06     99.5523E+06     2.71894E+06    -227.904E-03     454.032E-03    -226.128E-03     233.153E-03    -240.911E-03     467.006E-03    -225.734E-03     196.777E-03
            1070     13.6428E-03     150.627E-03    -3.89162E+06     104.129E+06     105.028E+06     3.48252E+06    -230.959E-03     457.170E-03    -226.212E-03     173.074E-03    -239.559E-03     465.823E-03    -225.832E-03     143.275E-03
            1071     712.780E-06     147.871E-03    -131.658E+06    -285.679E+06    -128.744E+06    -2.57051E+06    -233.019E-03     465.945E-03    -232.927E-03     25.2541E-03    -233.164E-03     464.983E-03    -232.965E-03     22.3967E-03
            1072     1.42559E-03     147.918E-03    -128.496E+06    -279.156E+06    -119.012E+06    -4.82133E+06    -232.965E-03     465.822E-03    -232.857E-03     46.8393E-03    -233.306E-03     465.061E-03    -232.861E-03     41.5498E-03
            1073     2.13887E-03     147.994E-03    -123.826E+06    -264.485E+06    -108.734E+06    -6.05977E+06    -232.941E-03     465.626E-03    -232.685E-03     69.4845E-03    -233.613E-03     465.234E-03    -232.666E-03     61.6021E-03
            1074     2.85264E-03     148.099E-03    -118.299E+06    -242.501E+06    -97.9407E+06    -6.55841E+06    -232.824E-03     465.252E-03    -232.428E-03     92.1430E-03    -233.977E-03     465.408E-03    -232.395E-03     81.5753E-03
            1075     3.56697E-03     148.233E-03    -112.543E+06    -220.861E+06    -84.0068E+06    -8.26814E+06    -232.672E-03     464.780E-03    -232.108E-03     114.931E-03    -234.466E-03     465.634E-03    -232.045E-03     101.546E-03
            1076     4.28228E-03     148.396E-03    -106.071E+06    -200.894E+06    -68.0692E+06    -10.2988E+06    -232.429E-03     464.154E-03    -231.724E-03     137.764E-03    -235.045E-03     465.877E-03    -231.619E-03     121.407E-03
            1077     4.99838E-03     148.586E-03    -99.1368E+06    -177.594E+06    -52.2059E+06    -11.3946E+06    -231.953E-03     463.204E-03    -231.251E-03     160.842E-03    -235.602E-03     466.021E-03    -231.110E-03     141.387E-03
            1078     5.71580E-03     148.802E-03    -91.8139E+06    -150.821E+06    -37.1401E+06    -11.4028E+06    -231.207E-03     461.876E-03    -230.670E-03     184.122E-03    -236.111E-03     466.026E-03    -230.503E-03     161.525E-03
            1079     6.43481E-03     149.043E-03    -83.6191E+06    -122.219E+06    -22.3430E+06    -11.0827E+06    -230.208E-03     460.187E-03    -229.979E-03     207.507E-03    -236.619E-03     465.931E-03    -229.792E-03     181.700E-03
            1080     7.15555E-03     149.309E-03    -74.3733E+06    -90.3397E+06    -5.97761E+06    -9.67257E+06    -229.036E-03     458.226E-03    -229.191E-03     231.151E-03    -237.249E-03     465.872E-03    -228.982E-03     202.070E-03
            1081     7.87791E-03     149.598E-03    -65.2333E+06    -53.7707E+06     12.2429E+06    -6.98032E+06    -227.775E-03     456.092E-03    -228.317E-03     254.752E-03    -238.076E-03     465.934E-03    -228.084E-03     222.486E-03
            1082     8.60279E-03     149.912E-03    -57.2752E+06    -11.2858E+06     29.9847E+06    -3.55761E+06    -226.461E-03     453.828E-03    -227.368E-03     276.947E-03    -239.060E-03     466.096E-03    -227.118E-03     241.725E-03
            1083     9.32992E-03     150.246E-03    -49.9036E+06     35.7355E+06     47.3861E+06     1.98596E+06    -225.380E-03     451.769E-03    -226.389E-03     294.747E-03    -240.220E-03     466.420E-03    -226.131E-03     257.087E-03
            1084     10.0568E-03     150.594E-03    -43.5792E+06     65.3183E+06     61.3374E+06     5.71214E+06    -224.816E-03     450.291E-03    -225.475E-03     304.311E-03    -241.314E-03     466.687E-03    -225.200E-03     265.155E-03
            1085     10.7841E-03     150.943E-03    -35.4828E+06     80.0508E+06     77.8935E+06     5.00179E+06    -225.040E-03     449.784E-03    -224.744E-03     302.652E-03    -242.188E-03     466.865E-03    -224.419E-03     263.034E-03
            1086     11.5107E-03     151.281E-03    -25.4638E+06     94.9187E+06     97.3194E+06     3.49295E+06    -226.430E-03     450.703E-03    -224.273E-03     289.883E-03    -243.108E-03     467.346E-03    -223.887E-03     250.693E-03
            1087     12.2322E-03     151.592E-03    -18.0854E+06     78.1130E+06     101.184E+06     968.912E+03    -229.567E-03     453.665E-03    -224.098E-03     266.539E-03    -244.408E-03     468.427E-03    -223.679E-03     228.909E-03
            1088     12.9514E-03     151.872E-03    -13.4537E+06     77.5344E+06     101.216E+06     1.14845E+06    -234.010E-03     458.252E-03    -224.242E-03     244.609E-03    -247.330E-03     471.507E-03    -223.828E-03     207.420E-03
            1089     13.6647E-03     152.130E-03    -8.41877E+06     106.253E+06     108.270E+06     2.04971E+06    -239.495E-03     464.247E-03    -224.752E-03     182.429E-03    -248.434E-03     473.222E-03    -224.352E-03     151.330E-03
            1090     713.838E-06     149.379E-03    -134.550E+06    -276.539E+06    -133.864E+06    -2.44888E+06    -231.348E-03     462.692E-03    -231.344E-03     25.7668E-03    -231.512E-03     461.785E-03    -231.417E-03     23.0174E-03
            1091     1.42804E-03     149.425E-03    -132.267E+06    -269.605E+06    -124.666E+06    -4.29958E+06    -231.184E-03     462.357E-03    -231.173E-03     48.2181E-03    -231.543E-03     461.651E-03    -231.214E-03     43.1376E-03
            1092     2.14249E-03     149.500E-03    -127.203E+06    -256.894E+06    -109.036E+06    -6.71679E+06    -231.003E-03     461.942E-03    -230.939E-03     71.7319E-03    -231.691E-03     461.582E-03    -230.928E-03     64.1514E-03
            1093     2.85762E-03     149.604E-03    -119.575E+06    -236.148E+06    -93.7668E+06     -8.9047E+06    -230.745E-03     461.344E-03    -230.599E-03     95.3686E-03    -231.899E-03     461.506E-03    -230.552E-03     85.1978E-03
            1094     3.57369E-03     149.737E-03    -111.564E+06    -214.270E+06    -80.1997E+06    -9.98557E+06    -230.286E-03     460.426E-03    -230.140E-03     119.194E-03    -232.056E-03     461.271E-03    -230.068E-03     106.377E-03
            1095     4.29073E-03     149.897E-03    -104.702E+06    -194.398E+06    -65.8851E+06    -10.7040E+06    -229.533E-03     459.095E-03    -229.561E-03     143.294E-03    -232.104E-03     460.794E-03    -229.457E-03     127.703E-03
            1096     5.00960E-03     150.084E-03    -97.7443E+06    -172.230E+06    -49.8012E+06    -11.5529E+06    -228.545E-03     457.398E-03    -228.853E-03     167.642E-03    -232.124E-03     460.161E-03    -228.710E-03     149.177E-03
            1097     5.73030E-03     150.297E-03    -90.3874E+06    -146.876E+06    -33.6007E+06    -12.4173E+06    -227.405E-03     455.416E-03    -228.012E-03     192.306E-03    -232.212E-03     459.477E-03    -227.835E-03     170.906E-03
            1098     6.45293E-03     150.535E-03    -82.8989E+06    -118.804E+06    -18.5826E+06    -13.0351E+06    -226.234E-03     453.284E-03    -227.050E-03     217.106E-03    -232.522E-03     458.909E-03    -226.851E-03     192.688E-03
            1099     7.17781E-03     150.797E-03    -75.7588E+06    -91.0738E+06    -3.68595E+06    -12.8474E+06    -225.144E-03     451.151E-03    -226.007E-03     242.027E-03    -233.201E-03     458.625E-03    -225.784E-03     214.517E-03
            1100     7.90488E-03     151.085E-03    -68.0326E+06    -58.4272E+06     11.9232E+06    -10.9615E+06    -224.195E-03     449.102E-03    -224.907E-03     266.659E-03    -234.312E-03     458.733E-03    -224.664E-03     236.071E-03
            1101     8.63363E-03     151.395E-03    -58.3217E+06    -20.4952E+06     29.2877E+06    -7.10741E+06    -223.813E-03     447.612E-03    -223.798E-03     289.647E-03    -236.188E-03     459.620E-03    -223.538E-03     256.120E-03
            1102     9.36301E-03     151.728E-03    -48.0862E+06     20.7780E+06     46.6684E+06     124.332E+03    -224.172E-03     446.928E-03    -222.756E-03     308.011E-03    -238.780E-03     461.303E-03    -222.483E-03     271.917E-03
            1103     10.0935E-03     152.076E-03    -36.9696E+06     63.0483E+06     63.1192E+06     6.12995E+06    -225.397E-03     447.271E-03    -221.874E-03     318.133E-03    -241.761E-03     463.545E-03    -221.596E-03     280.162E-03
            1104     10.8221E-03     152.429E-03    -28.0586E+06     83.8628E+06     78.5391E+06     6.43496E+06    -227.707E-03     449.000E-03    -221.294E-03     316.793E-03    -244.817E-03     466.081E-03    -220.982E-03     277.897E-03
            1105     11.5464E-03     152.770E-03    -23.6255E+06     95.6445E+06     92.0098E+06     6.82509E+06    -231.161E-03     452.248E-03    -221.087E-03     303.796E-03    -247.917E-03     468.994E-03    -220.731E-03     264.822E-03
            1106     12.2679E-03     153.091E-03    -20.2020E+06     87.5649E+06     100.195E+06     5.16137E+06    -236.579E-03     457.900E-03    -221.321E-03     279.462E-03    -251.657E-03     472.929E-03    -220.918E-03     241.370E-03
            1107     12.9815E-03     153.376E-03    -14.1896E+06     78.7055E+06     104.668E+06      64.195E+03    -243.920E-03     465.937E-03    -222.017E-03     254.833E-03    -257.533E-03     479.479E-03    -221.587E-03     216.256E-03
            1108     13.6883E-03     153.651E-03    -5.61681E+06     103.255E+06     113.279E+06     79.7735E+03    -252.306E-03     475.487E-03    -223.182E-03     190.037E-03    -261.480E-03     484.683E-03    -222.757E-03     157.156E-03
            1109     715.650E-06     150.880E-03    -133.248E+06    -268.026E+06    -130.914E+06    -1.89893E+06    -228.515E-03     456.827E-03    -228.312E-03     26.9468E-03    -228.687E-03     455.954E-03    -228.385E-03     24.3418E-03
            1110     1.43173E-03     150.926E-03    -129.949E+06    -259.344E+06    -122.728E+06    -4.69569E+06    -228.103E-03     456.286E-03    -228.183E-03     50.3431E-03    -228.460E-03     455.615E-03    -228.232E-03     45.5640E-03
            1111     2.14874E-03     150.999E-03    -124.392E+06    -245.468E+06    -108.743E+06     -8.0661E+06    -227.634E-03     455.456E-03    -227.823E-03     74.9426E-03    -228.305E-03     455.129E-03    -227.830E-03     67.8214E-03
            1112     2.86650E-03     151.102E-03    -117.401E+06    -227.802E+06    -92.5959E+06    -10.2948E+06    -226.986E-03     454.305E-03    -227.319E-03     99.9653E-03    -228.109E-03     454.469E-03    -227.281E-03     90.4473E-03
            1113     3.58543E-03     151.232E-03    -110.616E+06    -208.964E+06    -76.7015E+06    -10.9418E+06    -226.067E-03     452.723E-03    -226.656E-03     125.312E-03    -227.795E-03     453.537E-03    -226.576E-03     113.346E-03
            1114     4.30643E-03     151.389E-03    -103.663E+06    -188.647E+06    -61.3905E+06    -11.5193E+06    -224.859E-03     450.681E-03    -225.822E-03     151.047E-03    -227.366E-03     452.326E-03    -225.705E-03     136.542E-03
            1115     5.02929E-03     151.572E-03    -96.0086E+06    -166.884E+06    -45.6760E+06    -12.2680E+06    -223.524E-03     448.352E-03    -224.828E-03     177.159E-03    -227.003E-03     451.027E-03    -224.675E-03     160.036E-03
            1116     5.75444E-03     151.781E-03    -87.8002E+06    -142.151E+06    -29.4703E+06    -13.0014E+06    -222.289E-03     445.992E-03    -223.704E-03     203.545E-03    -226.959E-03     449.929E-03    -223.517E-03     183.715E-03
            1117     6.48220E-03     152.015E-03    -79.8134E+06    -114.823E+06    -13.1745E+06    -12.3864E+06    -221.324E-03     443.818E-03    -222.494E-03     229.869E-03    -227.430E-03     449.268E-03    -222.278E-03     207.265E-03
            1118     7.21174E-03     152.276E-03    -72.2466E+06    -87.4459E+06     2.54766E+06    -11.5318E+06    -220.746E-03     441.995E-03    -221.249E-03     256.026E-03    -228.585E-03     449.256E-03    -221.005E-03     230.481E-03
            1119     7.94327E-03     152.559E-03    -64.1791E+06    -57.7195E+06     16.9783E+06    -11.5259E+06    -220.852E-03     440.867E-03    -220.015E-03     281.591E-03    -230.726E-03     450.257E-03    -219.753E-03     252.934E-03
            1120     8.67622E-03     152.870E-03    -56.6510E+06    -27.7183E+06     30.5880E+06    -9.38231E+06    -221.950E-03     440.818E-03    -218.868E-03     305.383E-03    -234.061E-03     452.538E-03    -218.593E-03     273.695E-03
            1121     9.40964E-03     153.204E-03    -48.2454E+06     7.89130E+06     46.1984E+06     -5.1444E+06    -224.224E-03     442.125E-03    -217.901E-03     324.585E-03    -238.612E-03     456.235E-03    -217.612E-03     290.015E-03
            1122     10.1409E-03     153.555E-03    -39.8867E+06     52.7538E+06     61.8871E+06     153.389E+03    -227.886E-03     445.104E-03    -217.218E-03     335.091E-03    -244.167E-03     461.251E-03    -216.927E-03     298.082E-03
            1123     10.8690E-03     153.914E-03    -33.7488E+06     78.9848E+06     74.2736E+06     6.51138E+06    -232.805E-03     449.767E-03    -216.962E-03     333.010E-03    -249.964E-03     466.873E-03    -216.656E-03     294.530E-03
            1124     11.5929E-03     154.264E-03    -27.2713E+06     98.4041E+06     88.0718E+06     8.55732E+06    -239.486E-03     456.727E-03    -217.240E-03     318.828E-03    -256.438E-03     473.679E-03    -216.903E-03     279.438E-03
            1125     12.3077E-03     154.595E-03    -17.5655E+06      96.396E+06     102.185E+06     4.20889E+06    -248.386E-03     466.532E-03    -218.146E-03     292.197E-03    -263.800E-03     481.935E-03    -217.749E-03     252.603E-03
            1126     13.0133E-03     154.899E-03    -9.56755E+06     82.4385E+06     108.475E+06     1.42354E+06    -258.619E-03     478.266E-03    -219.647E-03     265.342E-03    -272.647E-03     492.244E-03    -219.211E-03     224.366E-03
            1127     13.7082E-03     155.188E-03    -6.81952E+06     102.939E+06     115.781E+06     1.36234E+06    -268.858E-03     490.534E-03    -221.675E-03     198.254E-03    -278.362E-03     500.048E-03    -221.236E-03     163.000E-03
            1128     719.285E-06     152.371E-03    -126.863E+06    -259.056E+06    -125.533E+06    -2.54511E+06    -223.819E-03     447.241E-03    -223.422E-03     28.4291E-03    -223.977E-03     446.390E-03    -223.490E-03     26.0400E-03
            1129     1.43882E-03     152.415E-03    -122.780E+06    -247.519E+06    -114.864E+06    -5.38483E+06    -223.141E-03     446.469E-03    -223.328E-03     53.3407E-03    -223.480E-03     445.824E-03    -223.366E-03     48.9685E-03
            1130     2.15899E-03     152.487E-03    -117.005E+06    -233.382E+06    -102.329E+06    -8.30443E+06    -222.279E-03     445.094E-03    -222.816E-03     79.5569E-03    -222.915E-03     444.780E-03    -222.819E-03     73.0832E-03
            1131     2.88096E-03     152.586E-03    -111.972E+06    -220.309E+06     -88.249E+06    -10.0206E+06    -221.095E-03     443.180E-03    -222.084E-03     106.309E-03    -222.162E-03     443.319E-03    -222.044E-03     97.6968E-03
            1132     3.60496E-03     152.713E-03    -105.959E+06    -202.822E+06    -71.7206E+06    -10.7093E+06    -219.692E-03     440.841E-03    -221.149E-03     133.384E-03    -221.337E-03     441.593E-03    -221.060E-03     122.593E-03
            1133     4.33085E-03     152.866E-03    -97.7011E+06    -181.894E+06    -54.1417E+06    -11.7648E+06    -218.180E-03     438.208E-03    -220.029E-03     160.965E-03    -220.562E-03     439.750E-03    -219.894E-03     147.919E-03
            1134     5.05956E-03     153.045E-03    -89.0513E+06    -160.903E+06    -38.0351E+06    -12.7112E+06    -216.842E-03     435.600E-03    -218.758E-03     189.007E-03    -220.149E-03     438.125E-03    -218.585E-03     173.599E-03
            1135     5.79093E-03     153.250E-03    -80.8898E+06    -137.650E+06    -22.7687E+06    -12.3505E+06    -215.930E-03     433.325E-03    -217.394E-03     217.181E-03    -220.373E-03     437.052E-03    -217.191E-03     199.337E-03
            1136     6.52407E-03     153.482E-03    -73.1378E+06    -113.034E+06    -7.71482E+06    -11.1355E+06    -215.573E-03     431.577E-03    -216.003E-03     245.271E-03    -221.408E-03     436.768E-03    -215.772E-03     224.823E-03
            1137     7.25968E-03     153.739E-03    -65.0025E+06    -84.4347E+06     7.87514E+06    -9.62573E+06    -216.219E-03     430.873E-03    -214.654E-03     273.160E-03    -223.754E-03     437.850E-03    -214.398E-03     249.849E-03
            1138     7.99610E-03     154.025E-03    -58.6962E+06    -55.5294E+06     22.2774E+06    -7.75192E+06    -218.215E-03     431.652E-03    -213.437E-03     300.096E-03    -227.790E-03     440.754E-03    -213.160E-03     273.613E-03
            1139     8.73234E-03     154.335E-03    -53.7518E+06    -26.3643E+06     37.2323E+06    -5.40866E+06    -221.578E-03     434.027E-03    -212.450E-03     324.457E-03    -233.448E-03     445.504E-03    -212.147E-03     294.645E-03
            1140     9.46768E-03     154.673E-03    -49.7221E+06     6.68342E+06     50.9944E+06    -3.84215E+06    -226.581E-03     438.357E-03    -211.776E-03     343.841E-03    -240.854E-03     452.330E-03    -211.459E-03     310.559E-03
            1141     10.2002E-03     155.033E-03    -45.6947E+06     42.4425E+06     63.4789E+06     349.691E+03    -233.343E-03     444.883E-03    -211.540E-03     353.582E-03    -249.616E-03     460.963E-03    -211.218E-03     317.191E-03
            1142     10.9268E-03     155.402E-03    -38.4287E+06     70.6931E+06     76.1950E+06     4.38951E+06    -241.907E-03     453.801E-03    -211.894E-03     349.645E-03    -259.184E-03     470.976E-03    -211.560E-03     310.880E-03
            1143     11.6440E-03     155.765E-03    -29.0188E+06     102.102E+06     90.7757E+06     3.99751E+06    -252.408E-03     465.346E-03    -212.939E-03     333.824E-03    -269.662E-03     482.603E-03    -212.591E-03     293.027E-03
            1144     12.3504E-03     156.120E-03    -22.3133E+06     105.590E+06     103.459E+06     65.6518E+03    -264.423E-03     479.172E-03    -214.749E-03     305.898E-03    -280.308E-03     495.061E-03    -214.352E-03     263.962E-03
            1145     13.0445E-03     156.438E-03    -15.8336E+06     77.9101E+06     103.373E+06    -2.71274E+06    -277.543E-03     494.783E-03    -217.240E-03     277.627E-03    -292.173E-03     509.342E-03    -216.813E-03     233.247E-03
            1146     13.7287E-03     156.755E-03    -6.13690E+06     97.9388E+06     113.204E+06     816.863E+03    -289.141E-03     509.443E-03    -220.301E-03     206.691E-03    -299.006E-03     519.312E-03    -219.869E-03     168.482E-03
            1147     723.937E-06     153.844E-03    -118.771E+06    -247.295E+06    -116.728E+06    -3.89111E+06    -216.695E-03     432.724E-03    -216.030E-03     30.8191E-03    -216.839E-03     431.902E-03    -216.082E-03     28.7240E-03
            1148     1.44874E-03     153.887E-03    -112.958E+06    -236.686E+06    -106.704E+06    -5.91025E+06    -215.583E-03     431.553E-03    -215.970E-03     57.3383E-03    -215.885E-03     430.916E-03    -215.996E-03     53.5058E-03
            1149     2.17513E-03     153.956E-03    -108.733E+06    -223.749E+06    -93.8898E+06    -7.33089E+06    -214.319E-03     429.593E-03    -215.274E-03     85.4606E-03    -214.903E-03     429.261E-03    -215.261E-03     79.8451E-03
            1150     2.90308E-03     154.052E-03    -103.838E+06    -212.136E+06    -78.1296E+06    -9.01119E+06    -212.777E-03     427.100E-03    -214.322E-03     114.345E-03    -213.764E-03     427.183E-03    -214.255E-03     106.888E-03
            1151     3.63331E-03     154.174E-03    -96.6138E+06    -195.630E+06    -62.6304E+06    -10.4600E+06    -211.080E-03     424.213E-03    -213.133E-03     143.513E-03    -212.594E-03     424.862E-03    -213.022E-03     134.181E-03
            1152     4.36664E-03     154.323E-03    -89.0828E+06    -174.929E+06    -47.5015E+06    -11.5227E+06    -209.598E-03     421.360E-03    -211.763E-03     173.233E-03    -211.796E-03     422.751E-03    -211.617E-03     161.957E-03
            1153     5.10239E-03     154.498E-03    -82.1458E+06    -155.476E+06    -32.6938E+06    -11.8176E+06    -208.704E-03     419.003E-03    -210.300E-03     203.438E-03    -211.774E-03     421.316E-03    -210.118E-03     190.080E-03
            1154     5.84021E-03     154.701E-03    -75.4819E+06    -134.330E+06    -18.6117E+06    -10.7663E+06    -208.536E-03     417.349E-03    -208.813E-03     233.642E-03    -212.687E-03     420.801E-03    -208.602E-03     218.073E-03
            1155     6.58081E-03     154.930E-03    -69.0944E+06    -111.124E+06    -4.48311E+06    -9.57561E+06    -209.569E-03     416.956E-03    -207.387E-03     263.606E-03    -215.071E-03     421.825E-03    -207.148E-03     245.540E-03
            1156     7.32210E-03     155.188E-03    -63.7823E+06    -85.1545E+06     9.22936E+06    -7.56226E+06    -212.255E-03     418.380E-03    -206.125E-03     292.854E-03    -219.439E-03     425.003E-03    -205.863E-03     271.899E-03
            1157     8.06359E-03     155.475E-03    -58.5964E+06    -56.8603E+06     24.9835E+06    -3.25574E+06    -216.807E-03     421.952E-03    -205.146E-03     320.533E-03    -226.034E-03     430.694E-03    -204.853E-03     296.271E-03
            1158     8.80348E-03     155.793E-03    -53.5516E+06     -24.793E+06     41.8599E+06     825.864E+03    -223.571E-03     428.130E-03    -204.559E-03     345.195E-03    -235.207E-03     439.366E-03    -204.236E-03     317.069E-03
            1159     9.53917E-03     156.140E-03    -48.9701E+06     10.2118E+06     57.2387E+06     3.79658E+06    -232.506E-03     436.983E-03    -204.477E-03     364.011E-03    -246.699E-03     450.875E-03    -204.134E-03     331.631E-03
            1160     10.2685E-03     156.512E-03    -42.7155E+06     43.0979E+06     71.8456E+06     4.62458E+06    -243.238E-03     448.264E-03    -205.025E-03     371.922E-03    -259.572E-03     464.397E-03    -204.667E-03     335.442E-03
            1161     10.9893E-03     156.897E-03    -34.7989E+06     71.0797E+06     84.0262E+06     3.00664E+06    -255.782E-03     462.093E-03    -206.311E-03     366.357E-03    -273.302E-03     479.507E-03    -205.944E-03     326.320E-03
            1162     11.6978E-03     157.284E-03    -27.7068E+06     101.662E+06     96.7331E+06     3.82720E+06    -269.589E-03     477.995E-03    -208.405E-03     348.830E-03    -287.231E-03     495.629E-03    -208.029E-03     305.821E-03
            1163     12.3943E-03     157.658E-03    -20.8965E+06     117.600E+06     112.621E+06     3.86839E+06    -284.422E-03     495.763E-03    -211.341E-03     318.709E-03    -300.797E-03     512.166E-03    -210.918E-03     273.759E-03
            1164     13.0769E-03     158.009E-03    -14.8336E+06     86.0224E+06     105.029E+06    -1.87570E+06    -299.675E-03     514.638E-03    -214.963E-03     288.260E-03    -314.825E-03     529.747E-03    -214.541E-03     240.016E-03
            1165     13.7423E-03     158.350E-03    -10.2511E+06     88.2165E+06     102.560E+06    -5.91260E+06    -310.561E-03     529.667E-03    -219.106E-03     214.157E-03    -320.721E-03     539.814E-03    -218.706E-03     172.778E-03
            1166     731.875E-06     155.293E-03    -109.824E+06    -233.962E+06    -109.298E+06    -3.80652E+06    -206.314E-03     411.799E-03    -205.485E-03     33.6693E-03    -206.438E-03     411.007E-03    -205.533E-03     31.9603E-03
            1167     1.46417E-03     155.333E-03    -108.274E+06    -227.168E+06    -101.943E+06    -5.85645E+06    -204.961E-03     410.393E-03    -205.432E-03     62.3529E-03    -205.238E-03     409.762E-03    -205.456E-03     59.2167E-03
            1168     2.19799E-03     155.399E-03    -104.561E+06    -216.056E+06    -90.1034E+06    -7.43706E+06    -203.502E-03     408.120E-03    -204.618E-03     92.7026E-03    -204.030E-03     407.758E-03    -204.604E-03     88.1023E-03
            1169     2.93437E-03     155.491E-03    -98.6621E+06    -203.588E+06    -74.7656E+06    -8.72299E+06    -201.792E-03     405.308E-03    -203.516E-03     123.909E-03    -202.674E-03     405.320E-03    -203.451E-03     117.821E-03
            1170     3.67339E-03     155.609E-03    -92.5250E+06    -188.224E+06    -59.7949E+06    -10.1514E+06    -200.256E-03     402.443E-03    -202.187E-03     155.504E-03    -201.614E-03     402.965E-03    -202.079E-03     147.863E-03
            1171     4.41492E-03     155.753E-03    -86.3859E+06    -169.300E+06    -45.7307E+06    -10.5679E+06    -199.321E-03     400.047E-03    -200.726E-03     187.705E-03    -201.304E-03     401.242E-03    -200.584E-03     178.426E-03
            1172     5.15899E-03     155.926E-03    -80.3046E+06    -151.615E+06    -31.7347E+06    -9.94178E+06    -199.357E-03     398.598E-03    -199.241E-03     220.277E-03    -202.140E-03     400.638E-03    -199.063E-03     209.191E-03
            1173     5.90558E-03     156.126E-03    -74.6803E+06    -132.601E+06    -17.5497E+06    -8.30201E+06    -200.880E-03     398.720E-03    -197.839E-03     252.468E-03    -204.691E-03     401.836E-03    -197.627E-03     239.309E-03
            1174     6.65266E-03     156.357E-03    -70.3622E+06    -109.707E+06    -3.44653E+06    -5.36021E+06    -204.398E-03     401.042E-03    -196.644E-03     283.917E-03    -209.530E-03     405.537E-03    -196.400E-03     268.285E-03
            1175     7.39958E-03     156.619E-03    -67.2895E+06    -85.1000E+06     10.6950E+06    -2.01084E+06    -210.104E-03     405.887E-03    -195.782E-03     313.827E-03    -216.920E-03     412.127E-03    -195.508E-03     295.159E-03
            1176     8.14428E-03     156.913E-03    -64.0441E+06    -58.6981E+06     25.4417E+06     1.18751E+06    -218.186E-03     413.554E-03    -195.367E-03     341.383E-03    -227.087E-03     421.945E-03    -195.062E-03     319.007E-03
            1177     8.88499E-03     157.242E-03    -60.0824E+06    -26.5244E+06     40.8074E+06     3.89365E+06    -229.044E-03     424.556E-03    -195.512E-03     365.502E-03    -240.448E-03     435.537E-03    -195.182E-03     338.609E-03
            1178     9.61889E-03     157.605E-03    -53.4084E+06     12.2016E+06     57.6685E+06     4.82090E+06    -242.386E-03     438.728E-03    -196.342E-03     382.929E-03    -256.495E-03     452.531E-03    -195.994E-03     350.843E-03
            1179     10.3433E-03     157.997E-03    -44.9527E+06     49.6965E+06     74.3110E+06     2.69500E+06    -257.515E-03     455.484E-03    -197.969E-03     389.895E-03    -274.042E-03     471.824E-03    -197.604E-03     352.389E-03
            1180     11.0547E-03     158.407E-03    -37.3921E+06     74.0381E+06     84.2477E+06     405.929E+03    -274.009E-03     474.463E-03    -200.455E-03     383.074E-03    -291.948E-03     492.303E-03    -200.086E-03     340.768E-03
            1181     11.7535E-03     158.819E-03    -27.9298E+06     97.4577E+06     94.2088E+06     336.531E+03    -291.477E-03     495.318E-03    -203.841E-03     362.545E-03    -309.595E-03     513.427E-03    -203.471E-03     316.176E-03
            1182     12.4353E-03     159.225E-03    -16.0252E+06     117.143E+06     112.019E+06     970.590E+03    -308.170E-03     516.280E-03    -208.110E-03     329.258E-03    -325.048E-03     533.209E-03    -207.697E-03     280.143E-03
            1183     13.1000E-03     159.607E-03    -7.07871E+06     92.4181E+06     104.942E+06     867.851E+03    -322.104E-03     535.064E-03    -212.960E-03     297.123E-03    -337.666E-03     550.637E-03    -212.559E-03     244.866E-03
            1184     13.7564E-03     159.977E-03    -1.16081E+06     90.9509E+06     101.176E+06    -622.851E+03    -330.422E-03     548.564E-03    -218.142E-03     220.998E-03    -340.762E-03     558.938E-03    -217.767E-03     176.887E-03
            1185     741.768E-06     156.706E-03    -106.455E+06     -221.98E+06    -108.413E+06    -3.58946E+06    -192.374E-03     383.914E-03    -191.540E-03     36.4713E-03    -192.491E-03     383.160E-03    -191.606E-03     35.1897E-03
            1186     1.48480E-03     156.744E-03    -107.434E+06    -217.949E+06    -100.611E+06    -5.54643E+06    -190.961E-03     382.412E-03    -191.451E-03     67.5298E-03    -191.217E-03     381.783E-03    -191.482E-03     65.1794E-03
            1187     2.22929E-03     156.807E-03    -103.413E+06    -207.648E+06    -90.4507E+06    -7.46883E+06    -189.664E-03     380.258E-03    -190.594E-03     100.529E-03    -190.127E-03     379.859E-03    -190.595E-03     97.0469E-03
            1188     2.97588E-03     156.895E-03    -98.6028E+06    -195.838E+06    -78.2658E+06    -9.25650E+06    -188.276E-03     377.756E-03    -189.481E-03     134.353E-03    -189.038E-03     377.680E-03    -189.445E-03     129.719E-03
            1189     3.72521E-03     157.009E-03    -93.0858E+06    -182.110E+06    -62.9689E+06    -9.62099E+06    -187.452E-03     375.658E-03    -188.206E-03     168.757E-03    -188.625E-03     376.018E-03    -188.122E-03     162.904E-03
            1190     4.47684E-03     157.151E-03    -88.1687E+06    -166.212E+06    -47.4616E+06    -8.23429E+06    -187.819E-03     374.711E-03    -186.892E-03     203.566E-03    -189.545E-03     375.655E-03    -186.760E-03     196.368E-03
            1191     5.23063E-03     157.322E-03    -84.7671E+06    -150.381E+06    -33.4178E+06    -5.72738E+06    -189.894E-03     375.569E-03    -185.674E-03     238.138E-03    -192.360E-03     377.283E-03    -185.500E-03     229.339E-03
            1192     5.98477E-03     157.525E-03    -83.1348E+06    -131.922E+06    -20.2687E+06    -2.79222E+06    -194.258E-03     378.955E-03    -184.697E-03     271.812E-03    -197.714E-03     381.696E-03    -184.486E-03     261.007E-03
            1193     6.73828E-03     157.761E-03    -81.4437E+06    -110.236E+06    -7.05776E+06     2.04612E+03    -201.209E-03     385.311E-03    -184.102E-03     304.087E-03    -205.966E-03     389.403E-03    -183.859E-03     290.716E-03
            1194     7.48900E-03     158.032E-03    -78.1515E+06    -84.9690E+06     7.37892E+06     2.88117E+06    -210.903E-03     394.918E-03    -184.015E-03     334.149E-03    -217.348E-03     400.763E-03    -183.742E-03     317.471E-03
            1195     8.23487E-03     158.340E-03    -73.5693E+06    -56.0902E+06     22.4105E+06     3.62659E+06    -223.481E-03     408.030E-03    -184.549E-03     361.237E-03    -232.102E-03     416.131E-03    -184.249E-03     340.223E-03
            1196     8.97349E-03     158.686E-03    -65.6669E+06    -23.6610E+06     38.6182E+06     2.69057E+06    -238.763E-03     424.563E-03    -185.800E-03     384.481E-03    -249.990E-03     435.370E-03    -185.477E-03     358.137E-03
            1197     9.70239E-03     159.073E-03    -55.6863E+06     15.7253E+06     55.5376E+06     1.66701E+06    -256.270E-03     444.116E-03    -187.846E-03     400.885E-03    -270.375E-03     457.931E-03    -187.510E-03     368.290E-03
            1198     10.4188E-03     159.491E-03    -46.5803E+06     56.2354E+06     70.8848E+06    -544.866E+03    -275.746E-03     466.527E-03    -190.782E-03     406.374E-03    -292.497E-03     483.126E-03    -190.441E-03     367.051E-03
            1199     11.1213E-03     159.934E-03    -36.6911E+06     78.7329E+06     80.0059E+06    -2.96942E+06    -296.452E-03     491.139E-03    -194.687E-03     396.919E-03    -314.785E-03     509.411E-03    -194.348E-03     351.434E-03
            1200     11.8041E-03     160.381E-03    -27.1035E+06     98.0007E+06     88.3163E+06    -6.02679E+06    -316.305E-03     515.843E-03    -199.539E-03     374.847E-03    -334.986E-03     534.542E-03    -199.200E-03     324.123E-03
            1201     12.4689E-03     160.826E-03    -18.9379E+06     110.585E+06     101.823E+06    -7.62795E+06    -332.528E-03     537.710E-03    -205.182E-03     340.961E-03    -350.023E-03     555.253E-03    -204.806E-03     287.114E-03
            1202     13.1226E-03     161.233E-03    -11.5344E+06     83.3039E+06     94.7797E+06    -6.55301E+06    -343.914E-03     555.142E-03    -211.227E-03     306.822E-03    -360.047E-03     571.267E-03    -210.858E-03     249.986E-03
            1203     13.7645E-03     161.629E-03    -6.40388E+06     87.3867E+06     94.8367E+06    -2.22525E+06    -348.300E-03     565.676E-03    -217.376E-03     227.808E-03    -358.983E-03     576.380E-03    -217.020E-03     180.566E-03
            1204     755.002E-06     158.076E-03    -109.199E+06    -211.839E+06    -108.425E+06    -2.76328E+06    -175.018E-03     349.202E-03    -174.184E-03     39.6661E-03    -175.156E-03     348.485E-03    -174.261E-03     38.7859E-03
            1205     1.51071E-03     158.112E-03    -108.460E+06    -208.881E+06    -102.888E+06    -5.06641E+06    -173.846E-03     347.961E-03    -174.114E-03     73.1470E-03    -174.080E-03     347.337E-03    -174.169E-03     71.5541E-03
            1206     2.26813E-03     158.173E-03    -105.949E+06    -199.289E+06    -94.9490E+06    -7.00516E+06    -173.007E-03     346.350E-03    -173.343E-03     108.863E-03    -173.403E-03     345.910E-03    -173.375E-03     106.493E-03
            1207     3.02752E-03     158.258E-03    -103.849E+06    -190.314E+06    -83.7022E+06    -7.23266E+06    -172.737E-03     345.164E-03    -172.426E-03     145.447E-03    -173.379E-03     344.977E-03    -172.418E-03     142.258E-03
            1208     3.78870E-03     158.370E-03    -102.976E+06    -179.501E+06    -71.2311E+06    -5.73164E+06    -173.624E-03     345.110E-03    -171.486E-03     182.435E-03    -174.618E-03     345.286E-03    -171.433E-03     178.324E-03
            1209     4.55159E-03     158.513E-03    -102.716E+06    -166.643E+06    -57.4746E+06    -2.69650E+06    -176.424E-03     347.093E-03    -170.669E-03     219.179E-03    -177.907E-03     347.769E-03    -170.565E-03     213.955E-03
            1210     5.31404E-03     158.687E-03    -101.969E+06    -151.638E+06    -42.9937E+06     237.759E+03    -181.796E-03     351.929E-03    -170.133E-03     255.271E-03    -183.963E-03     353.308E-03    -169.980E-03     248.556E-03
            1211     6.07530E-03     158.897E-03    -98.7114E+06    -131.221E+06    -28.0263E+06     2.30652E+06    -189.990E-03     360.009E-03    -170.019E-03     289.841E-03    -193.094E-03     362.371E-03    -169.825E-03     281.099E-03
            1212     6.83297E-03     159.144E-03    -92.8593E+06    -109.016E+06    -12.8567E+06     3.14528E+06    -201.129E-03     371.578E-03    -170.449E-03     322.225E-03    -205.495E-03     375.264E-03    -170.221E-03     310.744E-03
            1213     7.58523E-03     159.430E-03    -84.4223E+06    -83.9367E+06     2.50033E+06     2.86990E+06    -215.323E-03     386.848E-03    -171.525E-03     352.039E-03    -221.386E-03     392.312E-03    -171.268E-03     336.840E-03
            1214     8.32963E-03     159.759E-03    -72.6755E+06    -50.4330E+06     20.0558E+06     1.93631E+06    -232.496E-03     405.835E-03    -173.339E-03     378.794E-03    -240.782E-03     413.637E-03    -173.060E-03     358.678E-03
            1215     9.06332E-03     160.131E-03    -60.8205E+06    -17.8117E+06     36.6364E+06     530.230E+03    -252.310E-03     428.278E-03    -175.968E-03     401.286E-03    -263.346E-03     438.945E-03    -175.671E-03     374.920E-03
            1216     9.78541E-03     160.545E-03    -50.4665E+06     20.5134E+06     53.4053E+06    -600.097E+03    -274.356E-03     453.842E-03    -179.486E-03     416.277E-03    -288.486E-03     467.733E-03    -179.176E-03     382.380E-03
            1217     10.4925E-03     161.000E-03    -39.6050E+06     65.1760E+06     69.8723E+06    -1.95750E+06    -298.029E-03     481.996E-03    -183.966E-03     419.460E-03    -314.945E-03     498.825E-03    -183.654E-03     377.551E-03
            1218     11.1793E-03     161.481E-03    -29.7123E+06     86.6268E+06     79.2897E+06    -5.45276E+06    -320.904E-03     510.329E-03    -189.425E-03     408.845E-03    -339.602E-03     529.025E-03    -189.111E-03     359.548E-03
            1219     11.8480E-03     161.972E-03    -21.0095E+06     98.8543E+06     88.1251E+06    -6.85235E+06    -340.505E-03     536.232E-03    -195.727E-03     386.606E-03    -359.663E-03     555.435E-03    -195.399E-03     331.577E-03
            1220     12.5030E-03     162.449E-03    -14.4249E+06     110.734E+06     102.233E+06    -4.96089E+06    -354.954E-03     557.578E-03    -202.624E-03     351.516E-03    -372.913E-03     575.602E-03    -202.252E-03     293.450E-03
            1221     13.1412E-03     162.894E-03    -11.4186E+06     82.2647E+06     95.0548E+06    -3.17515E+06    -363.686E-03     573.406E-03    -209.720E-03     315.984E-03    -380.271E-03     589.980E-03    -209.347E-03     255.301E-03
            1222     13.7722E-03     163.305E-03    -6.56355E+06     80.5630E+06     93.2862E+06    -3.33138E+06    -364.544E-03     581.245E-03    -216.701E-03     235.577E-03    -375.512E-03     592.213E-03    -216.342E-03     185.642E-03
            1223     770.892E-06     159.395E-03    -124.086E+06    -203.806E+06    -122.301E+06    -2.27258E+06    -154.389E-03     308.164E-03    -153.775E-03     43.0453E-03    -154.584E-03     307.511E-03    -153.911E-03     42.5287E-03
            1224     1.54213E-03     159.430E-03    -122.895E+06    -201.562E+06    -118.134E+06    -3.77800E+06    -154.132E-03     307.855E-03    -153.723E-03     79.0463E-03    -154.386E-03     307.262E-03    -153.843E-03     78.1260E-03
            1225     2.31467E-03     159.489E-03    -123.671E+06    -195.420E+06    -110.940E+06    -2.92201E+06    -154.661E-03     307.994E-03    -153.333E-03     117.528E-03    -155.039E-03     307.527E-03    -153.425E-03     116.164E-03
            1226     3.08814E-03     159.574E-03    -125.244E+06    -189.130E+06    -100.035E+06    -807.299E+03    -156.554E-03     309.545E-03    -152.991E-03     156.288E-03    -157.124E-03     309.261E-03    -153.035E-03     154.402E-03
            1227     3.86189E-03     159.689E-03    -125.531E+06    -179.932E+06    -86.3842E+06     1.36484E+06    -160.487E-03     313.330E-03    -152.843E-03     195.024E-03    -161.341E-03     313.329E-03    -152.832E-03     192.434E-03
            1228     4.63421E-03     159.836E-03    -122.624E+06    -167.701E+06    -70.3635E+06     2.70267E+06    -166.979E-03     320.003E-03    -153.025E-03     232.991E-03    -168.242E-03     320.427E-03    -152.955E-03     229.396E-03
            1229     5.40479E-03     160.020E-03    -115.691E+06    -150.392E+06    -52.5969E+06     2.75244E+06    -176.359E-03     330.008E-03    -153.649E-03     269.729E-03    -178.216E-03     331.066E-03    -153.526E-03     264.687E-03
            1230     6.17053E-03     160.243E-03    -105.687E+06    -128.779E+06    -34.8160E+06     1.33530E+06    -188.814E-03     343.631E-03    -154.817E-03     304.560E-03    -191.538E-03     345.623E-03    -154.651E-03     297.418E-03
            1231     6.93014E-03     160.508E-03    -92.8882E+06    -105.603E+06    -17.8304E+06    -754.355E+03    -204.485E-03     361.111E-03    -156.626E-03     337.020E-03    -208.429E-03     364.409E-03    -156.427E-03     326.922E-03
            1232     7.68131E-03     160.817E-03    -78.7093E+06    -79.8203E+06    -974.683E+03    -3.08624E+06    -223.242E-03     382.407E-03    -159.164E-03     366.499E-03    -228.880E-03     387.496E-03    -158.939E-03     352.310E-03
            1233     8.42192E-03     161.172E-03    -65.8908E+06    -47.1666E+06     16.1101E+06    -4.20401E+06    -244.830E-03     407.332E-03    -162.502E-03     392.127E-03    -252.712E-03     414.784E-03    -162.257E-03     372.499E-03
            1234     9.15073E-03     161.576E-03    -54.1806E+06    -15.6110E+06     32.4336E+06    -4.57765E+06    -269.210E-03     435.927E-03    -166.717E-03     412.738E-03    -279.937E-03     446.336E-03    -166.454E-03     385.946E-03
            1235     9.86254E-03     162.029E-03    -42.6781E+06     23.4173E+06     51.4119E+06    -4.59823E+06    -295.611E-03     467.501E-03    -171.890E-03     425.878E-03    -309.569E-03     481.270E-03    -171.605E-03     390.318E-03
            1236     10.5549E-03     162.525E-03    -33.0867E+06     71.4503E+06     68.3010E+06    -4.29338E+06    -321.444E-03     499.439E-03    -177.994E-03     428.579E-03    -338.347E-03     516.309E-03    -177.709E-03     383.897E-03
            1237     11.2296E-03     163.052E-03    -25.0405E+06     93.9339E+06     78.9491E+06    -5.61714E+06    -344.255E-03     529.199E-03    -184.944E-03     418.295E-03    -363.146E-03     548.133E-03    -184.649E-03     365.340E-03
            1238     11.8879E-03     163.582E-03    -19.3828E+06       98.93E+06     88.9371E+06    -6.39494E+06    -362.711E-03     555.274E-03    -192.563E-03     394.816E-03    -382.177E-03     574.790E-03    -192.234E-03     335.686E-03
            1239     12.5270E-03     164.103E-03    -14.7504E+06     104.491E+06     101.210E+06    -4.24325E+06    -374.212E-03     574.768E-03    -200.557E-03     357.242E-03    -392.400E-03     593.001E-03    -200.181E-03     295.537E-03
            1240     13.1586E-03     164.571E-03    -7.77513E+06     77.6804E+06     96.7391E+06    -1.78074E+06    -379.114E-03     587.636E-03    -208.523E-03     319.772E-03    -395.867E-03     604.370E-03    -208.140E-03     255.979E-03
            1241     13.7835E-03     165.010E-03    -2.62732E+06     78.0665E+06     99.9307E+06    -1.21782E+06    -376.883E-03     593.070E-03    -216.186E-03     236.639E-03    -387.933E-03     604.104E-03    -215.796E-03     184.636E-03
            1242     788.829E-06     160.656E-03    -146.887E+06    -202.385E+06    -144.862E+06     2.67443E+06    -132.088E-03     263.055E-03    -130.967E-03     46.1178E-03    -132.354E-03     262.458E-03    -131.185E-03     45.9490E-03
            1243     1.57814E-03     160.692E-03    -151.857E+06    -199.004E+06    -143.588E+06     2.26028E+06    -133.297E-03     264.752E-03    -131.456E-03     84.1828E-03    -133.621E-03     264.208E-03    -131.665E-03     83.8405E-03
            1244     2.36662E-03     160.753E-03    -153.632E+06    -197.714E+06    -134.979E+06     3.70642E+06    -136.469E-03     268.347E-03    -131.877E-03     124.578E-03    -136.871E-03     267.861E-03    -132.043E-03     124.010E-03
            1245     3.15378E-03     160.843E-03    -150.590E+06    -188.938E+06    -119.442E+06     4.26392E+06    -141.732E-03     274.349E-03    -132.616E-03     164.933E-03    -142.256E-03     273.991E-03    -132.721E-03     164.010E-03
            1246     3.93839E-03     160.966E-03    -142.854E+06    -179.301E+06    -100.152E+06     2.50401E+06    -149.634E-03     283.392E-03    -133.758E-03     204.802E-03    -150.349E-03     283.239E-03    -133.792E-03     203.280E-03
            1247     4.71950E-03     161.125E-03    -131.529E+06    -165.089E+06    -80.1176E+06     185.436E+03    -160.429E-03     295.804E-03    -135.375E-03     243.491E-03    -161.464E-03     296.011E-03    -135.345E-03     241.018E-03
            1248     5.49423E-03     161.324E-03    -118.156E+06    -145.129E+06    -60.4352E+06    -3.00884E+06    -174.102E-03     311.627E-03    -137.525E-03     280.438E-03    -175.652E-03     312.418E-03    -137.446E-03     276.533E-03
            1249     6.26286E-03     161.567E-03    -103.771E+06    -123.104E+06    -41.9856E+06    -6.80588E+06    -190.878E-03     331.150E-03    -140.271E-03     315.155E-03    -193.226E-03     332.821E-03    -140.152E-03     309.116E-03
            1250     7.02240E-03     161.856E-03    -90.0716E+06    -99.7442E+06    -25.2060E+06    -10.9976E+06    -210.947E-03     354.645E-03    -143.697E-03     346.822E-03    -214.476E-03     357.586E-03    -143.548E-03     337.681E-03
            1251     7.77083E-03     162.193E-03    -77.7849E+06    -76.3827E+06    -9.26697E+06    -14.4171E+06    -234.117E-03     382.013E-03    -147.896E-03     374.607E-03    -239.290E-03     386.686E-03    -147.719E-03     361.133E-03
            1252     8.50587E-03     162.582E-03    -65.6379E+06    -48.0993E+06     7.64685E+06    -15.5806E+06    -260.139E-03     413.082E-03    -152.943E-03     397.817E-03    -267.533E-03     420.075E-03    -152.739E-03     378.377E-03
            1253     9.22373E-03     163.024E-03    -53.7949E+06    -17.3906E+06     24.9242E+06    -15.3646E+06    -288.310E-03     447.197E-03    -158.887E-03     416.189E-03    -298.493E-03     457.085E-03    -158.659E-03     388.936E-03
            1254     9.92388E-03     163.521E-03    -44.2275E+06     16.6062E+06     42.0111E+06    -13.7642E+06    -316.785E-03     482.500E-03    -165.715E-03     428.594E-03    -330.121E-03     495.647E-03    -165.465E-03     391.985E-03
            1255     10.6056E-03     164.065E-03    -35.6451E+06     68.6976E+06     61.0778E+06    -11.3781E+06    -342.867E-03     516.192E-03    -173.326E-03     430.803E-03    -359.233E-03     532.530E-03    -173.068E-03     384.245E-03
            1256     11.2697E-03     164.635E-03    -28.2866E+06     92.6615E+06     73.9801E+06    -9.63789E+06    -364.804E-03     546.404E-03    -181.600E-03     420.090E-03    -383.327E-03     564.970E-03    -181.323E-03     364.457E-03
            1257     11.9131E-03     165.216E-03    -22.4485E+06     91.9049E+06     85.8247E+06    -5.67233E+06    -380.274E-03     570.599E-03    -190.326E-03     397.614E-03    -399.714E-03     590.061E-03    -189.997E-03     335.138E-03
            1258     12.5458E-03     165.769E-03    -17.1988E+06     103.306E+06     104.484E+06    -3.46500E+06    -388.385E-03     587.561E-03    -199.177E-03     361.311E-03    -406.773E-03     605.970E-03    -198.779E-03     296.384E-03
            1259     13.1665E-03     166.268E-03    -13.5070E+06     82.0811E+06     104.133E+06    -7.22372E+06    -390.232E-03     598.006E-03    -207.774E-03     324.225E-03    -407.270E-03     614.997E-03    -207.353E-03     257.632E-03
            1260     13.7816E-03     166.720E-03    -7.45545E+06     70.3389E+06     105.171E+06    -5.53143E+06    -385.187E-03     601.068E-03    -215.881E-03     241.746E-03    -396.483E-03     612.289E-03    -215.447E-03     187.914E-03
            1261     808.154E-06     161.860E-03    -189.318E+06    -211.619E+06    -187.396E+06     6.14677E+06    -110.648E-03     219.010E-03    -108.362E-03     47.1324E-03    -111.036E-03     218.483E-03    -108.718E-03     47.1805E-03
            1262     1.61434E-03     161.900E-03    -186.082E+06    -201.195E+06    -176.166E+06     7.19865E+06    -113.895E-03     223.784E-03    -109.889E-03     86.5684E-03    -114.303E-03     223.298E-03    -110.208E-03     86.5900E-03
            1263     2.41778E-03     161.969E-03    -179.338E+06    -197.493E+06    -157.514E+06     4.14939E+06    -120.353E-03     231.791E-03    -111.439E-03     128.085E-03    -120.780E-03     231.316E-03    -111.680E-03     127.955E-03
            1264     3.21707E-03     162.069E-03    -167.955E+06    -184.668E+06    -136.971E+06    -765.202E+03    -129.568E-03     243.106E-03    -113.538E-03     169.346E-03    -130.050E-03     242.719E-03    -113.711E-03     168.908E-03
            1265     4.01085E-03     162.206E-03    -153.798E+06    -172.137E+06    -115.266E+06    -6.81192E+06    -141.602E-03     257.800E-03    -116.198E-03     209.779E-03    -142.206E-03     257.575E-03    -116.301E-03     208.800E-03
            1266     4.79728E-03     162.383E-03    -138.091E+06    -158.617E+06    -94.7568E+06    -13.0838E+06    -156.511E-03     275.923E-03    -119.412E-03     248.785E-03    -157.359E-03     275.993E-03    -119.456E-03     246.924E-03
            1267     5.57635E-03     162.604E-03    -121.704E+06    -138.143E+06    -74.5090E+06    -17.6289E+06    -174.515E-03     297.728E-03    -123.213E-03     285.450E-03    -175.811E-03     298.326E-03    -123.209E-03     282.214E-03
            1268     6.34474E-03     162.872E-03    -106.095E+06    -115.893E+06    -55.0462E+06    -22.1659E+06    -195.780E-03     323.452E-03    -127.672E-03     319.071E-03    -197.805E-03     324.863E-03    -127.625E-03     313.727E-03
            1269     7.10135E-03     163.191E-03    -91.1718E+06    -95.1472E+06    -35.9035E+06    -25.3834E+06    -220.135E-03     353.002E-03    -132.866E-03     348.462E-03    -223.236E-03     355.566E-03    -132.776E-03     340.025E-03
            1270     7.84375E-03     163.562E-03    -76.6014E+06    -73.8973E+06    -16.7631E+06    -26.5846E+06    -247.340E-03     386.201E-03    -138.862E-03     373.139E-03    -251.948E-03     390.350E-03    -138.727E-03     360.290E-03
            1271     8.56935E-03     163.991E-03    -64.0835E+06    -50.5621E+06     904.273E+03    -26.2664E+06    -276.728E-03     422.420E-03    -145.692E-03     393.432E-03    -283.365E-03     428.677E-03    -145.521E-03     374.480E-03
            1272     9.27711E-03     164.477E-03    -54.4591E+06    -22.8825E+06     17.6382E+06    -23.5325E+06    -306.823E-03     460.163E-03    -153.340E-03     409.189E-03    -315.983E-03     469.029E-03    -153.140E-03     382.379E-03
            1273     9.96608E-03     165.020E-03    -45.7795E+06     10.1519E+06     35.0481E+06    -21.1392E+06    -335.525E-03     497.250E-03    -161.725E-03     418.368E-03    -347.519E-03     509.048E-03    -161.498E-03     382.166E-03
            1274     10.6372E-03     165.610E-03    -38.1068E+06     57.9006E+06     55.3467E+06    -17.0167E+06    -360.277E-03     530.986E-03    -170.709E-03     417.849E-03    -375.101E-03     545.750E-03    -170.461E-03     371.486E-03
            1275     11.2872E-03     166.231E-03    -34.3089E+06     84.8176E+06     71.1216E+06    -9.76842E+06    -378.316E-03     558.400E-03    -180.083E-03     407.931E-03    -395.444E-03     575.526E-03    -179.801E-03     352.149E-03
            1276     11.9260E-03     166.851E-03    -32.1724E+06     87.9433E+06     84.5120E+06    -9.82525E+06    -389.077E-03     578.642E-03    -189.565E-03     389.106E-03    -407.643E-03     597.182E-03    -189.224E-03     325.577E-03
            1277     12.5525E-03     167.444E-03    -23.9597E+06     98.9886E+06     110.366E+06    -13.4142E+06    -393.178E-03     592.087E-03    -198.909E-03     356.230E-03    -411.422E-03     610.294E-03    -198.466E-03     289.033E-03
            1278     13.1724E-03     167.975E-03    -13.2867E+06     81.7530E+06     118.443E+06    -11.2435E+06    -391.694E-03     599.468E-03    -207.774E-03     318.441E-03    -408.488E-03     616.171E-03    -207.282E-03     251.214E-03
            1279     13.7920E-03     168.441E-03    -6.46511E+06     56.6887E+06     115.160E+06    -8.85046E+06    -384.650E-03     600.601E-03    -215.951E-03     238.397E-03    -395.624E-03     611.425E-03    -215.448E-03     184.999E-03
            1280     823.307E-06     163.014E-03    -263.699E+06    -213.578E+06    -260.671E+06    -4.81232E+06    -93.9722E-03     184.676E-03    -90.7040E-03     44.8416E-03    -94.6080E-03     184.359E-03    -91.3153E-03     44.8068E-03
            1281     1.64403E-03     163.062E-03    -245.024E+06    -198.768E+06    -237.617E+06    -8.06886E+06    -98.7079E-03     191.786E-03    -93.0786E-03     82.9205E-03    -99.3029E-03     191.482E-03    -93.6232E-03     82.8471E-03
            1282     2.45980E-03     163.142E-03    -222.849E+06    -185.865E+06    -205.042E+06    -15.5130E+06    -107.695E-03     203.193E-03    -95.4983E-03     123.812E-03    -108.252E-03     202.886E-03    -95.9309E-03     123.591E-03
            1283     3.26846E-03     163.259E-03    -197.562E+06    -173.307E+06    -170.870E+06    -24.6470E+06    -120.019E-03     218.719E-03    -98.7002E-03     165.122E-03    -120.557E-03     218.432E-03    -99.0168E-03     164.621E-03
            1284     4.06867E-03     163.415E-03    -171.281E+06    -161.047E+06    -139.888E+06    -31.5918E+06    -135.590E-03     238.207E-03    -102.617E-03     205.814E-03    -136.165E-03     238.010E-03    -102.834E-03     204.866E-03
            1285     4.85988E-03     163.616E-03    -146.828E+06    -149.398E+06    -114.455E+06    -36.8745E+06    -154.446E-03     261.671E-03    -107.224E-03     244.416E-03    -155.174E-03     261.687E-03    -107.367E-03     242.722E-03
            1286     5.63924E-03     163.863E-03    -125.862E+06    -133.895E+06    -90.6414E+06    -39.4366E+06    -176.708E-03     289.273E-03    -112.566E-03     279.734E-03    -177.785E-03     289.706E-03    -112.642E-03     276.819E-03
            1287     6.40567E-03     164.163E-03    -108.276E+06    -109.834E+06    -65.9614E+06    -40.3680E+06    -202.146E-03     320.837E-03    -118.691E-03     310.759E-03    -203.847E-03     321.975E-03    -118.705E-03     305.897E-03
            1288     7.15662E-03     164.515E-03    -93.2128E+06    -92.5520E+06    -43.3263E+06    -42.4670E+06    -230.337E-03     355.979E-03    -125.641E-03     336.606E-03    -232.945E-03     358.078E-03    -125.589E-03     328.816E-03
            1289     7.89020E-03     164.927E-03    -81.1178E+06    -77.8621E+06    -24.4658E+06    -42.2179E+06    -260.508E-03     393.921E-03    -133.413E-03     357.012E-03    -264.366E-03     397.314E-03    -133.305E-03     345.067E-03
            1290     8.60526E-03     165.397E-03    -72.1310E+06    -58.2356E+06    -7.30938E+06    -40.1429E+06    -291.508E-03     433.484E-03    -141.976E-03     372.175E-03    -297.006E-03     438.570E-03    -141.823E-03     354.568E-03
            1291     9.30095E-03     165.929E-03    -63.2121E+06    -35.1617E+06     9.21241E+06    -38.1539E+06    -321.844E-03     473.109E-03    -151.265E-03     381.298E-03    -329.342E-03     480.262E-03    -151.076E-03     356.333E-03
            1292     9.97715E-03     166.517E-03    -54.0140E+06    -3.85474E+06     28.4742E+06    -34.9183E+06    -348.781E-03     509.934E-03    -161.153E-03     383.783E-03    -358.510E-03     519.403E-03    -160.927E-03     350.141E-03
            1293     10.6323E-03     167.154E-03    -46.9683E+06     28.3190E+06     49.0375E+06    -26.6810E+06    -368.633E-03     539.999E-03    -171.366E-03     380.581E-03    -380.646E-03     551.826E-03    -171.094E-03     337.821E-03
            1294     11.2765E-03     167.813E-03    -37.5098E+06     56.8702E+06     68.0584E+06    -15.6760E+06    -379.814E-03     561.329E-03    -181.515E-03     371.521E-03    -393.901E-03     575.306E-03    -181.203E-03     320.162E-03
            1295     11.9091E-03     168.470E-03    -23.0149E+06     93.8770E+06     92.9597E+06    -8.46496E+06    -383.873E-03     575.145E-03    -191.273E-03     359.203E-03    -399.683E-03     590.955E-03    -190.911E-03     300.483E-03
            1296     12.5333E-03     169.104E-03    -11.8830E+06     109.684E+06     123.426E+06    -6.80142E+06    -382.034E-03     582.466E-03    -200.432E-03     341.267E-03    -398.772E-03     599.208E-03    -199.957E-03     277.519E-03
            1297     13.1543E-03     169.656E-03    -8.49151E+06     86.9869E+06     141.175E+06    -7.12485E+06    -379.802E-03     588.654E-03    -208.853E-03     319.748E-03    -396.574E-03     605.307E-03    -208.261E-03     253.652E-03
            1298     13.7715E-03     170.143E-03    -3.56587E+06     47.9624E+06     145.388E+06    -4.93599E+06    -374.458E-03     590.987E-03    -216.529E-03     246.449E-03    -385.813E-03     602.084E-03    -215.867E-03     193.552E-03
            1299     829.989E-06     164.138E-03    -277.881E+06    -187.516E+06    -274.262E+06    -17.5756E+06    -86.7731E-03     170.323E-03    -83.5502E-03     37.6036E-03    -87.4945E-03     170.186E-03    -84.2467E-03     37.3662E-03
            1300     1.65719E-03     164.193E-03    -264.733E+06    -175.204E+06    -255.243E+06    -31.1268E+06    -91.6672E-03     177.713E-03    -86.0462E-03     70.2141E-03    -92.3716E-03     177.594E-03    -86.6845E-03     69.7818E-03
            1301     2.47901E-03     164.287E-03    -243.831E+06    -160.135E+06    -226.842E+06    -43.8323E+06    -100.892E-03     189.561E-03    -88.6697E-03     106.214E-03    -101.566E-03     189.459E-03    -89.2182E-03     105.559E-03
            1302     3.29389E-03     164.421E-03    -219.955E+06    -149.918E+06    -193.718E+06    -55.6614E+06    -113.962E-03     206.185E-03    -92.2236E-03     143.602E-03    -114.614E-03     206.088E-03    -92.6559E-03     142.656E-03
            1303     4.09920E-03     164.600E-03    -195.709E+06    -144.055E+06    -166.591E+06    -65.7049E+06    -131.006E-03     227.694E-03    -96.6877E-03     180.985E-03    -131.667E-03     227.637E-03    -97.0280E-03     179.615E-03
            1304     4.89170E-03     164.827E-03    -173.883E+06    -139.910E+06    -148.478E+06    -71.2567E+06    -152.152E-03     254.227E-03    -102.074E-03     216.923E-03    -152.901E-03     254.302E-03    -102.362E-03     214.926E-03
            1305     5.66974E-03     165.106E-03    -155.044E+06    -131.348E+06    -127.667E+06    -74.3584E+06    -177.234E-03     285.699E-03    -108.465E-03     249.720E-03    -178.220E-03     286.054E-03    -108.688E-03     246.709E-03
            1306     6.43079E-03     165.439E-03    -136.795E+06    -113.957E+06    -98.1534E+06    -75.2799E+06    -205.589E-03     321.483E-03    -115.895E-03     277.241E-03    -207.010E-03     322.318E-03    -116.022E-03     272.615E-03
            1307     7.17323E-03     165.832E-03    -119.833E+06    -97.2068E+06    -66.0809E+06    -74.9215E+06    -236.293E-03     360.627E-03    -124.334E-03     298.199E-03    -238.353E-03     362.131E-03    -124.350E-03     291.139E-03
            1308     7.89559E-03     166.284E-03    -103.823E+06    -95.9182E+06    -41.6555E+06    -71.9131E+06    -267.984E-03     401.691E-03    -133.707E-03     311.747E-03    -270.872E-03     404.014E-03    -133.625E-03     301.199E-03
            1309     8.59699E-03     166.798E-03    -86.8452E+06    -79.5127E+06    -21.1691E+06    -64.7447E+06    -299.051E-03     442.946E-03    -143.894E-03     317.921E-03    -302.996E-03     446.384E-03    -143.759E-03     302.666E-03
            1310     9.27660E-03     167.373E-03    -71.8178E+06    -55.0169E+06     3.25895E+06    -57.2704E+06    -327.047E-03     481.827E-03    -154.780E-03     318.173E-03    -332.268E-03     486.609E-03    -154.580E-03     296.954E-03
            1311     9.93385E-03     168.004E-03    -61.3596E+06    -30.9922E+06     28.6091E+06    -46.8940E+06    -348.186E-03     514.209E-03    -166.024E-03     314.883E-03    -354.806E-03     520.434E-03    -165.747E-03     287.054E-03
            1312     10.5789E-03     168.672E-03    -50.4562E+06    -2.50279E+06     49.7937E+06    -36.7707E+06    -360.251E-03     537.349E-03    -177.098E-03     310.174E-03    -368.320E-03     545.097E-03    -176.772E-03     275.656E-03
            1313     11.2126E-03     169.361E-03    -38.1528E+06     21.1885E+06     66.6862E+06    -30.9570E+06    -363.013E-03     550.514E-03    -187.501E-03     306.273E-03    -372.545E-03     559.806E-03    -187.143E-03     265.470E-03
            1314     11.8435E-03     170.045E-03    -27.9670E+06     62.8707E+06     86.3562E+06    -28.5049E+06    -357.205E-03     553.964E-03    -196.759E-03     307.879E-03    -368.485E-03     565.133E-03    -196.378E-03     261.287E-03
            1315     12.4847E-03     170.700E-03    -17.1402E+06     83.8446E+06     119.613E+06    -22.2659E+06    -348.320E-03     553.073E-03    -204.753E-03     310.031E-03    -361.571E-03     566.230E-03    -204.251E-03     257.856E-03
            1316     13.1339E-03     171.299E-03    -4.08118E+06     73.3124E+06     150.888E+06    -2.81351E+06    -342.976E-03     554.591E-03    -211.615E-03     310.614E-03    -358.503E-03     569.944E-03    -210.961E-03     252.263E-03
            1317     13.7793E-03     171.836E-03     454.926E+03     50.3977E+06     169.785E+06     10.3854E+06    -342.883E-03     560.618E-03    -217.734E-03     254.589E-03    -354.477E-03     571.917E-03    -216.959E-03     205.613E-03
            1318     825.009E-06     165.259E-03    -213.219E+06    -140.515E+06    -210.935E+06    -21.7305E+06    -93.0090E-03     184.448E-03    -91.4389E-03     24.5331E-03    -93.5830E-03     184.354E-03    -91.9807E-03     24.1378E-03
            1319     1.64689E-03     165.321E-03    -207.486E+06    -131.503E+06    -195.980E+06    -37.6606E+06    -97.5316E-03     190.865E-03    -93.3335E-03     45.5656E-03    -98.1243E-03     190.797E-03    -93.8218E-03     44.8495E-03
            1320     2.46501E-03     165.424E-03    -199.231E+06    -122.103E+06    -178.696E+06    -52.3813E+06    -105.119E-03     201.081E-03    -95.9618E-03     68.6874E-03    -105.734E-03     201.047E-03    -96.3894E-03     67.6156E-03
            1321     3.27572E-03     165.573E-03    -189.118E+06    -113.867E+06    -161.518E+06    -64.8580E+06    -115.778E-03     215.309E-03    -99.5305E-03     93.1815E-03    -116.422E-03     215.322E-03    -99.8988E-03     91.7038E-03
            1322     4.07627E-03     165.771E-03    -179.521E+06    -112.247E+06    -147.943E+06    -76.0456E+06    -130.121E-03     234.215E-03    -104.095E-03     118.985E-03    -130.812E-03     234.280E-03    -104.411E-03     116.997E-03
            1323     4.86465E-03     166.022E-03    -169.514E+06    -116.383E+06    -139.140E+06    -85.5952E+06    -148.561E-03     258.307E-03    -109.746E-03     144.619E-03    -149.326E-03     258.444E-03    -110.028E-03     141.969E-03
            1324     5.63704E-03     166.330E-03    -156.793E+06    -114.097E+06    -126.821E+06    -92.4089E+06    -170.927E-03     287.511E-03    -116.584E-03     168.224E-03    -171.818E-03     287.796E-03    -116.825E-03     164.702E-03
            1325     6.39042E-03     166.700E-03    -141.513E+06    -105.636E+06    -106.042E+06    -97.2763E+06    -196.721E-03     321.387E-03    -124.667E-03     187.525E-03    -197.814E-03     321.903E-03    -124.838E-03     182.794E-03
            1326     7.12203E-03     167.131E-03    -124.241E+06    -98.3610E+06    -81.1127E+06    -97.3140E+06    -224.868E-03     358.843E-03    -133.975E-03     200.405E-03    -226.236E-03     359.653E-03    -134.058E-03     194.006E-03
            1327     7.82987E-03     167.625E-03    -107.595E+06    -103.272E+06    -60.2286E+06    -94.3951E+06    -253.745E-03     398.167E-03    -144.422E-03     205.665E-03    -255.461E-03     399.309E-03    -144.417E-03     196.917E-03
            1328     8.51240E-03     168.179E-03    -94.9882E+06    -104.307E+06    -47.9915E+06    -89.8081E+06    -280.794E-03     436.571E-03    -155.777E-03     204.858E-03    -282.950E-03     438.161E-03    -155.728E-03     193.028E-03
            1329     9.17057E-03     168.792E-03    -86.7202E+06    -88.5636E+06    -27.3047E+06    -82.3278E+06    -302.111E-03     469.808E-03    -167.697E-03     201.708E-03    -304.824E-03     471.979E-03    -167.579E-03     186.320E-03
            1330     9.81370E-03     169.451E-03    -77.0703E+06    -77.4856E+06     413.159E+03    -73.7058E+06    -315.091E-03     494.680E-03    -179.589E-03     199.260E-03    -318.406E-03     497.449E-03    -179.363E-03     180.172E-03
            1331     10.4449E-03     170.142E-03    -66.0634E+06    -51.9624E+06     29.1373E+06    -63.6693E+06    -319.103E-03     509.827E-03    -190.724E-03     200.848E-03    -323.083E-03     513.315E-03    -190.408E-03     178.354E-03
            1332     11.0763E-03     170.846E-03    -55.8227E+06    -18.8576E+06     58.8055E+06    -57.4261E+06    -313.037E-03     513.475E-03    -200.438E-03     209.098E-03    -317.875E-03     517.896E-03    -200.036E-03     183.385E-03
            1333     11.7218E-03     171.537E-03    -42.7753E+06      25.464E+06     94.4309E+06    -55.3851E+06    -300.133E-03     508.399E-03    -208.266E-03     222.422E-03    -306.255E-03     514.209E-03    -207.768E-03     193.113E-03
            1334     12.3815E-03     172.199E-03    -32.2619E+06     45.4910E+06     126.620E+06    -46.0485E+06    -283.974E-03     498.022E-03    -214.048E-03     241.155E-03    -291.774E-03     505.545E-03    -213.434E-03     208.406E-03
            1335     13.0478E-03     172.827E-03    -32.2454E+06    -1.21707E+06     117.893E+06    -25.3804E+06    -272.331E-03     490.109E-03    -217.778E-03     275.912E-03    -282.851E-03     500.221E-03    -217.140E-03     238.027E-03
            1336     13.7312E-03     173.385E-03    -18.4997E+06     19.3526E+06     136.584E+06    -2.79118E+06    -279.848E-03     500.269E-03    -220.421E-03     273.376E-03    -289.844E-03     509.908E-03    -219.740E-03     236.734E-03
            1337     804.792E-06     166.415E-03    -147.585E+06    -88.4917E+06    -140.324E+06    -17.2281E+06    -119.281E-03     237.470E-03    -118.189E-03     2.94152E-03    -119.758E-03     237.377E-03    -118.549E-03     2.42303E-03
            1338     1.60766E-03     166.481E-03    -145.136E+06    -84.7907E+06    -132.194E+06    -32.5900E+06    -122.686E-03     243.383E-03    -120.697E-03     708.206E-06    -123.173E-03     243.283E-03    -121.025E-03    -379.874E-06
            1339     2.40359E-03     166.592E-03    -137.505E+06    -78.6242E+06    -117.351E+06    -46.0790E+06    -126.704E-03     250.545E-03    -123.841E-03    -534.482E-06    -127.182E-03     250.441E-03    -124.114E-03    -2.24071E-03
            1340     3.19243E-03     166.747E-03    -128.317E+06    -76.0700E+06    -103.903E+06    -56.2568E+06    -131.633E-03     259.392E-03    -127.759E-03     97.6156E-06    -132.093E-03     259.269E-03    -127.982E-03    -2.24623E-03
            1341     3.97271E-03     166.956E-03    -119.466E+06    -75.4439E+06    -90.5715E+06    -63.2186E+06    -138.067E-03     270.670E-03    -132.603E-03     2.68621E-03    -138.515E-03     270.528E-03    -132.773E-03    -329.103E-06
            1342     4.73975E-03     167.220E-03    -110.393E+06    -78.3511E+06    -76.5686E+06    -69.9992E+06    -146.440E-03     284.972E-03    -138.531E-03     6.78991E-03    -146.880E-03     284.809E-03    -138.641E-03     3.01372E-03
            1343     5.49099E-03     167.546E-03    -101.354E+06    -79.7550E+06    -65.5903E+06    -77.0192E+06    -156.992E-03     302.637E-03    -145.645E-03     11.2817E-03    -157.433E-03     302.475E-03    -145.710E-03     6.65845E-03
            1344     6.22364E-03     167.935E-03    -94.1659E+06    -75.7685E+06    -56.4035E+06    -81.6786E+06    -169.448E-03     323.483E-03    -154.035E-03     14.1717E-03    -169.908E-03     323.357E-03    -154.071E-03     8.60908E-03
            1345     6.93439E-03     168.391E-03    -89.9426E+06    -74.3912E+06    -49.1936E+06    -84.6425E+06    -182.901E-03     346.621E-03    -163.719E-03     14.0744E-03    -183.389E-03     346.530E-03    -163.727E-03     7.41448E-03
            1346     7.62085E-03     168.911E-03    -88.7685E+06    -79.9684E+06    -44.2243E+06    -85.0091E+06    -195.956E-03     370.504E-03    -174.549E-03     12.0655E-03    -196.482E-03     370.438E-03    -174.525E-03     4.18748E-03
            1347     8.28274E-03     169.495E-03    -88.2836E+06    -88.4765E+06    -39.1728E+06    -85.6645E+06    -206.514E-03     392.644E-03    -186.130E-03     11.2534E-03    -207.108E-03     392.629E-03    -186.070E-03     2.08049E-03
            1348     8.92645E-03     170.130E-03    -84.5639E+06    -91.0251E+06    -26.9557E+06    -83.3373E+06    -212.366E-03     410.196E-03    -197.830E-03     14.3183E-03    -213.078E-03     410.297E-03    -197.710E-03     3.97283E-03
            1349     9.55715E-03     170.806E-03    -75.9751E+06    -84.4167E+06    -3.27450E+06    -81.4702E+06    -212.981E-03     421.861E-03    -208.880E-03     23.9286E-03    -213.877E-03     422.171E-03    -208.664E-03     12.6353E-03
            1350     10.1874E-03     171.506E-03    -65.0917E+06    -82.1709E+06     25.8246E+06    -72.6161E+06    -207.340E-03     425.770E-03    -218.430E-03     42.6741E-03    -208.479E-03     426.326E-03    -218.087E-03     30.9505E-03
            1351     10.8294E-03     172.213E-03    -46.9632E+06    -44.6553E+06     68.8485E+06    -64.8621E+06    -197.186E-03     422.952E-03    -225.767E-03     67.2451E-03    -198.712E-03     424.008E-03    -225.290E-03     55.0551E-03
            1352     11.4896E-03     172.899E-03    -27.8943E+06     1.99918E+06     120.840E+06    -51.8446E+06    -185.196E-03     415.763E-03    -230.567E-03     96.6109E-03    -187.249E-03     417.472E-03    -229.925E-03     83.9307E-03
            1353     12.1669E-03     173.570E-03    -29.4128E+06     27.4842E+06     150.598E+06    -26.0128E+06    -166.947E-03     399.355E-03    -232.408E-03     135.980E-03    -169.753E-03     401.837E-03    -231.652E-03     123.388E-03
            1354     12.9063E-03     174.175E-03    -21.9799E+06    -7.59385E+06     140.429E+06    -14.3700E+06    -155.862E-03     387.335E-03    -231.473E-03     190.859E-03    -160.403E-03     391.437E-03    -230.728E-03     175.931E-03
            1355     13.6752E-03     174.808E-03    -12.0175E+06    -12.1148E+06     122.684E+06    -17.9143E+06    -145.262E-03     373.552E-03    -228.290E-03     246.701E-03    -150.559E-03     378.548E-03    -227.641E-03     230.258E-03
            1356     765.337E-06     167.661E-03    -79.2828E+06    -43.3061E+06    -75.0155E+06    -13.0861E+06    -177.515E-03     359.342E-03    -181.828E-03    -49.8874E-03    -178.057E-03     358.939E-03    -182.025E-03    -50.9202E-03
            1357     1.52164E-03     167.735E-03    -75.4414E+06    -40.5290E+06    -65.2646E+06    -24.3320E+06    -175.811E-03     358.751E-03    -182.940E-03    -88.0296E-03    -176.232E-03     358.308E-03    -183.098E-03    -89.8106E-03
            1358     2.27357E-03     167.846E-03    -71.0523E+06    -38.2280E+06    -53.2090E+06    -33.6196E+06    -172.566E-03     358.417E-03    -185.850E-03    -126.932E-03    -172.852E-03     357.833E-03    -185.958E-03    -129.588E-03
            1359     3.01846E-03     168.004E-03    -68.0642E+06    -40.3090E+06    -42.4845E+06    -40.5436E+06    -167.422E-03     357.407E-03    -189.985E-03    -164.243E-03    -167.536E-03     356.613E-03    -190.040E-03    -167.718E-03
            1360     3.75193E-03     168.210E-03    -64.8842E+06    -44.3298E+06    -31.7439E+06    -44.8369E+06    -159.631E-03     354.886E-03    -195.256E-03    -199.012E-03    -159.547E-03     353.846E-03    -195.256E-03    -203.192E-03
            1361     4.47424E-03     168.471E-03    -61.5241E+06    -46.1215E+06    -20.1184E+06    -48.2737E+06    -148.997E-03     350.621E-03    -201.624E-03    -229.272E-03    -148.715E-03     349.334E-03    -201.569E-03    -234.049E-03
            1362     5.18173E-03     168.792E-03    -59.6896E+06    -45.8370E+06    -9.93155E+06    -51.6607E+06    -135.852E-03     344.949E-03    -209.097E-03    -253.558E-03    -135.369E-03     343.437E-03    -208.993E-03    -258.857E-03
            1363     5.87048E-03     169.175E-03    -58.8886E+06    -43.5185E+06    -1.53185E+06    -53.6705E+06    -120.799E-03     338.435E-03    -217.636E-03    -269.687E-03    -120.137E-03     336.764E-03    -217.495E-03    -275.406E-03
            1364     6.53791E-03     169.622E-03    -59.0134E+06    -39.5069E+06     6.50670E+06    -52.3343E+06    -104.854E-03     331.942E-03    -227.088E-03    -275.506E-03    -104.068E-03     330.209E-03    -226.913E-03    -281.530E-03
            1365     7.18457E-03     170.132E-03     -56.525E+06    -38.8474E+06     15.0668E+06    -50.1166E+06    -88.7232E-03     325.821E-03    -237.097E-03    -269.152E-03    -87.8852E-03     324.117E-03    -236.884E-03    -275.365E-03
            1366     7.81544E-03     170.699E-03    -51.9514E+06    -39.5434E+06     27.1907E+06    -45.1813E+06    -72.9864E-03     320.060E-03    -247.074E-03    -249.310E-03    -72.2141E-03     318.517E-03    -246.805E-03    -255.492E-03
            1367     8.43621E-03     171.317E-03    -41.9916E+06    -40.6988E+06     46.0344E+06    -42.9355E+06    -58.7140E-03     315.011E-03    -256.297E-03    -217.320E-03    -58.1104E-03     313.742E-03    -255.947E-03    -223.318E-03
            1368     9.05877E-03     171.974E-03    -34.6284E+06    -38.0803E+06     69.0114E+06    -37.5046E+06    -45.7823E-03     309.739E-03    -263.957E-03    -174.798E-03    -45.4682E-03     308.852E-03    -263.506E-03    -180.340E-03
            1369     9.69243E-03     172.659E-03    -23.7482E+06    -39.5084E+06     92.2625E+06    -37.5627E+06    -33.0130E-03     302.210E-03    -269.197E-03    -125.236E-03    -33.0032E-03     301.701E-03    -268.644E-03    -130.148E-03
            1370     10.3558E-03     173.348E-03    -19.3062E+06    -35.1528E+06     113.115E+06    -31.2786E+06    -23.1365E-03     294.602E-03    -271.465E-03    -71.7355E-03    -23.4258E-03     294.464E-03    -270.821E-03    -75.9113E-03
            1371     11.0421E-03     174.051E-03    -18.0935E+06    -7.42630E+06     138.893E+06    -34.5253E+06    -13.0428E-03     283.438E-03    -270.395E-03    -14.4577E-03    -13.6030E-03     283.685E-03    -269.664E-03    -17.9058E-03
            1372     11.7921E-03     174.710E-03    -20.1803E+06    -12.2153E+06     135.268E+06    -13.2289E+06    -2.64528E-03     268.717E-03    -266.072E-03     22.6739E-03    -3.37225E-03     269.076E-03    -265.348E-03     20.1329E-03
            1373     12.5761E-03     175.327E-03     3.57598E+06     4.72581E+06     133.744E+06     182.008E+03     7.09154E-03     252.051E-03    -259.143E-03     64.7853E-03     6.05451E-03     252.929E-03    -258.486E-03     61.9161E-03
            1374     13.3462E-03     175.939E-03     7.03143E+06     13.4806E+06     121.520E+06    -17.8993E+06     40.9195E-03     208.213E-03    -249.133E-03     109.408E-03     40.0130E-03     208.948E-03    -248.555E-03     107.178E-03
            1375     13.5813E-03     87.5638E-03    -4.13097E+06     68.7740E+06     79.3127E+06     225.349E+03    -229.225E-03     459.932E-03    -230.706E-03     149.353E-03    -237.213E-03     467.919E-03    -230.404E-03     120.121E-03
            1376     12.8652E-03     87.3069E-03    -8.22101E+06     67.4504E+06     80.1133E+06     125.006E+03    -229.720E-03     460.452E-03    -230.732E-03     207.530E-03    -242.303E-03     473.013E-03    -230.418E-03     170.093E-03
            1377     12.1510E-03     87.0343E-03    -13.2205E+06     62.5230E+06     77.8811E+06     51.2059E+03    -230.780E-03     461.536E-03    -230.757E-03     229.933E-03    -245.440E-03     476.146E-03    -230.439E-03     189.633E-03
            1378     11.4368E-03     86.7136E-03    -19.7214E+06     57.1774E+06     76.4332E+06     702.545E+03    -232.428E-03     463.218E-03    -230.790E-03     255.951E-03    -249.329E-03     480.031E-03    -230.462E-03     212.437E-03
            1379     10.7210E-03     86.3671E-03    -26.3694E+06     50.5839E+06     73.9403E+06     972.239E+03    -234.273E-03     465.096E-03    -230.823E-03     271.776E-03    -252.040E-03     482.735E-03    -230.489E-03     226.723E-03
            1380     10.0052E-03     86.0014E-03    -33.3284E+06     42.5598E+06     64.0616E+06     1.38024E+06    -235.820E-03     466.644E-03    -230.825E-03     277.288E-03    -253.177E-03     483.849E-03    -230.518E-03     232.292E-03
            1381     9.29062E-03     85.6342E-03    -40.1214E+06     34.7311E+06     51.5119E+06     2.85180E+06    -236.529E-03     467.348E-03    -230.819E-03     271.279E-03    -252.264E-03     482.915E-03    -230.554E-03     228.196E-03
            1382     8.57690E-03     85.2838E-03    -47.1683E+06     24.5441E+06     39.2661E+06     3.57914E+06    -236.542E-03     467.377E-03    -230.835E-03     257.298E-03    -250.021E-03     480.663E-03    -230.606E-03     217.385E-03
            1383     7.86005E-03     84.9538E-03    -55.0559E+06     12.3021E+06     28.5886E+06     1.32144E+06    -236.372E-03     467.244E-03    -230.873E-03     238.546E-03    -247.465E-03     478.103E-03    -230.668E-03     202.383E-03
            1384     7.14588E-03     84.6503E-03    -63.2378E+06    -19.2394E+06     15.3827E+06    -1.51848E+06    -236.172E-03     467.085E-03    -230.913E-03     217.975E-03    -245.029E-03     475.604E-03    -230.716E-03     185.770E-03
            1385     6.43130E-03     84.3735E-03    -71.1169E+06    -77.1533E+06    -1.25119E+06    -1.44165E+06    -235.702E-03     466.663E-03    -230.961E-03     197.076E-03    -242.569E-03     473.007E-03    -230.752E-03     168.904E-03
            1386     5.71573E-03     84.1236E-03    -78.8662E+06    -118.873E+06    -17.8718E+06    -1.05311E+06    -235.093E-03     466.074E-03    -230.981E-03     175.827E-03    -240.295E-03     470.625E-03    -230.783E-03     151.551E-03
            1387     5.00152E-03     83.9010E-03    -85.8926E+06    -142.038E+06    -33.6364E+06    -1.29060E+06    -234.448E-03     465.414E-03    -230.966E-03     154.238E-03    -238.298E-03     468.553E-03    -230.804E-03     133.619E-03
            1388     4.28683E-03     83.7073E-03    -91.6866E+06    -172.181E+06    -49.0456E+06    -523.509E+03    -233.694E-03     464.643E-03    -230.950E-03     132.589E-03    -236.429E-03     466.584E-03    -230.812E-03     115.453E-03
            1389     3.57238E-03     83.5421E-03    -98.0235E+06    -214.177E+06    -64.2944E+06    -40.8574E+03    -232.940E-03     463.891E-03    -230.951E-03     110.900E-03    -234.773E-03     464.802E-03    -230.820E-03     97.0158E-03
            1390     2.85811E-03     83.4064E-03    -104.611E+06    -244.484E+06    -80.0086E+06    -221.088E+03    -232.245E-03     463.181E-03    -230.936E-03     89.0210E-03    -233.390E-03     463.319E-03    -230.830E-03     78.1572E-03
            1391     2.14351E-03     83.3000E-03    -109.658E+06    -253.963E+06    -95.7271E+06    -733.589E+03    -231.619E-03     462.516E-03    -230.897E-03     67.0786E-03    -232.272E-03     462.156E-03    -230.849E-03     59.0415E-03
            1392     1.42891E-03     83.2235E-03    -113.097E+06    -263.656E+06    -108.649E+06    -1.34145E+06    -231.176E-03     462.069E-03    -230.894E-03     45.3244E-03    -231.483E-03     461.355E-03    -230.891E-03     39.9622E-03
            1393     714.173E-06     83.1764E-03    -114.435E+06    -283.827E+06    -114.345E+06    -1.76270E+06    -231.143E-03     461.988E-03    -230.845E-03     24.3325E-03    -231.227E-03     460.990E-03    -230.839E-03     21.4422E-03
            1394     13.5804E-03     86.0592E-03    -4.09191E+06     68.7799E+06     79.6771E+06    -181.959E+03    -229.325E-03     460.054E-03    -230.729E-03     148.874E-03    -237.302E-03     468.030E-03    -230.424E-03     119.650E-03
            1395     12.8667E-03     85.8046E-03    -8.62317E+06     67.4528E+06     80.8462E+06    -311.784E+03    -229.909E-03     460.657E-03    -230.748E-03     207.352E-03    -242.496E-03     473.219E-03    -230.429E-03     169.893E-03
            1396     12.1513E-03     85.5296E-03    -14.1481E+06     61.3380E+06     77.4341E+06    -54.2367E+03    -230.889E-03     461.651E-03    -230.761E-03     230.366E-03    -245.589E-03     476.293E-03    -230.442E-03     189.999E-03
            1397     11.4355E-03     85.2113E-03    -19.8108E+06     55.9856E+06     75.6449E+06     485.897E+03    -232.513E-03     463.300E-03    -230.787E-03     256.243E-03    -249.436E-03     480.132E-03    -230.461E-03     212.676E-03
            1398     10.7206E-03     84.8632E-03    -25.3384E+06     50.6070E+06     74.6901E+06     1.10797E+06    -234.371E-03     465.191E-03    -230.820E-03     271.725E-03    -252.123E-03     482.816E-03    -230.483E-03     226.685E-03
            1399     10.0072E-03     84.4979E-03    -31.0422E+06     41.4398E+06     65.8878E+06     2.20580E+06    -235.710E-03     466.539E-03    -230.829E-03     277.535E-03    -253.065E-03     483.740E-03    -230.515E-03     232.588E-03
            1400     9.29156E-03     84.1330E-03    -38.2285E+06     31.9745E+06     53.0657E+06     3.34128E+06    -236.348E-03     467.193E-03    -230.844E-03     271.981E-03    -252.072E-03     482.741E-03    -230.570E-03     228.991E-03
            1401     8.57426E-03     83.7797E-03    -44.8649E+06     25.2798E+06     42.7743E+06     3.16064E+06    -236.710E-03     467.585E-03    -230.875E-03     257.612E-03    -250.182E-03     480.864E-03    -230.633E-03     217.688E-03
            1402     7.86096E-03     83.4508E-03    -50.3971E+06     18.0193E+06     34.3731E+06     2.69141E+06    -236.618E-03     467.517E-03    -230.900E-03     238.512E-03    -247.710E-03     478.395E-03    -230.681E-03     202.320E-03
            1403     7.14541E-03     83.1461E-03    -58.2592E+06    -15.2078E+06     19.3962E+06     2.29712E+06    -236.241E-03     467.161E-03    -230.920E-03     217.851E-03    -245.071E-03     475.674E-03    -230.717E-03     185.728E-03
            1404     6.43043E-03     82.8701E-03    -67.3382E+06    -75.6970E+06     839.336E+03     1.10553E+06    -235.913E-03     466.860E-03    -230.948E-03     196.816E-03    -242.764E-03     473.202E-03    -230.736E-03     168.646E-03
            1405     5.71674E-03     82.6199E-03    -75.0679E+06    -116.951E+06    -15.1122E+06    -213.024E+03    -235.275E-03     466.216E-03    -230.941E-03     175.539E-03    -240.469E-03     470.772E-03    -230.738E-03     151.231E-03
            1406     5.00183E-03     82.3977E-03    -82.5113E+06    -142.437E+06    -31.9876E+06    -816.106E+03    -234.348E-03     465.260E-03    -230.912E-03     154.087E-03    -238.177E-03     468.383E-03    -230.746E-03     133.509E-03
            1407     4.28736E-03     82.2039E-03    -90.6130E+06    -174.461E+06    -49.4869E+06    -758.746E+03    -233.535E-03     464.440E-03    -230.905E-03     132.579E-03    -236.258E-03     466.366E-03    -230.768E-03     115.458E-03
            1408     3.57268E-03     82.0391E-03    -97.4677E+06    -215.133E+06    -64.4755E+06    -523.621E+03    -232.849E-03     463.773E-03    -230.924E-03     110.972E-03    -234.679E-03     464.680E-03    -230.793E-03     97.0708E-03
            1409     2.85791E-03     81.9030E-03    -103.029E+06    -243.650E+06    -78.8502E+06    -274.954E+03    -232.189E-03     463.115E-03    -230.926E-03     89.1808E-03    -233.331E-03     463.255E-03    -230.817E-03     78.3178E-03
            1410     2.14345E-03     81.7970E-03    -108.569E+06    -253.296E+06    -95.2326E+06    -260.393E+03    -231.607E-03     462.503E-03    -230.896E-03     67.2786E-03    -232.257E-03     462.144E-03    -230.847E-03     59.2574E-03
            1411     1.42892E-03     81.7205E-03    -112.218E+06    -263.838E+06    -109.637E+06    -362.084E+03    -231.211E-03     462.094E-03    -230.884E-03     45.4958E-03    -231.512E-03     461.379E-03    -230.887E-03     40.1528E-03
            1412     714.631E-06     81.6732E-03    -112.797E+06    -287.074E+06    -114.102E+06     -276.12E+03    -230.997E-03     461.986E-03    -230.990E-03     24.6264E-03    -231.069E-03     460.971E-03    -230.980E-03     21.7412E-03
            1413     13.5810E-03     84.5553E-03    -4.98249E+06     69.1033E+06     80.1923E+06    -692.774E+03    -229.135E-03     459.889E-03    -230.754E-03     149.036E-03    -237.135E-03     467.884E-03    -230.446E-03     119.768E-03
            1414     12.8652E-03     84.3005E-03    -9.42750E+06     67.0270E+06     79.8328E+06    -330.061E+03    -229.947E-03     460.720E-03    -230.773E-03     207.932E-03    -242.573E-03     473.319E-03    -230.457E-03     170.397E-03
            1415     12.1503E-03     84.0264E-03    -14.1605E+06     61.0514E+06     76.7041E+06    -80.4425E+03    -231.057E-03     461.840E-03    -230.783E-03     230.533E-03    -245.774E-03     476.501E-03    -230.467E-03     190.122E-03
            1416     11.4363E-03     83.7074E-03    -19.4144E+06     56.2359E+06     75.8442E+06     168.943E+03    -232.639E-03     463.443E-03    -230.804E-03     256.179E-03    -249.556E-03     480.271E-03    -230.478E-03     212.625E-03
            1417     10.7218E-03     83.3600E-03    -25.8932E+06     49.2495E+06     73.6903E+06     701.591E+03    -234.165E-03     465.009E-03    -230.844E-03     272.443E-03    -251.922E-03     482.635E-03    -230.509E-03     227.484E-03
            1418     10.0048E-03     82.9949E-03    -33.4639E+06     37.8282E+06     62.8251E+06     462.424E+03    -235.585E-03     466.457E-03    -230.872E-03     278.273E-03    -252.952E-03     483.657E-03    -230.564E-03     233.350E-03
            1419     9.28930E-03     82.6293E-03    -38.8572E+06     29.4222E+06     53.0718E+06     246.827E+03    -236.780E-03     467.675E-03    -230.895E-03     272.102E-03    -252.520E-03     483.228E-03    -230.616E-03     228.977E-03
            1420     8.57635E-03     82.2772E-03    -43.8521E+06     24.7452E+06     45.2704E+06     799.345E+03    -237.149E-03     468.047E-03    -230.898E-03     257.297E-03    -250.615E-03     481.314E-03    -230.644E-03     217.273E-03
            1421     7.86014E-03     81.9461E-03    -51.6868E+06     16.5027E+06     34.6746E+06     1.87451E+06    -236.760E-03     467.645E-03    -230.885E-03     237.942E-03    -247.840E-03     478.499E-03    -230.660E-03     201.723E-03
            1422     7.14589E-03     81.6438E-03    -60.3115E+06    -13.9584E+06     20.1190E+06     3.19599E+06    -236.305E-03     467.188E-03    -230.883E-03     217.228E-03    -245.136E-03     475.697E-03    -230.675E-03     185.106E-03
            1423     6.43152E-03     81.3654E-03     -68.295E+06    -69.7707E+06     1.34141E+06     1.68017E+06    -235.810E-03     466.701E-03    -230.891E-03     196.399E-03    -242.664E-03     473.060E-03    -230.684E-03     168.263E-03
            1424     5.71661E-03     81.1163E-03    -75.9539E+06    -115.597E+06    -15.9889E+06    -628.860E+03    -235.068E-03     465.961E-03    -230.893E-03     175.559E-03    -240.267E-03     470.526E-03    -230.695E-03     151.263E-03
            1425     5.00222E-03     80.8946E-03    -83.6764E+06    -143.811E+06    -32.1248E+06    -44.1790E+03    -234.241E-03     465.131E-03    -230.890E-03     154.457E-03    -238.077E-03     468.253E-03    -230.721E-03     133.903E-03
            1426     4.28716E-03     80.7009E-03    -90.9974E+06    -173.731E+06    -49.2266E+06     260.247E+03    -233.489E-03     464.383E-03    -230.894E-03     132.903E-03    -236.217E-03     466.315E-03    -230.757E-03     115.811E-03
            1427     3.57249E-03     80.5358E-03    -98.2296E+06    -214.853E+06    -64.9833E+06    -394.291E+03    -232.829E-03     463.747E-03    -230.918E-03     111.042E-03    -234.662E-03     464.657E-03    -230.789E-03     97.1560E-03
            1428     2.85801E-03     80.4002E-03    -105.539E+06    -244.238E+06    -80.4290E+06    -510.203E+03    -232.181E-03     463.100E-03    -230.919E-03     89.0327E-03    -233.331E-03     463.242E-03    -230.814E-03     78.1647E-03
            1429     2.14326E-03     80.2938E-03    -111.154E+06    -253.968E+06    -96.1241E+06    -120.698E+03    -231.604E-03     462.490E-03    -230.886E-03     67.0316E-03    -232.263E-03     462.131E-03    -230.837E-03     59.0146E-03
            1430     1.42882E-03     80.2172E-03    -115.114E+06    -265.055E+06    -110.105E+06     737.625E+03    -231.188E-03     462.058E-03    -230.870E-03     45.2953E-03    -231.501E-03     461.340E-03    -230.869E-03     39.9680E-03
            1431     714.161E-06     80.1700E-03    -117.613E+06    -284.964E+06    -117.654E+06     1.71144E+06    -230.961E-03     461.907E-03    -230.946E-03     24.5405E-03    -231.055E-03     460.914E-03    -230.950E-03     21.6847E-03
            1432     13.5793E-03     83.0510E-03    -4.42434E+06     70.2248E+06     79.4504E+06    -134.426E+03    -228.896E-03     459.652E-03    -230.756E-03     149.024E-03    -236.879E-03     467.638E-03    -230.455E-03     119.768E-03
            1433     12.8652E-03     82.7973E-03    -9.55850E+06     66.1758E+06     77.6861E+06    -647.074E+03    -229.906E-03     460.680E-03    -230.775E-03     206.624E-03    -242.496E-03     473.246E-03    -230.468E-03     169.048E-03
            1434     12.1506E-03     82.5216E-03    -14.7005E+06     60.0578E+06     74.7613E+06    -219.330E+03    -230.726E-03     461.519E-03    -230.793E-03     230.149E-03    -245.407E-03     476.144E-03    -230.485E-03     189.821E-03
            1435     11.4355E-03     82.2036E-03    -20.6752E+06     56.0759E+06     74.1101E+06     296.228E+03    -232.243E-03     463.085E-03    -230.842E-03     256.621E-03    -249.150E-03     479.903E-03    -230.523E-03     213.173E-03
            1436     10.7192E-03     81.8570E-03    -27.1870E+06     48.0001E+06     72.5621E+06    -61.7297E+03    -234.159E-03     465.065E-03    -230.905E-03     272.463E-03    -251.919E-03     482.688E-03    -230.573E-03     227.494E-03
            1437     10.0050E-03     81.4923E-03    -32.7920E+06     38.4380E+06      63.949E+06    -642.823E+03    -236.064E-03     466.987E-03    -230.923E-03     277.626E-03    -253.410E-03     484.167E-03    -230.611E-03     232.621E-03
            1438     9.29074E-03     81.1255E-03    -39.4685E+06     30.1895E+06     52.2175E+06    -1.89349E+06    -237.232E-03     468.127E-03    -230.896E-03     271.455E-03    -252.974E-03     483.685E-03    -230.621E-03     228.175E-03
            1439     8.57474E-03     80.7719E-03    -47.5749E+06     21.1163E+06     41.0713E+06    -1.79888E+06    -237.352E-03     468.208E-03    -230.856E-03     256.779E-03    -250.820E-03     481.463E-03    -230.613E-03     216.665E-03
            1440     7.86155E-03     80.4436E-03    -54.7490E+06     11.2817E+06     32.3185E+06     242.140E+03    -236.878E-03     467.707E-03    -230.829E-03     237.640E-03    -247.953E-03     478.534E-03    -230.605E-03     201.403E-03
            1441     7.14663E-03     80.1390E-03    -61.1820E+06    -14.6735E+06     20.6236E+06     1.32963E+06    -236.237E-03     467.059E-03    -230.821E-03     217.337E-03    -245.086E-03     475.579E-03    -230.608E-03     185.166E-03
            1442     6.43182E-03     79.8630E-03    -68.1078E+06    -65.9212E+06     2.58420E+06     1.35435E+06    -235.498E-03     466.339E-03    -230.840E-03     196.698E-03    -242.358E-03     472.716E-03    -230.633E-03     168.609E-03
            1443     5.71684E-03     79.6133E-03    -76.4331E+06    -113.777E+06    -16.3501E+06     1.02637E+06    -234.829E-03     465.699E-03    -230.871E-03     175.658E-03    -240.020E-03     470.263E-03    -230.677E-03     151.453E-03
            1444     5.00159E-03     79.3915E-03    -84.7470E+06    -144.450E+06    -33.0881E+06     196.962E+03    -234.210E-03     465.095E-03    -230.885E-03     154.279E-03    -238.047E-03     468.215E-03    -230.718E-03     133.720E-03
            1445     4.28720E-03     79.1977E-03     -92.206E+06    -173.081E+06    -48.8452E+06     234.152E+03    -233.500E-03     464.392E-03    -230.892E-03     132.652E-03    -236.234E-03     466.326E-03    -230.751E-03     115.557E-03
            1446     3.57260E-03     79.0327E-03    -99.6379E+06    -213.921E+06    -64.7700E+06     575.181E+03    -232.827E-03     463.734E-03    -230.908E-03     110.851E-03    -234.665E-03     464.648E-03    -230.777E-03     96.9891E-03
            1447     2.85804E-03     78.8970E-03    -106.588E+06    -244.083E+06    -80.8447E+06     249.055E+03    -232.216E-03     463.111E-03    -230.895E-03     88.9876E-03    -233.370E-03     463.254E-03    -230.790E-03     78.1364E-03
            1448     2.14379E-03     78.7909E-03    -113.083E+06    -255.129E+06    -96.7630E+06     221.575E+03    -231.627E-03     462.472E-03    -230.844E-03     67.0816E-03    -232.292E-03     462.110E-03    -230.794E-03     59.0776E-03
            1449     1.42913E-03     78.7143E-03    -118.346E+06    -266.942E+06    -110.039E+06     1.10968E+06    -231.186E-03     461.987E-03    -230.801E-03     45.2878E-03    -231.512E-03     461.264E-03    -230.792E-03     39.9755E-03
            1450     714.703E-06     78.6670E-03    -121.182E+06    -279.388E+06    -118.696E+06     1.90843E+06    -231.000E-03     461.678E-03    -230.678E-03     24.4999E-03    -231.118E-03     460.719E-03    -230.690E-03     21.6581E-03
            1451     13.5810E-03     81.5466E-03    -3.76910E+06     70.6751E+06     79.1936E+06     439.288E+03    -228.936E-03     459.674E-03    -230.738E-03     149.214E-03    -236.901E-03     467.646E-03    -230.439E-03     120.049E-03
            1452     12.8664E-03     81.2931E-03    -9.11490E+06     66.2562E+06     78.1195E+06     240.934E+03    -229.528E-03     460.302E-03    -230.773E-03     207.029E-03    -242.091E-03     472.840E-03    -230.466E-03     169.612E-03
            1453     12.1505E-03     81.0203E-03    -14.4544E+06     59.1731E+06      74.569E+06     492.203E+03    -230.511E-03     461.323E-03    -230.813E-03     230.408E-03    -245.170E-03     475.925E-03    -230.505E-03     190.180E-03
            1454     11.4342E-03     80.7007E-03    -19.9700E+06     54.8976E+06     73.2070E+06     299.780E+03    -232.219E-03     463.082E-03    -230.864E-03     255.699E-03    -249.091E-03     479.866E-03    -230.549E-03     212.211E-03
            1455     10.7200E-03     80.3537E-03    -25.4829E+06     49.9808E+06     72.4715E+06    -220.386E+03    -234.452E-03     465.358E-03    -230.905E-03     271.084E-03    -252.166E-03     482.948E-03    -230.578E-03     226.021E-03
            1456     10.0048E-03     79.9873E-03    -32.6222E+06     41.1966E+06     63.2850E+06    -820.536E+03    -236.428E-03     467.313E-03    -230.884E-03     276.866E-03    -253.761E-03     484.492E-03    -230.580E-03     231.754E-03
            1457     9.29014E-03     79.6208E-03    -40.9970E+06     30.8111E+06     49.8677E+06    -840.727E+03    -237.281E-03     468.108E-03    -230.826E-03     270.769E-03    -253.014E-03     483.659E-03    -230.562E-03     227.478E-03
            1458     8.57708E-03     79.2689E-03    -48.3685E+06     20.5753E+06     39.3578E+06    -972.468E+03    -237.133E-03     467.918E-03    -230.785E-03     256.297E-03    -250.587E-03     481.159E-03    -230.548E-03     216.234E-03
            1459     7.86133E-03     78.9389E-03    -56.2583E+06     9.18478E+06     30.1527E+06    -1.95932E+06    -236.592E-03     467.366E-03    -230.775E-03     237.886E-03    -247.669E-03     478.189E-03    -230.556E-03     201.665E-03
            1460     7.14685E-03     78.6363E-03    -64.3710E+06    -18.0387E+06     17.0339E+06    -2.13759E+06    -235.968E-03     466.760E-03    -230.792E-03     217.799E-03    -244.823E-03     475.273E-03    -230.587E-03     185.640E-03
            1461     6.43160E-03     78.3599E-03    -72.0474E+06    -68.2286E+06    -363.730E+03    -541.175E+03    -235.472E-03     466.304E-03    -230.831E-03     196.953E-03    -242.348E-03     472.682E-03    -230.630E-03     168.845E-03
            1462     5.71670E-03     78.1105E-03    -79.1375E+06    -112.342E+06    -17.5241E+06     384.628E+03    -234.966E-03     465.821E-03    -230.855E-03     175.698E-03    -240.175E-03     470.401E-03    -230.665E-03     151.465E-03
            1463     5.00238E-03     77.8884E-03    -86.0857E+06    -143.293E+06    -34.0582E+06     95.5556E+03    -234.253E-03     465.106E-03    -230.853E-03     154.157E-03    -238.096E-03     468.233E-03    -230.690E-03     133.599E-03
            1464     4.28746E-03     77.6946E-03    -93.4122E+06    -174.209E+06    -50.3468E+06    -71.3310E+03    -233.490E-03     464.340E-03    -230.850E-03     132.544E-03    -236.223E-03     466.269E-03    -230.714E-03     115.452E-03
            1465     3.57272E-03     77.5298E-03    -100.070E+06    -214.522E+06    -64.8840E+06     78.1670E+03    -232.791E-03     463.657E-03    -230.867E-03     110.763E-03    -234.628E-03     464.566E-03    -230.735E-03     96.8979E-03
            1466     2.85813E-03     77.3938E-03    -106.645E+06    -244.014E+06    -79.8363E+06     719.741E+03    -232.150E-03     463.008E-03    -230.859E-03     88.8557E-03    -233.304E-03     463.149E-03    -230.749E-03     78.0157E-03
            1467     2.14332E-03     77.2878E-03    -112.915E+06    -255.155E+06    -96.2729E+06     1.15858E+06    -231.616E-03     462.417E-03    -230.801E-03     66.9343E-03    -232.280E-03     462.053E-03    -230.749E-03     58.9430E-03
            1468     1.42899E-03     77.2113E-03    -117.325E+06    -266.587E+06    -109.982E+06     857.064E+03    -231.199E-03     461.925E-03    -230.726E-03     45.1918E-03    -231.520E-03     461.202E-03    -230.719E-03     39.8887E-03
            1469     714.544E-06     77.1641E-03    -119.927E+06    -275.977E+06    -117.995E+06     232.325E+03    -230.898E-03     461.486E-03    -230.588E-03     24.4673E-03    -231.015E-03     460.541E-03    -230.604E-03     21.6136E-03
            1470     13.5810E-03     80.0453E-03    -4.20246E+06      70.068E+06     79.0961E+06     461.010E+03    -228.618E-03     459.364E-03    -230.747E-03     149.897E-03    -236.588E-03     467.339E-03    -230.447E-03     120.804E-03
            1471     12.8640E-03     79.7901E-03    -8.62105E+06     66.5742E+06     78.9559E+06     876.721E+03    -229.408E-03     460.210E-03    -230.802E-03     207.505E-03    -241.962E-03     472.740E-03    -230.491E-03     170.182E-03
            1472     12.1493E-03     79.5162E-03    -13.3967E+06     59.6430E+06     76.4906E+06     513.056E+03    -230.978E-03     461.813E-03    -230.836E-03     229.874E-03    -245.640E-03     476.418E-03    -230.520E-03     189.536E-03
            1473     11.4360E-03     79.1975E-03    -18.2832E+06     55.9622E+06     76.4051E+06    -13.1899E+03    -232.822E-03     463.677E-03    -230.855E-03     255.500E-03    -249.703E-03     480.470E-03    -230.527E-03     211.912E-03
            1474     10.7206E-03     78.8502E-03    -24.7922E+06     49.8673E+06     74.0044E+06     291.344E+03    -234.862E-03     465.717E-03    -230.855E-03     271.252E-03    -252.590E-03     483.320E-03    -230.522E-03     226.123E-03
            1475     10.0064E-03     78.4838E-03    -32.2046E+06     40.8880E+06     62.8211E+06     1.35612E+06    -236.529E-03     467.333E-03    -230.804E-03     276.855E-03    -253.864E-03     484.517E-03    -230.502E-03     231.732E-03
            1476     9.29240E-03     78.1170E-03    -38.9927E+06     32.8548E+06     51.1384E+06     1.59292E+06    -237.021E-03     467.770E-03    -230.748E-03     270.547E-03    -252.736E-03     483.314E-03    -230.484E-03     227.349E-03
            1477     8.57635E-03     77.7652E-03    -46.8456E+06     23.2997E+06     40.3223E+06     650.246E+03    -236.726E-03     467.454E-03    -230.728E-03     256.526E-03    -250.177E-03     480.704E-03    -230.492E-03     216.556E-03
            1478     7.86204E-03     77.4366E-03    -55.0670E+06     11.4229E+06     29.4875E+06    -397.326E+03    -236.241E-03     466.985E-03    -230.744E-03     238.046E-03    -247.304E-03     477.807E-03    -230.534E-03     201.923E-03
            1479     7.14620E-03     77.1331E-03    -63.4571E+06    -18.5527E+06     16.0657E+06    -1.02156E+06    -235.886E-03     466.671E-03    -230.785E-03     217.598E-03    -244.719E-03     475.167E-03    -230.586E-03     185.496E-03
            1480     6.43152E-03     76.8569E-03    -71.5307E+06    -70.0692E+06    -1.14730E+06    -1.39391E+06    -235.592E-03     466.416E-03    -230.824E-03     196.719E-03    -242.462E-03     472.786E-03    -230.624E-03     168.571E-03
            1481     5.71704E-03     76.6069E-03    -78.7721E+06    -113.654E+06    -17.8878E+06    -1.20695E+06    -235.021E-03     465.856E-03    -230.834E-03     175.601E-03    -240.232E-03     470.435E-03    -230.645E-03     151.314E-03
            1482     5.00207E-03     76.3854E-03    -85.9514E+06    -144.131E+06    -34.3714E+06    -426.324E+03    -234.296E-03     465.118E-03    -230.821E-03     154.204E-03    -238.135E-03     468.239E-03    -230.659E-03     133.648E-03
            1483     4.28754E-03     76.1917E-03    -92.9696E+06    -174.244E+06    -50.9243E+06    -124.863E+03    -233.566E-03     464.367E-03    -230.801E-03     132.504E-03    -236.295E-03     466.295E-03    -230.668E-03     115.412E-03
            1484     3.57300E-03     76.0267E-03    -99.9104E+06    -215.393E+06    -65.6664E+06    -19.9797E+03    -232.819E-03     463.617E-03    -230.797E-03     110.571E-03    -234.654E-03     464.522E-03    -230.668E-03     96.6957E-03
            1485     2.85840E-03     75.8912E-03    -106.712E+06    -245.042E+06    -80.2399E+06     344.470E+03    -232.105E-03     462.880E-03    -230.775E-03     88.6718E-03    -233.256E-03     463.015E-03    -230.666E-03     77.8326E-03
            1486     2.14403E-03     75.7849E-03    -112.353E+06    -254.587E+06    -95.3626E+06     638.282E+03    -231.492E-03     462.213E-03    -230.721E-03     66.8298E-03    -232.154E-03     461.849E-03    -230.666E-03     58.8431E-03
            1487     1.42940E-03     75.7084E-03    -116.824E+06    -264.913E+06    -108.906E+06     643.993E+03    -231.028E-03     461.710E-03    -230.682E-03     45.1519E-03    -231.350E-03     460.992E-03    -230.673E-03     39.8426E-03
            1488     714.686E-06     75.6619E-03    -119.713E+06    -274.710E+06    -118.214E+06     324.035E+03    -230.740E-03     461.450E-03    -230.709E-03     24.5121E-03    -230.859E-03     460.511E-03    -230.728E-03     21.6469E-03
            1489     13.5793E-03     78.5436E-03    -3.79526E+06     69.9997E+06     79.6619E+06     486.305E+03    -229.059E-03     459.830E-03    -230.771E-03     149.274E-03    -237.031E-03     467.806E-03    -230.469E-03     120.078E-03
            1490     12.8655E-03     78.2864E-03    -8.48288E+06     66.8009E+06     79.7096E+06     336.152E+03    -229.842E-03     460.640E-03    -230.798E-03     206.559E-03    -242.386E-03     473.160E-03    -230.484E-03     169.135E-03
            1491     12.1507E-03     78.0128E-03    -13.7303E+06     59.8410E+06     76.8234E+06    -262.257E+03    -230.961E-03     461.773E-03    -230.812E-03     229.453E-03    -245.613E-03     476.366E-03    -230.495E-03     189.100E-03
            1492     11.4348E-03     77.6925E-03    -19.9817E+06     56.1222E+06     75.4642E+06    -3.50658E+03    -232.974E-03     463.793E-03    -230.819E-03     255.603E-03    -249.889E-03     480.617E-03    -230.494E-03     211.930E-03
            1493     10.7211E-03     77.3462E-03    -26.7495E+06     49.2691E+06     73.9884E+06    -138.308E+03    -235.089E-03     465.899E-03    -230.810E-03     271.473E-03    -252.851E-03     483.526E-03    -230.472E-03     226.264E-03
            1494     10.0068E-03     76.9786E-03    -32.6650E+06     38.7722E+06     66.1761E+06    -14.8907E+03    -236.348E-03     467.122E-03    -230.774E-03     277.288E-03    -253.674E-03     484.278E-03    -230.452E-03     232.281E-03
            1495     9.29165E-03     76.6137E-03    -38.4570E+06     30.2651E+06     54.7566E+06     657.327E+03    -236.730E-03     467.475E-03    -230.745E-03     271.363E-03    -252.433E-03     482.991E-03    -230.460E-03     228.295E-03
            1496     8.57747E-03     76.2630E-03    -44.6817E+06     24.1577E+06     43.0195E+06     1.56070E+06    -236.725E-03     467.458E-03    -230.733E-03     256.983E-03    -250.188E-03     480.724E-03    -230.488E-03     217.014E-03
            1497     7.86143E-03     75.9337E-03    -51.8476E+06     14.9203E+06     33.0147E+06     2.26060E+06    -236.415E-03     467.157E-03    -230.743E-03     237.986E-03    -247.481E-03     477.997E-03    -230.524E-03     201.866E-03
            1498     7.14698E-03     75.6306E-03    -59.9173E+06    -15.0698E+06     19.6061E+06     1.66909E+06    -236.014E-03     466.780E-03    -230.766E-03     217.456E-03    -244.840E-03     475.283E-03    -230.560E-03     185.372E-03
            1499     6.43203E-03     75.3533E-03    -68.5552E+06    -68.8458E+06     274.355E+03     319.351E+03    -235.599E-03     466.386E-03    -230.788E-03     196.595E-03    -242.452E-03     472.751E-03    -230.587E-03     168.478E-03
            1500     5.71706E-03     75.1042E-03    -77.1098E+06    -114.998E+06    -18.0117E+06    -218.083E+03    -235.022E-03     465.813E-03    -230.791E-03     175.311E-03    -240.209E-03     470.371E-03    -230.602E-03     151.065E-03
            1501     5.00247E-03     74.8823E-03    -85.2406E+06    -144.855E+06    -34.4517E+06     170.680E+03    -234.294E-03     465.064E-03    -230.770E-03     153.833E-03    -238.120E-03     468.173E-03    -230.608E-03     133.299E-03
            1502     4.28788E-03     74.6884E-03    -92.9696E+06    -174.068E+06    -50.7479E+06     387.112E+03    -233.482E-03     464.228E-03    -230.746E-03     132.303E-03    -236.208E-03     466.154E-03    -230.613E-03     115.225E-03
            1503     3.57332E-03     74.5240E-03    -100.202E+06    -215.472E+06    -66.0206E+06     268.686E+03    -232.717E-03     463.465E-03    -230.748E-03     110.719E-03    -234.553E-03     464.372E-03    -230.620E-03     96.8581E-03
            1504     2.85876E-03     74.3885E-03    -106.876E+06    -245.125E+06    -80.6999E+06     111.346E+03    -232.035E-03     462.774E-03    -230.739E-03     89.1011E-03    -233.188E-03     462.911E-03    -230.632E-03     78.2700E-03
            1505     2.14387E-03     74.2824E-03    -112.990E+06    -254.632E+06      -96.18E+06    -6.29776E+03    -231.412E-03     462.117E-03    -230.705E-03     67.2657E-03    -232.078E-03     461.758E-03    -230.653E-03     59.2717E-03
            1506     1.42903E-03     74.2062E-03    -117.631E+06    -264.635E+06    -109.588E+06     57.6104E+03    -230.982E-03     461.680E-03    -230.698E-03     45.3790E-03    -231.309E-03     460.967E-03    -230.691E-03     40.0593E-03
            1507     714.393E-06     74.1591E-03    -120.316E+06    -274.023E+06    -118.048E+06     264.705E+03    -230.720E-03     461.518E-03    -230.798E-03     24.5639E-03    -230.843E-03     460.584E-03    -230.816E-03     21.6876E-03
            1508     13.5808E-03     77.0362E-03    -4.42041E+06     69.8051E+06     80.9677E+06    -188.473E+03    -229.543E-03     460.308E-03    -230.765E-03     148.482E-03    -237.520E-03     468.283E-03    -230.455E-03     119.200E-03
            1509     12.8659E-03     76.7847E-03    -8.91413E+06     66.9822E+06     80.5881E+06     29.8585E+03    -230.018E-03     460.786E-03    -230.767E-03     206.617E-03    -242.577E-03     473.317E-03    -230.449E-03     169.146E-03
            1510     12.1504E-03     76.5083E-03    -14.3745E+06     60.1329E+06     76.6044E+06     408.670E+03    -231.138E-03     461.903E-03    -230.765E-03     229.753E-03    -245.812E-03     476.516E-03    -230.448E-03     189.360E-03
            1511     11.4366E-03     76.1904E-03    -20.1970E+06     56.2801E+06     75.1727E+06     161.242E+03    -232.986E-03     463.747E-03    -230.761E-03     255.327E-03    -249.884E-03     480.555E-03    -230.437E-03     211.648E-03
            1512     10.7218E-03     75.8398E-03    -26.3928E+06     49.6711E+06     73.0180E+06     14.1385E+03    -234.655E-03     465.412E-03    -230.756E-03     271.099E-03    -252.365E-03     482.992E-03    -230.425E-03     226.038E-03
            1513     10.0070E-03     75.4771E-03    -33.6798E+06     39.1911E+06     61.8914E+06    -747.011E+03    -235.787E-03     466.524E-03    -230.737E-03     276.953E-03    -253.085E-03     483.662E-03    -230.436E-03     232.037E-03
            1514     9.29152E-03     75.1102E-03    -41.0895E+06     28.2402E+06     48.1596E+06    -2.02502E+06    -236.507E-03     467.235E-03    -230.727E-03     271.169E-03    -252.203E-03     482.745E-03    -230.468E-03     228.074E-03
            1515     8.57581E-03     74.7590E-03    -47.6345E+06     20.3096E+06     39.1008E+06    -1.67038E+06    -236.786E-03     467.521E-03    -230.735E-03     256.787E-03    -250.250E-03     480.775E-03    -230.500E-03     216.760E-03
            1516     7.86215E-03     74.4304E-03    -54.2988E+06     12.6040E+06     32.5016E+06     326.080E+03    -236.662E-03     467.405E-03    -230.743E-03     238.063E-03    -247.750E-03     478.250E-03    -230.520E-03     201.857E-03
            1517     7.14696E-03     74.1273E-03    -62.0041E+06    -14.3284E+06     20.2074E+06     1.19817E+06    -236.233E-03     466.974E-03    -230.741E-03     217.548E-03    -245.083E-03     475.495E-03    -230.530E-03     185.397E-03
            1518     6.43209E-03     73.8506E-03    -70.2578E+06    -67.2040E+06     935.959E+03     1.17427E+06    -235.664E-03     466.405E-03    -230.740E-03     196.439E-03    -242.521E-03     472.771E-03    -230.536E-03     168.346E-03
            1519     5.71757E-03     73.6009E-03    -78.5214E+06    -114.194E+06    -18.3705E+06     1.24818E+06    -234.979E-03     465.709E-03    -230.730E-03     175.159E-03    -240.160E-03     470.260E-03    -230.543E-03     150.985E-03
            1520     5.00304E-03     73.3793E-03    -86.1199E+06    -144.359E+06    -34.8096E+06     723.847E+03    -234.140E-03     464.856E-03    -230.716E-03     154.013E-03    -237.971E-03     467.970E-03    -230.556E-03     133.506E-03
            1521     4.28816E-03     73.1861E-03    -93.0391E+06    -174.242E+06    -50.4293E+06     247.454E+03    -233.266E-03     463.988E-03    -230.722E-03     132.648E-03    -235.997E-03     465.916E-03    -230.586E-03     115.584E-03
            1522     3.57308E-03     73.0213E-03    -99.8765E+06    -215.073E+06    -65.1902E+06     379.970E+03    -232.569E-03     463.329E-03    -230.760E-03     110.940E-03    -234.405E-03     464.236E-03    -230.630E-03     97.1058E-03
            1523     2.85817E-03     72.8860E-03    -106.723E+06    -244.617E+06    -80.4649E+06     292.826E+03    -231.984E-03     462.761E-03    -230.778E-03     89.1238E-03    -233.138E-03     462.902E-03    -230.671E-03     78.2927E-03
            1524     2.14362E-03     72.7798E-03    -112.832E+06    -254.622E+06    -96.5681E+06    -24.7215E+03    -231.458E-03     462.211E-03    -230.753E-03     67.1389E-03    -232.124E-03     461.852E-03    -230.703E-03     59.1407E-03
            1525     1.42921E-03     72.7036E-03    -117.447E+06    -265.032E+06    -110.047E+06    -216.414E+03    -231.079E-03     461.808E-03    -230.730E-03     45.3176E-03    -231.403E-03     461.094E-03    -230.725E-03     39.9884E-03
            1526     714.690E-06     72.6564E-03    -120.292E+06    -274.213E+06    -118.652E+06    -370.376E+03    -230.877E-03     461.553E-03    -230.676E-03     24.5006E-03    -230.998E-03     460.619E-03    -230.697E-03     21.6204E-03
            1527     13.5807E-03     75.5340E-03    -4.62444E+06     69.4548E+06     80.5641E+06    -198.637E+03    -229.206E-03     459.957E-03    -230.752E-03     149.219E-03    -237.196E-03     467.944E-03    -230.443E-03     119.964E-03
            1528     12.8656E-03     75.2799E-03    -9.53665E+06     65.9937E+06     79.2524E+06     318.454E+03    -230.363E-03     461.115E-03    -230.752E-03     207.128E-03    -242.957E-03     473.680E-03    -230.437E-03     169.567E-03
            1529     12.1518E-03     75.0052E-03    -13.7500E+06     60.0368E+06     76.6365E+06     286.015E+03    -231.693E-03     462.419E-03    -230.727E-03     230.003E-03    -246.391E-03     477.060E-03    -230.411E-03     189.474E-03
            1530     11.4371E-03     74.6846E-03    -18.3961E+06     56.1928E+06     76.1634E+06     360.424E+03    -232.861E-03     463.575E-03    -230.713E-03     255.563E-03    -249.744E-03     480.370E-03    -230.387E-03     211.963E-03
            1531     10.7223E-03     74.3386E-03    -24.5032E+06     50.3540E+06     74.1545E+06     956.161E+03    -234.188E-03     464.919E-03    -230.731E-03     271.484E-03    -251.869E-03     482.477E-03    -230.398E-03     226.601E-03
            1532     10.0067E-03     73.9731E-03    -30.8317E+06     41.2751E+06     64.7176E+06     719.710E+03    -235.741E-03     466.480E-03    -230.739E-03     277.230E-03    -253.037E-03     483.626E-03    -230.431E-03     232.348E-03
            1533     9.29198E-03     73.6082E-03    -37.7448E+06     31.3376E+06     52.2542E+06     1.02402E+06    -236.657E-03     467.387E-03    -230.731E-03     271.126E-03    -252.363E-03     482.920E-03    -230.460E-03     228.018E-03
            1534     8.57744E-03     73.2565E-03    -47.0220E+06     21.4740E+06     39.4592E+06     713.764E+03    -236.826E-03     467.544E-03    -230.718E-03     256.619E-03    -250.269E-03     480.782E-03    -230.483E-03     216.656E-03
            1535     7.86138E-03     72.9266E-03    -56.2995E+06     9.64223E+06     28.5144E+06    -1.22196E+06    -236.679E-03     467.387E-03    -230.708E-03     237.797E-03    -247.751E-03     478.210E-03    -230.497E-03     201.567E-03
            1536     7.14716E-03     72.6236E-03    -63.2936E+06    -16.5627E+06     17.7559E+06    -1.52107E+06    -236.295E-03     466.997E-03    -230.702E-03     217.270E-03    -245.137E-03     475.504E-03    -230.497E-03     185.077E-03
            1537     6.43286E-03     72.3473E-03    -69.5300E+06    -69.1845E+06     2.76844E+06     476.934E+03    -235.650E-03     466.361E-03    -230.710E-03     196.374E-03    -242.502E-03     472.712E-03    -230.495E-03     168.278E-03
            1538     5.71796E-03     72.0983E-03    -76.6765E+06    -113.684E+06    -15.2656E+06     2.29034E+06    -234.781E-03     465.493E-03    -230.712E-03     175.456E-03    -239.962E-03     470.043E-03    -230.513E-03     151.323E-03
            1539     5.00270E-03     71.8768E-03    -84.2239E+06    -141.788E+06    -33.0434E+06     1.51698E+06    -233.950E-03     464.668E-03    -230.717E-03     154.289E-03    -237.779E-03     467.790E-03    -230.555E-03     133.819E-03
            1540     4.28772E-03     71.6836E-03    -91.6962E+06    -173.639E+06    -49.1287E+06     668.361E+03    -233.238E-03     463.984E-03    -230.746E-03     132.717E-03    -235.965E-03     465.911E-03    -230.606E-03     115.669E-03
            1541     3.57305E-03     71.5189E-03    -99.1780E+06    -214.584E+06    -64.3576E+06     722.850E+03    -232.620E-03     463.405E-03    -230.785E-03     110.891E-03    -234.454E-03     464.312E-03    -230.652E-03     97.0551E-03
            1542     2.85848E-03     71.3833E-03    -106.122E+06    -244.082E+06    -79.8303E+06     547.077E+03    -232.027E-03     462.821E-03    -230.794E-03     88.9609E-03    -233.179E-03     462.961E-03    -230.685E-03     78.1362E-03
            1543     2.14378E-03     71.2770E-03    -112.157E+06    -253.951E+06    -95.8069E+06     365.394E+03    -231.475E-03     462.239E-03    -230.764E-03     67.0644E-03    -232.136E-03     461.879E-03    -230.712E-03     59.0865E-03
            1544     1.42901E-03     71.2008E-03    -116.980E+06    -264.892E+06    -109.630E+06     33.3216E+03    -231.117E-03     461.847E-03    -230.730E-03     45.3232E-03    -231.439E-03     461.131E-03    -230.724E-03     40.0061E-03
            1545     714.447E-06     71.1536E-03    -119.784E+06    -274.576E+06    -118.160E+06     7.57039E+03    -230.976E-03     461.537E-03    -230.561E-03     24.4120E-03    -231.094E-03     460.599E-03    -230.580E-03     21.5569E-03
            1546     13.5797E-03     74.0300E-03    -3.88692E+06     69.5082E+06     79.5737E+06     574.716E+03    -229.278E-03     460.005E-03    -230.726E-03     148.613E-03    -237.234E-03     467.962E-03    -230.424E-03     119.391E-03
            1547     12.8657E-03     73.7748E-03    -8.62929E+06     66.0536E+06     78.9534E+06    -602.518E+03    -230.458E-03     461.180E-03    -230.722E-03     206.558E-03    -243.011E-03     473.709E-03    -230.411E-03     168.972E-03
            1548     12.1515E-03     73.4993E-03    -13.7367E+06     59.1030E+06     75.8704E+06    -856.954E+03    -231.350E-03     462.052E-03    -230.702E-03     229.887E-03    -246.028E-03     476.672E-03    -230.389E-03     189.415E-03
            1549     11.4374E-03     73.1817E-03    -19.6034E+06     55.0583E+06     74.6066E+06    -274.715E+03    -232.498E-03     463.207E-03    -230.709E-03     255.774E-03    -249.386E-03     480.005E-03    -230.387E-03     212.232E-03
            1550     10.7216E-03     72.8360E-03    -25.5240E+06     50.5954E+06     73.8846E+06    -314.531E+03    -234.276E-03     465.018E-03    -230.741E-03     271.679E-03    -251.978E-03     482.594E-03    -230.408E-03     226.745E-03
            1551     10.0067E-03     72.4699E-03    -32.4009E+06     40.8238E+06     64.8938E+06     114.443E+03    -235.858E-03     466.605E-03    -230.747E-03     277.286E-03    -253.168E-03     483.756E-03    -230.435E-03     232.370E-03
            1552     9.29164E-03     72.1044E-03    -40.0834E+06     29.4587E+06     51.6940E+06     849.246E+03    -236.771E-03     467.501E-03    -230.730E-03     271.230E-03    -252.481E-03     483.023E-03    -230.456E-03     228.126E-03
            1553     8.57644E-03     71.7527E-03    -45.7669E+06     22.6053E+06     41.7260E+06     1.49727E+06    -237.137E-03     467.843E-03    -230.706E-03     256.900E-03    -250.578E-03     481.081E-03    -230.464E-03     216.922E-03
            1554     7.86284E-03     71.4239E-03    -51.6859E+06     13.9878E+06     32.8416E+06     919.257E+03    -236.819E-03     467.498E-03    -230.679E-03     237.819E-03    -247.876E-03     478.326E-03    -230.460E-03     201.622E-03
            1555     7.14766E-03     71.1200E-03    -60.3655E+06    -16.0026E+06     18.8307E+06    -216.685E+03    -236.094E-03     466.762E-03    -230.668E-03     217.202E-03    -244.911E-03     475.253E-03    -230.463E-03     185.090E-03
            1556     6.43249E-03     70.8443E-03    -69.5767E+06    -73.9651E+06     804.054E+03    -209.440E+03    -235.383E-03     466.081E-03    -230.698E-03     196.468E-03    -242.223E-03     472.410E-03    -230.486E-03     168.402E-03
            1557     5.71752E-03     70.5959E-03    -77.0169E+06    -115.568E+06    -15.5662E+06     860.686E+03    -234.708E-03     465.433E-03    -230.725E-03     175.507E-03    -239.894E-03     469.980E-03    -230.524E-03     151.335E-03
            1558     5.00268E-03     70.3744E-03    -84.3027E+06    -139.349E+06    -31.8670E+06     1.83288E+06    -233.977E-03     464.710E-03    -230.734E-03     154.147E-03    -237.809E-03     467.841E-03    -230.569E-03     133.686E-03
            1559     4.28788E-03     70.1809E-03    -91.8645E+06    -172.210E+06    -49.0040E+06     1.52389E+06    -233.315E-03     464.063E-03    -230.749E-03     132.507E-03    -236.040E-03     465.993E-03    -230.611E-03     115.477E-03
            1560     3.57300E-03     70.0162E-03    -99.0014E+06    -214.186E+06    -64.1915E+06     811.479E+03    -232.683E-03     463.456E-03    -230.774E-03     110.717E-03    -234.516E-03     464.364E-03    -230.640E-03     96.8731E-03
            1561     2.85830E-03     69.8804E-03    -105.762E+06    -243.243E+06    -79.1956E+06     690.464E+03    -232.022E-03     462.794E-03    -230.772E-03     88.8251E-03    -233.171E-03     462.933E-03    -230.662E-03     78.0171E-03
            1562     2.14364E-03     69.7747E-03    -111.926E+06    -253.192E+06    -95.2778E+06     428.498E+03    -231.496E-03     462.224E-03    -230.728E-03     67.0012E-03    -232.158E-03     461.866E-03    -230.675E-03     59.0205E-03
            1563     1.42918E-03     69.6977E-03    -116.613E+06    -264.185E+06    -108.924E+06     347.473E+03    -231.111E-03     461.780E-03    -230.669E-03     45.0733E-03    -231.433E-03     461.066E-03    -230.661E-03     39.7664E-03
            1564     714.770E-06     69.6510E-03    -119.753E+06    -274.234E+06    -117.665E+06     247.627E+03    -230.887E-03     461.375E-03    -230.489E-03     24.1163E-03    -231.005E-03     460.437E-03    -230.506E-03     21.2853E-03
            1565     13.5825E-03     72.5269E-03    -4.31545E+06     69.3630E+06     79.4985E+06    -272.165E+03    -229.660E-03     460.340E-03    -230.680E-03     148.682E-03    -237.615E-03     468.295E-03    -230.377E-03     119.400E-03
            1566     12.8674E-03     72.2708E-03    -7.69900E+06     67.7448E+06     80.3355E+06    -160.478E+03    -230.093E-03     460.772E-03    -230.679E-03     206.835E-03    -242.614E-03     473.273E-03    -230.364E-03     169.394E-03
            1567     12.1522E-03     71.9964E-03    -13.4377E+06     59.3628E+06     75.9178E+06    -68.3179E+03    -230.649E-03     461.335E-03    -230.686E-03     229.390E-03    -245.284E-03     475.912E-03    -230.373E-03     189.091E-03
            1568     11.4359E-03     71.6787E-03    -19.3959E+06     55.3841E+06     74.6311E+06    -161.952E+03    -232.203E-03     462.924E-03    -230.721E-03     255.359E-03    -249.035E-03     479.667E-03    -230.400E-03     211.962E-03
            1569     10.7218E-03     71.3318E-03    -26.2158E+06     50.2737E+06     73.2732E+06    -93.9275E+03    -234.370E-03     465.130E-03    -230.760E-03     271.740E-03    -252.077E-03     482.710E-03    -230.428E-03     226.786E-03
            1570     10.0070E-03     70.9673E-03    -33.3121E+06     38.9153E+06     63.5798E+06     91.4453E+03    -236.060E-03     466.817E-03    -230.757E-03     277.530E-03    -253.383E-03     483.975E-03    -230.447E-03     232.572E-03
            1571     9.29181E-03     70.6015E-03    -39.4883E+06     29.3619E+06     51.3345E+06     14.9162E+03    -237.075E-03     467.798E-03    -230.724E-03     271.323E-03    -252.771E-03     483.310E-03    -230.452E-03     228.185E-03
            1572     8.57744E-03     70.2493E-03    -46.3604E+06     22.0745E+06     40.7336E+06    -1.25159E+06    -237.256E-03     467.936E-03    -230.680E-03     256.620E-03    -250.704E-03     481.180E-03    -230.441E-03     216.544E-03
            1573     7.86206E-03     69.9192E-03    -53.6038E+06     12.7163E+06     32.1971E+06    -621.013E+03    -236.641E-03     467.295E-03    -230.654E-03     237.630E-03    -247.697E-03     478.113E-03    -230.434E-03     201.452E-03
            1574     7.14772E-03     69.6176E-03    -61.1540E+06    -15.7647E+06     19.0559E+06     1.10960E+06    -235.867E-03     466.527E-03    -230.660E-03     217.200E-03    -244.685E-03     475.017E-03    -230.453E-03     185.145E-03
            1575     6.43257E-03     69.3421E-03    -69.2342E+06    -73.5178E+06     654.890E+03     1.23009E+06    -235.311E-03     466.012E-03    -230.701E-03     196.342E-03    -242.150E-03     472.342E-03    -230.490E-03     168.298E-03
            1576     5.71762E-03     69.0930E-03    -77.7686E+06    -116.697E+06    -16.6749E+06     630.842E+03    -234.780E-03     465.504E-03    -230.724E-03     175.257E-03    -239.961E-03     470.043E-03    -230.526E-03     151.084E-03
            1577     5.00276E-03     68.8719E-03    -85.4678E+06    -139.836E+06    -32.6349E+06     907.198E+03    -234.141E-03     464.854E-03    -230.713E-03     153.903E-03    -237.975E-03     467.982E-03    -230.549E-03     133.416E-03
            1578     4.28785E-03     68.6782E-03    -92.2655E+06    -171.078E+06    -48.7655E+06     1.08056E+06    -233.389E-03     464.091E-03    -230.702E-03     132.213E-03    -236.116E-03     466.024E-03    -230.564E-03     115.168E-03
            1579     3.57335E-03     68.5134E-03    -99.1096E+06    -213.355E+06    -63.9374E+06     665.549E+03    -232.638E-03     463.348E-03    -230.709E-03     110.381E-03    -234.469E-03     464.255E-03    -230.576E-03     96.5518E-03
            1580     2.85865E-03     68.3782E-03    -105.799E+06    -242.718E+06    -79.0475E+06     376.831E+03    -231.992E-03     462.687E-03    -230.695E-03     88.5616E-03    -233.140E-03     462.827E-03    -230.585E-03     77.7471E-03
            1581     2.14400E-03     68.2717E-03    -111.887E+06    -252.535E+06    -94.9269E+06     343.905E+03    -231.411E-03     462.054E-03    -230.643E-03     66.8992E-03    -232.075E-03     461.699E-03    -230.589E-03     58.9089E-03
            1582     1.42948E-03     68.1951E-03    -116.574E+06    -263.523E+06    -108.553E+06     411.685E+03    -230.928E-03     461.541E-03    -230.613E-03     45.1647E-03    -231.251E-03     460.830E-03    -230.605E-03     39.8624E-03
            1583     714.598E-06     68.1491E-03    -119.547E+06    -273.664E+06    -117.701E+06     364.424E+03    -230.945E-03     461.327E-03    -230.382E-03     24.3326E-03    -231.064E-03     460.392E-03    -230.400E-03     21.4969E-03
            1584     13.5813E-03     71.0227E-03    -4.55002E+06     69.1745E+06     79.2287E+06    -749.180E+03    -229.566E-03     460.235E-03    -230.668E-03     149.631E-03    -237.566E-03     468.234E-03    -230.366E-03     120.279E-03
            1585     12.8667E-03     70.7669E-03    -8.98827E+06     67.1046E+06     78.9691E+06    -203.331E+03    -229.939E-03     460.612E-03    -230.674E-03     207.600E-03    -242.506E-03     473.157E-03    -230.363E-03     170.157E-03
            1586     12.1519E-03     70.4936E-03    -13.8521E+06     59.9940E+06     76.0523E+06     269.099E+03    -230.599E-03     461.293E-03    -230.695E-03     229.783E-03    -245.229E-03     475.867E-03    -230.382E-03     189.570E-03
            1587     11.4374E-03     70.1769E-03    -19.8140E+06     55.3321E+06     74.6986E+06     798.508E+03    -232.365E-03     463.099E-03    -230.734E-03     255.844E-03    -249.195E-03     479.838E-03    -230.412E-03     212.489E-03
            1588     10.7212E-03     69.8283E-03    -26.3289E+06     49.9314E+06     72.4970E+06     250.836E+03    -234.408E-03     465.173E-03    -230.765E-03     271.673E-03    -252.109E-03     482.748E-03    -230.437E-03     226.695E-03
            1589     10.0058E-03     69.4634E-03    -32.5904E+06     39.3039E+06     63.2628E+06    -704.006E+03    -236.286E-03     467.035E-03    -230.749E-03     277.014E-03    -253.585E-03     484.175E-03    -230.443E-03     232.002E-03
            1590     9.29180E-03     69.0968E-03    -38.7282E+06     29.2664E+06     52.0886E+06    -1.16849E+06    -237.298E-03     467.996E-03    -230.698E-03     270.885E-03    -253.002E-03     483.515E-03    -230.424E-03     227.640E-03
            1591     8.57744E-03     68.7449E-03    -45.6625E+06     22.1502E+06     41.4817E+06    -308.253E+03    -237.012E-03     467.658E-03    -230.646E-03     256.317E-03    -250.462E-03     480.904E-03    -230.405E-03     216.265E-03
            1592     7.86326E-03     68.4174E-03    -54.3736E+06     11.4679E+06     30.3447E+06     367.777E+03    -236.284E-03     466.917E-03    -230.633E-03     237.477E-03    -247.319E-03     477.711E-03    -230.419E-03     201.405E-03
            1593     7.14727E-03     68.1147E-03    -63.0172E+06    -17.2949E+06     17.3537E+06     108.521E+03    -235.815E-03     466.475E-03    -230.660E-03     217.171E-03    -244.630E-03     474.954E-03    -230.456E-03     185.128E-03
            1594     6.43257E-03     67.8390E-03    -70.7727E+06    -72.9177E+06     813.361E+03     608.063E+03    -235.488E-03     466.186E-03    -230.697E-03     196.245E-03    -242.338E-03     472.523E-03    -230.485E-03     168.164E-03
            1595     5.71770E-03     67.5908E-03    -78.0193E+06    -115.616E+06    -16.4614E+06     814.294E+03    -234.974E-03     465.665E-03    -230.692E-03     175.035E-03    -240.155E-03     470.207E-03    -230.493E-03     150.854E-03
            1596     5.00297E-03     67.3686E-03    -85.1173E+06    -140.383E+06    -32.7595E+06     107.215E+03    -234.219E-03     464.871E-03    -230.652E-03     153.607E-03    -238.047E-03     467.994E-03    -230.489E-03     133.096E-03
            1597     4.28869E-03     67.1757E-03    -92.0852E+06    -171.357E+06    -48.4429E+06     102.012E+03    -233.355E-03     463.981E-03    -230.626E-03     132.064E-03    -236.081E-03     465.912E-03    -230.486E-03     115.000E-03
            1598     3.57364E-03     67.0112E-03    -98.9044E+06    -212.207E+06    -63.4767E+06     545.732E+03    -232.582E-03     463.207E-03    -230.624E-03     110.417E-03    -234.415E-03     464.119E-03    -230.491E-03     96.5909E-03
            1599     2.85895E-03     66.8757E-03    -105.892E+06    -242.239E+06    -78.9889E+06     268.503E+03    -231.919E-03     462.524E-03    -230.605E-03     88.7438E-03    -233.073E-03     462.671E-03    -230.495E-03     77.9127E-03
            1600     2.14430E-03     66.7696E-03    -112.063E+06    -252.318E+06    -94.8984E+06     139.625E+03    -231.246E-03     461.813E-03    -230.566E-03     66.9634E-03    -231.913E-03     461.461E-03    -230.512E-03     58.9741E-03
            1601     1.42910E-03     66.6934E-03    -116.949E+06    -263.423E+06    -108.918E+06     72.4473E+03    -230.774E-03     461.355E-03    -230.581E-03     45.1671E-03    -231.098E-03     460.644E-03    -230.574E-03     39.8680E-03
            1602     714.446E-06     66.6462E-03    -119.525E+06    -273.192E+06    -117.815E+06     75.2751E+03    -230.985E-03     461.326E-03    -230.340E-03     24.4413E-03    -231.105E-03     460.393E-03    -230.360E-03     21.5962E-03
            1603     13.5814E-03     69.5188E-03    -4.21650E+06     69.6150E+06     78.7779E+06    -348.406E+03    -229.194E-03     459.879E-03    -230.685E-03     149.293E-03    -237.180E-03     467.869E-03    -230.386E-03     120.018E-03
            1604     12.8667E-03     69.2628E-03    -9.60624E+06     66.2282E+06     78.0525E+06    -760.206E+03    -229.664E-03     460.373E-03    -230.709E-03     207.366E-03    -242.230E-03     472.913E-03    -230.400E-03     169.936E-03
            1605     12.1511E-03     68.9917E-03    -14.5132E+06     58.4624E+06     75.2392E+06     58.8932E+03    -230.832E-03     461.567E-03    -230.735E-03     230.031E-03    -245.468E-03     476.141E-03    -230.422E-03     189.796E-03
            1606     11.4354E-03     68.6715E-03    -19.5346E+06     54.6187E+06     74.7719E+06     63.6163E+03    -232.856E-03     463.611E-03    -230.754E-03     255.918E-03    -249.727E-03     480.389E-03    -230.431E-03     212.370E-03
            1607     10.7218E-03     68.3262E-03    -24.4266E+06     51.0377E+06     74.9183E+06    -332.613E+03    -234.880E-03     465.637E-03    -230.757E-03     271.320E-03    -252.595E-03     483.229E-03    -230.421E-03     226.211E-03
            1608     10.0076E-03     67.9593E-03    -30.3891E+06     41.2988E+06     65.7911E+06    -75.9810E+03    -236.455E-03     467.167E-03    -230.713E-03     276.844E-03    -253.753E-03     484.314E-03    -230.399E-03     231.804E-03
            1609     9.29304E-03     67.5934E-03    -38.4408E+06     28.7207E+06     51.3784E+06    -100.597E+03    -236.948E-03     467.602E-03    -230.654E-03     270.914E-03    -252.650E-03     483.121E-03    -230.383E-03     227.725E-03
            1610     8.57809E-03     67.2421E-03    -46.7573E+06     19.8659E+06     39.4612E+06     268.900E+03    -236.720E-03     467.347E-03    -230.627E-03     256.411E-03    -250.149E-03     480.566E-03    -230.390E-03     216.469E-03
            1611     7.86199E-03     66.9146E-03    -53.5725E+06     12.1524E+06     31.6531E+06     1.05298E+06    -236.380E-03     467.012E-03    -230.631E-03     237.400E-03    -247.411E-03     477.804E-03    -230.413E-03     201.328E-03
            1612     7.14771E-03     66.6119E-03    -60.9661E+06    -16.4459E+06     19.2730E+06     1.14170E+06    -235.973E-03     466.615E-03    -230.643E-03     216.773E-03    -244.779E-03     475.091E-03    -230.434E-03     184.718E-03
            1613     6.43254E-03     66.3363E-03    -68.9832E+06    -73.4188E+06     1.42985E+06     528.837E+03    -235.558E-03     466.214E-03    -230.656E-03     195.772E-03    -242.385E-03     472.531E-03    -230.443E-03     167.702E-03
            1614     5.71820E-03     66.0871E-03    -76.5945E+06    -115.039E+06    -15.3055E+06     336.511E+03    -234.970E-03     465.608E-03    -230.639E-03     174.872E-03    -240.150E-03     470.153E-03    -230.437E-03     150.656E-03
            1615     5.00378E-03     65.8664E-03    -84.1875E+06    -139.658E+06    -31.8384E+06     268.521E+03    -234.108E-03     464.706E-03    -230.598E-03     153.760E-03    -237.940E-03     467.836E-03    -230.433E-03     133.242E-03
            1616     4.28842E-03     65.6731E-03    -91.5019E+06    -171.369E+06    -48.3966E+06     164.367E+03    -233.245E-03     463.826E-03    -230.581E-03     132.312E-03    -235.972E-03     465.760E-03    -230.442E-03     115.258E-03
            1617     3.57393E-03     65.5090E-03    -98.8190E+06    -212.258E+06    -63.5710E+06     312.480E+03    -232.514E-03     463.107E-03    -230.593E-03     110.752E-03    -234.350E-03     464.023E-03    -230.460E-03     96.9159E-03
            1618     2.85905E-03     65.3736E-03    -105.686E+06    -241.589E+06    -78.7507E+06     450.296E+03    -231.841E-03     462.431E-03    -230.590E-03     89.0389E-03    -232.997E-03     462.582E-03    -230.480E-03     78.2186E-03
            1619     2.14411E-03     65.2676E-03    -111.893E+06    -251.772E+06    -94.5829E+06     299.788E+03    -231.246E-03     461.809E-03    -230.563E-03     67.0957E-03    -231.911E-03     461.458E-03    -230.509E-03     59.1263E-03
            1620     1.42967E-03     65.1915E-03    -117.219E+06    -263.156E+06    -108.323E+06    -49.7786E+03    -230.850E-03     461.405E-03    -230.556E-03     45.4136E-03    -231.177E-03     460.697E-03    -230.546E-03     40.1172E-03
            1621     714.821E-06     65.1439E-03    -120.881E+06    -273.485E+06    -118.310E+06    -376.469E+03    -230.738E-03     461.221E-03    -230.483E-03     24.8122E-03    -230.863E-03     460.290E-03    -230.503E-03     21.9646E-03
            1622     13.5813E-03     68.0146E-03    -3.90833E+06     70.2826E+06     79.2803E+06     137.478E+03    -229.095E-03     459.808E-03    -230.713E-03     149.352E-03    -237.074E-03     467.793E-03    -230.413E-03     120.140E-03
            1623     12.8653E-03     67.7611E-03    -9.01836E+06     66.7226E+06     78.9699E+06     287.636E+03    -229.751E-03     460.490E-03    -230.739E-03     206.959E-03    -242.305E-03     473.020E-03    -230.428E-03     169.543E-03
            1624     12.1505E-03     67.4866E-03    -13.9556E+06     58.1709E+06     75.0021E+06    -598.618E+03    -231.209E-03     461.953E-03    -230.744E-03     229.371E-03    -245.839E-03     476.522E-03    -230.433E-03     189.002E-03
            1625     11.4370E-03     67.1688E-03    -18.6414E+06     54.5656E+06     74.9360E+06    -1.61987E+06    -233.067E-03     463.806E-03    -230.739E-03     255.101E-03    -249.926E-03     480.575E-03    -230.416E-03     211.442E-03
            1626     10.7218E-03     66.8204E-03    -24.7777E+06     50.5822E+06     74.6424E+06    -1.00687E+06    -234.928E-03     465.655E-03    -230.727E-03     271.254E-03    -252.643E-03     483.245E-03    -230.392E-03     226.129E-03
            1627     10.0074E-03     66.4556E-03    -32.3025E+06     39.5192E+06     63.6603E+06    -260.268E+03    -236.312E-03     466.993E-03    -230.681E-03     277.341E-03    -253.642E-03     484.164E-03    -230.373E-03     232.290E-03
            1628     9.29240E-03     66.0898E-03    -39.2997E+06     27.7530E+06     50.5132E+06     603.102E+03    -236.769E-03     467.409E-03    -230.640E-03     270.932E-03    -252.456E-03     482.908E-03    -230.371E-03     227.839E-03
            1629     8.57696E-03     65.7396E-03    -45.7270E+06     20.7550E+06     41.0604E+06     888.341E+03    -236.800E-03     467.421E-03    -230.622E-03     256.008E-03    -250.198E-03     480.612E-03    -230.380E-03     216.119E-03
            1630     7.86321E-03     65.4110E-03    -53.4096E+06     11.1786E+06     32.0809E+06     37.9009E+03    -236.574E-03     467.180E-03    -230.606E-03     236.965E-03    -247.610E-03     477.973E-03    -230.384E-03     200.809E-03
            1631     7.14804E-03     65.1092E-03    -61.1626E+06    -16.9694E+06     19.4829E+06     480.414E+03    -236.078E-03     466.669E-03    -230.591E-03     216.497E-03    -244.884E-03     475.142E-03    -230.381E-03     184.406E-03
            1632     6.43367E-03     64.8333E-03    -68.9611E+06    -71.9902E+06     1.99583E+06     848.248E+03    -235.403E-03     466.002E-03    -230.599E-03     195.921E-03    -242.232E-03     472.325E-03    -230.385E-03     167.881E-03
            1633     5.71852E-03     64.5849E-03    -76.9247E+06    -114.982E+06    -15.7998E+06     166.880E+03    -234.649E-03     465.256E-03    -230.607E-03     175.298E-03    -239.832E-03     469.803E-03    -230.407E-03     151.124E-03
            1634     5.00315E-03     64.3636E-03    -84.3104E+06    -139.387E+06    -31.9911E+06     240.773E+03    -233.904E-03     464.512E-03    -230.607E-03     154.204E-03    -237.740E-03     467.646E-03    -230.443E-03     133.711E-03
            1635     4.28883E-03     64.1711E-03    -92.0274E+06    -171.172E+06    -48.8381E+06     617.910E+03    -233.186E-03     463.806E-03    -230.620E-03     132.771E-03    -235.918E-03     465.745E-03    -230.483E-03     115.735E-03
            1636     3.57350E-03     64.0068E-03    -99.3814E+06    -212.487E+06    -64.6029E+06     415.959E+03    -232.557E-03     463.202E-03    -230.645E-03     111.114E-03    -234.395E-03     464.120E-03    -230.516E-03     97.2947E-03
            1637     2.85875E-03     63.8714E-03    -105.844E+06    -241.318E+06    -79.6313E+06     167.965E+03    -231.921E-03     462.566E-03    -230.645E-03     89.1454E-03    -233.076E-03     462.720E-03    -230.540E-03     78.3279E-03
            1638     2.14408E-03     63.7656E-03    -111.506E+06    -251.243E+06    -95.5762E+06     187.868E+03    -231.323E-03     461.936E-03    -230.613E-03     67.1909E-03    -231.987E-03     461.589E-03    -230.564E-03     59.2143E-03
            1639     1.42906E-03     63.6890E-03    -115.352E+06    -261.759E+06    -109.145E+06    -217.129E+03    -230.950E-03     461.539E-03    -230.589E-03     45.5436E-03    -231.269E-03     460.836E-03    -230.587E-03     40.2456E-03
            1640     714.521E-06     63.6419E-03    -116.927E+06    -275.229E+06    -115.932E+06    -794.146E+03    -230.721E-03     461.309E-03    -230.588E-03     24.7759E-03    -230.828E-03     460.360E-03    -230.599E-03     21.9272E-03
            1641     13.5801E-03     66.5115E-03    -4.36594E+06     69.8744E+06     79.4699E+06     220.629E+03    -229.340E-03     460.069E-03    -230.728E-03     148.467E-03    -237.308E-03     468.038E-03    -230.426E-03     119.194E-03
            1642     12.8662E-03     66.2569E-03    -8.73203E+06      67.422E+06     79.2524E+06     87.4256E+03    -230.186E-03     460.914E-03    -230.728E-03     206.104E-03    -242.736E-03     473.443E-03    -230.417E-03     168.578E-03
            1643     12.1519E-03     65.9831E-03    -13.8338E+06     60.1782E+06     76.0856E+06    -914.613E+03    -231.308E-03     462.023E-03    -230.715E-03     229.423E-03    -245.942E-03     476.601E-03    -230.402E-03     189.029E-03
            1644     11.4367E-03     65.6634E-03    -20.1120E+06     55.2210E+06     74.8334E+06    -1.37643E+06    -233.019E-03     463.726E-03    -230.707E-03     255.437E-03    -249.886E-03     480.501E-03    -230.384E-03     211.807E-03
            1645     10.7226E-03     65.3181E-03    -27.2523E+06     47.8496E+06     71.7687E+06    -1.51788E+06    -234.776E-03     465.470E-03    -230.695E-03     271.264E-03    -252.484E-03     483.044E-03    -230.366E-03     226.164E-03
            1646     10.0074E-03     64.9513E-03    -34.0688E+06     36.6042E+06     60.7688E+06    -1.01802E+06    -236.111E-03     466.766E-03    -230.655E-03     276.625E-03    -253.403E-03     483.890E-03    -230.355E-03     231.625E-03
            1647     9.29272E-03     64.5875E-03    -40.3026E+06     28.3140E+06     50.1463E+06    -454.581E+03    -236.822E-03     467.438E-03    -230.616E-03     270.104E-03    -252.473E-03     482.901E-03    -230.348E-03     227.035E-03
            1648     8.57863E-03     64.2361E-03    -47.1212E+06     21.0573E+06     40.9965E+06    -885.397E+03    -236.864E-03     467.449E-03    -230.585E-03     255.764E-03    -250.275E-03     480.649E-03    -230.343E-03     215.807E-03
            1649     7.86295E-03     63.9081E-03    -54.2361E+06     10.2626E+06     31.5598E+06    -537.979E+03    -236.399E-03     466.968E-03    -230.569E-03     237.257E-03    -247.443E-03     477.764E-03    -230.347E-03     201.123E-03
            1650     7.14861E-03     63.6058E-03    -62.1935E+06    -17.9679E+06     18.7479E+06    -1.37631E+03    -235.806E-03     466.386E-03    -230.580E-03     217.205E-03    -244.615E-03     474.856E-03    -230.370E-03     185.178E-03
            1651     6.43324E-03     63.3312E-03    -70.0040E+06    -72.1949E+06     1.26509E+06     64.1061E+03    -235.248E-03     465.869E-03    -230.621E-03     196.805E-03    -242.098E-03     472.211E-03    -230.409E-03     168.768E-03
            1652     5.71806E-03     63.0828E-03    -77.4447E+06    -114.043E+06    -16.4566E+06     585.548E+03    -234.623E-03     465.274E-03    -230.652E-03     175.852E-03    -239.811E-03     469.830E-03    -230.456E-03     151.716E-03
            1653     5.00327E-03     62.8614E-03    -85.5598E+06    -139.848E+06    -33.7551E+06     384.832E+03    -233.883E-03     464.550E-03    -230.667E-03     154.375E-03    -237.719E-03     467.684E-03    -230.509E-03     133.910E-03
            1654     4.28753E-03     62.6687E-03    -92.9820E+06    -171.641E+06    -49.9659E+06     76.8619E+03    -233.265E-03     463.954E-03    -230.689E-03     132.667E-03    -235.996E-03     465.891E-03    -230.555E-03     115.627E-03
            1655     3.57317E-03     62.5040E-03    -99.2875E+06    -211.771E+06    -64.4826E+06     70.4542E+03    -232.668E-03     463.377E-03    -230.709E-03     110.766E-03    -234.504E-03     464.296E-03    -230.580E-03     96.9312E-03
            1656     2.85857E-03     62.3689E-03    -105.866E+06    -241.151E+06    -80.2402E+06    -111.375E+03    -232.001E-03     462.693E-03    -230.692E-03     88.8202E-03    -233.154E-03     462.847E-03    -230.590E-03     77.9898E-03
            1657     2.14384E-03     62.2632E-03    -111.495E+06    -251.372E+06    -96.6626E+06    -415.601E+03    -231.436E-03     462.071E-03    -230.635E-03     66.9801E-03    -232.098E-03     461.725E-03    -230.592E-03     58.9815E-03
            1658     1.42944E-03     62.1868E-03    -115.146E+06    -261.380E+06    -110.463E+06    -308.002E+03    -231.014E-03     461.588E-03    -230.574E-03     45.2769E-03    -231.330E-03     460.888E-03    -230.581E-03     39.9684E-03
            1659     714.762E-06     62.1391E-03    -116.780E+06    -276.078E+06    -116.970E+06     88.9173E+03    -230.848E-03     461.252E-03    -230.404E-03     24.4667E-03    -230.950E-03     460.299E-03    -230.420E-03     21.6378E-03
            1660     13.5813E-03     65.0052E-03    -4.31687E+06     69.9781E+06     80.1684E+06     104.615E+03    -229.407E-03     460.120E-03    -230.713E-03     148.545E-03    -237.387E-03     468.100E-03    -230.407E-03     119.243E-03
            1661     12.8667E-03     64.7537E-03    -9.12808E+06     67.6652E+06     79.4131E+06    -544.896E+03    -230.302E-03     461.006E-03    -230.704E-03     206.490E-03    -242.879E-03     473.560E-03    -230.392E-03     168.886E-03
            1662     12.1515E-03     64.4787E-03    -14.4646E+06     60.7561E+06     76.3103E+06    -350.543E+03    -231.377E-03     462.063E-03    -230.686E-03     229.496E-03    -246.011E-03     476.640E-03    -230.371E-03     189.102E-03
            1663     11.4371E-03     64.1605E-03    -20.5543E+06     55.3915E+06     74.3814E+06    -406.457E+03    -232.946E-03     463.617E-03    -230.672E-03     255.046E-03    -249.793E-03     480.373E-03    -230.350E-03     211.433E-03
            1664     10.7222E-03     63.8125E-03    -26.8999E+06     48.3134E+06     72.2242E+06    -767.951E+03    -234.733E-03     465.391E-03    -230.658E-03     270.556E-03    -252.424E-03     482.948E-03    -230.328E-03     225.454E-03
            1665     10.0083E-03     63.4494E-03    -33.6515E+06     37.2204E+06     63.6534E+06    -1.02095E+06    -236.042E-03     466.668E-03    -230.626E-03     276.184E-03    -253.289E-03     483.743E-03    -230.313E-03     231.295E-03
            1666     9.29335E-03     63.0832E-03    -40.6475E+06     27.9866E+06     51.5518E+06    -1.44292E+06    -236.629E-03     467.221E-03    -230.591E-03     270.533E-03    -252.283E-03     482.680E-03    -230.315E-03     227.504E-03
            1667     8.57797E-03     62.7334E-03    -47.7235E+06     20.2499E+06     39.8795E+06    -1.40418E+06    -236.606E-03     467.180E-03    -230.574E-03     256.569E-03    -250.040E-03     480.400E-03    -230.335E-03     216.628E-03
            1668     7.86365E-03     62.4055E-03    -55.5047E+06     9.29769E+06     29.9835E+06    -1.03841E+06    -236.122E-03     466.713E-03    -230.591E-03     237.999E-03    -247.166E-03     477.506E-03    -230.374E-03     201.947E-03
            1669     7.14748E-03     62.1038E-03    -63.3470E+06    -18.7429E+06     17.1111E+06    -746.237E+03    -235.615E-03     466.253E-03    -230.638E-03     217.624E-03    -244.426E-03     474.723E-03    -230.433E-03     185.638E-03
            1670     6.43219E-03     61.8285E-03    -71.4689E+06    -73.2600E+06    -665.936E+03    -363.761E+03    -235.313E-03     466.009E-03    -230.695E-03     196.701E-03    -242.156E-03     472.340E-03    -230.489E-03     168.677E-03
            1671     5.71753E-03     61.5798E-03    -79.5443E+06    -115.072E+06    -18.1798E+06    -281.558E+03    -234.834E-03     465.549E-03    -230.715E-03     175.433E-03    -240.025E-03     470.102E-03    -230.524E-03     151.249E-03
            1672     5.00232E-03     61.3593E-03    -86.3560E+06    -139.596E+06    -34.3262E+06    -322.346E+03    -234.134E-03     464.834E-03    -230.700E-03     153.848E-03    -237.970E-03     467.968E-03    -230.544E-03     133.338E-03
            1673     4.28833E-03     61.1657E-03    -92.8307E+06    -171.054E+06    -50.3958E+06    -594.838E+03    -233.386E-03     464.074E-03    -230.688E-03     132.140E-03    -236.111E-03     466.008E-03    -230.557E-03     115.080E-03
            1674     3.57342E-03     61.0014E-03    -99.8347E+06    -212.318E+06    -65.4604E+06    -682.942E+03    -232.659E-03     463.349E-03    -230.690E-03     110.344E-03    -234.492E-03     464.264E-03    -230.564E-03     96.4949E-03
            1675     2.85863E-03     60.8665E-03    -106.545E+06    -241.445E+06    -80.5236E+06    -276.186E+03    -232.020E-03     462.684E-03    -230.664E-03     88.4848E-03    -233.172E-03     462.834E-03    -230.562E-03     77.6598E-03
            1676     2.14407E-03     60.7606E-03    -112.608E+06    -251.642E+06    -96.4808E+06    -43.9723E+03    -231.445E-03     462.035E-03    -230.589E-03     66.7269E-03    -232.110E-03     461.686E-03    -230.543E-03     58.7396E-03
            1677     1.42939E-03     60.6842E-03    -117.764E+06    -262.658E+06    -110.049E+06     418.989E+03    -230.950E-03     461.466E-03    -230.516E-03     45.1742E-03    -231.278E-03     460.763E-03    -230.515E-03     39.8640E-03
            1678     714.709E-06     60.6375E-03    -120.933E+06    -274.168E+06    -119.064E+06     1.08866E+06    -230.787E-03     461.084E-03    -230.297E-03     24.5357E-03    -230.911E-03     460.151E-03    -230.319E-03     21.7006E-03
            1679     13.5813E-03     63.5043E-03    -4.52565E+06     70.0801E+06     80.7254E+06     -37.565E+03    -229.315E-03     460.012E-03    -230.697E-03     148.799E-03    -237.295E-03     467.990E-03    -230.388E-03     119.541E-03
            1680     12.8658E-03     63.2473E-03    -8.68421E+06     68.1576E+06     80.4382E+06     421.454E+03    -230.314E-03     461.007E-03    -230.693E-03     206.694E-03    -242.872E-03     473.543E-03    -230.377E-03     169.152E-03
            1681     12.1526E-03     62.9754E-03    -14.2866E+06     61.1447E+06     76.7062E+06     222.206E+03    -231.710E-03     462.371E-03    -230.661E-03     229.193E-03    -246.346E-03     476.950E-03    -230.345E-03     188.718E-03
            1682     11.4380E-03     62.6561E-03    -20.1610E+06     56.0967E+06     75.3952E+06    -327.319E+03    -233.012E-03     463.644E-03    -230.632E-03     254.913E-03    -249.872E-03     480.413E-03    -230.307E-03     211.265E-03
            1683     10.7238E-03     62.3101E-03    -26.5485E+06     49.3220E+06     73.0689E+06     202.119E+03    -234.423E-03     465.047E-03    -230.625E-03     270.795E-03    -252.087E-03     482.580E-03    -230.292E-03     225.847E-03
            1684     10.0084E-03     61.9455E-03    -33.9668E+06     39.8137E+06     63.2554E+06     186.721E+03    -235.754E-03     466.365E-03    -230.611E-03     276.861E-03    -253.021E-03     483.469E-03    -230.304E-03     232.037E-03
            1685     9.29313E-03     61.5817E-03    -41.9059E+06     28.7503E+06     48.7883E+06    -1.42437E+06    -236.356E-03     466.954E-03    -230.598E-03     271.284E-03    -252.045E-03     482.455E-03    -230.335E-03     228.252E-03
            1686     8.57794E-03     61.2304E-03    -49.4296E+06     18.4213E+06     36.8296E+06    -1.88707E+06    -236.377E-03     466.992E-03    -230.614E-03     256.913E-03    -249.793E-03     480.191E-03    -230.385E-03     217.061E-03
            1687     7.86172E-03     60.9028E-03    -56.6499E+06     8.00464E+06     27.8213E+06    -1.51982E+06    -236.179E-03     466.829E-03    -230.650E-03     237.810E-03    -247.208E-03     477.604E-03    -230.440E-03     201.767E-03
            1688     7.14715E-03     60.6014E-03    -64.6157E+06    -20.2421E+06     14.2066E+06    -1.37588E+06    -235.918E-03     466.595E-03    -230.676E-03     217.018E-03    -244.718E-03     475.052E-03    -230.482E-03     184.982E-03
            1689     6.43244E-03     60.3254E-03    -72.1835E+06    -74.0912E+06    -2.24209E+06    -1.06951E+06    -235.539E-03     466.243E-03    -230.704E-03     195.860E-03    -242.367E-03     472.559E-03    -230.503E-03     167.798E-03
            1690     5.71742E-03     60.0773E-03    -78.8893E+06    -115.411E+06    -17.9833E+06    -1.47141E+06    -234.951E-03     465.649E-03    -230.698E-03     174.587E-03    -240.128E-03     470.189E-03    -230.506E-03     150.363E-03
            1691     5.00337E-03     59.8557E-03    -85.8706E+06    -140.474E+06    -34.1542E+06    -1.35038E+06    -234.185E-03     464.844E-03    -230.659E-03     153.328E-03    -238.013E-03     467.967E-03    -230.502E-03     132.790E-03
            1692     4.28817E-03     59.6634E-03    -93.2207E+06    -171.403E+06    -51.0492E+06    -511.173E+03    -233.340E-03     463.970E-03    -230.630E-03     131.970E-03    -236.065E-03     465.904E-03    -230.501E-03     114.903E-03
            1693     3.57348E-03     59.4989E-03    -100.514E+06    -212.687E+06    -66.4354E+06    -379.570E+03    -232.610E-03     463.237E-03    -230.627E-03     110.291E-03    -234.441E-03     464.149E-03    -230.506E-03     96.4694E-03
            1694     2.85898E-03     59.3640E-03    -107.296E+06    -242.372E+06    -80.8521E+06    -392.571E+03    -231.971E-03     462.574E-03    -230.604E-03     88.4923E-03    -233.122E-03     462.719E-03    -230.501E-03     77.6810E-03
            1695     2.14429E-03     59.2582E-03    -113.504E+06    -252.318E+06    -96.1776E+06     223.526E+03    -231.333E-03     461.873E-03    -230.540E-03     66.7658E-03    -232.002E-03     461.522E-03    -230.490E-03     58.7828E-03
            1696     1.42954E-03     59.1824E-03    -118.088E+06    -262.758E+06    -109.739E+06     564.490E+03    -230.852E-03     461.344E-03    -230.492E-03     45.1653E-03    -231.182E-03     460.641E-03    -230.489E-03     39.8589E-03
            1697     714.748E-06     59.1352E-03    -120.650E+06    -272.283E+06    -118.513E+06     206.065E+03    -230.608E-03     461.063E-03    -230.455E-03     24.6032E-03    -230.734E-03     460.139E-03    -230.478E-03     21.7332E-03
            1698     13.5813E-03     61.9991E-03    -4.33688E+06     69.6472E+06     79.1642E+06    -193.311E+03    -229.424E-03     460.080E-03    -230.656E-03     147.849E-03    -237.370E-03     468.028E-03    -230.355E-03     118.580E-03
            1699     12.8674E-03     61.7451E-03    -9.38245E+06     67.3264E+06     78.8296E+06     82.2372E+03    -230.235E-03     460.886E-03    -230.651E-03     206.518E-03    -242.753E-03     473.381E-03    -230.341E-03     169.041E-03
            1700     12.1519E-03     61.4687E-03    -14.0309E+06     61.6369E+06     77.3888E+06     296.485E+03    -231.362E-03     462.001E-03    -230.639E-03     229.278E-03    -245.974E-03     476.558E-03    -230.321E-03     188.926E-03
            1701     11.4384E-03     61.1525E-03    -19.6501E+06     56.6849E+06     77.0896E+06     603.782E+03    -232.645E-03     463.286E-03    -230.641E-03     255.344E-03    -249.504E-03     480.052E-03    -230.309E-03     211.831E-03
            1702     10.7227E-03     60.8070E-03    -26.4662E+06     49.4305E+06     74.3331E+06     1.02337E+06    -234.170E-03     464.833E-03    -230.663E-03     271.777E-03    -251.841E-03     482.370E-03    -230.325E-03     226.956E-03
            1703     10.0075E-03     60.4428E-03    -33.2672E+06     40.4702E+06     64.6701E+06     564.490E+03    -235.688E-03     466.362E-03    -230.674E-03     277.677E-03    -252.974E-03     483.486E-03    -230.361E-03     232.866E-03
            1704     9.29231E-03     60.0783E-03    -39.8939E+06     30.8547E+06     51.4505E+06     835.942E+03    -236.562E-03     467.230E-03    -230.668E-03     271.227E-03    -252.242E-03     482.728E-03    -230.397E-03     228.213E-03
            1705     8.57679E-03     59.7283E-03    -47.6938E+06     20.3871E+06     38.4039E+06     726.779E+03    -236.710E-03     467.368E-03    -230.658E-03     256.255E-03    -250.109E-03     480.559E-03    -230.426E-03     216.389E-03
            1706     7.86242E-03     59.4002E-03    -56.5888E+06     9.14037E+06     27.6172E+06    -485.367E+03    -236.516E-03     467.167E-03    -230.651E-03     236.871E-03    -247.524E-03     477.927E-03    -230.444E-03     200.793E-03
            1707     7.14745E-03     59.0975E-03    -64.7685E+06    -21.0004E+06     13.7914E+06    -1.43753E+06    -236.165E-03     466.802E-03    -230.637E-03     216.127E-03    -244.948E-03     475.241E-03    -230.444E-03     184.039E-03
            1708     6.43273E-03     58.8228E-03    -72.0063E+06    -73.8211E+06    -3.38619E+06    -2.42961E+06    -235.594E-03     466.222E-03    -230.628E-03     195.309E-03    -242.415E-03     472.535E-03    -230.433E-03     167.207E-03
            1709     5.71857E-03     58.5738E-03    -79.3729E+06    -115.830E+06    -19.6801E+06    -2.48098E+06    -234.830E-03     465.442E-03    -230.612E-03     174.453E-03    -239.996E-03     469.972E-03    -230.428E-03     150.262E-03
            1710     5.00318E-03     58.3538E-03    -87.1553E+06    -143.258E+06    -36.0296E+06    -1.37710E+06    -234.022E-03     464.608E-03    -230.587E-03     153.360E-03    -237.844E-03     467.718E-03    -230.433E-03     132.856E-03
            1711     4.28869E-03     58.1606E-03    -94.3486E+06    -172.208E+06    -51.4415E+06    -892.236E+03    -233.280E-03     463.848E-03    -230.568E-03     131.872E-03    -236.006E-03     465.777E-03    -230.439E-03     114.816E-03
            1712     3.57392E-03     57.9969E-03    -100.930E+06    -212.715E+06    -65.6776E+06    -570.617E+03    -232.562E-03     463.128E-03    -230.565E-03     110.154E-03    -234.395E-03     464.037E-03    -230.439E-03     96.3378E-03
            1713     2.85895E-03     57.8615E-03    -107.682E+06    -243.229E+06    -81.1650E+06    -338.151E+03    -231.860E-03     462.399E-03    -230.539E-03     88.3452E-03    -233.009E-03     462.538E-03    -230.436E-03     77.5477E-03
            1714     2.14415E-03     57.7564E-03    -113.616E+06    -253.397E+06    -96.8471E+06    -495.865E+03    -231.257E-03     461.737E-03    -230.480E-03     66.5214E-03    -231.922E-03     461.380E-03    -230.432E-03     58.5410E-03
            1715     1.42938E-03     57.6801E-03    -117.821E+06    -262.727E+06    -110.097E+06    -344.828E+03    -230.798E-03     461.229E-03    -230.431E-03     44.9273E-03    -231.125E-03     460.525E-03    -230.430E-03     39.6088E-03
            1716     714.700E-06     57.6335E-03    -121.063E+06    -272.225E+06    -118.999E+06    -43.8905E+03    -230.527E-03     460.932E-03    -230.405E-03     24.3621E-03    -230.654E-03     460.009E-03    -230.429E-03     21.4916E-03
            1717     13.5830E-03     60.4972E-03    -3.49989E+06     69.7304E+06     78.9757E+06     352.450E+03    -229.709E-03     460.343E-03    -230.634E-03     148.969E-03    -237.686E-03     468.326E-03    -230.335E-03     119.634E-03
            1718     12.8674E-03     60.2401E-03    -8.62869E+06     67.3209E+06     79.1698E+06     68.5733E+03    -230.292E-03     460.917E-03    -230.626E-03     207.242E-03    -242.835E-03     473.440E-03    -230.315E-03     169.733E-03
            1719     12.1534E-03     59.9668E-03    -14.2752E+06     60.9087E+06     76.4974E+06     414.079E+03    -230.627E-03     461.261E-03    -230.634E-03     229.526E-03    -245.211E-03     475.789E-03    -230.319E-03     189.360E-03
            1720     11.4367E-03     59.6485E-03    -20.4149E+06     55.9961E+06     75.6438E+06     1.18785E+06    -232.016E-03     462.697E-03    -230.681E-03     255.442E-03    -248.821E-03     479.408E-03    -230.354E-03     212.144E-03
            1721     10.7219E-03     59.3045E-03    -26.5251E+06     49.5294E+06     73.9337E+06     537.677E+03    -234.210E-03     464.939E-03    -230.729E-03     271.493E-03    -251.883E-03     482.479E-03    -230.392E-03     226.602E-03
            1722     10.0065E-03     58.9394E-03    -33.1284E+06     39.9902E+06     64.9070E+06     242.243E+03    -235.977E-03     466.706E-03    -230.729E-03     276.850E-03    -253.238E-03     483.804E-03    -230.414E-03     231.979E-03
            1723     9.29159E-03     58.5748E-03    -40.3392E+06     29.6139E+06     51.2460E+06     559.234E+03    -236.902E-03     467.592E-03    -230.690E-03     270.102E-03    -252.544E-03     483.047E-03    -230.418E-03     227.037E-03
            1724     8.57762E-03     58.2247E-03    -46.7683E+06     21.2285E+06     39.6824E+06     1.09422E+06    -237.141E-03     467.778E-03    -230.637E-03     255.331E-03    -250.535E-03     480.966E-03    -230.402E-03     215.359E-03
            1725     7.86280E-03     57.8966E-03    -53.1627E+06     12.4239E+06     31.5040E+06     1.72917E+06    -236.763E-03     467.356E-03    -230.593E-03     236.379E-03    -247.757E-03     478.114E-03    -230.376E-03     200.296E-03
            1726     7.14838E-03     57.5949E-03    -61.1000E+06    -16.9750E+06     18.2032E+06     640.605E+03    -236.086E-03     466.649E-03    -230.563E-03     215.980E-03    -244.857E-03     475.090E-03    -230.359E-03     183.949E-03
            1727     6.43388E-03     57.3195E-03    -70.1340E+06    -71.6488E+06    -1.46320E+06    -619.098E+03    -235.436E-03     465.988E-03    -230.552E-03     195.337E-03    -242.242E-03     472.295E-03    -230.353E-03     167.320E-03
            1728     5.71833E-03     57.0723E-03    -78.8787E+06    -117.230E+06    -20.1062E+06    -1.05482E+06    -234.759E-03     465.297E-03    -230.538E-03     174.431E-03    -239.917E-03     469.817E-03    -230.354E-03     150.272E-03
            1729     5.00383E-03     56.8510E-03    -86.3791E+06    -144.239E+06    -35.2175E+06    -1.32449E+06    -234.045E-03     464.553E-03    -230.509E-03     153.065E-03    -237.856E-03     467.648E-03    -230.350E-03     132.576E-03
            1730     4.28878E-03     56.6586E-03    -93.2699E+06    -172.421E+06    -50.6008E+06    -1.37985E+06    -233.279E-03     463.748E-03    -230.469E-03     131.383E-03    -235.989E-03     465.662E-03    -230.337E-03     114.355E-03
            1731     3.57400E-03     56.4943E-03    -100.080E+06    -214.313E+06    -65.3246E+06    -1.08736E+06    -232.503E-03     462.948E-03    -230.446E-03     109.588E-03    -234.321E-03     463.840E-03    -230.316E-03     95.7809E-03
            1732     2.85943E-03     56.3600E-03    -106.477E+06    -243.729E+06    -79.9924E+06    -574.997E+03    -231.755E-03     462.159E-03    -230.404E-03     87.8251E-03    -232.895E-03     462.288E-03    -230.296E-03     77.0329E-03
            1733     2.14465E-03     56.2542E-03    -112.379E+06    -253.662E+06    -96.1420E+06    -480.059E+03    -231.125E-03     461.455E-03    -230.330E-03     66.1439E-03    -231.782E-03     461.091E-03    -230.280E-03     58.1845E-03
            1734     1.42992E-03     56.1787E-03    -117.310E+06    -264.073E+06    -109.828E+06    -567.487E+03    -230.668E-03     460.934E-03    -230.266E-03     44.6463E-03    -230.990E-03     460.220E-03    -230.262E-03     39.3356E-03
            1735     714.909E-06     56.1318E-03    -119.948E+06    -272.613E+06    -117.995E+06    -181.716E+03    -230.563E-03     460.581E-03    -230.018E-03     24.2350E-03    -230.685E-03     459.653E-03    -230.039E-03     21.3758E-03
            1736     13.5804E-03     58.9901E-03    -3.95700E+06     69.4864E+06     80.3241E+06     289.880E+03    -229.791E-03     460.468E-03    -230.677E-03     149.925E-03    -237.791E-03     468.467E-03    -230.370E-03     120.602E-03
            1737     12.8678E-03     58.7361E-03    -8.48500E+06     67.2040E+06     80.6114E+06     596.276E+03    -230.178E-03     460.850E-03    -230.672E-03     207.494E-03    -242.749E-03     473.395E-03    -230.354E-03     169.992E-03
            1738     12.1518E-03     58.4639E-03    -13.8336E+06     60.2645E+06     76.6310E+06     1.15234E+06    -230.644E-03     461.326E-03    -230.682E-03     230.031E-03    -245.226E-03     475.851E-03    -230.366E-03     189.901E-03
            1739     11.4369E-03     58.1477E-03    -19.1047E+06     56.0710E+06     75.3490E+06     1.13955E+06    -232.458E-03     463.173E-03    -230.715E-03     255.415E-03    -249.257E-03     479.885E-03    -230.392E-03     212.017E-03
            1740     10.7212E-03     57.7997E-03    -25.3766E+06     49.8476E+06     72.7948E+06     768.165E+03    -234.595E-03     465.322E-03    -230.726E-03     270.355E-03    -252.245E-03     482.847E-03    -230.398E-03     225.331E-03
            1741     10.0072E-03     57.4364E-03    -32.2425E+06     40.7569E+06     63.1384E+06     1.38873E+06    -236.216E-03     466.902E-03    -230.686E-03     275.519E-03    -253.436E-03     483.969E-03    -230.383E-03     230.595E-03
            1742     9.29287E-03     57.0712E-03    -39.2689E+06     31.1867E+06     51.0641E+06     1.21539E+06    -237.046E-03     467.670E-03    -230.624E-03     269.437E-03    -252.658E-03     483.105E-03    -230.357E-03     226.360E-03
            1743     8.57795E-03     56.7208E-03    -46.9989E+06     21.3880E+06     39.5745E+06     77.8286E+03    -237.133E-03     467.692E-03    -230.560E-03     254.926E-03    -250.501E-03     480.855E-03    -230.325E-03     214.974E-03
            1744     7.86381E-03     56.3933E-03    -54.2192E+06     10.6373E+06     30.5422E+06    -601.655E+03    -236.586E-03     467.099E-03    -230.513E-03     236.211E-03    -247.570E-03     477.840E-03    -230.297E-03     200.131E-03
            1745     7.14884E-03     56.0920E-03    -61.0301E+06    -16.3650E+06     18.1473E+06     502.285E+03    -235.917E-03     466.409E-03    -230.492E-03     216.028E-03    -244.675E-03     474.840E-03    -230.289E-03     184.062E-03
            1746     6.43334E-03     55.8174E-03    -68.3181E+06    -70.5537E+06     1.17288E+06     1.64940E+06    -235.471E-03     465.962E-03    -230.491E-03     195.120E-03    -242.260E-03     472.255E-03    -230.284E-03     167.162E-03
            1747     5.71921E-03     55.5694E-03    -75.9277E+06    -114.830E+06    -15.8325E+06     951.779E+03    -234.935E-03     465.391E-03    -230.456E-03     173.916E-03    -240.084E-03     469.908E-03    -230.258E-03     149.759E-03
            1748     5.00433E-03     55.3489E-03    -83.6432E+06    -142.525E+06    -33.1147E+06    -302.664E+03    -234.147E-03     464.523E-03    -230.377E-03     152.522E-03    -237.942E-03     467.612E-03    -230.214E-03     132.046E-03
            1749     4.28988E-03     55.1564E-03    -91.0879E+06    -173.481E+06    -49.6339E+06    -692.485E+03    -233.233E-03     463.536E-03    -230.304E-03     130.893E-03    -235.926E-03     465.434E-03    -230.168E-03     113.885E-03
            1750     3.57516E-03     54.9929E-03    -98.1764E+06    -215.037E+06    -64.2329E+06    -736.401E+03    -232.378E-03     462.638E-03    -230.260E-03     109.233E-03    -234.183E-03     463.517E-03    -230.127E-03     95.4479E-03
            1751     2.86014E-03     54.8584E-03    -104.961E+06    -244.695E+06    -78.9240E+06    -720.214E+03    -231.599E-03     461.804E-03    -230.205E-03     87.6690E-03    -232.731E-03     461.923E-03    -230.093E-03     76.8855E-03
            1752     2.14510E-03     54.7532E-03    -111.180E+06    -254.071E+06    -94.8645E+06     49.5540E+03    -230.937E-03     461.059E-03    -230.121E-03     66.0727E-03    -231.588E-03     460.688E-03    -230.066E-03     58.1368E-03
            1753     1.42994E-03     54.6773E-03    -115.947E+06    -264.357E+06    -108.833E+06     424.649E+03    -230.466E-03     460.514E-03    -230.048E-03     44.5169E-03    -230.780E-03     459.793E-03    -230.041E-03     39.2511E-03
            1754     715.130E-06     54.6310E-03    -118.943E+06    -272.958E+06    -117.726E+06    -143.143E+03    -230.259E-03     460.138E-03    -229.879E-03     24.3030E-03    -230.375E-03     459.206E-03    -229.900E-03     21.4568E-03
            1755     13.5818E-03     57.4846E-03    -4.59502E+06     68.9139E+06     80.3003E+06     53.3081E+03    -229.310E-03     460.027E-03    -230.717E-03     149.340E-03    -237.278E-03     467.990E-03    -230.409E-03     120.132E-03
            1756     12.8654E-03     57.2326E-03    -8.98046E+06     66.0666E+06     79.8078E+06     94.3885E+03    -229.777E-03     460.510E-03    -230.732E-03     206.753E-03    -242.317E-03     473.020E-03    -230.416E-03     169.303E-03
            1757     12.1508E-03     56.9609E-03    -13.5643E+06     59.8189E+06     76.9735E+06     293.798E+03    -231.336E-03     462.071E-03    -230.734E-03     229.195E-03    -245.905E-03     476.580E-03    -230.416E-03     188.929E-03
            1758     11.4362E-03     56.6420E-03    -19.1067E+06     55.8648E+06     76.0056E+06     376.145E+03    -233.205E-03     463.924E-03    -230.719E-03     254.700E-03    -249.999E-03     480.628E-03    -230.392E-03     211.135E-03
            1759     10.7233E-03     56.2968E-03    -24.9742E+06     49.6205E+06     74.4210E+06     992.195E+03    -235.020E-03     465.712E-03    -230.692E-03     270.317E-03    -252.656E-03     483.220E-03    -230.356E-03     225.275E-03
            1760     10.0082E-03     55.9325E-03    -31.1935E+06     40.5784E+06     64.3600E+06     1.40524E+06    -236.508E-03     467.129E-03    -230.621E-03     275.614E-03    -253.732E-03     484.200E-03    -230.313E-03     230.641E-03
            1761     9.29343E-03     55.5680E-03    -37.5109E+06     31.7899E+06     52.6734E+06     1.99027E+06    -237.128E-03     467.669E-03    -230.541E-03     269.378E-03    -252.724E-03     483.092E-03    -230.269E-03     226.331E-03
            1762     8.57925E-03     55.2173E-03    -44.2401E+06     23.6937E+06     42.2925E+06     2.12722E+06    -236.877E-03     467.358E-03    -230.480E-03     254.785E-03    -250.202E-03     480.487E-03    -230.239E-03     214.980E-03
            1763     7.86404E-03     54.8906E-03    -53.0805E+06     11.8178E+06     30.4684E+06     1.21787E+06    -236.393E-03     466.832E-03    -230.439E-03     236.042E-03    -247.349E-03     477.553E-03    -230.226E-03     200.067E-03
            1764     7.14891E-03     54.5898E-03    -62.6774E+06    -18.3330E+06     16.5413E+06     593.188E+03    -236.061E-03     466.472E-03    -230.411E-03     215.590E-03    -244.810E-03     474.885E-03    -230.210E-03     183.618E-03
            1765     6.43480E-03     54.3145E-03    -70.8685E+06    -69.5570E+06    -23.3704E+03    -186.046E+03    -235.633E-03     466.007E-03    -230.374E-03     194.517E-03    -242.432E-03     472.308E-03    -230.170E-03     166.492E-03
            1766     5.71983E-03     54.0670E-03    -77.6721E+06    -113.152E+06    -16.5538E+06    -1.04277E+06    -234.956E-03     465.259E-03    -230.303E-03     173.415E-03    -240.103E-03     469.776E-03    -230.109E-03     149.248E-03
            1767     5.00551E-03     53.8466E-03    -83.9999E+06    -142.927E+06    -32.8738E+06    -585.147E+03    -234.040E-03     464.248E-03    -230.208E-03     152.178E-03    -237.831E-03     467.329E-03    -230.043E-03     131.716E-03
            1768     4.29056E-03     53.6549E-03    -90.7633E+06    -173.581E+06    -49.5882E+06    -31.3634E+03    -233.040E-03     463.166E-03    -230.126E-03     130.824E-03    -235.728E-03     465.059E-03    -229.991E-03     113.854E-03
            1769     3.57550E-03     53.4916E-03    -97.7029E+06    -215.183E+06    -64.7214E+06     53.0693E+03    -232.175E-03     462.261E-03    -230.086E-03     109.339E-03    -233.975E-03     463.138E-03    -229.956E-03     95.5976E-03
            1770     2.86058E-03     53.3577E-03    -104.953E+06    -245.468E+06    -80.3532E+06     357.713E+03    -231.448E-03     461.480E-03    -230.032E-03     87.7866E-03    -232.575E-03     461.596E-03    -229.926E-03     77.0464E-03
            1771     2.14555E-03     53.2525E-03    -111.185E+06    -254.790E+06    -95.4529E+06     498.458E+03    -230.800E-03     460.748E-03    -229.948E-03     66.1761E-03    -231.448E-03     460.374E-03    -229.895E-03     58.2595E-03
            1772     1.43061E-03     53.1770E-03    -115.560E+06    -263.380E+06    -107.739E+06     704.143E+03    -230.301E-03     460.174E-03    -229.873E-03     44.5802E-03    -230.617E-03     459.457E-03    -229.862E-03     39.3258E-03
            1773     715.158E-06     53.1307E-03    -118.761E+06    -272.262E+06    -116.683E+06     572.472E+03    -229.811E-03     459.775E-03    -229.965E-03     24.1059E-03    -229.928E-03     458.844E-03    -229.981E-03     21.2859E-03
            1774     13.5804E-03     55.9831E-03    -3.91938E+06     68.9621E+06     79.5052E+06    -250.276E+03    -229.256E-03     459.990E-03    -230.734E-03     149.048E-03    -237.214E-03     467.948E-03    -230.431E-03     119.779E-03
            1775     12.8655E-03     55.7295E-03    -8.75600E+06     66.0690E+06     79.1452E+06     209.099E+03    -230.145E-03     460.885E-03    -230.739E-03     205.754E-03    -242.635E-03     473.348E-03    -230.427E-03     168.302E-03
            1776     12.1514E-03     55.4546E-03    -14.2510E+06     59.1940E+06     75.5785E+06    -19.2485E+03    -231.565E-03     462.283E-03    -230.718E-03     228.555E-03    -246.110E-03     476.769E-03    -230.406E-03     188.237E-03
            1777     11.4379E-03     55.1388E-03    -19.4948E+06     55.7252E+06     75.5604E+06     244.060E+03    -233.329E-03     464.021E-03    -230.692E-03     254.532E-03    -250.110E-03     480.712E-03    -230.367E-03     210.949E-03
            1778     10.7218E-03     54.7916E-03    -25.6516E+06     49.2734E+06     74.9372E+06     329.936E+03    -235.159E-03     465.820E-03    -230.661E-03     270.255E-03    -252.768E-03     483.295E-03    -230.320E-03     225.245E-03
            1779     10.0083E-03     54.4279E-03    -32.0063E+06     37.9960E+06     66.1063E+06    -690.262E+03    -236.652E-03     467.241E-03    -230.589E-03     275.761E-03    -253.871E-03     484.290E-03    -230.268E-03     230.780E-03
            1780     9.29460E-03     54.0643E-03    -38.0619E+06     29.2292E+06     54.3092E+06    -258.750E+03    -237.198E-03     467.697E-03    -230.499E-03     269.493E-03    -252.797E-03     483.107E-03    -230.214E-03     226.439E-03
            1781     8.57946E-03     53.7149E-03    -44.7501E+06     21.8497E+06     42.5816E+06     1.52575E+06    -236.985E-03     467.404E-03    -230.419E-03     254.706E-03    -250.296E-03     480.510E-03    -230.173E-03     214.928E-03
            1782     7.86449E-03     53.3886E-03    -51.2178E+06     13.1716E+06     33.1834E+06     3.63975E+06    -236.640E-03     466.997E-03    -230.356E-03     235.524E-03    -247.578E-03     477.703E-03    -230.135E-03     199.576E-03
            1783     7.15029E-03     53.0861E-03    -58.0896E+06    -13.4092E+06     20.6658E+06     3.39852E+06    -236.233E-03     466.523E-03    -230.290E-03     215.038E-03    -244.961E-03     474.938E-03    -230.083E-03     183.087E-03
            1784     6.43548E-03     52.8124E-03    -65.9144E+06    -65.9098E+06     2.51898E+06     1.13205E+06    -235.643E-03     465.862E-03    -230.219E-03     194.233E-03    -242.417E-03     472.161E-03    -230.016E-03     166.242E-03
            1785     5.72122E-03     52.5645E-03    -74.3632E+06    -112.913E+06    -14.8718E+06     592.178E+03    -234.778E-03     464.921E-03    -230.143E-03     173.224E-03    -239.898E-03     469.419E-03    -229.946E-03     149.135E-03
            1786     5.00618E-03     52.3453E-03    -83.3514E+06    -143.392E+06    -31.3272E+06     411.727E+03    -233.737E-03     463.802E-03    -230.065E-03     152.129E-03    -237.514E-03     466.865E-03    -229.893E-03     131.756E-03
            1787     4.29121E-03     52.1538E-03    -91.5065E+06    -173.685E+06    -49.7357E+06     226.094E+03    -232.792E-03     462.792E-03    -230.000E-03     130.886E-03    -235.477E-03     464.680E-03    -229.864E-03     113.967E-03
            1788     3.57610E-03     51.9911E-03    -98.8292E+06    -216.126E+06    -66.7973E+06     808.100E+03    -232.008E-03     461.977E-03    -229.969E-03     109.411E-03    -233.808E-03     462.853E-03    -229.846E-03     95.7018E-03
            1789     2.86084E-03     51.8570E-03    -105.313E+06    -244.907E+06    -80.1450E+06     1.12974E+06    -231.308E-03     461.244E-03    -229.936E-03     87.8579E-03    -232.435E-03     461.360E-03    -229.829E-03     77.1602E-03
            1790     2.14568E-03     51.7523E-03    -110.875E+06    -253.605E+06    -94.0235E+06     524.412E+03    -230.658E-03     460.532E-03    -229.874E-03     66.2879E-03    -231.308E-03     460.161E-03    -229.816E-03     58.3903E-03
            1791     1.43028E-03     51.6769E-03    -115.316E+06    -263.067E+06    -107.177E+06    -107.420E+03    -230.183E-03     460.008E-03    -229.825E-03     44.7842E-03    -230.499E-03     459.291E-03    -229.812E-03     39.5335E-03
            1792     715.419E-06     51.6306E-03    -118.235E+06    -271.457E+06    -115.917E+06    -91.4994E+03    -229.662E-03     459.719E-03    -230.057E-03     24.2079E-03    -229.779E-03     458.789E-03    -230.071E-03     21.3955E-03
            1793     13.5800E-03     54.4771E-03    -4.35494E+06     68.7483E+06     77.9886E+06     224.189E+03    -229.788E-03     460.511E-03    -230.722E-03     148.117E-03    -237.722E-03     468.447E-03    -230.426E-03     118.828E-03
            1794     12.8671E-03     54.2245E-03    -9.66431E+06     65.5424E+06     77.4809E+06    -255.457E+03    -230.433E-03     461.137E-03    -230.704E-03     205.534E-03    -242.899E-03     473.577E-03    -230.397E-03     168.072E-03
            1795     12.1520E-03     53.9525E-03    -14.1728E+06     59.6531E+06     75.2047E+06    -184.058E+03    -231.591E-03     462.268E-03    -230.677E-03     228.931E-03    -246.125E-03     476.746E-03    -230.367E-03     188.615E-03
            1796     11.4364E-03     53.6321E-03    -19.7107E+06     55.0985E+06     74.4684E+06    -245.708E+03    -233.387E-03     464.031E-03    -230.644E-03     254.077E-03    -250.151E-03     480.705E-03    -230.323E-03     210.460E-03
            1797     10.7241E-03     53.2888E-03    -25.8602E+06     49.0157E+06     72.3405E+06    -615.425E+03    -235.195E-03     465.786E-03    -230.591E-03     269.346E-03    -252.774E-03     483.237E-03    -230.263E-03     224.287E-03
            1798     10.0089E-03     52.9236E-03    -32.9796E+06     38.7684E+06     61.1332E+06    -857.737E+03    -236.438E-03     466.938E-03    -230.500E-03     274.828E-03    -253.594E-03     483.937E-03    -230.203E-03     229.920E-03
            1799     9.29388E-03     52.5602E-03    -41.0385E+06     27.6887E+06     47.5296E+06    -1.51073E+06    -236.985E-03     467.393E-03    -230.408E-03     268.446E-03    -252.532E-03     482.755E-03    -230.151E-03     225.435E-03
            1800     8.57980E-03     52.2119E-03    -47.9201E+06     18.6532E+06     38.8448E+06    -1.13850E+06    -237.159E-03     467.490E-03    -230.331E-03     254.083E-03    -250.464E-03     480.578E-03    -230.094E-03     214.237E-03
            1801     7.86610E-03     51.8846E-03    -54.3505E+06     9.67200E+06     31.3699E+06    -503.801E+03    -236.884E-03     467.129E-03    -230.245E-03     235.483E-03    -247.838E-03     477.833E-03    -230.023E-03     199.426E-03
            1802     7.15127E-03     51.5846E-03    -61.0237E+06    -13.4455E+06     19.0717E+06     445.642E+03    -236.201E-03     466.353E-03    -230.152E-03     215.091E-03    -244.935E-03     474.767E-03    -229.948E-03     183.127E-03
            1803     6.43673E-03     51.3093E-03    -68.4257E+06    -64.3423E+06     1.27584E+06     1.30504E+06    -235.395E-03     465.477E-03    -230.082E-03     194.303E-03    -242.159E-03     471.766E-03    -229.883E-03     166.417E-03
            1804     5.72176E-03     51.0634E-03    -76.1451E+06    -112.789E+06    -16.9221E+06     1.12685E+06    -234.519E-03     464.540E-03    -230.022E-03     173.360E-03    -239.634E-03     469.034E-03    -229.832E-03     149.350E-03
            1805     5.00667E-03     50.8443E-03    -82.4091E+06    -141.354E+06    -31.9201E+06     668.385E+03    -233.594E-03     463.554E-03    -229.960E-03     152.171E-03    -237.359E-03     466.618E-03    -229.795E-03     131.857E-03
            1806     4.29136E-03     50.6532E-03    -88.5992E+06    -176.057E+06    -45.4357E+06     1.03452E+06    -232.708E-03     462.635E-03    -229.927E-03     130.702E-03    -235.377E-03     464.496E-03    -229.770E-03     113.814E-03
            1807     3.57609E-03     50.4907E-03    -95.9028E+06    -216.651E+06    -60.1992E+06     2.48344E+06    -231.895E-03     461.800E-03    -229.905E-03     109.139E-03    -233.684E-03     462.654E-03    -229.753E-03     95.4784E-03
            1808     2.86101E-03     50.3569E-03    -103.401E+06    -240.851E+06    -76.5910E+06     1.72732E+06    -231.127E-03     460.991E-03    -229.864E-03     87.6023E-03    -232.250E-03     461.114E-03    -229.748E-03     76.9486E-03
            1809     2.14566E-03     50.2523E-03    -109.770E+06    -252.245E+06    -93.0061E+06     66.1094E+03    -230.499E-03     460.321E-03    -229.822E-03     66.1137E-03    -231.143E-03     459.950E-03    -229.762E-03     58.2326E-03
            1810     1.43057E-03     50.1769E-03    -114.427E+06    -262.861E+06    -107.006E+06    -320.976E+03    -230.083E-03     459.893E-03    -229.810E-03     44.6067E-03    -230.393E-03     459.173E-03    -229.798E-03     39.3679E-03
            1811     714.843E-06     50.1308E-03    -117.835E+06    -272.284E+06    -115.795E+06    -318.465E+03    -229.923E-03     459.734E-03    -229.811E-03     23.9690E-03    -230.036E-03     458.798E-03    -229.824E-03     21.1578E-03
            1812     13.5825E-03     52.9728E-03    -4.58541E+06     69.0225E+06     78.3275E+06     438.937E+03    -229.887E-03     460.597E-03    -230.710E-03     148.310E-03    -237.817E-03     468.529E-03    -230.412E-03     119.057E-03
            1813     12.8658E-03     52.7216E-03    -8.02454E+06     67.1045E+06     78.7384E+06     451.022E+03    -230.652E-03     461.336E-03    -230.685E-03     206.034E-03    -243.130E-03     473.796E-03    -230.377E-03     168.530E-03
            1814     12.1521E-03     52.4460E-03    -13.2503E+06     60.0773E+06     76.2882E+06     76.4202E+03    -232.091E-03     462.728E-03    -230.637E-03     228.632E-03    -246.636E-03     477.218E-03    -230.323E-03     188.203E-03
            1815     11.4395E-03     52.1298E-03    -18.8672E+06     55.3722E+06     75.2559E+06    -364.645E+03    -233.579E-03     464.155E-03    -230.576E-03     253.670E-03    -250.310E-03     480.797E-03    -230.252E-03     210.071E-03
            1816     10.7235E-03     51.7824E-03    -25.2347E+06     48.6584E+06     72.0718E+06    -362.653E+03    -235.216E-03     465.721E-03    -230.505E-03     268.980E-03    -252.757E-03     483.136E-03    -230.179E-03     223.970E-03
            1817     10.0105E-03     51.4212E-03    -32.1400E+06     39.3233E+06     61.7030E+06     851.107E+03    -236.437E-03     466.845E-03    -230.408E-03     274.329E-03    -253.553E-03     483.807E-03    -230.110E-03     229.507E-03
            1818     9.29617E-03     51.0578E-03    -39.1256E+06     30.3779E+06     49.4019E+06     1.65604E+06    -236.991E-03     467.299E-03    -230.308E-03     268.159E-03    -252.506E-03     482.639E-03    -230.048E-03     225.243E-03
            1819     8.58141E-03     50.7088E-03    -47.2842E+06     20.4944E+06     38.0132E+06     54.6084E+03    -237.080E-03     467.294E-03    -230.214E-03     253.974E-03    -250.377E-03     480.386E-03    -229.985E-03     214.138E-03
            1820     7.86611E-03     50.3818E-03    -55.6757E+06     8.38820E+06     28.1938E+06    -2.06461E+06    -236.728E-03     466.852E-03    -230.124E-03     235.379E-03    -247.658E-03     477.533E-03    -229.915E-03     199.352E-03
            1821     7.15204E-03     50.0812E-03    -63.3514E+06    -17.5195E+06     16.6476E+06    -2.20000E+06    -236.059E-03     466.103E-03    -230.044E-03     214.919E-03    -244.771E-03     474.480E-03    -229.844E-03     182.988E-03
            1822     6.43706E-03     49.8086E-03    -70.1858E+06    -66.2270E+06    -148.135E+03    -906.423E+03    -235.199E-03     465.181E-03    -229.982E-03     193.996E-03    -241.944E-03     471.442E-03    -229.785E-03     166.163E-03
            1823     5.72181E-03     49.5619E-03    -75.9721E+06    -112.144E+06    -17.4303E+06    -773.039E+03    -234.340E-03     464.267E-03    -229.927E-03     172.924E-03    -239.432E-03     468.742E-03    -229.742E-03     148.966E-03
            1824     5.00691E-03     49.3434E-03    -82.9056E+06    -142.334E+06    -33.4712E+06    -496.942E+03    -233.532E-03     463.395E-03    -229.863E-03     151.725E-03    -237.287E-03     466.448E-03    -229.704E-03     131.411E-03
            1825     4.29199E-03     49.1528E-03    -90.7155E+06    -178.426E+06    -46.7440E+06     735.100E+03    -232.689E-03     462.509E-03    -229.820E-03     130.302E-03    -235.353E-03     464.353E-03    -229.663E-03     113.444E-03
            1826     3.57691E-03     48.9906E-03    -97.4666E+06    -216.631E+06    -59.1718E+06     983.846E+03    -231.838E-03     461.624E-03    -229.786E-03     108.702E-03    -233.624E-03     462.466E-03    -229.626E-03     95.0756E-03
            1827     2.86139E-03     48.8572E-03    -103.356E+06    -237.807E+06    -75.5517E+06     942.401E+03    -231.018E-03     460.738E-03    -229.720E-03     87.1152E-03    -232.140E-03     460.868E-03    -229.603E-03     76.4774E-03
            1828     2.14601E-03     48.7526E-03    -109.244E+06    -250.581E+06    -92.9173E+06     671.496E+03    -230.362E-03     460.022E-03    -229.659E-03     65.6365E-03    -231.003E-03     459.654E-03    -229.602E-03     57.7853E-03
            1829     1.43041E-03     48.6771E-03    -114.591E+06    -262.578E+06    -106.857E+06     368.886E+03    -229.964E-03     459.587E-03    -229.623E-03     44.2240E-03    -230.273E-03     458.867E-03    -229.610E-03     39.0100E-03
            1830     715.588E-06     48.6309E-03    -117.868E+06    -272.623E+06    -115.960E+06     349.913E+03    -229.977E-03     459.317E-03    -229.339E-03     23.9279E-03    -230.089E-03     458.379E-03    -229.353E-03     21.1270E-03
            1831     13.5793E-03     51.4700E-03    -3.84317E+06     68.6657E+06     79.2171E+06    -194.496E+03    -230.137E-03     460.856E-03    -230.719E-03     148.541E-03    -238.081E-03     468.800E-03    -230.417E-03     119.157E-03
            1832     12.8671E-03     51.2145E-03    -8.95483E+06     66.0791E+06     78.8763E+06     291.163E+03    -231.328E-03     461.993E-03    -230.665E-03     205.770E-03    -243.832E-03     474.470E-03    -230.353E-03     168.080E-03
            1833     12.1536E-03     50.9421E-03    -13.5599E+06     60.1725E+06     76.4978E+06     99.6984E+03    -232.375E-03     462.957E-03    -230.582E-03     228.315E-03    -246.918E-03     477.444E-03    -230.267E-03     187.832E-03
            1834     11.4383E-03     50.6232E-03    -18.8746E+06     55.4384E+06     75.4857E+06     1.73204E+03    -233.738E-03     464.239E-03    -230.501E-03     253.395E-03    -250.454E-03     480.866E-03    -230.177E-03     209.783E-03
            1835     10.7260E-03     50.2801E-03     -25.613E+06     48.8625E+06     72.7866E+06     659.239E+03    -235.022E-03     465.449E-03    -230.427E-03     268.540E-03    -252.525E-03     482.824E-03    -230.097E-03     223.629E-03
            1836     10.0105E-03     49.9164E-03    -32.4192E+06     38.9154E+06     64.1256E+06     823.148E+03    -236.268E-03     466.616E-03    -230.348E-03     274.517E-03    -253.359E-03     483.544E-03    -230.036E-03     229.804E-03
            1837     9.29612E-03     49.5548E-03    -38.8872E+06     29.1163E+06     53.5380E+06     722.982E+03    -237.214E-03     467.471E-03    -230.257E-03     268.895E-03    -252.734E-03     482.801E-03    -229.975E-03     225.980E-03
            1838     8.58171E-03     49.2054E-03    -44.5952E+06     22.0686E+06     42.6097E+06     1.04483E+06    -237.340E-03     467.481E-03    -230.141E-03     254.219E-03    -250.619E-03     480.556E-03    -229.895E-03     214.406E-03
            1839     7.86792E-03     48.8799E-03    -51.3734E+06     12.8714E+06     31.9792E+06     870.334E+03    -236.722E-03     466.746E-03    -230.024E-03     234.920E-03    -247.606E-03     477.400E-03    -229.808E-03     199.006E-03
            1840     7.15246E-03     48.5792E-03    -59.8385E+06    -16.9848E+06     18.1997E+06    -552.311E+03    -235.886E-03     465.822E-03    -229.935E-03     214.148E-03    -244.538E-03     474.148E-03    -229.733E-03     182.350E-03
            1841     6.43780E-03     48.3069E-03    -68.1276E+06    -67.7966E+06     653.988E+03    -1.38692E+06    -235.130E-03     464.998E-03    -229.868E-03     193.144E-03    -241.832E-03     471.216E-03    -229.668E-03     165.365E-03
            1842     5.72310E-03     48.0614E-03    -77.0510E+06    -112.706E+06    -16.8991E+06    -490.148E+03    -234.310E-03     464.108E-03    -229.798E-03     172.233E-03    -239.385E-03     468.559E-03    -229.607E-03     148.328E-03
            1843     5.00772E-03     47.8430E-03    -85.8937E+06    -144.854E+06    -34.1899E+06     407.291E+03    -233.416E-03     463.131E-03    -229.715E-03     151.032E-03    -237.163E-03     466.158E-03    -229.552E-03     130.779E-03
            1844     4.29240E-03     47.6524E-03    -93.3267E+06    -176.317E+06    -50.5661E+06    -246.633E+03    -232.554E-03     462.189E-03    -229.635E-03     129.605E-03    -235.213E-03     464.037E-03    -229.497E-03     112.785E-03
            1845     3.57712E-03     47.4908E-03    -99.9544E+06    -215.905E+06    -64.8034E+06    -1.91137E+06    -231.756E-03     461.327E-03    -229.571E-03     108.149E-03    -233.537E-03     462.175E-03    -229.437E-03     94.5193E-03
            1846     2.86213E-03     47.3576E-03    -106.222E+06    -241.282E+06    -78.5833E+06    -1.50992E+06    -230.978E-03     460.459E-03    -229.482E-03     86.6611E-03    -232.101E-03     460.577E-03    -229.371E-03     75.9965E-03
            1847     2.14673E-03     47.2537E-03    -111.744E+06    -250.400E+06    -94.0730E+06     132.205E+03    -230.240E-03     459.604E-03    -229.363E-03     65.2473E-03    -230.890E-03     459.240E-03    -229.309E-03     57.3967E-03
            1848     1.43143E-03     47.1781E-03    -116.000E+06    -261.962E+06    -107.969E+06     385.584E+03    -229.682E-03     458.955E-03    -229.272E-03     44.0326E-03    -229.997E-03     458.240E-03    -229.264E-03     38.8316E-03
            1849     715.458E-06     47.1318E-03    -118.630E+06    -271.436E+06    -116.429E+06     229.107E+03    -229.552E-03     458.577E-03    -229.025E-03     23.8079E-03    -229.668E-03     457.647E-03    -229.042E-03     21.0059E-03
            1850     13.5816E-03     49.9617E-03    -4.05618E+06     68.4710E+06     80.0266E+06     206.182E+03    -230.781E-03     461.477E-03    -230.696E-03     147.903E-03    -238.696E-03     469.389E-03    -230.389E-03     118.485E-03
            1851     12.8675E-03     49.7095E-03    -9.41129E+06     65.6640E+06     78.6751E+06    -513.389E+03    -231.601E-03     462.208E-03    -230.607E-03     204.878E-03    -244.071E-03     474.649E-03    -230.295E-03     167.116E-03
            1852     12.1533E-03     49.4361E-03    -14.8151E+06     60.0122E+06     75.2655E+06    -644.303E+03    -232.312E-03     462.816E-03    -230.504E-03     227.498E-03    -246.825E-03     477.271E-03    -230.193E-03     186.999E-03
            1853     11.4411E-03     49.1190E-03    -20.4397E+06     54.8477E+06     75.1142E+06    -493.218E+03    -233.284E-03     463.721E-03    -230.437E-03     253.032E-03    -249.955E-03     480.296E-03    -230.111E-03     209.551E-03
            1854     10.7256E-03     48.7755E-03    -25.8210E+06     47.9434E+06     73.9872E+06    -4.72955E+03    -234.803E-03     465.194E-03    -230.391E-03     269.079E-03    -252.289E-03     482.544E-03    -230.054E-03     224.273E-03
            1855     10.0115E-03     48.4152E-03    -32.1645E+06     38.9625E+06     63.2027E+06     733.543E+03    -236.529E-03     466.831E-03    -230.302E-03     274.823E-03    -253.601E-03     483.743E-03    -229.996E-03     230.101E-03
            1856     9.29646E-03     48.0505E-03    -39.1203E+06     29.3769E+06     50.3581E+06    -522.541E+03    -237.486E-03     467.663E-03    -230.177E-03     268.322E-03    -252.962E-03     482.959E-03    -229.911E-03     225.362E-03
            1857     8.58262E-03     47.7021E-03    -45.9993E+06     20.5420E+06     40.6957E+06    -1.64820E+06    -237.457E-03     467.499E-03    -230.042E-03     253.270E-03    -250.684E-03     480.517E-03    -229.802E-03     213.465E-03
            1858     7.86786E-03     47.3764E-03    -52.7816E+06     11.7726E+06     31.8794E+06    -660.371E+03    -236.743E-03     466.652E-03    -229.910E-03     234.108E-03    -247.592E-03     477.263E-03    -229.691E-03     198.235E-03
            1859     7.15400E-03     47.0783E-03    -60.2779E+06    -14.6380E+06     19.2659E+06     880.476E+03    -235.856E-03     465.658E-03    -229.802E-03     213.518E-03    -244.482E-03     473.962E-03    -229.597E-03     181.817E-03
            1860     6.43883E-03     46.8056E-03    -69.6094E+06    -66.8372E+06     991.295E+03     944.115E+03    -235.112E-03     464.828E-03    -229.716E-03     192.628E-03    -241.797E-03     471.026E-03    -229.513E-03     164.943E-03
            1861     5.72364E-03     46.5609E-03    -78.1001E+06    -113.956E+06    -16.8527E+06     588.765E+03    -234.405E-03     464.020E-03    -229.615E-03     171.582E-03    -239.471E-03     468.453E-03    -229.421E-03     147.694E-03
            1862     5.00889E-03     46.3427E-03    -84.5408E+06    -144.299E+06    -32.8391E+06     160.661E+03    -233.465E-03     462.951E-03    -229.486E-03     150.171E-03    -237.191E-03     465.960E-03    -229.318E-03     129.945E-03
            1863     4.29382E-03     46.1532E-03    -90.9071E+06    -173.631E+06    -49.1588E+06    -609.533E+03    -232.416E-03     461.774E-03    -229.359E-03     128.621E-03    -235.051E-03     463.613E-03    -229.221E-03     111.843E-03
            1864     3.57849E-03     45.9913E-03    -98.1982E+06    -215.001E+06    -64.4486E+06    -1.04480E+06    -231.500E-03     460.765E-03    -229.266E-03     107.251E-03    -233.263E-03     461.604E-03    -229.134E-03     93.6624E-03
            1865     2.86291E-03     45.8589E-03    -105.784E+06    -244.208E+06    -79.6719E+06    -1.29998E+06    -230.695E-03     459.854E-03    -229.159E-03     86.0599E-03    -231.804E-03     459.952E-03    -229.050E-03     75.4255E-03
            1866     2.14750E-03     45.7550E-03    -112.367E+06    -252.453E+06    -95.4322E+06    -1.00825E+06    -229.952E-03     458.973E-03    -229.021E-03     64.9790E-03    -230.597E-03     458.600E-03    -228.969E-03     57.1297E-03
            1867     1.43165E-03     45.6805E-03    -116.951E+06    -262.131E+06    -109.081E+06    -414.710E+03    -229.323E-03     458.243E-03    -228.920E-03     43.9843E-03    -229.640E-03     457.531E-03    -228.916E-03     38.7782E-03
            1868     716.001E-06     45.6343E-03    -119.095E+06    -271.080E+06    -117.891E+06    -264.065E+03    -229.192E-03     457.876E-03    -228.684E-03     23.8665E-03    -229.309E-03     456.951E-03    -228.708E-03     21.0819E-03
            1869     13.5819E-03     48.4563E-03    -4.89630E+06     68.4587E+06     79.1682E+06    -338.215E+03    -231.017E-03     461.633E-03    -230.616E-03     147.113E-03    -238.882E-03     469.494E-03    -230.312E-03     117.737E-03
            1870     12.8685E-03     48.2035E-03    -8.39022E+06     66.9870E+06     79.4099E+06     30.8726E+03    -231.288E-03     461.817E-03    -230.529E-03     204.565E-03    -243.687E-03     474.194E-03    -230.217E-03     166.993E-03
            1871     12.1563E-03     47.9303E-03    -13.5101E+06     60.8408E+06     76.2937E+06     345.114E+03    -231.673E-03     462.131E-03    -230.457E-03     227.771E-03    -246.139E-03     476.542E-03    -230.144E-03     187.501E-03
            1872     11.4400E-03     47.6166E-03    -19.2207E+06     55.8692E+06     75.9190E+06     539.406E+03    -232.907E-03     463.337E-03    -230.429E-03     254.081E-03    -249.522E-03     479.861E-03    -230.103E-03     210.859E-03
            1873     10.7253E-03     47.2723E-03    -26.6933E+06     47.3048E+06     73.3051E+06    -140.989E+03    -235.256E-03     465.647E-03    -230.391E-03     269.548E-03    -252.720E-03     482.971E-03    -230.054E-03     224.727E-03
            1874     10.0109E-03     46.9095E-03    -33.0253E+06     37.4555E+06     64.0773E+06    -1.70249E+06    -237.346E-03     467.610E-03    -230.265E-03     274.341E-03    -254.417E-03     484.511E-03    -229.951E-03     229.413E-03
            1875     9.29819E-03     46.5472E-03    -38.3834E+06     29.7934E+06     52.9459E+06    -1.19121E+06    -237.946E-03     468.028E-03    -230.082E-03     267.433E-03    -253.391E-03     483.289E-03    -229.805E-03     224.422E-03
            1876     8.58383E-03     46.1989E-03    -45.5806E+06     21.6122E+06     41.0849E+06    -437.750E+03    -237.366E-03     467.268E-03    -229.902E-03     252.245E-03    -250.539E-03     480.237E-03    -229.662E-03     212.533E-03
            1877     7.86987E-03     45.8748E-03    -54.4697E+06     9.91772E+06     29.8679E+06    -761.319E+03    -236.581E-03     466.335E-03    -229.754E-03     233.158E-03    -247.378E-03     476.887E-03    -229.540E-03     197.387E-03
            1878     7.15449E-03     45.5762E-03    -62.9707E+06    -17.2761E+06     17.1595E+06    -120.390E+03    -235.900E-03     465.527E-03    -229.628E-03     212.572E-03    -244.495E-03     473.788E-03    -229.425E-03     180.899E-03
            1879     6.43989E-03     45.3052E-03    -69.6631E+06    -65.8633E+06     1.34006E+06     933.792E+03    -235.241E-03     464.744E-03    -229.503E-03     191.591E-03    -241.907E-03     470.925E-03    -229.300E-03     163.905E-03
            1880     5.72541E-03     45.0599E-03    -76.2251E+06    -112.258E+06    -15.4944E+06     160.939E+03    -234.413E-03     463.767E-03    -229.354E-03     170.450E-03    -239.446E-03     468.176E-03    -229.158E-03     146.597E-03
            1881     5.01054E-03     44.8431E-03    -83.9127E+06    -143.881E+06    -32.5202E+06    -318.097E+03    -233.334E-03     462.516E-03    -229.182E-03     149.268E-03    -237.036E-03     465.504E-03    -229.014E-03     129.095E-03
            1882     4.29539E-03     44.6539E-03    -92.0474E+06    -173.039E+06    -49.5197E+06    -35.3344E+03    -232.189E-03     461.214E-03    -229.024E-03     128.216E-03    -234.818E-03     463.045E-03    -228.888E-03     111.508E-03
            1883     3.57995E-03     44.4935E-03    -99.4939E+06    -214.607E+06    -65.1956E+06    -224.495E+03    -231.191E-03     460.105E-03    -228.914E-03     107.154E-03    -232.955E-03     460.943E-03    -228.785E-03     93.6264E-03
            1884     2.86427E-03     44.3612E-03    -105.985E+06    -244.213E+06    -80.1988E+06    -343.200E+03    -230.342E-03     459.144E-03    -228.803E-03     85.9353E-03    -231.446E-03     459.238E-03    -228.696E-03     75.3709E-03
            1885     2.14818E-03     44.2578E-03    -112.242E+06    -253.629E+06    -96.1326E+06    -389.533E+03    -229.582E-03     458.249E-03    -228.667E-03     64.6092E-03    -230.218E-03     457.865E-03    -228.617E-03     56.8200E-03
            1886     1.43226E-03     44.1836E-03    -117.397E+06    -263.149E+06    -109.945E+06    -256.814E+03    -228.980E-03     457.542E-03    -228.562E-03     43.6052E-03    -229.294E-03     456.824E-03    -228.560E-03     38.4280E-03
            1887     715.958E-06     44.1376E-03    -120.145E+06    -271.748E+06    -118.994E+06    -132.543E+03    -228.755E-03     457.146E-03    -228.392E-03     23.8862E-03    -228.875E-03     456.221E-03    -228.418E-03     21.1012E-03
            1888     13.5840E-03     46.9527E-03    -4.33366E+06     68.1316E+06     78.3832E+06    -207.059E+03    -230.686E-03     461.259E-03    -230.573E-03     148.176E-03    -238.588E-03     469.160E-03    -230.274E-03     118.788E-03
            1889     12.8702E-03     46.6966E-03    -8.96166E+06     65.9348E+06     78.6445E+06    -34.0153E+03    -230.669E-03     461.194E-03    -230.525E-03     206.500E-03    -243.092E-03     473.590E-03    -230.214E-03     169.075E-03
            1890     12.1535E-03     46.4286E-03    -14.1879E+06     60.2761E+06      76.102E+06     476.006E+03    -231.533E-03     462.022E-03    -230.488E-03     228.523E-03    -245.977E-03     476.408E-03    -230.175E-03     188.366E-03
            1891     11.4391E-03     46.1121E-03    -20.4165E+06     55.1016E+06     74.4621E+06     928.048E+03    -233.799E-03     464.232E-03    -230.434E-03     253.370E-03    -250.395E-03     480.736E-03    -230.112E-03     209.978E-03
            1892     10.7255E-03     45.7673E-03    -25.8048E+06     49.9691E+06     73.0032E+06    -181.376E+03    -236.159E-03     466.479E-03    -230.320E-03     267.810E-03    -253.561E-03     483.756E-03    -229.990E-03     222.799E-03
            1893     10.0128E-03     45.4043E-03    -32.5718E+06     39.8240E+06     62.8111E+06    -1.82087E+06    -237.467E-03     467.598E-03    -230.131E-03     272.517E-03    -254.458E-03     484.432E-03    -229.827E-03     227.573E-03
            1894     9.29886E-03     45.0421E-03    -40.7311E+06     28.0249E+06     50.0855E+06    -2.34180E+06    -237.682E-03     467.612E-03    -229.930E-03     266.227E-03    -253.063E-03     482.802E-03    -229.661E-03     223.297E-03
            1895     8.58553E-03     44.6965E-03    -48.0027E+06     19.3729E+06     40.3969E+06    -1.39727E+06    -237.378E-03     467.129E-03    -229.751E-03     251.738E-03    -250.510E-03     480.042E-03    -229.508E-03     212.105E-03
            1896     7.87055E-03     44.3728E-03    -54.9901E+06     10.1880E+06     31.4005E+06     189.342E+03    -236.812E-03     466.389E-03    -229.576E-03     232.444E-03    -247.579E-03     476.906E-03    -229.354E-03     196.714E-03
            1897     7.15664E-03     44.0753E-03    -62.9377E+06    -18.4660E+06     17.2695E+06     84.1851E+03    -236.127E-03     465.520E-03    -229.393E-03     211.519E-03    -244.691E-03     473.744E-03    -229.188E-03     179.852E-03
            1898     6.44226E-03     43.8041E-03    -71.4413E+06    -65.7803E+06    -1.23246E+06    -1.06060E+06    -235.266E-03     464.468E-03    -229.202E-03     190.595E-03    -241.907E-03     470.626E-03    -229.009E-03     162.920E-03
            1899     5.72746E-03     43.5603E-03    -79.3614E+06    -111.134E+06    -18.6103E+06    -1.20349E+06    -234.120E-03     463.141E-03    -229.021E-03     169.786E-03    -239.137E-03     467.536E-03    -228.838E-03     146.021E-03
            1900     5.01226E-03     43.3441E-03    -86.7033E+06    -145.502E+06    -35.1140E+06    -630.905E+03    -232.913E-03     461.769E-03    -228.855E-03     148.869E-03    -236.599E-03     464.731E-03    -228.694E-03     128.812E-03
            1901     4.29663E-03     43.1562E-03    -93.2990E+06    -173.453E+06     -51.324E+06    -148.787E+03    -231.820E-03     460.527E-03    -228.707E-03     127.913E-03    -234.440E-03     462.349E-03    -228.577E-03     111.277E-03
            1902     3.58071E-03     42.9961E-03     -99.856E+06    -214.234E+06    -66.2451E+06    -65.8459E+03    -230.903E-03     459.501E-03    -228.598E-03     106.882E-03    -232.659E-03     460.334E-03    -228.474E-03     93.4149E-03
            1903     2.86484E-03     42.8644E-03    -106.897E+06    -244.324E+06    -81.3142E+06     16.4324E+03    -230.054E-03     458.533E-03    -228.479E-03     85.7129E-03    -231.154E-03     458.622E-03    -228.376E-03     75.2059E-03
            1904     2.14908E-03     42.7615E-03    -112.917E+06    -253.814E+06    -96.7562E+06     222.364E+03    -229.258E-03     457.599E-03    -228.340E-03     64.4955E-03    -229.893E-03     457.212E-03    -228.292E-03     56.7678E-03
            1905     1.43280E-03     42.6879E-03    -117.472E+06    -263.290E+06    -109.969E+06     227.204E+03    -228.690E-03     456.916E-03    -228.226E-03     43.5994E-03    -229.003E-03     456.196E-03    -228.223E-03     38.4600E-03
            1906     716.613E-06     42.6422E-03    -121.067E+06    -271.955E+06    -118.391E+06     184.865E+03    -228.427E-03     456.449E-03    -228.022E-03     23.7435E-03    -228.552E-03     455.522E-03    -228.044E-03     20.9766E-03
            1907     13.5819E-03     45.4455E-03    -3.64028E+06     68.2080E+06     80.0557E+06     274.623E+03    -230.206E-03     460.841E-03    -230.635E-03     149.008E-03    -238.120E-03     468.752E-03    -230.328E-03     119.681E-03
            1908     12.8664E-03     45.1941E-03    -8.90332E+06     66.0667E+06     79.4147E+06     657.500E+03    -231.036E-03     461.623E-03    -230.587E-03     205.869E-03    -243.441E-03     474.001E-03    -230.273E-03     168.396E-03
            1909     12.1534E-03     44.9226E-03    -14.6475E+06     59.6440E+06     75.3233E+06     506.221E+03    -232.729E-03     463.221E-03    -230.492E-03     226.975E-03    -247.157E-03     477.591E-03    -230.181E-03     186.525E-03
            1910     11.4409E-03     44.6064E-03    -19.3506E+06     55.6685E+06     74.6066E+06    -261.611E+03    -234.926E-03     465.275E-03    -230.349E-03     251.805E-03    -251.506E-03     481.768E-03    -230.028E-03     208.078E-03
            1911     10.7286E-03     44.2615E-03    -24.9271E+06     50.8356E+06     73.5627E+06    -525.745E+03    -236.424E-03     466.599E-03    -230.174E-03     267.043E-03    -253.773E-03     483.826E-03    -229.844E-03     222.025E-03
            1912     10.0152E-03     43.9000E-03    -32.0769E+06     40.6955E+06     63.8163E+06     186.110E+03    -237.281E-03     467.255E-03    -229.974E-03     272.442E-03    -254.218E-03     484.038E-03    -229.667E-03     227.659E-03
            1913     9.30121E-03     43.5406E-03    -39.8766E+06     30.2707E+06     51.4413E+06     499.448E+03    -237.687E-03     467.455E-03    -229.768E-03     265.761E-03    -253.020E-03     482.605E-03    -229.497E-03     222.932E-03
            1914     8.58593E-03     43.1932E-03    -48.6128E+06     19.8976E+06     39.6813E+06    -365.906E+03    -237.576E-03     467.128E-03    -229.552E-03     250.271E-03    -250.650E-03     479.984E-03    -229.312E-03     210.676E-03
            1915     7.87289E-03     42.8705E-03    -56.7482E+06     8.07950E+06     29.7172E+06    -1.67297E+06    -236.927E-03     466.254E-03    -229.328E-03     230.974E-03    -247.645E-03     476.714E-03    -229.109E-03     195.236E-03
            1916     7.15862E-03     42.5736E-03    -63.9445E+06    -18.9928E+06     16.7301E+06    -1.24085E+06    -236.036E-03     465.143E-03    -229.107E-03     210.741E-03    -244.565E-03     473.329E-03    -228.903E-03     179.127E-03
            1917     6.44419E-03     42.3039E-03    -71.0803E+06    -64.3199E+06    -2.00325E+06    -526.232E+03    -234.975E-03     463.871E-03    -228.896E-03     190.129E-03    -241.571E-03     469.992E-03    -228.710E-03     162.620E-03
            1918     5.72917E-03     42.0616E-03    -78.4426E+06    -111.399E+06    -19.6740E+06    -660.465E+03    -233.789E-03     462.505E-03    -228.716E-03     169.387E-03    -238.771E-03     466.870E-03    -228.539E-03     145.752E-03
            1919     5.01359E-03     41.8466E-03    -85.8415E+06    -146.654E+06    -36.2166E+06    -356.121E+03    -232.626E-03     461.177E-03    -228.551E-03     148.440E-03    -236.285E-03     464.116E-03    -228.395E-03     128.473E-03
            1920     4.29787E-03     41.6591E-03    -93.4256E+06    -173.888E+06    -52.6427E+06    -269.051E+03    -231.578E-03     459.970E-03    -228.392E-03     127.371E-03    -234.179E-03     461.775E-03    -228.268E-03     110.806E-03
            1921     3.58212E-03     41.4998E-03    -100.511E+06    -214.648E+06    -66.7818E+06    -133.907E+03    -230.643E-03     458.913E-03    -228.270E-03     106.249E-03    -232.387E-03     459.732E-03    -228.147E-03     92.8518E-03
            1922     2.86604E-03     41.3685E-03    -106.785E+06    -244.313E+06    -80.7179E+06     164.535E+03    -229.699E-03     457.843E-03    -228.143E-03     85.0566E-03    -230.791E-03     457.922E-03    -228.038E-03     74.6086E-03
            1923     2.14939E-03     41.2664E-03    -112.509E+06    -253.556E+06    -95.8168E+06     171.808E+03    -228.875E-03     456.883E-03    -228.008E-03     63.9631E-03    -229.504E-03     456.491E-03    -227.957E-03     56.2695E-03
            1924     1.43297E-03     41.1927E-03    -117.434E+06    -263.244E+06    -109.535E+06     39.3614E+03    -228.340E-03     456.240E-03    -227.899E-03     43.2289E-03    -228.651E-03     455.516E-03    -227.895E-03     38.1141E-03
            1925     716.469E-06     41.1475E-03    -120.092E+06    -271.481E+06    -118.370E+06     60.6411E+03    -228.074E-03     455.797E-03    -227.723E-03     23.5446E-03    -228.193E-03     454.870E-03    -227.747E-03     20.7964E-03
            1926     13.5805E-03     43.9397E-03    -4.34011E+06     67.6321E+06     79.6127E+06     165.467E+03    -230.779E-03     461.453E-03    -230.674E-03     147.629E-03    -238.642E-03     469.309E-03    -230.367E-03     118.255E-03
            1927     12.8685E-03     43.6883E-03    -9.06915E+06     65.5972E+06     79.4560E+06     559.717E+03    -232.230E-03     462.798E-03    -230.569E-03     203.776E-03    -244.590E-03     475.129E-03    -230.253E-03     166.087E-03
            1928     12.1554E-03     43.4157E-03    -12.5856E+06     60.9080E+06     77.4124E+06     241.242E+03    -233.622E-03     464.028E-03    -230.407E-03     226.266E-03    -248.012E-03     478.366E-03    -230.090E-03     185.667E-03
            1929     11.4428E-03     43.0991E-03    -18.3000E+06     56.5477E+06     75.8015E+06    -239.356E+03    -234.999E-03     465.224E-03    -230.225E-03     251.628E-03    -251.525E-03     481.666E-03    -229.901E-03     207.960E-03
            1930     10.7293E-03     42.7563E-03    -25.6936E+06     49.9444E+06     73.0526E+06     132.649E+03    -236.241E-03     466.286E-03    -230.045E-03     266.988E-03    -253.557E-03     483.475E-03    -229.715E-03     222.056E-03
            1931     10.0150E-03     42.3965E-03    -32.5763E+06     40.0351E+06     63.8023E+06     493.242E+03    -237.552E-03     467.384E-03    -229.832E-03     271.761E-03    -254.438E-03     484.111E-03    -229.523E-03     226.999E-03
            1932     9.30148E-03     42.0352E-03    -38.8854E+06     30.6284E+06     53.2051E+06     1.20333E+06    -238.181E-03     467.761E-03    -229.580E-03     264.418E-03    -253.449E-03     482.846E-03    -229.302E-03     221.585E-03
            1933     8.59007E-03     41.6910E-03    -45.4272E+06     22.6570E+06     42.9846E+06     2.04591E+06    -237.772E-03     467.081E-03    -229.310E-03     249.312E-03    -250.775E-03     479.879E-03    -229.062E-03     209.817E-03
            1934     7.87541E-03     41.3692E-03    -53.5882E+06     10.9683E+06     30.9389E+06     1.05095E+06    -236.809E-03     465.855E-03    -229.046E-03     230.486E-03    -247.467E-03     476.272E-03    -228.829E-03     194.907E-03
            1935     7.16095E-03     41.0734E-03    -62.8191E+06    -18.8584E+06     16.2683E+06    -527.754E+03    -235.667E-03     464.487E-03    -228.820E-03     210.142E-03    -244.139E-03     472.622E-03    -228.620E-03     178.702E-03
            1936     6.44579E-03     40.8048E-03    -71.2150E+06    -64.7728E+06    -2.07403E+06    -849.266E+03    -234.585E-03     463.206E-03    -228.621E-03     189.470E-03    -241.137E-03     469.281E-03    -228.434E-03     162.113E-03
            1937     5.73050E-03     40.5634E-03    -78.9435E+06    -112.422E+06    -21.0823E+06    -320.916E+03    -233.608E-03     462.039E-03    -228.431E-03     168.640E-03    -238.560E-03     466.372E-03    -228.259E-03     145.101E-03
            1938     5.01517E-03     40.3495E-03    -86.5494E+06    -147.401E+06    -37.0687E+06     96.7097E+03    -232.576E-03     460.811E-03    -228.235E-03     147.575E-03    -236.215E-03     463.727E-03    -228.081E-03     127.669E-03
            1939     4.29938E-03     40.1628E-03    -93.4131E+06    -173.266E+06    -51.4591E+06    -49.4377E+03    -231.433E-03     459.469E-03    -228.036E-03     126.416E-03    -234.016E-03     461.255E-03    -227.907E-03     109.921E-03
            1940     3.58328E-03     40.0040E-03    -99.9295E+06    -214.626E+06    -65.3108E+06    -365.055E+03    -230.334E-03     458.211E-03    -227.877E-03     105.306E-03    -232.061E-03     459.011E-03    -227.748E-03     91.9754E-03
            1941     2.86701E-03     39.8739E-03    -106.514E+06    -244.638E+06    -79.7298E+06    -481.213E+03    -229.330E-03     457.053E-03    -227.723E-03     84.2538E-03    -230.410E-03     457.117E-03    -227.612E-03     73.8603E-03
            1942     2.15075E-03     39.7723E-03    -112.334E+06    -253.730E+06    -95.1572E+06    -390.548E+03    -228.471E-03     456.034E-03    -227.562E-03     63.3405E-03    -229.094E-03     455.633E-03    -227.507E-03     55.6831E-03
            1943     1.43396E-03     39.6990E-03    -116.837E+06    -263.346E+06    -108.930E+06    -299.998E+03    -227.843E-03     455.293E-03    -227.450E-03     42.8010E-03    -228.148E-03     454.564E-03    -227.444E-03     37.7154E-03
            1944     717.038E-06     39.6539E-03    -119.730E+06    -271.770E+06    -117.532E+06    -173.938E+03    -227.529E-03     454.913E-03    -227.383E-03     23.1738E-03    -227.646E-03     453.982E-03    -227.403E-03     20.4322E-03
            1945     13.5824E-03     42.4328E-03    -4.24156E+06     67.8125E+06     79.2088E+06     375.193E+03    -231.817E-03     462.441E-03    -230.624E-03     146.676E-03    -239.656E-03     470.276E-03    -230.320E-03     117.230E-03
            1946     12.8688E-03     42.1802E-03    -8.47609E+06     65.9003E+06     79.3274E+06    -613.759E+03    -232.730E-03     463.206E-03    -230.475E-03     203.921E-03    -245.069E-03     475.519E-03    -230.162E-03     166.120E-03
            1947     12.1568E-03     41.9086E-03    -13.7365E+06     60.2413E+06     76.3467E+06    -837.250E+03    -233.677E-03     463.970E-03    -230.293E-03     226.063E-03    -248.016E-03     478.253E-03    -229.979E-03     185.496E-03
            1948     11.4436E-03     41.5932E-03    -19.3866E+06     55.8992E+06     75.2601E+06    -121.808E+03    -234.804E-03     464.916E-03    -230.112E-03     251.035E-03    -251.250E-03     481.273E-03    -229.788E-03     207.515E-03
            1949     10.7302E-03     41.2521E-03    -25.0317E+06     50.1585E+06     74.4390E+06     420.473E+03    -236.639E-03     466.556E-03    -229.917E-03     265.728E-03    -253.870E-03     483.661E-03    -229.582E-03     220.816E-03
            1950     10.0181E-03     40.8913E-03    -31.4904E+06     40.2863E+06     65.4518E+06     1.06126E+06    -238.046E-03     467.699E-03    -229.653E-03     270.423E-03    -254.844E-03     484.339E-03    -229.338E-03     225.679E-03
            1951     9.30596E-03     40.5321E-03    -39.0820E+06     29.4950E+06     51.6418E+06     916.195E+03    -238.167E-03     467.518E-03    -229.351E-03     263.640E-03    -253.339E-03     482.506E-03    -229.079E-03     220.966E-03
            1952     8.59032E-03     40.1882E-03    -46.4409E+06     20.7183E+06     39.3639E+06     470.167E+03    -237.607E-03     466.668E-03    -229.061E-03     248.990E-03    -250.544E-03     479.399E-03    -228.827E-03     209.622E-03
            1953     7.87702E-03     39.8673E-03    -52.7532E+06     11.2570E+06     30.7154E+06     1.66905E+06    -236.672E-03     465.473E-03    -228.801E-03     229.985E-03    -247.277E-03     475.841E-03    -228.587E-03     194.546E-03
            1954     7.16257E-03     39.5741E-03    -59.4309E+06    -13.8956E+06     19.9361E+06     2.11109E+06    -235.593E-03     464.160E-03    -228.567E-03     209.373E-03    -244.010E-03     472.259E-03    -228.361E-03     178.103E-03
            1955     6.44764E-03     39.3066E-03    -67.8465E+06    -64.9272E+06     2.13477E+06     1.35793E+06    -234.580E-03     462.927E-03    -228.347E-03     188.455E-03    -241.087E-03     468.957E-03    -228.144E-03     161.193E-03
            1956     5.73236E-03     39.0660E-03    -76.6541E+06      -113.7E+06    -17.3420E+06     1.91938E+06    -233.565E-03     461.678E-03    -228.113E-03     167.350E-03    -238.472E-03     465.959E-03    -227.923E-03     143.919E-03
            1957     5.01693E-03     38.8525E-03    -84.0652E+06    -144.325E+06    -33.6308E+06     1.01605E+06    -232.441E-03     460.301E-03    -227.859E-03     146.293E-03    -236.044E-03     463.190E-03    -227.696E-03     126.486E-03
            1958     4.30145E-03     38.6672E-03    -90.9476E+06    -172.361E+06     -48.667E+06    -491.433E+03    -231.170E-03     458.787E-03    -227.617E-03     125.393E-03    -233.726E-03     460.549E-03    -227.478E-03     108.965E-03
            1959     3.58536E-03     38.5098E-03    -97.7688E+06    -214.456E+06    -63.1177E+06    -490.127E+03    -229.961E-03     457.386E-03    -227.424E-03     104.536E-03    -231.668E-03     458.167E-03    -227.287E-03     91.2747E-03
            1960     2.86875E-03     38.3805E-03    -104.260E+06    -244.832E+06    -77.9620E+06    -365.209E+03    -228.902E-03     456.149E-03    -227.247E-03     83.7213E-03    -229.964E-03     456.198E-03    -227.130E-03     73.3921E-03
            1961     2.15164E-03     38.2794E-03    -110.503E+06    -254.321E+06    -94.2114E+06    -454.623E+03    -228.025E-03     455.091E-03    -227.066E-03     63.0169E-03    -228.634E-03     454.679E-03    -227.008E-03     55.4140E-03
            1962     1.43451E-03     38.2070E-03    -115.198E+06    -264.024E+06    -107.692E+06    -240.561E+03    -227.399E-03     454.325E-03    -226.927E-03     42.5514E-03    -227.693E-03     453.586E-03    -226.915E-03     37.5115E-03
            1963     717.155E-06     38.1619E-03    -118.048E+06    -272.260E+06    -116.354E+06    -39.7390E+03    -227.003E-03     453.826E-03    -226.822E-03     23.0033E-03    -227.112E-03     452.887E-03    -226.838E-03     20.3020E-03
            1964     13.5834E-03     40.9287E-03    -4.47611E+06     68.1447E+06     79.2879E+06    -479.612E+03    -232.357E-03     462.925E-03    -230.568E-03     147.154E-03    -240.201E-03     470.764E-03    -230.263E-03     117.629E-03
            1965     12.8707E-03     40.6712E-03    -8.04124E+06     66.7207E+06     79.8517E+06    -359.815E+03    -233.129E-03     463.525E-03    -230.396E-03     204.457E-03    -245.436E-03     475.809E-03    -230.082E-03     166.688E-03
            1966     12.1580E-03     40.4022E-03    -13.3298E+06     60.2294E+06     76.0164E+06    -391.341E+03    -233.766E-03     463.958E-03    -230.192E-03     225.154E-03    -248.056E-03     478.194E-03    -229.880E-03     184.601E-03
            1967     11.4449E-03     40.0882E-03    -18.8109E+06     55.8890E+06     74.9540E+06     21.3675E+03    -235.238E-03     465.222E-03    -229.983E-03     250.298E-03    -251.622E-03     481.519E-03    -229.662E-03     206.764E-03
            1968     10.7326E-03     39.7454E-03    -25.4544E+06     49.5679E+06     73.2767E+06     723.849E+03    -237.101E-03     466.848E-03    -229.747E-03     265.309E-03    -254.268E-03     483.888E-03    -229.415E-03     220.408E-03
            1969     10.0199E-03     39.3860E-03    -33.1143E+06     38.4612E+06     62.7022E+06     592.630E+03    -238.012E-03     467.464E-03    -229.451E-03     270.042E-03    -254.755E-03     484.043E-03    -229.145E-03     225.380E-03
            1970     9.30542E-03     39.0287E-03    -39.6311E+06     28.5342E+06     49.8796E+06     564.452E+03    -238.054E-03     467.197E-03    -229.143E-03     263.201E-03    -253.143E-03     482.102E-03    -228.877E-03     220.694E-03
            1971     8.59365E-03     38.6862E-03    -45.9534E+06     20.8140E+06     39.1030E+06     370.307E+03    -237.584E-03     466.428E-03    -228.844E-03     248.171E-03    -250.459E-03     479.101E-03    -228.612E-03     208.893E-03
            1972     7.87891E-03     38.3673E-03    -53.3038E+06     10.4041E+06     30.0227E+06     71.0869E+03    -236.648E-03     465.206E-03    -228.558E-03     228.679E-03    -247.188E-03     475.507E-03    -228.346E-03     193.329E-03
            1973     7.16426E-03     38.0741E-03    -60.5487E+06    -13.9804E+06     18.9258E+06     56.2178E+03    -235.682E-03     463.962E-03    -228.280E-03     207.934E-03    -244.045E-03     472.005E-03    -228.077E-03     176.713E-03
            1974     6.44978E-03     37.8082E-03    -67.3708E+06    -66.9733E+06     3.85827E+06     1.47457E+06    -234.706E-03     462.719E-03    -228.013E-03     187.016E-03    -241.170E-03     468.695E-03    -227.799E-03     159.794E-03
            1975     5.73501E-03     37.5690E-03    -74.0068E+06    -112.699E+06    -12.2880E+06     2.50646E+06    -233.473E-03     461.201E-03    -227.728E-03     166.167E-03    -238.336E-03     465.437E-03    -227.519E-03     142.844E-03
            1976     5.01961E-03     37.3569E-03    -81.0159E+06    -139.388E+06    -29.6491E+06     1.61258E+06    -232.061E-03     459.491E-03    -227.430E-03     145.377E-03    -235.630E-03     462.363E-03    -227.259E-03     125.706E-03
            1977     4.30329E-03     37.1729E-03    -88.4374E+06    -171.002E+06    -47.0360E+06     645.656E+03    -230.746E-03     457.914E-03    -227.168E-03     124.637E-03    -233.272E-03     459.655E-03    -227.027E-03     108.332E-03
            1978     3.58669E-03     37.0166E-03    -95.7510E+06    -214.504E+06    -62.4034E+06     248.143E+03    -229.591E-03     456.548E-03    -226.957E-03     103.877E-03    -231.275E-03     457.311E-03    -226.819E-03     90.6991E-03
            1979     2.86986E-03     36.8885E-03    -102.591E+06    -245.130E+06    -77.3299E+06     233.998E+03    -228.497E-03     455.252E-03    -226.754E-03     83.0853E-03    -229.542E-03     455.286E-03    -226.637E-03     72.8232E-03
            1980     2.15279E-03     36.7883E-03    -108.944E+06    -254.499E+06    -93.1100E+06     463.767E+03    -227.580E-03     454.128E-03    -226.548E-03     62.4380E-03    -228.176E-03     453.703E-03    -226.486E-03     54.9072E-03
            1981     1.43542E-03     36.7161E-03    -113.829E+06    -264.241E+06    -106.230E+06     513.757E+03    -226.945E-03     453.312E-03    -226.366E-03     42.0720E-03    -227.231E-03     452.563E-03    -226.349E-03     37.0847E-03
            1982     718.070E-06     36.6717E-03    -116.461E+06    -271.547E+06    -114.798E+06     434.157E+03    -226.218E-03     452.639E-03    -226.422E-03     22.7141E-03    -226.321E-03     451.699E-03    -226.433E-03     20.0406E-03
            1983     13.5825E-03     39.4177E-03    -4.40932E+06     68.8226E+06     78.9849E+06    -631.270E+03    -232.799E-03     463.338E-03    -230.540E-03     147.551E-03    -240.663E-03     471.202E-03    -230.238E-03     117.880E-03
            1984     12.8711E-03     39.1635E-03    -9.06916E+06     66.1432E+06     78.7166E+06    -809.556E+03    -233.522E-03     463.865E-03    -230.343E-03     204.501E-03    -245.835E-03     476.152E-03    -230.032E-03     166.650E-03
            1985     12.1587E-03     38.8946E-03    -14.1502E+06     59.8584E+06     76.1134E+06    -649.166E+03    -234.263E-03     464.379E-03    -230.116E-03     225.128E-03    -248.534E-03     478.591E-03    -229.802E-03     184.545E-03
            1986     11.4469E-03     38.5818E-03    -19.9992E+06     54.6734E+06     74.8776E+06     136.977E+03    -235.956E-03     465.823E-03    -229.867E-03     250.400E-03    -252.321E-03     482.094E-03    -229.543E-03     206.796E-03
            1987     10.7343E-03     38.2392E-03    -25.9781E+06     46.9969E+06     71.6908E+06     322.373E+03    -237.270E-03     466.859E-03    -229.589E-03     264.980E-03    -254.371E-03     483.827E-03    -229.261E-03     220.126E-03
            1988     10.0212E-03     37.8819E-03    -31.4329E+06     38.8297E+06     61.4429E+06     952.490E+03    -237.970E-03     467.240E-03    -229.270E-03     268.986E-03    -254.610E-03     483.728E-03    -228.974E-03     224.450E-03
            1989     9.30928E-03     37.5262E-03    -38.2038E+06     30.2972E+06     50.0794E+06     1.15273E+06    -238.173E-03     467.115E-03    -228.942E-03     262.006E-03    -253.187E-03     481.956E-03    -228.681E-03     219.555E-03
            1990     8.59405E-03     37.1837E-03    -45.5498E+06     21.4871E+06     40.7705E+06     412.474E+03    -237.715E-03     466.331E-03    -228.616E-03     246.922E-03    -250.519E-03     478.931E-03    -228.377E-03     207.730E-03
            1991     7.88104E-03     36.8665E-03    -52.4913E+06     12.1256E+06     31.9503E+06     7.82697E+03    -236.849E-03     465.128E-03    -228.279E-03     227.282E-03    -247.318E-03     475.362E-03    -228.061E-03     192.017E-03
            1992     7.16724E-03     36.5752E-03    -60.7604E+06    -16.1794E+06     18.0803E+06    -13.9634E+03    -235.753E-03     463.692E-03    -227.939E-03     206.651E-03    -244.063E-03     471.676E-03    -227.737E-03     175.493E-03
            1993     6.45258E-03     36.3102E-03    -69.2268E+06    -68.2070E+06     668.015E+03    -27.1857E+03    -234.533E-03     462.152E-03    -227.618E-03     186.009E-03    -240.954E-03     468.082E-03    -227.415E-03     158.890E-03
            1994     5.73740E-03     36.0728E-03    -76.1934E+06    -111.887E+06    -15.1911E+06    -717.383E+03    -233.178E-03     460.482E-03    -227.304E-03     165.349E-03    -238.016E-03     464.696E-03    -227.107E-03     142.093E-03
            1995     5.02141E-03     35.8626E-03    -82.7321E+06    -140.463E+06    -31.8497E+06     114.187E+03    -231.738E-03     458.726E-03    -226.987E-03     144.563E-03    -235.285E-03     461.572E-03    -226.823E-03     124.975E-03
            1996     4.30524E-03     35.6798E-03    -89.5352E+06    -169.959E+06    -48.4122E+06     1.34266E+06    -230.421E-03     457.118E-03    -226.697E-03     123.633E-03    -232.925E-03     458.841E-03    -226.563E-03     107.452E-03
            1997     3.58863E-03     35.5247E-03    -96.3483E+06    -213.471E+06    -62.8246E+06     1.06113E+06    -229.214E-03     455.667E-03    -226.454E-03     102.732E-03    -230.882E-03     456.418E-03    -226.319E-03     89.6487E-03
            1998     2.87162E-03     35.3976E-03    -103.414E+06    -245.087E+06    -77.5498E+06     755.226E+03    -228.064E-03     454.279E-03    -226.215E-03     82.1029E-03    -229.100E-03     454.303E-03    -226.098E-03     71.9168E-03
            1999     2.15407E-03     35.2985E-03    -109.364E+06    -253.972E+06    -92.1090E+06     621.163E+03    -227.062E-03     453.043E-03    -225.981E-03     61.8443E-03    -227.656E-03     452.614E-03    -225.914E-03     54.3697E-03
            2000     1.43628E-03     35.2268E-03    -113.788E+06    -263.452E+06    -105.161E+06     367.328E+03    -226.309E-03     452.108E-03    -225.799E-03     41.7504E-03    -226.595E-03     451.360E-03    -225.778E-03     36.7906E-03
            2001     718.021E-06     35.1833E-03    -116.450E+06    -270.838E+06    -114.612E+06     10.1245E+03    -225.656E-03     451.516E-03    -225.860E-03     22.2778E-03    -225.759E-03     450.578E-03    -225.871E-03     19.6150E-03
            2002     13.5843E-03     37.9097E-03    -4.20593E+06     69.2768E+06     79.3124E+06    -189.973E+03    -233.150E-03     463.663E-03    -230.513E-03     146.989E-03    -240.974E-03     471.488E-03    -230.211E-03     117.338E-03
            2003     12.8714E-03     37.6544E-03    -9.17868E+06     66.7293E+06     78.7340E+06    -150.677E+03    -233.557E-03     463.858E-03    -230.300E-03     203.727E-03    -245.814E-03     476.091E-03    -229.990E-03     165.909E-03
            2004     12.1594E-03     37.3872E-03    -15.3147E+06     59.1450E+06     74.3960E+06    -115.521E+03    -234.757E-03     464.807E-03    -230.050E-03     225.060E-03    -248.977E-03     478.967E-03    -229.742E-03     184.457E-03
            2005     11.4472E-03     37.0726E-03    -21.0302E+06     53.5510E+06     73.2623E+06    -1.05769E+06    -236.385E-03     466.154E-03    -229.769E-03     249.825E-03    -252.715E-03     482.387E-03    -229.449E-03     206.113E-03
            2006     10.7357E-03     36.7336E-03    -26.1511E+06     46.8775E+06     73.0804E+06    -1.41370E+06    -237.467E-03     466.939E-03    -229.472E-03     264.131E-03    -254.489E-03     483.822E-03    -229.136E-03     219.331E-03
            2007     10.0234E-03     36.3773E-03    -32.3455E+06     36.4274E+06     64.6789E+06    -1.04229E+06    -238.366E-03     467.501E-03    -229.135E-03     268.521E-03    -254.913E-03     483.874E-03    -228.817E-03     224.098E-03
            2008     9.30944E-03     36.0221E-03    -37.9629E+06     28.9109E+06     54.3509E+06    -268.633E+03    -238.652E-03     467.413E-03    -228.761E-03     261.248E-03    -253.622E-03     482.193E-03    -228.476E-03     218.771E-03
            2009     8.59793E-03     35.6829E-03    -43.9866E+06     22.9495E+06     43.6022E+06     1.03503E+06    -238.024E-03     466.386E-03    -228.362E-03     245.600E-03    -250.754E-03     478.916E-03    -228.114E-03     206.482E-03
            2010     7.88374E-03     35.3655E-03    -52.3968E+06     12.1242E+06     31.6981E+06     1.18230E+06    -236.843E-03     464.810E-03    -227.967E-03     226.136E-03    -247.246E-03     474.977E-03    -227.750E-03     190.992E-03
            2011     7.16956E-03     35.0762E-03    -60.8129E+06    -16.4686E+06     17.9351E+06     1.44912E+06    -235.615E-03     463.210E-03    -227.594E-03     205.763E-03    -243.881E-03     471.149E-03    -227.393E-03     174.724E-03
            2012     6.45485E-03     34.8134E-03    -68.7011E+06    -63.1848E+06    -116.022E+03     432.674E+03    -234.362E-03     461.595E-03    -227.233E-03     185.064E-03    -240.737E-03     467.503E-03    -227.042E-03     158.092E-03
            2013     5.73945E-03     34.5776E-03    -76.6963E+06    -111.458E+06    -18.2325E+06    -1.56748E+06    -233.012E-03     459.892E-03    -226.880E-03     164.073E-03    -237.807E-03     464.072E-03    -226.698E-03     140.916E-03
            2014     5.02385E-03     34.3691E-03    -84.2109E+06    -145.474E+06    -35.0881E+06    -780.688E+03    -231.594E-03     458.114E-03    -226.519E-03     143.106E-03    -235.103E-03     460.909E-03    -226.362E-03     123.593E-03
            2015     4.30747E-03     34.1876E-03    -90.8943E+06    -170.312E+06    -50.9354E+06     788.906E+03    -230.104E-03     456.274E-03    -226.171E-03     122.316E-03    -232.583E-03     457.974E-03    -226.047E-03     106.229E-03
            2016     3.59065E-03     34.0339E-03    -97.4719E+06    -212.366E+06    -63.4374E+06     923.485E+03    -228.716E-03     454.615E-03    -225.899E-03     101.704E-03    -230.370E-03     455.353E-03    -225.767E-03     88.7297E-03
            2017     2.87320E-03     33.9085E-03    -103.990E+06    -243.543E+06    -75.7360E+06     343.474E+03    -227.515E-03     453.168E-03    -225.653E-03     81.4034E-03    -228.547E-03     453.186E-03    -225.528E-03     71.2962E-03
            2018     2.15539E-03     33.8102E-03    -110.161E+06    -253.585E+06    -91.6570E+06    -397.717E+03    -226.469E-03     451.874E-03    -225.405E-03     61.3051E-03    -227.063E-03     451.442E-03    -225.336E-03     53.8581E-03
            2019     1.43703E-03     33.7398E-03    -114.906E+06    -263.629E+06    -106.089E+06    -564.559E+03    -225.659E-03     450.892E-03    -225.234E-03     41.3190E-03    -225.947E-03     450.144E-03    -225.215E-03     36.3743E-03
            2020     718.639E-06     33.6963E-03    -117.777E+06    -271.161E+06    -115.689E+06    -347.078E+03    -225.411E-03     450.417E-03    -225.006E-03     22.1502E-03    -225.518E-03     449.479E-03    -225.020E-03     19.4921E-03
            2021     13.5836E-03     36.3972E-03    -4.50309E+06     68.9785E+06     78.8645E+06     127.554E+03    -233.511E-03     464.001E-03    -230.490E-03     146.990E-03    -241.306E-03     471.796E-03    -230.189E-03     117.326E-03
            2022     12.8724E-03     36.1488E-03    -9.28746E+06     66.3614E+06     78.2685E+06     477.451E+03    -234.176E-03     464.424E-03    -230.248E-03     203.182E-03    -246.370E-03     476.594E-03    -229.939E-03     165.334E-03
            2023     12.1599E-03     35.8768E-03    -13.7550E+06     60.1301E+06     74.6624E+06     668.687E+03    -235.190E-03     465.151E-03    -229.961E-03     224.237E-03    -249.326E-03     479.235E-03    -229.655E-03     183.614E-03
            2024     11.4492E-03     35.5650E-03    -19.2496E+06     55.6578E+06     73.7154E+06    -496.356E+03    -236.366E-03     466.020E-03    -229.655E-03     248.321E-03    -252.593E-03     482.163E-03    -229.339E-03     204.641E-03
            2025     10.7366E-03     35.2271E-03    -26.4648E+06     48.0104E+06     72.0496E+06    -1.07750E+06    -237.623E-03     466.954E-03    -229.331E-03     262.521E-03    -254.546E-03     483.745E-03    -229.002E-03     217.761E-03
            2026     10.0239E-03     34.8722E-03    -33.8466E+06     36.7727E+06     62.6414E+06    -1.88123E+06    -238.636E-03     467.589E-03    -228.952E-03     266.862E-03    -255.084E-03     483.865E-03    -228.644E-03     222.466E-03
            2027     9.31271E-03     34.5181E-03    -41.1923E+06     26.5510E+06     50.2355E+06    -3.35230E+06    -238.767E-03     467.300E-03    -228.533E-03     259.900E-03    -253.655E-03     481.990E-03    -228.261E-03     217.459E-03
            2028     8.59905E-03     34.1794E-03    -47.9832E+06     18.1567E+06     39.3758E+06    -2.21866E+06    -238.147E-03     466.247E-03    -228.100E-03     244.798E-03    -250.828E-03     478.708E-03    -227.860E-03     205.705E-03
            2029     7.88623E-03     33.8663E-03    -54.0992E+06     9.21526E+06     30.2768E+06     639.471E+03    -236.961E-03     464.632E-03    -227.671E-03     225.256E-03    -247.312E-03     474.736E-03    -227.454E-03     190.197E-03
            2030     7.17179E-03     33.5778E-03    -61.4296E+06    -15.3561E+06     17.2738E+06     1.47709E+06    -235.616E-03     462.866E-03    -227.250E-03     204.326E-03    -243.816E-03     470.743E-03    -227.052E-03     173.426E-03
            2031     6.45717E-03     33.3170E-03    -69.1852E+06    -59.2727E+06    -91.2237E+03     521.088E+03    -234.313E-03     461.149E-03    -226.836E-03     183.308E-03    -240.638E-03     467.018E-03    -226.650E-03     156.447E-03
            2032     5.74221E-03     33.0828E-03    -77.2552E+06    -110.386E+06    -18.0930E+06     88.6171E+03    -232.922E-03     459.349E-03    -226.427E-03     162.379E-03    -237.673E-03     463.486E-03    -226.245E-03     139.358E-03
            2033     5.02646E-03     32.8763E-03    -85.5330E+06    -147.295E+06    -35.2982E+06    -112.819E+03    -231.350E-03     457.361E-03    -226.012E-03     141.616E-03    -234.824E-03     460.111E-03    -225.850E-03     122.228E-03
            2034     4.31012E-03     32.6968E-03    -92.9187E+06    -172.510E+06    -51.5855E+06     437.329E+03    -229.648E-03     455.267E-03    -225.620E-03     121.031E-03    -232.105E-03     456.932E-03    -225.493E-03     105.051E-03
            2035     3.59266E-03     32.5453E-03    -99.8795E+06    -209.370E+06    -66.2911E+06     367.353E+03    -228.138E-03     453.447E-03    -225.309E-03     100.620E-03    -229.783E-03     454.186E-03    -225.192E-03     87.7533E-03
            2036     2.87483E-03     32.4207E-03    -106.328E+06    -241.534E+06    -79.3359E+06    -1.80911E+06    -226.922E-03     451.969E-03    -225.047E-03     80.4751E-03    -227.951E-03     451.994E-03    -224.940E-03     70.4166E-03
            2037     2.15652E-03     32.3240E-03    -111.579E+06    -256.019E+06    -93.4936E+06    -2.09600E+06    -225.886E-03     450.684E-03    -224.798E-03     60.4739E-03    -226.474E-03     450.239E-03    -224.733E-03     53.0554E-03
            2038     1.43796E-03     32.2541E-03    -116.233E+06    -264.802E+06    -107.752E+06    -843.406E+03    -225.063E-03     449.669E-03    -224.606E-03     40.7097E-03    -225.350E-03     448.915E-03    -224.592E-03     35.7991E-03
            2039     718.855E-06     32.2115E-03    -119.604E+06    -272.806E+06    -117.233E+06    -334.097E+03    -224.651E-03     449.139E-03    -224.488E-03     22.3250E-03    -224.762E-03     448.198E-03    -224.506E-03     19.6883E-03
            2040     13.5842E-03     34.8895E-03    -3.64579E+06     68.7787E+06     78.4943E+06     308.810E+03    -233.989E-03     464.463E-03    -230.474E-03     146.368E-03    -241.746E-03     472.224E-03    -230.176E-03     116.659E-03
            2041     12.8724E-03     34.6363E-03    -8.74537E+06     66.3121E+06     77.4165E+06     491.050E+03    -235.025E-03     465.219E-03    -230.194E-03     203.196E-03    -247.177E-03     477.350E-03    -229.890E-03     165.242E-03
            2042     12.1628E-03     34.3691E-03    -13.7154E+06     60.3867E+06     74.8523E+06     72.9508E+03    -235.842E-03     465.709E-03    -229.867E-03     223.792E-03    -249.923E-03     479.738E-03    -229.560E-03     183.121E-03
            2043     11.4500E-03     34.0571E-03    -18.4831E+06     56.2468E+06     74.7476E+06     435.674E+03    -236.694E-03     466.219E-03    -229.525E-03     247.308E-03    -252.809E-03     482.251E-03    -229.206E-03     203.756E-03
            2044     10.7388E-03     33.7209E-03    -24.6851E+06     49.5135E+06     72.4375E+06     886.960E+03    -237.964E-03     467.122E-03    -229.159E-03     261.194E-03    -254.780E-03     483.817E-03    -228.832E-03     216.505E-03
            2045     10.0278E-03     33.3670E-03    -31.7019E+06     40.6957E+06     62.8919E+06     860.362E+03    -238.754E-03     467.493E-03    -228.740E-03     265.861E-03    -255.130E-03     483.719E-03    -228.438E-03     221.526E-03
            2046     9.31416E-03     33.0148E-03    -40.1280E+06     29.6886E+06     48.5345E+06     533.074E+03    -238.736E-03     467.024E-03    -228.288E-03     258.966E-03    -253.537E-03     481.647E-03    -228.030E-03     216.693E-03
            2047     8.60158E-03     32.6782E-03    -49.5620E+06     16.7463E+06     34.5434E+06    -1.26866E+06    -238.107E-03     465.931E-03    -227.824E-03     243.254E-03    -250.697E-03     478.304E-03    -227.604E-03     204.285E-03
            2048     7.88791E-03     32.3649E-03    -58.2898E+06     4.94614E+06     25.2095E+06    -2.42930E+06    -237.115E-03     464.471E-03    -227.356E-03     223.457E-03    -247.385E-03     474.479E-03    -227.153E-03     188.456E-03
            2049     7.17476E-03     32.0803E-03    -65.4673E+06    -17.0358E+06     14.9682E+06    -1.56336E+06    -235.850E-03     462.726E-03    -226.876E-03     202.578E-03    -243.997E-03     470.537E-03    -226.681E-03     171.719E-03
            2050     6.46034E-03     31.8208E-03    -72.6398E+06    -58.9295E+06    -1.02287E+06    -629.279E+03    -234.317E-03     460.707E-03    -226.390E-03     181.518E-03    -240.600E-03     466.525E-03    -226.204E-03     154.745E-03
            2051     5.74509E-03     31.5893E-03    -79.8696E+06    -110.347E+06    -18.2419E+06    -418.982E+03    -232.683E-03     458.606E-03    -225.922E-03     160.621E-03    -237.392E-03     462.692E-03    -225.738E-03     137.730E-03
            2052     5.02921E-03     31.3844E-03    -86.8083E+06    -147.538E+06    -34.5648E+06    -166.781E+03    -230.931E-03     456.395E-03    -225.464E-03     139.833E-03    -234.367E-03     459.099E-03    -225.297E-03     120.582E-03
            2053     4.31228E-03     31.2079E-03    -93.9447E+06    -174.313E+06    -51.2226E+06     323.536E+03    -229.161E-03     454.196E-03    -225.035E-03     119.318E-03    -231.587E-03     455.819E-03    -224.902E-03     103.457E-03
            2054     3.59491E-03     31.0577E-03    -100.421E+06    -205.034E+06    -68.2451E+06    -374.397E+03    -227.590E-03     452.259E-03    -224.668E-03     99.2152E-03    -229.217E-03     452.999E-03    -224.567E-03     86.4467E-03
            2055     2.87675E-03     30.9352E-03    -106.328E+06    -238.732E+06    -83.0243E+06    -2.41358E+06    -226.301E-03     450.675E-03    -224.375E-03     79.3777E-03    -227.313E-03     450.703E-03    -224.289E-03     69.4084E-03
            2056     2.15813E-03     30.8391E-03    -112.314E+06    -261.065E+06    -95.9893E+06    -2.68451E+06    -225.248E-03     449.374E-03    -224.126E-03     59.5922E-03    -225.819E-03     448.898E-03    -224.065E-03     52.2464E-03
            2057     1.43895E-03     30.7708E-03    -117.088E+06    -267.649E+06    -108.980E+06    -1.33213E+06    -224.430E-03     448.340E-03    -223.910E-03     40.1259E-03    -224.711E-03     447.571E-03    -223.897E-03     35.2515E-03
            2058     719.678E-06     30.7284E-03    -119.711E+06    -274.422E+06    -118.086E+06    -590.478E+03    -223.652E-03     447.709E-03    -224.057E-03     22.0179E-03    -223.759E-03     446.760E-03    -224.076E-03     19.3834E-03
            2059     13.5843E-03     33.3794E-03    -3.60757E+06     68.1585E+06     78.2328E+06     272.702E+03    -235.037E-03     465.511E-03    -230.474E-03     146.913E-03    -242.777E-03     473.253E-03    -230.177E-03     117.106E-03
            2060     12.8735E-03     33.1256E-03    -7.91212E+06     66.5467E+06     78.5294E+06     238.725E+03    -235.794E-03     465.944E-03    -230.150E-03     202.753E-03    -247.893E-03     478.024E-03    -229.842E-03     164.728E-03
            2061     12.1616E-03     32.8572E-03    -12.8142E+06     60.8393E+06     76.3649E+06     59.6134E+03    -236.204E-03     465.990E-03    -229.786E-03     222.484E-03    -250.198E-03     479.933E-03    -229.474E-03     181.815E-03
            2062     11.4523E-03     32.5496E-03    -18.8204E+06     55.7625E+06     75.1261E+06     562.513E+03    -237.070E-03     466.479E-03    -229.409E-03     246.492E-03    -253.089E-03     482.411E-03    -229.087E-03     203.022E-03
            2063     10.7408E-03     32.2129E-03    -25.2691E+06     48.9942E+06     73.1944E+06     796.128E+03    -238.124E-03     467.147E-03    -229.023E-03     261.268E-03    -254.870E-03     483.765E-03    -228.691E-03     216.700E-03
            2064     10.0280E-03     31.8623E-03    -32.0586E+06     39.5004E+06     63.9373E+06     1.48825E+06    -239.182E-03     467.762E-03    -228.580E-03     265.728E-03    -255.512E-03     483.933E-03    -228.271E-03     221.421E-03
            2065     9.31655E-03     31.5110E-03    -38.3210E+06     30.4609E+06     52.1248E+06     2.99162E+06    -239.339E-03     467.418E-03    -228.079E-03     257.652E-03    -254.052E-03     481.952E-03    -227.807E-03     215.455E-03
            2066     8.60408E-03     31.1759E-03    -45.0092E+06     21.7124E+06     40.2674E+06     3.65929E+06    -238.472E-03     466.018E-03    -227.546E-03     241.409E-03    -250.943E-03     478.289E-03    -227.311E-03     202.634E-03
            2067     7.89130E-03     30.8661E-03    -53.6041E+06     10.2897E+06     28.8194E+06     1.95983E+06    -237.266E-03     464.267E-03    -227.002E-03     221.568E-03    -247.436E-03     474.201E-03    -226.795E-03     186.743E-03
            2068     7.17730E-03     30.5810E-03    -62.7739E+06    -17.2794E+06     16.4633E+06    -743.851E+03    -235.896E-03     462.353E-03    -226.457E-03     200.472E-03    -243.955E-03     470.080E-03    -226.259E-03     169.722E-03
            2069     6.46337E-03     30.3260E-03    -70.3911E+06    -60.3158E+06     472.343E+03    -1.38814E+06    -234.246E-03     460.153E-03    -225.907E-03     179.423E-03    -240.452E-03     465.893E-03    -225.715E-03     152.747E-03
            2070     5.74835E-03     30.0960E-03    -77.5273E+06    -110.893E+06    -16.9904E+06    -628.440E+03    -232.368E-03     457.748E-03    -225.380E-03     158.680E-03    -237.006E-03     461.766E-03    -225.192E-03     135.944E-03
            2071     5.03232E-03     29.8948E-03    -84.9100E+06    -148.867E+06    -34.3462E+06     114.473E+03    -230.466E-03     455.345E-03    -224.879E-03     138.132E-03    -233.841E-03     457.990E-03    -224.712E-03     119.059E-03
            2072     4.31548E-03     29.7198E-03    -91.7346E+06    -173.791E+06    -51.2882E+06     231.738E+03    -228.691E-03     453.103E-03    -224.412E-03     117.894E-03    -231.073E-03     454.691E-03    -224.283E-03     102.172E-03
            2073     3.59749E-03     29.5726E-03    -97.8905E+06    -202.397E+06    -67.3161E+06    -502.464E+03    -227.095E-03     451.101E-03    -224.006E-03     97.9992E-03    -228.692E-03     451.827E-03    -223.907E-03     85.3334E-03
            2074     2.87878E-03     29.4510E-03    -104.001E+06    -236.900E+06    -81.3655E+06    -866.227E+03    -225.699E-03     449.378E-03    -223.679E-03     78.2612E-03    -226.688E-03     449.393E-03    -223.592E-03     68.4178E-03
            2075     2.15955E-03     29.3568E-03    -110.338E+06    -263.389E+06    -95.2398E+06    -1.00549E+06    -224.566E-03     447.973E-03    -223.407E-03     58.6675E-03    -225.114E-03     447.470E-03    -223.341E-03     51.4392E-03
            2076     1.43998E-03     29.2891E-03    -115.515E+06    -270.686E+06    -108.130E+06    -1.13253E+06    -223.741E-03     446.909E-03    -223.167E-03     39.4937E-03    -224.006E-03     446.116E-03    -223.148E-03     34.6822E-03
            2077     720.027E-06     29.2475E-03    -118.417E+06    -276.396E+06    -116.826E+06    -626.029E+03    -223.086E-03     446.188E-03    -223.101E-03     21.4580E-03    -223.184E-03     445.224E-03    -223.113E-03     18.8461E-03
            2078     13.5830E-03     31.8631E-03     -4.2635E+06     68.5595E+06     79.3694E+06    -400.209E+03    -236.155E-03     466.632E-03    -230.478E-03     145.847E-03    -243.853E-03     474.329E-03    -230.174E-03     115.931E-03
            2079     12.8744E-03     31.6137E-03    -9.11223E+06     65.8746E+06     79.2435E+06    -790.904E+03    -236.167E-03     466.274E-03    -230.107E-03     201.499E-03    -248.193E-03     478.272E-03    -229.793E-03     163.469E-03
            2080     12.1650E-03     31.3481E-03    -14.1203E+06     59.7849E+06     76.4856E+06    -43.6413E+03    -236.183E-03     465.912E-03    -229.729E-03     222.421E-03    -250.084E-03     479.753E-03    -229.413E-03     181.946E-03
            2081     11.4527E-03     31.0395E-03    -19.4814E+06     55.3363E+06     75.2377E+06     786.747E+03    -237.261E-03     466.609E-03    -229.348E-03     246.654E-03    -253.214E-03     482.471E-03    -229.024E-03     203.260E-03
            2082     10.7407E-03     30.7077E-03    -25.7563E+06     48.1275E+06     72.5863E+06     1.10668E+06    -238.852E-03     467.776E-03    -228.924E-03     260.463E-03    -255.542E-03     484.335E-03    -228.593E-03     215.800E-03
            2083     10.0298E-03     30.3547E-03    -32.2958E+06     38.1167E+06     62.6832E+06     863.198E+03    -239.874E-03     468.282E-03    -228.408E-03     263.767E-03    -256.095E-03     484.341E-03    -228.103E-03     219.424E-03
            2084     9.31867E-03     30.0058E-03    -39.0502E+06     27.9286E+06     51.4283E+06     1.13433E+06    -239.753E-03     467.592E-03    -227.840E-03     255.655E-03    -254.336E-03     481.987E-03    -227.566E-03     213.535E-03
            2085     8.60679E-03     29.6744E-03    -44.9481E+06     20.6411E+06     42.7431E+06     1.90821E+06    -238.931E-03     466.178E-03    -227.247E-03     239.849E-03    -251.314E-03     478.351E-03    -226.998E-03     201.113E-03
            2086     7.89418E-03     29.3650E-03    -49.8778E+06     13.8635E+06     34.5928E+06     2.92883E+06    -237.598E-03     464.226E-03    -226.628E-03     219.857E-03    -247.694E-03     474.094E-03    -226.403E-03     185.093E-03
            2087     7.18134E-03     29.0847E-03    -56.5026E+06    -11.6424E+06     21.7423E+06     3.13363E+06    -235.876E-03     461.880E-03    -226.004E-03     198.463E-03    -243.827E-03     469.525E-03    -225.796E-03     167.937E-03
            2088     6.46691E-03     28.8302E-03    -65.9357E+06    -58.6156E+06     2.70336E+06     1.62273E+06    -233.997E-03     459.390E-03    -225.394E-03     177.338E-03    -240.105E-03     465.049E-03    -225.200E-03     150.884E-03
            2089     5.75171E-03     28.6054E-03    -75.0390E+06    -111.069E+06    -16.2854E+06     1.27594E+06    -232.002E-03     456.823E-03    -224.822E-03     156.674E-03    -236.565E-03     460.773E-03    -224.633E-03     134.135E-03
            2090     5.03514E-03     28.4056E-03    -83.0374E+06    -148.750E+06    -34.5451E+06     1.35751E+06    -230.009E-03     454.288E-03    -224.279E-03     136.339E-03    -233.321E-03     456.878E-03    -224.116E-03     117.462E-03
            2091     4.31760E-03     28.2340E-03    -90.4727E+06    -172.813E+06    -51.5091E+06     833.774E+03    -228.203E-03     451.977E-03    -223.774E-03     116.218E-03    -230.541E-03     453.530E-03    -223.650E-03     100.651E-03
            2092     3.59958E-03     28.0880E-03    -97.4929E+06    -200.570E+06    -67.2320E+06     343.128E+03    -226.599E-03     449.923E-03    -223.325E-03     96.4480E-03    -228.171E-03     450.632E-03    -223.229E-03     83.9088E-03
            2093     2.88094E-03     27.9693E-03    -103.920E+06    -236.815E+06    -81.0305E+06    -15.8696E+03    -225.138E-03     448.085E-03    -222.947E-03     76.8665E-03    -226.109E-03     448.081E-03    -222.858E-03     67.1327E-03
            2094     2.16135E-03     27.8764E-03    -109.139E+06    -263.347E+06    -93.4400E+06     76.6372E+03    -223.904E-03     446.529E-03    -222.625E-03     57.5860E-03    -224.437E-03     446.010E-03    -222.552E-03     50.4584E-03
            2095     1.44123E-03     27.8097E-03    -113.613E+06    -271.201E+06    -106.146E+06     59.1083E+03    -222.986E-03     445.324E-03    -222.337E-03     38.6344E-03    -223.238E-03     444.518E-03    -222.310E-03     33.9084E-03
            2096     720.810E-06     27.7691E-03    -116.977E+06    -277.702E+06    -115.466E+06    -166.061E+03    -222.372E-03     444.472E-03    -222.100E-03     20.9610E-03    -222.460E-03     443.495E-03    -222.105E-03     18.4065E-03
            2097     13.5861E-03     30.3502E-03    -4.72380E+06     68.5836E+06     79.8231E+06    -454.623E+03    -236.236E-03     466.717E-03    -230.482E-03     145.905E-03    -243.880E-03     474.357E-03    -230.175E-03     116.078E-03
            2098     12.8746E-03     30.1014E-03    -9.82172E+06     65.9279E+06     78.4920E+06     14.4037E+03    -236.204E-03     466.313E-03    -230.109E-03     201.832E-03    -248.152E-03     478.233E-03    -229.798E-03     163.965E-03
            2099     12.1627E-03     29.8373E-03    -15.0227E+06     59.3765E+06     75.2848E+06     206.313E+03    -236.709E-03     466.427E-03    -229.718E-03     222.080E-03    -250.535E-03     480.192E-03    -229.406E-03     181.628E-03
            2100     11.4519E-03     29.5313E-03    -20.4147E+06     53.4722E+06     74.1697E+06    -213.347E+03    -238.265E-03     467.552E-03    -229.287E-03     245.072E-03    -254.105E-03     483.295E-03    -228.964E-03     201.593E-03
            2101     10.7425E-03     29.1963E-03    -25.8380E+06     46.3398E+06     71.8660E+06    -14.1111E+03    -239.807E-03     468.586E-03    -228.779E-03     258.145E-03    -256.383E-03     485.026E-03    -228.449E-03     213.352E-03
            2102     10.0330E-03     28.8486E-03    -32.1369E+06     37.8443E+06     61.5562E+06     748.866E+03    -240.201E-03     468.385E-03    -228.185E-03     261.827E-03    -256.309E-03     484.335E-03    -227.885E-03     217.517E-03
            2103     9.32108E-03     28.5020E-03    -38.3988E+06     29.0589E+06     50.5856E+06     841.474E+03    -239.970E-03     467.533E-03    -227.563E-03     254.162E-03    -254.440E-03     481.823E-03    -227.297E-03     212.132E-03
            2104     8.60946E-03     28.1707E-03    -45.1356E+06     20.1815E+06     41.3407E+06    -201.759E+03    -239.316E-03     466.225E-03    -226.909E-03     238.130E-03    -251.614E-03     478.315E-03    -226.666E-03     199.377E-03
            2105     7.89763E-03     27.8655E-03    -53.1574E+06     10.1197E+06     30.8518E+06    -336.000E+03    -237.811E-03     464.023E-03    -226.211E-03     217.663E-03    -247.808E-03     473.777E-03    -225.994E-03     182.961E-03
            2106     7.18423E-03     27.5868E-03    -61.1613E+06    -12.9557E+06     17.9788E+06     1.55272E+06    -235.785E-03     461.302E-03    -225.517E-03     196.196E-03    -243.645E-03     468.847E-03    -225.320E-03     165.839E-03
            2107     6.47016E-03     27.3374E-03    -68.4435E+06    -55.4333E+06     1.34861E+06     3.07941E+06    -233.700E-03     458.557E-03    -224.857E-03     174.996E-03    -239.726E-03     464.139E-03    -224.670E-03     148.796E-03
            2108     5.75466E-03     27.1142E-03    -76.2238E+06    -109.373E+06    -16.8741E+06     2.51815E+06    -231.739E-03     455.972E-03    -224.233E-03     154.152E-03    -236.227E-03     459.851E-03    -224.049E-03     131.832E-03
            2109     5.03844E-03     26.9191E-03    -83.8109E+06    -147.589E+06    -34.4601E+06     2.15715E+06    -229.736E-03     453.358E-03    -223.622E-03     133.690E-03    -232.990E-03     455.891E-03    -223.459E-03     114.985E-03
            2110     4.32106E-03     26.7489E-03    -90.9971E+06    -171.145E+06    -51.4651E+06     1.78844E+06    -227.736E-03     450.776E-03    -223.040E-03     113.649E-03    -230.025E-03     452.284E-03    -222.917E-03     98.2710E-03
            2111     3.60259E-03     26.6062E-03    -97.4206E+06    -199.010E+06    -67.4476E+06     831.721E+03    -225.934E-03     448.462E-03    -222.528E-03     94.0800E-03    -227.468E-03     449.140E-03    -222.435E-03     81.7095E-03
            2112     2.88308E-03     26.4887E-03    -102.978E+06    -236.069E+06    -80.5069E+06     223.424E+03    -224.384E-03     446.492E-03    -222.109E-03     74.9376E-03    -225.327E-03     446.466E-03    -222.020E-03     65.3318E-03
            2113     2.16321E-03     26.3984E-03    -108.411E+06    -263.636E+06    -92.7736E+06     51.0409E+03    -223.094E-03     444.846E-03    -221.752E-03     56.2792E-03    -223.611E-03     444.311E-03    -221.676E-03     49.2381E-03
            2114     1.44257E-03     26.3326E-03    -112.835E+06    -270.791E+06    -105.065E+06     268.971E+03    -222.078E-03     443.525E-03    -221.448E-03     37.8780E-03    -222.322E-03     442.712E-03    -221.417E-03     33.2301E-03
            2115     721.478E-06     26.2934E-03    -115.849E+06    -277.137E+06    -113.707E+06     420.393E+03    -221.428E-03     442.690E-03    -221.263E-03     20.4410E-03    -221.511E-03     441.710E-03    -221.261E-03     17.9383E-03
            2116     13.5818E-03     28.8360E-03    -4.21605E+06     68.6850E+06     79.2743E+06     1.18275E+06    -236.749E-03     467.284E-03    -230.535E-03     145.557E-03    -244.320E-03     474.854E-03    -230.233E-03     115.856E-03
            2117     12.8727E-03     28.5879E-03    -9.06205E+06     66.3587E+06     77.6284E+06     678.981E+03    -236.890E-03     467.015E-03    -230.126E-03     199.919E-03    -248.752E-03     478.856E-03    -229.821E-03     161.957E-03
            2118     12.1638E-03     28.3265E-03    -13.9609E+06     59.9046E+06     74.9668E+06    -134.814E+03    -237.902E-03     467.571E-03    -229.668E-03     219.694E-03    -251.648E-03     481.261E-03    -229.360E-03     178.960E-03
            2119     11.4553E-03     28.0187E-03    -20.1444E+06     53.4633E+06     73.1477E+06    -312.751E+03    -239.132E-03     468.285E-03    -229.153E-03     243.269E-03    -254.893E-03     483.952E-03    -228.835E-03     199.605E-03
            2120     10.7455E-03     27.6877E-03    -26.6100E+06     45.7904E+06     70.9220E+06    -815.528E+03    -239.885E-03     468.484E-03    -228.600E-03     257.167E-03    -256.338E-03     484.800E-03    -228.273E-03     212.504E-03
            2121     10.0341E-03     27.3409E-03    -32.4389E+06     37.0623E+06     63.9523E+06    -819.614E+03    -240.615E-03     468.603E-03    -227.989E-03     260.869E-03    -256.609E-03     484.429E-03    -227.676E-03     216.657E-03
            2122     9.32385E-03     26.9973E-03    -38.5217E+06     29.0068E+06     53.4344E+06    -390.257E+03    -240.782E-03     468.077E-03    -227.296E-03     252.703E-03    -255.188E-03     482.296E-03    -227.015E-03     210.573E-03
            2123     8.61275E-03     26.6676E-03    -45.8515E+06     19.7941E+06     40.5048E+06     263.379E+03    -239.744E-03     466.276E-03    -226.532E-03     235.728E-03    -251.915E-03     478.237E-03    -226.292E-03     197.065E-03
            2124     7.90092E-03     26.3651E-03    -53.9034E+06     8.62916E+06     28.0154E+06     1.31302E+06    -237.856E-03     463.603E-03    -225.747E-03     214.609E-03    -247.682E-03     473.187E-03    -225.542E-03     180.177E-03
            2125     7.18830E-03     26.0911E-03    -62.1944E+06    -15.2165E+06     14.5075E+06     1.57696E+06    -235.736E-03     460.716E-03    -224.980E-03     193.009E-03    -243.448E-03     468.112E-03    -224.795E-03     162.890E-03
            2126     6.47388E-03     25.8445E-03    -69.9909E+06    -55.8124E+06    -1.72136E+06     1.86029E+06    -233.662E-03     457.898E-03    -224.236E-03     171.578E-03    -239.557E-03     463.352E-03    -224.062E-03     145.615E-03
            2127     5.75866E-03     25.6252E-03    -77.1501E+06    -107.678E+06    -17.4271E+06     2.35113E+06    -231.612E-03     455.134E-03    -223.523E-03     150.547E-03    -235.990E-03     458.907E-03    -223.342E-03     128.475E-03
            2128     5.04233E-03     25.4323E-03    -83.9674E+06    -146.319E+06    -33.2643E+06     1.98963E+06    -229.458E-03     452.270E-03    -222.812E-03     130.156E-03    -232.625E-03     454.716E-03    -222.644E-03     111.680E-03
            2129     4.32481E-03     25.2665E-03    -90.2807E+06    -169.020E+06    -50.0933E+06      1.6622E+06    -227.217E-03     449.342E-03    -222.125E-03     110.452E-03    -229.437E-03     450.786E-03    -221.999E-03     95.3072E-03
            2130     3.60603E-03     25.1258E-03    -96.2402E+06    -196.528E+06    -66.5471E+06     1.11323E+06    -225.105E-03     446.637E-03    -221.532E-03     91.2889E-03    -226.586E-03     447.271E-03    -221.440E-03     79.1501E-03
            2131     2.88631E-03     25.0118E-03    -102.049E+06    -234.860E+06    -79.9914E+06     398.186E+03    -223.372E-03     444.442E-03    -221.069E-03     72.6288E-03    -224.281E-03     444.386E-03    -220.981E-03     63.2075E-03
            2132     2.16534E-03     24.9225E-03    -107.459E+06    -263.601E+06    -92.2697E+06     165.923E+03    -222.012E-03     442.708E-03    -220.695E-03     54.4297E-03    -222.507E-03     442.153E-03    -220.619E-03     47.5250E-03
            2133     1.44388E-03     24.8591E-03    -111.887E+06    -270.672E+06    -104.375E+06     180.406E+03    -220.985E-03     441.375E-03    -220.390E-03     36.5159E-03    -221.216E-03     440.550E-03    -220.357E-03     31.9664E-03
            2134     721.847E-06     24.8199E-03    -115.234E+06    -276.748E+06    -112.876E+06     79.3246E+03    -220.654E-03     440.569E-03    -219.915E-03     19.3692E-03    -220.732E-03     439.584E-03    -219.911E-03     16.9486E-03
            2135     13.5841E-03     27.3195E-03    -4.13249E+06     68.4397E+06     78.7566E+06     731.157E+03    -237.914E-03     468.505E-03    -230.591E-03     143.425E-03    -245.432E-03     476.024E-03    -230.291E-03     113.593E-03
            2136     12.8747E-03     27.0758E-03    -8.05502E+06     67.0311E+06     78.5486E+06     948.166E+03    -238.210E-03     468.326E-03    -230.116E-03     199.261E-03    -250.028E-03     480.125E-03    -229.809E-03     161.107E-03
            2137     12.1655E-03     26.8106E-03    -13.5672E+06     60.1656E+06     75.6933E+06     924.693E+03    -238.838E-03     468.431E-03    -229.593E-03     219.656E-03    -252.536E-03     482.075E-03    -229.282E-03     178.841E-03
            2138     11.4562E-03     26.5075E-03    -18.7950E+06     54.9815E+06     74.7945E+06     660.767E+03    -239.509E-03     468.546E-03    -229.037E-03     242.959E-03    -255.197E-03     484.145E-03    -228.715E-03     199.318E-03
            2139     10.7457E-03     26.1783E-03    -24.6754E+06     48.4709E+06     72.3396E+06     623.412E+03    -240.388E-03     468.828E-03    -228.439E-03     255.716E-03    -256.718E-03     485.032E-03    -228.112E-03     211.109E-03
            2140     10.0362E-03     25.8334E-03    -32.4325E+06     38.0447E+06     61.6972E+06    -4.06254E+03    -241.375E-03     469.122E-03    -227.747E-03     258.855E-03    -257.227E-03     484.815E-03    -227.446E-03     214.620E-03
            2141     9.32640E-03     25.4893E-03    -40.7788E+06     26.6166E+06     47.9132E+06    -1.05419E+06    -241.530E-03     468.481E-03    -226.951E-03     250.251E-03    -255.791E-03     482.553E-03    -226.691E-03     208.077E-03
            2142     8.61675E-03     25.1649E-03    -48.0877E+06     17.2142E+06     37.1433E+06     30.0673E+03    -240.261E-03     466.358E-03    -226.097E-03     232.762E-03    -252.240E-03     478.120E-03    -225.867E-03     194.278E-03
            2143     7.90528E-03     24.8656E-03    -55.4219E+06     7.02777E+06     26.8642E+06     1.63163E+06    -238.271E-03     463.487E-03    -225.216E-03     211.171E-03    -247.894E-03     472.861E-03    -225.012E-03     177.016E-03
            2144     7.19228E-03     24.5954E-03    -62.9134E+06    -13.7335E+06     14.0720E+06     2.13210E+06    -236.183E-03     460.503E-03    -224.319E-03     188.693E-03    -243.704E-03     467.711E-03    -224.138E-03     158.851E-03
            2145     6.47884E-03     24.3523E-03    -70.6853E+06     -55.764E+06    -2.54040E+06     1.95890E+06    -233.954E-03     457.374E-03    -223.421E-03     166.652E-03    -239.664E-03     462.643E-03    -223.250E-03     140.996E-03
            2146     5.76406E-03     24.1370E-03    -77.9351E+06    -106.110E+06    -18.9579E+06     1.04185E+06    -231.513E-03     454.055E-03    -222.542E-03     145.405E-03    -235.734E-03     457.677E-03    -222.370E-03     123.643E-03
            2147     5.04770E-03     23.9482E-03    -84.0596E+06    -144.760E+06    -34.0081E+06    -144.729E+03    -228.948E-03     450.638E-03    -221.690E-03     125.054E-03    -231.981E-03     452.958E-03    -221.528E-03     106.897E-03
            2148     4.32996E-03     23.7857E-03    -89.7079E+06    -169.947E+06    -49.7358E+06     259.757E+03    -226.409E-03     447.296E-03    -220.887E-03     105.594E-03    -228.521E-03     448.630E-03    -220.759E-03     90.7597E-03
            2149     3.61065E-03     23.6492E-03    -95.4252E+06    -194.432E+06    -65.7816E+06     1.15767E+06    -224.091E-03     444.270E-03    -220.179E-03     86.9227E-03    -225.494E-03     444.835E-03    -220.088E-03     75.0999E-03
            2150     2.88979E-03     23.5374E-03    -101.091E+06    -233.361E+06    -79.2655E+06     760.829E+03    -222.171E-03     441.784E-03    -219.613E-03     68.8013E-03    -223.024E-03     441.680E-03    -219.525E-03     59.6579E-03
            2151     2.16841E-03     23.4508E-03    -106.748E+06    -263.121E+06    -91.5694E+06     446.169E+03    -220.614E-03     439.766E-03    -219.151E-03     51.2115E-03    -221.075E-03     439.179E-03    -219.073E-03     44.5270E-03
            2152     1.44605E-03     23.3884E-03    -111.367E+06    -270.406E+06    -103.792E+06     356.395E+03    -219.432E-03     438.211E-03    -218.779E-03     34.2746E-03    -219.647E-03     437.372E-03    -218.745E-03     29.8707E-03
            2153     723.466E-06     23.3504E-03    -114.407E+06    -276.475E+06    -112.339E+06     104.113E+03    -219.079E-03     437.282E-03    -218.203E-03     18.4331E-03    -219.150E-03     436.292E-03    -218.197E-03     16.0845E-03
            2154     13.5805E-03     25.8042E-03    -4.29282E+06     67.7013E+06     77.4342E+06     339.108E+03    -238.535E-03     469.158E-03    -230.623E-03     143.126E-03    -245.997E-03     476.620E-03    -230.328E-03     113.279E-03
            2155     12.8729E-03     25.5557E-03    -8.57537E+06     65.5746E+06     77.7632E+06     383.865E+03    -239.239E-03     469.347E-03    -230.108E-03     198.403E-03    -250.972E-03     481.057E-03    -229.802E-03     160.155E-03
            2156     12.1655E-03     25.2977E-03    -12.7087E+06     60.3358E+06     76.7064E+06     433.903E+03    -239.283E-03     468.826E-03    -229.543E-03     218.078E-03    -252.859E-03     482.348E-03    -229.228E-03     177.262E-03
            2157     11.4563E-03     24.9939E-03    -17.5909E+06     56.0285E+06     76.7315E+06     1.19835E+06    -240.016E-03     468.965E-03    -228.949E-03     241.026E-03    -255.522E-03     484.385E-03    -228.621E-03     197.535E-03
            2158     10.7488E-03     24.6676E-03    -24.5743E+06     48.3201E+06     73.5291E+06     1.67723E+06    -241.545E-03     469.828E-03    -228.283E-03     254.433E-03    -257.747E-03     485.901E-03    -227.950E-03     209.773E-03
            2159     10.0398E-03     24.3249E-03    -31.6112E+06     37.5412E+06     62.5084E+06     1.78709E+06    -242.754E-03     470.234E-03    -227.480E-03     257.474E-03    -258.476E-03     485.796E-03    -227.176E-03     213.108E-03
            2160     9.33060E-03     23.9827E-03    -38.5476E+06     27.7923E+06     49.1100E+06     2.66638E+06    -242.572E-03     469.131E-03    -226.559E-03     247.387E-03    -256.568E-03     482.946E-03    -226.298E-03     205.431E-03
            2161     8.62031E-03     23.6609E-03    -46.8071E+06      18.503E+06     37.2403E+06     2.58374E+06    -241.364E-03     466.918E-03    -225.554E-03     228.109E-03    -253.047E-03     478.392E-03    -225.327E-03     189.857E-03
            2162     7.90981E-03     23.3659E-03    -54.8610E+06     6.98132E+06     27.1976E+06     1.96236E+06    -239.502E-03     463.980E-03    -224.478E-03     204.967E-03    -248.824E-03     473.053E-03    -224.272E-03     171.032E-03
            2163     7.19901E-03     23.0993E-03    -62.4650E+06    -12.9543E+06     15.9958E+06     1.83145E+06    -237.008E-03     460.361E-03    -223.353E-03     181.358E-03    -244.218E-03     467.257E-03    -223.164E-03     151.885E-03
            2164     6.48635E-03     22.8613E-03    -69.4425E+06    -54.0365E+06    -149.198E+03     1.71923E+06    -234.186E-03     456.408E-03    -222.222E-03     159.080E-03    -239.617E-03     461.402E-03    -222.044E-03     133.881E-03
            2165     5.77191E-03     22.6506E-03    -75.9144E+06    -101.732E+06    -18.3012E+06     295.551E+03    -231.262E-03     452.376E-03    -221.114E-03     138.044E-03    -235.242E-03     455.779E-03    -220.948E-03     116.788E-03
            2166     5.05581E-03     22.4668E-03    -82.5456E+06    -143.433E+06    -34.8220E+06    -1.12694E+06    -228.276E-03     448.335E-03    -220.059E-03     117.936E-03    -231.110E-03     450.468E-03    -219.905E-03     100.284E-03
            2167     4.33750E-03     22.3091E-03    -89.0462E+06    -173.080E+06    -50.9462E+06    -657.212E+03    -225.388E-03     444.457E-03    -219.069E-03     98.8715E-03    -227.339E-03     445.626E-03    -218.944E-03     84.5274E-03
            2168     3.61761E-03     22.1762E-03    -94.6707E+06    -194.467E+06    -66.3238E+06     297.389E+03    -222.775E-03     440.946E-03    -218.171E-03     80.7575E-03    -224.063E-03     441.399E-03    -218.083E-03     69.3734E-03
            2169     2.89652E-03     22.0680E-03    -99.7351E+06    -232.509E+06    -78.4975E+06     785.783E+03    -220.500E-03     437.926E-03    -217.426E-03     63.5335E-03    -221.276E-03     437.750E-03    -217.337E-03     54.7767E-03
            2170     2.17368E-03     21.9839E-03    -104.647E+06    -262.274E+06    -89.9641E+06     868.073E+03    -218.586E-03     435.395E-03    -216.809E-03     47.1107E-03    -218.997E-03     434.764E-03    -216.727E-03     40.7387E-03
            2171     1.44978E-03     21.9240E-03    -109.059E+06    -269.423E+06    -101.859E+06     650.487E+03    -217.105E-03     433.427E-03    -216.322E-03     31.4608E-03    -217.292E-03     432.565E-03    -216.282E-03     27.2803E-03
            2172     724.692E-06     21.8868E-03    -112.340E+06    -275.628E+06    -110.075E+06     463.363E+03    -216.150E-03     432.261E-03    -216.111E-03     16.9359E-03    -216.209E-03     431.262E-03    -216.099E-03     14.7079E-03
            2173     13.5821E-03     24.2808E-03    -3.66017E+06     67.9379E+06     78.2604E+06     424.184E+03    -239.187E-03     469.836E-03    -230.649E-03     142.213E-03    -246.597E-03     477.247E-03    -230.351E-03     112.387E-03
            2174     12.8753E-03     24.0416E-03    -8.11255E+06     65.6407E+06     78.2628E+06    -655.442E+03    -239.611E-03     469.713E-03    -230.103E-03     197.434E-03    -251.281E-03     481.361E-03    -229.795E-03     159.079E-03
            2175     12.1666E-03     23.7798E-03    -13.0434E+06     59.2687E+06     75.9090E+06    -213.422E+03    -239.885E-03     469.385E-03    -229.501E-03     216.798E-03    -253.335E-03     482.779E-03    -229.188E-03     176.028E-03
            2176     11.4592E-03     23.4830E-03    -19.5273E+06     53.8954E+06     73.9790E+06     1.41527E+06    -240.909E-03     469.761E-03    -228.852E-03     240.579E-03    -256.319E-03     485.078E-03    -228.532E-03     197.010E-03
            2177     10.7487E-03     23.1546E-03    -26.1542E+06     47.1558E+06     70.4621E+06     1.72119E+06    -243.233E-03     471.325E-03    -228.092E-03     253.606E-03    -259.281E-03     487.244E-03    -227.770E-03     208.732E-03
            2178     10.0415E-03     22.8118E-03    -32.3760E+06     36.9223E+06     61.7426E+06     1.69659E+06    -244.925E-03     472.062E-03    -227.137E-03     253.928E-03    -260.368E-03     487.342E-03    -226.835E-03     209.417E-03
            2179     9.33435E-03     22.4749E-03    -38.8097E+06     27.4595E+06     51.2287E+06     2.85357E+06    -244.965E-03     470.956E-03    -225.991E-03     241.205E-03    -258.569E-03     484.372E-03    -225.719E-03     199.285E-03
            2180     8.62718E-03     22.1555E-03    -44.5820E+06     19.4459E+06     40.7201E+06     3.54300E+06    -243.615E-03     468.304E-03    -224.689E-03     219.679E-03    -254.818E-03     479.300E-03    -224.449E-03     181.666E-03
            2181     7.91969E-03     21.8651E-03    -50.7586E+06     9.34941E+06     31.0659E+06     3.32332E+06    -241.107E-03     464.388E-03    -223.281E-03     195.066E-03    -249.929E-03     472.974E-03    -223.066E-03     161.586E-03
            2182     7.20988E-03     21.6041E-03    -57.6543E+06    -10.9082E+06     19.3527E+06     2.56916E+06    -237.833E-03     459.665E-03    -221.832E-03     171.144E-03    -244.567E-03     466.100E-03    -221.636E-03     142.327E-03
            2183     6.49797E-03     21.3727E-03    -65.0083E+06    -51.7783E+06     2.38911E+06     1.73295E+06    -234.332E-03     454.724E-03    -220.393E-03     148.779E-03    -239.349E-03     459.321E-03    -220.211E-03     124.315E-03
            2184     5.78383E-03     21.1675E-03    -72.1133E+06    -97.4676E+06    -15.6948E+06     1.02877E+06    -230.750E-03     449.745E-03    -218.995E-03     127.781E-03    -234.382E-03     452.821E-03    -218.827E-03     107.333E-03
            2185     5.06725E-03     20.9896E-03    -79.2223E+06    -141.807E+06    -33.1954E+06     286.606E+03    -227.240E-03     444.904E-03    -217.664E-03     108.087E-03    -229.791E-03     446.767E-03    -217.510E-03     91.2367E-03
            2186     4.34886E-03     20.8371E-03    -86.0038E+06    -174.270E+06    -50.3471E+06     345.002E+03    -223.906E-03     440.312E-03    -216.406E-03     89.8652E-03    -225.638E-03     441.266E-03    -216.280E-03     76.2626E-03
            2187     3.62820E-03     20.7092E-03    -91.8593E+06    -194.833E+06    -66.3810E+06     610.223E+03    -220.694E-03     435.951E-03    -215.257E-03     72.9562E-03    -221.826E-03     436.257E-03    -215.173E-03     62.2206E-03
            2188     2.90515E-03     20.6053E-03    -96.8145E+06    -232.216E+06    -78.0557E+06     823.200E+03    -217.859E-03     432.177E-03    -214.318E-03     57.2614E-03    -218.532E-03     431.907E-03    -214.231E-03     49.0487E-03
            2189     2.18062E-03     20.5251E-03    -101.366E+06    -261.694E+06    -88.2527E+06     1.17472E+06    -215.600E-03     429.164E-03    -213.564E-03     42.5283E-03    -215.948E-03     428.478E-03    -213.479E-03     36.5892E-03
            2190     1.45460E-03     20.4675E-03    -105.428E+06    -267.903E+06    -99.1617E+06     1.27126E+06    -213.932E-03     426.894E-03    -212.962E-03     28.3838E-03    -214.084E-03     426.006E-03    -212.916E-03     24.5098E-03
            2191     727.971E-06     20.4325E-03    -108.054E+06    -273.323E+06    -106.480E+06     932.818E+03    -212.713E-03     425.416E-03    -212.703E-03     15.0588E-03    -212.751E-03     424.409E-03    -212.682E-03     13.0209E-03
            2192     13.5821E-03     22.7697E-03    -4.50277E+06     67.2518E+06     78.6634E+06    -954.556E+03    -239.670E-03     470.353E-03    -230.683E-03     142.013E-03    -247.041E-03     477.719E-03    -230.381E-03     112.176E-03
            2193     12.8722E-03     22.5174E-03    -8.02667E+06     66.0937E+06     78.8149E+06     243.264E+03    -239.572E-03     469.705E-03    -230.132E-03     197.889E-03    -251.161E-03     481.271E-03    -229.823E-03     159.765E-03
            2194     12.1666E-03     22.2658E-03    -14.0002E+06     58.1891E+06     74.5214E+06     1.60240E+06    -240.592E-03     470.106E-03    -229.515E-03     216.903E-03    -253.949E-03     483.404E-03    -229.206E-03     176.164E-03
            2195     11.4569E-03     21.9667E-03    -19.8696E+06     52.3292E+06     72.4579E+06     803.836E+03    -243.700E-03     472.460E-03    -228.761E-03     240.115E-03    -259.005E-03     487.670E-03    -228.446E-03     196.032E-03
            2196     10.7528E-03     21.6394E-03    -24.5670E+06     46.3482E+06     70.5540E+06     1.32942E+06    -246.914E-03     474.684E-03    -227.770E-03     249.356E-03    -262.648E-03     490.291E-03    -227.449E-03     203.974E-03
            2197     10.0476E-03     21.2979E-03    -30.6222E+06     37.1738E+06     60.9465E+06     3.18131E+06    -248.510E-03     474.995E-03    -226.485E-03     245.980E-03    -263.398E-03     489.730E-03    -226.190E-03     201.340E-03
            2198     9.34384E-03     20.9626E-03    -37.1633E+06     28.6884E+06     50.2358E+06     2.89475E+06    -248.438E-03     473.386E-03    -224.948E-03     230.813E-03    -261.395E-03     486.168E-03    -224.685E-03     188.942E-03
            2199     8.64010E-03     20.6487E-03    -43.8605E+06     19.3464E+06     40.8902E+06     1.75429E+06    -246.295E-03     469.524E-03    -223.229E-03     207.936E-03    -256.801E-03     479.825E-03    -222.989E-03     170.370E-03
            2200     7.93401E-03     20.3643E-03    -49.9511E+06     9.36431E+06     31.6235E+06     1.73644E+06    -242.671E-03     464.083E-03    -221.412E-03     182.612E-03    -250.808E-03     471.985E-03    -221.195E-03     149.965E-03
            2201     7.22583E-03     20.1116E-03    -56.5008E+06    -9.48155E+06     19.0817E+06     2.23499E+06    -238.637E-03     458.197E-03    -219.560E-03     158.314E-03    -244.771E-03     464.042E-03    -219.369E-03     130.463E-03
            2202     6.51509E-03     19.8865E-03    -63.6032E+06    -49.0393E+06     2.56408E+06     2.05436E+06    -234.427E-03     452.153E-03    -217.725E-03     135.812E-03    -238.937E-03     456.256E-03    -217.549E-03     112.377E-03
            2203     5.80153E-03     19.6900E-03    -70.5759E+06    -94.3894E+06    -14.6716E+06     1.45207E+06    -229.995E-03     445.938E-03    -215.943E-03     115.053E-03    -233.216E-03     448.617E-03    -215.777E-03     95.6415E-03
            2204     5.08492E-03     19.5186E-03    -77.0251E+06    -139.618E+06    -31.7063E+06     1.18124E+06    -225.561E-03     439.820E-03    -214.259E-03     96.2439E-03    -227.790E-03     441.372E-03    -214.104E-03     80.4195E-03
            2205     4.36519E-03     19.3729E-03    -83.0684E+06    -174.205E+06    -49.5190E+06     1.52802E+06    -221.365E-03     434.062E-03    -212.698E-03     79.4058E-03    -222.856E-03     434.784E-03    -212.572E-03     66.7340E-03
            2206     3.64264E-03     19.2511E-03    -88.2262E+06    -194.184E+06    -65.9321E+06     1.88004E+06    -217.502E-03     428.804E-03    -211.302E-03     64.0948E-03    -218.464E-03     428.954E-03    -211.222E-03     54.1651E-03
            2207     2.91752E-03     19.1531E-03    -93.2648E+06    -231.038E+06    -77.1092E+06     1.97402E+06    -214.234E-03     424.401E-03    -210.166E-03     49.9311E-03    -214.794E-03     424.031E-03    -210.082E-03     42.3832E-03
            2208     2.18989E-03     19.0767E-03    -97.9046E+06    -260.452E+06    -85.8796E+06     1.91494E+06    -211.600E-03     420.855E-03    -209.254E-03     36.7362E-03    -211.880E-03     420.110E-03    -209.164E-03     31.3050E-03
            2209     1.46086E-03     19.0221E-03    -101.721E+06    -265.654E+06    -95.4437E+06     1.37108E+06    -209.596E-03     418.143E-03    -208.546E-03     24.3549E-03    -209.712E-03     417.229E-03    -208.491E-03     20.8194E-03
            2210     730.412E-06     18.9889E-03    -103.721E+06    -270.107E+06    -101.827E+06      802.51E+03    -208.385E-03     416.493E-03    -208.108E-03     13.0804E-03    -208.405E-03     415.481E-03    -208.075E-03     11.2152E-03
            2211     13.5794E-03     21.2443E-03    -4.38418E+06     67.3569E+06     77.8322E+06    -122.127E+03    -239.802E-03     470.591E-03    -230.789E-03     142.309E-03    -247.154E-03     477.940E-03    -230.491E-03     112.526E-03
            2212     12.8749E-03     21.0039E-03    -9.96428E+06     63.8806E+06     75.5106E+06     663.524E+03    -240.388E-03     470.605E-03    -230.216E-03     198.430E-03    -251.938E-03     482.126E-03    -229.917E-03     160.243E-03
            2213     12.1632E-03     20.7479E-03    -14.2060E+06     57.6064E+06     72.6408E+06     623.708E+03    -243.772E-03     473.261E-03    -229.490E-03     215.761E-03    -256.998E-03     486.430E-03    -229.189E-03     174.452E-03
            2214     11.4607E-03     20.4450E-03    -18.8070E+06     52.9913E+06     72.6453E+06     381.622E+03    -248.654E-03     477.124E-03    -228.470E-03     235.228E-03    -263.623E-03     492.004E-03    -228.156E-03     190.344E-03
            2215     10.7581E-03     20.1165E-03    -24.9609E+06     45.2274E+06     71.6659E+06     371.048E+03    -252.104E-03     479.195E-03    -227.091E-03     241.245E-03    -267.265E-03     494.221E-03    -226.762E-03     195.321E-03
            2216     10.0591E-03     19.7793E-03    -30.2020E+06     35.0727E+06     64.3876E+06     827.015E+03    -253.650E-03     478.993E-03    -225.344E-03     235.606E-03    -267.742E-03     492.917E-03    -225.029E-03     190.891E-03
            2217     9.35953E-03     19.4475E-03    -35.0483E+06     27.2284E+06     54.2907E+06     1.51237E+06    -252.510E-03     475.805E-03    -223.295E-03     218.015E-03    -264.541E-03     487.652E-03    -223.012E-03     176.623E-03
            2218     8.65855E-03     19.1411E-03    -40.4373E+06     20.9843E+06     43.7186E+06     2.58304E+06    -248.987E-03     470.047E-03    -221.059E-03     193.379E-03    -258.576E-03     479.442E-03    -220.812E-03     156.734E-03
            2219     7.95523E-03     18.8663E-03    -47.7225E+06     10.5639E+06     31.5697E+06     2.76615E+06    -244.413E-03     463.149E-03    -218.736E-03     167.307E-03    -251.728E-03     470.242E-03    -218.524E-03     135.807E-03
            2220     7.24873E-03     18.6213E-03    -55.4670E+06    -7.86792E+06     18.1773E+06     2.26381E+06    -239.387E-03     455.775E-03    -216.388E-03     142.769E-03    -244.832E-03     460.944E-03    -216.205E-03     116.142E-03
            2221     6.53889E-03     18.4064E-03    -62.2386E+06    -45.7530E+06     2.32930E+06     1.81598E+06    -234.051E-03     448.128E-03    -214.077E-03     120.596E-03    -238.000E-03     451.688E-03    -213.909E-03     98.4307E-03
            2222     5.82537E-03     18.2182E-03    -68.7258E+06    -91.4782E+06    -14.2170E+06     1.29490E+06    -228.492E-03     440.352E-03    -211.860E-03     100.841E-03    -231.277E-03     442.611E-03    -211.699E-03     82.6701E-03
            2223     5.10790E-03     18.0571E-03    -75.3015E+06    -138.466E+06    -30.7585E+06     1.55095E+06    -222.972E-03     432.772E-03    -209.800E-03     83.5654E-03    -224.877E-03     434.008E-03    -209.644E-03     68.9086E-03
            2224     4.38629E-03     17.9195E-03    -81.0068E+06    -174.324E+06    -48.8175E+06     2.05840E+06    -217.811E-03     425.737E-03    -207.926E-03     68.3097E-03    -219.069E-03     426.229E-03    -207.800E-03     56.6763E-03
            2225     3.66096E-03     17.8053E-03    -85.9764E+06    -193.665E+06    -66.4650E+06     2.85609E+06    -213.322E-03     419.591E-03    -206.269E-03     54.5865E-03    -214.122E-03     419.590E-03    -206.196E-03     45.5407E-03
            2226     2.93266E-03     17.7129E-03    -90.2755E+06    -228.484E+06    -75.5128E+06     3.58579E+06    -209.662E-03     414.575E-03    -204.913E-03     42.1542E-03    -210.119E-03     414.118E-03    -204.828E-03     35.3245E-03
            2227     2.20241E-03     17.6419E-03    -94.6169E+06    -256.575E+06    -81.6154E+06     2.71762E+06    -206.604E-03     410.407E-03    -203.803E-03     30.7246E-03    -206.826E-03     409.617E-03    -203.702E-03     25.8211E-03
            2228     1.46951E-03     17.5913E-03    -98.7224E+06    -262.803E+06    -91.7346E+06     1.33314E+06    -204.178E-03     407.108E-03    -202.929E-03     20.1876E-03    -204.265E-03     406.175E-03    -202.864E-03     16.9966E-03
            2229     735.323E-06     17.5602E-03    -101.094E+06    -267.565E+06    -99.4732E+06     529.792E+03    -202.547E-03     405.093E-03    -202.546E-03     10.8101E-03    -202.554E-03     404.078E-03    -202.509E-03     9.11654E-03
            2230     13.5789E-03     19.7279E-03    -4.76569E+06     66.5783E+06     76.3791E+06     387.570E+03    -240.333E-03     471.261E-03    -230.928E-03     141.469E-03    -247.637E-03     478.563E-03    -230.636E-03     111.629E-03
            2231     12.8668E-03     19.4824E-03    -9.37074E+06     64.0836E+06     74.9103E+06     674.829E+03    -244.292E-03     474.529E-03    -230.237E-03     197.086E-03    -255.754E-03     485.968E-03    -229.942E-03     158.218E-03
            2232     12.1680E-03     19.2222E-03    -13.8433E+06     57.8757E+06     72.1664E+06     247.944E+03    -249.926E-03     479.130E-03    -229.204E-03     212.003E-03    -262.924E-03     492.074E-03    -228.907E-03     169.596E-03
            2233     11.4680E-03     18.9160E-03    -18.9116E+06     52.6547E+06     72.0328E+06     108.673E+03    -255.125E-03     482.872E-03    -227.746E-03     228.170E-03    -269.554E-03     497.211E-03    -227.435E-03     182.419E-03
            2234     10.7723E-03     18.5907E-03    -24.3337E+06     45.7428E+06     71.3057E+06     292.388E+03    -258.593E-03     484.435E-03    -225.842E-03     230.033E-03    -272.852E-03     498.564E-03    -225.517E-03     183.787E-03
            2235     10.0765E-03     18.2536E-03    -31.0456E+06     35.5646E+06     62.4601E+06    -818.270E+03    -259.131E-03     482.636E-03    -223.505E-03     220.904E-03    -272.110E-03     495.452E-03    -223.199E-03     176.489E-03
            2236     9.38197E-03     17.9306E-03    -37.4401E+06     25.4071E+06     51.1308E+06    -2.36041E+06    -256.444E-03     477.309E-03    -220.865E-03     201.454E-03    -267.336E-03     488.013E-03    -220.592E-03     160.924E-03
            2237     8.68446E-03     17.6345E-03    -42.9926E+06     16.4639E+06     40.7013E+06    -1.24567E+06    -251.860E-03     469.910E-03    -218.050E-03     175.952E-03    -260.409E-03     478.250E-03    -217.808E-03     140.500E-03
            2238     7.98367E-03     17.3694E-03    -47.6849E+06     8.21502E+06     30.9910E+06     1.59277E+06    -246.151E-03     461.296E-03    -215.145E-03     149.342E-03    -252.571E-03     467.489E-03    -214.933E-03     119.214E-03
            2239     7.27910E-03     17.1368E-03    -53.2306E+06    -5.27580E+06     18.5615E+06     2.75013E+06    -239.639E-03     451.866E-03    -212.228E-03     125.072E-03    -244.343E-03     456.311E-03    -212.050E-03     99.9643E-03
            2240     6.56985E-03     16.9327E-03    -60.2552E+06    -41.7128E+06     1.26050E+06     2.45368E+06    -232.779E-03     442.182E-03    -209.402E-03     103.795E-03    -236.138E-03     445.177E-03    -209.248E-03     83.1984E-03
            2241     5.85549E-03     16.7573E-03    -67.8146E+06    -88.9013E+06    -16.0161E+06     2.23539E+06    -225.904E-03     432.654E-03    -206.750E-03     85.3916E-03    -228.243E-03     434.484E-03    -206.603E-03     68.7144E-03
            2242     5.13588E-03     16.6067E-03    -75.0456E+06    -137.121E+06    -30.5083E+06     2.43742E+06    -219.402E-03     423.729E-03    -204.327E-03     69.6773E-03    -220.989E-03     424.652E-03    -204.172E-03     56.3329E-03
            2243     4.41185E-03     16.4798E-03     -81.991E+06    -173.972E+06    -46.5224E+06     3.03355E+06    -213.472E-03     415.606E-03    -202.133E-03     56.1065E-03    -214.516E-03     415.875E-03    -201.995E-03     45.6024E-03
            2244     3.68354E-03     16.3740E-03    -88.4129E+06    -194.058E+06    -65.4789E+06     4.20270E+06    -208.212E-03     408.397E-03    -200.185E-03     44.2663E-03    -208.877E-03     408.247E-03    -200.103E-03     36.1825E-03
            2245     2.95170E-03     16.2887E-03    -93.0002E+06    -223.274E+06    -80.3764E+06     4.34167E+06    -203.810E-03     402.389E-03    -198.579E-03     33.9195E-03    -204.189E-03     401.876E-03    -198.522E-03     27.8661E-03
            2246     2.21636E-03     16.2234E-03    -96.1494E+06    -250.622E+06    -86.9897E+06     2.05430E+06    -200.375E-03     397.701E-03    -197.326E-03     24.7437E-03    -200.558E-03     396.901E-03    -197.258E-03     20.3977E-03
            2247     1.47917E-03     16.1776E-03    -98.7613E+06    -261.566E+06    -91.9545E+06     575.746E+03    -197.830E-03     394.192E-03    -196.362E-03     16.2890E-03    -197.898E-03     393.243E-03    -196.299E-03     13.4469E-03
            2248     739.935E-06     16.1496E-03    -100.668E+06    -265.441E+06    -98.6692E+06     659.796E+03    -196.051E-03     391.816E-03    -195.765E-03     8.68032E-03    -196.055E-03     390.803E-03    -195.728E-03     7.17024E-03
            2249     13.5730E-03     18.2069E-03    -3.81278E+06     66.9536E+06     76.3375E+06     1.03045E+06    -243.744E-03     474.674E-03    -230.930E-03     139.975E-03    -250.984E-03     481.916E-03    -230.640E-03     109.690E-03
            2250     12.8757E-03     17.9534E-03    -8.46884E+06     64.9059E+06      76.456E+06    -279.494E+03    -250.515E-03     480.484E-03    -229.968E-03     194.130E-03    -261.839E-03     491.785E-03    -229.668E-03     154.111E-03
            2251     12.1749E-03     17.6883E-03    -13.1768E+06     57.8413E+06     72.9271E+06    -131.448E+03    -257.407E-03     485.905E-03    -228.499E-03     206.928E-03    -269.987E-03     498.432E-03    -228.199E-03     163.380E-03
            2252     11.4820E-03     17.3802E-03    -17.4642E+06     52.8349E+06     72.3551E+06     211.821E+03    -263.456E-03     489.930E-03    -226.474E-03     218.450E-03    -277.060E-03     503.451E-03    -226.164E-03     171.938E-03
            2253     10.7917E-03     17.0536E-03    -23.2086E+06     46.1547E+06     71.4747E+06     252.985E+03    -266.062E-03     489.974E-03    -223.911E-03     215.556E-03    -279.157E-03     502.944E-03    -223.587E-03     169.333E-03
            2254     10.1045E-03     16.7264E-03    -28.8331E+06     38.6688E+06     64.4408E+06     36.5260E+03    -264.735E-03     485.638E-03    -220.903E-03     203.667E-03    -276.429E-03     497.183E-03    -220.595E-03     160.016E-03
            2255     9.41267E-03     16.4142E-03    -35.5876E+06     28.2114E+06     51.6210E+06    -394.769E+03    -260.686E-03     478.276E-03    -217.590E-03     182.454E-03    -270.337E-03     487.755E-03    -217.321E-03     143.159E-03
            2256     8.71863E-03     16.1283E-03    -43.3639E+06     15.4138E+06     37.7053E+06    -1.63978E+06    -254.753E-03     468.849E-03    -214.096E-03     155.584E-03    -262.180E-03     476.072E-03    -213.867E-03     121.650E-03
            2257     8.02075E-03     15.8775E-03    -50.9549E+06     3.20068E+06     25.6189E+06    -2.48322E+06    -247.253E-03     457.795E-03    -210.542E-03     128.710E-03    -252.728E-03     463.031E-03    -210.345E-03     100.266E-03
            2258     7.31709E-03     15.6587E-03    -56.9390E+06    -8.33988E+06     13.5020E+06    -622.579E+03    -238.916E-03     445.958E-03    -207.042E-03     105.144E-03    -242.866E-03     449.641E-03    -206.880E-03     81.8224E-03
            2259     6.60723E-03     15.4700E-03    -62.3524E+06    -40.5678E+06    -3.04745E+06     2.14673E+06    -230.434E-03     434.144E-03    -203.710E-03     85.1104E-03    -233.212E-03     436.567E-03    -203.576E-03     66.2934E-03
            2260     5.89118E-03     15.3083E-03    -68.2540E+06    -86.2467E+06    -20.0840E+06     3.65486E+06    -222.352E-03     422.976E-03    -200.624E-03     68.3665E-03    -224.259E-03     424.393E-03    -200.500E-03     53.3196E-03
            2261     5.16951E-03     15.1710E-03    -75.1349E+06    -134.646E+06    -31.4522E+06     4.59234E+06    -214.903E-03     412.741E-03    -197.838E-03     54.4692E-03    -216.185E-03     413.368E-03    -197.691E-03     42.5518E-03
            2262     4.44222E-03     15.0554E-03    -83.0695E+06    -172.565E+06    -43.3280E+06     5.35855E+06    -208.108E-03     403.443E-03    -195.336E-03     42.9663E-03    -208.953E-03     403.505E-03    -195.182E-03     33.6722E-03
            2263     3.71010E-03     14.9599E-03    -90.3932E+06    -193.153E+06    -60.6087E+06     5.96346E+06    -202.036E-03     395.162E-03    -193.126E-03     33.4018E-03    -202.582E-03     394.875E-03    -193.018E-03     26.3133E-03
            2264     2.97319E-03     14.8836E-03    -96.2146E+06    -216.659E+06    -80.9256E+06     5.57133E+06    -196.935E-03     388.230E-03    -191.294E-03     25.2503E-03    -197.256E-03     387.671E-03    -191.245E-03     19.9885E-03
            2265     2.23296E-03     14.8247E-03    -100.295E+06    -242.106E+06    -96.2127E+06     2.75582E+06    -193.051E-03     382.945E-03    -189.894E-03     18.2147E-03    -193.207E-03     382.160E-03    -189.878E-03     14.4575E-03
            2266     1.48998E-03     14.7829E-03    -102.381E+06    -260.510E+06    -101.077E+06    -313.622E+03    -190.388E-03     379.293E-03    -188.905E-03     11.7919E-03    -190.442E-03     378.347E-03    -188.884E-03     9.31073E-03
            2267     745.698E-06     14.7585E-03    -103.073E+06    -265.863E+06    -101.831E+06    -739.020E+03    -188.815E-03     376.937E-03    -188.122E-03     6.17561E-03    -188.819E-03     375.923E-03    -188.097E-03     4.84112E-03
            2268     13.5814E-03     16.6750E-03    -3.37549E+06     67.3718E+06     77.1203E+06     1.05045E+06    -250.087E-03     480.743E-03    -230.656E-03     138.793E-03    -257.268E-03     487.928E-03    -230.364E-03     107.637E-03
            2269     12.8791E-03     16.4182E-03    -7.38918E+06     64.6499E+06     76.9812E+06    -837.776E+03    -258.399E-03     487.681E-03    -229.282E-03     191.944E-03    -269.503E-03     498.765E-03    -228.980E-03     150.572E-03
            2270     12.1893E-03     16.1441E-03    -12.3409E+06     56.6099E+06     73.0711E+06    -833.792E+03    -266.954E-03     494.202E-03    -227.248E-03     199.212E-03    -278.891E-03     506.085E-03    -226.947E-03     154.546E-03
            2271     11.5041E-03     15.8323E-03    -17.3065E+06     52.3333E+06     72.0881E+06    -335.169E+03    -272.134E-03     496.679E-03    -224.545E-03     205.510E-03    -284.686E-03     509.148E-03    -224.235E-03     158.669E-03
            2272     10.8226E-03     15.5123E-03    -22.0014E+06     47.3023E+06     72.4239E+06    -712.815E+03    -273.093E-03     494.381E-03    -221.287E-03     199.998E-03    -284.953E-03     506.123E-03    -220.962E-03     154.227E-03
            2273     10.1369E-03     15.1957E-03    -27.5223E+06     38.0299E+06     66.1850E+06    -723.548E+03    -270.949E-03     488.515E-03    -217.566E-03     185.601E-03    -281.372E-03     498.788E-03    -217.250E-03     142.857E-03
            2274     9.45192E-03     14.8950E-03    -33.2924E+06     28.1184E+06     54.5100E+06     681.489E+03    -265.803E-03     479.292E-03    -213.489E-03     162.008E-03    -274.225E-03     487.543E-03    -213.209E-03     124.066E-03
            2275     8.76240E-03     14.6258E-03    -39.2218E+06     18.2894E+06     40.8683E+06     1.66380E+06    -257.710E-03     466.935E-03    -209.225E-03     133.390E-03    -264.019E-03     473.057E-03    -208.990E-03     101.257E-03
            2276     8.06604E-03     14.3915E-03    -46.3945E+06     5.98818E+06     27.2980E+06     1.16011E+06    -247.770E-03     452.743E-03    -204.973E-03     106.241E-03    -252.315E-03     457.071E-03    -204.778E-03     79.7982E-03
            2277     7.36280E-03     14.1912E-03    -55.0937E+06    -10.3653E+06     11.4087E+06     537.465E+03    -237.357E-03     438.229E-03    -200.872E-03     83.5142E-03    -240.583E-03     441.193E-03    -200.720E-03     62.1306E-03
            2278     6.65189E-03     14.0199E-03    -63.1154E+06    -42.3134E+06    -6.41822E+06     2.09075E+06    -227.278E-03     424.307E-03    -197.029E-03     64.9251E-03    -229.521E-03     426.197E-03    -196.908E-03     47.8787E-03
            2279     5.93366E-03     13.8747E-03    -70.0848E+06    -86.2343E+06    -24.5296E+06     5.07934E+06    -217.864E-03     411.365E-03    -193.501E-03     50.0154E-03    -219.385E-03     412.404E-03    -193.397E-03     36.5740E-03
            2280     5.20843E-03     13.7517E-03    -76.9352E+06    -131.070E+06    -37.9436E+06     6.90197E+06    -209.236E-03     399.577E-03    -190.341E-03     38.3546E-03    -210.248E-03     399.960E-03    -190.229E-03     27.8594E-03
            2281     4.47711E-03     13.6497E-03    -83.3401E+06    -168.702E+06    -46.0215E+06     6.58262E+06    -201.475E-03     389.054E-03    -187.579E-03     29.3609E-03    -202.139E-03     388.955E-03    -187.444E-03     21.2514E-03
            2282     3.73971E-03     13.5658E-03    -89.5205E+06    -191.769E+06    -57.2377E+06     6.71846E+06    -194.759E-03     379.958E-03    -185.199E-03     22.3268E-03    -195.191E-03     379.554E-03    -185.078E-03     16.1833E-03
            2283     2.99782E-03     13.4989E-03    -95.8495E+06    -211.509E+06    -74.3157E+06     7.52476E+06    -189.269E-03     372.492E-03    -183.223E-03     16.6144E-03    -189.536E-03     371.879E-03    -183.149E-03     12.1019E-03
            2284     2.25175E-03     13.4475E-03    -101.733E+06    -232.710E+06    -92.8643E+06     6.88464E+06    -185.020E-03     366.707E-03    -181.687E-03     11.9283E-03    -185.164E-03     365.928E-03    -181.667E-03     8.76204E-03
            2285     1.50273E-03     13.4108E-03    -106.812E+06    -253.342E+06    -106.022E+06     3.87240E+06    -182.052E-03     362.680E-03    -180.629E-03     7.66905E-03    -182.114E-03     361.766E-03    -180.637E-03     5.61037E-03
            2286     751.691E-06     13.3886E-03    -111.021E+06    -265.650E+06    -111.520E+06     522.623E+03    -180.408E-03     360.389E-03    -179.981E-03     3.97246E-03    -180.433E-03     359.395E-03    -179.992E-03     2.85995E-03
            2287     13.5851E-03     15.1435E-03    -2.92313E+06     67.8423E+06     77.9666E+06    -439.414E+03    -259.336E-03     489.517E-03    -230.181E-03     142.756E-03    -266.627E-03     496.812E-03    -229.885E-03     109.831E-03
            2288     12.8963E-03     14.8694E-03    -7.11784E+06     65.2819E+06     77.2649E+06     1.02397E+06    -269.938E-03     498.156E-03    -228.218E-03     191.343E-03    -280.911E-03     509.112E-03    -227.916E-03     148.070E-03
            2289     12.2135E-03     14.5861E-03    -12.0353E+06     57.6627E+06     73.3672E+06    -552.358E+03    -277.222E-03     502.714E-03    -225.492E-03     193.506E-03    -288.679E-03     514.122E-03    -225.191E-03     147.583E-03
            2290     11.5354E-03     14.2795E-03    -16.2636E+06     53.2202E+06     72.6621E+06    -1.48803E+06    -280.874E-03     502.962E-03    -222.088E-03     195.872E-03    -292.580E-03     514.591E-03    -221.779E-03     148.749E-03
            2291     10.8552E-03     13.9658E-03    -21.3021E+06     46.7081E+06     71.9062E+06    -1.20242E+06    -281.274E-03     499.363E-03    -218.088E-03     185.804E-03    -292.067E-03     510.041E-03    -217.766E-03     140.355E-03
            2292     10.1792E-03     13.6598E-03    -27.6265E+06     36.5093E+06     63.2944E+06    -1.08088E+06    -278.317E-03     491.853E-03    -213.536E-03     166.926E-03    -287.611E-03     501.002E-03    -213.232E-03     124.848E-03
            2293     9.49860E-03     13.3750E-03    -33.7789E+06     26.2547E+06     50.7228E+06    -950.693E+03    -271.123E-03     479.721E-03    -208.597E-03     140.046E-03    -278.440E-03     486.873E-03    -208.333E-03     103.305E-03
            2294     8.81255E-03     13.1249E-03    -39.2561E+06     16.0368E+06     38.2957E+06     226.940E+03    -260.191E-03     463.732E-03    -203.541E-03     110.192E-03    -265.530E-03     468.886E-03    -203.316E-03     79.7046E-03
            2295     8.11889E-03     12.9139E-03    -44.5194E+06     5.31734E+06     27.6451E+06     3.20464E+06    -247.713E-03     446.322E-03    -198.609E-03     83.9299E-03    -251.496E-03     449.894E-03    -198.414E-03     59.2803E-03
            2296     7.41532E-03     12.7352E-03    -51.4013E+06    -9.27046E+06     14.3376E+06     6.29303E+06    -235.374E-03     429.302E-03    -193.928E-03     62.7283E-03    -238.027E-03     431.703E-03    -193.768E-03     43.0921E-03
            2297     6.70287E-03     12.5845E-03    -61.0562E+06    -40.7020E+06    -5.20789E+06     8.09839E+06    -223.600E-03     413.175E-03    -189.575E-03     45.8444E-03    -225.428E-03     414.661E-03    -189.453E-03     30.3967E-03
            2298     5.98180E-03     12.4580E-03    -70.9396E+06    -85.2534E+06    -26.6059E+06     9.51541E+06    -212.586E-03     398.214E-03    -185.628E-03     33.1500E-03    -213.820E-03     398.971E-03    -185.534E-03     21.1374E-03
            2299     5.25259E-03     12.3525E-03    -78.8645E+06    -125.471E+06    -45.0460E+06     9.98450E+06    -202.609E-03     384.745E-03    -182.137E-03     23.9312E-03    -203.428E-03     384.969E-03    -182.066E-03     14.6714E-03
            2300     4.51558E-03     12.2650E-03    -85.6078E+06    -160.365E+06    -56.2528E+06     7.87941E+06    -193.956E-03     373.109E-03    -179.153E-03     17.3790E-03    -194.496E-03     372.937E-03    -179.077E-03     10.2779E-03
            2301     3.77256E-03     12.1938E-03    -91.6696E+06    -190.078E+06    -63.0643E+06     6.07815E+06    -186.731E-03     363.401E-03    -176.670E-03     12.6847E-03    -187.085E-03     362.934E-03    -176.576E-03     7.31741E-03
            2302     3.02397E-03     12.1367E-03    -96.8703E+06    -209.943E+06    -73.5901E+06     7.55289E+06    -180.908E-03     355.544E-03    -174.636E-03     9.21713E-03    -181.135E-03     354.890E-03    -174.559E-03     5.31235E-03
            2303     2.27151E-03     12.0933E-03    -101.484E+06    -225.644E+06    -86.0194E+06     8.84936E+06    -176.498E-03     349.559E-03    -173.061E-03     6.61133E-03    -176.636E-03     348.779E-03    -173.017E-03     3.91858E-03
            2304     1.51599E-03     12.0618E-03    -105.683E+06    -241.837E+06    -97.8924E+06     7.95757E+06    -173.402E-03     345.357E-03    -171.955E-03     4.18612E-03    -173.476E-03     344.475E-03    -171.941E-03     2.49319E-03
            2305     758.381E-06     12.0433E-03    -108.686E+06    -255.583E+06    -107.581E+06     4.99863E+06    -171.670E-03     342.950E-03    -171.281E-03     2.09517E-03    -171.700E-03     341.994E-03    -171.290E-03     1.21851E-03
            2306     13.5917E-03     13.5821E-03    -3.76289E+06     66.9889E+06     77.3329E+06    -1.29326E+06    -271.604E-03     501.191E-03    -229.587E-03     148.381E-03    -279.151E-03     508.738E-03    -229.292E-03     113.059E-03
            2307     12.9127E-03     13.3018E-03    -7.52198E+06     66.0205E+06     77.5405E+06    -1.01019E+06    -281.807E-03     508.756E-03    -226.948E-03     192.441E-03    -292.872E-03     519.803E-03    -226.645E-03     146.852E-03
            2308     12.2374E-03     13.0192E-03    -11.1889E+06     60.4665E+06     74.3668E+06    -1.52002E+06    -287.802E-03     511.323E-03    -223.521E-03     192.113E-03    -299.070E-03     522.552E-03    -223.220E-03     144.709E-03
            2309     11.5639E-03     12.7140E-03    -16.3297E+06     54.0772E+06     72.3030E+06    -1.12873E+06    -291.731E-03     511.077E-03    -219.346E-03     187.456E-03    -302.909E-03     522.184E-03    -219.040E-03     139.299E-03
            2310     10.8970E-03     12.4101E-03    -22.5828E+06     45.5770E+06     69.8826E+06    -1.59366E+06    -291.591E-03     506.044E-03    -214.453E-03     171.774E-03    -301.649E-03     515.988E-03    -214.137E-03     125.737E-03
            2311     10.2256E-03     12.1169E-03    -28.0467E+06     35.7669E+06     61.4790E+06    -2.30223E+06    -286.441E-03     495.401E-03    -208.960E-03     148.132E-03    -294.856E-03     503.675E-03    -208.664E-03     106.246E-03
            2312     9.55219E-03     11.8527E-03    -33.3806E+06     24.8039E+06     48.3491E+06    -1.43260E+06    -275.556E-03     478.710E-03    -203.153E-03     118.422E-03    -281.990E-03     484.984E-03    -202.899E-03     82.6912E-03
            2313     8.86969E-03     11.6297E-03    -39.9709E+06     12.5646E+06     33.3223E+06     573.124E+03    -261.300E-03     458.679E-03    -197.379E-03     89.5688E-03    -265.940E-03     463.135E-03    -197.172E-03     60.4130E-03
            2314     8.17520E-03     11.4452E-03    -47.9637E+06    -945.457E+03     19.0066E+06     3.96520E+06    -246.777E-03     438.639E-03    -191.861E-03     65.7607E-03    -250.061E-03     441.702E-03    -191.695E-03     42.4492E-03
            2315     7.47103E-03     11.2911E-03    -56.2030E+06    -14.5314E+06     7.82707E+06     9.24223E+06    -232.699E-03     419.409E-03    -186.710E-03     46.9152E-03    -235.014E-03     421.456E-03    -186.568E-03     28.5480E-03
            2316     6.75641E-03     11.1644E-03    -64.3900E+06    -38.6862E+06    -6.06715E+06     14.0656E+06    -219.236E-03     401.224E-03    -181.989E-03     32.6525E-03    -220.855E-03     402.499E-03    -181.870E-03     18.3739E-03
            2317     6.03141E-03     11.0599E-03    -72.6618E+06    -78.1187E+06    -25.5932E+06     14.8939E+06    -206.934E-03     384.688E-03    -177.754E-03     22.4799E-03    -208.043E-03     385.338E-03    -177.663E-03     11.4745E-03
            2318     5.29694E-03     10.9736E-03    -79.4895E+06    -117.461E+06    -45.6441E+06     12.8028E+06    -196.039E-03     370.079E-03    -174.040E-03     15.2823E-03    -196.780E-03     370.254E-03    -173.983E-03     6.83838E-03
            2319     4.55461E-03     10.9026E-03    -84.0174E+06    -148.862E+06    -61.7608E+06     9.73720E+06    -186.740E-03     357.604E-03    -170.864E-03     10.3469E-03    -187.224E-03     357.439E-03    -170.835E-03     3.90434E-03
            2320     3.80527E-03     10.8442E-03    -88.0585E+06    -184.733E+06    -67.4550E+06     6.61530E+06    -179.075E-03     347.342E-03    -168.267E-03     6.82402E-03    -179.377E-03     346.869E-03    -168.209E-03     1.95864E-03
            2321     3.05065E-03     10.7982E-03    -92.2396E+06    -209.979E+06    -70.7323E+06     5.85414E+06    -172.905E-03     339.079E-03    -166.174E-03     4.37904E-03    -173.091E-03     338.394E-03    -166.090E-03     820.379E-06
            2322     2.29148E-03     10.7619E-03    -95.6299E+06    -220.403E+06    -80.5507E+06     6.40039E+06    -168.188E-03     332.713E-03    -164.524E-03     2.82854E-03    -168.301E-03     331.932E-03    -164.469E-03     371.877E-06
            2323     1.52934E-03     10.7364E-03    -97.7271E+06    -232.515E+06    -89.8000E+06     5.68975E+06    -164.971E-03     328.323E-03    -163.352E-03     1.69500E-03    -165.024E-03     327.459E-03    -163.322E-03     151.947E-06
            2324     765.332E-06     10.7203E-03    -98.2437E+06    -241.535E+06    -95.0554E+06     4.13828E+06    -163.216E-03     325.680E-03    -162.464E-03     902.045E-06    -163.231E-03     324.760E-03    -162.447E-03     109.133E-06
            2325     13.6046E-03     12.0004E-03    -4.08653E+06     68.4646E+06     78.1422E+06    -1.56095E+06    -283.521E-03     512.460E-03    -228.939E-03     155.476E-03    -291.380E-03     520.321E-03    -228.642E-03     117.961E-03
            2326     12.9305E-03     11.7274E-03    -8.26331E+06     66.2535E+06     75.8087E+06    -3.11591E+06    -293.197E-03     518.850E-03    -225.652E-03     195.261E-03    -304.480E-03     530.118E-03    -225.357E-03     147.456E-03
            2327     12.2606E-03     11.4340E-03    -12.9914E+06     59.9951E+06      72.856E+06    -2.01217E+06    -300.749E-03     522.227E-03    -221.478E-03     189.731E-03    -312.018E-03     533.454E-03    -221.182E-03     140.187E-03
            2328     11.6011E-03     11.1344E-03    -18.0438E+06     53.4096E+06     70.7966E+06    -2.18263E+06    -304.413E-03     520.815E-03    -216.402E-03     179.067E-03    -315.362E-03     531.689E-03    -216.100E-03     128.955E-03
            2329     10.9386E-03     10.8402E-03    -22.8117E+06     46.0566E+06     69.0132E+06    -3.13018E+06    -302.487E-03     513.025E-03    -210.538E-03     158.653E-03    -312.137E-03     522.567E-03    -210.227E-03     111.285E-03
            2330     10.2785E-03     10.5657E-03    -28.1083E+06     35.2988E+06     60.4839E+06    -2.52371E+06    -292.897E-03     497.055E-03    -204.157E-03     131.307E-03    -300.711E-03     504.730E-03    -203.865E-03     89.4690E-03
            2331     9.60790E-03     10.3320E-03    -34.9828E+06     21.1146E+06     44.4941E+06    -236.493E+03    -277.459E-03     475.134E-03    -197.675E-03     102.208E-03    -283.334E-03     480.843E-03    -197.433E-03     67.4097E-03
            2332     8.92413E-03     10.1414E-03    -42.5148E+06     7.39728E+06     27.3522E+06     3.63132E+06    -260.597E-03     452.030E-03    -191.433E-03     76.6865E-03    -264.862E-03     456.102E-03    -191.245E-03     48.6138E-03
            2333     8.22961E-03     9.98543E-03    -50.3840E+06    -6.83433E+06     11.3919E+06     8.47625E+06    -244.231E-03     429.817E-03    -185.586E-03     56.2727E-03    -247.287E-03     432.645E-03    -185.446E-03     34.0018E-03
            2334     7.52259E-03     9.86031E-03    -58.3808E+06    -21.1969E+06    -1.04755E+06     13.0531E+06    -228.576E-03     408.801E-03    -180.224E-03     40.8746E-03    -230.774E-03     410.725E-03    -180.114E-03     23.4021E-03
            2335     6.80336E-03     9.76008E-03    -65.7653E+06    -38.2986E+06    -8.87652E+06     16.0779E+06    -214.250E-03     389.658E-03    -175.408E-03     29.7164E-03    -215.842E-03     390.910E-03    -175.301E-03     16.1178E-03
            2336     6.07375E-03     9.67878E-03    -71.6344E+06    -68.6137E+06    -19.6318E+06     15.9911E+06    -201.590E-03     372.713E-03    -171.123E-03     21.5234E-03    -202.724E-03     373.409E-03    -171.018E-03     10.9792E-03
            2337     5.33495E-03     9.61307E-03    -76.3715E+06    -106.284E+06    -36.5664E+06     12.7311E+06    -190.579E-03     357.914E-03    -167.335E-03     15.5337E-03    -191.357E-03     358.152E-03    -167.253E-03     7.38108E-03
            2338     4.58782E-03     9.55889E-03    -80.3836E+06    -140.022E+06    -55.1589E+06     9.58374E+06    -181.097E-03     345.136E-03    -164.040E-03     11.0683E-03    -181.608E-03     345.026E-03    -163.996E-03     4.81554E-03
            2339     3.83390E-03     9.51487E-03    -83.4477E+06    -175.756E+06    -68.1284E+06     7.15449E+06    -173.132E-03     334.406E-03    -161.274E-03     7.72043E-03    -173.441E-03     333.992E-03    -161.239E-03     2.99112E-03
            2340     3.07417E-03     9.47944E-03    -85.9421E+06    -205.812E+06    -71.2770E+06     3.72715E+06    -166.712E-03     325.742E-03    -159.029E-03     5.18784E-03    -166.885E-03     325.084E-03    -158.963E-03     1.67464E-03
            2341     2.30989E-03     9.45253E-03    -87.8443E+06    -218.654E+06    -74.4229E+06     2.56157E+06    -161.593E-03     318.825E-03    -157.232E-03     3.18886E-03    -161.685E-03     318.042E-03    -157.160E-03     717.752E-06
            2342     1.54179E-03     9.43230E-03    -89.4378E+06    -226.186E+06    -82.9147E+06     2.70753E+06    -157.837E-03     313.732E-03    -155.896E-03     1.83087E-03    -157.871E-03     312.883E-03    -155.852E-03     267.851E-06
            2343     771.433E-06     9.42012E-03    -91.3582E+06    -233.404E+06    -89.6314E+06     1.21397E+06    -155.735E-03     310.648E-03    -154.913E-03     908.712E-06    -155.735E-03     309.752E-03    -154.890E-03     81.8621E-06
            2344     13.6102E-03     10.4201E-03    -4.23667E+06     70.9862E+06     77.9657E+06    -532.593E+03    -296.374E-03     524.854E-03    -228.480E-03     167.275E-03    -304.869E-03     533.357E-03    -228.187E-03     126.950E-03
            2345     12.9424E-03     10.1224E-03    -8.24557E+06     68.7674E+06     76.7416E+06    -624.757E+03    -308.005E-03     532.480E-03    -224.475E-03     201.718E-03    -319.983E-03     544.449E-03    -224.179E-03     150.445E-03
            2346     12.2892E-03     9.83206E-03    -13.2221E+06     60.7019E+06     72.4715E+06    -2.21648E+06    -315.625E-03     535.040E-03    -219.414E-03     188.921E-03    -327.290E-03     546.665E-03    -219.121E-03     136.039E-03
            2347     11.6337E-03     9.53604E-03    -17.6280E+06     54.0829E+06     69.8767E+06    -4.03321E+06    -317.124E-03     530.515E-03    -213.391E-03     172.959E-03    -328.150E-03     541.475E-03    -213.094E-03     120.332E-03
            2348     10.9858E-03     9.25422E-03    -22.6773E+06      44.918E+06     66.5878E+06    -3.47404E+06    -310.214E-03     516.901E-03    -206.687E-03     148.087E-03    -319.611E-03     526.195E-03    -206.386E-03     99.8613E-03
            2349     10.3267E-03     9.01260E-03    -30.0737E+06     31.4552E+06     54.5289E+06     66.1311E+03    -294.707E-03     494.444E-03    -199.737E-03     120.185E-03    -302.116E-03     501.714E-03    -199.466E-03     79.0840E-03
            2350     9.65473E-03     8.81616E-03    -38.0301E+06     16.1983E+06     36.2553E+06     3.79651E+06    -275.594E-03     468.582E-03    -192.988E-03     94.6940E-03    -281.164E-03     473.981E-03    -192.775E-03     61.1998E-03
            2351     8.97013E-03     8.65979E-03    -46.0361E+06     911.374E+03     19.4259E+06     7.64330E+06    -256.654E-03     443.355E-03    -186.702E-03     74.2316E-03    -260.779E-03     447.274E-03    -186.539E-03     47.4360E-03
            2352     8.27073E-03     8.53726E-03    -53.1659E+06    -12.5434E+06     8.07232E+06     11.6623E+06    -238.874E-03     419.855E-03    -180.981E-03     58.8154E-03    -241.938E-03     422.670E-03    -180.845E-03     37.5662E-03
            2353     7.55798E-03     8.44323E-03    -59.0058E+06    -23.8797E+06    -801.069E+03     14.4402E+06    -222.928E-03     398.762E-03    -175.833E-03     47.2649E-03    -225.213E-03     400.760E-03    -175.717E-03     30.4858E-03
            2354     6.83416E-03     8.36896E-03    -62.9727E+06    -34.3007E+06     -7.7822E+06     14.3540E+06    -208.995E-03     380.228E-03    -171.233E-03     38.5367E-03    -210.702E-03     381.617E-03    -171.131E-03     25.2834E-03
            2355     6.10018E-03     8.31127E-03    -66.0922E+06    -60.6703E+06    -13.7739E+06     12.2418E+06    -196.911E-03     364.075E-03    -167.164E-03     31.8113E-03    -198.165E-03     364.923E-03    -167.049E-03     21.3470E-03
            2356     5.35738E-03     8.26505E-03    -69.9131E+06    -97.8703E+06    -23.9646E+06     10.7329E+06    -186.520E-03     350.076E-03    -163.556E-03     26.5574E-03    -187.412E-03     350.445E-03    -163.433E-03     18.3556E-03
            2357     4.60735E-03     8.22827E-03    -75.1914E+06    -133.989E+06    -41.1658E+06     9.54466E+06    -177.528E-03     337.882E-03    -160.355E-03     22.0097E-03    -178.135E-03     337.869E-03    -160.257E-03     15.6546E-03
            2358     3.85033E-03     8.19905E-03    -80.3811E+06    -166.902E+06    -60.8110E+06     7.29765E+06    -169.811E-03     327.380E-03    -157.570E-03     18.0251E-03    -170.197E-03     327.066E-03    -157.515E-03     13.1755E-03
            2359     3.08762E-03     8.17522E-03    -84.0808E+06    -196.042E+06    -72.7513E+06     2.72497E+06    -163.372E-03     318.621E-03    -155.249E-03     14.2955E-03    -163.593E-03     318.059E-03    -155.206E-03     10.6577E-03
            2360     2.32052E-03     8.15730E-03    -86.4265E+06    -218.368E+06    -75.9347E+06    -1.41222E+06    -158.176E-03     311.573E-03    -153.397E-03     10.6672E-03    -158.285E-03     310.820E-03    -153.334E-03     8.04562E-03
            2361     1.54962E-03     8.14514E-03    -87.2526E+06    -226.243E+06    -79.9267E+06    -727.601E+03    -154.207E-03     306.189E-03    -151.983E-03     7.31791E-03    -154.246E-03     305.347E-03    -151.928E-03     5.64012E-03
            2362     775.573E-06     8.13667E-03    -87.5303E+06    -230.289E+06    -85.5636E+06     702.199E+03    -151.579E-03     302.728E-03    -151.149E-03     4.05161E-03    -151.574E-03     301.842E-03    -151.116E-03     3.18519E-03
            2363     13.6089E-03     8.80060E-03    -3.56355E+06     73.8849E+06     78.0231E+06     767.154E+03    -311.329E-03     539.563E-03    -228.233E-03     176.197E-03    -320.566E-03     548.819E-03    -227.945E-03     132.532E-03
            2364     12.9598E-03     8.49853E-03    -7.95997E+06     71.1252E+06     75.5202E+06    -1.24619E+06    -324.149E-03     547.561E-03    -223.412E-03     206.948E-03    -337.010E-03     560.426E-03    -223.126E-03     151.283E-03
            2365     12.3100E-03     8.20343E-03    -12.0956E+06     62.6893E+06     70.9253E+06    -3.18601E+06    -329.784E-03     547.245E-03    -217.461E-03     188.886E-03    -341.966E-03     559.405E-03    -217.180E-03     132.473E-03
            2366     11.6724E-03     7.91726E-03    -17.1267E+06     53.8318E+06     66.6403E+06    -2.65906E+06    -326.082E-03     536.740E-03    -210.658E-03     168.603E-03    -337.159E-03     547.764E-03    -210.378E-03     114.472E-03
            2367     11.0226E-03     7.66421E-03    -23.9225E+06     39.4415E+06     58.8481E+06     413.027E+03    -311.181E-03     514.687E-03    -203.506E-03     140.894E-03    -320.136E-03     523.542E-03    -203.235E-03     93.9454E-03
            2368     10.3623E-03     7.46365E-03    -30.9841E+06     24.4662E+06     46.4735E+06     4.69409E+06    -289.874E-03     486.426E-03    -196.553E-03     116.164E-03    -296.811E-03     493.221E-03    -196.311E-03     77.5498E-03
            2369     9.68641E-03     7.30804E-03    -38.5958E+06     10.4913E+06     32.0455E+06     9.33997E+06    -268.345E-03     458.475E-03    -190.130E-03     97.5339E-03    -273.672E-03     463.622E-03    -189.929E-03     66.4467E-03
            2370     8.99344E-03     7.19013E-03    -46.0469E+06    -2.48372E+06     20.6631E+06     12.7204E+06    -248.428E-03     432.792E-03    -184.364E-03     83.0735E-03    -252.503E-03     436.645E-03    -184.190E-03     58.2440E-03
            2371     8.28651E-03     7.10239E-03    -52.6690E+06    -12.9573E+06     12.9559E+06     13.0856E+06    -230.875E-03     410.133E-03    -179.258E-03     72.2165E-03    -234.023E-03     413.019E-03    -179.098E-03     52.3073E-03
            2372     7.56789E-03     7.03639E-03    -57.3216E+06    -20.9428E+06     7.10305E+06     11.3068E+06    -215.936E-03     390.688E-03    -174.752E-03     63.9246E-03    -218.372E-03     392.833E-03    -174.603E-03     47.9121E-03
            2373     6.83887E-03     6.98760E-03    -60.8600E+06    -28.1899E+06    -507.903E+03     8.76837E+06    -203.236E-03     374.005E-03    -170.769E-03     57.6991E-03    -205.121E-03     375.581E-03    -170.642E-03     44.8164E-03
            2374     6.10094E-03     6.95111E-03    -63.9391E+06    -54.6055E+06    -10.0424E+06     6.18541E+06    -192.590E-03     359.865E-03    -167.275E-03     52.5845E-03    -194.012E-03     360.900E-03    -167.153E-03     42.2466E-03
            2375     5.35562E-03     6.92338E-03    -66.8771E+06    -97.5172E+06    -18.7830E+06     5.79544E+06    -183.562E-03     347.790E-03    -164.229E-03     47.8047E-03    -184.590E-03     348.293E-03    -164.084E-03     39.5946E-03
            2376     4.60329E-03     6.90252E-03    -70.4135E+06    -131.783E+06    -28.5715E+06     7.69995E+06    -175.890E-03     337.442E-03    -161.552E-03     42.9463E-03    -176.612E-03     337.531E-03    -161.402E-03     36.5480E-03
            2377     3.84580E-03     6.88661E-03    -75.2442E+06    -159.430E+06    -43.1068E+06     6.98189E+06    -169.384E-03     328.595E-03    -159.211E-03     37.6704E-03    -169.867E-03     328.370E-03    -159.086E-03     32.7674E-03
            2378     3.08336E-03     6.87476E-03    -80.2255E+06    -185.249E+06    -61.2043E+06     2.75662E+06    -163.824E-03     321.055E-03    -157.230E-03     31.8027E-03    -164.116E-03     320.581E-03    -157.151E-03     28.1268E-03
            2379     2.31611E-03     6.86616E-03     -84.805E+06    -215.019E+06    -74.5200E+06    -2.39231E+06    -159.497E-03     315.173E-03    -155.676E-03     25.0659E-03    -159.640E-03     314.464E-03    -155.613E-03     22.4059E-03
            2380     1.54585E-03     6.86047E-03    -88.6048E+06    -232.483E+06    -81.1794E+06    -4.17970E+06    -156.360E-03     310.870E-03    -154.510E-03     17.5211E-03    -156.413E-03     310.015E-03    -154.450E-03     15.7722E-03
            2381     773.675E-06     6.85718E-03    -89.8661E+06    -232.833E+06    -86.3754E+06    -2.13371E+06    -153.784E-03     307.941E-03    -154.156E-03     9.88366E-03    -153.793E-03     307.050E-03    -154.120E-03     8.96839E-03
            2382     13.6158E-03     7.16474E-03    -2.97639E+06     76.4373E+06     76.5972E+06    -200.741E+03    -324.978E-03     553.015E-03    -228.036E-03     185.525E-03    -334.903E-03     562.974E-03    -227.760E-03     138.926E-03
            2383     12.9677E-03     6.84279E-03    -8.12720E+06     71.8835E+06     68.7214E+06    -1.94976E+06    -337.978E-03     560.493E-03    -222.515E-03     215.691E-03    -351.612E-03     574.151E-03    -222.264E-03     156.693E-03
            2384     12.3365E-03     6.55458E-03    -12.2581E+06     61.5780E+06     61.7155E+06    -914.844E+03    -340.808E-03     556.694E-03    -215.885E-03     190.018E-03    -353.047E-03     568.935E-03    -215.648E-03     132.290E-03
            2385     11.6942E-03     6.28647E-03    -17.9296E+06     48.7290E+06     56.7057E+06     2.22775E+06    -327.100E-03     535.816E-03    -208.716E-03     162.135E-03    -337.382E-03     546.059E-03    -208.477E-03     110.455E-03
            2386     11.0464E-03     6.08018E-03    -25.1861E+06     32.5981E+06     49.4915E+06     6.46109E+06    -302.953E-03     504.713E-03    -201.760E-03     136.488E-03    -310.950E-03     512.611E-03    -201.523E-03     94.1045E-03
            2387     10.3761E-03     5.92920E-03    -32.8706E+06     18.0135E+06     39.9864E+06     10.4661E+06    -278.293E-03     473.754E-03    -195.461E-03     119.075E-03    -284.522E-03     479.829E-03    -195.239E-03     84.9991E-03
            2388     9.68756E-03     5.81455E-03    -39.5517E+06     6.61620E+06     32.6457E+06     12.9750E+06    -255.916E-03     445.865E-03    -189.949E-03     105.858E-03    -260.784E-03     450.534E-03    -189.738E-03     78.5250E-03
            2389     8.98574E-03     5.73465E-03    -43.7751E+06    -1.24960E+06     28.5583E+06     12.9290E+06    -236.390E-03     421.613E-03    -185.224E-03     96.7151E-03    -240.216E-03     425.209E-03    -185.016E-03     74.7298E-03
            2390     8.27119E-03     5.67734E-03    -46.9867E+06    -6.86559E+06     24.1258E+06     10.7601E+06    -220.419E-03     401.623E-03    -181.205E-03     91.1869E-03    -223.460E-03     404.414E-03    -181.006E-03     73.3597E-03
            2391     7.54582E-03     5.63780E-03    -51.3680E+06    -13.9381E+06     19.6369E+06     7.31103E+06    -207.512E-03     385.310E-03    -177.798E-03     86.8966E-03    -209.935E-03     387.452E-03    -177.605E-03     72.3753E-03
            2392     6.81128E-03     5.61106E-03    -57.0802E+06    -22.9895E+06     13.3521E+06     4.32309E+06    -197.141E-03     372.043E-03    -174.901E-03     83.0066E-03    -199.066E-03     373.650E-03    -174.718E-03     71.1974E-03
            2393     6.06969E-03     5.59183E-03    -64.0123E+06    -52.1787E+06     543.339E+03     2.41255E+06    -188.849E-03     361.288E-03    -172.439E-03     78.6939E-03    -190.337E-03     362.365E-03    -172.268E-03     69.1466E-03
            2394     5.32219E-03     5.57986E-03    -71.4096E+06    -99.4411E+06    -12.9723E+06     1.02717E+06    -182.235E-03     352.607E-03    -170.372E-03     73.5558E-03    -183.340E-03     353.144E-03    -170.189E-03     65.9015E-03
            2395     4.57013E-03     5.57136E-03    -76.4980E+06    -132.312E+06    -22.3436E+06    -299.880E+03    -176.854E-03     345.487E-03    -168.633E-03     67.2616E-03    -177.657E-03     345.612E-03    -168.442E-03     61.2062E-03
            2396     3.81380E-03     5.56591E-03    -78.3181E+06    -156.728E+06    -33.5834E+06    -1.08798E+06    -172.532E-03     339.711E-03    -167.179E-03     59.4883E-03    -173.083E-03     339.519E-03    -167.006E-03     54.7963E-03
            2397     3.05425E-03     5.56325E-03    -80.1006E+06    -180.953E+06    -48.9580E+06    -1.50625E+06    -169.269E-03     335.262E-03    -165.993E-03     50.2567E-03    -169.611E-03     334.810E-03    -165.859E-03     46.7289E-03
            2398     2.29273E-03     5.56124E-03    -83.5312E+06    -212.607E+06    -65.5551E+06    -2.79748E+06    -166.890E-03     331.964E-03    -165.074E-03     39.4452E-03    -167.061E-03     331.262E-03    -164.973E-03     36.9014E-03
            2399     1.52963E-03     5.56016E-03    -87.9562E+06    -237.791E+06    -79.5979E+06    -4.13380E+06    -165.225E-03     329.624E-03    -164.399E-03     27.3190E-03    -165.281E-03     328.741E-03    -164.325E-03     25.6329E-03
            2400     765.090E-06     5.56035E-03    -91.7658E+06    -242.063E+06    -89.5810E+06    -3.53418E+06    -163.784E-03     328.105E-03    -164.322E-03     14.9772E-03    -163.792E-03     327.173E-03    -164.286E-03     14.0617E-03
            2401     13.6141E-03     5.51106E-03    -1.18399E+06     77.7411E+06     71.1479E+06    -789.712E+03    -340.778E-03     569.045E-03    -228.267E-03     209.540E-03    -351.467E-03     579.790E-03    -228.022E-03     160.333E-03
            2402     12.9775E-03     5.17166E-03    -4.65948E+06     72.2554E+06     62.9292E+06     1.37260E+06    -353.548E-03     575.648E-03    -222.100E-03     225.326E-03    -367.150E-03     589.307E-03    -221.884E-03     165.710E-03
            2403     12.3425E-03     4.87664E-03    -11.1426E+06     55.4461E+06     52.0110E+06     5.52074E+06    -344.483E-03     559.524E-03    -215.041E-03     180.684E-03    -355.270E-03     570.334E-03    -214.845E-03     127.092E-03
            2404     11.7095E-03     4.66560E-03    -17.9405E+06     40.6135E+06     46.7080E+06     10.2572E+06    -317.388E-03     525.474E-03    -208.086E-03     148.116E-03    -325.638E-03     533.691E-03    -207.885E-03     103.994E-03
            2405     11.0419E-03     4.52067E-03    -23.8965E+06     28.2251E+06     45.6661E+06     13.9455E+06    -287.081E-03     489.065E-03    -201.985E-03     129.863E-03    -293.390E-03     495.276E-03    -201.763E-03     95.1117E-03
            2406     10.3586E-03     4.41041E-03    -30.4325E+06     18.1035E+06     44.2579E+06     14.6484E+06    -261.098E-03     458.005E-03    -196.907E-03     119.499E-03    -266.041E-03     462.793E-03    -196.668E-03     91.9272E-03
            2407     9.66188E-03     4.34023E-03    -34.5591E+06     11.7297E+06     43.5486E+06     11.3372E+06    -239.187E-03     431.982E-03    -192.795E-03     113.402E-03    -243.089E-03     435.692E-03    -192.544E-03     91.3931E-03
            2408     8.94780E-03     4.29365E-03    -38.1262E+06     5.11188E+06     39.4085E+06     7.18025E+06    -221.992E-03     411.525E-03    -189.532E-03     111.465E-03    -225.126E-03     414.439E-03    -189.288E-03     93.7453E-03
            2409     8.22230E-03     4.26270E-03    -41.5410E+06    -1.75301E+06     34.7486E+06     4.36798E+06    -209.264E-03     396.245E-03    -186.980E-03     109.482E-03    -211.785E-03     398.520E-03    -186.744E-03     95.0988E-03
            2410     7.48853E-03     4.24354E-03    -45.7123E+06    -8.17376E+06     34.5374E+06     2.56699E+06    -199.861E-03     384.871E-03    -185.010E-03     106.684E-03    -201.898E-03     386.623E-03    -184.759E-03     94.9357E-03
            2411     6.74969E-03     4.23159E-03    -51.7289E+06    -20.8249E+06     30.5240E+06     1.04417E+06    -193.103E-03     376.571E-03    -183.468E-03     102.733E-03    -194.743E-03     377.867E-03    -183.210E-03     93.1049E-03
            2412     6.00629E-03     4.22595E-03    -58.8777E+06    -53.2602E+06     17.9416E+06    -172.908E+03    -188.281E-03     370.530E-03    -182.249E-03     97.0619E-03    -189.559E-03     371.357E-03    -181.997E-03     89.1885E-03
            2413     5.25966E-03     4.22283E-03    -64.9161E+06    -94.7764E+06     1.49063E+06    -4.83746E+06    -184.912E-03     366.199E-03    -181.287E-03     89.6631E-03    -185.866E-03     366.576E-03    -181.048E-03     83.2068E-03
            2414     4.51092E-03     4.22216E-03    -69.0314E+06    -131.692E+06    -15.1401E+06    -11.0287E+06    -182.503E-03     363.033E-03    -180.530E-03     80.4382E-03    -183.182E-03     363.034E-03    -180.315E-03     75.1458E-03
            2415     3.76040E-03     4.22314E-03    -72.3872E+06    -162.839E+06    -32.1601E+06    -12.2205E+06    -180.863E-03     360.810E-03    -179.948E-03     69.5765E-03    -181.314E-03     360.507E-03    -179.767E-03     65.3511E-03
            2416     3.00911E-03     4.22361E-03    -74.8829E+06    -187.219E+06    -48.9851E+06    -9.85329E+06    -179.853E-03     359.364E-03    -179.510E-03     57.3858E-03    -180.123E-03     358.829E-03    -179.375E-03     54.1334E-03
            2417     2.25726E-03     4.22489E-03    -76.6600E+06    -219.124E+06    -61.8030E+06    -6.48925E+06    -179.228E-03     358.467E-03    -179.239E-03     44.3084E-03    -179.343E-03     357.693E-03    -179.119E-03     41.9428E-03
            2418     1.50471E-03     4.22611E-03    -79.6057E+06    -243.599E+06    -71.8862E+06    -3.28400E+06    -178.944E-03     358.043E-03    -179.099E-03     30.5652E-03    -178.955E-03     357.095E-03    -178.989E-03     29.0175E-03
            2419     752.406E-06     4.22695E-03    -83.6234E+06    -250.603E+06    -81.3295E+06    -1.51546E+06    -178.896E-03     357.961E-03    -179.065E-03     16.7498E-03    -178.862E-03     356.956E-03    -178.987E-03     15.9205E-03
            2420     13.5925E-03     3.81238E-03    -1.21912E+06     76.3977E+06     63.8887E+06    -1.69460E+06    -372.845E-03     602.089E-03    -229.244E-03     233.293E-03    -383.830E-03     613.138E-03    -229.033E-03     181.501E-03
            2421     12.9726E-03     3.45029E-03    -7.08626E+06     61.2139E+06     52.6357E+06     5.21337E+06    -371.577E-03     593.603E-03    -222.025E-03     196.443E-03    -382.281E-03     604.369E-03    -221.841E-03     142.548E-03
            2422     12.3542E-03     3.21290E-03    -13.4071E+06     44.5640E+06     46.4283E+06     11.9089E+06    -333.684E-03     548.546E-03    -214.862E-03     143.169E-03    -340.782E-03     555.646E-03    -214.675E-03     101.768E-03
            2423     11.6922E-03     3.07221E-03    -15.8531E+06     37.0372E+06     49.9852E+06     14.5697E+06    -296.173E-03     505.071E-03    -208.898E-03     122.270E-03    -301.359E-03     510.208E-03    -208.679E-03     90.3740E-03
            2424     11.0189E-03     2.98262E-03    -18.9563E+06     30.1747E+06     53.7344E+06     13.7435E+06    -265.890E-03     470.119E-03    -204.230E-03     115.827E-03    -269.814E-03     473.947E-03    -203.977E-03     91.3967E-03
            2425     10.3217E-03     2.92091E-03    -19.7745E+06     27.0371E+06     59.7283E+06     10.3550E+06    -240.820E-03     441.578E-03    -200.758E-03     114.237E-03    -243.890E-03     444.515E-03    -200.470E-03     95.3466E-03
            2426     9.60349E-03     2.88761E-03    -23.3300E+06     20.3053E+06     58.8566E+06     6.76196E+06    -222.857E-03     421.143E-03    -198.286E-03     113.325E-03    -225.294E-03     423.409E-03    -197.988E-03     98.5196E-03
            2427     8.87715E-03     2.86465E-03    -28.9126E+06     11.4432E+06     51.8442E+06     3.78117E+06    -211.101E-03     407.654E-03    -196.554E-03     111.932E-03    -213.070E-03     409.418E-03    -196.269E-03     100.028E-03
            2428     8.14508E-03     2.85161E-03    -35.4911E+06     3.18239E+06     42.9176E+06     419.445E+03    -203.049E-03     398.412E-03    -195.363E-03     108.336E-03    -204.645E-03     399.772E-03    -195.101E-03     98.5840E-03
            2429     7.40881E-03     2.84437E-03    -41.1515E+06    -4.18828E+06     36.1547E+06    -3.19241E+06    -197.816E-03     392.408E-03    -194.592E-03     103.523E-03    -199.120E-03     393.446E-03    -194.345E-03     95.4164E-03
            2430     6.66896E-03     2.84088E-03    -44.6723E+06    -21.1528E+06     26.3894E+06    -5.92768E+06    -194.744E-03     388.855E-03    -194.111E-03     97.0505E-03    -195.788E-03     389.586E-03    -193.883E-03     90.2345E-03
            2431     5.92828E-03     2.84006E-03    -45.6062E+06    -51.8207E+06     12.3759E+06    -9.85078E+06    -193.174E-03     386.994E-03    -193.820E-03     89.3592E-03    -193.965E-03     387.397E-03    -193.617E-03     83.5795E-03
            2432     5.18737E-03     2.84073E-03    -45.9710E+06    -91.2847E+06    -1.49039E+06    -14.1261E+06    -192.473E-03     386.144E-03    -193.671E-03     80.6059E-03    -193.032E-03     386.211E-03    -193.479E-03     75.6904E-03
            2433     4.44597E-03     2.84267E-03    -49.7183E+06    -136.693E+06    -17.5423E+06    -14.9836E+06    -192.373E-03     385.976E-03    -193.603E-03     70.7602E-03    -192.734E-03     385.715E-03    -193.421E-03     66.6365E-03
            2434     3.70504E-03     2.84461E-03    -56.2549E+06    -172.482E+06    -35.8337E+06    -13.7722E+06    -192.548E-03     386.104E-03    -193.556E-03     60.1378E-03    -192.759E-03     385.595E-03    -193.404E-03     56.7695E-03
            2435     2.96392E-03     2.84662E-03     -62.354E+06    -201.059E+06    -51.8378E+06    -10.9642E+06    -192.695E-03     386.244E-03    -193.548E-03     48.8245E-03    -192.791E-03     385.541E-03    -193.426E-03     46.1803E-03
            2436     2.22237E-03     2.84852E-03    -67.5090E+06    -232.524E+06    -61.7457E+06    -6.20327E+06    -192.947E-03     386.570E-03    -193.622E-03     37.0314E-03    -192.947E-03     385.668E-03    -193.496E-03     35.0931E-03
            2437     1.48135E-03     2.84938E-03    -71.6710E+06    -250.898E+06    -67.7386E+06    -2.61772E+06    -193.287E-03     387.023E-03    -193.736E-03     25.1741E-03    -193.228E-03     386.000E-03    -193.607E-03     23.9062E-03
            2438     740.346E-06     2.84974E-03    -74.2450E+06    -255.201E+06    -72.6227E+06    -738.118E+03    -193.691E-03     387.503E-03    -193.812E-03     13.7639E-03    -193.606E-03     386.445E-03    -193.697E-03     13.1012E-03
            2439     13.5721E-03     1.96447E-03    -6.24486E+06     70.7321E+06     68.4647E+06     1.03909E+06    -453.438E-03     685.084E-03    -231.646E-03     225.920E-03    -461.665E-03     693.347E-03    -231.397E-03     179.378E-03
            2440     12.9970E-03     1.71937E-03    -9.56739E+06     54.4064E+06     61.4265E+06     6.10933E+06    -384.167E-03     606.686E-03    -222.520E-03     133.097E-03    -389.049E-03     611.609E-03    -222.277E-03     99.7705E-03
            2441     12.3481E-03     1.60051E-03    -10.1026E+06     45.8308E+06     61.8019E+06      8.4474E+06    -317.798E-03     533.343E-03    -215.545E-03     95.9803E-03    -320.624E-03     536.145E-03    -215.288E-03     73.7664E-03
            2442     11.6757E-03     1.51971E-03    -10.2652E+06     41.1778E+06     65.7762E+06     6.67309E+06    -274.042E-03     484.807E-03    -210.766E-03     84.3083E-03    -276.080E-03     486.782E-03    -210.482E-03     68.1550E-03
            2443     10.9728E-03     1.47756E-03    -10.4671E+06     37.2978E+06     68.3332E+06     4.57530E+06    -245.655E-03     453.229E-03    -207.574E-03     80.3254E-03    -247.194E-03     454.677E-03    -207.272E-03     68.4995E-03
            2444     10.2559E-03     1.45927E-03    -12.2730E+06     30.6184E+06     65.7063E+06     3.32657E+06    -226.924E-03     432.421E-03    -205.498E-03     79.6139E-03    -228.151E-03     433.530E-03    -205.196E-03     70.5715E-03
            2445     9.53347E-03     1.44462E-03    -14.7239E+06     22.2462E+06     54.7025E+06     3.70977E+06    -215.411E-03     419.586E-03    -204.175E-03     77.4994E-03    -216.369E-03     420.415E-03    -203.913E-03     70.4031E-03
            2446     8.80534E-03     1.43580E-03    -18.3599E+06     15.1546E+06     41.8701E+06     3.09247E+06    -208.395E-03     411.772E-03    -203.377E-03     73.6689E-03    -209.162E-03     412.407E-03    -203.163E-03     67.8946E-03
            2447     8.07283E-03     1.43219E-03    -22.6289E+06     9.88116E+06     30.6844E+06     136.852E+03    -204.077E-03     407.031E-03    -202.954E-03     69.1465E-03    -204.711E-03     407.530E-03    -202.782E-03     64.2961E-03
            2448     7.33823E-03     1.42963E-03    -27.9947E+06     2.09930E+06     16.1988E+06    -4.22872E+06    -201.721E-03     404.497E-03    -202.775E-03     64.1173E-03    -202.250E-03     404.884E-03    -202.657E-03     59.9328E-03
            2449     6.60390E-03     1.42899E-03    -32.9920E+06    -15.7455E+06    -1.80119E+06    -10.5915E+06    -200.652E-03     403.417E-03    -202.766E-03     58.5269E-03    -201.073E-03     403.667E-03    -202.704E-03     54.8327E-03
            2450     5.86881E-03     1.42882E-03    -37.3519E+06    -51.3676E+06    -18.0355E+06    -15.0984E+06    -200.448E-03     403.348E-03    -202.900E-03     52.6624E-03    -200.750E-03     403.383E-03    -202.861E-03     49.4054E-03
            2451     5.13348E-03     1.42985E-03    -43.4524E+06    -100.583E+06    -28.4896E+06    -13.3357E+06    -200.795E-03     403.940E-03    -203.145E-03     46.5108E-03    -200.988E-03     403.700E-03    -203.079E-03     43.7207E-03
            2452     4.39891E-03     1.43091E-03    -50.4491E+06    -146.439E+06    -37.6173E+06    -9.91139E+06    -201.440E-03     404.853E-03    -203.412E-03     40.3897E-03    -201.545E-03     404.363E-03    -203.315E-03     38.0551E-03
            2453     3.66465E-03     1.43217E-03    -56.4496E+06    -182.190E+06    -46.5051E+06    -7.41580E+06    -202.163E-03     405.818E-03    -203.655E-03     34.0602E-03    -202.197E-03     405.134E-03    -203.542E-03     32.1435E-03
            2454     2.93095E-03     1.43404E-03    -62.4892E+06    -214.106E+06    -54.5012E+06    -4.01593E+06    -202.882E-03     406.748E-03    -203.866E-03     27.5500E-03    -202.859E-03     405.896E-03    -203.737E-03     26.0548E-03
            2455     2.19818E-03     1.43492E-03    -67.8839E+06    -241.305E+06    -61.8580E+06    -1.65261E+06    -203.517E-03     407.536E-03    -204.019E-03     20.8724E-03    -203.449E-03     406.544E-03    -203.880E-03     19.7760E-03
            2456     1.46535E-03     1.43581E-03    -71.1391E+06    -254.785E+06    -68.0348E+06    -953.857E+03    -203.913E-03     408.005E-03    -204.093E-03     14.1738E-03    -203.816E-03     406.944E-03    -203.960E-03     13.4519E-03
            2457     732.771E-06     1.43519E-03    -73.1596E+06    -257.950E+06    -72.1460E+06    -599.284E+03    -204.154E-03     408.185E-03    -204.030E-03     7.72235E-03    -204.047E-03     407.108E-03    -203.911E-03     7.34840E-03


