********************************************************************************
Field Output Report, written Tue May 28 22:07:53 2024

Source 1
---------

   ODB: G:/Abaqus_calc_2019/1740/Vel_10/odb/zeides_2a_32_red_250_cal_50_vel_10_fric_050.odb
   Step: Step-1
   Frame: Increment   6931499: Step Time =   0.8834

Loc 1 : Nodal values from source 1

Output sorted by column "Nodal Label".

Field Output reported at nodes for region: DIE_2A_32_D0_36-1.Region_1
   Computation algorithm: EXTRAPOLATE_COMPUTE_AVERAGE
   Averaged at nodes
   Averaging regions: ODB_REGIONS

      Node Label     COORD.COOR1     COORD.COOR2
                          @Loc 1          @Loc 1
-------------------------------------------------
               1     22.3874E-03     112.869E-03


Field Output reported at nodes for region: DIE_2A_32_D0_36-1.Region_2
   Computation algorithm: EXTRAPOLATE_COMPUTE_AVERAGE
   Averaged at nodes
   Averaging regions: ODB_REGIONS

      Node Label     COORD.COOR1     COORD.COOR2
                          @Loc 1          @Loc 1
-------------------------------------------------
               1     22.3874E-03     112.869E-03


Field Output reported at nodes for part: WIRE-1
   Computation algorithm: EXTRAPOLATE_COMPUTE_AVERAGE
   Averaged at nodes
   Averaging regions: ODB_REGIONS

      Node Label     COORD.COOR1     COORD.COOR2           S.S11           S.S22           S.S33           S.S12         PE.PE11         PE.PE22         PE.PE33         PE.PE12         LE.LE11         LE.LE22         LE.LE33         LE.LE12
                          @Loc 1          @Loc 1          @Loc 1          @Loc 1          @Loc 1          @Loc 1          @Loc 1          @Loc 1          @Loc 1          @Loc 1          @Loc 1          @Loc 1          @Loc 1          @Loc 1
-------------------------------------------------------------------------------------------------------------------------------------------------------------------------------------------------------------------------------------------------
               1    -41.5194E-09     57.4694E-03    -24.0344E+06    -114.312E+06    -24.0120E+06    -15.4721E+03    -26.8155E-03     53.6828E-03    -26.8673E-03     3.35501E-03    -26.7351E-03     53.1811E-03    -26.7868E-03     3.35328E-03
               2     17.5274E-03     58.9286E-03    -2.31411E+06     180.296E+06     111.691E+06     316.177E+03    -30.8818E-03     57.8040E-03    -26.9222E-03     202.381E-03    -37.7816E-03     65.0118E-03    -26.6218E-03     210.010E-03
               3     17.1586E-03     117.066E-03     13.1640E+06    -13.2871E+06     2.57254E+06     1.70906E+06     20.4033E-03     20.6146E-03    -41.0180E-03     2.09174E-03     20.4682E-03     20.5089E-03    -41.0049E-03     2.11376E-03
               4    -1.26793E-06     115.223E-03     36.6227E+06     217.847E+03     34.4344E+06    -2.12641E+06    -29.0056E-03     58.9225E-03    -29.9169E-03    -875.484E-06    -28.8742E-03     58.8192E-03    -29.7981E-03    -903.836E-06
               5     165.620E-09    -138.778E-18    -11.0612E+06    -91.2528E+06    -10.4086E+06     197.843E+03    -19.5705E-03     38.9957E-03    -19.4252E-03     182.388E-06    -19.4781E-03     38.5707E-03    -19.3289E-03     184.988E-06
               6     17.3996E-03    -138.778E-18     10.4766E+06     114.142E+06     87.5965E+06     3.39991E+06    -85.0610E-03     116.197E-03    -31.1358E-03     121.736E-03    -85.7927E-03     117.153E-03    -30.8786E-03     120.698E-03
               7     876.230E-06     57.4726E-03    -23.8517E+06    -114.009E+06    -23.4764E+06     9.31567E+03    -26.8303E-03     53.6842E-03    -26.8539E-03     5.67219E-03    -26.7503E-03     53.1830E-03    -26.7713E-03     5.66964E-03
               8     1.75249E-03     57.4802E-03    -23.2974E+06    -113.110E+06    -21.8577E+06     38.5915E+03    -26.8593E-03     53.7024E-03    -26.8431E-03     10.5207E-03    -26.7805E-03     53.2028E-03    -26.7546E-03     10.5161E-03
               9     2.62872E-03     57.4926E-03    -22.3850E+06    -111.681E+06    -19.2353E+06     19.8489E+03    -26.8884E-03     53.7388E-03    -26.8504E-03     15.6378E-03    -26.8114E-03     53.2417E-03    -26.7522E-03     15.6301E-03
              10     3.50498E-03     57.5099E-03    -21.1300E+06    -109.750E+06    -15.7021E+06     22.5950E+03    -26.9260E-03     53.7865E-03    -26.8605E-03     20.8422E-03    -26.8515E-03     53.2929E-03    -26.7493E-03     20.8312E-03
              11     4.38124E-03     57.5322E-03    -19.6120E+06    -107.528E+06    -11.5812E+06     16.4949E+03    -26.9787E-03     53.8507E-03    -26.8720E-03     26.0914E-03    -26.9070E-03     53.3612E-03    -26.7455E-03     26.0762E-03
              12     5.25751E-03     57.5594E-03    -17.9394E+06    -102.624E+06    -7.74166E+06     67.2150E+03    -27.0392E-03     53.9165E-03    -26.8772E-03     31.3889E-03    -26.9737E-03     53.4454E-03    -26.7411E-03     31.3694E-03
              13     6.13379E-03     57.5918E-03    -16.2638E+06    -97.0256E+06    -3.98739E+06     124.080E+03    -27.1137E-03     53.9941E-03    -26.8804E-03     36.7151E-03    -27.0560E-03     53.5458E-03    -26.7361E-03     36.6901E-03
              14     7.01010E-03     57.6291E-03    -14.5882E+06    -92.5981E+06    -940.195E+03     172.072E+03    -27.2081E-03     54.0896E-03    -26.8815E-03     42.0316E-03    -27.1567E-03     53.6604E-03    -26.7308E-03     41.9994E-03
              15     7.88638E-03     57.6716E-03    -12.9958E+06    -86.1539E+06     353.113E+03     233.610E+03    -27.3146E-03     54.1857E-03    -26.8712E-03     47.3466E-03    -27.2719E-03     53.7901E-03    -26.7256E-03     47.3054E-03
              16     8.76272E-03     57.7191E-03    -11.5768E+06    -80.6609E+06     1.09848E+06     270.869E+03    -27.4374E-03     54.2973E-03    -26.8599E-03     52.6475E-03    -27.4047E-03     53.9340E-03    -26.7207E-03     52.5943E-03
              17     9.63901E-03     57.7717E-03    -10.5215E+06    -76.2247E+06    -138.062E+03     299.255E+03    -27.5773E-03     54.4186E-03    -26.8412E-03     57.9257E-03    -27.5556E-03     54.0893E-03    -26.7162E-03     57.8575E-03
              18     10.5153E-03     57.8291E-03    -9.82365E+06    -68.0713E+06    -2.72171E+06     283.721E+03    -27.7133E-03     54.5246E-03    -26.8113E-03     63.1274E-03    -27.7133E-03     54.2560E-03    -26.7120E-03     63.0397E-03
              19     11.3916E-03     57.8916E-03    -9.35152E+06    -53.6984E+06    -1.88792E+06     308.493E+03    -27.8774E-03     54.6667E-03    -26.7893E-03     69.7267E-03    -27.9245E-03     54.4954E-03    -26.7073E-03     69.6152E-03
              20     12.2680E-03     57.9615E-03    -9.10240E+06    -39.1489E+06    -3.35232E+06    -136.537E+03    -28.1096E-03     54.8645E-03    -26.7549E-03     77.9241E-03    -28.2182E-03     54.8115E-03    -26.7017E-03     77.7778E-03
              21     13.1444E-03     58.0395E-03    -8.46707E+06    -25.5997E+06    -10.2351E+06    -174.770E+03    -28.0971E-03     54.7901E-03    -26.6930E-03     80.1964E-03    -28.2726E-03     54.8744E-03    -26.6948E-03     80.0165E-03
              22     14.0211E-03     58.1139E-03    -8.65878E+06     6.62197E+06    -12.3675E+06     683.945E+03    -28.6050E-03     55.2338E-03    -26.6287E-03     94.2915E-03    -28.9876E-03     55.6450E-03    -26.6876E-03     94.0842E-03
              23     14.8973E-03     58.2186E-03    -9.57494E+06     62.7534E+06    -10.7070E+06     1.13851E+06    -32.4261E-03     58.9768E-03    -26.5507E-03     158.521E-03    -33.8579E-03     60.6284E-03    -26.6813E-03     158.323E-03
              24     15.7733E-03     58.4166E-03    -8.38340E+06     130.428E+06     23.6694E+06     820.439E+03    -39.2280E-03     65.8363E-03    -26.6083E-03     262.282E-03    -45.7068E-03     72.6797E-03    -26.6669E-03     263.396E-03
              25     16.6509E-03     58.7272E-03    -4.65111E+06     173.245E+06     84.8192E+06     398.425E+03    -36.8710E-03     63.6892E-03    -26.8182E-03     260.091E-03    -45.6441E-03     72.8148E-03    -26.6386E-03     265.106E-03
              26     17.5274E-03     59.9289E-03    -2.58049E+06     181.553E+06     112.152E+06     769.570E+03    -30.5801E-03     57.5106E-03    -26.9305E-03     202.731E-03    -37.4992E-03     64.7399E-03    -26.6293E-03     210.396E-03
              27     17.5273E-03     60.9277E-03    -3.38624E+06     182.315E+06     112.295E+06     220.615E+03    -30.7545E-03     57.6842E-03    -26.9297E-03     202.314E-03    -37.6613E-03     64.9006E-03    -26.6277E-03     209.947E-03
              28     17.5272E-03     61.9285E-03    -3.16991E+06     182.494E+06     112.402E+06    -119.017E+03    -31.0897E-03     58.0167E-03    -26.9270E-03     201.506E-03    -37.9663E-03     65.2039E-03    -26.6250E-03     209.095E-03
              29     17.5271E-03     62.9282E-03    -2.91421E+06     182.732E+06     112.385E+06     6.48989E+03    -30.9243E-03     57.8530E-03    -26.9287E-03     201.213E-03    -37.7835E-03     65.0246E-03    -26.6275E-03     208.804E-03
              30     17.5275E-03     63.9287E-03    -2.75788E+06     182.886E+06     112.270E+06     60.0891E+03    -30.8351E-03     57.7591E-03    -26.9240E-03     202.191E-03    -37.7204E-03     64.9583E-03    -26.6239E-03     209.797E-03
              31     17.5273E-03     64.9305E-03    -2.68977E+06     183.022E+06     112.604E+06     97.9387E+03    -30.7367E-03     57.6633E-03    -26.9266E-03     203.270E-03    -37.6717E-03     64.9119E-03    -26.6250E-03     210.914E-03
              32     17.5276E-03     65.9293E-03    -2.92205E+06     182.791E+06     112.550E+06     12.8463E+03    -30.7030E-03     57.6336E-03    -26.9306E-03     204.171E-03    -37.6801E-03     64.9229E-03    -26.6287E-03     211.843E-03
              33     17.5272E-03     66.9308E-03    -2.10161E+06     183.588E+06     113.108E+06     706.497E+03    -30.4057E-03     57.3470E-03    -26.9413E-03     204.291E-03    -37.3850E-03     64.6425E-03    -26.6389E-03     211.994E-03
              34     17.5275E-03     67.9289E-03    -3.02588E+06     184.110E+06     112.958E+06     264.263E+03    -29.9238E-03     56.8729E-03    -26.9491E-03     202.435E-03    -36.8378E-03     64.1022E-03    -26.6468E-03     210.141E-03
              35     17.5273E-03     68.9240E-03    -3.12303E+06     183.804E+06     112.450E+06    -383.957E+03    -31.0922E-03     58.0060E-03    -26.9138E-03     200.095E-03    -37.8994E-03     65.1286E-03    -26.6135E-03     207.636E-03
              36     17.5274E-03     69.9299E-03    -2.92446E+06     184.499E+06     112.732E+06     314.275E+03    -31.8443E-03     58.7424E-03    -26.8981E-03     200.336E-03    -38.6622E-03     65.8780E-03    -26.5978E-03     207.810E-03
              37     17.5272E-03     70.9305E-03    -3.26237E+06     185.583E+06     113.066E+06     432.487E+03    -30.9526E-03     57.8782E-03    -26.9256E-03     202.412E-03    -37.8708E-03     65.1157E-03    -26.6246E-03     210.026E-03
              38     17.5274E-03     71.9298E-03    -3.09427E+06     185.770E+06     113.209E+06    -246.689E+03    -30.4833E-03     57.4212E-03    -26.9379E-03     203.070E-03    -37.4256E-03     64.6837E-03    -26.6368E-03     210.737E-03
              39     17.5273E-03     72.9306E-03    -2.59932E+06     184.805E+06     112.732E+06    -348.435E+03    -30.4264E-03     57.3627E-03    -26.9363E-03     203.091E-03    -37.3647E-03     64.6210E-03    -26.6369E-03     210.762E-03
              40     17.5274E-03     73.9288E-03    -2.50116E+06     184.843E+06     112.555E+06     412.460E+03    -30.9169E-03     57.8401E-03    -26.9232E-03     202.637E-03    -37.8386E-03     65.0827E-03    -26.6249E-03     210.271E-03
              41     17.5271E-03     74.9299E-03    -3.40508E+06     186.021E+06     112.880E+06     482.469E+03    -31.2154E-03     58.1316E-03    -26.9162E-03     202.243E-03    -38.1210E-03     65.3581E-03    -26.6166E-03     209.823E-03
              42     17.5276E-03     75.9317E-03    -2.98723E+06     186.489E+06     113.067E+06     68.8314E+03    -30.7894E-03     57.7179E-03    -26.9285E-03     203.247E-03    -37.7430E-03     64.9950E-03    -26.6292E-03     210.904E-03
              43     17.5270E-03     76.9301E-03    -3.12252E+06     186.260E+06     112.829E+06    -67.8194E+03    -30.6319E-03     57.5665E-03    -26.9345E-03     202.919E-03    -37.5738E-03     64.8313E-03    -26.6359E-03     210.587E-03
              44     17.5275E-03     77.9302E-03    -2.35702E+06     186.788E+06     113.088E+06     354.603E+03    -30.3353E-03     57.2720E-03    -26.9367E-03     201.579E-03    -37.2080E-03     64.4715E-03    -26.6387E-03     209.226E-03
              45     17.5273E-03     78.9285E-03    -2.71126E+06     187.752E+06     113.227E+06     380.372E+03    -30.6083E-03     57.5331E-03    -26.9249E-03     201.273E-03    -37.4677E-03     64.7211E-03    -26.6270E-03     208.890E-03
              46     17.5275E-03     79.9296E-03    -3.10475E+06     188.677E+06     113.317E+06     249.760E+03    -31.2511E-03     58.1583E-03    -26.9073E-03     201.485E-03    -38.1220E-03     65.3594E-03    -26.6097E-03     209.036E-03
              47     17.5274E-03     80.9321E-03    -2.82976E+06     189.454E+06     113.291E+06     427.596E+03    -30.9665E-03     57.8826E-03    -26.9160E-03     202.744E-03    -37.9061E-03     65.1561E-03    -26.6202E-03     210.373E-03
              48     17.5273E-03     81.9311E-03    -3.40180E+06     190.393E+06     113.319E+06     528.542E+03    -30.6361E-03     57.5624E-03    -26.9263E-03     203.151E-03    -37.6031E-03     64.8646E-03    -26.6309E-03     210.833E-03
              49     17.5274E-03     82.9306E-03    -3.44984E+06     191.222E+06     113.672E+06     377.608E+03    -30.7186E-03     57.6384E-03    -26.9198E-03     202.781E-03    -37.6570E-03     64.9137E-03    -26.6237E-03     210.431E-03
              50     17.5276E-03     83.9316E-03    -2.88044E+06     191.578E+06     114.128E+06    -9.73534E+03    -30.5908E-03     57.5067E-03    -26.9159E-03     202.962E-03    -37.5314E-03     64.7862E-03    -26.6188E-03     210.612E-03
              51     17.5277E-03     84.9307E-03    -2.98837E+06     190.969E+06     113.879E+06    -387.715E+03    -30.7474E-03     57.6582E-03    -26.9108E-03     203.820E-03    -37.7273E-03     64.9752E-03    -26.6140E-03     211.482E-03
              52     17.5274E-03     85.9327E-03    -2.46897E+06     190.466E+06     113.706E+06     105.111E+03    -30.1722E-03     57.0917E-03    -26.9195E-03     203.612E-03    -37.1335E-03     64.3906E-03    -26.6236E-03     211.299E-03
              53     17.5282E-03     86.9290E-03    -1.90326E+06     190.640E+06     113.694E+06     245.930E+03    -29.5163E-03     56.4309E-03    -26.9146E-03     201.789E-03    -36.3958E-03     63.6508E-03    -26.6198E-03     209.495E-03
              54     17.5281E-03     87.9251E-03    -3.17496E+06     190.689E+06     113.251E+06    -32.0249E+03    -31.2695E-03     58.1241E-03    -26.8546E-03     200.038E-03    -38.0833E-03     65.2753E-03    -26.5603E-03     207.565E-03
              55     17.5283E-03     88.9323E-03    -3.23208E+06     191.738E+06     113.575E+06     525.098E+03    -31.7715E-03     58.6047E-03    -26.8332E-03     200.801E-03    -38.6322E-03     65.8053E-03    -26.5386E-03     208.299E-03
              56     17.5287E-03     89.9316E-03    -2.94972E+06     193.732E+06     114.302E+06     965.950E+03    -30.2744E-03     57.1291E-03    -26.8547E-03     203.157E-03    -37.2370E-03     64.4376E-03    -26.5598E-03     210.856E-03
              57     17.5292E-03     90.9298E-03    -3.00703E+06     195.444E+06     115.040E+06     791.284E+03    -29.8463E-03     56.6803E-03    -26.8340E-03     202.872E-03    -36.7821E-03     63.9657E-03    -26.5378E-03     210.578E-03
              58     17.5300E-03     91.9291E-03    -2.81837E+06     195.932E+06     115.194E+06     169.010E+03    -30.3480E-03     57.1264E-03    -26.7784E-03     201.948E-03    -37.2437E-03     64.3736E-03    -26.4825E-03     209.583E-03
              59     17.5306E-03     92.9282E-03    -3.25620E+06     195.653E+06     115.002E+06    -113.334E+03    -30.8200E-03     57.5359E-03    -26.7158E-03     201.364E-03    -37.6983E-03     64.7637E-03    -26.4198E-03     208.943E-03
              60     17.5320E-03     93.9299E-03    -2.98920E+06     194.996E+06     115.208E+06    -117.225E+03    -30.6129E-03     57.2735E-03    -26.6605E-03     201.445E-03    -37.4904E-03     64.4985E-03    -26.3629E-03     209.037E-03
              61     17.5330E-03     94.9284E-03    -3.33402E+06     194.059E+06     115.425E+06    -324.038E+03    -30.7968E-03     57.3787E-03    -26.5819E-03     201.486E-03    -37.6757E-03     64.6000E-03    -26.2814E-03     209.078E-03
              62     17.5349E-03     95.9284E-03    -2.93986E+06     192.818E+06     116.196E+06    -266.346E+03    -31.3449E-03     57.8245E-03    -26.4796E-03     201.003E-03    -38.2014E-03     65.0181E-03    -26.1739E-03     208.543E-03
              63     17.5364E-03     96.9315E-03    -3.01758E+06     191.439E+06     116.748E+06       -338.E+03    -31.4105E-03     57.7880E-03    -26.3775E-03     201.568E-03    -38.2990E-03     65.0068E-03    -26.0669E-03     209.132E-03
              64     17.5388E-03     97.9290E-03    -2.43879E+06     190.056E+06     117.496E+06    -130.768E+03    -32.1317E-03     58.3834E-03    -26.2517E-03     201.806E-03    -39.0311E-03     65.6081E-03    -25.9362E-03     209.333E-03
              65     17.5402E-03     98.9343E-03    -3.52298E+06     188.009E+06     117.830E+06    -432.630E+03    -33.1336E-03     59.2557E-03    -26.1221E-03     201.393E-03    -40.0389E-03     66.4743E-03    -25.8004E-03     208.836E-03
              66     17.5424E-03     99.9338E-03    -2.96907E+06     185.411E+06     118.292E+06    -840.499E+03    -34.2206E-03     60.2180E-03    -25.9974E-03     200.073E-03    -41.0868E-03     67.3887E-03    -25.6704E-03     207.411E-03
              67     17.5434E-03     100.938E-03    -2.82763E+06     182.740E+06     118.537E+06    -827.189E+03    -35.8424E-03     61.7102E-03    -25.8677E-03     197.892E-03    -42.6285E-03     68.7912E-03    -25.5359E-03     205.028E-03
              68     17.5453E-03     101.944E-03    -2.62391E+06     180.014E+06     118.350E+06    -1.03129E+06    -37.5635E-03     63.3142E-03    -25.7507E-03     197.281E-03    -44.3377E-03     70.3749E-03    -25.4162E-03     204.234E-03
              69     17.5456E-03     102.951E-03    -3.21068E+06     176.216E+06     116.449E+06    -1.76980E+06    -39.2577E-03     64.8916E-03    -25.6339E-03     197.006E-03    -46.0258E-03     71.9362E-03    -25.3025E-03     203.744E-03
              70     17.5478E-03     103.959E-03    -2.64772E+06     171.189E+06     115.293E+06    -1.87974E+06    -41.1221E-03     66.6362E-03    -25.5141E-03     196.082E-03    -47.8498E-03     73.6279E-03    -25.1821E-03     202.564E-03
              71     17.5480E-03     104.969E-03    -3.47190E+06     164.741E+06     112.724E+06    -3.07585E+06    -43.1153E-03     68.5066E-03    -25.3913E-03     193.943E-03    -49.7808E-03     75.4177E-03    -25.0615E-03     200.075E-03
              72     17.5500E-03     105.981E-03    -1.29315E+06     158.894E+06     112.460E+06    -1.97094E+06    -47.3018E-03     72.5337E-03    -25.2319E-03     195.861E-03    -54.0054E-03     79.4714E-03    -24.8982E-03     201.552E-03
              73     17.5501E-03     107.006E-03    -4.97018E+06     151.452E+06     110.600E+06    -3.89257E+06    -54.4773E-03     79.4981E-03    -25.0208E-03     204.240E-03    -61.5171E-03     86.7390E-03    -24.6802E-03     209.333E-03
              74     17.5516E-03     108.040E-03    -2.58029E+06     143.848E+06     113.373E+06    -1.70566E+06    -62.5107E-03     87.3641E-03    -24.8534E-03     215.168E-03    -69.9965E-03     95.0246E-03    -24.4913E-03     219.677E-03
              75     17.5493E-03     109.078E-03    -7.74465E+06     137.740E+06     115.857E+06     1.58099E+06    -68.2582E-03     93.0319E-03    -24.7737E-03     225.356E-03    -76.1296E-03     101.031E-03    -24.3829E-03     229.333E-03
              76     17.5516E-03     110.119E-03    -1.78482E+06     132.615E+06     99.8737E+06    -1.60690E+06    -62.3909E-03     87.1422E-03    -24.7513E-03     232.294E-03    -70.1357E-03     95.0628E-03    -24.4416E-03     236.019E-03
              77     17.5567E-03     111.137E-03     17.3747E+06     118.088E+06     98.4530E+06    -13.7214E+06    -70.8401E-03     95.3191E-03    -24.4791E-03     266.605E-03    -79.3689E-03     104.056E-03    -24.1832E-03     269.025E-03
              78     17.5545E-03     112.219E-03    -9.43807E+06     103.048E+06     97.6413E+06    -5.11209E+06    -90.8016E-03     114.876E-03    -24.0740E-03     294.883E-03    -100.166E-03     124.308E-03    -23.7215E-03     294.842E-03
              79     17.5574E-03     113.285E-03    -26.2564E+06     83.8763E+06     58.1507E+06    -7.53499E+06    -77.9463E-03     102.196E-03    -24.2499E-03     312.415E-03    -86.6010E-03     110.893E-03    -24.0427E-03     312.168E-03
              80     17.5596E-03     114.284E-03    -1.85260E+06     37.6362E+06     20.7506E+06    -28.3977E+06    -36.9131E-03     61.9930E-03    -25.0799E-03     310.565E-03    -42.3577E-03     67.5139E-03    -25.0280E-03     311.333E-03
              81     17.5589E-03     115.213E-03     5.44953E+06     6.18494E+06     13.8906E+06    -9.29370E+06     5.80262E-03     22.0855E-03    -27.8882E-03     215.535E-03     4.37161E-03     23.5209E-03    -27.8356E-03     216.092E-03
              82     17.4198E-03     116.111E-03     2.89419E+06    -4.88612E+06     8.51355E+06     4.23333E+06     22.4029E-03     13.1904E-03    -35.5933E-03     72.3574E-03     22.3366E-03     13.2020E-03    -35.5478E-03     72.4591E-03
              83     16.2857E-03     116.811E-03     799.443E+03     15.8463E+06     37.7119E+06     1.68034E+06     16.6342E-03     25.2491E-03    -41.8833E-03     12.2797E-03     16.5504E-03     25.2625E-03    -41.7188E-03     12.3012E-03
              84     15.3997E-03     116.595E-03    -9.49086E+06     8.70424E+06     67.2712E+06    -3.13602E+06    -8.68590E-03     51.5596E-03    -42.8737E-03     20.4356E-03    -8.85612E-03     51.5122E-03    -42.5362E-03     20.3744E-03
              85     14.5607E-03     116.356E-03     8.59506E+06    -14.0174E+06     59.1870E+06    -9.34241E+06    -33.1608E-03     75.5743E-03    -42.4135E-03     6.06781E-03    -33.2084E-03     75.3867E-03    -42.1098E-03     5.90217E-03
              86     13.7341E-03     116.157E-03     21.1924E+06    -8.83239E+06     63.9272E+06    -739.331E+03    -37.4867E-03     78.8644E-03    -41.3777E-03    -9.58499E-03    -37.4819E-03     78.6754E-03    -41.0760E-03    -9.64229E-03
              87     12.8935E-03     116.001E-03     17.0887E+06     2.77612E+06     71.1688E+06     2.90527E+06    -41.5410E-03     81.9203E-03    -40.3792E-03    -15.4844E-03    -41.5749E-03     81.7915E-03    -40.0522E-03    -15.4953E-03
              88     12.0539E-03     115.869E-03     17.9855E+06     890.256E+03     65.5660E+06    -2.34775E+06    -45.7542E-03     84.9711E-03    -39.2169E-03    -18.1662E-03    -45.7696E-03     84.8416E-03    -38.9165E-03    -18.2460E-03
              89     11.2122E-03     115.758E-03     20.7767E+06    -3.61781E+06     63.3775E+06    -1.36729E+06    -47.5107E-03     85.4322E-03    -37.9215E-03    -17.4257E-03    -47.5000E-03     85.2820E-03    -37.6295E-03    -17.4902E-03
              90     10.3679E-03     115.661E-03     22.2254E+06     470.964E+03     61.6310E+06    -796.775E+03    -46.8502E-03     83.4157E-03    -36.5655E-03    -15.2803E-03    -46.8344E-03     83.2884E-03    -36.2903E-03    -15.3323E-03
              91     9.51969E-03     115.579E-03     22.6619E+06    -748.308E+03     59.1716E+06    -786.248E+03    -44.5841E-03     79.8576E-03    -35.2735E-03    -12.6050E-03    -44.5597E-03     79.7289E-03    -35.0094E-03    -12.6495E-03
              92     8.66679E-03     115.508E-03     23.9015E+06     1.31242E+06     57.5675E+06    -1.95997E+06    -41.8202E-03     75.9315E-03    -34.1114E-03    -10.1270E-03    -41.7896E-03     75.8152E-03    -33.8601E-03    -10.1791E-03
              93     7.80987E-03     115.448E-03     25.7807E+06    -1.29627E+06     55.1820E+06    -1.99631E+06    -39.2774E-03     72.3765E-03    -33.0991E-03    -8.11857E-03    -39.2295E-03     72.2490E-03    -32.8587E-03    -8.16503E-03
              94     6.94933E-03     115.397E-03     27.3030E+06     387.135E+03     53.6202E+06    -1.67112E+06    -36.9632E-03     69.1898E-03    -32.2265E-03    -6.47192E-03    -36.9075E-03     69.0714E-03    -31.9986E-03    -6.50945E-03
              95     6.08603E-03     115.355E-03     28.2650E+06    -834.456E+03     48.3069E+06    -1.25663E+06    -34.9179E-03     66.3967E-03    -31.4787E-03    -5.12634E-03    -34.8476E-03     66.2791E-03    -31.2770E-03    -5.15488E-03
              96     5.22010E-03     115.319E-03     29.0019E+06     684.695E+03     43.8412E+06    -1.17060E+06    -33.2489E-03     64.1115E-03    -30.8626E-03    -4.08376E-03    -33.1703E-03     64.0072E-03    -30.6864E-03    -4.10844E-03
              97     4.35252E-03     115.290E-03     29.8978E+06    -354.773E+03     42.0751E+06    -1.50038E+06    -31.9291E-03     62.3099E-03    -30.3808E-03    -3.26616E-03    -31.8418E-03     62.2019E-03    -30.2133E-03    -3.29295E-03
              98     3.48333E-03     115.266E-03     30.8499E+06     8.31825E+03     39.2679E+06    -1.39927E+06    -30.9188E-03     60.9166E-03    -29.9978E-03    -2.59005E-03    -30.8231E-03     60.8133E-03    -29.8462E-03    -2.61375E-03
              99     2.61328E-03     115.248E-03     31.9599E+06    -414.499E+03     35.9739E+06    -1.28896E+06    -30.1683E-03     59.8826E-03    -29.7143E-03    -2.02325E-03    -30.0616E-03     59.7804E-03    -29.5802E-03    -2.04400E-03
             100     1.74231E-03     115.234E-03     33.0045E+06    -272.118E+03     34.1695E+06    -1.07624E+06    -29.6706E-03     59.2121E-03    -29.5416E-03    -1.51119E-03    -29.5562E-03     59.1118E-03    -29.4182E-03    -1.52782E-03
             101     871.056E-06     115.227E-03     35.0416E+06    -520.113E+03     33.2103E+06    -1.55313E+06    -29.2448E-03     58.9419E-03    -29.6970E-03    -1.06970E-03    -29.1185E-03     58.8388E-03    -29.5810E-03    -1.09124E-03
             102     470.500E-09     114.217E-03     29.6291E+06    -2.91699E+06     29.0572E+06    -679.217E+03    -26.4764E-03     53.2017E-03    -26.7253E-03    -6.27164E-06    -26.3672E-03     53.1010E-03    -26.6187E-03    -16.0623E-06
             103    -97.3145E-09     113.223E-03     18.0176E+06    -6.49525E+06     19.3920E+06    -381.766E+03    -21.9186E-03     43.6060E-03    -21.6875E-03     1.05096E-03    -21.8476E-03     43.5189E-03    -21.6072E-03     1.04492E-03
             104     151.420E-09     112.237E-03     4.15253E+06    -10.5674E+06     4.46295E+06    -2.05304E+06    -18.5668E-03     37.0820E-03    -18.5152E-03     1.52960E-03    -18.5373E-03     37.0166E-03    -18.4836E-03     1.50217E-03
             105    -109.369E-09     111.255E-03    -15.2155E+06    -17.9019E+06    -14.7894E+06    -2.42352E+06    -16.4347E-03     32.8385E-03    -16.4038E-03     2.08520E-03    -16.4633E-03     32.7925E-03    -16.4297E-03     2.05327E-03
             106     125.719E-09     110.277E-03    -36.9286E+06    -26.1541E+06    -36.6527E+06    -2.82284E+06    -15.2266E-03     30.4573E-03    -15.2307E-03     2.51078E-03    -15.3201E-03     30.4333E-03    -15.3225E-03     2.47392E-03
             107    -149.006E-09     109.300E-03    -59.4501E+06    -34.3152E+06    -59.4728E+06    -2.23218E+06    -14.7332E-03     29.4814E-03    -14.7482E-03     2.83275E-03    -14.8943E-03     29.4824E-03    -14.9096E-03     2.80367E-03
             108     141.616E-09     108.324E-03    -82.7497E+06     -42.806E+06    -82.0870E+06    -2.77529E+06    -14.7413E-03     29.4882E-03    -14.7469E-03     3.06017E-03    -14.9739E-03     29.5133E-03    -14.9753E-03     3.02420E-03
             109    -140.895E-09     107.347E-03    -97.9740E+06    -50.2575E+06    -99.5451E+06    -1.48465E+06    -15.0927E-03     30.1882E-03    -15.0954E-03     3.19829E-03    -15.3653E-03     30.2234E-03    -15.3782E-03     3.17906E-03
             110     112.799E-09     106.369E-03    -81.2873E+06    -46.3855E+06    -82.9151E+06     3.85287E+06    -15.7838E-03     31.5803E-03    -15.7965E-03     3.30015E-03    -16.0027E-03     31.5866E-03    -16.0260E-03     3.34987E-03
             111    -130.774E-09     105.390E-03    -47.3356E+06    -27.5563E+06    -47.8103E+06     7.58161E+06    -16.7723E-03     33.5613E-03    -16.7889E-03     3.39909E-03    -16.8997E-03     33.5615E-03    -16.9194E-03     3.49697E-03
             112     108.658E-09     104.408E-03    -25.5432E+06    -4.50327E+06    -24.0413E+06     6.19025E+06    -17.9704E-03     35.9508E-03    -17.9804E-03     3.51708E-03    -18.0567E-03     36.0003E-03    -18.0570E-03     3.59699E-03
             113    -92.4674E-09     103.424E-03    -9.43305E+06     8.62825E+06    -8.23494E+06     1.73343E+06    -19.2996E-03     38.6062E-03    -19.3066E-03     3.61290E-03    -19.3473E-03     38.6750E-03    -19.3466E-03     3.63521E-03
             114     72.1487E-09     102.436E-03     1.83289E+06     10.0230E+06     2.20449E+06    -887.056E+03    -20.6255E-03     41.2568E-03    -20.6313E-03     3.66161E-03    -20.6341E-03     41.3011E-03    -20.6374E-03     3.64997E-03
             115    -63.3127E-09     101.447E-03     7.18128E+06     5.04505E+06     7.40894E+06    -2.05448E+06    -21.8421E-03     43.6887E-03    -21.8466E-03     3.64912E-03    -21.8243E-03     43.6928E-03    -21.8273E-03     3.62225E-03
             116     43.6116E-09     100.455E-03     9.19036E+06    -2.49183E+06     9.12190E+06    -2.40995E+06    -22.9141E-03     45.8303E-03    -22.9162E-03     3.62132E-03    -22.8777E-03     45.7914E-03    -22.8803E-03     3.58969E-03
             117    -34.1026E-09     99.4615E-03     8.51912E+06    -10.9237E+06     8.53700E+06    -2.55669E+06    -23.8208E-03     47.6519E-03    -23.8311E-03     3.58175E-03    -23.7748E-03     47.5726E-03    -23.7849E-03     3.54804E-03
             118     1.25572E-09     98.4659E-03     6.00701E+06    -19.9382E+06     6.07333E+06    -2.77965E+06    -24.5752E-03     49.1587E-03    -24.5835E-03     3.55617E-03    -24.5251E-03     49.0416E-03    -24.5329E-03     3.51939E-03
             119     12.2863E-09     97.4695E-03     3.91949E+06    -29.7605E+06     3.88266E+06    -3.00584E+06    -25.1977E-03     50.3959E-03    -25.1982E-03     3.53137E-03    -25.1406E-03     50.2359E-03    -25.1413E-03     3.49148E-03
             120    -32.5903E-09     96.4716E-03     39.9143E+03    -38.9786E+06    -331.246E+03    -2.37814E+06    -25.6765E-03     51.3581E-03    -25.6817E-03     3.50046E-03    -25.6193E-03     51.1638E-03    -25.6268E-03     3.46853E-03
             121     34.0835E-09     95.4733E-03    -4.28981E+06    -46.3476E+06    -4.24020E+06    -1.98184E+06    -26.0384E-03     52.0892E-03    -26.0508E-03     3.46863E-03    -25.9865E-03     51.8700E-03    -25.9986E-03     3.44172E-03
             122    -62.1380E-09     94.4740E-03    -7.72506E+06    -53.2576E+06    -7.78032E+06    -2.02332E+06    -26.3129E-03     52.6376E-03    -26.3247E-03     3.44007E-03    -26.2630E-03     52.3939E-03    -26.2752E-03     3.41254E-03
             123     63.3415E-09     93.4747E-03    -12.6719E+06    -60.1178E+06    -12.6957E+06    -2.00686E+06    -26.5129E-03     53.0305E-03    -26.5176E-03     3.42612E-03    -26.4707E-03     52.7668E-03    -26.4755E-03     3.39873E-03
             124    -78.2378E-09     92.4747E-03    -15.6525E+06    -66.6311E+06    -15.7746E+06    -1.78487E+06    -26.6543E-03     53.3134E-03    -26.6590E-03     3.41916E-03    -26.6131E-03     53.0259E-03    -26.6186E-03     3.39457E-03
             125     78.1139E-09     91.4748E-03    -18.6694E+06    -73.0129E+06    -18.4894E+06    -1.95980E+06    -26.7516E-03     53.5058E-03    -26.7542E-03     3.41603E-03    -26.7123E-03     53.1947E-03    -26.7137E-03     3.38914E-03
             126    -85.7811E-09     90.4745E-03    -20.8964E+06    -79.5995E+06    -21.1642E+06    -1.86370E+06    -26.8140E-03     53.6320E-03    -26.8180E-03     3.40632E-03    -26.7724E-03     53.2952E-03    -26.7781E-03     3.38064E-03
             127     78.0894E-09     89.4744E-03    -23.3802E+06    -85.7048E+06    -23.2149E+06    -1.73665E+06    -26.8595E-03     53.7232E-03    -26.8637E-03     3.39854E-03    -26.8184E-03     53.3624E-03    -26.8216E-03     3.37449E-03
             128    -81.2701E-09     88.4741E-03    -24.5299E+06    -91.2686E+06    -24.8780E+06    -1.47688E+06    -26.8864E-03     53.7802E-03    -26.8938E-03     3.39395E-03    -26.8406E-03     53.3957E-03    -26.8503E-03     3.37324E-03
             129     62.1459E-09     87.4738E-03    -26.5578E+06    -95.3336E+06    -26.5111E+06    -929.978E+03    -26.8960E-03     53.7957E-03    -26.8997E-03     3.39755E-03    -26.8521E-03     53.3962E-03    -26.8555E-03     3.38391E-03
             130    -54.2815E-09     86.4735E-03    -27.9380E+06    -98.5416E+06    -27.9984E+06    -917.869E+03    -26.8966E-03     53.7941E-03    -26.8975E-03     3.40613E-03    -26.8528E-03     53.3827E-03    -26.8541E-03     3.39265E-03
             131     38.7855E-09     85.4732E-03    -28.2491E+06    -101.557E+06    -28.2121E+06    -851.533E+03    -26.9034E-03     53.7993E-03    -26.8959E-03     3.40538E-03    -26.8565E-03     53.3735E-03    -26.8487E-03     3.39276E-03
             132    -14.9461E-09     84.4730E-03    -28.5882E+06    -104.502E+06    -28.6461E+06    -866.195E+03    -26.9065E-03     53.8006E-03    -26.8940E-03     3.41240E-03    -26.8564E-03     53.3612E-03    -26.8443E-03     3.39958E-03
             133     7.01687E-09     83.4727E-03    -28.3173E+06    -107.048E+06    -28.3717E+06    -638.628E+03    -26.8967E-03     53.7986E-03    -26.9019E-03     3.41484E-03    -26.8420E-03     53.3457E-03    -26.8475E-03     3.40496E-03
             134    -14.1262E-09     82.4725E-03    -28.2711E+06    -109.595E+06    -28.1010E+06    -858.150E+03    -26.8994E-03     53.7943E-03    -26.8949E-03     3.40553E-03    -26.8411E-03     53.3282E-03    -26.8355E-03     3.39282E-03
             135     25.6477E-09     81.4723E-03    -28.6284E+06    -112.063E+06    -28.9454E+06    -572.272E+03    -26.8926E-03     53.7847E-03    -26.8921E-03     3.41707E-03    -26.8313E-03     53.3080E-03    -26.8328E-03     3.40806E-03
             136    -45.2507E-09     80.4721E-03    -28.4679E+06    -113.554E+06    -28.3148E+06    -296.951E+03    -26.8849E-03     53.7861E-03    -26.9012E-03     3.40793E-03    -26.8215E-03     53.3008E-03    -26.8368E-03     3.40249E-03
             137     32.7112E-09     79.4719E-03    -27.0565E+06    -114.732E+06    -27.1575E+06    -375.872E+03    -26.8973E-03     53.7899E-03    -26.8927E-03     3.40050E-03    -26.8268E-03     53.2950E-03    -26.8229E-03     3.39405E-03
             138    -18.5518E-09     78.4718E-03    -26.8510E+06    -115.683E+06    -26.8779E+06    -183.718E+03    -26.8874E-03     53.7842E-03    -26.8968E-03     3.40423E-03    -26.8150E-03     53.2839E-03    -26.8245E-03     3.40026E-03
             139    -17.7126E-09     77.4716E-03    -26.5765E+06    -116.085E+06    -26.6222E+06    -62.8458E+03    -26.8815E-03     53.7833E-03    -26.9018E-03     3.39082E-03    -26.8075E-03     53.2802E-03    -26.8280E-03     3.38842E-03
             140     12.6121E-09     76.4714E-03    -26.4722E+06    -116.266E+06    -26.4508E+06    -31.9730E+03    -26.8868E-03     53.7763E-03    -26.8895E-03     3.40134E-03    -26.8122E-03     53.2719E-03    -26.8148E-03     3.39933E-03
             141    -17.5199E-09     75.4713E-03    -26.2355E+06    -116.331E+06    -26.2978E+06        -443.902    -26.8745E-03     53.7608E-03    -26.8863E-03     3.40713E-03    -26.7989E-03     53.2555E-03    -26.8111E-03     3.40553E-03
             142    -4.31333E-09     74.4712E-03    -26.1288E+06    -116.391E+06    -26.0975E+06    -18.2356E+03    -26.8591E-03     53.7509E-03    -26.8918E-03     3.40580E-03    -26.7831E-03     53.2448E-03    -26.8156E-03     3.40396E-03
             143    -36.1642E-09     73.4710E-03    -25.8524E+06    -116.381E+06    -25.9360E+06     14.9376E+03    -26.8712E-03     53.7453E-03    -26.8741E-03     3.40154E-03    -26.7941E-03     53.2386E-03    -26.7975E-03     3.40015E-03
             144     65.2422E-09     72.4709E-03    -25.6358E+06    -116.191E+06    -25.5848E+06     117.142E+03    -26.9109E-03     53.7414E-03    -26.8305E-03     3.41121E-03    -26.8335E-03     53.2349E-03    -26.7527E-03     3.41113E-03
             145     41.8867E-09     71.4707E-03    -25.3789E+06    -115.872E+06    -25.3303E+06     88.8236E+03    -26.9038E-03     53.7355E-03    -26.8316E-03     3.43290E-03    -26.8260E-03     53.2298E-03    -26.7535E-03     3.43243E-03
             146    -27.3839E-09     70.4707E-03    -25.1626E+06    -115.609E+06    -25.2151E+06     52.8056E+03    -26.8477E-03     53.7303E-03    -26.8825E-03     3.41851E-03    -26.7693E-03     53.2254E-03    -26.8045E-03     3.41760E-03
             147    -54.1142E-09     69.4705E-03    -25.0813E+06    -115.458E+06    -25.0375E+06     23.9478E+03    -26.8416E-03     53.7387E-03    -26.8972E-03     3.39053E-03    -26.7632E-03     53.2343E-03    -26.8186E-03     3.38927E-03
             148     33.2875E-09     68.4704E-03    -24.8571E+06    -115.318E+06    -24.8763E+06     29.7918E+03    -26.8794E-03     53.7492E-03    -26.8698E-03     3.39698E-03    -26.8004E-03     53.2449E-03    -26.7909E-03     3.39579E-03
             149    -1.11257E-09     67.4703E-03    -24.7490E+06    -115.231E+06    -24.7461E+06     35.5960E+03    -26.8803E-03     53.7446E-03    -26.8643E-03     3.40349E-03    -26.8011E-03     53.2404E-03    -26.7850E-03     3.40237E-03
             150    -8.18000E-09     66.4702E-03    -24.5428E+06    -115.043E+06    -24.5382E+06     60.8388E+03    -26.8670E-03     53.7461E-03    -26.8791E-03     3.38812E-03    -26.7873E-03     53.2422E-03    -26.7994E-03     3.38733E-03
             151    -8.94898E-09     65.4700E-03    -24.4209E+06    -114.910E+06    -24.4525E+06     19.5424E+03    -26.8660E-03     53.7498E-03    -26.8837E-03     3.39961E-03    -26.7861E-03     53.2462E-03    -26.8039E-03     3.39828E-03
             152    -10.5875E-09     64.4699E-03    -24.3532E+06    -114.793E+06    -24.3199E+06     43.2512E+03    -26.8637E-03     53.7361E-03    -26.8724E-03     3.42722E-03    -26.7838E-03     53.2328E-03    -26.7922E-03     3.42617E-03
             153     9.90237E-09     63.4697E-03    -24.1904E+06    -114.632E+06    -24.1863E+06     47.1457E+03    -26.8519E-03     53.7137E-03    -26.8618E-03     3.44793E-03    -26.7716E-03     53.2108E-03    -26.7814E-03     3.44691E-03
             154    -31.9482E-09     62.4697E-03    -24.1352E+06    -114.532E+06    -24.1335E+06     31.7012E+03    -26.8302E-03     53.6920E-03    -26.8618E-03     3.43451E-03    -26.7498E-03     53.1895E-03    -26.7814E-03     3.43329E-03
             155    -6.81303E-09     61.4696E-03    -24.0612E+06    -114.441E+06    -24.0346E+06     40.9384E+03    -26.8436E-03     53.6832E-03    -26.8396E-03     3.41075E-03    -26.7631E-03     53.1809E-03    -26.7589E-03     3.40969E-03
             156     47.6362E-09     60.4696E-03    -24.0613E+06    -114.416E+06    -24.0306E+06    -34.0525E+03    -26.8717E-03     53.6765E-03    -26.8048E-03     3.40741E-03    -26.7912E-03     53.1743E-03    -26.7241E-03     3.40538E-03
             157     23.7753E-09     59.4695E-03    -23.9772E+06    -114.342E+06    -23.9838E+06     1.97148E+03    -26.8629E-03     53.6623E-03    -26.7994E-03     3.37609E-03    -26.7822E-03     53.1603E-03    -26.7188E-03     3.37455E-03
             158     10.6991E-09     58.4696E-03    -24.0211E+06    -114.342E+06    -24.0351E+06     42.2997E+03    -26.8350E-03     53.6648E-03    -26.8299E-03     3.34283E-03    -26.7544E-03     53.1630E-03    -26.7494E-03     3.34184E-03
             159    -23.4694E-09     56.4693E-03    -23.9246E+06    -114.225E+06    -23.9861E+06     19.3412E+03    -26.8259E-03     53.6924E-03    -26.8665E-03     3.40343E-03    -26.7451E-03     53.1909E-03    -26.7861E-03     3.40210E-03
             160     11.2951E-09     55.4692E-03    -23.9553E+06    -114.139E+06    -23.8616E+06     29.3385E+03    -26.8501E-03     53.6954E-03    -26.8453E-03     3.45040E-03    -26.7698E-03     53.1942E-03    -26.7643E-03     3.44914E-03
             161     5.01541E-09     54.4692E-03    -23.7516E+06    -114.031E+06    -23.8595E+06     34.1190E+03    -26.8481E-03     53.6812E-03    -26.8330E-03     3.41572E-03    -26.7670E-03     53.1802E-03    -26.7526E-03     3.41455E-03
             162    -1.48220E-09     53.4691E-03    -23.7460E+06    -113.897E+06    -23.6884E+06     51.1418E+03    -26.8300E-03     53.6720E-03    -26.8420E-03     3.36338E-03    -26.7492E-03     53.1714E-03    -26.7608E-03     3.36248E-03
             163    -27.6334E-09     52.4691E-03    -23.6869E+06    -113.836E+06    -23.6659E+06    -38.4689E+03    -26.8416E-03     53.6802E-03    -26.8386E-03     3.34106E-03    -26.7607E-03     53.1799E-03    -26.7575E-03     3.33903E-03
             164     57.2526E-09     51.4689E-03    -23.6765E+06    -113.814E+06    -23.7327E+06     31.3040E+03    -26.8565E-03     53.6691E-03    -26.8126E-03     3.38695E-03    -26.7755E-03     53.1690E-03    -26.7319E-03     3.38577E-03
             165    -15.8082E-09     50.4690E-03    -23.7726E+06    -113.797E+06    -23.6855E+06    -19.4305E+03    -26.8160E-03     53.6394E-03    -26.8234E-03     3.40183E-03    -26.7355E-03     53.1394E-03    -26.7424E-03     3.39998E-03
             166    -42.9884E-09     49.4689E-03    -23.7475E+06    -113.855E+06    -23.8457E+06    -22.8182E+03    -26.7719E-03     53.5932E-03    -26.8212E-03     3.34352E-03    -26.6910E-03     53.0931E-03    -26.7409E-03     3.34168E-03
             167     9.11667E-09     48.4690E-03    -23.9199E+06    -113.880E+06    -23.8721E+06         618.711    -26.7864E-03     53.5649E-03    -26.7785E-03     3.32420E-03    -26.7063E-03     53.0649E-03    -26.6980E-03     3.32268E-03
             168     34.0835E-09     47.4691E-03    -23.8611E+06    -113.842E+06    -23.8608E+06    -35.3272E+03    -26.8055E-03     53.5599E-03    -26.7544E-03     3.31855E-03    -26.7251E-03     53.0600E-03    -26.6740E-03     3.31657E-03
             169     7.17287E-09     46.4691E-03    -23.8589E+06    -113.851E+06    -23.8700E+06     15.3956E+03    -26.7495E-03     53.4983E-03    -26.7488E-03     3.32963E-03    -26.6692E-03     52.9984E-03    -26.6684E-03     3.32829E-03
             170    -52.2737E-09     45.4693E-03    -23.8551E+06    -113.791E+06    -23.8692E+06        -522.995    -26.6787E-03     53.4214E-03    -26.7426E-03     3.34318E-03    -26.5984E-03     52.9218E-03    -26.6624E-03     3.34162E-03
             171    -19.9170E-09     44.4696E-03    -23.8096E+06    -113.731E+06    -23.8353E+06     9.90289E+03    -26.6700E-03     53.3818E-03    -26.7119E-03     3.33051E-03    -26.5896E-03     52.8824E-03    -26.6316E-03     3.32910E-03
             172     13.2363E-09     43.4697E-03    -23.8197E+06    -113.682E+06    -23.8381E+06     29.6118E+03    -26.6491E-03     53.2916E-03    -26.6425E-03     3.34057E-03    -26.5688E-03     52.7924E-03    -26.5623E-03     3.33941E-03
             173    -245.801E-12     42.4702E-03    -23.8761E+06    -113.656E+06    -23.8427E+06     11.0229E+03    -26.5896E-03     53.1606E-03    -26.5710E-03     3.32869E-03    -26.5096E-03     52.6617E-03    -26.4908E-03     3.32731E-03
             174     15.1547E-09     41.4707E-03    -23.8644E+06    -113.661E+06    -23.8868E+06     1.85476E+03    -26.5356E-03     53.0495E-03    -26.5138E-03     3.29335E-03    -26.4555E-03     52.5506E-03    -26.4338E-03     3.29187E-03
             175     2.95250E-09     40.4713E-03    -23.8220E+06    -113.544E+06    -23.8191E+06     25.9921E+03    -26.4708E-03     52.9307E-03    -26.4599E-03     3.29675E-03    -26.3907E-03     52.4322E-03    -26.3799E-03     3.29558E-03
             176    -7.05101E-09     39.4720E-03    -23.7648E+06    -113.436E+06    -23.7905E+06     6.16547E+03    -26.3853E-03     52.7752E-03    -26.3899E-03     3.25752E-03    -26.3051E-03     52.2771E-03    -26.3099E-03     3.25611E-03
             177    -2.11798E-09     38.4730E-03    -23.7794E+06    -113.368E+06    -23.8245E+06     70.6578E+03    -26.3145E-03     52.5973E-03    -26.2829E-03     3.15680E-03    -26.2344E-03     52.0997E-03    -26.2031E-03     3.15631E-03
             178     61.5849E-09     37.4742E-03    -23.7471E+06    -113.171E+06    -23.6737E+06     77.7992E+03    -26.2559E-03     52.4182E-03    -26.1623E-03     3.10532E-03    -26.1762E-03     51.9212E-03    -26.0821E-03     3.10497E-03
             179     39.4587E-09     36.4754E-03    -23.6229E+06    -113.005E+06    -23.6452E+06     34.1850E+03    -26.1074E-03     52.1835E-03    -26.0761E-03     3.11245E-03    -26.0274E-03     51.6872E-03    -25.9962E-03     3.11152E-03
             180    -90.3508E-09     35.4770E-03    -23.5368E+06    -112.790E+06    -23.5853E+06     70.6619E+03    -25.8992E-03     51.8842E-03    -25.9850E-03     3.04444E-03    -25.8191E-03     51.3887E-03    -25.9053E-03     3.04403E-03
             181    -14.1361E-09     34.4790E-03    -23.5354E+06    -112.621E+06    -23.5345E+06     49.7453E+03    -25.7435E-03     51.5898E-03    -25.8462E-03     2.99659E-03    -25.6638E-03     51.0951E-03    -25.7665E-03     2.99594E-03
             182    -65.6580E-09     33.4810E-03    -23.5013E+06    -112.434E+06    -23.5473E+06     23.5973E+03    -25.5986E-03     51.2671E-03    -25.6685E-03     2.99398E-03    -25.5189E-03     50.7733E-03    -25.5891E-03     2.99299E-03
             183     18.1651E-09     32.4836E-03    -23.4820E+06    -112.201E+06    -23.5030E+06     71.5363E+03    -25.4298E-03     50.8835E-03    -25.4537E-03     3.02236E-03    -25.3504E-03     50.3907E-03    -25.3745E-03     3.02195E-03
             184    -17.0866E-09     31.4864E-03    -23.3968E+06    -111.906E+06    -23.4129E+06     104.288E+03    -25.2327E-03     50.4443E-03    -25.2116E-03     3.03333E-03    -25.1535E-03     49.9528E-03    -25.1325E-03     3.03334E-03
             185     48.5816E-09     30.4899E-03    -23.2886E+06    -111.505E+06    -23.2899E+06     89.4628E+03    -24.9749E-03     49.9388E-03    -24.9639E-03     3.00585E-03    -24.8959E-03     49.4489E-03    -24.8849E-03     3.00569E-03
             186    -64.8924E-09     29.4938E-03    -23.1060E+06    -111.061E+06    -23.1494E+06     160.158E+03    -24.6905E-03     49.3999E-03    -24.7094E-03     2.91574E-03    -24.6115E-03     48.9118E-03    -24.6306E-03     2.91655E-03
             187     43.7476E-09     28.4984E-03    -22.9271E+06    -110.542E+06    -22.9353E+06     196.423E+03    -24.3968E-03     48.8025E-03    -24.4057E-03     2.82288E-03    -24.3179E-03     48.3165E-03    -24.3269E-03     2.82423E-03
             188    -42.1079E-09     27.5034E-03    -22.7865E+06    -110.012E+06    -22.8015E+06     170.775E+03    -24.0605E-03     48.1271E-03    -24.0665E-03     2.75905E-03    -23.9819E-03     47.6433E-03    -23.9880E-03     2.76010E-03
             189     26.3077E-09     26.5094E-03    -22.5715E+06    -109.370E+06    -22.5970E+06     192.296E+03    -23.7010E-03     47.3998E-03    -23.6988E-03     2.65607E-03    -23.6225E-03     46.9186E-03    -23.6204E-03     2.65745E-03
             190    -10.0144E-09     25.5159E-03    -22.3839E+06    -108.658E+06    -22.3891E+06     209.404E+03    -23.3115E-03     46.6098E-03    -23.2983E-03     2.58001E-03    -23.2334E-03     46.1316E-03    -23.2202E-03     2.58166E-03
             191     13.8794E-09     24.5234E-03    -22.2268E+06    -107.941E+06    -22.2853E+06     220.458E+03    -22.8544E-03     45.7255E-03    -22.8711E-03     2.49007E-03    -22.7767E-03     45.2505E-03    -22.7938E-03     2.49192E-03
             192    -50.6637E-09     23.5316E-03    -21.9397E+06    -106.984E+06    -22.0233E+06     359.204E+03    -22.3770E-03     44.7586E-03    -22.3816E-03     2.37211E-03    -22.2996E-03     44.2875E-03    -22.3047E-03     2.37582E-03
             193     75.9684E-09     22.5411E-03    -21.4576E+06    -105.637E+06    -21.4427E+06     465.934E+03    -21.8850E-03     43.7263E-03    -21.8413E-03     2.25738E-03    -21.8080E-03     43.2604E-03    -21.7642E-03     2.26254E-03
             194    -26.4099E-09     21.5513E-03    -20.8991E+06    -104.098E+06    -20.9305E+06     429.715E+03    -21.3257E-03     42.6054E-03    -21.2797E-03     2.10414E-03    -21.2489E-03     42.1457E-03    -21.2031E-03     2.10888E-03
             195     55.6044E-09     20.5631E-03    -20.5571E+06    -102.619E+06    -20.5077E+06     350.811E+03    -20.7165E-03     41.4155E-03    -20.6990E-03     1.92969E-03    -20.6407E-03     40.9621E-03    -20.6230E-03     1.93348E-03
             196    -55.0550E-09     19.5757E-03    -19.7565E+06    -101.164E+06    -19.9377E+06     507.911E+03    -20.0623E-03     40.1591E-03    -20.0968E-03     1.79071E-03    -19.9855E-03     39.7110E-03    -20.0211E-03     1.79659E-03
             197    -9.68508E-09     18.5898E-03    -18.2625E+06    -99.0370E+06    -18.4152E+06     811.764E+03    -19.3900E-03     38.8063E-03    -19.4163E-03     1.59850E-03    -19.3110E-03     38.3644E-03    -19.3383E-03     1.60838E-03
             198     25.3188E-09     17.6052E-03    -16.7850E+06    -96.4658E+06    -16.7130E+06     765.491E+03    -18.6833E-03     37.3672E-03    -18.6839E-03     1.36763E-03    -18.6031E-03     36.9335E-03    -18.6033E-03     1.37699E-03
             199    -41.9889E-09     16.6223E-03    -15.2920E+06    -93.5763E+06    -15.3682E+06     799.993E+03    -17.9948E-03     35.9091E-03    -17.9142E-03     1.15602E-03    -17.9133E-03     35.4858E-03    -17.8332E-03     1.16590E-03
             200     199.919E-09     15.6403E-03    -13.7054E+06    -90.2179E+06    -13.8937E+06     1.20765E+06    -17.2671E-03     34.4100E-03    -17.1429E-03     1.09068E-03    -17.1846E-03     33.9990E-03    -17.0617E-03     1.10586E-03
             201    -140.780E-09     14.6602E-03    -10.7405E+06    -85.7520E+06    -10.7355E+06     1.45722E+06    -16.4639E-03     32.8572E-03    -16.3933E-03     979.224E-06    -16.3777E-03     32.4597E-03    -16.3070E-03     997.679E-06
             202     206.547E-09     13.6813E-03    -7.44114E+06    -81.6429E+06    -7.17530E+06     1.14405E+06    -15.6796E-03     31.1831E-03    -15.5035E-03     795.461E-06    -15.5880E-03     30.7962E-03    -15.4102E-03     809.940E-06
             203     42.9793E-09     12.7044E-03    -6.72823E+06    -78.6627E+06    -6.64888E+06     764.272E+03    -14.6642E-03     29.1936E-03    -14.5294E-03     639.374E-06    -14.5741E-03     28.8197E-03    -14.4388E-03     648.986E-06
             204    -52.3506E-09     11.7296E-03    -9.37650E+06    -77.0498E+06    -9.30859E+06     308.143E+03    -13.5360E-03     27.0916E-03    -13.5556E-03     411.742E-06    -13.4577E-03     26.7336E-03    -13.4768E-03     415.459E-06
             205     28.0892E-09     10.7568E-03    -12.9847E+06    -76.7812E+06    -12.8890E+06    -103.336E+03    -12.6502E-03     25.2761E-03    -12.6259E-03     322.983E-06    -12.5851E-03     24.9299E-03    -12.5602E-03     321.358E-06
             206     40.5497E-09     9.78530E-03    -15.8295E+06    -77.1655E+06    -15.5014E+06    -243.811E+03    -12.1458E-03     24.1834E-03    -12.0376E-03     484.178E-06    -12.0906E-03     23.8432E-03    -11.9803E-03     480.731E-06
             207     86.9816E-09     8.81471E-03    -16.5210E+06    -78.0726E+06    -16.2993E+06    -400.783E+03    -12.1343E-03     24.2387E-03    -12.1044E-03     770.084E-06    -12.0801E-03     23.8961E-03    -12.0487E-03     764.626E-06
             208    -158.866E-09     7.84301E-03    -15.1633E+06    -79.4637E+06    -15.0612E+06    -539.937E+03    -12.6772E-03     25.4181E-03    -12.7409E-03     971.197E-06    -12.6160E-03     25.0647E-03    -12.6789E-03     963.980E-06
             209     118.606E-09     6.87006E-03    -12.5387E+06    -81.4898E+06    -12.4794E+06    -647.775E+03    -13.7074E-03     27.4340E-03    -13.7266E-03     1.14516E-03    -13.6338E-03     27.0629E-03    -13.6527E-03     1.13659E-03
             210    -112.053E-09     5.89449E-03    -9.86510E+06    -83.3403E+06    -10.0608E+06    -657.309E+03    -14.9105E-03     29.8896E-03    -14.9791E-03     1.27093E-03    -14.8244E-03     29.5019E-03    -14.8943E-03     1.26227E-03
             211    -18.4615E-09     4.91658E-03    -9.66132E+06    -85.6037E+06    -9.87602E+06    -600.156E+03    -16.1319E-03     32.3397E-03    -16.2078E-03     1.19478E-03    -16.0418E-03     31.9401E-03    -16.1190E-03     1.18690E-03
             212     11.8214E-09     3.93644E-03    -10.5242E+06    -87.8547E+06    -10.5291E+06    -628.186E+03    -17.2907E-03     34.5574E-03    -17.2668E-03     1.02292E-03    -17.2006E-03     34.1488E-03    -17.1768E-03     1.01469E-03
             213     36.8350E-09     2.95433E-03    -11.1392E+06    -89.8369E+06    -11.1359E+06    -562.842E+03    -18.2496E-03     36.4645E-03    -18.2149E-03     843.332E-06    -18.1588E-03     36.0478E-03    -18.1242E-03     835.956E-06
             214    -24.3977E-09     1.97030E-03    -11.3553E+06    -91.2137E+06    -11.6269E+06    -216.465E+03    -18.9136E-03     37.8513E-03    -18.9377E-03     609.516E-06    -18.8211E-03     37.4287E-03    -18.8471E-03     606.654E-06
             215    -33.8978E-09     985.474E-06    -11.0720E+06    -91.3488E+06    -11.0171E+06     97.9991E+03    -19.3632E-03     38.6848E-03    -19.3217E-03     323.754E-06    -19.2699E-03     38.2603E-03    -19.2282E-03     325.020E-06
             216     882.578E-06    -138.778E-18    -10.9518E+06    -91.3656E+06    -10.6271E+06     139.486E+03    -19.6125E-03     39.1000E-03    -19.4875E-03     299.171E-06    -19.5192E-03     38.6745E-03    -19.3923E-03     300.982E-06
             217     1.76515E-03    -138.778E-18    -10.8212E+06    -91.7649E+06    -11.1158E+06    -85.1592E+03    -19.7888E-03     39.3853E-03    -19.5965E-03     500.052E-06    -19.6937E-03     38.9583E-03    -19.5033E-03     498.909E-06
             218     2.64740E-03    -138.778E-18    -10.4965E+06    -92.0840E+06    -11.4398E+06    -485.197E+03    -20.1251E-03     39.8356E-03    -19.7105E-03     746.390E-06    -20.0275E-03     39.4070E-03    -19.6190E-03     740.037E-06
             219     3.52927E-03    -138.778E-18    -9.81926E+06    -92.2310E+06    -11.7174E+06    -668.535E+03    -20.6024E-03     40.4691E-03    -19.8668E-03     1.04227E-03    -20.5007E-03     40.0392E-03    -19.7774E-03     1.03351E-03
             220     4.41071E-03    -138.778E-18    -9.10465E+06    -92.8218E+06    -12.8502E+06    -788.801E+03    -21.2324E-03     41.2979E-03    -20.0655E-03     1.36457E-03    -21.1247E-03     40.8657E-03    -19.9820E-03     1.35422E-03
             221     5.29141E-03    -138.778E-18    -8.27985E+06    -94.1755E+06    -15.7969E+06    -1.24262E+06    -22.0137E-03     42.3178E-03    -20.3040E-03     1.73062E-03    -21.8957E-03     41.8818E-03    -20.2345E-03     1.71435E-03
             222     6.17146E-03    -138.778E-18    -6.69113E+06    -95.8739E+06    -20.7060E+06    -2.27940E+06    -22.9378E-03     43.5176E-03    -20.5797E-03     2.18308E-03    -22.8022E-03     43.0779E-03    -20.5345E-03     2.15332E-03
             223     7.05045E-03    -138.778E-18    -4.06950E+06    -97.0314E+06    -26.3884E+06    -3.35002E+06    -24.0111E-03     44.9074E-03    -20.8964E-03     2.67167E-03    -23.8524E-03     44.4665E-03    -20.8817E-03     2.62792E-03
             224     7.92874E-03    -138.778E-18    -492.054E+03    -93.5287E+06    -31.3312E+06    -4.10324E+06    -25.2550E-03     46.5124E-03    -21.2574E-03     3.29315E-03    -25.0764E-03     46.0909E-03    -21.2777E-03     3.23944E-03
             225     8.80531E-03    -138.778E-18     3.47131E+06    -85.9069E+06    -37.4841E+06    -4.47185E+06    -26.6510E-03     48.3074E-03    -21.6564E-03     4.13190E-03    -26.4547E-03     47.9272E-03    -21.7243E-03     4.07324E-03
             226     9.68093E-03    -138.778E-18     7.66365E+06    -72.8165E+06    -41.9508E+06    -5.11020E+06    -28.1074E-03     50.2101E-03    -22.1027E-03     5.04710E-03    -27.9027E-03     49.8958E-03    -22.2180E-03     4.97952E-03
             227     10.5550E-03    -138.778E-18     11.6204E+06    -52.0905E+06    -40.7329E+06    -4.37029E+06    -29.6417E-03     52.2505E-03    -22.6088E-03     5.93159E-03    -29.4491E-03     52.0324E-03    -22.7538E-03     5.87268E-03
             228     11.4280E-03    -138.778E-18     14.5503E+06    -26.9464E+06    -33.9726E+06    -3.14955E+06    -31.2828E-03     54.4615E-03    -23.1787E-03     7.43842E-03    -31.1219E-03     54.3551E-03    -23.3306E-03     7.39421E-03
             229     12.2979E-03    -138.778E-18     15.1299E+06     6.19972E+06    -25.2742E+06    -1.56163E+06    -32.8148E-03     56.5988E-03    -23.7840E-03     8.49342E-03    -32.7117E-03     56.6449E-03    -23.9413E-03     8.46801E-03
             230     13.1699E-03    -138.778E-18     13.5258E+06     37.9507E+06    -8.81112E+06     208.078E+03    -34.7722E-03     59.2441E-03    -24.4719E-03     10.7106E-03    -34.7474E-03     59.4276E-03    -24.5906E-03     10.7050E-03
             231     14.0337E-03    -138.778E-18     11.8356E+06     58.4233E+06     16.7043E+06     420.640E+03    -39.2371E-03     64.5788E-03    -25.3417E-03     16.9828E-03    -39.2888E-03     64.8317E-03    -25.3600E-03     16.9693E-03
             232     14.8958E-03    -138.778E-18     8.50736E+06     72.1040E+06     44.9356E+06     2.39698E+06    -47.5791E-03     74.0995E-03    -26.5204E-03     28.1604E-03    -47.7081E-03     74.3838E-03    -26.4126E-03     28.1803E-03
             233     15.7387E-03    -138.778E-18     3.11291E+06     80.1491E+06     65.1501E+06     5.61592E+06    -56.1081E-03     84.1440E-03    -28.0359E-03     58.5629E-03    -56.3269E-03     84.4545E-03    -27.8309E-03     58.5843E-03
             234     16.5513E-03    -138.778E-18     5.37705E+06     98.3982E+06     78.6920E+06     5.25719E+06    -72.2800E-03     102.277E-03    -29.9967E-03     101.763E-03    -72.7790E-03     102.920E-03    -29.7537E-03     101.237E-03
             235     17.4590E-03     1.09695E-03    -1.87431E+06     115.107E+06     79.4174E+06     6.68485E+06    -91.6795E-03     121.247E-03    -29.5675E-03     124.267E-03    -92.8721E-03     122.639E-03    -29.3346E-03     122.900E-03
             236     17.4968E-03     2.21777E-03    -6.03689E+06     126.019E+06     77.9842E+06     9.26321E+06    -92.1828E-03     119.570E-03    -27.3872E-03     148.972E-03    -94.3888E-03     121.986E-03    -27.1713E-03     147.381E-03
             237     17.5136E-03     3.28183E-03    -264.724E+03     140.261E+06     88.2869E+06     6.05683E+06    -87.1572E-03     113.573E-03    -26.4160E-03     172.033E-03    -90.2322E-03     116.893E-03    -26.1776E-03     170.597E-03
             238     17.5204E-03     4.35301E-03    -4.76710E+06     146.802E+06     93.5575E+06     2.48541E+06    -88.4266E-03     114.385E-03    -25.9587E-03     179.823E-03    -92.2294E-03     118.426E-03    -25.6969E-03     178.597E-03
             239     17.5211E-03     5.42007E-03    -3.80030E+06     154.122E+06     98.7190E+06     3.26945E+06    -84.3128E-03     110.223E-03    -25.9107E-03     189.117E-03    -88.7072E-03     114.867E-03    -25.6351E-03     188.487E-03
             240     17.5246E-03     6.46691E-03    -1.39960E+06     159.644E+06     101.605E+06     2.33682E+06    -77.5376E-03     103.519E-03    -25.9817E-03     194.234E-03    -82.3079E-03     108.556E-03    -25.7031E-03     194.348E-03
             241     17.5238E-03     7.50998E-03    -716.353E+03     159.996E+06     101.332E+06     373.147E+03    -74.5020E-03     100.515E-03    -26.0130E-03     195.238E-03    -79.5327E-03     105.818E-03    -25.7373E-03     195.840E-03
             242     17.5244E-03     8.55439E-03    -2.18731E+06     160.748E+06     100.790E+06     1.12327E+06    -72.6514E-03     98.7246E-03    -26.0732E-03     195.726E-03    -77.9237E-03     104.268E-03    -25.7992E-03     196.766E-03
             243     17.5226E-03     9.59348E-03    -3.62139E+06     162.212E+06     100.639E+06     238.284E+03    -70.5079E-03     96.6828E-03    -26.1749E-03     195.842E-03    -75.9972E-03     102.443E-03    -25.9017E-03     197.327E-03
             244     17.5219E-03     10.6301E-03    -1.99455E+06     163.349E+06     101.879E+06     551.329E+03    -67.7557E-03     94.0570E-03    -26.3013E-03     192.110E-03    -73.3059E-03     99.8839E-03    -26.0258E-03     194.081E-03
             245     17.5206E-03     11.6621E-03    -2.38425E+06     164.880E+06     102.313E+06     1.32501E+06    -64.2799E-03     90.7160E-03    -26.4361E-03     189.343E-03    -69.8814E-03     96.5973E-03    -26.1601E-03     191.837E-03
             246     17.5201E-03     12.6942E-03    -3.01187E+06     165.858E+06     102.411E+06     102.251E+03    -60.9813E-03     87.5317E-03    -26.5504E-03     187.267E-03    -66.6234E-03     93.4546E-03    -26.2745E-03     190.194E-03
             247     17.5197E-03     13.7203E-03    -1.77485E+06     167.031E+06     104.006E+06    -305.538E+03    -57.7068E-03     84.3374E-03    -26.6305E-03     184.712E-03    -63.3244E-03     90.2393E-03    -26.3501E-03     188.055E-03
             248     17.5210E-03     14.7442E-03    -1.38841E+06     168.753E+06     105.236E+06    -123.661E+03    -55.2874E-03     81.9478E-03    -26.6605E-03     182.946E-03    -60.8937E-03     87.8431E-03    -26.3770E-03     186.639E-03
             249     17.5208E-03     15.7713E-03    -2.82024E+06     169.039E+06     104.700E+06    -398.177E+03    -53.5142E-03     80.1978E-03    -26.6836E-03     185.053E-03    -59.2668E-03     86.2374E-03    -26.4012E-03     189.075E-03
             250     17.5214E-03     16.7962E-03    -3.31610E+06     168.890E+06     104.346E+06     7.85480E+03    -50.3988E-03     77.1426E-03    -26.7438E-03     188.721E-03    -56.3430E-03     83.3723E-03    -26.4622E-03     193.210E-03
             251     17.5220E-03     17.8144E-03    -2.48768E+06     169.926E+06     104.952E+06     746.589E+03    -46.4413E-03     73.2568E-03    -26.8155E-03     191.256E-03    -52.5208E-03     79.6263E-03    -26.5335E-03     196.272E-03
             252     17.5224E-03     18.8286E-03    -2.31865E+06     171.738E+06     105.686E+06     890.552E+03    -43.4623E-03     70.3180E-03    -26.8557E-03     191.992E-03    -49.6194E-03     76.7700E-03    -26.5729E-03     197.405E-03
             253     17.5234E-03     19.8397E-03    -3.20872E+06     172.523E+06     105.884E+06     210.096E+03    -42.0781E-03     68.9319E-03    -26.8539E-03     192.294E-03    -48.2899E-03     75.4377E-03    -26.5699E-03     197.953E-03
             254     17.5235E-03     20.8523E-03    -3.23468E+06     172.674E+06     106.246E+06    -220.067E+03    -41.4577E-03     68.3020E-03    -26.8443E-03     193.055E-03    -47.7352E-03     74.8730E-03    -26.5587E-03     198.872E-03
             255     17.5241E-03     21.8645E-03    -2.57735E+06     173.482E+06     106.851E+06     622.656E+03    -39.6784E-03     66.5405E-03    -26.8621E-03     194.423E-03    -46.0420E-03     73.2010E-03    -26.5757E-03     200.507E-03
             256     17.5248E-03     22.8718E-03    -2.85482E+06     174.947E+06     107.479E+06     776.954E+03    -38.2489E-03     65.1218E-03    -26.8729E-03     195.935E-03    -44.7157E-03     71.8878E-03    -26.5850E-03     202.286E-03
             257     17.5248E-03     23.8804E-03    -3.35295E+06     176.066E+06     107.926E+06     367.833E+03    -37.7850E-03     64.6527E-03    -26.8677E-03     197.083E-03    -44.3277E-03     71.4956E-03    -26.5785E-03     203.565E-03
             258     17.5255E-03     24.8889E-03    -3.07835E+06     176.701E+06     108.459E+06     430.701E+03    -36.5523E-03     63.4413E-03    -26.8890E-03     199.387E-03    -43.1963E-03     70.3871E-03    -26.5984E-03     206.062E-03
             259     17.5252E-03     25.8950E-03    -2.58601E+06     177.469E+06     108.943E+06     338.017E+03    -35.2805E-03     62.1854E-03    -26.9049E-03     200.817E-03    -41.9841E-03     69.1939E-03    -26.6138E-03     207.682E-03
             260     17.5265E-03     26.8959E-03    -3.51971E+06     176.697E+06     108.137E+06    -506.184E+03    -35.3912E-03     62.2832E-03    -26.8920E-03     199.453E-03    -42.0750E-03     69.2681E-03    -26.6024E-03     206.363E-03
             261     17.5245E-03     27.9043E-03    -2.26868E+06     177.825E+06     109.297E+06     462.432E+03    -34.0342E-03     60.9549E-03    -26.9207E-03     198.657E-03    -40.7093E-03     67.9364E-03    -26.6288E-03     205.691E-03
             262     17.5276E-03     28.9038E-03    -723.932E+03     179.280E+06     110.353E+06     592.699E+03    -32.4929E-03     59.4197E-03    -26.9268E-03     200.945E-03    -39.2263E-03     66.4670E-03    -26.6339E-03     208.144E-03
             263     17.5262E-03     29.9067E-03    -2.61084E+06     178.619E+06     109.555E+06    -24.4959E+03    -34.3397E-03     61.2099E-03    -26.8702E-03     202.560E-03    -41.1649E-03     68.3424E-03    -26.5777E-03     209.673E-03
             264     17.5267E-03     30.9166E-03    -3.92935E+06     178.597E+06     109.151E+06     456.125E+03    -34.6254E-03     61.4978E-03    -26.8725E-03     203.009E-03    -41.5224E-03     68.6985E-03    -26.5800E-03     210.168E-03
             265     17.5263E-03     31.9136E-03    -3.81928E+06     178.851E+06     109.128E+06     280.628E+03    -32.7215E-03     59.6343E-03    -26.9127E-03     201.044E-03    -39.5484E-03     66.7660E-03    -26.6209E-03     208.368E-03
             266     17.5268E-03     32.9153E-03    -3.15046E+06     179.511E+06     110.014E+06     143.996E+03    -32.3832E-03     59.2961E-03    -26.9130E-03     198.921E-03    -39.1166E-03     66.3366E-03    -26.6186E-03     206.250E-03
             267     17.5267E-03     33.9171E-03    -2.96078E+06     179.832E+06     110.392E+06    -107.485E+03    -32.6972E-03     59.5966E-03    -26.8995E-03     199.549E-03    -39.4567E-03     66.6639E-03    -26.6040E-03     206.877E-03
             268     17.5270E-03     34.9222E-03    -2.94160E+06     180.093E+06     110.327E+06     137.094E+03    -32.1794E-03     59.0903E-03    -26.9108E-03     201.846E-03    -39.0452E-03     66.2650E-03    -26.6161E-03     209.287E-03
             269     17.5269E-03     35.9227E-03    -2.89519E+06     180.311E+06     110.444E+06     213.627E+03    -31.4080E-03     58.3351E-03    -26.9271E-03     203.306E-03    -38.3354E-03     65.5721E-03    -26.6322E-03     210.861E-03
             270     17.5272E-03     36.9224E-03    -2.92979E+06     180.303E+06     110.681E+06     67.6543E+03    -31.2838E-03     58.2100E-03    -26.9262E-03     202.629E-03    -38.1879E-03     65.4228E-03    -26.6300E-03     210.199E-03
             271     17.5270E-03     37.9232E-03    -2.94529E+06     180.333E+06     110.778E+06     153.981E+03    -31.5357E-03     58.4573E-03    -26.9216E-03     203.014E-03    -38.4575E-03     65.6875E-03    -26.6249E-03     210.576E-03
             272     17.5271E-03     38.9257E-03    -2.35008E+06     180.943E+06     111.442E+06     399.211E+03    -30.7809E-03     57.7209E-03    -26.9400E-03     203.305E-03    -37.7060E-03     64.9568E-03    -26.6418E-03     210.924E-03
             273     17.5273E-03     39.9228E-03    -2.37922E+06     180.912E+06     111.414E+06    -137.700E+03    -30.3620E-03     57.3036E-03    -26.9416E-03     202.043E-03    -37.2381E-03     64.4904E-03    -26.6434E-03     209.683E-03
             274     17.5273E-03     40.9207E-03    -3.54934E+06     179.601E+06     110.321E+06    -777.098E+03    -31.8416E-03     58.7413E-03    -26.8998E-03     200.137E-03    -38.6453E-03     65.8502E-03    -26.6034E-03     207.605E-03
             275     17.5270E-03     41.9264E-03    -2.78471E+06     179.216E+06     110.665E+06    -144.295E+03    -31.9731E-03     58.8735E-03    -26.9004E-03     200.730E-03    -38.8012E-03     66.0070E-03    -26.6029E-03     208.195E-03
             276     17.5274E-03     42.9268E-03    -2.75748E+06     179.466E+06     110.838E+06     213.301E+03    -30.8922E-03     57.8208E-03    -26.9286E-03     203.209E-03    -37.8256E-03     65.0601E-03    -26.6306E-03     210.851E-03
             277     17.5272E-03     43.9262E-03    -3.36695E+06     179.055E+06     110.500E+06    -253.722E+03    -30.9530E-03     57.8815E-03    -26.9285E-03     203.600E-03    -37.9028E-03     65.1346E-03    -26.6308E-03     211.242E-03
             278     17.5271E-03     44.9277E-03    -2.37567E+06     178.711E+06     110.902E+06    -103.888E+03    -30.6310E-03     57.5684E-03    -26.9374E-03     203.337E-03    -37.5658E-03     64.8077E-03    -26.6386E-03     210.992E-03
             279     17.5274E-03     45.9256E-03    -2.40651E+06     178.488E+06     110.770E+06     219.079E+03    -30.2968E-03     57.2366E-03    -26.9398E-03     202.985E-03    -37.2113E-03     64.4549E-03    -26.6412E-03     210.667E-03
             280     17.5273E-03     46.9249E-03    -2.86041E+06     179.217E+06     111.102E+06     442.218E+03    -31.0469E-03     57.9669E-03    -26.9200E-03     201.862E-03    -37.9157E-03     65.1395E-03    -26.6202E-03     209.451E-03
             281     17.5273E-03     47.9265E-03    -3.14444E+06     180.070E+06     111.410E+06     136.408E+03    -31.2874E-03     58.2039E-03    -26.9164E-03     201.458E-03    -38.1537E-03     65.3751E-03    -26.6159E-03     209.024E-03
             282     17.5272E-03     48.9267E-03    -3.15171E+06     180.106E+06     111.209E+06    -138.816E+03    -30.9678E-03     57.8942E-03    -26.9264E-03     201.667E-03    -37.8471E-03     65.0792E-03    -26.6269E-03     209.274E-03
             283     17.5272E-03     49.9265E-03    -2.89460E+06     180.320E+06     111.312E+06     140.719E+03    -30.9391E-03     57.8663E-03    -26.9272E-03     201.982E-03    -37.8182E-03     65.0524E-03    -26.6279E-03     209.586E-03
             284     17.5274E-03     50.9280E-03    -2.60581E+06     180.635E+06     111.410E+06     77.5241E+03    -30.7155E-03     57.6452E-03    -26.9297E-03     202.542E-03    -37.6156E-03     64.8542E-03    -26.6308E-03     210.170E-03
             285     17.5273E-03     51.9273E-03    -2.71106E+06     180.575E+06     111.441E+06    -139.487E+03    -30.6404E-03     57.5737E-03    -26.9333E-03     202.903E-03    -37.5648E-03     64.8063E-03    -26.6340E-03     210.558E-03
             286     17.5272E-03     52.9272E-03    -3.13951E+06     180.103E+06     111.076E+06    -146.726E+03    -30.9993E-03     57.9250E-03    -26.9257E-03     202.464E-03    -37.9128E-03     65.1446E-03    -26.6270E-03     210.089E-03
             287     17.5272E-03     53.9277E-03    -3.21770E+06     179.942E+06     111.092E+06     135.360E+03    -31.0886E-03     58.0113E-03    -26.9227E-03     202.068E-03    -37.9814E-03     65.2093E-03    -26.6235E-03     209.673E-03
             288     17.5273E-03     54.9279E-03    -2.58810E+06     180.536E+06     111.969E+06     131.652E+03    -30.8037E-03     57.7335E-03    -26.9298E-03     202.279E-03    -37.6987E-03     64.9355E-03    -26.6280E-03     209.910E-03
             289     17.5274E-03     55.9284E-03    -2.61673E+06     180.494E+06     111.690E+06    -171.449E+03    -30.6472E-03     57.5778E-03    -26.9306E-03     202.831E-03    -37.5678E-03     64.8060E-03    -26.6301E-03     210.489E-03
             290     17.5273E-03     56.9280E-03    -3.04493E+06     179.946E+06     111.250E+06    -38.9420E+03    -30.7411E-03     57.6674E-03    -26.9263E-03     202.518E-03    -37.6476E-03     64.8793E-03    -26.6266E-03     210.155E-03
             291     17.5274E-03     57.9275E-03    -2.93994E+06     179.850E+06     111.520E+06    -125.644E+03    -30.9380E-03     57.8597E-03    -26.9218E-03     202.036E-03    -37.8239E-03     65.0503E-03    -26.6207E-03     209.648E-03
             292     876.248E-06     58.4727E-03    -23.8345E+06    -114.028E+06    -23.4722E+06     29.0808E+03    -26.8428E-03     53.6759E-03    -26.8331E-03     5.67083E-03    -26.7627E-03     53.1746E-03    -26.7506E-03     5.66854E-03
             293     1.75248E-03     58.4803E-03    -23.2915E+06    -113.141E+06    -21.8579E+06     2.90218E+03    -26.8606E-03     53.7007E-03    -26.8401E-03     10.5225E-03    -26.7818E-03     53.2009E-03    -26.7515E-03     10.5174E-03
             294     2.62874E-03     58.4926E-03    -22.4040E+06    -111.695E+06    -19.1901E+06     16.5645E+03    -26.8874E-03     53.7363E-03    -26.8489E-03     15.6331E-03    -26.8106E-03     53.2390E-03    -26.7504E-03     15.6253E-03
             295     3.50498E-03     58.5100E-03    -21.1999E+06    -109.751E+06    -15.6196E+06     9.06108E+03    -26.9266E-03     53.7863E-03    -26.8597E-03     20.8388E-03    -26.8526E-03     53.2927E-03    -26.7479E-03     20.8276E-03
             296     4.38125E-03     58.5322E-03    -19.7212E+06    -107.555E+06    -11.5521E+06     24.2203E+03    -26.9796E-03     53.8511E-03    -26.8715E-03     26.0885E-03    -26.9085E-03     53.3617E-03    -26.7447E-03     26.0734E-03
             297     5.25751E-03     58.5595E-03    -18.0694E+06    -102.712E+06    -7.79555E+06     52.7681E+03    -27.0412E-03     53.9181E-03    -26.8769E-03     31.3842E-03    -26.9761E-03     53.4468E-03    -26.7408E-03     31.3645E-03
             298     6.13381E-03     58.5918E-03    -16.3309E+06    -97.1845E+06    -4.08748E+06     176.608E+03    -27.1164E-03     53.9967E-03    -26.8803E-03     36.7079E-03    -27.0587E-03     53.5479E-03    -26.7361E-03     36.6836E-03
             299     7.01008E-03     58.6293E-03    -14.6671E+06    -92.6466E+06    -926.633E+03     254.604E+03    -27.2124E-03     54.0947E-03    -26.8823E-03     42.0216E-03    -27.1613E-03     53.6654E-03    -26.7313E-03     41.9904E-03
             300     7.88640E-03     58.6717E-03    -13.1480E+06    -86.2350E+06     322.149E+03     245.204E+03    -27.3195E-03     54.1919E-03    -26.8724E-03     47.3326E-03    -27.2775E-03     53.7961E-03    -26.7267E-03     47.2915E-03
             301     8.76268E-03     58.7192E-03    -11.8041E+06    -80.6863E+06     989.702E+03     241.210E+03    -27.4406E-03     54.3018E-03    -26.8612E-03     52.6255E-03    -27.4088E-03     53.9389E-03    -26.7222E-03     52.5719E-03
             302     9.63901E-03     58.7717E-03    -10.6599E+06    -76.4053E+06    -280.794E+03     324.144E+03    -27.5821E-03     54.4249E-03    -26.8429E-03     57.8984E-03    -27.5606E-03     54.0952E-03    -26.7180E-03     57.8305E-03
             303     10.5153E-03     58.8293E-03    -9.98825E+06    -68.0794E+06    -2.90126E+06     434.062E+03    -27.7187E-03     54.5316E-03    -26.8129E-03     63.0999E-03    -27.7192E-03     54.2634E-03    -26.7142E-03     63.0141E-03
             304     11.3916E-03     58.8916E-03    -9.54282E+06    -53.7806E+06    -2.21823E+06     405.203E+03    -27.8714E-03     54.6616E-03    -26.7903E-03     69.6705E-03    -27.9188E-03     54.4907E-03    -26.7095E-03     69.5602E-03
             305     12.2680E-03     58.9617E-03    -9.55660E+06    -38.6945E+06    -3.62835E+06     521.895E+03    -28.1153E-03     54.8711E-03    -26.7558E-03     77.8453E-03    -28.2264E-03     54.8214E-03    -26.7040E-03     77.7074E-03
             306     13.1443E-03     59.0395E-03    -10.8648E+06    -25.3698E+06    -11.3581E+06     22.6337E+03    -28.1565E-03     54.8520E-03    -26.6955E-03     80.0516E-03    -28.3428E-03     54.9426E-03    -26.6998E-03     79.8736E-03
             307     14.0205E-03     59.1138E-03    -11.3864E+06     5.38527E+06    -14.1870E+06     112.437E+03    -28.6278E-03     55.2614E-03    -26.6336E-03     94.1919E-03    -29.0194E-03     55.6729E-03    -26.6958E-03     93.9769E-03
             308     14.8969E-03     59.2191E-03    -9.75286E+06     62.6517E+06    -11.0553E+06     437.688E+03    -32.3722E-03     58.9285E-03    -26.5563E-03     158.652E-03    -33.8049E-03     60.5810E-03    -26.6883E-03     158.446E-03
             309     15.7736E-03     59.4170E-03    -7.97386E+06     130.471E+06     23.0938E+06     346.792E+03    -39.3256E-03     65.9374E-03    -26.6118E-03     262.352E-03    -45.8030E-03     72.7827E-03    -26.6740E-03     263.452E-03
             310     16.6498E-03     59.7266E-03    -4.97896E+06     173.352E+06     84.1182E+06     700.322E+03    -36.8484E-03     63.6719E-03    -26.8235E-03     260.214E-03    -45.6304E-03     72.8076E-03    -26.6470E-03     265.239E-03
             311     876.248E-06     59.4728E-03    -23.8036E+06    -114.048E+06    -23.4748E+06     10.9044E+03    -26.8587E-03     53.6765E-03    -26.8178E-03     5.67895E-03    -26.7784E-03     53.1750E-03    -26.7353E-03     5.67641E-03
             312     1.75249E-03     59.4803E-03    -23.2899E+06    -113.161E+06    -21.8450E+06     26.4652E+03    -26.8623E-03     53.7030E-03    -26.8407E-03     10.5129E-03    -26.7834E-03     53.2030E-03    -26.7520E-03     10.5082E-03
             313     2.62872E-03     59.4927E-03    -22.4218E+06    -111.732E+06    -19.1910E+06     31.8119E+03    -26.8875E-03     53.7371E-03    -26.8496E-03     15.6297E-03    -26.8107E-03     53.2397E-03    -26.7511E-03     15.6222E-03
             314     3.50499E-03     59.5100E-03    -21.2232E+06    -109.772E+06    -15.6159E+06     68.5695E+03    -26.9283E-03     53.7889E-03    -26.8605E-03     20.8339E-03    -26.8544E-03     53.2952E-03    -26.7487E-03     20.8235E-03
             315     4.38123E-03     59.5323E-03    -19.7733E+06    -107.603E+06    -11.5561E+06     84.7447E+03    -26.9828E-03     53.8556E-03    -26.8728E-03     26.0821E-03    -26.9119E-03     53.3660E-03    -26.7458E-03     26.0678E-03
             316     5.25752E-03     59.5596E-03    -18.1816E+06    -102.772E+06    -7.78152E+06     121.720E+03    -27.0451E-03     53.9240E-03    -26.8789E-03     31.3763E-03    -26.9805E-03     53.4526E-03    -26.7424E-03     31.3575E-03
             317     6.13377E-03     59.5920E-03    -16.5172E+06    -97.3866E+06    -4.17504E+06     184.072E+03    -27.1209E-03     54.0034E-03    -26.8825E-03     36.6990E-03    -27.0637E-03     53.5540E-03    -26.7382E-03     36.6748E-03
             318     7.01008E-03     59.6293E-03    -14.7927E+06    -92.7626E+06    -1.23480E+06     316.181E+03    -27.2176E-03     54.1012E-03    -26.8836E-03     42.0155E-03    -27.1666E-03     53.6719E-03    -26.7338E-03     41.9851E-03
             319     7.88635E-03     59.6718E-03    -13.2086E+06    -86.1609E+06     126.950E+03     284.542E+03    -27.3260E-03     54.2004E-03    -26.8743E-03     47.3239E-03    -27.2841E-03     53.8053E-03    -26.7296E-03     47.2832E-03
             320     8.76267E-03     59.7193E-03    -11.8465E+06    -80.7982E+06     666.157E+03     257.857E+03    -27.4463E-03     54.3094E-03    -26.8631E-03     52.6178E-03    -27.4142E-03     53.9464E-03    -26.7254E-03     52.5644E-03
             321     9.63895E-03     59.7719E-03    -10.7927E+06    -76.5128E+06    -716.248E+03     299.709E+03    -27.5879E-03     54.4323E-03    -26.8445E-03     57.8983E-03    -27.5663E-03     54.1029E-03    -26.7215E-03     57.8300E-03
             322     10.5153E-03     59.8293E-03    -9.92603E+06    -68.2947E+06    -3.36291E+06     404.197E+03    -27.7307E-03     54.5454E-03    -26.8147E-03     63.0950E-03    -27.7300E-03     54.2767E-03    -26.7180E-03     63.0088E-03
             323     11.3916E-03     59.8918E-03    -9.32416E+06    -53.7305E+06    -2.51135E+06     503.292E+03    -27.8936E-03     54.6867E-03    -26.7932E-03     69.6533E-03    -27.9396E-03     54.5162E-03    -26.7143E-03     69.5441E-03
             324     12.2679E-03     59.9617E-03    -8.57640E+06    -39.1600E+06    -3.84490E+06     700.527E+03    -28.1197E-03     54.8789E-03    -26.7591E-03     77.8533E-03    -28.2249E-03     54.8257E-03    -26.7091E-03     77.7178E-03
             325     13.1443E-03     60.0398E-03    -7.70805E+06    -24.8951E+06    -10.6355E+06     1.10276E+06    -28.1690E-03     54.8673E-03    -26.6983E-03     80.2501E-03    -28.3414E-03     54.9548E-03    -26.7042E-03     80.0860E-03
             326     14.0205E-03     60.1141E-03    -8.02734E+06     5.88481E+06    -15.8631E+06     47.3481E+03    -28.6404E-03     55.2633E-03    -26.6229E-03     94.4693E-03    -29.0140E-03     55.6753E-03    -26.6991E-03     94.2538E-03
             327     14.8970E-03     60.2189E-03    -9.19799E+06     62.0359E+06    -13.4435E+06    -288.618E+03    -32.2884E-03     58.8322E-03    -26.5438E-03     158.879E-03    -33.7124E-03     60.4827E-03    -26.6876E-03     158.666E-03
             328     15.7737E-03     60.4172E-03    -8.99001E+06     130.266E+06     23.8693E+06     530.192E+03    -39.2781E-03     65.8897E-03    -26.6116E-03     262.645E-03    -45.7689E-03     72.7418E-03    -26.6681E-03     263.751E-03
             329     16.6505E-03     60.7275E-03    -5.78797E+06     173.448E+06     84.7197E+06     371.135E+03    -36.9626E-03     63.7854E-03    -26.8228E-03     260.171E-03    -45.7500E-03     72.9223E-03    -26.6423E-03     265.180E-03
             330     876.236E-06     60.4728E-03    -23.8643E+06    -114.100E+06    -23.4714E+06     4.41023E+03    -26.8620E-03     53.6848E-03    -26.8228E-03     5.69109E-03    -26.7820E-03     53.1832E-03    -26.7401E-03     5.68845E-03
             331     1.75247E-03     60.4804E-03    -23.3158E+06    -113.209E+06    -21.8730E+06     51.3713E+03    -26.8629E-03     53.7070E-03    -26.8441E-03     10.5105E-03    -26.7840E-03     53.2069E-03    -26.7555E-03     10.5060E-03
             332     2.62873E-03     60.4928E-03    -22.4521E+06    -111.774E+06    -19.2245E+06     82.7166E+03    -26.8912E-03     53.7437E-03    -26.8525E-03     15.6290E-03    -26.8145E-03     53.2462E-03    -26.7540E-03     15.6221E-03
             333     3.50496E-03     60.5101E-03    -21.2632E+06    -109.864E+06    -15.6957E+06     118.532E+03    -26.9324E-03     53.7959E-03    -26.8635E-03     20.8297E-03    -26.8584E-03     53.3019E-03    -26.7518E-03     20.8199E-03
             334     4.38124E-03     60.5324E-03    -19.8194E+06    -107.676E+06    -11.6473E+06     186.890E+03    -26.9874E-03     53.8632E-03    -26.8759E-03     26.0768E-03    -26.9164E-03     53.3735E-03    -26.7492E-03     26.0638E-03
             335     5.25747E-03     60.5597E-03    -18.2534E+06    -102.885E+06    -7.93329E+06     249.649E+03    -27.0498E-03     53.9318E-03    -26.8820E-03     31.3711E-03    -26.9852E-03     53.4602E-03    -26.7460E-03     31.3539E-03
             336     6.13377E-03     60.5920E-03    -16.6429E+06    -97.4611E+06    -4.41958E+06     285.469E+03    -27.1259E-03     54.0113E-03    -26.8854E-03     36.6947E-03    -27.0688E-03     53.5620E-03    -26.7420E-03     36.6718E-03
             337     7.01002E-03     60.6295E-03    -14.9173E+06    -92.8356E+06    -1.58124E+06     198.886E+03    -27.2214E-03     54.1075E-03    -26.8861E-03     42.0181E-03    -27.1704E-03     53.6785E-03    -26.7377E-03     41.9862E-03
             338     7.88634E-03     60.6719E-03    -13.2115E+06    -86.1738E+06    -189.937E+03     228.087E+03    -27.3284E-03     54.2049E-03    -26.8765E-03     47.3297E-03    -27.2860E-03     53.8103E-03    -26.7334E-03     47.2883E-03
             339     8.76261E-03     60.7194E-03    -11.8591E+06    -80.9199E+06     648.789E+03     306.289E+03    -27.4519E-03     54.3188E-03    -26.8669E-03     52.6136E-03    -27.4196E-03     53.9553E-03    -26.7291E-03     52.5608E-03
             340     9.63895E-03     60.7719E-03    -10.7764E+06    -76.5052E+06    -610.711E+03     300.624E+03    -27.5957E-03     54.4447E-03    -26.8490E-03     57.8989E-03    -27.5742E-03     54.1151E-03    -26.7255E-03     57.8306E-03
             341     10.5152E-03     60.8295E-03    -10.0274E+06    -68.3982E+06    -3.18651E+06     222.392E+03    -27.7369E-03     54.5570E-03    -26.8201E-03     63.1032E-03    -27.7368E-03     54.2878E-03    -26.7223E-03     63.0146E-03
             342     11.3915E-03     60.8918E-03    -9.24715E+06    -53.9480E+06    -2.26734E+06     334.291E+03    -27.8963E-03     54.6952E-03    -26.7989E-03     69.6816E-03    -27.9420E-03     54.5231E-03    -26.7186E-03     69.5702E-03
             343     12.2679E-03     60.9619E-03    -8.75044E+06    -39.4026E+06    -3.35072E+06     497.157E+03    -28.1281E-03     54.8947E-03    -26.7666E-03     77.8551E-03    -28.2347E-03     54.8400E-03    -26.7135E-03     77.7168E-03
             344     13.1442E-03     61.0397E-03    -8.78224E+06    -25.1726E+06    -9.99825E+06     430.769E+03    -28.0925E-03     54.7981E-03    -26.7057E-03     80.1866E-03    -28.2707E-03     54.8848E-03    -26.7064E-03     80.0143E-03
             345     14.0209E-03     61.1144E-03    -9.15966E+06     6.68809E+06    -12.3659E+06     790.043E+03    -28.5371E-03     55.1754E-03    -26.6382E-03     94.3164E-03    -28.9224E-03     55.5877E-03    -26.6965E-03     94.1110E-03
             346     14.8971E-03     61.2189E-03    -10.1390E+06     62.0388E+06    -11.0357E+06     597.746E+03    -32.2319E-03     58.7830E-03    -26.5511E-03     158.746E-03    -33.6648E-03     60.4321E-03    -26.6815E-03     158.545E-03
             347     15.7737E-03     61.4173E-03    -9.20383E+06     129.831E+06     23.6737E+06     235.047E+03    -39.2275E-03     65.8300E-03    -26.6025E-03     262.859E-03    -45.7258E-03     72.6879E-03    -26.6590E-03     263.965E-03
             348     16.6507E-03     61.7275E-03    -5.43071E+06     173.817E+06     85.3864E+06     141.827E+03    -37.1176E-03     63.9358E-03    -26.8182E-03     259.999E-03    -45.8966E-03     73.0650E-03    -26.6354E-03     264.990E-03
             349     876.235E-06     61.4729E-03    -23.9001E+06    -114.154E+06    -23.5268E+06     38.8021E+03    -26.8503E-03     53.6922E-03    -26.8419E-03     5.69483E-03    -26.7703E-03     53.1904E-03    -26.7594E-03     5.69263E-03
             350     1.75248E-03     61.4804E-03    -23.3724E+06    -113.281E+06    -21.9258E+06     67.1091E+03    -26.8692E-03     53.7175E-03    -26.8483E-03     10.5112E-03    -26.7904E-03     53.2172E-03    -26.7598E-03     10.5069E-03
             351     2.62870E-03     61.4929E-03    -22.4964E+06    -111.876E+06    -19.3232E+06     117.225E+03    -26.8980E-03     53.7553E-03    -26.8573E-03     15.6263E-03    -26.8211E-03     53.2574E-03    -26.7591E-03     15.6198E-03
             352     3.50496E-03     61.5102E-03    -21.3198E+06    -109.961E+06    -15.8148E+06     169.233E+03    -26.9379E-03     53.8063E-03    -26.8685E-03     20.8274E-03    -26.8638E-03     53.3121E-03    -26.7572E-03     20.8182E-03
             353     4.38119E-03     61.5325E-03    -19.8453E+06    -107.827E+06    -11.8324E+06     235.378E+03    -26.9921E-03     53.8725E-03    -26.8805E-03     26.0756E-03    -26.9208E-03     53.3823E-03    -26.7545E-03     26.0632E-03
             354     5.25747E-03     61.5598E-03    -18.1813E+06    -102.992E+06    -8.09843E+06     304.361E+03    -27.0545E-03     53.9408E-03    -26.8863E-03     31.3695E-03    -26.9891E-03     53.4687E-03    -26.7511E-03     31.3530E-03
             355     6.13371E-03     61.5921E-03    -16.4015E+06    -97.4964E+06    -4.39881E+06     291.678E+03    -27.1303E-03     54.0203E-03    -26.8900E-03     36.6955E-03    -27.0720E-03     53.5705E-03    -26.7469E-03     36.6726E-03
             356     7.01002E-03     61.6295E-03    -14.7727E+06    -92.7484E+06    -1.44100E+06     252.756E+03    -27.2246E-03     54.1156E-03    -26.8911E-03     42.0185E-03    -27.1732E-03     53.6867E-03    -26.7424E-03     41.9873E-03
             357     7.88628E-03     61.6720E-03    -13.4358E+06    -86.3692E+06    -148.672E+03     260.593E+03    -27.3315E-03     54.2133E-03    -26.8818E-03     47.3265E-03    -27.2900E-03     53.8180E-03    -26.7379E-03     47.2855E-03
             358     8.76261E-03     61.7195E-03    -12.1167E+06    -80.9440E+06     749.136E+03     311.846E+03    -27.4574E-03     54.3298E-03    -26.8724E-03     52.6081E-03    -27.4265E-03     53.9664E-03    -26.7337E-03     52.5554E-03
             359     9.63885E-03     61.7721E-03    -11.0168E+06    -76.5179E+06    -540.373E+03     282.928E+03    -27.5993E-03     54.4537E-03    -26.8544E-03     57.8934E-03    -27.5791E-03     54.1243E-03    -26.7302E-03     57.8248E-03
             360     10.5152E-03     61.8296E-03    -10.3106E+06    -68.3456E+06    -3.16569E+06     280.880E+03    -27.7311E-03     54.5561E-03    -26.8249E-03     63.1041E-03    -27.7326E-03     54.2875E-03    -26.7267E-03     63.0163E-03
             361     11.3915E-03     61.8920E-03    -9.91503E+06    -54.1050E+06    -2.52598E+06     197.187E+03    -27.8905E-03     54.6930E-03    -26.8025E-03     69.6764E-03    -27.9389E-03     54.5215E-03    -26.7223E-03     69.5632E-03
             362     12.2678E-03     61.9619E-03    -9.16549E+06    -39.7060E+06    -3.74215E+06     317.754E+03    -28.1360E-03     54.9053E-03    -26.7693E-03     77.8655E-03    -28.2438E-03     54.8504E-03    -26.7172E-03     77.7247E-03
             363     13.1441E-03     62.0400E-03    -9.05378E+06    -25.2240E+06    -10.9742E+06     714.998E+03    -28.1135E-03     54.8193E-03    -26.7058E-03     80.1048E-03    -28.2916E-03     54.9075E-03    -26.7109E-03     79.9361E-03
             364     14.0204E-03     62.1140E-03    -9.45707E+06     6.36260E+06    -13.7350E+06     873.842E+03    -28.4915E-03     55.1274E-03    -26.6359E-03     94.2624E-03    -28.8752E-03     55.5399E-03    -26.7001E-03     94.0588E-03
             365     14.8972E-03     62.2194E-03    -8.88612E+06     62.4077E+06    -11.6084E+06     828.644E+03    -32.1522E-03     58.6984E-03    -26.5462E-03     158.488E-03    -33.5757E-03     60.3456E-03    -26.6818E-03     158.292E-03
             366     15.7741E-03     62.4166E-03    -8.13469E+06     130.166E+06     23.4073E+06     422.318E+03    -39.3086E-03     65.9084E-03    -26.5998E-03     262.776E-03    -45.8070E-03     72.7721E-03    -26.6597E-03     263.873E-03
             367     16.6505E-03     62.7287E-03    -5.36762E+06     173.860E+06     85.2877E+06     56.3802E+03    -37.1371E-03     63.9573E-03    -26.8202E-03     260.074E-03    -45.9153E-03     73.0863E-03    -26.6381E-03     265.051E-03
             368     876.237E-06     62.4729E-03    -23.9514E+06    -114.239E+06    -23.6051E+06     50.6021E+03    -26.8483E-03     53.7044E-03    -26.8561E-03     5.70701E-03    -26.7683E-03     53.2024E-03    -26.7737E-03     5.70494E-03
             369     1.75245E-03     62.4805E-03    -23.4343E+06    -113.383E+06    -22.0258E+06     90.6459E+03    -26.8771E-03     53.7318E-03    -26.8546E-03     10.5108E-03    -26.7984E-03     53.2312E-03    -26.7664E-03     10.5068E-03
             370     2.62870E-03     62.4929E-03    -22.5787E+06    -111.978E+06    -19.4198E+06     134.545E+03    -26.9041E-03     53.7680E-03    -26.8639E-03     15.6265E-03    -26.8274E-03     53.2699E-03    -26.7659E-03     15.6203E-03
             371     3.50492E-03     62.5103E-03    -21.3749E+06    -110.093E+06    -15.9603E+06     190.346E+03    -26.9432E-03     53.8178E-03    -26.8746E-03     20.8296E-03    -26.8690E-03     53.3232E-03    -26.7638E-03     20.8207E-03
             372     4.38118E-03     62.5326E-03    -19.8971E+06    -107.932E+06    -11.9318E+06     228.407E+03    -26.9970E-03     53.8835E-03    -26.8865E-03     26.0786E-03    -26.9257E-03     53.3930E-03    -26.7608E-03     26.0661E-03
             373     5.25741E-03     62.5599E-03    -18.2232E+06    -103.098E+06    -8.21568E+06     236.709E+03    -27.0587E-03     53.9506E-03    -26.8919E-03     31.3729E-03    -26.9932E-03     53.4783E-03    -26.7571E-03     31.3555E-03
             374     6.13371E-03     62.5922E-03    -16.5270E+06    -97.5123E+06    -4.46160E+06     257.218E+03    -27.1341E-03     54.0297E-03    -26.8956E-03     36.6963E-03    -27.0763E-03     53.5800E-03    -26.7526E-03     36.6729E-03
             375     7.00996E-03     62.6297E-03    -14.8567E+06    -92.9262E+06    -1.24333E+06     387.432E+03    -27.2300E-03     54.1281E-03    -26.8980E-03     42.0123E-03    -27.1791E-03     53.6981E-03    -26.7480E-03     41.9827E-03
             376     7.88627E-03     62.6721E-03    -13.2868E+06    -86.3329E+06     90.5335E+03     425.994E+03    -27.3378E-03     54.2262E-03    -26.8884E-03     47.3199E-03    -27.2960E-03     53.8305E-03    -26.7435E-03     47.2810E-03
             377     8.76251E-03     62.7197E-03    -12.0097E+06    -81.0475E+06     723.062E+03     356.839E+03    -27.4598E-03     54.3376E-03    -26.8778E-03     52.6094E-03    -27.4283E-03     53.9736E-03    -26.7392E-03     52.5571E-03
             378     9.63885E-03     62.7722E-03    -11.0474E+06    -76.5386E+06    -583.445E+03     437.182E+03    -27.6003E-03     54.4597E-03    -26.8594E-03     57.8907E-03    -27.5802E-03     54.1304E-03    -26.7353E-03     57.8240E-03
             379     10.5151E-03     62.8297E-03    -10.4794E+06    -68.3939E+06    -3.26452E+06     430.788E+03    -27.7327E-03     54.5623E-03    -26.8296E-03     63.0855E-03    -27.7347E-03     54.2938E-03    -26.7316E-03     62.9996E-03
             380     11.3915E-03     62.8921E-03    -10.0543E+06    -54.0214E+06    -2.60937E+06     434.648E+03    -27.8943E-03     54.7013E-03    -26.8070E-03     69.6687E-03    -27.9435E-03     54.5306E-03    -26.7271E-03     69.5586E-03
             381     12.2677E-03     62.9622E-03    -9.88230E+06    -39.5808E+06    -4.07667E+06     19.9891E+03    -28.1230E-03     54.8958E-03    -26.7728E-03     77.8469E-03    -28.2339E-03     54.8429E-03    -26.7215E-03     77.7024E-03
             382     13.1442E-03     63.0400E-03    -8.94710E+06    -26.0924E+06    -11.0827E+06     139.679E+03    -28.1427E-03     54.8537E-03    -26.7110E-03     80.0695E-03    -28.3189E-03     54.9376E-03    -26.7156E-03     79.8930E-03
             383     14.0206E-03     63.1143E-03    -8.34609E+06     6.01510E+06    -12.9492E+06     913.055E+03    -28.5522E-03     55.1983E-03    -26.6460E-03     94.0658E-03    -28.9312E-03     55.6065E-03    -26.7074E-03     93.8619E-03
             384     14.8971E-03     63.2189E-03    -9.43278E+06     62.7987E+06    -9.98114E+06     793.640E+03    -32.2783E-03     58.8460E-03    -26.5676E-03     158.261E-03    -33.7073E-03     60.4933E-03    -26.6949E-03     158.060E-03
             385     15.7734E-03     63.4171E-03    -8.80013E+06     130.551E+06     24.4806E+06     431.539E+03    -39.2025E-03     65.8224E-03    -26.6199E-03     262.631E-03    -45.7014E-03     72.6825E-03    -26.6741E-03     263.745E-03
             386     16.6503E-03     63.7285E-03    -5.13057E+06     174.068E+06     85.1209E+06     201.324E+03    -36.8751E-03     63.6978E-03    -26.8227E-03     260.459E-03    -45.6607E-03     72.8363E-03    -26.6421E-03     265.466E-03
             387     876.218E-06     63.4731E-03    -24.0367E+06    -114.354E+06    -23.6878E+06     61.9862E+03    -26.8615E-03     53.7219E-03    -26.8604E-03     5.71701E-03    -26.7817E-03     53.2195E-03    -26.7782E-03     5.71508E-03
             388     1.75245E-03     63.4806E-03    -23.5282E+06    -113.496E+06    -22.1202E+06     93.8464E+03    -26.8820E-03     53.7446E-03    -26.8626E-03     10.5154E-03    -26.8035E-03     53.2437E-03    -26.7745E-03     10.5115E-03
             389     2.62866E-03     63.4931E-03    -22.6557E+06    -112.095E+06    -19.5220E+06     151.800E+03    -26.9093E-03     53.7800E-03    -26.8707E-03     15.6302E-03    -26.8327E-03     53.2816E-03    -26.7729E-03     15.6242E-03
             390     3.50491E-03     63.5104E-03    -21.4663E+06    -110.199E+06    -16.0207E+06     194.249E+03    -26.9485E-03     53.8297E-03    -26.8812E-03     20.8346E-03    -26.8746E-03     53.3348E-03    -26.7703E-03     20.8257E-03
             391     4.38113E-03     63.5327E-03    -19.9946E+06    -108.030E+06    -11.9864E+06     226.251E+03    -27.0017E-03     53.8944E-03    -26.8928E-03     26.0850E-03    -26.9306E-03     53.4037E-03    -26.7671E-03     26.0725E-03
             392     5.25741E-03     63.5600E-03    -18.3964E+06    -103.138E+06    -8.13755E+06     243.880E+03    -27.0634E-03     53.9621E-03    -26.8987E-03     31.3793E-03    -26.9988E-03     53.4897E-03    -26.7632E-03     31.3620E-03
             393     6.13364E-03     63.5923E-03    -16.7798E+06    -97.7306E+06    -4.49263E+06     363.126E+03    -27.1391E-03     54.0413E-03    -26.9022E-03     36.7020E-03    -27.0823E-03     53.5910E-03    -26.7586E-03     36.6800E-03
             394     7.00993E-03     63.6298E-03    -15.1400E+06    -93.0237E+06    -1.61127E+06     409.084E+03    -27.2334E-03     54.1360E-03    -26.9026E-03     42.0253E-03    -27.1832E-03     53.7065E-03    -26.7539E-03     41.9960E-03
             395     7.88618E-03     63.6723E-03    -13.5533E+06    -86.3945E+06    -310.419E+03     399.168E+03    -27.3390E-03     54.2315E-03    -26.8924E-03     47.3389E-03    -27.2979E-03     53.8364E-03    -26.7491E-03     47.2997E-03
             396     8.76251E-03     63.7198E-03    -12.1686E+06    -81.0824E+06     511.130E+03     460.370E+03    -27.4610E-03     54.3431E-03    -26.8821E-03     52.6217E-03    -27.4299E-03     53.9795E-03    -26.7443E-03     52.5708E-03
             397     9.63876E-03     63.7723E-03    -11.0946E+06    -76.7631E+06    -768.467E+03     525.987E+03    -27.6026E-03     54.4663E-03    -26.8636E-03     57.9014E-03    -27.5822E-03     54.1361E-03    -26.7401E-03     57.8359E-03
             398     10.5151E-03     63.8299E-03    -10.3486E+06    -68.3301E+06    -3.28999E+06     596.704E+03    -27.7437E-03     54.5777E-03    -26.8340E-03     63.0948E-03    -27.7452E-03     54.3095E-03    -26.7364E-03     63.0109E-03
             399     11.3913E-03     63.8922E-03    -9.86424E+06    -54.1480E+06    -2.68692E+06     559.579E+03    -27.8979E-03     54.7093E-03    -26.8114E-03     69.6744E-03    -27.9458E-03     54.5378E-03    -26.7320E-03     69.5660E-03
             400     12.2677E-03     63.9623E-03    -9.72796E+06    -39.0200E+06    -3.99260E+06     617.119E+03    -28.1258E-03     54.9028E-03    -26.7770E-03     77.8365E-03    -28.2369E-03     54.8524E-03    -26.7262E-03     77.6997E-03
             401     13.1440E-03     64.0401E-03    -10.8130E+06    -26.1692E+06    -11.8842E+06     38.8203E+03    -28.1504E-03     54.8652E-03    -26.7148E-03     80.1006E-03    -28.3346E-03     54.9525E-03    -26.7206E-03     79.9229E-03
             402     14.0202E-03     64.1145E-03    -11.0393E+06     5.02780E+06    -14.3401E+06    -115.211E+03    -28.6546E-03     55.3076E-03    -26.6530E-03     94.0781E-03    -29.0442E-03     55.7175E-03    -26.7160E-03     93.8597E-03
             403     14.8966E-03     64.2189E-03    -9.48026E+06     63.0932E+06    -10.6751E+06     618.113E+03    -32.3776E-03     58.9551E-03    -26.5775E-03     158.471E-03    -33.8081E-03     60.6069E-03    -26.7086E-03     158.267E-03
             404     15.7730E-03     64.4176E-03    -8.12266E+06     130.800E+06     23.1476E+06     597.680E+03    -39.0849E-03     65.7093E-03    -26.6244E-03     262.504E-03    -45.5641E-03     72.5568E-03    -26.6865E-03     263.632E-03
             405     16.6509E-03     64.7271E-03    -5.10592E+06     174.325E+06     84.3690E+06     225.433E+03    -36.7126E-03     63.5364E-03    -26.8239E-03     260.628E-03    -45.5062E-03     72.6861E-03    -26.6474E-03     265.665E-03
             406     876.216E-06     64.4731E-03    -24.1608E+06    -114.485E+06    -23.7867E+06     63.2921E+03    -26.8686E-03     53.7385E-03    -26.8699E-03     5.70912E-03    -26.7890E-03     53.2358E-03    -26.7878E-03     5.70722E-03
             407     1.75243E-03     64.4808E-03    -23.6204E+06    -113.617E+06    -22.2018E+06     118.546E+03    -26.8854E-03     53.7554E-03    -26.8700E-03     10.5194E-03    -26.8070E-03     53.2541E-03    -26.7820E-03     10.5158E-03
             408     2.62866E-03     64.4931E-03    -22.7522E+06    -112.221E+06    -19.6075E+06     162.104E+03    -26.9139E-03     53.7908E-03    -26.8769E-03     15.6350E-03    -26.8375E-03     53.2921E-03    -26.7792E-03     15.6291E-03
             409     3.50487E-03     64.5105E-03    -21.5617E+06    -110.307E+06    -16.0900E+06     210.649E+03    -26.9531E-03     53.8401E-03    -26.8870E-03     20.8415E-03    -26.8794E-03     53.3449E-03    -26.7762E-03     20.8329E-03
             410     4.38113E-03     64.5328E-03    -20.1147E+06    -108.133E+06    -12.0359E+06     259.180E+03    -27.0061E-03     53.9046E-03    -26.8985E-03     26.0928E-03    -26.9354E-03     53.4135E-03    -26.7727E-03     26.0808E-03
             411     5.25735E-03     64.5601E-03    -18.5261E+06    -103.279E+06    -8.25950E+06     352.661E+03    -27.0667E-03     53.9705E-03    -26.9039E-03     31.3908E-03    -27.0024E-03     53.4978E-03    -26.7685E-03     31.3750E-03
             412     6.13363E-03     64.5925E-03    -16.8144E+06    -97.9017E+06    -4.65934E+06     399.385E+03    -27.1411E-03     54.0477E-03    -26.9066E-03     36.7183E-03    -27.0839E-03     53.5968E-03    -26.7636E-03     36.6967E-03
             413     7.00988E-03     64.6299E-03    -15.0753E+06    -93.0687E+06    -1.80909E+06     421.796E+03    -27.2337E-03     54.1397E-03    -26.9060E-03     42.0459E-03    -27.1829E-03     53.7102E-03    -26.7582E-03     42.0168E-03
             414     7.88619E-03     64.6724E-03    -13.5519E+06    -86.4569E+06    -452.229E+03     421.944E+03    -27.3382E-03     54.2337E-03    -26.8956E-03     47.3599E-03    -27.2968E-03     53.8386E-03    -26.7528E-03     47.3209E-03
             415     8.76244E-03     64.7199E-03    -12.2130E+06    -81.2271E+06     283.870E+03     441.682E+03    -27.4613E-03     54.3458E-03    -26.8845E-03     52.6498E-03    -27.4298E-03     53.9818E-03    -26.7476E-03     52.5987E-03
             416     9.63876E-03     64.7725E-03    -11.0435E+06    -76.8408E+06    -1.00888E+06     465.807E+03    -27.6041E-03     54.4695E-03    -26.8654E-03     57.9352E-03    -27.5829E-03     54.1392E-03    -26.7430E-03     57.8690E-03
             417     10.5150E-03     64.8300E-03    -10.1314E+06    -68.5123E+06    -3.56446E+06     509.423E+03    -27.7464E-03     54.5816E-03    -26.8352E-03     63.1501E-03    -27.7462E-03     54.3125E-03    -26.7390E-03     63.0652E-03
             418     11.3913E-03     64.8924E-03    -9.40826E+06    -54.0926E+06    -2.69453E+06     569.649E+03    -27.9030E-03     54.7161E-03    -26.8131E-03     69.7073E-03    -27.9488E-03     54.5442E-03    -26.7345E-03     69.5990E-03
             419     12.2676E-03     64.9623E-03    -8.55774E+06    -39.4464E+06    -4.00650E+06     711.906E+03    -28.1274E-03     54.9053E-03    -26.7779E-03     77.9059E-03    -28.2319E-03     54.8510E-03    -26.7283E-03     77.7704E-03
             420     13.1440E-03     65.0405E-03    -7.77290E+06    -25.1462E+06    -10.7993E+06     832.846E+03    -28.1555E-03     54.8711E-03    -26.7156E-03     80.2170E-03    -28.3275E-03     54.9575E-03    -26.7218E-03     80.0497E-03
             421     14.0205E-03     65.1145E-03    -8.16004E+06     5.47625E+06    -16.1792E+06    -180.308E+03    -28.6978E-03     55.3379E-03    -26.6401E-03     94.3892E-03    -29.0716E-03     55.7490E-03    -26.7171E-03     94.1699E-03
             422     14.8966E-03     65.2197E-03    -9.21623E+06     61.4997E+06    -13.8013E+06    -124.045E+03    -32.4020E-03     58.9678E-03    -26.5658E-03     158.539E-03    -33.8237E-03     60.6151E-03    -26.7106E-03     158.327E-03
             423     15.7736E-03     65.4169E-03    -8.54356E+06     131.203E+06     23.8289E+06     706.987E+03    -39.0827E-03     65.7142E-03    -26.6314E-03     262.163E-03    -45.5595E-03     72.5573E-03    -26.6902E-03     263.282E-03
             424     16.6495E-03     65.7276E-03    -5.19188E+06     174.998E+06     84.9629E+06     271.228E+03    -36.7054E-03     63.5355E-03    -26.8301E-03     260.941E-03    -45.5171E-03     72.7036E-03    -26.6515E-03     265.982E-03
             425     876.199E-06     65.4733E-03    -24.2423E+06    -114.617E+06    -23.9142E+06     65.5505E+03    -26.8716E-03     53.7500E-03    -26.8784E-03     5.69984E-03    -26.7920E-03     53.2469E-03    -26.7966E-03     5.69798E-03
             426     1.75243E-03     65.4809E-03    -23.7290E+06    -113.757E+06    -22.3143E+06     125.990E+03    -26.8889E-03     53.7642E-03    -26.8752E-03     10.5274E-03    -26.8107E-03     53.2625E-03    -26.7874E-03     10.5238E-03
             427     2.62864E-03     65.4933E-03    -22.8675E+06    -112.350E+06    -19.7035E+06     177.840E+03    -26.9173E-03     53.7989E-03    -26.8815E-03     15.6424E-03    -26.8411E-03     53.2998E-03    -26.7840E-03     15.6367E-03
             428     3.50487E-03     65.5106E-03    -21.6775E+06    -110.444E+06    -16.2110E+06     239.500E+03    -26.9564E-03     53.8476E-03    -26.8912E-03     20.8506E-03    -26.8829E-03     53.3521E-03    -26.7807E-03     20.8423E-03
             429     4.38109E-03     65.5329E-03    -20.2287E+06    -108.271E+06    -12.1949E+06     313.234E+03    -27.0081E-03     53.9103E-03    -26.9022E-03     26.1049E-03    -26.9376E-03     53.4190E-03    -26.7768E-03     26.0935E-03
             430     5.25735E-03     65.5602E-03    -18.5683E+06    -103.443E+06    -8.50386E+06     360.266E+03    -27.0668E-03     53.9733E-03    -26.9065E-03     31.4060E-03    -27.0021E-03     53.5001E-03    -26.7721E-03     31.3903E-03
             431     6.13360E-03     65.5926E-03    -16.8321E+06    -97.9381E+06    -4.83880E+06     359.003E+03    -27.1393E-03     54.0480E-03    -26.9086E-03     36.7361E-03    -27.0819E-03     53.5972E-03    -26.7664E-03     36.7141E-03
             432     7.00988E-03     65.6300E-03    -15.0716E+06    -93.1557E+06    -1.87318E+06     328.893E+03    -27.2315E-03     54.1395E-03    -26.9080E-03     42.0660E-03    -27.1804E-03     53.7096E-03    -26.7604E-03     42.0358E-03
             433     7.88614E-03     65.6725E-03    -13.3567E+06    -86.5242E+06    -490.924E+03     363.545E+03    -27.3355E-03     54.2322E-03    -26.8967E-03     47.3846E-03    -27.2930E-03     53.8365E-03    -26.7543E-03     47.3450E-03
             434     8.76247E-03     65.7201E-03    -11.9153E+06    -81.3437E+06     447.467E+03     408.889E+03    -27.4575E-03     54.3434E-03    -26.8859E-03     52.6756E-03    -27.4246E-03     53.9782E-03    -26.7484E-03     52.6241E-03
             435     9.63874E-03     65.7726E-03    -10.7719E+06    -76.8363E+06    -736.606E+03     374.380E+03    -27.6030E-03     54.4697E-03    -26.8667E-03     57.9660E-03    -27.5808E-03     54.1387E-03    -26.7433E-03     57.8986E-03
             436     10.5151E-03     65.8302E-03    -9.95584E+06    -68.6358E+06    -3.23379E+06     335.558E+03    -27.7379E-03     54.5745E-03    -26.8366E-03     63.1768E-03    -27.7370E-03     54.3040E-03    -26.7388E-03     63.0896E-03
             437     11.3913E-03     65.8925E-03    -9.25399E+06    -54.1570E+06    -2.29191E+06     364.033E+03    -27.9022E-03     54.7165E-03    -26.8143E-03     69.7437E-03    -27.9476E-03     54.5435E-03    -26.7338E-03     69.6327E-03
             438     12.2677E-03     65.9626E-03    -8.79802E+06    -39.7535E+06    -3.53087E+06     387.922E+03    -28.1438E-03     54.9248E-03    -26.7810E-03     77.8826E-03    -28.2499E-03     54.8688E-03    -26.7283E-03     77.7427E-03
             439     13.1441E-03     66.0404E-03    -8.79649E+06    -25.1257E+06    -9.97157E+06     328.142E+03    -28.1591E-03     54.8813E-03    -26.7222E-03     80.1622E-03    -28.3376E-03     54.9683E-03    -26.7229E-03     79.9880E-03
             440     14.0203E-03     66.1150E-03    -9.46618E+06     6.24839E+06    -12.5168E+06     571.696E+03    -28.6229E-03     55.2817E-03    -26.6588E-03     94.2825E-03    -29.0091E-03     55.6928E-03    -26.7167E-03     94.0733E-03
             441     14.8970E-03     66.2197E-03    -9.99133E+06     61.1711E+06    -11.4523E+06     139.848E+03    -32.4442E-03     59.0227E-03    -26.5785E-03     158.501E-03    -33.8764E-03     60.6698E-03    -26.7100E-03     158.289E-03
             442     15.7726E-03     66.4176E-03    -8.62247E+06     130.589E+06     23.5193E+06    -95.8130E+03    -39.2159E-03     65.8537E-03    -26.6378E-03     261.542E-03    -45.6734E-03     72.6760E-03    -26.6971E-03     262.643E-03
             443     16.6512E-03     66.7264E-03    -4.72453E+06     175.293E+06     85.7054E+06     540.345E+03    -36.5773E-03     63.4216E-03    -26.8443E-03     260.314E-03    -45.3676E-03     72.5689E-03    -26.6631E-03     265.366E-03
             444     876.210E-06     66.4734E-03    -24.3815E+06    -114.762E+06    -24.0304E+06     70.4050E+03    -26.8757E-03     53.7523E-03    -26.8767E-03     5.69634E-03    -26.7964E-03     53.2489E-03    -26.7951E-03     5.69455E-03
             445     1.75241E-03     66.4810E-03    -23.8592E+06    -113.897E+06    -22.4481E+06     128.566E+03    -26.8937E-03     53.7708E-03    -26.8771E-03     10.5327E-03    -26.8157E-03     53.2689E-03    -26.7896E-03     10.5292E-03
             446     2.62864E-03     66.4934E-03    -22.9895E+06    -112.492E+06    -19.8457E+06     191.554E+03    -26.9193E-03     53.8033E-03    -26.8840E-03     15.6495E-03    -26.8433E-03     53.3039E-03    -26.7867E-03     15.6440E-03
             447     3.50485E-03     66.5107E-03    -21.7899E+06    -110.595E+06    -16.3721E+06     247.352E+03    -26.9572E-03     53.8504E-03    -26.8932E-03     20.8603E-03    -26.8838E-03     53.3545E-03    -26.7831E-03     20.8521E-03
             448     4.38110E-03     66.5330E-03    -20.2779E+06    -108.413E+06    -12.3586E+06     298.142E+03    -27.0073E-03     53.9109E-03    -26.9036E-03     26.1159E-03    -26.9366E-03     53.4191E-03    -26.7787E-03     26.1043E-03
             449     5.25733E-03     66.5604E-03    -18.6080E+06    -103.516E+06    -8.56257E+06     308.383E+03    -27.0647E-03     53.9723E-03    -26.9077E-03     31.4190E-03    -27.0000E-03     53.4990E-03    -26.7734E-03     31.4025E-03
             450     6.13360E-03     66.5927E-03    -16.8659E+06    -97.9916E+06    -4.87177E+06     303.722E+03    -27.1360E-03     54.0453E-03    -26.9093E-03     36.7519E-03    -27.0786E-03     53.5943E-03    -26.7671E-03     36.7291E-03
             451     7.00987E-03     66.6302E-03    -15.1313E+06    -93.0999E+06    -1.87117E+06     234.070E+03    -27.2268E-03     54.1349E-03    -26.9081E-03     42.0833E-03    -27.1761E-03     53.7053E-03    -26.7605E-03     42.0518E-03
             452     7.88618E-03     66.6727E-03    -13.5319E+06    -86.6739E+06    -506.730E+03     197.033E+03    -27.3303E-03     54.2270E-03    -26.8966E-03     47.4009E-03    -27.2884E-03     53.8308E-03    -26.7539E-03     47.3591E-03
             453     8.76245E-03     66.7202E-03    -12.0516E+06    -81.4271E+06     465.032E+03     275.501E+03    -27.4531E-03     54.3385E-03    -26.8854E-03     52.6932E-03    -27.4208E-03     53.9731E-03    -26.7476E-03     52.6400E-03
             454     9.63877E-03     66.7727E-03    -10.8368E+06    -76.8168E+06    -671.460E+03     277.967E+03    -27.5947E-03     54.4604E-03    -26.8657E-03     57.9868E-03    -27.5730E-03     54.1295E-03    -26.7420E-03     57.9182E-03
             455     10.5150E-03     66.8303E-03    -10.0151E+06    -68.6371E+06    -3.18339E+06     234.361E+03    -27.7312E-03     54.5662E-03    -26.8351E-03     63.1898E-03    -27.7307E-03     54.2958E-03    -26.7369E-03     63.1014E-03
             456     11.3914E-03     66.8927E-03    -9.51666E+06    -54.3836E+06    -2.46760E+06     328.980E+03    -27.8968E-03     54.7087E-03    -26.8119E-03     69.7765E-03    -27.9430E-03     54.5353E-03    -26.7316E-03     69.6651E-03
             457     12.2677E-03     66.9628E-03    -9.10195E+06    -39.7107E+06    -3.76090E+06     410.519E+03    -28.1578E-03     54.9361E-03    -26.7784E-03     77.9627E-03    -28.2652E-03     54.8812E-03    -26.7264E-03     77.8230E-03
             458     13.1439E-03     67.0406E-03    -9.05386E+06    -25.4654E+06    -11.0781E+06     550.934E+03    -28.1637E-03     54.8799E-03    -26.7161E-03     80.3083E-03    -28.3418E-03     54.9675E-03    -26.7215E-03     80.1371E-03
             459     14.0203E-03     67.1150E-03    -9.04382E+06     6.08204E+06    -13.5980E+06     683.851E+03    -28.5775E-03     55.2274E-03    -26.6498E-03     94.5126E-03    -28.9596E-03     55.6384E-03    -26.7135E-03     94.3058E-03
             460     14.8965E-03     67.2198E-03    -8.82095E+06     62.2362E+06    -11.5008E+06     358.841E+03    -32.2770E-03     58.8407E-03    -26.5636E-03     159.104E-03    -33.7062E-03     60.4928E-03    -26.6986E-03     158.901E-03
             461     15.7736E-03     67.4183E-03    -8.54886E+06     130.390E+06     22.4454E+06     18.0545E+03    -39.5613E-03     66.1827E-03    -26.6214E-03     262.497E-03    -46.0399E-03     73.0286E-03    -26.6858E-03     263.569E-03
             462     16.6480E-03     67.7260E-03    -5.65917E+06     174.884E+06     84.6552E+06     125.630E+03    -36.8178E-03     63.6604E-03    -26.8426E-03     259.872E-03    -45.5970E-03     72.7949E-03    -26.6647E-03     264.887E-03
             463     876.211E-06     67.4735E-03    -24.5586E+06    -114.918E+06    -24.1976E+06     70.1695E+03    -26.8834E-03     53.7529E-03    -26.8695E-03     5.69901E-03    -26.8046E-03     53.2492E-03    -26.7882E-03     5.69722E-03
             464     1.75242E-03     67.4811E-03    -24.0184E+06    -114.042E+06    -22.6004E+06     125.417E+03    -26.8948E-03     53.7724E-03    -26.8776E-03     10.5296E-03    -26.8172E-03     53.2702E-03    -26.7904E-03     10.5261E-03
             465     2.62863E-03     67.4935E-03    -23.1284E+06    -112.636E+06    -20.0048E+06     184.615E+03    -26.9189E-03     53.8033E-03    -26.8844E-03     15.6550E-03    -26.8432E-03     53.3036E-03    -26.7876E-03     15.6494E-03
             466     3.50486E-03     67.5109E-03    -21.9067E+06    -110.716E+06    -16.4842E+06     225.167E+03    -26.9558E-03     53.8492E-03    -26.8934E-03     20.8667E-03    -26.8826E-03     53.3531E-03    -26.7836E-03     20.8582E-03
             467     4.38109E-03     67.5332E-03    -20.4027E+06    -108.507E+06    -12.4048E+06     238.303E+03    -27.0048E-03     53.9085E-03    -26.9037E-03     26.1223E-03    -26.9345E-03     53.4165E-03    -26.7788E-03     26.1100E-03
             468     5.25734E-03     67.5605E-03    -18.7117E+06    -103.589E+06    -8.59413E+06     258.740E+03    -27.0613E-03     53.9686E-03    -26.9074E-03     31.4262E-03    -26.9970E-03     53.4951E-03    -26.7730E-03     31.4092E-03
             469     6.13361E-03     67.5929E-03    -16.9650E+06    -98.0100E+06    -4.89274E+06     244.060E+03    -27.1326E-03     54.0412E-03    -26.9086E-03     36.7587E-03    -27.0757E-03     53.5903E-03    -26.7663E-03     36.7352E-03
             470     7.00989E-03     67.6303E-03    -15.2575E+06    -93.0608E+06    -1.91451E+06     213.387E+03    -27.2226E-03     54.1294E-03    -26.9069E-03     42.0878E-03    -27.1725E-03     53.7003E-03    -26.7594E-03     42.0561E-03
             471     7.88616E-03     67.6728E-03    -13.6879E+06    -86.6533E+06    -605.984E+03     139.250E+03    -27.3256E-03     54.2205E-03    -26.8949E-03     47.4056E-03    -27.2843E-03     53.8248E-03    -26.7524E-03     47.3631E-03
             472     8.76249E-03     67.7203E-03    -12.2229E+06    -81.4949E+06     127.422E+03     40.8793E+03    -27.4458E-03     54.3281E-03    -26.8822E-03     52.7075E-03    -27.4138E-03     53.9630E-03    -26.7457E-03     52.6514E-03
             473     9.63877E-03     67.7729E-03    -10.9341E+06    -76.8753E+06    -1.00560E+06     90.6529E+03    -27.5816E-03     54.4433E-03    -26.8617E-03     58.0001E-03    -27.5599E-03     54.1127E-03    -26.7394E-03     57.9291E-03
             474     10.5151E-03     67.8304E-03    -10.1343E+06    -68.7640E+06    -3.46174E+06     245.997E+03    -27.7174E-03     54.5479E-03    -26.8305E-03     63.2193E-03    -27.7170E-03     54.2774E-03    -26.7334E-03     63.1311E-03
             475     11.3914E-03     67.8928E-03    -9.56465E+06    -54.5588E+06    -2.74183E+06     337.417E+03    -27.8695E-03     54.6754E-03    -26.8059E-03     69.8323E-03    -27.9153E-03     54.5015E-03    -26.7266E-03     69.7212E-03
             476     12.2678E-03     67.9629E-03    -9.06824E+06    -39.8097E+06    -3.91228E+06     431.215E+03    -28.0954E-03     54.8649E-03    -26.7696E-03     78.1017E-03    -28.2021E-03     54.8095E-03    -26.7183E-03     77.9628E-03
             477     13.1443E-03     68.0409E-03    -8.83967E+06    -25.6714E+06    -10.9283E+06     535.962E+03    -28.1106E-03     54.8156E-03    -26.7050E-03     80.4257E-03    -28.2875E-03     54.9017E-03    -26.7096E-03     80.2547E-03
             478     14.0206E-03     68.1150E-03    -8.92988E+06     6.16674E+06    -13.0344E+06     490.988E+03    -28.4867E-03     55.1232E-03    -26.6365E-03     94.5646E-03    -28.8691E-03     55.5336E-03    -26.6977E-03     94.3561E-03
             479     14.8975E-03     68.2200E-03    -9.40355E+06     62.3532E+06    -11.0581E+06     467.652E+03    -32.0881E-03     58.6318E-03    -26.5437E-03     159.021E-03    -33.5162E-03     60.2800E-03    -26.6758E-03     158.822E-03
             480     15.7743E-03     68.4178E-03    -8.67173E+06     130.776E+06     23.3415E+06     511.268E+03    -39.2384E-03     65.8247E-03    -26.5863E-03     263.552E-03    -45.7584E-03     72.7105E-03    -26.6467E-03     264.658E-03
             481     16.6516E-03     68.7305E-03    -5.37297E+06     175.229E+06     85.1588E+06     60.7990E+03    -37.1891E-03     63.9912E-03    -26.8021E-03     259.885E-03    -45.9587E-03     73.1168E-03    -26.6226E-03     264.846E-03
             482     876.200E-06     68.4736E-03    -24.7049E+06    -115.046E+06    -24.3688E+06     51.0463E+03    -26.8807E-03     53.7529E-03    -26.8722E-03     5.69553E-03    -26.8022E-03     53.2490E-03    -26.7914E-03     5.69350E-03
             483     1.75241E-03     68.4813E-03    -24.1808E+06    -114.188E+06    -22.7750E+06     109.289E+03    -26.8921E-03     53.7690E-03    -26.8770E-03     10.5316E-03    -26.8148E-03     53.2666E-03    -26.7902E-03     10.5279E-03
             484     2.62864E-03     68.4936E-03    -23.2804E+06    -112.767E+06    -20.1238E+06     163.398E+03    -26.9176E-03     53.8010E-03    -26.8834E-03     15.6588E-03    -26.8422E-03     53.3011E-03    -26.7868E-03     15.6529E-03
             485     3.50486E-03     68.5110E-03    -22.0484E+06    -110.813E+06    -16.5413E+06     201.495E+03    -26.9538E-03     53.8464E-03    -26.8926E-03     20.8689E-03    -26.8811E-03     53.3500E-03    -26.7827E-03     20.8601E-03
             486     4.38110E-03     68.5333E-03    -20.5393E+06    -108.563E+06    -12.4221E+06     211.761E+03    -27.0024E-03     53.9052E-03    -26.9028E-03     26.1235E-03    -26.9326E-03     53.4132E-03    -26.7777E-03     26.1109E-03
             487     5.25735E-03     68.5606E-03    -18.8546E+06    -103.648E+06    -8.60248E+06     199.266E+03    -27.0595E-03     53.9660E-03    -26.9065E-03     31.4265E-03    -26.9958E-03     53.4924E-03    -26.7718E-03     31.4087E-03
             488     6.13362E-03     68.5930E-03    -17.0801E+06    -98.0160E+06    -4.97334E+06     185.098E+03    -27.1299E-03     54.0371E-03    -26.9071E-03     36.7579E-03    -27.0735E-03     53.5864E-03    -26.7651E-03     36.7336E-03
             489     7.00989E-03     68.6304E-03    -15.2793E+06    -93.0306E+06    -2.10356E+06     125.363E+03    -27.2191E-03     54.1236E-03    -26.9045E-03     42.0880E-03    -27.1689E-03     53.6949E-03    -26.7579E-03     42.0552E-03
             490     7.88621E-03     68.6729E-03    -13.5515E+06    -86.5228E+06    -715.102E+03     8.20050E+03    -27.3204E-03     54.2125E-03    -26.8922E-03     47.4079E-03    -27.2784E-03     53.8174E-03    -26.7507E-03     47.3637E-03
             491     8.76248E-03     68.7204E-03    -12.1000E+06    -81.4207E+06     57.9829E+03    -100.572E+03    -27.4356E-03     54.3148E-03    -26.8792E-03     52.7062E-03    -27.4030E-03     53.9500E-03    -26.7433E-03     52.6483E-03
             492     9.63884E-03     68.7730E-03    -11.0594E+06    -77.1286E+06    -1.22661E+06    -8.98440E+03    -27.5697E-03     54.4276E-03    -26.8579E-03     57.9963E-03    -27.5478E-03     54.0962E-03    -26.7361E-03     57.9241E-03
             493     10.5151E-03     68.8305E-03    -10.2556E+06    -68.9184E+06    -3.59235E+06     156.856E+03    -27.6948E-03     54.5206E-03    -26.8258E-03     63.2088E-03    -27.6945E-03     54.2497E-03    -26.7290E-03     63.1195E-03
             494     11.3915E-03     68.8929E-03    -9.60502E+06    -54.6728E+06    -2.79044E+06     239.788E+03    -27.8314E-03     54.6310E-03    -26.7996E-03     69.7853E-03    -27.8770E-03     54.4565E-03    -26.7203E-03     69.6731E-03
             495     12.2680E-03     68.9629E-03    -9.06516E+06    -39.9934E+06    -4.02328E+06     355.658E+03    -28.0419E-03     54.8023E-03    -26.7604E-03     78.0059E-03    -28.1480E-03     54.7459E-03    -26.7094E-03     77.8663E-03
             496     13.1444E-03     69.0409E-03    -8.85625E+06    -25.8183E+06    -11.0686E+06     425.733E+03    -28.0316E-03     54.7237E-03    -26.6921E-03     80.3100E-03    -28.2076E-03     54.8087E-03    -26.6972E-03     80.1383E-03
             497     14.0208E-03     69.1152E-03    -9.07869E+06     6.12015E+06    -13.2384E+06     514.218E+03    -28.4685E-03     55.0901E-03    -26.6216E-03     94.2841E-03    -28.8508E-03     55.5003E-03    -26.6835E-03     94.0761E-03
             498     14.8974E-03     69.2195E-03    -9.20333E+06     62.4198E+06    -11.3034E+06     514.485E+03    -32.1372E-03     58.6682E-03    -26.5310E-03     158.582E-03    -33.5624E-03     60.3151E-03    -26.6647E-03     158.382E-03
             499     15.7739E-03     69.4181E-03    -8.10108E+06     130.708E+06     23.4225E+06     358.643E+03    -38.8908E-03     65.4622E-03    -26.5713E-03     262.725E-03    -45.3793E-03     72.3179E-03    -26.6320E-03     263.866E-03
             500     16.6521E-03     69.7282E-03    -4.97418E+06     175.521E+06     85.5244E+06     301.724E+03    -37.1971E-03     63.9815E-03    -26.7845E-03     259.395E-03    -45.9437E-03     73.0856E-03    -26.6042E-03     264.359E-03
             501     876.212E-06     69.4738E-03    -24.8869E+06    -115.168E+06    -24.5051E+06     54.0595E+03    -26.8614E-03     53.7455E-03    -26.8841E-03     5.69575E-03    -26.7834E-03     53.2415E-03    -26.8036E-03     5.69376E-03
             502     1.75242E-03     69.4814E-03    -24.3380E+06    -114.316E+06    -22.9016E+06     99.8688E+03    -26.8920E-03     53.7662E-03    -26.8742E-03     10.5349E-03    -26.8152E-03     53.2635E-03    -26.7876E-03     10.5311E-03
             503     2.62864E-03     69.4938E-03    -23.4357E+06    -112.882E+06    -20.2227E+06     144.626E+03    -26.9174E-03     53.7992E-03    -26.8818E-03     15.6577E-03    -26.8425E-03     53.2990E-03    -26.7853E-03     15.6516E-03
             504     3.50487E-03     69.5111E-03    -22.1887E+06    -110.901E+06    -16.6153E+06     176.649E+03    -26.9523E-03     53.8437E-03    -26.8914E-03     20.8660E-03    -26.8801E-03     53.3472E-03    -26.7815E-03     20.8569E-03
             505     4.38110E-03     69.5334E-03    -20.6423E+06    -108.607E+06    -12.4773E+06     182.044E+03    -27.0015E-03     53.9031E-03    -26.9016E-03     26.1200E-03    -26.9321E-03     53.4111E-03    -26.7766E-03     26.1070E-03
             506     5.25735E-03     69.5607E-03    -18.9388E+06    -103.672E+06    -8.61735E+06     171.339E+03    -27.0585E-03     53.9641E-03    -26.9055E-03     31.4236E-03    -26.9952E-03     53.4905E-03    -26.7708E-03     31.4054E-03
             507     6.13362E-03     69.5931E-03    -17.1406E+06    -97.9286E+06    -5.03384E+06     61.9178E+03    -27.1280E-03     54.0338E-03    -26.9058E-03     36.7543E-03    -27.0719E-03     53.5837E-03    -26.7641E-03     36.7284E-03
             508     7.00991E-03     69.6305E-03    -15.2383E+06    -92.8821E+06    -2.22087E+06    -129.900E+03    -27.2156E-03     54.1180E-03    -26.9024E-03     42.0844E-03    -27.1652E-03     53.6903E-03    -26.7568E-03     42.0483E-03
             509     7.88619E-03     69.6730E-03    -13.4855E+06    -86.4623E+06    -834.282E+03    -214.198E+03    -27.3152E-03     54.2051E-03    -26.8899E-03     47.4004E-03    -27.2729E-03     53.8104E-03    -26.7491E-03     47.3533E-03
             510     8.76254E-03     69.7205E-03    -12.1142E+06    -81.4615E+06     23.6597E+03    -113.619E+03    -27.4301E-03     54.3073E-03    -26.8772E-03     52.6847E-03    -27.3975E-03     53.9424E-03    -26.7414E-03     52.6265E-03
             511     9.63883E-03     69.7731E-03    -11.0180E+06    -77.2629E+06    -1.28522E+06    -40.7089E+03    -27.5656E-03     54.4212E-03    -26.8556E-03     57.9688E-03    -27.5433E-03     54.0892E-03    -26.7340E-03     57.8962E-03
             512     10.5152E-03     69.8306E-03    -10.2140E+06    -69.0582E+06    -3.76832E+06    -5.17427E+03    -27.6894E-03     54.5123E-03    -26.8228E-03     63.1487E-03    -27.6885E-03     54.2408E-03    -26.7267E-03     63.0573E-03
             513     11.3915E-03     69.8930E-03    -9.53342E+06    -54.8126E+06    -2.88482E+06     118.052E+03    -27.8321E-03     54.6292E-03    -26.7971E-03     69.6846E-03    -27.8770E-03     54.4541E-03    -26.7182E-03     69.5708E-03
             514     12.2679E-03     69.9629E-03    -8.98192E+06    -40.1743E+06    -4.13882E+06     227.724E+03    -28.0551E-03     54.8139E-03    -26.7588E-03     77.8624E-03    -28.1603E-03     54.7566E-03    -26.7082E-03     77.7211E-03
             515     13.1444E-03     70.0409E-03    -8.90139E+06    -25.9247E+06    -11.1823E+06     335.639E+03    -28.0330E-03     54.7247E-03    -26.6917E-03     80.0319E-03    -28.2083E-03     54.8088E-03    -26.6971E-03     79.8592E-03
             516     14.0211E-03     70.1150E-03    -9.08052E+06     5.91688E+06    -13.3335E+06     456.101E+03    -28.5160E-03     55.1395E-03    -26.6235E-03     94.0254E-03    -28.8975E-03     55.5485E-03    -26.6856E-03     93.8162E-03
             517     14.8973E-03     70.2200E-03    -9.14234E+06     62.6945E+06    -11.2160E+06     343.961E+03    -32.2307E-03     58.7693E-03    -26.5386E-03     158.144E-03    -33.6547E-03     60.4160E-03    -26.6724E-03     157.941E-03
             518     15.7744E-03     70.4172E-03    -8.41102E+06     130.508E+06     23.2068E+06     279.675E+03    -39.2836E-03     65.8780E-03    -26.5944E-03     262.107E-03    -45.7593E-03     72.7199E-03    -26.6554E-03     263.202E-03
             519     16.6498E-03     70.7285E-03    -5.49113E+06     175.376E+06     85.2904E+06     405.488E+03    -37.1050E-03     63.9205E-03    -26.8155E-03     260.180E-03    -45.8898E-03     73.0610E-03    -26.6353E-03     265.172E-03
             520     876.215E-06     70.4739E-03    -25.0194E+06    -115.316E+06    -24.6493E+06     82.6475E+03    -26.8649E-03     53.7405E-03    -26.8756E-03     5.70727E-03    -26.7871E-03     53.2361E-03    -26.7954E-03     5.70564E-03
             521     1.75243E-03     70.4815E-03    -24.5084E+06    -114.421E+06    -22.9708E+06     125.120E+03    -26.8922E-03     53.7648E-03    -26.8726E-03     10.5306E-03    -26.8159E-03     53.2619E-03    -26.7860E-03     10.5270E-03
             522     2.62864E-03     70.4939E-03    -23.5990E+06    -112.974E+06    -20.3002E+06     138.411E+03    -26.9169E-03     53.7978E-03    -26.8809E-03     15.6527E-03    -26.8426E-03     53.2975E-03    -26.7844E-03     15.6465E-03
             523     3.50487E-03     70.5112E-03    -22.3301E+06    -110.966E+06    -16.6984E+06     145.452E+03    -26.9521E-03     53.8428E-03    -26.8907E-03     20.8610E-03    -26.8804E-03     53.3463E-03    -26.7809E-03     20.8515E-03
             524     4.38110E-03     70.5335E-03    -20.7597E+06    -108.616E+06    -12.5578E+06     118.498E+03    -27.0009E-03     53.9019E-03    -26.9010E-03     26.1163E-03    -26.9320E-03     53.4102E-03    -26.7762E-03     26.1024E-03
             525     5.25736E-03     70.5608E-03    -18.9707E+06    -103.672E+06    -8.68633E+06      73.315E+03    -27.0578E-03     53.9626E-03    -26.9048E-03     31.4186E-03    -26.9945E-03     53.4892E-03    -26.7704E-03     31.3991E-03
             526     6.13363E-03     70.5932E-03    -17.1073E+06    -97.6711E+06    -5.10099E+06    -89.3226E+03    -27.1267E-03     54.0313E-03    -26.9046E-03     36.7480E-03    -27.0707E-03     53.5826E-03    -26.7637E-03     36.7202E-03
             527     7.00990E-03     70.6306E-03    -15.3522E+06    -92.6253E+06    -2.41703E+06    -339.386E+03    -27.2137E-03     54.1145E-03    -26.9007E-03     42.0748E-03    -27.1640E-03     53.6884E-03    -26.7563E-03     42.0359E-03
             528     7.88623E-03     70.6731E-03    -13.7947E+06    -86.5551E+06    -1.20779E+06    -353.743E+03    -27.3134E-03     54.2014E-03    -26.8880E-03     47.3855E-03    -27.2719E-03     53.8072E-03    -26.7486E-03     47.3366E-03
             529     8.76251E-03     70.7207E-03    -12.3380E+06    -81.5638E+06    -344.745E+03    -258.678E+03    -27.4325E-03     54.3079E-03    -26.8755E-03     52.6644E-03    -27.4003E-03     53.9434E-03    -26.7410E-03     52.6043E-03
             530     9.63886E-03     70.7731E-03    -11.0773E+06    -77.2595E+06    -1.55001E+06    -239.393E+03    -27.5698E-03     54.4242E-03    -26.8544E-03     57.9409E-03    -27.5474E-03     54.0927E-03    -26.7341E-03     57.8657E-03
             531     10.5151E-03     70.8307E-03    -10.1786E+06    -69.2035E+06    -4.04925E+06    -154.537E+03    -27.6984E-03     54.5207E-03    -26.8223E-03     63.1091E-03    -27.6967E-03     54.2489E-03    -26.7274E-03     63.0158E-03
             532     11.3915E-03     70.8930E-03    -9.55297E+06    -54.9864E+06    -3.16978E+06    -33.9639E+03    -27.8553E-03     54.6532E-03    -26.7979E-03     69.6566E-03    -27.8998E-03     54.4777E-03    -26.7201E-03     69.5406E-03
             533     12.2679E-03     70.9630E-03    -9.00469E+06     -40.325E+06    -4.35083E+06     109.225E+03    -28.0971E-03     54.8591E-03    -26.7621E-03     77.8313E-03    -28.2020E-03     54.8016E-03    -26.7123E-03     77.6882E-03
             534     13.1442E-03     71.0409E-03    -8.81578E+06    -26.0649E+06    -11.3565E+06     293.736E+03    -28.1304E-03     54.8297E-03    -26.6994E-03     80.0046E-03    -28.3053E-03     54.9138E-03    -26.7056E-03     79.8304E-03
             535     14.0203E-03     71.1151E-03    -9.16142E+06     5.92259E+06    -13.4952E+06     333.860E+03    -28.5683E-03     55.2038E-03    -26.6356E-03     94.0197E-03    -28.9500E-03     55.6132E-03    -26.6983E-03     93.8084E-03
             536     14.8971E-03     71.2199E-03    -9.56313E+06     62.5107E+06    -11.7228E+06     514.156E+03    -32.4118E-03     58.9676E-03    -26.5558E-03     158.135E-03    -33.8392E-03     60.6169E-03    -26.6912E-03     157.928E-03
             537     15.7729E-03     71.4175E-03    -9.17397E+06     130.464E+06     22.2897E+06     590.957E+03    -39.4323E-03     66.0501E-03    -26.6178E-03     262.208E-03    -45.9201E-03     72.9039E-03    -26.6822E-03     263.304E-03
             538     16.6503E-03     71.7289E-03    -5.85731E+06     175.623E+06     84.8890E+06     97.3600E+03    -36.8198E-03     63.6545E-03    -26.8347E-03     260.615E-03    -45.6253E-03     72.8165E-03    -26.6564E-03     265.635E-03
             539     876.210E-06     71.4740E-03    -25.1888E+06    -115.529E+06    -24.7702E+06     125.443E+03    -26.8926E-03     53.7435E-03    -26.8509E-03     5.71277E-03    -26.8152E-03     53.2384E-03    -26.7707E-03     5.71168E-03
             540     1.75242E-03     71.4816E-03    -24.6432E+06    -114.561E+06    -23.0885E+06     187.678E+03    -26.8905E-03     53.7640E-03    -26.8735E-03     10.5276E-03    -26.8145E-03     53.2608E-03    -26.7871E-03     10.5249E-03
             541     2.62864E-03     71.4940E-03    -23.7631E+06    -113.032E+06    -20.3377E+06     198.227E+03    -26.9157E-03     53.7970E-03    -26.8814E-03     15.6492E-03    -26.8420E-03     53.2967E-03    -26.7847E-03     15.6438E-03
             542     3.50486E-03     71.5113E-03    -22.5261E+06    -110.959E+06    -16.7384E+06     129.706E+03    -26.9522E-03     53.8433E-03    -26.8910E-03     20.8570E-03    -26.8815E-03     53.3472E-03    -26.7812E-03     20.8473E-03
             543     4.38110E-03     71.5337E-03    -20.9199E+06    -108.536E+06    -12.6262E+06     17.4610E+03    -27.0014E-03     53.9027E-03    -26.9012E-03     26.1120E-03    -26.9333E-03     53.4116E-03    -26.7767E-03     26.0968E-03
             544     5.25735E-03     71.5609E-03    -19.0665E+06    -103.542E+06    -8.85639E+06    -151.177E+03    -27.0582E-03     53.9627E-03    -26.9045E-03     31.4124E-03    -26.9954E-03     53.4903E-03    -26.7710E-03     31.3900E-03
             545     6.13362E-03     71.5933E-03    -17.1091E+06    -97.3865E+06    -5.38046E+06    -343.000E+03    -27.1270E-03     54.0304E-03    -26.9034E-03     36.7397E-03    -27.0710E-03     53.5836E-03    -26.7643E-03     36.7086E-03
             546     7.00992E-03     71.6307E-03    -15.2780E+06    -92.4732E+06    -2.51158E+06    -413.210E+03    -27.2157E-03     54.1163E-03    -26.9006E-03     42.0579E-03    -27.1657E-03     53.6911E-03    -26.7569E-03     42.0180E-03
             547     7.88619E-03     71.6732E-03    -13.6920E+06    -86.5555E+06    -1.31721E+06    -448.619E+03    -27.3176E-03     54.2059E-03    -26.8883E-03     47.3660E-03    -27.2755E-03     53.8118E-03    -26.7495E-03     47.3158E-03
             548     8.76253E-03     71.7207E-03    -12.2331E+06    -81.5151E+06    -597.258E+03    -532.694E+03    -27.4382E-03     54.3135E-03    -26.8753E-03     52.6532E-03    -27.4051E-03     53.9494E-03    -26.7424E-03     52.5896E-03
             549     9.63880E-03     71.7733E-03    -10.9979E+06    -77.3384E+06    -1.78126E+06    -487.963E+03    -27.5746E-03     54.4295E-03    -26.8549E-03     57.9232E-03    -27.5514E-03     54.0978E-03    -26.7357E-03     57.8447E-03
             550     10.5152E-03     71.8308E-03    -10.1325E+06    -69.3631E+06    -4.30118E+06    -351.533E+03    -27.7074E-03     54.5306E-03    -26.8232E-03     63.1008E-03    -27.7048E-03     54.2583E-03    -26.7295E-03     63.0049E-03
             551     11.3914E-03     71.8931E-03    -9.48317E+06    -55.1526E+06    -3.43903E+06    -186.702E+03    -27.8804E-03     54.6802E-03    -26.7998E-03     69.6601E-03    -27.9239E-03     54.5042E-03    -26.7233E-03     69.5421E-03
             552     12.2678E-03     71.9631E-03    -8.99783E+06    -40.4965E+06    -4.62386E+06    -16.0273E+03    -28.1216E-03     54.8872E-03    -26.7656E-03     77.8372E-03    -28.2259E-03     54.8292E-03    -26.7169E-03     77.6923E-03
             553     13.1442E-03     72.0411E-03    -8.84197E+06    -26.3659E+06    -11.6977E+06     216.015E+03    -28.1651E-03     54.8692E-03    -26.7042E-03     80.1433E-03    -28.3394E-03     54.9526E-03    -26.7116E-03     79.9678E-03
             554     14.0207E-03     72.1153E-03    -9.12510E+06     5.85498E+06    -13.6462E+06     472.259E+03    -28.6458E-03     55.2895E-03    -26.6437E-03     94.1050E-03    -29.0277E-03     55.6994E-03    -26.7072E-03     93.8945E-03
             555     14.8968E-03     72.2199E-03    -9.59521E+06     61.8366E+06    -12.1100E+06     886.897E+03    -32.4520E-03     59.0168E-03    -26.5648E-03     158.722E-03    -33.8834E-03     60.6688E-03    -26.7011E-03     158.519E-03
             556     15.7733E-03     72.4187E-03    -8.60582E+06     131.083E+06     22.0706E+06     813.097E+03    -39.3593E-03     65.9803E-03    -26.6210E-03     262.548E-03    -45.8396E-03     72.8314E-03    -26.6883E-03     263.658E-03
             557     16.6499E-03     72.7275E-03    -5.00612E+06     176.555E+06     84.8678E+06     30.5353E+03    -36.7276E-03     63.5612E-03    -26.8336E-03     260.333E-03    -45.5204E-03     72.7169E-03    -26.6580E-03     265.366E-03
             558     876.207E-06     72.4741E-03    -25.4042E+06    -115.807E+06    -25.0016E+06     159.668E+03    -26.8958E-03     53.7469E-03    -26.8512E-03     5.70098E-03    -26.8187E-03     53.2412E-03    -26.7714E-03     5.70033E-03
             559     1.75242E-03     72.4817E-03    -24.8059E+06    -114.758E+06    -23.2674E+06     234.616E+03    -26.8904E-03     53.7653E-03    -26.8749E-03     10.5263E-03    -26.8147E-03     53.2616E-03    -26.7888E-03     10.5242E-03
             560     2.62864E-03     72.4941E-03    -23.8945E+06    -113.125E+06    -20.4494E+06     274.716E+03    -26.9159E-03     53.7983E-03    -26.8824E-03     15.6474E-03    -26.8426E-03     53.2979E-03    -26.7860E-03     15.6430E-03
             561     3.50487E-03     72.5115E-03    -22.6428E+06    -110.843E+06    -16.7214E+06     182.450E+03    -26.9534E-03     53.8458E-03    -26.8924E-03     20.8527E-03    -26.8834E-03     53.3504E-03    -26.7824E-03     20.8437E-03
             562     4.38109E-03     72.5338E-03    -21.0872E+06    -108.308E+06    -12.6555E+06    -62.2279E+03    -27.0033E-03     53.9058E-03    -26.9025E-03     26.1069E-03    -26.9363E-03     53.4162E-03    -26.7782E-03     26.0906E-03
             563     5.25734E-03     72.5611E-03    -19.2427E+06    -103.114E+06    -9.06615E+06    -443.052E+03    -27.0596E-03     53.9645E-03    -26.9049E-03     31.4066E-03    -26.9980E-03     53.4948E-03    -26.7728E-03     31.3804E-03
             564     6.13361E-03     72.5934E-03    -17.2763E+06    -97.1817E+06    -5.80750E+06    -706.173E+03    -27.1286E-03     54.0317E-03    -26.9031E-03     36.7330E-03    -27.0731E-03     53.5867E-03    -26.7661E-03     36.6971E-03
             565     7.00988E-03     72.6309E-03    -15.3683E+06    -92.5244E+06    -3.00360E+06    -647.835E+03    -27.2180E-03     54.1183E-03    -26.9003E-03     42.0513E-03    -27.1676E-03     53.6936E-03    -26.7589E-03     42.0083E-03
             566     7.88620E-03     72.6733E-03    -13.6185E+06    -86.3137E+06    -1.59009E+06    -685.349E+03    -27.3217E-03     54.2102E-03    -26.8885E-03     47.3627E-03    -27.2791E-03     53.8175E-03    -26.7516E-03     47.3094E-03
             567     8.76246E-03     72.7209E-03    -12.1348E+06    -81.4330E+06    -884.260E+03    -786.485E+03    -27.4406E-03     54.3164E-03    -26.8757E-03     52.6534E-03    -27.4068E-03     53.9529E-03    -26.7445E-03     52.5865E-03
             568     9.63882E-03     72.7734E-03    -10.9726E+06    -77.4599E+06    -2.11348E+06    -707.154E+03    -27.5772E-03     54.4327E-03    -26.8555E-03     57.9196E-03    -27.5532E-03     54.1009E-03    -26.7378E-03     57.8383E-03
             569     10.5151E-03     72.8309E-03    -10.1485E+06    -69.4708E+06    -4.58624E+06    -584.281E+03    -27.7190E-03     54.5434E-03    -26.8244E-03     63.1083E-03    -27.7159E-03     54.2710E-03    -26.7319E-03     63.0093E-03
             570     11.3915E-03     72.8932E-03    -9.44474E+06    -55.3769E+06    -3.71133E+06    -420.568E+03    -27.8949E-03     54.6967E-03    -26.8018E-03     69.6948E-03    -27.9374E-03     54.5199E-03    -26.7264E-03     69.5737E-03
             571     12.2677E-03     72.9633E-03    -8.87621E+06    -40.7457E+06    -4.82266E+06    -172.487E+03    -28.1406E-03     54.9094E-03    -26.7688E-03     77.8424E-03    -28.2437E-03     54.8503E-03    -26.7209E-03     77.6954E-03
             572     13.1442E-03     73.0411E-03    -8.68974E+06    -26.7479E+06    -11.8791E+06     133.924E+03    -28.1325E-03     54.8394E-03    -26.7068E-03     80.1635E-03    -28.3051E-03     54.9206E-03    -26.7148E-03     79.9872E-03
             573     14.0203E-03     73.1157E-03    -8.75963E+06     5.27291E+06    -13.8440E+06     603.140E+03    -28.6097E-03     55.2531E-03    -26.6434E-03     94.2926E-03    -28.9891E-03     55.6603E-03    -26.7076E-03     94.0839E-03
             574     14.8968E-03     73.2200E-03    -8.92132E+06     61.6639E+06    -12.0754E+06     872.730E+03    -32.2731E-03     58.8308E-03    -26.5576E-03     158.893E-03    -33.6988E-03     60.4787E-03    -26.6945E-03     158.695E-03
             575     15.7737E-03     73.4187E-03    -7.72246E+06     131.682E+06     22.5909E+06     603.957E+03    -39.1907E-03     65.7939E-03    -26.6033E-03     263.029E-03    -45.6801E-03     72.6579E-03    -26.6700E-03     264.139E-03
             576     16.6501E-03     73.7287E-03    -4.46060E+06     177.049E+06     85.1638E+06     395.258E+03    -36.9930E-03     63.8084E-03    -26.8154E-03     260.566E-03    -45.7910E-03     72.9721E-03    -26.6398E-03     265.577E-03
             577     876.207E-06     73.4743E-03    -25.6443E+06    -116.040E+06    -25.3384E+06     69.2159E+03    -26.8763E-03     53.7500E-03    -26.8737E-03     5.69738E-03    -26.7996E-03     53.2439E-03    -26.7949E-03     5.69556E-03
             578     1.75242E-03     73.4818E-03    -25.0169E+06    -114.993E+06    -23.5669E+06     184.558E+03    -26.8926E-03     53.7688E-03    -26.8763E-03     10.5263E-03    -26.8171E-03     53.2647E-03    -26.7911E-03     10.5235E-03
             579     2.62863E-03     73.4943E-03    -24.0180E+06    -113.280E+06    -20.6968E+06     270.971E+03    -26.9192E-03     53.8032E-03    -26.8840E-03     15.6445E-03    -26.8460E-03     53.3026E-03    -26.7884E-03     15.6400E-03
             580     3.50485E-03     73.5116E-03    -22.7168E+06    -110.726E+06    -16.9047E+06     222.506E+03    -26.9556E-03     53.8496E-03    -26.8940E-03     20.8495E-03    -26.8859E-03     53.3551E-03    -26.7850E-03     20.8410E-03
             581     4.38109E-03     73.5339E-03    -21.0459E+06    -107.752E+06    -12.7254E+06    -187.887E+03    -27.0050E-03     53.9088E-03    -26.9038E-03     26.1033E-03    -26.9386E-03     53.4221E-03    -26.7807E-03     26.0854E-03
             582     5.25733E-03     73.5612E-03    -19.1680E+06    -102.511E+06    -9.27490E+06    -727.718E+03    -27.0608E-03     53.9661E-03    -26.9053E-03     31.4046E-03    -26.9994E-03     53.4996E-03    -26.7752E-03     31.3748E-03
             583     6.13359E-03     73.5936E-03    -17.4142E+06    -97.0193E+06    -6.28841E+06    -925.327E+03    -27.1292E-03     54.0320E-03    -26.9029E-03     36.7319E-03    -27.0739E-03     53.5888E-03    -26.7684E-03     36.6933E-03
             584     7.00989E-03     73.6310E-03    -15.6737E+06    -92.4136E+06    -3.68486E+06    -1.03047E+06    -27.2182E-03     54.1174E-03    -26.8992E-03     42.0576E-03    -27.1685E-03     53.6947E-03    -26.7609E-03     42.0097E-03
             585     7.88615E-03     73.6735E-03    -13.9091E+06    -86.1183E+06    -2.18061E+06    -1.09980E+06    -27.3210E-03     54.2086E-03    -26.8876E-03     47.3730E-03    -27.2794E-03     53.8182E-03    -26.7535E-03     47.3144E-03
             586     8.76250E-03     73.7209E-03    -12.4082E+06    -81.4052E+06    -1.26679E+06    -1.03420E+06    -27.4407E-03     54.3166E-03    -26.8759E-03     52.6562E-03    -27.4077E-03     53.9543E-03    -26.7462E-03     52.5861E-03
             587     9.63876E-03     73.7735E-03    -11.2007E+06    -77.4825E+06    -2.50328E+06    -994.302E+03    -27.5830E-03     54.4388E-03    -26.8558E-03     57.9253E-03    -27.5595E-03     54.1078E-03    -26.7397E-03     57.8403E-03
             588     10.5151E-03     73.8310E-03    -10.2767E+06    -69.5761E+06    -4.92754E+06    -897.574E+03    -27.7271E-03     54.5525E-03    -26.8254E-03     63.1273E-03    -27.7241E-03     54.2803E-03    -26.7342E-03     63.0243E-03
             589     11.3914E-03     73.8934E-03    -9.59617E+06    -55.6180E+06    -4.09970E+06    -699.246E+03    -27.8896E-03     54.6923E-03    -26.8027E-03     69.7200E-03    -27.9320E-03     54.5151E-03    -26.7286E-03     69.5954E-03
             590     12.2678E-03     73.9634E-03    -8.92407E+06    -41.0584E+06    -5.17664E+06    -444.008E+03    -28.1326E-03     54.9016E-03    -26.7689E-03     77.9238E-03    -28.2350E-03     54.8415E-03    -26.7224E-03     77.7733E-03
             591     13.1439E-03     74.0414E-03    -8.64493E+06    -27.1945E+06    -12.1878E+06    -72.9163E+03    -28.1069E-03     54.8128E-03    -26.7059E-03     80.1815E-03    -28.2782E-03     54.8923E-03    -26.7149E-03     80.0027E-03
             592     14.0208E-03     74.1154E-03    -8.45176E+06     4.49914E+06    -14.1920E+06     368.925E+03    -28.5068E-03     55.1449E-03    -26.6381E-03     94.3692E-03    -28.8828E-03     55.5480E-03    -26.7033E-03     94.1587E-03
             593     14.8971E-03     74.2207E-03    -8.43614E+06     61.8497E+06    -12.0274E+06     574.076E+03    -32.2120E-03     58.7606E-03    -26.5486E-03     158.645E-03    -33.6331E-03     60.4062E-03    -26.6862E-03     158.444E-03
             594     15.7739E-03     74.4179E-03    -8.23801E+06     131.734E+06     22.4266E+06     550.015E+03    -39.0617E-03     65.6546E-03    -26.5929E-03     262.477E-03    -45.5489E-03     72.5151E-03    -26.6598E-03     263.598E-03
             595     16.6519E-03     74.7295E-03    -5.59348E+06     177.025E+06     84.9524E+06     505.942E+03    -36.9972E-03     63.8033E-03    -26.8061E-03     260.191E-03    -45.7866E-03     72.9549E-03    -26.6299E-03     265.189E-03
             596     876.201E-06     74.4744E-03    -25.9169E+06    -116.092E+06    -25.5736E+06    -32.5807E+03    -26.8728E-03     53.7570E-03    -26.8842E-03     5.69962E-03    -26.7971E-03     53.2513E-03    -26.8061E-03     5.69648E-03
             597     1.75241E-03     74.4820E-03    -25.2677E+06    -115.167E+06    -23.9324E+06         860.531    -26.8971E-03     53.7766E-03    -26.8795E-03     10.5245E-03    -26.8222E-03     53.2726E-03    -26.7956E-03     10.5193E-03
             598     2.62862E-03     74.4944E-03    -24.2196E+06    -113.489E+06    -21.1040E+06     129.396E+03    -26.9228E-03     53.8099E-03    -26.8871E-03     15.6409E-03    -26.8497E-03     53.3091E-03    -26.7929E-03     15.6346E-03
             599     3.50484E-03     74.5117E-03    -22.8410E+06    -110.614E+06    -17.4752E+06     115.677E+03    -26.9574E-03     53.8526E-03    -26.8952E-03     20.8469E-03    -26.8876E-03     53.3597E-03    -26.7891E-03     20.8370E-03
             600     4.38107E-03     74.5340E-03    -21.2298E+06    -106.812E+06    -13.9490E+06    -446.836E+03    -27.0023E-03     53.9021E-03    -26.8999E-03     26.1031E-03    -26.9363E-03     53.4221E-03    -26.7840E-03     26.0819E-03
             601     5.25731E-03     74.5613E-03    -19.5170E+06    -101.973E+06    -10.4655E+06    -1.00070E+06    -27.0576E-03     53.9590E-03    -26.9014E-03     31.4052E-03    -26.9970E-03     53.4974E-03    -26.7775E-03     31.3718E-03
             602     6.13359E-03     74.5937E-03    -17.7167E+06    -96.8483E+06    -6.73058E+06    -1.13341E+06    -27.1286E-03     54.0313E-03    -26.9027E-03     36.7334E-03    -27.0744E-03     53.5900E-03    -26.7702E-03     36.6921E-03
             603     7.00985E-03     74.6311E-03    -15.9278E+06    -91.9268E+06    -3.95907E+06    -1.35715E+06    -27.2177E-03     54.1170E-03    -26.8993E-03     42.0593E-03    -27.1696E-03     53.6975E-03    -26.7627E-03     42.0072E-03
             604     7.88618E-03     74.6735E-03    -14.2963E+06    -86.0780E+06    -2.63652E+06    -1.48380E+06    -27.3201E-03     54.2076E-03    -26.8875E-03     47.3748E-03    -27.2798E-03     53.8186E-03    -26.7551E-03     47.3113E-03
             605     8.76244E-03     74.7211E-03    -12.7369E+06    -81.3209E+06    -1.64539E+06    -1.42819E+06    -27.4418E-03     54.3177E-03    -26.8760E-03     52.6558E-03    -27.4100E-03     53.9569E-03    -26.7478E-03     52.5806E-03
             606     9.63880E-03     74.7736E-03    -11.3841E+06    -77.4332E+06    -2.84684E+06    -1.39759E+06    -27.5861E-03     54.4421E-03    -26.8560E-03     57.9361E-03    -27.5631E-03     54.1121E-03    -26.7415E-03     57.8458E-03
             607     10.5150E-03     74.8311E-03    -10.4256E+06    -69.6951E+06     -5.3432E+06    -1.28450E+06    -27.7236E-03     54.5489E-03    -26.8253E-03     63.1491E-03    -27.7206E-03     54.2769E-03    -26.7358E-03     63.0410E-03
             608     11.3914E-03     74.8935E-03    -9.63033E+06    -55.8598E+06    -4.47098E+06    -1.05204E+06    -27.8764E-03     54.6783E-03    -26.8020E-03     69.7401E-03    -27.9181E-03     54.5005E-03    -26.7294E-03     69.6110E-03
             609     12.2677E-03     74.9635E-03    -9.00891E+06    -41.4166E+06    -5.64471E+06    -765.708E+03    -28.0812E-03     54.8468E-03    -26.7656E-03     77.9416E-03    -28.1827E-03     54.7856E-03    -26.7207E-03     77.7874E-03
             610     13.1444E-03     75.0414E-03    -8.77761E+06    -27.5381E+06    -12.5854E+06    -411.832E+03    -28.1112E-03     54.8126E-03    -26.7013E-03     80.1836E-03    -28.2823E-03     54.8912E-03    -26.7116E-03     80.0004E-03
             611     14.0203E-03     75.1156E-03    -8.83917E+06     3.97149E+06    -14.7557E+06    -49.5280E+03    -28.5865E-03     55.2230E-03    -26.6365E-03     94.1760E-03    -28.9628E-03     55.6248E-03    -26.7032E-03     93.9593E-03
             612     14.8972E-03     75.2203E-03    -9.10038E+06     61.2373E+06    -12.7887E+06     566.340E+03    -32.2745E-03     58.8262E-03    -26.5518E-03     158.320E-03    -33.6943E-03     60.4683E-03    -26.6913E-03     158.118E-03
             613     15.7734E-03     75.4186E-03    -8.75535E+06     131.796E+06     21.5193E+06     994.200E+03    -39.2266E-03     65.8284E-03    -26.6017E-03     262.101E-03    -45.6984E-03     72.6745E-03    -26.6725E-03     263.212E-03
             614     16.6492E-03     75.7277E-03    -5.60590E+06     177.617E+06     84.4686E+06     512.610E+03    -36.9191E-03     63.7373E-03    -26.8182E-03     260.454E-03    -45.7188E-03     72.9026E-03    -26.6452E-03     265.478E-03
             615     876.200E-06     75.4745E-03    -26.0911E+06    -116.015E+06    -25.7372E+06    -32.9716E+03    -26.8840E-03     53.7685E-03    -26.8845E-03     5.69934E-03    -26.8091E-03     53.2638E-03    -26.8071E-03     5.69620E-03
             616     1.75239E-03     75.4821E-03    -25.5706E+06    -115.112E+06    -24.1403E+06    -130.486E+03    -26.9023E-03     53.7876E-03    -26.8853E-03     10.5237E-03    -26.8286E-03     53.2845E-03    -26.8020E-03     10.5169E-03
             617     2.62860E-03     75.4945E-03    -24.6108E+06    -113.704E+06    -21.6210E+06    -82.4295E+03    -26.9257E-03     53.8172E-03    -26.8915E-03     15.6400E-03    -26.8535E-03     53.3166E-03    -26.7990E-03     15.6309E-03
             618     3.50482E-03     75.5119E-03    -23.2699E+06    -110.276E+06    -18.8764E+06    -226.983E+03    -26.9557E-03     53.8491E-03    -26.8933E-03     20.8459E-03    -26.8866E-03     53.3606E-03    -26.7941E-03     20.8315E-03
             619     4.38105E-03     75.5342E-03    -21.7222E+06    -105.740E+06    -15.8144E+06    -833.509E+03    -26.9965E-03     53.8896E-03    -26.8932E-03     26.1025E-03    -26.9318E-03     53.4184E-03    -26.7874E-03     26.0762E-03
             620     5.25731E-03     75.5614E-03    -20.0586E+06    -101.476E+06    -11.5581E+06    -1.32997E+06    -27.0549E-03     53.9533E-03    -26.8984E-03     31.4037E-03    -26.9961E-03     53.4965E-03    -26.7799E-03     31.3661E-03
             621     6.13356E-03     75.5938E-03    -18.1594E+06    -96.4841E+06    -7.15646E+06    -1.59077E+06    -27.1282E-03     54.0310E-03    -26.9028E-03     36.7317E-03    -27.0762E-03     53.5928E-03    -26.7724E-03     36.6844E-03
             622     7.00987E-03     75.6312E-03    -16.1727E+06     -91.478E+06    -4.13844E+06    -1.73537E+06    -27.2182E-03     54.1184E-03    -26.9002E-03     42.0524E-03    -27.1718E-03     53.7018E-03    -26.7648E-03     41.9954E-03
             623     7.88612E-03     75.6737E-03    -14.3730E+06    -85.8547E+06    -2.84463E+06    -1.85215E+06    -27.3211E-03     54.2094E-03    -26.8883E-03     47.3661E-03    -27.2812E-03     53.8220E-03    -26.7572E-03     47.2977E-03
             624     8.76247E-03     75.7212E-03    -12.7866E+06    -81.1675E+06    -2.03968E+06    -1.93142E+06    -27.4411E-03     54.3170E-03    -26.8758E-03     52.6597E-03    -27.4093E-03     53.9575E-03    -26.7498E-03     52.5780E-03
             625     9.63872E-03     75.7737E-03    -11.4334E+06    -77.3983E+06    -3.17010E+06    -1.86678E+06    -27.5832E-03     54.4393E-03    -26.8560E-03     57.9419E-03    -27.5601E-03     54.1099E-03    -26.7431E-03     57.8455E-03
             626     10.5151E-03     75.8312E-03    -10.4408E+06    -69.7850E+06    -5.68823E+06    -1.71207E+06    -27.7178E-03     54.5426E-03    -26.8248E-03     63.1465E-03    -27.7142E-03     54.2707E-03    -26.7369E-03     63.0329E-03
             627     11.3914E-03     75.8936E-03    -9.68002E+06    -56.0807E+06    -4.83378E+06    -1.49849E+06    -27.8672E-03     54.6683E-03    -26.8010E-03     69.7126E-03    -27.9083E-03     54.4899E-03    -26.7298E-03     69.5777E-03
             628     12.2679E-03     75.9635E-03    -9.04909E+06    -41.8759E+06    -6.03211E+06    -1.11293E+06    -28.1016E-03     54.8669E-03    -26.7653E-03     77.8279E-03    -28.2020E-03     54.8040E-03    -26.7216E-03     77.6690E-03
             629     13.1441E-03     76.0414E-03    -8.79315E+06    -28.0474E+06    -12.9401E+06    -696.688E+03    -28.1325E-03     54.8354E-03    -26.7029E-03     80.0711E-03    -28.3023E-03     54.9119E-03    -26.7141E-03     79.8841E-03
             630     14.0208E-03     76.1159E-03    -9.30714E+06     3.44142E+06    -15.3240E+06    -108.624E+03    -28.6425E-03     55.2824E-03    -26.6399E-03     94.1894E-03    -29.0193E-03     55.6828E-03    -26.7080E-03     93.9714E-03
             631     14.8965E-03     76.2205E-03    -9.72402E+06     60.0260E+06    -13.8568E+06     732.140E+03    -32.3271E-03     58.8836E-03    -26.5565E-03     158.451E-03    -33.7481E-03     60.5234E-03    -26.6987E-03     158.250E-03
             632     15.7735E-03     76.4182E-03    -8.61833E+06     132.114E+06     20.8675E+06     983.347E+03    -39.2976E-03     65.9040E-03    -26.6064E-03     262.508E-03    -45.7793E-03     72.7637E-03    -26.6812E-03     263.608E-03
             633     16.6510E-03     76.7293E-03    -5.36564E+06     178.648E+06     84.3102E+06     383.022E+03    -36.9193E-03     63.7426E-03    -26.8233E-03     260.604E-03    -45.7230E-03     72.9169E-03    -26.6530E-03     265.622E-03
             634     876.188E-06     76.4747E-03    -26.2538E+06    -115.928E+06    -25.9043E+06    -47.2245E+03    -26.8912E-03     53.7801E-03    -26.8889E-03     5.69671E-03    -26.8170E-03     53.2763E-03    -26.8122E-03     5.69339E-03
             635     1.75239E-03     76.4823E-03    -25.7252E+06    -114.938E+06    -24.2757E+06    -103.038E+03    -26.9055E-03     53.7961E-03    -26.8906E-03     10.5249E-03    -26.8326E-03     53.2943E-03    -26.8080E-03     10.5184E-03
             636     2.62858E-03     76.4947E-03    -24.7984E+06    -113.577E+06    -21.9089E+06    -305.395E+03    -26.9287E-03     53.8240E-03    -26.8953E-03     15.6431E-03    -26.8572E-03     53.3248E-03    -26.8042E-03     15.6311E-03
             637     3.50480E-03     76.5120E-03    -23.3637E+06    -109.473E+06    -19.5341E+06    -848.529E+03    -26.9552E-03     53.8487E-03    -26.8935E-03     20.8481E-03    -26.8868E-03     53.3653E-03    -26.7985E-03     20.8257E-03
             638     4.38105E-03     76.5343E-03    -21.7197E+06    -104.891E+06    -16.1678E+06    -1.37973E+06    -26.9965E-03     53.8902E-03    -26.8938E-03     26.1023E-03    -26.9325E-03     53.4237E-03    -26.7910E-03     26.0690E-03
             639     5.25728E-03     76.5616E-03    -20.0757E+06    -100.924E+06    -11.6354E+06    -1.65209E+06    -27.0560E-03     53.9564E-03    -26.9005E-03     31.4022E-03    -26.9980E-03     53.5026E-03    -26.7832E-03     31.3604E-03
             640     6.13356E-03     76.5939E-03    -18.3674E+06    -95.8050E+06    -7.63085E+06    -2.00702E+06    -27.1282E-03     54.0309E-03    -26.9028E-03     36.7304E-03    -27.0775E-03     53.5971E-03    -26.7754E-03     36.6778E-03
             641     7.00981E-03     76.6314E-03    -16.4778E+06    -91.1216E+06    -4.75810E+06    -2.29129E+06    -27.2174E-03     54.1171E-03    -26.8998E-03     42.0533E-03    -27.1721E-03     53.7037E-03    -26.7676E-03     41.9891E-03
             642     7.88614E-03     76.6738E-03    -14.5897E+06    -85.4662E+06    -3.36108E+06    -2.39315E+06    -27.3199E-03     54.2078E-03    -26.8880E-03     47.3681E-03    -27.2809E-03     53.8234E-03    -26.7597E-03     47.2927E-03
             643     8.76240E-03     76.7213E-03    -12.9377E+06    -80.9379E+06    -2.56770E+06    -2.45943E+06    -27.4387E-03     54.3139E-03    -26.8752E-03     52.6631E-03    -27.4072E-03     53.9566E-03    -26.7519E-03     52.5745E-03
             644     9.63877E-03     76.7738E-03    -11.5680E+06    -77.3475E+06    -3.69543E+06    -2.41322E+06    -27.5803E-03     54.4356E-03    -26.8552E-03     57.9470E-03    -27.5571E-03     54.1075E-03    -26.7448E-03     57.8437E-03
             645     10.5150E-03     76.8313E-03    -10.5088E+06    -69.9043E+06    -6.15975E+06    -2.22636E+06    -27.7176E-03     54.5418E-03    -26.8241E-03     63.1413E-03    -27.7135E-03     54.2700E-03    -26.7383E-03     63.0212E-03
             646     11.3914E-03     76.8937E-03    -9.72845E+06    -56.3174E+06    -5.32517E+06    -1.90532E+06    -27.8799E-03     54.6807E-03    -26.8008E-03     69.6944E-03    -27.9202E-03     54.5019E-03    -26.7316E-03     69.5542E-03
             647     12.2676E-03     76.9637E-03    -9.12608E+06    -42.3005E+06    -6.52729E+06    -1.50954E+06    -28.1443E-03     54.9114E-03    -26.7671E-03     77.8859E-03    -28.2439E-03     54.8474E-03    -26.7251E-03     77.7216E-03
             648     13.1440E-03     77.0416E-03    -8.95020E+06    -28.8087E+06    -13.5941E+06    -892.747E+03    -28.1572E-03     54.8634E-03    -26.7062E-03     80.1504E-03    -28.3260E-03     54.9375E-03    -26.7194E-03     79.9605E-03
             649     14.0201E-03     77.1158E-03    -9.00972E+06     2.52445E+06    -15.6441E+06    -29.1362E+03    -28.5269E-03     55.1680E-03    -26.6410E-03     94.2864E-03    -28.8998E-03     55.5632E-03    -26.7099E-03     94.0708E-03
             650     14.8973E-03     77.2209E-03    -8.95684E+06     59.2476E+06    -14.1154E+06     594.633E+03    -32.2987E-03     58.8505E-03    -26.5518E-03     158.631E-03    -33.7159E-03     60.4871E-03    -26.6953E-03     158.428E-03
             651     15.7733E-03     77.4182E-03    -8.17451E+06     132.227E+06     20.4521E+06      730.99E+03    -39.4558E-03     66.0589E-03    -26.6031E-03     262.598E-03    -45.9481E-03     72.9323E-03    -26.6807E-03     263.693E-03
             652     16.6495E-03     77.7291E-03    -4.88130E+06     179.305E+06     84.3717E+06     522.075E+03    -36.8479E-03     63.6732E-03    -26.8253E-03     259.931E-03    -45.6280E-03     72.8278E-03    -26.6563E-03     264.937E-03
             653     876.183E-06     77.4748E-03    -26.3980E+06    -115.764E+06    -26.0840E+06    -113.892E+03    -26.8903E-03     53.7870E-03    -26.8967E-03     5.69309E-03    -26.8168E-03     53.2845E-03    -26.8210E-03     5.68891E-03
             654     1.75238E-03     77.4824E-03    -25.7354E+06    -114.740E+06    -24.4722E+06    -229.406E+03    -26.9084E-03     53.8018E-03    -26.8934E-03     10.5278E-03    -26.8356E-03     53.3013E-03    -26.8121E-03     10.5196E-03
             655     2.62858E-03     77.4948E-03    -24.5018E+06    -112.722E+06    -21.8341E+06    -768.910E+03    -26.9310E-03     53.8285E-03    -26.8976E-03     15.6454E-03    -26.8593E-03     53.3331E-03    -26.8078E-03     15.6274E-03
             656     3.50479E-03     77.5121E-03    -22.9869E+06    -108.370E+06    -18.9173E+06    -1.52720E+06    -26.9590E-03     53.8568E-03    -26.8978E-03     20.8497E-03    -26.8911E-03     53.3775E-03    -26.8020E-03     20.8186E-03
             657     4.38102E-03     77.5344E-03    -21.5658E+06    -104.413E+06    -15.5372E+06    -1.76160E+06    -27.0011E-03     53.9009E-03    -26.8998E-03     26.1027E-03    -26.9380E-03     53.4356E-03    -26.7948E-03     26.0645E-03
             658     5.25727E-03     77.5617E-03    -20.0644E+06    -100.222E+06    -11.7033E+06    -1.94479E+06    -27.0576E-03     53.9605E-03    -26.9029E-03     31.4028E-03    -27.0005E-03     53.5103E-03    -26.7870E-03     31.3572E-03
             659     6.13352E-03     77.5941E-03    -18.2589E+06    -94.9170E+06    -8.11845E+06    -2.41143E+06    -27.1272E-03     54.0296E-03    -26.9023E-03     36.7320E-03    -27.0766E-03     53.6007E-03    -26.7788E-03     36.6741E-03
             660     7.00983E-03     77.6315E-03    -16.4317E+06    -90.5718E+06    -5.26520E+06    -2.78364E+06    -27.2158E-03     54.1150E-03    -26.8992E-03     42.0545E-03    -27.1704E-03     53.7050E-03    -26.7704E-03     41.9840E-03
             661     7.88608E-03     77.6739E-03    -14.7102E+06    -85.0251E+06    -3.87571E+06    -2.98742E+06    -27.3181E-03     54.2054E-03    -26.8873E-03     47.3705E-03    -27.2796E-03     53.8240E-03    -26.7620E-03     47.2875E-03
             662     8.76243E-03     77.7214E-03    -13.0510E+06    -80.5933E+06    -3.08151E+06    -3.09479E+06    -27.4375E-03     54.3118E-03    -26.8743E-03     52.6652E-03    -27.4063E-03     53.9571E-03    -26.7539E-03     52.5685E-03
             663     9.63869E-03     77.7739E-03    -11.6341E+06    -77.2860E+06    -4.27491E+06    -3.03432E+06    -27.5750E-03     54.4289E-03    -26.8539E-03     57.9555E-03    -27.5513E-03     54.1020E-03    -26.7463E-03     57.8442E-03
             664     10.5151E-03     77.8314E-03    -10.6186E+06    -70.0067E+06    -6.75660E+06    -2.79536E+06    -27.7152E-03     54.5376E-03    -26.8225E-03     63.1636E-03    -27.7105E-03     54.2664E-03    -26.7394E-03     63.0362E-03
             665     11.3913E-03     77.8938E-03    -9.79618E+06    -56.6739E+06    -5.93370E+06    -2.42727E+06    -27.8824E-03     54.6815E-03    -26.7991E-03     69.7445E-03    -27.9215E-03     54.5019E-03    -26.7324E-03     69.5976E-03
             666     12.2678E-03     77.9638E-03    -9.17166E+06    -42.7897E+06    -7.08527E+06    -1.87314E+06    -28.1117E-03     54.8761E-03    -26.7644E-03     77.9931E-03    -28.2099E-03     54.8104E-03    -26.7245E-03     77.8244E-03
             667     13.1441E-03     78.0418E-03    -8.89927E+06    -29.5225E+06    -14.1161E+06    -1.19616E+06    -28.1256E-03     54.8270E-03    -26.7014E-03     80.2955E-03    -28.2922E-03     54.8982E-03    -26.7163E-03     80.1021E-03
             668     14.0207E-03     78.1160E-03    -8.63584E+06     1.39905E+06    -16.1375E+06    -329.276E+03    -28.5633E-03     55.1999E-03    -26.6365E-03     94.2332E-03    -28.9321E-03     55.5898E-03    -26.7067E-03     94.0134E-03
             669     14.8969E-03     78.2203E-03    -8.80338E+06     58.7017E+06    -14.6567E+06     289.471E+03    -32.2827E-03     58.8298E-03    -26.5472E-03     158.620E-03    -33.6969E-03     60.4637E-03    -26.6928E-03     158.414E-03
             670     15.7737E-03     78.4193E-03    -8.34809E+06     132.044E+06     19.7122E+06     583.732E+03    -39.3374E-03     65.9291E-03    -26.5918E-03     263.152E-03    -45.8428E-03     72.8165E-03    -26.6726E-03     264.257E-03
             671     16.6502E-03     78.7297E-03    -5.11978E+06     179.606E+06     84.0265E+06     576.419E+03    -36.9174E-03     63.7284E-03    -26.8110E-03     260.214E-03    -45.7045E-03     72.8913E-03    -26.6439E-03     265.218E-03
             672     876.190E-06     78.4750E-03    -26.5592E+06    -115.348E+06    -26.2914E+06    -298.939E+03    -26.8961E-03     53.7914E-03    -26.8952E-03     5.69812E-03    -26.8237E-03     53.2915E-03    -26.8209E-03     5.69153E-03
             673     1.75237E-03     78.4826E-03    -25.7654E+06    -114.178E+06    -24.6494E+06    -648.963E+03    -26.9122E-03     53.8076E-03    -26.8954E-03     10.5254E-03    -26.8402E-03     53.3103E-03    -26.8157E-03     10.5119E-03
             674     2.62857E-03     78.4950E-03    -24.7074E+06    -111.368E+06    -22.4218E+06    -1.32357E+06    -26.9301E-03     53.8266E-03    -26.8965E-03     15.6435E-03    -26.8605E-03     53.3390E-03    -26.8113E-03     15.6184E-03
             675     3.50478E-03     78.5123E-03    -23.5810E+06    -107.320E+06    -19.4468E+06    -1.90897E+06    -26.9584E-03     53.8561E-03    -26.8977E-03     20.8485E-03    -26.8943E-03     53.3837E-03    -26.8051E-03     20.8124E-03
             676     4.38101E-03     78.5346E-03    -22.1256E+06    -104.029E+06    -15.5537E+06    -2.08894E+06    -27.0037E-03     53.9070E-03    -26.9034E-03     26.1023E-03    -26.9439E-03     53.4445E-03    -26.7982E-03     26.0598E-03
             677     5.25724E-03     78.5619E-03    -20.2934E+06    -99.2481E+06    -11.9677E+06    -2.41180E+06    -27.0580E-03     53.9621E-03    -26.9041E-03     31.4036E-03    -27.0030E-03     53.5174E-03    -26.7906E-03     31.3519E-03
             678     6.13352E-03     78.5942E-03    -18.4131E+06    -93.9349E+06    -8.68983E+06    -2.95461E+06    -27.1251E-03     54.0265E-03    -26.9015E-03     36.7329E-03    -27.0758E-03     53.6037E-03    -26.7820E-03     36.6680E-03
             679     7.00977E-03     78.6316E-03    -16.4964E+06    -89.8600E+06    -5.79310E+06    -3.33914E+06    -27.2137E-03     54.1121E-03    -26.8983E-03     42.0555E-03    -27.1689E-03     53.7064E-03    -26.7731E-03     41.9778E-03
             680     7.88610E-03     78.6740E-03    -14.6235E+06    -84.3862E+06    -4.31652E+06    -3.62631E+06    -27.3158E-03     54.2020E-03    -26.8862E-03     47.3741E-03    -27.2771E-03     53.8244E-03    -26.7642E-03     47.2828E-03
             681     8.76236E-03     78.7216E-03    -13.0008E+06    -80.2374E+06    -3.52553E+06    -3.74357E+06    -27.4327E-03     54.3058E-03    -26.8731E-03     52.6705E-03    -27.4011E-03     53.9535E-03    -26.7556E-03     52.5654E-03
             682     9.63874E-03     78.7740E-03    -11.6782E+06    -77.1512E+06    -4.74657E+06    -3.66268E+06    -27.5689E-03     54.4213E-03    -26.8524E-03     57.9604E-03    -27.5450E-03     54.0958E-03    -26.7473E-03     57.8409E-03
             683     10.5150E-03     78.8315E-03    -10.6606E+06    -70.1303E+06    -7.26029E+06    -3.42088E+06    -27.7022E-03     54.5225E-03    -26.8203E-03     63.1817E-03    -27.6968E-03     54.2514E-03    -26.7394E-03     63.0462E-03
             684     11.3914E-03     78.8939E-03    -9.87844E+06    -56.9918E+06    -6.43681E+06    -3.00717E+06    -27.8579E-03     54.6536E-03    -26.7957E-03     69.7655E-03    -27.8963E-03     54.4733E-03    -26.7309E-03     69.6113E-03
             685     12.2677E-03     78.9639E-03    -9.13287E+06    -43.4202E+06    -7.58668E+06    -2.43498E+06    -28.0857E-03     54.8452E-03    -26.7596E-03     77.9686E-03    -28.1819E-03     54.7769E-03    -26.7213E-03     77.7929E-03
             686     13.1442E-03     79.0418E-03    -8.75975E+06    -30.3990E+06    -14.6148E+06    -1.64441E+06    -28.0888E-03     54.7836E-03    -26.6949E-03     80.2142E-03    -28.2523E-03     54.8505E-03    -26.7112E-03     80.0155E-03
             687     14.0205E-03     79.1161E-03    -9.07841E+06     234.284E+03    -16.9881E+06    -753.129E+03    -28.5980E-03     55.2276E-03    -26.6296E-03     94.2839E-03    -28.9665E-03     55.6140E-03    -26.7017E-03     94.0581E-03
             688     14.8969E-03     79.2208E-03    -9.14563E+06     57.9960E+06    -15.8419E+06     90.1911E+03    -32.2986E-03     58.8378E-03    -26.5392E-03     158.737E-03    -33.7133E-03     60.4718E-03    -26.6893E-03     158.528E-03
             689     15.7736E-03     79.4185E-03    -8.37360E+06     131.887E+06     18.9390E+06     583.293E+03    -38.9944E-03     65.5708E-03    -26.5764E-03     263.005E-03    -45.4884E-03     72.4483E-03    -26.6608E-03     264.139E-03
             690     16.6516E-03     79.7302E-03    -5.46945E+06     179.836E+06     83.8542E+06     471.297E+03    -36.9397E-03     63.7312E-03    -26.7915E-03     260.159E-03    -45.7217E-03     72.8891E-03    -26.6251E-03     265.157E-03
             691     876.174E-06     79.4752E-03    -26.9185E+06    -114.564E+06    -26.6744E+06    -503.487E+03    -26.9018E-03     53.7960E-03    -26.8943E-03     5.69442E-03    -26.8317E-03     53.3011E-03    -26.8225E-03     5.68519E-03
             692     1.75236E-03     79.4828E-03    -26.4269E+06    -113.071E+06    -25.5304E+06    -1.02755E+06    -26.9111E-03     53.8058E-03    -26.8947E-03     10.5232E-03    -26.8427E-03     53.3162E-03    -26.8201E-03     10.5048E-03
             693     2.62855E-03     79.4952E-03    -25.6236E+06    -109.988E+06    -23.5019E+06    -1.67756E+06    -26.9271E-03     53.8211E-03    -26.8941E-03     15.6427E-03    -26.8626E-03     53.3434E-03    -26.8149E-03     15.6129E-03
             694     3.50478E-03     79.5124E-03    -24.4717E+06    -106.308E+06    -20.1673E+06    -2.16439E+06    -26.9573E-03     53.8546E-03    -26.8973E-03     20.8475E-03    -26.8980E-03     53.3896E-03    -26.8085E-03     20.8081E-03
             695     4.38098E-03     79.5348E-03    -22.8345E+06    -103.168E+06    -16.1575E+06    -2.66025E+06    -27.0030E-03     53.9066E-03    -26.9036E-03     26.1014E-03    -26.9472E-03     53.4503E-03    -26.8017E-03     26.0515E-03
             696     5.25724E-03     79.5620E-03    -20.8518E+06    -98.1934E+06    -12.5926E+06    -3.13258E+06    -27.0559E-03     53.9595E-03    -26.9036E-03     31.4027E-03    -27.0044E-03     53.5218E-03    -26.7939E-03     31.3417E-03
             697     6.13348E-03     79.5944E-03    -18.8241E+06    -92.8497E+06    -9.33507E+06    -3.59009E+06    -27.1219E-03     54.0221E-03    -26.9002E-03     36.7325E-03    -27.0753E-03     53.6061E-03    -26.7850E-03     36.6594E-03
             698     7.00979E-03     79.6317E-03    -16.8599E+06    -88.9237E+06    -6.54341E+06    -4.09762E+06    -27.2089E-03     54.1051E-03    -26.8961E-03     42.0613E-03    -27.1662E-03     53.7057E-03    -26.7755E-03     41.9738E-03
             699     7.88605E-03     79.6742E-03    -14.9789E+06    -83.6788E+06    -5.04268E+06    -4.40537E+06    -27.3090E-03     54.1928E-03    -26.8838E-03     47.3807E-03    -27.2721E-03     53.8203E-03    -26.7659E-03     47.2794E-03
             700     8.76241E-03     79.7216E-03    -13.2759E+06    -79.8616E+06    -4.11055E+06    -4.45293E+06    -27.4260E-03     54.2971E-03    -26.8711E-03     52.6719E-03    -27.3955E-03     53.9479E-03    -26.7566E-03     52.5577E-03
             701     9.63868E-03     79.7741E-03    -11.8626E+06    -76.9701E+06    -5.32871E+06    -4.32690E+06    -27.5629E-03     54.4128E-03    -26.8499E-03     57.9606E-03    -27.5393E-03     54.0893E-03    -26.7477E-03     57.8326E-03
             702     10.5151E-03     79.8316E-03    -10.8635E+06    -70.1755E+06    -7.86344E+06    -4.09412E+06    -27.6870E-03     54.5042E-03    -26.8172E-03     63.1726E-03    -27.6817E-03     54.2340E-03    -26.7390E-03     63.0285E-03
             703     11.3914E-03     79.8940E-03    -9.97643E+06    -57.3339E+06    -7.04150E+06    -3.67407E+06    -27.8411E-03     54.6328E-03    -26.7917E-03     69.7570E-03    -27.8785E-03     54.4517E-03    -26.7293E-03     69.5942E-03
             704     12.2679E-03     79.9640E-03    -9.25286E+06    -43.9985E+06    -8.23684E+06    -3.07444E+06    -28.0789E-03     54.8338E-03    -26.7550E-03     77.9520E-03    -28.1740E-03     54.7638E-03    -26.7189E-03     77.7680E-03
             705     13.1441E-03     80.0419E-03    -8.88202E+06    -31.3325E+06    -15.2827E+06    -2.29178E+06    -28.1014E-03     54.7923E-03    -26.6910E-03     80.2312E-03    -28.2634E-03     54.8559E-03    -26.7091E-03     80.0240E-03
             706     14.0207E-03     80.1161E-03    -8.84726E+06    -1.00636E+06    -17.5686E+06    -1.16145E+06    -28.5256E-03     55.1499E-03    -26.6243E-03     94.2720E-03    -28.8901E-03     55.5303E-03    -26.6978E-03     94.0420E-03
             707     14.8974E-03     80.2209E-03    -8.99307E+06     56.9910E+06    -16.5367E+06    -64.7453E+03    -32.2539E-03     58.7837E-03    -26.5299E-03     158.641E-03    -33.6635E-03     60.4117E-03    -26.6821E-03     158.431E-03
             708     15.7738E-03     80.4188E-03    -8.18299E+06     131.534E+06     18.2951E+06     549.043E+03    -39.2153E-03     65.7886E-03    -26.5732E-03     262.448E-03    -45.6855E-03     72.6436E-03    -26.6606E-03     263.560E-03
             709     16.6504E-03     80.7287E-03    -5.08240E+06     180.251E+06     83.6498E+06     564.091E+03    -36.9761E-03     63.7746E-03    -26.7984E-03     260.282E-03    -45.7710E-03     72.9487E-03    -26.6342E-03     265.298E-03
             710     876.181E-06     80.4754E-03    -28.1291E+06    -113.343E+06    -27.8542E+06    -674.887E+03    -26.8936E-03     53.7906E-03    -26.8970E-03     5.69960E-03    -26.8296E-03     53.3052E-03    -26.8311E-03     5.68815E-03
             711     1.75235E-03     80.4830E-03    -27.3471E+06    -111.537E+06    -26.3950E+06    -1.42872E+06    -26.9085E-03     53.8012E-03    -26.8927E-03     10.5236E-03    -26.8457E-03     53.3219E-03    -26.8233E-03     10.4999E-03
             712     2.62856E-03     80.4953E-03    -26.2245E+06    -108.648E+06    -23.6217E+06    -2.06961E+06    -26.9287E-03     53.8248E-03    -26.8960E-03     15.6402E-03    -26.8690E-03     53.3547E-03    -26.8186E-03     15.6053E-03
             713     3.50475E-03     80.5126E-03    -24.7398E+06    -105.064E+06    -20.2296E+06    -2.63123E+06    -26.9591E-03     53.8590E-03    -26.8998E-03     20.8442E-03    -26.9029E-03     53.4006E-03    -26.8128E-03     20.7988E-03
             714     4.38098E-03     80.5349E-03    -23.0167E+06    -101.797E+06    -16.5813E+06    -3.27746E+06    -27.0017E-03     53.9055E-03    -26.9038E-03     26.0970E-03    -26.9482E-03     53.4569E-03    -26.8057E-03     26.0392E-03
             715     5.25720E-03     80.5622E-03    -21.1094E+06    -96.9947E+06    -13.0847E+06    -3.91288E+06    -27.0534E-03     53.9566E-03    -26.9032E-03     31.3985E-03    -27.0042E-03     53.5261E-03    -26.7974E-03     31.3274E-03
             716     6.13349E-03     80.5945E-03    -19.0229E+06    -91.6635E+06    -9.79908E+06    -4.44571E+06    -27.1187E-03     54.0181E-03    -26.8994E-03     36.7283E-03    -27.0742E-03     53.6091E-03    -26.7879E-03     36.6441E-03
             717     7.00974E-03     80.6319E-03    -16.9581E+06    -87.8160E+06    -6.92439E+06    -4.87917E+06    -27.2043E-03     54.0994E-03    -26.8951E-03     42.0557E-03    -27.1631E-03     53.7063E-03    -26.7778E-03     41.9581E-03
             718     7.88608E-03     80.6743E-03    -15.1229E+06    -82.9102E+06    -5.48945E+06    -5.18544E+06    -27.3031E-03     54.1854E-03    -26.8823E-03     47.3720E-03    -27.2674E-03     53.8177E-03    -26.7676E-03     47.2606E-03
             719     8.76235E-03     80.7218E-03    -13.4708E+06    -79.4206E+06    -4.62891E+06    -5.25296E+06    -27.4208E-03     54.2900E-03    -26.8692E-03     52.6637E-03    -27.3912E-03     53.9441E-03    -26.7577E-03     52.5391E-03
             720     9.63873E-03     80.7742E-03    -12.0103E+06    -76.7481E+06    -5.88155E+06    -5.13863E+06    -27.5559E-03     54.4035E-03    -26.8476E-03     57.9491E-03    -27.5326E-03     54.0822E-03    -26.7483E-03     57.8106E-03
             721     10.5150E-03     80.8317E-03    -10.8663E+06    -70.2182E+06    -8.41803E+06    -4.82348E+06    -27.6839E-03     54.4985E-03    -26.8146E-03     63.1433E-03    -27.6777E-03     54.2289E-03    -26.7391E-03     62.9897E-03
             722     11.3915E-03     80.8940E-03    -10.0450E+06    -57.5813E+06    -7.62707E+06    -4.41250E+06    -27.8394E-03     54.6286E-03    -26.7892E-03     69.7343E-03    -27.8759E-03     54.4472E-03    -26.7293E-03     69.5621E-03
             723     12.2678E-03     80.9640E-03    -9.23234E+06    -44.6471E+06    -8.85678E+06    -3.79489E+06    -28.0748E-03     54.8274E-03    -26.7526E-03     77.9041E-03    -28.1679E-03     54.7549E-03    -26.7187E-03     77.7108E-03
             724     13.1443E-03     81.0419E-03    -8.82252E+06    -32.2765E+06    -15.9716E+06    -2.87227E+06    -28.0884E-03     54.7764E-03    -26.6880E-03     80.1982E-03    -28.2476E-03     54.8360E-03    -26.7083E-03     79.9836E-03
             725     14.0205E-03     81.1163E-03    -9.00975E+06    -2.41392E+06    -18.4449E+06    -1.76795E+06    -28.5469E-03     55.1686E-03    -26.6217E-03     94.1720E-03    -28.9084E-03     55.5430E-03    -26.6974E-03     93.9339E-03
             726     14.8970E-03     81.2205E-03    -9.04212E+06     55.7271E+06    -17.8161E+06    -530.549E+03    -32.3011E-03     58.8285E-03    -26.5273E-03     158.474E-03    -33.7065E-03     60.4512E-03    -26.6841E-03     158.257E-03
             727     15.7739E-03     81.4192E-03    -8.20708E+06     130.948E+06     17.0648E+06     343.084E+03    -39.3957E-03     65.9717E-03    -26.5760E-03     262.467E-03    -45.8639E-03     72.8261E-03    -26.6686E-03     263.554E-03
             728     16.6500E-03     81.7294E-03    -5.43955E+06     180.498E+06     83.2268E+06     574.642E+03    -36.9773E-03     63.7854E-03    -26.8081E-03     260.559E-03    -45.7862E-03     72.9744E-03    -26.6458E-03     265.579E-03
             729     876.168E-06     81.4756E-03    -28.3757E+06    -111.492E+06    -28.1855E+06    -1.05815E+06    -26.8977E-03     53.7906E-03    -26.8929E-03     5.70218E-03    -26.8372E-03     53.3153E-03    -26.8310E-03     5.68577E-03
             730     1.75236E-03     81.4831E-03    -27.5832E+06    -109.723E+06    -26.1867E+06    -1.88324E+06    -26.9112E-03     53.8070E-03    -26.8958E-03     10.5194E-03    -26.8524E-03     53.3367E-03    -26.8276E-03     10.4899E-03
             731     2.62853E-03     81.4955E-03    -26.3987E+06    -107.127E+06    -23.5472E+06    -2.54215E+06    -26.9315E-03     53.8310E-03    -26.8996E-03     15.6371E-03    -26.8749E-03     53.3688E-03    -26.8237E-03     15.5962E-03
             732     3.50474E-03     81.5128E-03    -24.9325E+06    -103.489E+06    -20.6030E+06    -3.22550E+06    -26.9591E-03     53.8600E-03    -26.9009E-03     20.8419E-03    -26.9056E-03     53.4104E-03    -26.8177E-03     20.7888E-03
             733     4.38094E-03     81.5351E-03    -23.1829E+06    -100.189E+06    -17.0327E+06    -3.95169E+06    -27.0002E-03     53.9040E-03    -26.9038E-03     26.0938E-03    -26.9491E-03     53.4644E-03    -26.8101E-03     26.0272E-03
             734     5.25720E-03     81.5623E-03    -21.2650E+06    -95.4671E+06    -13.4901E+06    -4.67065E+06    -27.0514E-03     53.9544E-03    -26.9030E-03     31.3933E-03    -27.0046E-03     53.5323E-03    -26.8012E-03     31.3125E-03
             735     6.13344E-03     81.5946E-03    -19.3101E+06    -90.2939E+06    -10.2232E+06    -5.31747E+06    -27.1157E-03     54.0147E-03    -26.8990E-03     36.7213E-03    -27.0740E-03     53.6135E-03    -26.7912E-03     36.6259E-03
             736     7.00975E-03     81.6320E-03    -17.2775E+06    -86.6644E+06    -7.46600E+06    -5.79744E+06    -27.1999E-03     54.0939E-03    -26.8940E-03     42.0478E-03    -27.1611E-03     53.7078E-03    -26.7806E-03     41.9384E-03
             737     7.88602E-03     81.6744E-03    -15.2869E+06    -82.0459E+06    -6.03568E+06    -6.04104E+06    -27.2989E-03     54.1797E-03    -26.8808E-03     47.3643E-03    -27.2645E-03     53.8173E-03    -26.7699E-03     47.2419E-03
             738     8.76238E-03     81.7218E-03    -13.5432E+06    -78.8719E+06    -5.15977E+06    -6.10466E+06    -27.4156E-03     54.2832E-03    -26.8676E-03     52.6549E-03    -27.3864E-03     53.9409E-03    -26.7594E-03     52.5194E-03
             739     9.63867E-03     81.7743E-03    -12.0942E+06    -76.4028E+06    -6.43432E+06    -6.02226E+06    -27.5521E-03     54.3977E-03    -26.8457E-03     57.9353E-03    -27.5289E-03     54.0790E-03    -26.7495E-03     57.7854E-03
             740     10.5151E-03     81.8317E-03    -10.9486E+06    -70.2650E+06    -9.04297E+06    -5.74953E+06    -27.6920E-03     54.5050E-03    -26.8130E-03     63.1308E-03    -27.6853E-03     54.2362E-03    -26.7405E-03     62.9653E-03
             741     11.3913E-03     81.8941E-03    -10.0041E+06    -57.9043E+06    -8.19285E+06    -5.12939E+06    -27.8505E-03     54.6392E-03    -26.7888E-03     69.7015E-03    -27.8855E-03     54.4570E-03    -26.7313E-03     69.5198E-03
             742     12.2678E-03     81.9640E-03    -9.32195E+06    -45.0649E+06    -9.38662E+06    -4.52943E+06    -28.0982E-03     54.8519E-03    -26.7537E-03     77.8790E-03    -28.1904E-03     54.7783E-03    -26.7218E-03     77.6761E-03
             743     13.1440E-03     82.0420E-03    -8.86497E+06    -33.3908E+06    -16.6084E+06    -3.71886E+06    -28.0977E-03     54.7884E-03    -26.6906E-03     80.0704E-03    -28.2545E-03     54.8432E-03    -26.7124E-03     79.8448E-03
             744     14.0208E-03     82.1161E-03    -8.79174E+06    -4.05892E+06    -19.0986E+06    -2.23341E+06    -28.5718E-03     55.1973E-03    -26.6254E-03     94.1236E-03    -28.9292E-03     55.5644E-03    -26.7023E-03     93.8791E-03
             745     14.8971E-03     82.2210E-03    -9.54291E+06     54.4616E+06    -19.2369E+06    -870.535E+03    -32.3912E-03     58.9217E-03    -26.5305E-03     158.554E-03    -33.7974E-03     60.5431E-03    -26.6918E-03     158.330E-03
             746     15.7732E-03     82.4188E-03    -8.98181E+06     130.110E+06     14.8501E+06    -30.9479E+03    -39.2669E-03     65.8397E-03    -26.5729E-03     262.687E-03    -45.7441E-03     72.7039E-03    -26.6742E-03     263.786E-03
             747     16.6506E-03     82.7300E-03    -5.62412E+06     180.470E+06     82.2762E+06     329.413E+03    -36.8362E-03     63.6368E-03    -26.8006E-03     260.597E-03    -45.6372E-03     72.8199E-03    -26.6428E-03     265.618E-03
             748     876.178E-06     82.4757E-03    -28.0455E+06    -109.156E+06    -27.5650E+06    -1.24027E+06    -26.9034E-03     53.8000E-03    -26.8967E-03     5.69752E-03    -26.8455E-03     53.3351E-03    -26.8355E-03     5.67875E-03
             749     1.75232E-03     82.4834E-03    -27.4902E+06    -107.662E+06    -26.1665E+06    -2.08345E+06    -26.9140E-03     53.8131E-03    -26.8990E-03     10.5205E-03    -26.8579E-03     53.3530E-03    -26.8339E-03     10.4884E-03
             750     2.62853E-03     82.4957E-03    -26.5094E+06    -105.235E+06    -23.9159E+06    -2.97259E+06    -26.9321E-03     53.8329E-03    -26.9008E-03     15.6365E-03    -26.8783E-03     53.3808E-03    -26.8294E-03     15.5900E-03
             751     3.50471E-03     82.5130E-03    -25.0924E+06    -101.589E+06    -21.0041E+06    -3.83678E+06    -26.9586E-03     53.8600E-03    -26.9014E-03     20.8389E-03    -26.9080E-03     53.4206E-03    -26.8227E-03     20.7779E-03
             752     4.38095E-03     82.5352E-03    -23.3977E+06    -98.3301E+06    -17.4644E+06    -4.69305E+06    -26.9989E-03     53.9026E-03    -26.9037E-03     26.0895E-03    -26.9510E-03     53.4732E-03    -26.8145E-03     26.0133E-03
             753     5.25716E-03     82.5625E-03    -21.4804E+06    -93.7130E+06    -13.9021E+06    -5.47508E+06    -27.0493E-03     53.9520E-03    -26.9027E-03     31.3885E-03    -27.0055E-03     53.5396E-03    -26.8051E-03     31.2972E-03
             754     6.13344E-03     82.5948E-03    -19.4543E+06     -88.706E+06    -10.6077E+06    -6.14585E+06    -27.1128E-03     54.0112E-03    -26.8985E-03     36.7150E-03    -27.0735E-03     53.6188E-03    -26.7947E-03     36.6089E-03
             755     7.00970E-03     82.6321E-03    -17.4781E+06    -85.3021E+06    -7.93100E+06    -6.71580E+06    -27.1959E-03     54.0889E-03    -26.8929E-03     42.0421E-03    -27.1595E-03     53.7105E-03    -26.7836E-03     41.9207E-03
             756     7.88604E-03     82.6745E-03    -15.5979E+06    -81.1370E+06    -6.65339E+06    -7.03026E+06    -27.2943E-03     54.1736E-03    -26.8793E-03     47.3616E-03    -27.2618E-03     53.8171E-03    -26.7723E-03     47.2264E-03
             757     8.76232E-03     82.7220E-03    -13.7657E+06    -78.1198E+06    -5.75621E+06    -7.13015E+06    -27.4113E-03     54.2771E-03    -26.8658E-03     52.6519E-03    -27.3834E-03     53.9396E-03    -26.7613E-03     52.5031E-03
             758     9.63870E-03     82.7744E-03    -12.0838E+06    -75.9892E+06    -6.92832E+06    -7.08153E+06    -27.5517E-03     54.3959E-03    -26.8442E-03     57.9348E-03    -27.5284E-03     54.0800E-03    -26.7512E-03     57.7712E-03
             759     10.5150E-03     82.8319E-03    -10.8046E+06    -70.2204E+06    -9.57662E+06    -6.74015E+06    -27.6963E-03     54.5080E-03    -26.8117E-03     63.1483E-03    -27.6882E-03     54.2400E-03    -26.7421E-03     62.9699E-03
             760     11.3914E-03     82.8941E-03    -9.69797E+06    -58.3653E+06    -8.85062E+06    -6.15794E+06    -27.8673E-03     54.6551E-03    -26.7878E-03     69.7222E-03    -27.8993E-03     54.4712E-03    -26.7334E-03     69.5272E-03
             761     12.2677E-03     82.9641E-03    -8.86081E+06    -45.8046E+06    -10.0114E+06    -5.05239E+06    -28.1071E-03     54.8606E-03    -26.7535E-03     77.9476E-03    -28.1950E-03     54.7835E-03    -26.7243E-03     77.7379E-03
             762     13.1442E-03     83.0421E-03    -9.01372E+06    -34.0757E+06    -17.3395E+06    -4.10271E+06    -28.1153E-03     54.8063E-03    -26.6910E-03     80.1622E-03    -28.2708E-03     54.8591E-03    -26.7152E-03     79.9316E-03
             763     14.0202E-03     83.1161E-03    -9.16953E+06    -5.92438E+06    -20.1037E+06    -3.04478E+06    -28.6093E-03     55.2368E-03    -26.6275E-03     94.3281E-03    -28.9655E-03     55.5977E-03    -26.7061E-03     94.0726E-03
             764     14.8969E-03     83.2211E-03    -8.82959E+06     52.8751E+06    -21.0636E+06    -1.10019E+06    -32.3716E-03     58.8975E-03    -26.5259E-03     158.739E-03    -33.7689E-03     60.5122E-03    -26.6951E-03     158.514E-03
             765     15.7736E-03     83.4193E-03    -8.30997E+06     129.529E+06     12.6649E+06     28.5465E+03    -39.2021E-03     65.7645E-03    -26.5624E-03     262.520E-03    -45.6641E-03     72.6200E-03    -26.6748E-03     263.626E-03
             766     16.6505E-03     83.7291E-03    -5.39749E+06     180.305E+06     81.6151E+06     40.4126E+03    -36.7416E-03     63.5360E-03    -26.7944E-03     260.511E-03    -45.5357E-03     72.7144E-03    -26.6399E-03     265.535E-03
             767     876.149E-06     83.4760E-03    -28.1914E+06    -106.700E+06    -27.9326E+06    -1.17608E+06    -26.9023E-03     53.8026E-03    -26.9003E-03     5.70084E-03    -26.8481E-03     53.3507E-03    -26.8444E-03     5.68289E-03
             768     1.75235E-03     83.4835E-03    -27.6150E+06    -105.273E+06    -26.5171E+06    -2.26650E+06    -26.9147E-03     53.8141E-03    -26.8994E-03     10.5180E-03    -26.8621E-03     53.3666E-03    -26.8393E-03     10.4835E-03
             769     2.62850E-03     83.4959E-03    -26.5914E+06    -102.878E+06    -24.1679E+06    -3.40157E+06    -26.9326E-03     53.8339E-03    -26.9013E-03     15.6336E-03    -26.8823E-03     53.3940E-03    -26.8344E-03     15.5815E-03
             770     3.50471E-03     83.5132E-03    -25.2154E+06    -99.3559E+06    -21.2663E+06    -4.47670E+06    -26.9583E-03     53.8600E-03    -26.9017E-03     20.8356E-03    -26.9112E-03     53.4324E-03    -26.8274E-03     20.7663E-03
             771     4.38090E-03     83.5354E-03    -23.5069E+06    -96.1686E+06    -17.7467E+06    -5.45181E+06    -26.9969E-03     53.9004E-03    -26.9036E-03     26.0868E-03    -26.9523E-03     53.4824E-03    -26.8188E-03     26.0008E-03
             772     5.25716E-03     83.5626E-03    -21.6017E+06    -91.7461E+06    -14.2793E+06    -6.33066E+06    -27.0457E-03     53.9474E-03    -26.9017E-03     31.3874E-03    -27.0048E-03     53.5455E-03    -26.8087E-03     31.2851E-03
             773     6.13340E-03     83.5949E-03    -19.5751E+06    -86.9156E+06    -10.9700E+06    -7.08005E+06    -27.1078E-03     54.0049E-03    -26.8971E-03     36.7150E-03    -27.0712E-03     53.6221E-03    -26.7976E-03     36.5968E-03
             774     7.00971E-03     83.6322E-03    -17.5417E+06    -83.8273E+06    -8.19291E+06    -7.59602E+06    -27.1911E-03     54.0829E-03    -26.8918E-03     42.0421E-03    -27.1567E-03     53.7124E-03    -26.7858E-03     41.9094E-03
             775     7.88598E-03     83.6746E-03    -15.6318E+06    -79.8895E+06    -6.96170E+06    -8.01291E+06    -27.2887E-03     54.1663E-03    -26.8777E-03     47.3665E-03    -27.2578E-03     53.8165E-03    -26.7740E-03     47.2187E-03
             776     8.76235E-03     83.7220E-03    -13.8011E+06    -77.1941E+06    -6.29041E+06    -8.31428E+06    -27.4051E-03     54.2680E-03    -26.8628E-03     52.6676E-03    -27.3779E-03     53.9360E-03    -26.7624E-03     52.5035E-03
             777     9.63864E-03     83.7745E-03    -12.1240E+06    -75.4089E+06    -7.51182E+06    -8.33265E+06    -27.5454E-03     54.3863E-03    -26.8409E-03     57.9667E-03    -27.5222E-03     54.0741E-03    -26.7515E-03     57.7870E-03
             778     10.5150E-03     83.8319E-03    -10.6261E+06    -70.1939E+06    -10.1525E+06    -8.03540E+06    -27.6897E-03     54.4978E-03    -26.8082E-03     63.2006E-03    -27.6798E-03     54.2305E-03    -26.7417E-03     63.0056E-03
             779     11.3913E-03     83.8943E-03    -9.40067E+06    -58.7391E+06    -9.41497E+06    -7.33717E+06    -27.8665E-03     54.6507E-03    -26.7842E-03     69.7970E-03    -27.8956E-03     54.4652E-03    -26.7325E-03     69.5869E-03
             780     12.2678E-03     83.9642E-03    -8.23424E+06    -47.0856E+06    -10.5678E+06    -6.22171E+06    -28.0984E-03     54.8484E-03    -26.7501E-03     77.9872E-03    -28.1804E-03     54.7648E-03    -26.7227E-03     77.7626E-03
             781     13.1441E-03     84.0421E-03    -7.15983E+06    -35.1683E+06    -17.4010E+06    -4.56351E+06    -28.1137E-03     54.8008E-03    -26.6871E-03     80.2021E-03    -28.2581E-03     54.8454E-03    -26.7127E-03     79.9657E-03
             782     14.0209E-03     84.1163E-03    -7.28809E+06    -7.00520E+06    -20.0679E+06    -3.34259E+06    -28.6558E-03     55.2805E-03    -26.6246E-03     94.4438E-03    -29.0013E-03     55.6334E-03    -26.7043E-03     94.1842E-03
             783     14.8969E-03     84.2213E-03    -8.27929E+06     50.1599E+06    -23.4055E+06    -1.66387E+06    -32.4220E-03     58.9398E-03    -26.5178E-03     158.705E-03    -33.8096E-03     60.5440E-03    -26.6956E-03     158.472E-03
             784     15.7735E-03     84.4191E-03    -8.20657E+06     128.949E+06     10.5184E+06     124.084E+03    -39.0989E-03     65.6510E-03    -26.5521E-03     262.266E-03    -45.5453E-03     72.4956E-03    -26.6746E-03     263.375E-03
             785     16.6502E-03     84.7295E-03    -5.32215E+06     180.936E+06     81.4498E+06     46.6621E+03    -36.7038E-03     63.4927E-03    -26.7889E-03     260.792E-03    -45.5071E-03     72.6832E-03    -26.6363E-03     265.826E-03
             786     876.173E-06     84.4762E-03    -28.2992E+06    -104.070E+06    -28.0856E+06    -1.37950E+06    -26.9070E-03     53.8037E-03    -26.8967E-03     5.69872E-03    -26.8570E-03     53.3653E-03    -26.8452E-03     5.67814E-03
             787     1.75230E-03     84.4838E-03    -27.6583E+06    -102.533E+06    -26.5850E+06    -2.54915E+06    -26.9138E-03     53.8135E-03    -26.8997E-03     10.5167E-03    -26.8653E-03     53.3799E-03    -26.8438E-03     10.4786E-03
             788     2.62851E-03     84.4961E-03    -26.6753E+06    -100.111E+06    -24.2529E+06    -3.84755E+06    -26.9310E-03     53.8319E-03    -26.9009E-03     15.6326E-03    -26.8850E-03     53.4061E-03    -26.8384E-03     15.5748E-03
             789     3.50468E-03     84.5134E-03    -25.2884E+06    -96.7109E+06    -21.3810E+06    -5.12493E+06    -26.9554E-03     53.8564E-03    -26.9009E-03     20.8352E-03    -26.9124E-03     53.4422E-03    -26.8309E-03     20.7575E-03
             790     4.38091E-03     84.5356E-03    -23.5860E+06    -93.7234E+06    -17.9630E+06    -6.26707E+06    -26.9921E-03     53.8940E-03    -26.9019E-03     26.0884E-03    -26.9511E-03     53.4887E-03    -26.8216E-03     25.9919E-03
             791     5.25713E-03     84.5629E-03    -21.6440E+06    -89.5110E+06    -14.5024E+06    -7.23057E+06    -27.0388E-03     53.9381E-03    -26.8994E-03     31.3915E-03    -27.0010E-03     53.5479E-03    -26.8107E-03     31.2776E-03
             792     6.13341E-03     84.5951E-03    -19.6924E+06    -85.0066E+06    -11.2563E+06    -7.95955E+06    -27.0990E-03     53.9931E-03    -26.8941E-03     36.7216E-03    -27.0653E-03     53.6204E-03    -26.7986E-03     36.5920E-03
             793     7.00968E-03     84.6324E-03    -17.7253E+06    -82.1325E+06    -8.54234E+06    -8.58003E+06    -27.1804E-03     54.0684E-03    -26.8879E-03     42.0562E-03    -27.1489E-03     53.7071E-03    -26.7859E-03     41.9109E-03
             794     7.88602E-03     84.6747E-03    -15.6717E+06    -78.3101E+06    -7.28921E+06    -9.15888E+06    -27.2760E-03     54.1489E-03    -26.8728E-03     47.3901E-03    -27.2471E-03     53.8075E-03    -26.7730E-03     47.2275E-03
             795     8.76232E-03     84.7222E-03    -13.7562E+06    -76.0248E+06    -6.63755E+06    -9.52531E+06    -27.3917E-03     54.2489E-03    -26.8573E-03     52.7052E-03    -27.3654E-03     53.9232E-03    -26.7603E-03     52.5256E-03
             796     9.63871E-03     84.7745E-03    -12.1204E+06    -74.6655E+06    -7.93889E+06    -9.60559E+06    -27.5326E-03     54.3672E-03    -26.8346E-03     58.0147E-03    -27.5098E-03     54.0593E-03    -26.7484E-03     57.8187E-03
             797     10.5150E-03     84.8320E-03    -10.8959E+06    -69.9520E+06    -10.5968E+06    -9.38162E+06    -27.6772E-03     54.4792E-03    -26.8020E-03     63.2551E-03    -27.6684E-03     54.2141E-03    -26.7378E-03     63.0429E-03
             798     11.3914E-03     84.8943E-03    -9.77821E+06    -59.2122E+06    -10.0639E+06    -8.69980E+06    -27.8544E-03     54.6320E-03    -26.7775E-03     69.8625E-03    -27.8837E-03     54.4455E-03    -26.7278E-03     69.6349E-03
             799     12.2678E-03     84.9643E-03    -8.79864E+06    -48.1081E+06    -11.1830E+06    -7.61728E+06    -28.0997E-03     54.8443E-03    -26.7446E-03     78.0021E-03    -28.1822E-03     54.7572E-03    -26.7180E-03     77.7595E-03
             800     13.1442E-03     85.0420E-03    -8.33061E+06    -36.9812E+06    -18.3425E+06    -6.09510E+06    -28.1850E-03     54.8696E-03    -26.6847E-03     80.2619E-03    -28.3316E-03     54.9086E-03    -26.7107E-03     80.0050E-03
             801     14.0203E-03     85.1164E-03    -8.27687E+06    -8.48834E+06    -17.8449E+06    -3.69983E+06    -28.6747E-03     55.3155E-03    -26.6408E-03     94.3219E-03    -29.0263E-03     55.6593E-03    -26.7057E-03     94.0572E-03
             802     14.8970E-03     85.2214E-03    -8.75535E+06     47.7008E+06    -22.7766E+06    -1.67698E+06    -32.4257E-03     58.9532E-03    -26.5275E-03     158.697E-03    -33.8166E-03     60.5484E-03    -26.6979E-03     158.463E-03
             803     15.7731E-03     85.4194E-03    -8.30010E+06     127.630E+06     7.04959E+06    -524.233E+03    -39.2362E-03     65.7813E-03    -26.5451E-03     261.657E-03    -45.6600E-03     72.6083E-03    -26.6829E-03     262.747E-03
             804     16.6513E-03     85.7281E-03    -4.96303E+06     181.531E+06     80.2756E+06     76.5337E+03    -36.5045E-03     63.2981E-03    -26.7936E-03     259.886E-03    -45.2776E-03     72.4653E-03    -26.6483E-03     264.920E-03
             805     876.134E-06     85.4765E-03    -28.0950E+06    -101.081E+06    -27.7597E+06    -1.52712E+06    -26.9051E-03     53.8024E-03    -26.8973E-03     5.69581E-03    -26.8588E-03     53.3781E-03    -26.8488E-03     5.67333E-03
             806     1.75234E-03     85.4840E-03    -27.4611E+06    -99.4846E+06    -26.3538E+06    -2.86794E+06    -26.9121E-03     53.8109E-03    -26.8988E-03     10.5171E-03    -26.8674E-03     53.3919E-03    -26.8464E-03     10.4748E-03
             807     2.62848E-03     85.4964E-03    -26.3983E+06    -96.9745E+06    -24.0153E+06    -4.30319E+06    -26.9271E-03     53.8263E-03    -26.8992E-03     15.6324E-03    -26.8846E-03     53.4155E-03    -26.8404E-03     15.5687E-03
             808     3.50469E-03     85.5136E-03    -25.0312E+06    -93.6536E+06    -21.1369E+06    -5.75781E+06    -26.9493E-03     53.8478E-03    -26.8985E-03     20.8346E-03    -26.9098E-03     53.4483E-03    -26.8321E-03     20.7488E-03
             809     4.38089E-03     85.5358E-03    -23.3867E+06    -90.9667E+06    -17.7951E+06    -7.03848E+06    -26.9835E-03     53.8822E-03    -26.8986E-03     26.0900E-03    -26.9458E-03     53.4901E-03    -26.8218E-03     25.9835E-03
             810     5.25715E-03     85.5630E-03    -21.6241E+06    -87.0865E+06    -14.5478E+06    -8.04578E+06    -27.0268E-03     53.9214E-03    -26.8946E-03     31.3971E-03    -26.9924E-03     53.5433E-03    -26.8097E-03     31.2726E-03
             811     6.13340E-03     85.5953E-03    -19.6856E+06    -82.8985E+06    -11.4074E+06    -8.86289E+06    -27.0838E-03     53.9718E-03    -26.8880E-03     36.7338E-03    -27.0530E-03     53.6099E-03    -26.7963E-03     36.5926E-03
             812     7.00973E-03     85.6325E-03    -17.5820E+06    -80.0520E+06    -8.68871E+06    -9.65373E+06    -27.1611E-03     54.0412E-03    -26.8801E-03     42.0796E-03    -27.1316E-03     53.6903E-03    -26.7820E-03     41.9204E-03
             813     7.88602E-03     85.6749E-03    -15.6319E+06    -76.5534E+06    -7.46729E+06    -10.3061E+06    -27.2537E-03     54.1174E-03    -26.8637E-03     47.4235E-03    -27.2269E-03     53.7850E-03    -26.7674E-03     47.2462E-03
             814     8.76242E-03     85.7222E-03    -13.8978E+06    -74.6387E+06    -6.93605E+06    -10.7038E+06    -27.3691E-03     54.2159E-03    -26.8468E-03     52.7536E-03    -27.3451E-03     53.8977E-03    -26.7531E-03     52.5589E-03
             815     9.63874E-03     85.7746E-03    -12.3920E+06    -73.7401E+06    -8.43422E+06    -10.8247E+06    -27.5137E-03     54.3366E-03    -26.8228E-03     58.0827E-03    -27.4929E-03     54.0345E-03    -26.7401E-03     57.8712E-03
             816     10.5152E-03     85.8320E-03    -11.1184E+06    -69.4863E+06    -11.1844E+06    -10.6325E+06    -27.6598E-03     54.4494E-03    -26.7896E-03     63.3373E-03    -27.6519E-03     54.1878E-03    -26.7286E-03     63.1091E-03
             817     11.3915E-03     85.8944E-03    -10.0975E+06    -59.6043E+06    -10.9712E+06    -9.99288E+06    -27.8338E-03     54.5977E-03    -26.7639E-03     69.9796E-03    -27.8627E-03     54.4110E-03    -26.7177E-03     69.7356E-03
             818     12.2679E-03     85.9643E-03    -9.12436E+06    -48.9165E+06    -12.3440E+06    -8.90825E+06    -28.1274E-03     54.8582E-03    -26.7308E-03     78.1542E-03    -28.2088E-03     54.7693E-03    -26.7084E-03     77.8949E-03
             819     13.1443E-03     86.0421E-03    -8.47050E+06    -38.8003E+06    -20.1547E+06    -7.22293E+06    -28.2565E-03     54.9285E-03    -26.6720E-03     80.5563E-03    -28.3990E-03     54.9617E-03    -26.7043E-03     80.2846E-03
             820     14.0206E-03     86.1169E-03    -7.90066E+06    -11.6013E+06    -19.4844E+06    -4.81031E+06    -28.6643E-03     55.2958E-03    -26.6315E-03     94.5522E-03    -29.0070E-03     55.6258E-03    -26.7006E-03     94.2738E-03
             821     14.8967E-03     86.2211E-03    -7.30892E+06     45.6506E+06    -24.2505E+06    -2.08559E+06    -32.2969E-03     58.8067E-03    -26.5099E-03     159.202E-03    -33.6758E-03     60.3921E-03    -26.6867E-03     158.967E-03
             822     15.7738E-03     86.4200E-03    -7.32025E+06     126.731E+06     4.31445E+06    -365.082E+03    -39.5747E-03     66.0944E-03    -26.5197E-03     262.957E-03    -46.0288E-03     72.9598E-03    -26.6713E-03     264.028E-03
             823     16.6477E-03     86.7284E-03    -4.66950E+06     181.322E+06     78.6349E+06     115.962E+03    -36.6003E-03     63.3805E-03    -26.7801E-03     259.783E-03    -45.3693E-03     72.5485E-03    -26.6431E-03     264.803E-03
             824     876.181E-06     86.4767E-03    -27.6696E+06    -97.7827E+06    -27.3931E+06    -1.63276E+06    -26.8999E-03     53.7966E-03    -26.8967E-03     5.69540E-03    -26.8569E-03     53.3877E-03    -26.8518E-03     5.67155E-03
             825     1.75229E-03     86.4843E-03    -26.9228E+06    -95.9104E+06    -25.8418E+06    -3.28985E+06    -26.9076E-03     53.8032E-03    -26.8955E-03     10.5159E-03    -26.8661E-03     53.4005E-03    -26.8466E-03     10.4681E-03
             826     2.62851E-03     86.4966E-03    -25.7391E+06    -93.5780E+06    -23.5226E+06    -4.89511E+06    -26.9197E-03     53.8147E-03    -26.8950E-03     15.6324E-03    -26.8796E-03     53.4192E-03    -26.8396E-03     15.5610E-03
             827     3.50468E-03     86.5139E-03    -24.3225E+06    -90.2730E+06    -20.5885E+06    -6.35194E+06    -26.9387E-03     53.8317E-03    -26.8930E-03     20.8362E-03    -26.9013E-03     53.4473E-03    -26.8298E-03     20.7427E-03
             828     4.38092E-03     86.5360E-03    -22.8024E+06    -88.0097E+06    -17.1975E+06    -7.65404E+06    -26.9703E-03     53.8630E-03    -26.8927E-03     26.0904E-03    -26.9347E-03     53.4839E-03    -26.8180E-03     25.9760E-03
             829     5.25715E-03     86.5632E-03    -21.1248E+06    -84.4500E+06    -14.1239E+06    -8.70356E+06    -27.0088E-03     53.8957E-03    -26.8868E-03     31.4020E-03    -26.9764E-03     53.5294E-03    -26.8044E-03     31.2691E-03
             830     6.13347E-03     86.5954E-03    -19.2598E+06    -80.2769E+06    -11.2436E+06    -9.82782E+06    -27.0593E-03     53.9363E-03    -26.8770E-03     36.7514E-03    -27.0304E-03     53.5866E-03    -26.7889E-03     36.5979E-03
             831     7.00976E-03     86.6326E-03    -17.2848E+06    -77.8387E+06    -8.73308E+06    -10.7330E+06    -27.1314E-03     53.9980E-03    -26.8666E-03     42.1104E-03    -27.1036E-03     53.6579E-03    -26.7723E-03     41.9374E-03
             832     7.88616E-03     86.6749E-03    -15.4034E+06    -74.6313E+06    -7.54726E+06    -11.3125E+06    -27.2212E-03     54.0696E-03    -26.8483E-03     47.4674E-03    -27.1959E-03     53.7465E-03    -26.7555E-03     47.2773E-03
             833     8.76249E-03     86.7223E-03    -13.7381E+06    -73.0501E+06    -7.10506E+06    -11.7646E+06    -27.3348E-03     54.1642E-03    -26.8294E-03     52.8195E-03    -27.3120E-03     53.8540E-03    -26.7391E-03     52.6113E-03
             834     9.63894E-03     86.7746E-03    -12.2123E+06    -72.5443E+06    -8.77971E+06    -12.0423E+06    -27.4771E-03     54.2802E-03    -26.8030E-03     58.1861E-03    -27.4566E-03     53.9842E-03    -26.7240E-03     57.9591E-03
             835     10.5153E-03     86.8321E-03    -10.9875E+06    -68.9327E+06    -11.7563E+06    -11.9081E+06    -27.6273E-03     54.3951E-03    -26.7678E-03     63.4709E-03    -27.6186E-03     54.1368E-03    -26.7107E-03     63.2266E-03
             836     11.3918E-03     86.8943E-03    -9.87866E+06    -59.7258E+06    -11.5382E+06    -11.3156E+06    -27.8120E-03     54.5539E-03    -26.7418E-03     70.1222E-03    -27.8388E-03     54.3670E-03    -26.6986E-03     69.8615E-03
             837     12.2682E-03     86.9644E-03    -8.80047E+06    -49.5594E+06    -12.9895E+06    -10.3360E+06    -28.1307E-03     54.8395E-03    -26.7089E-03     78.4375E-03    -28.2087E-03     54.7480E-03    -26.6892E-03     78.1600E-03
             838     13.1444E-03     87.0424E-03    -8.06763E+06    -40.7913E+06    -20.7994E+06    -8.66790E+06    -28.1811E-03     54.8309E-03    -26.6498E-03     80.8627E-03    -28.3177E-03     54.8544E-03    -26.6830E-03     80.5733E-03
             839     14.0207E-03     87.1169E-03    -7.41154E+06    -14.6365E+06    -20.0101E+06    -6.21060E+06    -28.5757E-03     55.1820E-03    -26.6063E-03     94.7809E-03    -28.9106E-03     55.4967E-03    -26.6744E-03     94.4855E-03
             840     14.8977E-03     87.2211E-03    -7.41973E+06     42.1999E+06    -25.6526E+06    -3.06912E+06    -32.1940E-03     58.6709E-03    -26.4770E-03     159.249E-03    -33.5621E-03     60.2370E-03    -26.6557E-03     159.004E-03
             841     15.7744E-03     87.4197E-03    -7.22680E+06     125.283E+06     2.74830E+06    -264.401E+03    -38.9509E-03     65.4105E-03    -26.4596E-03     264.232E-03    -45.4338E-03     72.3045E-03    -26.6171E-03     265.365E-03
             842     16.6532E-03     87.7320E-03    -4.92311E+06     181.845E+06     77.9006E+06     380.176E+03    -36.9544E-03     63.6632E-03    -26.7087E-03     260.270E-03    -45.7266E-03     72.8375E-03    -26.5758E-03     265.263E-03
             843     876.123E-06     87.4770E-03    -26.3323E+06    -94.0229E+06    -26.2903E+06    -1.91944E+06    -26.8955E-03     53.7899E-03    -26.8944E-03     5.69235E-03    -26.8528E-03     53.3963E-03    -26.8513E-03     5.66480E-03
             844     1.75234E-03     87.4846E-03    -25.7227E+06    -91.7943E+06    -25.0853E+06    -3.77444E+06    -26.8982E-03     53.7864E-03    -26.8881E-03     10.5171E-03    -26.8578E-03     53.4015E-03    -26.8432E-03     10.4631E-03
             845     2.62848E-03     87.4969E-03    -24.7700E+06    -89.8462E+06    -22.7826E+06    -5.51618E+06    -26.9074E-03     53.7938E-03    -26.8863E-03     15.6326E-03    -26.8689E-03     53.4144E-03    -26.8341E-03     15.5533E-03
             846     3.50473E-03     87.5141E-03    -23.4336E+06    -86.7736E+06    -19.9594E+06    -7.00170E+06    -26.9217E-03     53.8042E-03    -26.8825E-03     20.8391E-03    -26.8859E-03     53.4350E-03    -26.8225E-03     20.7373E-03
             847     4.38094E-03     87.5362E-03    -21.8690E+06    -84.9509E+06    -16.4249E+06    -8.19572E+06    -26.9495E-03     53.8309E-03    -26.8814E-03     26.0929E-03    -26.9149E-03     53.4647E-03    -26.8086E-03     25.9716E-03
             848     5.25723E-03     87.5633E-03    -20.0915E+06    -81.3794E+06    -13.3589E+06    -9.46150E+06    -26.9813E-03     53.8543E-03    -26.8730E-03     31.4120E-03    -26.9493E-03     53.5008E-03    -26.7926E-03     31.2694E-03
             849     6.13353E-03     87.5955E-03    -18.2361E+06    -77.3599E+06    -10.6918E+06    -10.6600E+06    -27.0243E-03     53.8839E-03    -26.8596E-03     36.7738E-03    -26.9953E-03     53.5465E-03    -26.7744E-03     36.6097E-03
             850     7.00991E-03     87.6327E-03    -16.4979E+06    -75.4437E+06    -8.37466E+06    -11.6010E+06    -27.0903E-03     53.9365E-03    -26.8463E-03     42.1477E-03    -27.0625E-03     53.6066E-03    -26.7548E-03     41.9637E-03
             851     7.88627E-03     87.6750E-03    -14.7841E+06    -72.5442E+06    -7.41480E+06    -12.3178E+06    -27.1739E-03     53.9984E-03    -26.8245E-03     47.5308E-03    -27.1486E-03     53.6846E-03    -26.7349E-03     47.3279E-03
             852     8.76274E-03     87.7222E-03    -13.0446E+06    -71.1929E+06    -6.94707E+06    -12.8766E+06    -27.2843E-03     54.0873E-03    -26.8029E-03     52.9110E-03    -27.2609E-03     53.7849E-03    -26.7155E-03     52.6889E-03
             853     9.63914E-03     87.7746E-03    -11.6007E+06    -71.1588E+06    -8.67051E+06    -13.1813E+06    -27.4252E-03     54.1995E-03    -26.7743E-03     58.3003E-03    -27.4036E-03     53.9093E-03    -26.6976E-03     58.0590E-03
             854     10.5157E-03     87.8320E-03    -10.5201E+06    -68.2271E+06    -11.8089E+06    -13.0908E+06    -27.5822E-03     54.3194E-03    -26.7372E-03     63.6089E-03    -27.5720E-03     54.0639E-03    -26.6820E-03     63.3497E-03
             855     11.3920E-03     87.8943E-03    -9.54517E+06    -59.4579E+06    -11.6623E+06    -12.6997E+06    -27.7925E-03     54.5033E-03    -26.7109E-03     70.2976E-03    -27.8178E-03     54.3175E-03    -26.6691E-03     70.0193E-03
             856     12.2685E-03     87.9643E-03    -8.48578E+06    -50.0954E+06    -13.3149E+06    -11.8842E+06    -28.0619E-03     54.7383E-03    -26.6764E-03     78.6787E-03    -28.1369E-03     54.6439E-03    -26.6581E-03     78.3820E-03
             857     13.1450E-03     88.0426E-03    -7.61175E+06    -42.6761E+06    -21.3791E+06    -10.2458E+06    -28.0548E-03     54.6675E-03    -26.6127E-03     80.9803E-03    -28.1850E-03     54.6812E-03    -26.6467E-03     80.6718E-03
             858     14.0217E-03     88.1165E-03    -7.32372E+06    -17.6278E+06    -20.9891E+06    -7.53003E+06    -28.5376E-03     55.1031E-03    -26.5656E-03     94.9677E-03    -28.8665E-03     55.4044E-03    -26.6343E-03     94.6559E-03
             859     14.8978E-03     88.2214E-03    -7.44718E+06     37.9423E+06    -26.7742E+06    -3.87109E+06    -32.1922E-03     58.6309E-03    -26.4388E-03     159.090E-03    -33.5511E-03     60.1758E-03    -26.6168E-03     158.835E-03
             860     15.7749E-03     88.4187E-03    -7.04466E+06     122.553E+06     1.39193E+06    -575.447E+03    -38.7911E-03     65.2117E-03    -26.4206E-03     262.825E-03    -45.2171E-03     72.0437E-03    -26.5811E-03     263.963E-03
             861     16.6532E-03     88.7292E-03    -4.86322E+06     182.296E+06     77.1760E+06     608.906E+03    -37.0672E-03     63.7433E-03    -26.6761E-03     259.616E-03    -45.8131E-03     72.8953E-03    -26.5475E-03     264.602E-03
             862     876.190E-06     88.4773E-03    -24.5133E+06    -89.5431E+06    -24.8632E+06    -2.37738E+06    -26.8837E-03     53.7685E-03    -26.8848E-03     5.69158E-03    -26.8405E-03     53.3926E-03    -26.8438E-03     5.65811E-03
             863     1.75231E-03     88.4848E-03    -24.2096E+06    -87.3464E+06    -23.9631E+06    -4.25641E+06    -26.8824E-03     53.7564E-03    -26.8741E-03     10.5189E-03    -26.8424E-03     53.3900E-03    -26.8321E-03     10.4587E-03
             864     2.62855E-03     88.4971E-03    -23.4302E+06    -85.7726E+06    -21.7626E+06    -6.01415E+06    -26.8870E-03     53.7573E-03    -26.8704E-03     15.6360E-03    -26.8491E-03     53.3950E-03    -26.8209E-03     15.5502E-03
             865     3.50474E-03     88.5143E-03    -22.4077E+06    -83.1904E+06    -19.1393E+06    -7.49496E+06    -26.8956E-03     53.7601E-03    -26.8644E-03     20.8466E-03    -26.8611E-03     53.4061E-03    -26.8070E-03     20.7384E-03
             866     4.38104E-03     88.5364E-03    -20.9407E+06    -81.5283E+06    -15.9165E+06    -8.93538E+06    -26.9146E-03     53.7740E-03    -26.8594E-03     26.1103E-03    -26.8810E-03     53.4228E-03    -26.7904E-03     25.9795E-03
             867     5.25731E-03     88.5635E-03    -19.1135E+06    -77.9853E+06    -12.8259E+06    -10.3323E+06    -26.9388E-03     53.7866E-03    -26.8478E-03     31.4382E-03    -26.9075E-03     53.4478E-03    -26.7712E-03     31.2845E-03
             868     6.13370E-03     88.5955E-03    -17.3098E+06    -74.4577E+06    -10.1075E+06    -11.4598E+06    -26.9743E-03     53.8062E-03    -26.8319E-03     36.8119E-03    -26.9456E-03     53.4811E-03    -26.7494E-03     36.6376E-03
             869     7.01006E-03     88.6327E-03    -15.5366E+06    -72.7488E+06    -7.88195E+06    -12.3994E+06    -27.0324E-03     53.8471E-03    -26.8147E-03     42.2066E-03    -27.0043E-03     53.5285E-03    -26.7261E-03     42.0126E-03
             870     7.88656E-03     88.6749E-03    -13.8184E+06    -70.1295E+06    -6.98911E+06    -13.3114E+06    -27.1104E-03     53.8997E-03    -26.7892E-03     47.6148E-03    -27.0843E-03     53.5958E-03    -26.7025E-03     47.3995E-03
             871     8.76300E-03     88.7222E-03    -12.3003E+06    -69.2020E+06    -6.65155E+06    -13.9330E+06    -27.2199E-03     53.9844E-03    -26.7645E-03     53.0237E-03    -27.1960E-03     53.6904E-03    -26.6796E-03     52.7883E-03
             872     9.63956E-03     88.7745E-03    -10.9871E+06    -69.6168E+06    -8.35878E+06    -14.2344E+06    -27.3683E-03     54.1025E-03    -26.7342E-03     58.4340E-03    -27.3462E-03     53.8185E-03    -26.6591E-03     58.1796E-03
             873     10.5160E-03     88.8319E-03    -9.94732E+06    -67.2840E+06    -11.6903E+06    -14.2402E+06    -27.5343E-03     54.2297E-03    -26.6954E-03     63.7738E-03    -27.5226E-03     53.9778E-03    -26.6419E-03     63.5003E-03
             874     11.3926E-03     88.8942E-03    -9.00867E+06    -58.8778E+06    -11.6196E+06    -13.9534E+06    -27.7366E-03     54.4045E-03    -26.6678E-03     70.5192E-03    -27.7599E-03     54.2205E-03    -26.6275E-03     70.2254E-03
             875     12.2690E-03     88.9643E-03    -8.10857E+06    -50.3080E+06    -13.4655E+06    -13.3525E+06    -28.0040E-03     54.6361E-03    -26.6321E-03     78.8448E-03    -28.0763E-03     54.5400E-03    -26.6147E-03     78.5299E-03
             876     13.1456E-03     89.0422E-03     -7.5741E+06    -44.4935E+06    -21.8947E+06    -11.7644E+06    -28.0795E-03     54.6502E-03    -26.5707E-03     80.9970E-03    -28.2060E-03     54.6553E-03    -26.6046E-03     80.6692E-03
             877     14.0220E-03     89.1166E-03    -7.42793E+06    -21.1727E+06    -22.0721E+06    -8.77088E+06    -28.5603E-03     55.0877E-03    -26.5274E-03     94.8413E-03    -28.8822E-03     55.3720E-03    -26.5963E-03     94.5141E-03
             878     14.8990E-03     89.2213E-03    -7.43043E+06     33.5282E+06    -27.9971E+06    -4.86177E+06    -32.4074E-03     58.8184E-03    -26.4110E-03     158.647E-03    -33.7566E-03     60.3414E-03    -26.5888E-03     158.375E-03
             879     15.7755E-03     89.4184E-03    -7.17837E+06     119.059E+06     -578.22E+03    -1.04919E+06    -39.6508E-03     66.0725E-03    -26.4217E-03     262.129E-03    -46.0628E-03     72.8833E-03    -26.5868E-03     263.182E-03
             880     16.6500E-03     89.7293E-03    -4.95699E+06     181.945E+06     75.9531E+06     827.871E+03    -36.9372E-03     63.6342E-03    -26.6970E-03     260.437E-03    -45.7247E-03     72.8297E-03    -26.5739E-03     265.450E-03
             881     876.143E-06     89.4775E-03    -23.2007E+06    -84.3647E+06    -23.1430E+06    -2.73357E+06    -26.8577E-03     53.7151E-03    -26.8574E-03     5.69727E-03    -26.8179E-03     53.3606E-03    -26.8171E-03     5.65922E-03
             882     1.75240E-03     89.4851E-03    -22.7992E+06    -82.6546E+06    -22.3208E+06    -4.62286E+06    -26.8551E-03     53.7038E-03    -26.8487E-03     10.5261E-03    -26.8173E-03     53.3564E-03    -26.8074E-03     10.4612E-03
             883     2.62857E-03     89.4973E-03    -22.1060E+06    -81.4448E+06    -20.4750E+06    -6.44832E+06    -26.8538E-03     53.6967E-03    -26.8428E-03     15.6459E-03    -26.8175E-03     53.3521E-03    -26.7951E-03     15.5546E-03
             884     3.50488E-03     89.5145E-03    -20.8426E+06    -79.3437E+06    -18.0106E+06    -8.09015E+06    -26.8549E-03     53.6886E-03    -26.8338E-03     20.8631E-03    -26.8197E-03     53.3500E-03    -26.7786E-03     20.7473E-03
             885     4.38114E-03     89.5365E-03    -19.3737E+06    -77.6397E+06    -14.9718E+06    -9.65665E+06    -26.8639E-03     53.6881E-03    -26.8242E-03     26.1402E-03    -26.8294E-03     53.3526E-03    -26.7584E-03     26.0003E-03
             886     5.25753E-03     89.5635E-03    -17.8394E+06    -74.4756E+06    -12.0513E+06    -11.1298E+06    -26.8783E-03     53.6870E-03    -26.8086E-03     31.4828E-03    -26.8468E-03     53.3627E-03    -26.7350E-03     31.3190E-03
             887     6.13390E-03     89.5956E-03    -16.1477E+06    -71.4386E+06    -9.33184E+06    -12.2710E+06    -26.9056E-03     53.6951E-03    -26.7894E-03     36.8726E-03    -26.8766E-03     53.3822E-03    -26.7091E-03     36.6881E-03
             888     7.01041E-03     89.6326E-03    -14.3728E+06    -69.8000E+06    -7.13277E+06    -13.3304E+06    -26.9558E-03     53.7238E-03    -26.7680E-03     42.2956E-03    -26.9272E-03     53.4171E-03    -26.6816E-03     42.0899E-03
             889     7.88688E-03     89.6748E-03    -12.7860E+06    -67.6056E+06    -6.31958E+06    -14.1437E+06    -27.0322E-03     53.7711E-03    -26.7389E-03     47.7319E-03    -27.0054E-03     53.4773E-03    -26.6539E-03     47.5063E-03
             890     8.76350E-03     89.7219E-03    -11.4562E+06    -67.0070E+06    -6.05610E+06    -14.7773E+06    -27.1410E-03     53.8521E-03    -26.7112E-03     53.1773E-03    -27.1166E-03     53.5668E-03    -26.6277E-03     52.9316E-03
             891     9.64001E-03     89.7743E-03    -10.2668E+06    -67.8637E+06    -7.88151E+06    -15.2477E+06    -27.2971E-03     53.9755E-03    -26.6784E-03     58.6431E-03    -27.2744E-03     53.6983E-03    -26.6046E-03     58.3763E-03
             892     10.5166E-03     89.8316E-03    -9.26281E+06    -66.0896E+06    -11.3693E+06    -15.3732E+06    -27.4751E-03     54.1134E-03    -26.6382E-03     64.0233E-03    -27.4619E-03     53.8656E-03    -26.5858E-03     63.7359E-03
             893     11.3931E-03     89.8940E-03    -8.46385E+06    -58.1293E+06    -11.4420E+06    -15.1384E+06    -27.6828E-03     54.2928E-03    -26.6100E-03     70.7666E-03    -27.7044E-03     54.1112E-03    -26.5706E-03     70.4584E-03
             894     12.2698E-03     89.9640E-03    -7.81754E+06    -50.1948E+06    -13.2347E+06    -14.5219E+06    -28.0154E-03     54.5930E-03    -26.5775E-03     79.0622E-03    -28.0865E-03     54.4965E-03    -26.5596E-03     78.7327E-03
             895     13.1462E-03     90.0422E-03    -7.43440E+06    -46.2417E+06    -22.1617E+06    -13.0481E+06    -28.1884E-03     54.7117E-03    -26.5233E-03     81.2892E-03    -28.3112E-03     54.7083E-03    -26.5563E-03     80.9446E-03
             896     14.0225E-03     90.1165E-03    -7.32212E+06    -24.8582E+06    -23.1790E+06    -10.0668E+06    -28.8017E-03     55.2934E-03    -26.4917E-03     94.9800E-03    -29.1166E-03     55.5613E-03    -26.5609E-03     94.6342E-03
             897     14.8987E-03     90.2209E-03    -7.63054E+06     28.7832E+06    -29.7535E+06    -5.75179E+06    -32.8461E-03     59.2405E-03    -26.3944E-03     158.953E-03    -34.1920E-03     60.7478E-03    -26.5738E-03     158.660E-03
             898     15.7741E-03     90.4197E-03    -8.00175E+06     114.871E+06    -4.27190E+06    -1.52658E+06    -39.7405E-03     66.1490E-03    -26.4085E-03     262.723E-03    -46.1712E-03     72.9714E-03    -26.5848E-03     263.786E-03
             899     16.6521E-03     90.7297E-03    -5.49831E+06     181.262E+06     73.7658E+06     527.362E+03    -36.5430E-03     63.2193E-03    -26.6762E-03     260.528E-03    -45.3351E-03     72.4214E-03    -26.5623E-03     265.566E-03
             900     876.260E-06     90.4778E-03    -20.8181E+06    -78.7020E+06    -20.6524E+06    -2.87629E+06    -26.8145E-03     53.6292E-03    -26.8147E-03     5.70333E-03    -26.7746E-03     53.2960E-03    -26.7737E-03     5.66346E-03
             901     1.75242E-03     90.4852E-03    -20.4012E+06    -77.8580E+06    -19.3766E+06    -4.80262E+06    -26.8128E-03     53.6224E-03    -26.8097E-03     10.5310E-03    -26.7742E-03     53.2913E-03    -26.7641E-03     10.4638E-03
             902     2.62873E-03     90.4975E-03    -19.6055E+06    -76.6492E+06    -17.9511E+06    -6.81524E+06    -26.8044E-03     53.6048E-03    -26.8004E-03     15.6603E-03    -26.7662E-03     53.2769E-03    -26.7506E-03     15.5643E-03
             903     3.50498E-03     90.5145E-03    -18.6162E+06    -75.0678E+06    -16.2485E+06    -8.80338E+06    -26.7946E-03     53.5802E-03    -26.7857E-03     20.8903E-03    -26.7570E-03     53.2572E-03    -26.7311E-03     20.7654E-03
             904     4.38140E-03     90.5365E-03    -17.3015E+06    -73.6868E+06    -13.5849E+06    -10.3404E+06    -26.7918E-03     53.5624E-03    -26.7706E-03     26.1861E-03    -26.7547E-03     53.2417E-03    -26.7066E-03     26.0375E-03
             905     5.25777E-03     90.5635E-03    -15.8438E+06    -70.6996E+06    -10.7165E+06    -11.7724E+06    -26.7958E-03     53.5462E-03    -26.7504E-03     31.5475E-03    -26.7617E-03     53.2359E-03    -26.6785E-03     31.3757E-03
             906     6.13431E-03     90.5954E-03    -14.3117E+06    -68.2379E+06    -8.05297E+06    -13.0534E+06    -26.8139E-03     53.5409E-03    -26.7270E-03     36.9638E-03    -26.7821E-03     53.2394E-03    -26.6476E-03     36.7696E-03
             907     7.01081E-03     90.6324E-03    -12.8678E+06    -66.7429E+06    -5.97488E+06    -14.0128E+06    -26.8567E-03     53.5576E-03    -26.7009E-03     42.4230E-03    -26.8265E-03     53.2621E-03    -26.6153E-03     42.2091E-03
             908     7.88748E-03     90.6745E-03    -11.5197E+06    -65.0408E+06    -5.25184E+06    -14.8594E+06    -26.9283E-03     53.5963E-03    -26.6680E-03     47.9085E-03    -26.9003E-03     53.3117E-03    -26.5832E-03     47.6743E-03
             909     8.76406E-03     90.7217E-03    -10.1930E+06    -64.5788E+06    -5.10388E+06    -15.5494E+06    -27.0396E-03     53.6757E-03    -26.6360E-03     53.4121E-03    -27.0137E-03     53.3990E-03    -26.5531E-03     53.1572E-03
             910     9.64081E-03     90.7739E-03    -9.11581E+06    -65.8929E+06    -6.92178E+06    -16.0772E+06    -27.2017E-03     53.8028E-03    -26.6011E-03     58.9434E-03    -27.1772E-03     53.5321E-03    -26.5270E-03     58.6669E-03
             911     10.5174E-03     90.8314E-03    -8.44220E+06    -64.6364E+06    -10.7674E+06    -16.2911E+06    -27.4048E-03     53.9637E-03    -26.5589E-03     64.3747E-03    -27.3901E-03     53.7208E-03    -26.5068E-03     64.0765E-03
             912     11.3941E-03     90.8936E-03    -7.87920E+06    -57.2281E+06    -11.0134E+06    -16.1710E+06    -27.6757E-03     54.2086E-03    -26.5329E-03     71.1365E-03    -27.6960E-03     54.0298E-03    -26.4936E-03     70.8156E-03
             913     12.2705E-03     90.9639E-03    -7.21393E+06    -49.9218E+06    -12.7794E+06    -15.6306E+06    -28.0546E-03     54.5615E-03    -26.5069E-03     79.4923E-03    -28.1235E-03     54.4647E-03    -26.4880E-03     79.1491E-03
             914     13.1470E-03     91.0421E-03    -6.84733E+06    -47.6458E+06    -21.9645E+06    -14.3251E+06    -28.2540E-03     54.7146E-03    -26.4607E-03     81.7561E-03    -28.3721E-03     54.7030E-03    -26.4915E-03     81.3954E-03
             915     14.0234E-03     91.1166E-03    -6.87313E+06    -28.8131E+06    -23.9436E+06    -11.1529E+06    -29.0523E-03     55.4919E-03    -26.4397E-03     95.7692E-03    -29.3604E-03     55.7428E-03    -26.5076E-03     95.4074E-03
             916     14.8990E-03     91.2218E-03    -7.64746E+06     23.1886E+06    -31.2549E+06    -6.07176E+06    -32.9263E-03     59.2768E-03    -26.3505E-03     160.108E-03    -34.2692E-03     60.7654E-03    -26.5293E-03     159.814E-03
             917     15.7757E-03     91.4202E-03    -7.88594E+06     111.072E+06    -6.70431E+06    -1.63208E+06    -39.4711E-03     65.8195E-03    -26.3484E-03     263.728E-03    -45.9089E-03     72.6430E-03    -26.5315E-03     264.824E-03
             918     16.6519E-03     91.7289E-03    -5.14832E+06     180.815E+06     72.0476E+06     95.1883E+03    -36.6528E-03     63.2615E-03    -26.6088E-03     260.479E-03    -45.4318E-03     72.4552E-03    -26.5033E-03     265.509E-03
             919     876.231E-06     91.4779E-03    -18.4266E+06    -72.8521E+06    -18.1243E+06    -2.96155E+06    -26.7489E-03     53.4996E-03    -26.7507E-03     5.71274E-03    -26.7093E-03     53.1885E-03    -26.7089E-03     5.67181E-03
             920     1.75259E-03     91.4854E-03    -17.7318E+06    -72.6996E+06    -16.8890E+06     -5.0955E+06    -26.7417E-03     53.4857E-03    -26.7441E-03     10.5468E-03    -26.7008E-03     53.1728E-03    -26.6974E-03     10.4760E-03
             921     2.62885E-03     91.4975E-03    -16.7184E+06    -71.4501E+06    -15.3159E+06    -7.35016E+06    -26.7262E-03     53.4578E-03    -26.7316E-03     15.6877E-03    -26.6849E-03     53.1479E-03    -26.6804E-03     15.5849E-03
             922     3.50529E-03     91.5146E-03    -15.6670E+06    -70.5316E+06    -13.4543E+06    -9.25303E+06    -26.7091E-03     53.4238E-03    -26.7147E-03     20.9284E-03    -26.6674E-03     53.1151E-03    -26.6570E-03     20.7979E-03
             923     4.38168E-03     91.5364E-03    -14.5921E+06    -69.4558E+06    -11.3949E+06    -11.0186E+06    -26.6928E-03     53.3857E-03    -26.6929E-03     26.2481E-03    -26.6514E-03     53.0790E-03    -26.6280E-03     26.0910E-03
             924     5.25825E-03     91.5633E-03    -13.1520E+06    -66.8388E+06    -8.99743E+06    -12.5468E+06    -26.6827E-03     53.3480E-03    -26.6653E-03     31.6431E-03    -26.6431E-03     53.0506E-03    -26.5943E-03     31.4617E-03
             925     6.13479E-03     91.5951E-03    -11.8469E+06    -65.0881E+06    -6.29316E+06    -13.4981E+06    -26.6914E-03     53.3291E-03    -26.6377E-03     37.0908E-03    -26.6542E-03     53.0371E-03    -26.5576E-03     36.8914E-03
             926     7.01153E-03     91.6320E-03    -10.6703E+06    -63.5673E+06    -4.30869E+06    -14.4490E+06    -26.7227E-03     53.3284E-03    -26.6057E-03     42.6045E-03    -26.6884E-03     53.0431E-03    -26.5196E-03     42.3857E-03
             927     7.88818E-03     91.6740E-03    -9.48332E+06    -62.2560E+06    -3.71813E+06    -15.4014E+06    -26.7890E-03     53.3564E-03    -26.5674E-03     48.1540E-03    -26.7568E-03     53.0803E-03    -26.4820E-03     47.9137E-03
             928     8.76506E-03     91.7211E-03    -8.47275E+06    -62.0508E+06    -3.78503E+06    -16.1504E+06    -26.9037E-03     53.4341E-03    -26.5304E-03     53.7411E-03    -26.8743E-03     53.1654E-03    -26.4471E-03     53.4796E-03
             929     9.64175E-03     91.7734E-03    -7.65485E+06    -63.7384E+06    -5.63281E+06    -16.6969E+06    -27.0823E-03     53.5754E-03    -26.4931E-03     59.3477E-03    -27.0551E-03     53.3111E-03    -26.4178E-03     59.0644E-03
             930     10.5186E-03     91.8308E-03    -7.11928E+06    -63.0956E+06    -9.72985E+06    -16.8960E+06    -27.3252E-03     53.7753E-03    -26.4501E-03     64.8774E-03    -27.3072E-03     53.5363E-03    -26.3969E-03     64.5726E-03
             931     11.3951E-03     91.8934E-03    -6.79599E+06    -55.9011E+06    -10.1141E+06    -16.9349E+06    -27.6497E-03     54.0764E-03    -26.4267E-03     71.7484E-03    -27.6676E-03     53.9010E-03    -26.3863E-03     71.4188E-03
             932     12.2718E-03     91.9635E-03    -6.33994E+06    -49.5379E+06    -12.1119E+06    -16.6913E+06    -28.0675E-03     54.4738E-03    -26.4064E-03     80.1781E-03    -28.1334E-03     54.3766E-03    -26.3859E-03     79.8221E-03
             933     13.1482E-03     92.0421E-03    -6.43745E+06    -49.0828E+06    -21.2080E+06    -15.0166E+06    -28.3452E-03     54.7171E-03    -26.3719E-03     82.5472E-03    -28.4609E-03     54.6972E-03    -26.3974E-03     82.1777E-03
             934     14.0243E-03     92.1167E-03    -7.60545E+06    -32.8413E+06    -24.7338E+06    -11.6731E+06    -29.0606E-03     55.4156E-03    -26.3550E-03     96.7288E-03    -29.3664E-03     55.6495E-03    -26.4200E-03     96.3617E-03
             935     14.9006E-03     92.2227E-03    -8.11194E+06     17.2615E+06    -32.9138E+06    -7.01963E+06    -32.7818E-03     59.0446E-03    -26.2628E-03     160.540E-03    -34.1138E-03     60.5045E-03    -26.4406E-03     160.240E-03
             936     15.7772E-03     92.4195E-03    -7.69290E+06     107.336E+06    -9.78381E+06    -2.47400E+06    -39.4947E-03     65.7448E-03    -26.2501E-03     263.625E-03    -45.9181E-03     72.5503E-03    -26.4435E-03     264.706E-03
             937     16.6550E-03     92.7306E-03    -5.34673E+06     180.056E+06     69.1777E+06    -367.818E+03    -36.9864E-03     63.5084E-03    -26.5220E-03     260.187E-03    -45.7506E-03     72.6921E-03    -26.4294E-03     265.177E-03
             938     876.390E-06     92.4780E-03    -15.6125E+06    -66.8169E+06    -15.5609E+06    -2.99004E+06    -26.6497E-03     53.3033E-03    -26.6536E-03     5.72514E-03    -26.6084E-03     53.0146E-03    -26.6119E-03     5.68392E-03
             939     1.75270E-03     92.4853E-03    -15.2129E+06    -66.8198E+06    -14.8212E+06    -5.59457E+06    -26.6338E-03     53.2751E-03    -26.6413E-03     10.5771E-03    -26.5919E-03     52.9850E-03    -26.5964E-03     10.4999E-03
             940     2.62918E-03     92.4975E-03    -14.3698E+06    -65.9914E+06    -13.2808E+06    -8.03332E+06    -26.6096E-03     53.2350E-03    -26.6254E-03     15.7340E-03    -26.5674E-03     52.9460E-03    -26.5753E-03     15.6227E-03
             941     3.50560E-03     92.5143E-03    -13.1739E+06    -65.9187E+06    -11.1302E+06    -9.95378E+06    -26.5834E-03     53.1898E-03    -26.6064E-03     20.9923E-03    -26.5392E-03     52.8971E-03    -26.5474E-03     20.8530E-03
             942     4.38222E-03     92.5362E-03    -11.7415E+06    -64.7011E+06    -9.16073E+06    -11.7660E+06    -26.5535E-03     53.1316E-03    -26.5781E-03     26.3439E-03    -26.5079E-03     52.8412E-03    -26.5130E-03     26.1776E-03
             943     5.25881E-03     92.5628E-03    -10.6353E+06    -63.1943E+06    -7.29285E+06    -13.1775E+06    -26.5285E-03     53.0722E-03    -26.5437E-03     31.7784E-03    -26.4839E-03     52.7867E-03    -26.4731E-03     31.5895E-03
             944     6.13562E-03     92.5946E-03    -9.43218E+06    -62.0143E+06    -4.88162E+06    -14.0122E+06    -26.5222E-03     53.0309E-03    -26.5087E-03     37.2819E-03    -26.4794E-03     52.7486E-03    -26.4295E-03     37.0767E-03
             945     7.01237E-03     92.6314E-03     -8.1184E+06    -60.2720E+06    -2.70419E+06    -14.9049E+06    -26.5424E-03     53.0124E-03    -26.4700E-03     42.8586E-03    -26.5022E-03     52.7373E-03    -26.3844E-03     42.6349E-03
             946     7.88938E-03     92.6733E-03    -7.09881E+06    -59.5186E+06    -1.95839E+06    -15.6942E+06    -26.6060E-03     53.0330E-03    -26.4270E-03     48.4886E-03    -26.5681E-03     52.7643E-03    -26.3402E-03     48.2459E-03
             947     8.76622E-03     92.7203E-03    -6.37278E+06    -59.3373E+06    -2.12353E+06    -16.4029E+06    -26.7260E-03     53.1106E-03    -26.3846E-03     54.1702E-03    -26.6920E-03     52.8495E-03    -26.3000E-03     53.9069E-03
             948     9.64331E-03     92.7726E-03    -5.76792E+06    -61.4423E+06    -3.93487E+06    -17.1202E+06    -26.9266E-03     53.2715E-03    -26.3449E-03     59.8922E-03    -26.8952E-03     53.0129E-03    -26.2672E-03     59.6051E-03
             949     10.5201E-03     92.8301E-03    -5.49024E+06    -61.6482E+06    -8.44210E+06    -17.2451E+06    -27.2070E-03     53.5076E-03    -26.3005E-03     65.5666E-03    -27.1843E-03     53.2710E-03    -26.2454E-03     65.2591E-03
             950     11.3970E-03     92.8927E-03    -5.47947E+06    -54.2028E+06    -8.79029E+06    -17.2697E+06    -27.5652E-03     53.8441E-03    -26.2790E-03     72.5602E-03    -27.5803E-03     53.6729E-03    -26.2364E-03     72.2281E-03
             951     12.2735E-03     92.9633E-03    -5.80775E+06    -48.8949E+06    -10.8812E+06    -17.0557E+06    -28.0732E-03     54.3395E-03    -26.2663E-03     81.0357E-03    -28.1391E-03     54.2427E-03    -26.2414E-03     80.6761E-03
             952     13.1500E-03     93.0418E-03    -6.59853E+06    -51.3814E+06    -20.6556E+06    -15.1975E+06    -28.4515E-03     54.6960E-03    -26.2444E-03     83.4864E-03    -28.5662E-03     54.6647E-03    -26.2637E-03     83.1149E-03
             953     14.0261E-03     93.1172E-03    -6.67657E+06    -35.7681E+06    -24.7187E+06    -12.2557E+06    -29.1078E-03     55.3429E-03    -26.2350E-03     97.3353E-03    -29.4046E-03     55.5607E-03    -26.2971E-03     96.9621E-03
             954     14.9024E-03     93.2223E-03    -7.21434E+06     11.7787E+06    -34.5561E+06    -8.29068E+06    -33.0389E-03     59.1907E-03    -26.1518E-03     160.926E-03    -34.3590E-03     60.6272E-03    -26.3312E-03     160.605E-03
             955     15.7784E-03     93.4206E-03    -7.46601E+06     102.564E+06    -14.1724E+06    -3.40943E+06    -39.9527E-03     66.1033E-03    -26.1506E-03     263.384E-03    -46.3590E-03     72.8883E-03    -26.3594E-03     264.436E-03
             956     16.6542E-03     93.7292E-03    -4.95963E+06     179.183E+06     66.2094E+06    -576.905E+03    -37.0652E-03     63.5106E-03    -26.4454E-03     259.691E-03    -45.8162E-03     72.6881E-03    -26.3669E-03     264.673E-03
             957     876.441E-06     93.4777E-03    -12.3650E+06    -60.3584E+06    -12.4218E+06    -3.31414E+06    -26.5056E-03     53.0166E-03    -26.5110E-03     5.74149E-03    -26.4620E-03     52.7509E-03    -26.4677E-03     5.69617E-03
             958     1.75301E-03     93.4851E-03    -11.8565E+06    -60.3220E+06    -11.6538E+06    -6.02786E+06    -26.4833E-03     52.9791E-03    -26.4958E-03     10.6143E-03    -26.4386E-03     52.7120E-03    -26.4494E-03     10.5316E-03
             959     2.62951E-03     93.4971E-03    -11.2901E+06    -60.2566E+06    -10.6356E+06    -8.59723E+06    -26.4475E-03     52.9223E-03    -26.4748E-03     15.7968E-03    -26.4021E-03     52.6537E-03    -26.4242E-03     15.6785E-03
             960     3.50620E-03     93.5140E-03    -10.3655E+06    -60.7332E+06    -9.12121E+06    -10.8536E+06    -26.4056E-03     52.8537E-03    -26.4482E-03     21.0909E-03    -26.3577E-03     52.5799E-03    -26.3907E-03     20.9405E-03
             961     4.38286E-03     93.5355E-03    -9.24742E+06    -60.0272E+06    -7.40965E+06    -12.6679E+06    -26.3594E-03     52.7724E-03    -26.4130E-03     26.4830E-03    -26.3106E-03     52.4992E-03    -26.3496E-03     26.3056E-03
             962     5.25976E-03     93.5622E-03    -8.02975E+06    -59.6920E+06    -5.47751E+06    -13.7208E+06    -26.3203E-03     52.6935E-03    -26.3732E-03     31.9652E-03    -26.2703E-03     52.4190E-03    -26.3024E-03     31.7700E-03
             963     6.13661E-03     93.5937E-03    -6.94249E+06    -58.6217E+06    -3.55567E+06    -14.6862E+06    -26.2953E-03     52.6234E-03    -26.3281E-03     37.5439E-03    -26.2466E-03     52.3523E-03    -26.2508E-03     37.3310E-03
             964     7.01376E-03     93.6305E-03    -5.84822E+06    -57.3293E+06    -1.44898E+06    -15.4313E+06    -26.3051E-03     52.5871E-03    -26.2819E-03     43.2053E-03    -26.2593E-03     52.3212E-03    -26.1976E-03     42.9761E-03
             965     7.89077E-03     93.6722E-03    -4.94872E+06    -56.9613E+06    -307.458E+03    -15.8404E+06    -26.3676E-03     52.6019E-03    -26.2344E-03     48.9301E-03    -26.3245E-03     52.3400E-03    -26.1461E-03     48.6870E-03
             966     8.76808E-03     93.7192E-03    -4.21747E+06    -56.3951E+06    -369.633E+03    -16.5947E+06    -26.4977E-03     52.6839E-03    -26.1862E-03     54.7402E-03    -26.4592E-03     52.4313E-03    -26.1002E-03     54.4763E-03
             967     9.64509E-03     93.7715E-03    -3.73669E+06    -59.1615E+06    -2.03299E+06    -17.2611E+06    -26.7262E-03     52.8712E-03    -26.1450E-03     60.5935E-03    -26.6900E-03     52.6176E-03    -26.0639E-03     60.3067E-03
             968     10.5224E-03     93.8291E-03    -3.62600E+06    -60.1853E+06    -6.81026E+06    -17.4235E+06    -27.0489E-03     53.1490E-03    -26.1002E-03     66.4030E-03    -27.0206E-03     52.9140E-03    -26.0417E-03     66.0954E-03
             969     11.3991E-03     93.8919E-03    -3.81649E+06    -52.6224E+06    -7.33857E+06    -17.2658E+06    -27.4813E-03     53.5626E-03    -26.0813E-03     73.4866E-03    -27.4919E-03     53.3941E-03    -26.0362E-03     73.1565E-03
             970     12.2760E-03     93.9627E-03    -4.12027E+06    -48.3388E+06    -8.98789E+06    -16.7967E+06    -28.1078E-03     54.1895E-03    -26.0817E-03     82.0493E-03    -28.1687E-03     54.0902E-03    -26.0505E-03     81.6943E-03
             971     13.1522E-03     94.0418E-03    -4.54905E+06    -53.1587E+06    -19.3454E+06    -15.2642E+06    -28.5006E-03     54.5725E-03    -26.0719E-03     84.4994E-03    -28.6042E-03     54.5274E-03    -26.0850E-03     84.1287E-03
             972     14.0283E-03     94.1173E-03    -5.75135E+06    -37.9566E+06    -25.1116E+06    -12.8547E+06    -29.4721E-03     55.5487E-03    -26.0766E-03     98.3331E-03    -29.7623E-03     55.7565E-03    -26.1387E-03     97.9504E-03
             973     14.9042E-03     94.2226E-03    -6.52435E+06     6.56414E+06    -34.4041E+06      -9.169E+06    -33.5891E-03     59.6229E-03    -26.0338E-03     161.500E-03    -34.9043E-03     61.0381E-03    -26.2059E-03     161.161E-03
             974     15.7799E-03     94.4218E-03    -6.90438E+06     97.1984E+06    -16.9451E+06    -4.15053E+06    -40.2209E-03     66.2657E-03    -26.0447E-03     263.974E-03    -46.6370E-03     73.0514E-03    -26.2604E-03     265.010E-03
             975     16.6562E-03     94.7304E-03    -5.30222E+06     177.820E+06     62.8901E+06    -953.025E+03    -37.2440E-03     63.5888E-03    -26.3448E-03     260.256E-03    -46.0108E-03     72.7857E-03    -26.2805E-03     265.231E-03
             976     876.681E-06     94.4773E-03    -7.83843E+06    -53.3698E+06    -7.82755E+06    -3.48630E+06    -26.3052E-03     52.6202E-03    -26.3150E-03     5.76664E-03    -26.2558E-03     52.3763E-03    -26.2654E-03     5.71922E-03
             977     1.75330E-03     94.4845E-03    -7.77634E+06    -53.5391E+06    -7.86972E+06    -6.36601E+06    -26.2748E-03     52.5677E-03    -26.2928E-03     10.6654E-03    -26.2250E-03     52.3230E-03    -26.2433E-03     10.5786E-03
             978     2.63011E-03     94.4965E-03    -7.33160E+06    -54.0054E+06    -7.42391E+06    -9.12876E+06    -26.2249E-03     52.4899E-03    -26.2650E-03     15.8812E-03    -26.1733E-03     52.2421E-03    -26.2131E-03     15.7564E-03
             979     3.50689E-03     94.5131E-03    -6.71156E+06    -55.0405E+06    -6.39135E+06    -11.5826E+06    -26.1658E-03     52.3963E-03    -26.2305E-03     21.2182E-03    -26.1118E-03     52.1416E-03    -26.1729E-03     21.0589E-03
             980     4.38389E-03     94.5347E-03    -5.97821E+06    -55.4477E+06    -5.12034E+06    -13.3450E+06    -26.1019E-03     52.2895E-03    -26.1876E-03     26.6620E-03    -26.0466E-03     52.0310E-03    -26.1241E-03     26.4767E-03
             981     5.26089E-03     94.5610E-03    -5.07298E+06    -56.0278E+06    -3.54951E+06    -14.5713E+06    -26.0435E-03     52.1827E-03    -26.1393E-03     32.2101E-03    -25.9866E-03     51.9193E-03    -26.0684E-03     32.0049E-03
             982     6.13817E-03     94.5925E-03    -3.95418E+06    -55.2694E+06    -1.80447E+06    -15.3009E+06    -26.0029E-03     52.0877E-03    -26.0848E-03     37.8742E-03    -25.9464E-03     51.8262E-03    -26.0079E-03     37.6547E-03
             983     7.01539E-03     94.6289E-03    -3.19777E+06    -54.7307E+06     90.8665E+03    -15.7081E+06    -26.0005E-03     52.0308E-03    -26.0303E-03     43.6406E-03    -25.9470E-03     51.7714E-03    -25.9459E-03     43.4095E-03
             984     7.89292E-03     94.6707E-03    -2.45250E+06    -54.4083E+06     1.31186E+06    -16.1119E+06    -26.0636E-03     52.0391E-03    -25.9755E-03     49.4993E-03    -26.0135E-03     51.7834E-03    -25.8865E-03     49.2548E-03
             985     8.77023E-03     94.7175E-03    -1.96361E+06    -53.6914E+06     1.44469E+06    -16.5400E+06    -26.2117E-03     52.1344E-03    -25.9227E-03     55.4550E-03    -26.1678E-03     51.8887E-03    -25.8348E-03     55.1941E-03
             986     9.64783E-03     94.7700E-03    -1.80725E+06    -56.6904E+06     54.3590E+03    -17.1969E+06    -26.4820E-03     52.3631E-03    -25.8811E-03     61.4714E-03    -26.4419E-03     52.1152E-03    -25.7960E-03     61.1879E-03
             987     10.5249E-03     94.8276E-03    -1.76885E+06    -58.6316E+06    -4.94781E+06    -17.5291E+06    -26.8782E-03     52.7169E-03    -25.8387E-03     67.4329E-03    -26.8447E-03     52.4834E-03    -25.7759E-03     67.1265E-03
             988     11.4022E-03     94.8909E-03    -1.83496E+06    -51.4201E+06    -5.67206E+06    -17.2366E+06    -27.4296E-03     53.2571E-03    -25.8275E-03     74.6882E-03    -27.4337E-03     53.0887E-03    -25.7787E-03     74.3608E-03
             989     12.2788E-03     94.9620E-03    -2.10063E+06    -47.8388E+06    -6.50440E+06    -16.6088E+06    -28.1056E-03     53.9510E-03    -25.8454E-03     83.3316E-03    -28.1602E-03     53.8472E-03    -25.8055E-03     82.9812E-03
             990     13.1553E-03     95.0417E-03    -3.01809E+06    -54.8716E+06    -17.6454E+06    -14.9964E+06    -28.7700E-03     54.6267E-03    -25.8568E-03     85.6491E-03    -28.8662E-03     54.5687E-03    -25.8611E-03     85.2820E-03
             991     14.0317E-03     95.1170E-03    -4.43057E+06    -38.9864E+06    -23.2306E+06    -12.7437E+06    -29.9393E-03     55.8341E-03    -25.8948E-03     99.4492E-03    -30.2272E-03     56.0352E-03    -25.9480E-03     99.0655E-03
             992     14.9060E-03     95.2253E-03    -6.12550E+06     1.75039E+06    -31.6662E+06    -9.58233E+06    -33.9544E-03     59.8492E-03    -25.8949E-03     162.499E-03    -35.2719E-03     61.2431E-03    -26.0469E-03     162.151E-03
             993     15.7817E-03     95.4209E-03    -6.61152E+06     91.2607E+06    -20.1552E+06    -4.68592E+06    -40.4214E-03     66.3205E-03    -25.8990E-03     264.385E-03    -46.8379E-03     73.0959E-03    -26.1226E-03     265.424E-03
             994     16.6589E-03     95.7320E-03    -4.62558E+06     176.287E+06     58.8886E+06    -1.09529E+06    -37.5353E-03     63.7428E-03    -26.2075E-03     260.019E-03    -46.2911E-03     72.9372E-03    -26.1620E-03     264.977E-03
             995     876.865E-06     95.4762E-03    -4.10369E+06    -46.0430E+06    -4.28206E+06    -3.57028E+06    -26.0266E-03     52.0650E-03    -26.0384E-03     5.80571E-03    -25.9742E-03     51.8471E-03    -25.9871E-03     5.75737E-03
             996     1.75384E-03     95.4836E-03    -3.80051E+06    -46.2468E+06    -4.29551E+06    -6.79036E+06    -25.9882E-03     52.0004E-03    -26.0122E-03     10.7338E-03    -25.9343E-03     51.7813E-03    -25.9611E-03     10.6419E-03
             997     2.63080E-03     95.4952E-03    -3.52188E+06    -47.4477E+06    -4.17560E+06    -9.69435E+06    -25.9246E-03     51.9033E-03    -25.9787E-03     15.9914E-03    -25.8681E-03     51.6780E-03    -25.9257E-03     15.8597E-03
             998     3.50796E-03     95.5119E-03    -3.18029E+06     -49.062E+06    -3.63767E+06    -12.1303E+06    -25.8471E-03     51.7832E-03    -25.9361E-03     21.3799E-03    -25.7880E-03     51.5492E-03    -25.8785E-03     21.2142E-03
             999     4.38514E-03     95.5330E-03    -2.71336E+06    -50.8358E+06    -2.87977E+06    -13.9347E+06    -25.7632E-03     51.6478E-03    -25.8847E-03     26.8879E-03    -25.7013E-03     51.4042E-03    -25.8214E-03     26.6959E-03
            1000     5.26258E-03     95.5594E-03    -2.11342E+06    -51.8261E+06    -1.78123E+06    -15.2456E+06    -25.6844E-03     51.5101E-03    -25.8257E-03     32.5201E-03    -25.6212E-03     51.2605E-03    -25.7564E-03     32.3076E-03
            1001     6.14003E-03     95.5905E-03    -1.52778E+06    -52.4765E+06    -602.966E+03    -15.9486E+06    -25.6263E-03     51.3878E-03    -25.7615E-03     38.2880E-03    -25.5630E-03     51.1345E-03    -25.6862E-03     38.0617E-03
            1002     7.01779E-03     95.6270E-03    -712.135E+03    -52.1716E+06     1.11011E+06    -16.0395E+06    -25.6155E-03     51.3125E-03    -25.6970E-03     44.1894E-03    -25.5542E-03     51.0602E-03    -25.6148E-03     43.9560E-03
            1003     7.89544E-03     95.6684E-03    -180.228E+03    -51.9912E+06     2.56463E+06    -16.2482E+06    -25.6829E-03     51.3187E-03    -25.6358E-03     50.2040E-03    -25.6261E-03     51.0692E-03    -25.5473E-03     49.9601E-03
            1004     8.77338E-03     95.7155E-03     18.9586E+03    -51.6951E+06     2.94963E+06    -16.2102E+06    -25.8626E-03     51.4426E-03    -25.5800E-03     56.3445E-03    -25.8129E-03     51.2008E-03    -25.4903E-03     56.0907E-03
            1005     9.65095E-03     95.7677E-03    -203.602E+03    -53.7865E+06     2.16655E+06    -16.6866E+06    -26.1885E-03     51.7283E-03    -25.5398E-03     62.5572E-03    -26.1466E-03     51.4885E-03    -25.4507E-03     62.2834E-03
            1006     10.5287E-03     95.8259E-03    -653.625E+03    -56.8701E+06    -2.83045E+06    -17.4078E+06    -26.6965E-03     52.2019E-03    -25.5054E-03     68.7323E-03    -26.6620E-03     51.9714E-03    -25.4361E-03     68.4306E-03
            1007     11.4057E-03     95.8892E-03    -1.06523E+06    -50.4406E+06    -4.20044E+06    -17.2420E+06    -27.3422E-03     52.8466E-03    -25.5045E-03     76.1979E-03    -27.3452E-03     52.6790E-03    -25.4508E-03     75.8733E-03
            1008     12.2828E-03     95.9614E-03    -1.28068E+06    -47.3700E+06    -4.17724E+06    -16.5523E+06    -28.2610E-03     53.8096E-03    -25.5486E-03     84.8185E-03    -28.3156E-03     53.7036E-03    -25.4990E-03     84.4701E-03
            1009     13.1593E-03     96.0407E-03    -2.07654E+06    -56.5715E+06    -15.8170E+06    -14.6007E+06    -29.1851E-03     54.7801E-03    -25.5950E-03     87.3152E-03    -29.2785E-03     54.7112E-03    -25.5891E-03     86.9525E-03
            1010     14.0332E-03     96.1193E-03    -3.31598E+06    -40.2238E+06    -21.0508E+06    -12.2552E+06    -30.2870E-03     55.9569E-03    -25.6699E-03     101.054E-03    -30.5738E-03     56.1502E-03    -25.7120E-03     100.676E-03
            1011     14.9101E-03     96.2241E-03    -4.19435E+06    -2.20375E+06    -26.9268E+06    -9.39159E+06    -34.4163E-03     60.1345E-03    -25.7182E-03     163.559E-03    -35.7345E-03     61.5081E-03    -25.8436E-03     163.207E-03
            1012     15.7850E-03     96.4250E-03    -5.53504E+06     85.5809E+06    -20.1982E+06    -4.65802E+06    -41.1069E-03     66.8506E-03    -25.7437E-03     264.135E-03    -47.5017E-03     73.5881E-03    -25.9607E-03     265.140E-03
            1013     16.6598E-03     96.7302E-03    -4.63976E+06     174.458E+06     56.4962E+06    -1.13234E+06    -37.9181E-03     63.9942E-03    -26.0760E-03     259.619E-03    -46.6689E-03     73.1840E-03    -26.0398E-03     264.562E-03
            1014     877.226E-06     96.4748E-03    -91.9537E+03    -38.1439E+06    -766.288E+03    -4.06286E+06    -25.6565E-03     51.3228E-03    -25.6663E-03     5.85449E-03    -25.6006E-03     51.1335E-03    -25.6147E-03     5.79998E-03
            1015     1.75445E-03     96.4818E-03    -204.197E+03    -38.5320E+06    -1.06734E+06    -7.28863E+06    -25.6051E-03     51.2415E-03    -25.6364E-03     10.8215E-03    -25.5491E-03     51.0510E-03    -25.5855E-03     10.7235E-03
            1016     2.63183E-03     96.4936E-03    -132.521E+03    -40.6680E+06    -1.10170E+06    -10.1883E+06    -25.5291E-03     51.1274E-03    -25.5983E-03     16.1280E-03    -25.4699E-03     50.9266E-03    -25.5447E-03     15.9906E-03
            1017     3.50925E-03     96.5098E-03    -22.2593E+03    -43.0438E+06    -1.25242E+06    -12.5733E+06    -25.4319E-03     50.9785E-03    -25.5467E-03     21.5791E-03    -25.3691E-03     50.7665E-03    -25.4905E-03     21.4086E-03
            1018     4.38691E-03     96.5310E-03     121.020E+03    -45.9055E+06    -1.08137E+06    -14.4334E+06    -25.3263E-03     50.8119E-03    -25.4856E-03     27.1643E-03    -25.2599E-03     50.5860E-03    -25.4246E-03     26.9671E-03
            1019     5.26463E-03     96.5568E-03     254.590E+03    -47.7194E+06    -801.179E+03    -15.6544E+06    -25.2244E-03     50.6388E-03    -25.4144E-03     32.9012E-03    -25.1564E-03     50.4046E-03    -25.3496E-03     32.6849E-03
            1020     6.14265E-03     96.5880E-03     415.834E+03    -49.5217E+06     43.7069E+03    -16.2650E+06    -25.1535E-03     50.4942E-03    -25.3407E-03     38.7912E-03    -25.0853E-03     50.2515E-03    -25.2693E-03     38.5628E-03
            1021     7.02065E-03     96.6239E-03     555.478E+03    -49.8965E+06     1.11932E+06    -16.4552E+06    -25.1356E-03     50.4012E-03    -25.2657E-03     44.8569E-03    -25.0706E-03     50.1578E-03    -25.1885E-03     44.6207E-03
            1022     7.89897E-03     96.6657E-03     729.623E+03    -50.0868E+06     2.75590E+06    -16.0813E+06    -25.2180E-03     50.4171E-03    -25.1991E-03     51.0599E-03    -25.1587E-03     50.1746E-03    -25.1138E-03     50.8211E-03
            1023     8.77705E-03     96.7123E-03     653.569E+03    -50.0500E+06     3.60906E+06    -15.8118E+06    -25.4375E-03     50.5802E-03    -25.1426E-03     57.4220E-03    -25.3868E-03     50.3436E-03    -25.0530E-03     57.1767E-03
            1024     9.65534E-03     96.7652E-03     389.548E+03    -51.2705E+06     3.50169E+06    -15.8595E+06    -25.8506E-03     50.9571E-03    -25.1065E-03     63.8858E-03    -25.8100E-03     50.7258E-03    -25.0153E-03     63.6262E-03
            1025     10.5330E-03     96.8232E-03    -664.475E+03    -54.5794E+06    -729.890E+03    -16.3809E+06    -26.4709E-03     51.5571E-03    -25.0862E-03     70.3121E-03    -26.4416E-03     51.3338E-03    -25.0098E-03     70.0272E-03
            1026     11.4106E-03     96.8878E-03    -1.74811E+06    -49.0236E+06    -2.94459E+06    -16.9575E+06    -27.3062E-03     52.4079E-03    -25.1018E-03     77.9262E-03    -27.3156E-03     52.2456E-03    -25.0429E-03     77.6081E-03
            1027     12.2875E-03     96.9596E-03    -2.24217E+06    -47.1035E+06    -2.89281E+06    -16.4654E+06    -28.4360E-03     53.6130E-03    -25.1770E-03     86.9580E-03    -28.4980E-03     53.5082E-03    -25.1199E-03     86.6124E-03
            1028     13.1626E-03     97.0421E-03    -2.63851E+06    -58.8601E+06    -15.0332E+06    -14.4587E+06    -29.4948E-03     54.7539E-03    -25.2591E-03     89.6464E-03    -29.5898E-03     54.6743E-03    -25.2451E-03     89.2866E-03
            1029     14.0398E-03     97.1182E-03     -3.7078E+06    -41.4742E+06    -19.3924E+06    -11.9845E+06    -30.9255E-03     56.3071E-03    -25.3816E-03     102.827E-03    -31.2191E-03     56.4966E-03    -25.4130E-03     102.449E-03
            1030     14.9126E-03     97.2279E-03    -4.93224E+06    -5.85925E+06    -22.4325E+06    -9.25367E+06    -35.3265E-03     60.8325E-03    -25.5060E-03     164.736E-03    -36.6640E-03     62.1968E-03    -25.6026E-03     164.372E-03
            1031     15.7870E-03     97.4247E-03    -5.56107E+06     80.2048E+06    -19.1463E+06    -4.79042E+06    -41.7298E-03     67.2985E-03    -25.5688E-03     264.557E-03    -48.1470E-03     74.0363E-03    -25.7727E-03     265.547E-03
            1032     16.6626E-03     97.7342E-03    -4.25046E+06     172.684E+06     55.0869E+06    -1.09882E+06    -38.4393E-03     64.3617E-03    -25.9225E-03     259.696E-03    -47.2090E-03     73.5696E-03    -25.8913E-03     264.616E-03
            1033     877.616E-06     97.4723E-03     3.76669E+06    -29.6110E+06     3.31648E+06    -4.41058E+06    -25.1735E-03     50.3572E-03    -25.1837E-03     5.90825E-03    -25.1166E-03     50.1990E-03    -25.1296E-03     5.84949E-03
            1034     1.75532E-03     97.4794E-03     3.36231E+06    -30.6762E+06     2.37481E+06    -7.49186E+06    -25.1116E-03     50.2618E-03    -25.1503E-03     10.9252E-03    -25.0540E-03     50.1004E-03    -25.0988E-03     10.8251E-03
            1035     2.63308E-03     97.4908E-03     2.98128E+06    -33.6386E+06     1.59079E+06    -10.4912E+06    -25.0207E-03     50.1257E-03    -25.1050E-03     16.2892E-03    -24.9600E-03     49.9515E-03    -25.0526E-03     16.1486E-03
            1036     3.51102E-03     97.5070E-03     2.68030E+06    -37.0759E+06     682.481E+03    -12.8519E+06    -24.9038E-03     49.9484E-03    -25.0445E-03     21.8111E-03    -24.8389E-03     49.7593E-03    -24.9912E-03     21.6380E-03
            1037     4.38907E-03     97.5277E-03     2.34007E+06    -40.7483E+06    -53.3387E+03    -14.6812E+06    -24.7746E-03     49.7464E-03    -24.9718E-03     27.4889E-03    -24.7058E-03     49.5414E-03    -24.9164E-03     27.2899E-03
            1038     5.26739E-03     97.5536E-03     1.91801E+06    -43.9873E+06    -427.384E+03    -15.7127E+06    -24.6543E-03     49.5446E-03    -24.8903E-03     33.3375E-03    -24.5835E-03     49.3257E-03    -24.8315E-03     33.1223E-03
            1039     6.14580E-03     97.5842E-03     1.39004E+06    -46.4116E+06    -158.778E+03    -16.1833E+06    -24.5704E-03     49.3764E-03    -24.8059E-03     39.3770E-03    -24.5010E-03     49.1475E-03    -24.7415E-03     39.1520E-03
            1040     7.02449E-03     97.6204E-03     730.578E+03    -47.9363E+06     657.980E+03    -16.0480E+06    -24.5582E-03     49.2825E-03    -24.7243E-03     45.6160E-03    -24.4937E-03     49.0486E-03    -24.6526E-03     45.3877E-03
            1041     7.90313E-03     97.6614E-03    -4.11212E+03    -48.6228E+06     1.86588E+06    -15.6021E+06    -24.6597E-03     49.3120E-03    -24.6523E-03     52.0525E-03    -24.6039E-03     49.0781E-03    -24.5725E-03     51.8233E-03
            1042     8.78194E-03     97.7088E-03    -463.206E+03    -48.4856E+06     3.08283E+06    -15.1645E+06    -24.9405E-03     49.5375E-03    -24.5970E-03     58.6791E-03    -24.8956E-03     49.3099E-03    -24.5106E-03     58.4460E-03
            1043     9.66037E-03     97.7612E-03    -1.28747E+06    -49.8818E+06     3.49996E+06    -14.6865E+06    -25.4497E-03     50.0197E-03    -24.5700E-03     65.4601E-03    -25.4181E-03     49.7962E-03    -24.4783E-03     65.2198E-03
            1044     10.5387E-03     97.8206E-03    -2.35018E+06    -51.9812E+06     817.384E+03    -14.8572E+06    -26.2264E-03     50.7960E-03    -24.5697E-03     72.1539E-03    -26.2100E-03     50.5844E-03    -24.4868E-03     71.8926E-03
            1045     11.4162E-03     97.8848E-03    -3.79479E+06    -46.7919E+06    -920.243E+03    -15.6643E+06    -27.2924E-03     51.9065E-03    -24.6141E-03     80.1295E-03    -27.3175E-03     51.7547E-03    -24.5454E-03     79.8312E-03
            1046     12.2927E-03     97.9593E-03    -4.67447E+06    -46.2125E+06    -1.21674E+06    -16.4120E+06    -28.5617E-03     53.2858E-03    -24.7241E-03     89.2406E-03    -28.6395E-03     53.1864E-03    -24.6564E-03     88.8980E-03
            1047     13.1702E-03     98.0404E-03    -5.10956E+06    -61.5514E+06    -14.4932E+06    -14.8690E+06    -29.9112E-03     54.7598E-03    -24.8486E-03     91.9503E-03    -30.0167E-03     54.6707E-03    -24.8244E-03     91.5854E-03
            1048     14.0423E-03     98.1215E-03    -5.57985E+06    -42.6288E+06    -17.5236E+06    -12.1466E+06    -31.7097E-03     56.7413E-03    -25.0316E-03     105.232E-03    -32.0215E-03     56.9328E-03    -25.0493E-03     104.847E-03
            1049     14.9178E-03     98.2284E-03    -6.02761E+06    -9.13144E+06    -17.9590E+06    -9.43975E+06    -36.3111E-03     61.5477E-03    -25.2366E-03     166.815E-03    -37.6789E-03     62.9138E-03    -25.3044E-03     166.433E-03
            1050     15.7911E-03     98.4301E-03    -6.32339E+06     74.5638E+06    -18.0070E+06    -5.07781E+06    -42.6717E-03     68.0235E-03    -25.3518E-03     264.751E-03    -49.0998E-03     74.7462E-03    -25.5408E-03     265.708E-03
            1051     16.6663E-03     98.7330E-03    -4.75619E+06     171.093E+06     54.6086E+06    -1.45390E+06    -39.3402E-03     65.0960E-03    -25.7558E-03     258.738E-03    -48.1080E-03     74.2959E-03    -25.7239E-03     263.596E-03
            1052     878.167E-06     98.4690E-03     5.98754E+06    -20.7900E+06     5.87731E+06    -4.43154E+06    -24.5536E-03     49.1237E-03    -24.5700E-03     5.96227E-03    -24.5021E-03     49.0026E-03    -24.5192E-03     5.90353E-03
            1053     1.75638E-03     98.4758E-03     5.84002E+06    -22.8249E+06     4.94697E+06    -7.57857E+06    -24.4875E-03     49.0213E-03    -24.5338E-03     11.0385E-03    -24.4326E-03     48.8918E-03    -24.4844E-03     10.9379E-03
            1054     2.63472E-03     98.4872E-03     5.29348E+06    -26.5403E+06     3.44221E+06    -10.4487E+06    -24.3820E-03     48.8634E-03    -24.4813E-03     16.4653E-03    -24.3227E-03     48.7185E-03    -24.4333E-03     16.3260E-03
            1055     3.51318E-03     98.5029E-03     4.42613E+06    -31.1538E+06     1.60016E+06    -12.7912E+06    -24.2458E-03     48.6573E-03    -24.4115E-03     22.0658E-03    -24.1819E-03     48.4938E-03    -24.3648E-03     21.8947E-03
            1056     4.39188E-03     98.5237E-03     3.25122E+06    -35.8655E+06    -211.371E+03    -14.3362E+06    -24.0972E-03     48.4250E-03    -24.3278E-03     27.8425E-03    -24.0304E-03     48.2429E-03    -24.2815E-03     27.6494E-03
            1057     5.27073E-03     98.5489E-03     1.77708E+06    -40.5419E+06    -1.57988E+06    -15.1110E+06    -23.9623E-03     48.1986E-03    -24.2364E-03     33.8192E-03    -23.8951E-03     47.9984E-03    -24.1880E-03     33.6137E-03
            1058     6.14984E-03     98.5796E-03     25.2380E+03    -43.7593E+06    -2.21505E+06    -15.1397E+06    -23.8718E-03     48.0144E-03    -24.1426E-03     40.0193E-03    -23.8093E-03     47.8031E-03    -24.0903E-03     39.8103E-03
            1059     7.02904E-03     98.6151E-03    -1.90076E+06    -46.4537E+06    -1.77144E+06    -14.6507E+06    -23.8729E-03     47.9299E-03    -24.0570E-03     46.4610E-03    -23.8193E-03     47.7098E-03    -23.9958E-03     46.2539E-03
            1060     7.90840E-03     98.6567E-03    -3.66457E+06    -46.9758E+06    -562.615E+03    -14.1678E+06    -24.0142E-03     47.9987E-03    -23.9844E-03     53.1456E-03    -23.9744E-03     47.7806E-03    -23.9138E-03     52.9385E-03
            1061     8.78763E-03     98.7034E-03    -5.33128E+06    -47.4111E+06     838.447E+03    -13.7764E+06    -24.3719E-03     48.3084E-03    -23.9365E-03     60.0872E-03    -24.3481E-03     48.0949E-03    -23.8558E-03     59.8760E-03
            1062     9.66672E-03     98.7571E-03    -6.29107E+06    -48.6002E+06     2.27678E+06    -13.4404E+06    -25.0053E-03     48.9310E-03    -23.9257E-03     67.1774E-03    -24.9971E-03     48.7213E-03    -23.8347E-03     66.9575E-03
            1063     10.5453E-03     98.8161E-03    -7.18939E+06    -50.2464E+06     965.458E+03    -13.3190E+06    -25.9574E-03     49.9093E-03    -23.9519E-03     74.2533E-03    -25.9664E-03     49.7116E-03    -23.8638E-03     74.0162E-03
            1064     11.4229E-03     98.8827E-03    -8.27296E+06    -43.8606E+06     579.321E+03    -14.0166E+06    -27.2252E-03     51.2564E-03    -24.0312E-03     82.5470E-03    -27.2781E-03     51.1226E-03    -23.9527E-03     82.2735E-03
            1065     12.3003E-03     98.9567E-03    -9.06632E+06    -43.4495E+06     572.148E+03    -15.9008E+06    -28.8493E-03     53.0363E-03    -24.1870E-03     91.8327E-03    -28.9564E-03     52.9554E-03    -24.1080E-03     91.4978E-03
            1066     13.1742E-03     99.0415E-03    -8.94822E+06    -63.9668E+06    -14.2257E+06    -15.7790E+06    -30.5300E-03     54.9004E-03    -24.3704E-03     94.7480E-03    -30.6548E-03     54.8077E-03    -24.3358E-03     94.3700E-03
            1067     14.0512E-03     99.1217E-03    -8.06666E+06    -43.4309E+06    -15.8657E+06    -13.6819E+06    -32.5362E-03     57.1608E-03    -24.6246E-03     107.667E-03    -32.8694E-03     57.3573E-03    -24.6292E-03     107.255E-03
            1068     14.9227E-03     99.2333E-03    -7.15416E+06    -13.0758E+06    -13.9496E+06    -10.7125E+06    -37.3329E-03     62.2496E-03    -24.9168E-03     168.187E-03    -38.7231E-03     63.6086E-03    -24.9572E-03     167.771E-03
            1069     15.7956E-03     99.4322E-03    -6.58448E+06     68.8042E+06    -15.8429E+06    -5.41605E+06    -44.0829E-03     69.1906E-03    -25.1077E-03     264.985E-03    -50.5431E-03     75.9176E-03    -25.2771E-03     265.849E-03
            1070     16.6672E-03     99.7382E-03    -4.80317E+06     169.463E+06     55.0349E+06    -1.56315E+06    -40.7519E-03     66.3384E-03    -25.5865E-03     257.930E-03    -49.5264E-03     75.5378E-03    -25.5501E-03     262.660E-03
            1071     878.824E-06     99.4641E-03     8.21393E+06    -12.0100E+06     7.87287E+06    -4.24796E+06    -23.7951E-03     47.6092E-03    -23.8140E-03     6.01913E-03    -23.7481E-03     47.5259E-03    -23.7692E-03     5.96308E-03
            1072     1.75770E-03     99.4710E-03     7.35637E+06    -15.1148E+06     6.18906E+06    -7.39230E+06    -23.7192E-03     47.4916E-03    -23.7724E-03     11.1529E-03    -23.6697E-03     47.3966E-03    -23.7302E-03     11.0552E-03
            1073     2.63671E-03     99.4820E-03     6.14854E+06    -19.7926E+06     3.79429E+06    -10.0187E+06    -23.5991E-03     47.3117E-03    -23.7126E-03     16.6439E-03    -23.5456E-03     47.1987E-03    -23.6738E-03     16.5111E-03
            1074     3.51588E-03     99.4977E-03     4.36316E+06    -25.6135E+06     809.545E+03    -11.9470E+06    -23.4483E-03     47.0822E-03    -23.6339E-03     22.3223E-03    -23.3914E-03     46.9475E-03    -23.5990E-03     22.1633E-03
            1075     4.39525E-03     99.5178E-03     1.92450E+06    -31.8075E+06    -2.32638E+06    -12.9520E+06    -23.2875E-03     46.8286E-03    -23.5411E-03     28.2015E-03    -23.2298E-03     46.6715E-03    -23.5094E-03     28.0280E-03
            1076     5.27485E-03     99.5431E-03    -1.07899E+06    -37.6360E+06    -4.78279E+06    -13.1459E+06    -23.1467E-03     46.5892E-03    -23.4425E-03     34.3068E-03    -23.0928E-03     46.4117E-03    -23.4103E-03     34.1289E-03
            1077     6.15463E-03     99.5731E-03    -4.36768E+06    -42.0680E+06    -6.06007E+06    -12.6795E+06    -23.0650E-03     46.4109E-03    -23.3459E-03     40.6750E-03    -23.0207E-03     46.2193E-03    -23.3088E-03     40.5004E-03
            1078     7.03459E-03     99.6089E-03    -7.43862E+06    -45.0557E+06    -5.51650E+06    -12.0660E+06    -23.0965E-03     46.3590E-03    -23.2625E-03     47.3274E-03    -23.0662E-03     46.1583E-03    -23.2140E-03     47.1568E-03
            1079     7.91457E-03     99.6498E-03    -10.2161E+06    -45.8706E+06    -3.51233E+06    -11.4389E+06    -23.3065E-03     46.5071E-03    -23.2006E-03     54.2729E-03    -23.2954E-03     46.3071E-03    -23.1369E-03     54.1047E-03
            1080     8.79444E-03     99.6975E-03    -12.2841E+06    -45.6639E+06    -1.00857E+06    -11.4325E+06    -23.7663E-03     46.9358E-03    -23.1696E-03     61.5301E-03    -23.7755E-03     46.7422E-03    -23.0906E-03     61.3534E-03
            1081     9.67397E-03     99.7508E-03    -13.3382E+06    -46.9849E+06     842.683E+03    -12.1604E+06    -24.5483E-03     47.7293E-03    -23.1809E-03     69.0027E-03    -24.5738E-03     47.5382E-03    -23.0893E-03     68.8037E-03
            1082     10.5528E-03     99.8118E-03    -13.6013E+06    -49.4685E+06     328.826E+03    -12.0232E+06    -25.6945E-03     48.9349E-03    -23.2404E-03     76.4443E-03    -25.7341E-03     48.7496E-03    -23.1473E-03     76.2282E-03
            1083     11.4311E-03     99.8783E-03    -13.5106E+06    -40.0858E+06     1.44819E+06    -13.0313E+06    -27.2479E-03     50.6100E-03    -23.3621E-03     85.0674E-03    -27.3330E-03     50.5006E-03    -23.2771E-03     84.8097E-03
            1084     12.3072E-03     99.9558E-03    -12.9544E+06    -39.4411E+06     2.63430E+06    -15.5909E+06    -29.1925E-03     52.7690E-03    -23.5765E-03     94.5441E-03    -29.3291E-03     52.7119E-03    -23.4873E-03     94.2140E-03
            1085     13.1843E-03     100.041E-03    -12.6417E+06    -64.6301E+06    -13.7666E+06    -16.5992E+06    -31.2781E-03     55.1064E-03    -23.8283E-03     97.6368E-03    -31.4248E-03     55.0188E-03    -23.7851E-03     97.2454E-03
            1086     14.0547E-03     100.125E-03    -11.9308E+06    -43.7120E+06    -15.4157E+06    -16.2660E+06    -33.6624E-03     57.8292E-03    -24.1667E-03     110.514E-03    -34.0266E-03     58.0407E-03    -24.1631E-03     110.059E-03
            1087     14.9285E-03     100.236E-03    -9.60644E+06    -18.1440E+06    -12.1081E+06    -13.2742E+06    -38.8123E-03     63.3793E-03    -24.5670E-03     169.974E-03    -40.2364E-03     64.7401E-03    -24.5873E-03     169.495E-03
            1088     15.7998E-03     100.438E-03    -7.51163E+06     61.7055E+06    -14.6996E+06    -6.96866E+06    -45.5220E-03     70.3755E-03    -24.8534E-03     265.176E-03    -52.0245E-03     77.1130E-03    -25.0055E-03     265.957E-03
            1089     16.6726E-03     100.743E-03    -4.84087E+06     167.301E+06     55.8913E+06    -2.12219E+06    -42.1402E-03     67.5550E-03    -25.4147E-03     256.563E-03    -50.9039E-03     76.7333E-03    -25.3708E-03     261.143E-03
            1090     879.592E-06     100.458E-03     8.64478E+06    -3.81059E+06     8.12022E+06    -3.85828E+06    -22.8844E-03     45.7839E-03    -22.8995E-03     6.07539E-03    -22.8475E-03     45.7406E-03    -22.8659E-03     6.02469E-03
            1091     1.75930E-03     100.464E-03     7.25026E+06    -7.94896E+06     5.69080E+06    -6.58688E+06    -22.7996E-03     45.6557E-03    -22.8562E-03     11.2550E-03    -22.7602E-03     45.5974E-03    -22.8267E-03     11.1683E-03
            1092     2.63909E-03     100.475E-03     4.97008E+06    -13.9338E+06     2.14590E+06    -8.71041E+06    -22.6698E-03     45.4606E-03    -22.7907E-03     16.8037E-03    -22.6283E-03     45.3809E-03    -22.7670E-03     16.6888E-03
            1093     3.51909E-03     100.491E-03     1.77144E+06    -21.3006E+06    -2.08506E+06    -9.80755E+06    -22.5143E-03     45.2213E-03    -22.7070E-03     22.5519E-03    -22.4722E-03     45.1159E-03    -22.6891E-03     22.4219E-03
            1094     4.39927E-03     100.511E-03    -2.31010E+06    -28.9939E+06    -6.17136E+06    -9.94215E+06    -22.3561E-03     44.9685E-03    -22.6125E-03     28.5190E-03    -22.3177E-03     44.8369E-03    -22.5979E-03     28.3860E-03
            1095     5.27968E-03     100.535E-03    -6.91209E+06    -35.9385E+06    -9.10538E+06    -9.39631E+06    -22.2297E-03     44.7461E-03    -22.5163E-03     34.7419E-03    -22.2008E-03     44.5913E-03    -22.4997E-03     34.6144E-03
            1096     6.16025E-03     100.565E-03    -11.3526E+06    -40.9035E+06    -9.98093E+06    -8.76638E+06    -22.1807E-03     44.6092E-03    -22.4284E-03     41.2652E-03    -22.1666E-03     44.4384E-03    -22.4026E-03     41.1436E-03
            1097     7.04097E-03     100.601E-03    -15.0068E+06    -43.8557E+06    -8.49417E+06    -8.41889E+06    -22.2729E-03     44.6324E-03    -22.3595E-03     48.1295E-03    -22.2769E-03     44.4520E-03    -22.3166E-03     48.0090E-03
            1098     7.92161E-03     100.642E-03    -17.2393E+06    -44.8475E+06    -5.25893E+06    -8.34863E+06    -22.5754E-03     44.8934E-03    -22.3180E-03     55.3469E-03    -22.5971E-03     44.7099E-03    -22.2542E-03     55.2220E-03
            1099     8.80212E-03     100.689E-03    -18.1235E+06    -43.1449E+06    -1.42770E+06    -9.12219E+06    -23.1589E-03     45.4696E-03    -22.3107E-03     62.9545E-03    -23.1988E-03     45.2962E-03    -22.2290E-03     62.8114E-03
            1100     9.68208E-03     100.744E-03    -18.3545E+06    -44.7158E+06     1.02088E+06    -10.3994E+06    -24.1114E-03     46.4645E-03    -22.3531E-03     70.8213E-03    -24.1639E-03     46.2900E-03    -22.2565E-03     70.6491E-03
            1101     10.5615E-03     100.805E-03    -17.4418E+06    -47.8791E+06     778.224E+03    -11.8262E+06    -25.5085E-03     47.9607E-03    -22.4522E-03     78.7229E-03    -25.5687E-03     47.7868E-03    -22.3536E-03     78.5130E-03
            1102     11.4392E-03     100.875E-03    -15.4232E+06    -36.5916E+06     2.84347E+06    -13.1215E+06    -27.3634E-03     49.9880E-03    -22.6247E-03     87.8505E-03    -27.4647E-03     49.8965E-03    -22.5350E-03     87.5942E-03
            1103     12.3165E-03     100.953E-03    -14.4253E+06    -35.6142E+06     4.80570E+06    -14.7708E+06    -29.6693E-03     52.5765E-03    -22.9072E-03     97.5560E-03    -29.8238E-03     52.5395E-03    -22.8106E-03     97.2363E-03
            1104     13.1895E-03     101.041E-03    -14.1425E+06    -62.5751E+06    -12.2103E+06    -16.9708E+06    -32.0537E-03     55.2894E-03    -23.2357E-03     100.870E-03    -32.2181E-03     55.2169E-03    -23.1855E-03     100.471E-03
            1105     14.0652E-03     101.127E-03    -14.4117E+06    -42.6570E+06    -14.7303E+06    -17.6017E+06    -34.9187E-03     58.5817E-03    -23.6629E-03     113.847E-03    -35.3115E-03     58.8147E-03    -23.6538E-03     113.362E-03
            1106     14.9344E-03     101.242E-03    -13.8602E+06    -22.3340E+06    -12.2286E+06    -16.3181E+06    -40.7143E-03     64.8956E-03    -24.1813E-03     172.374E-03    -42.1872E-03     66.2757E-03    -24.1900E-03     171.816E-03
            1107     15.8036E-03     101.444E-03    -10.5617E+06     52.8563E+06    -15.9917E+06    -11.2944E+06    -47.3277E-03     71.9153E-03    -24.5876E-03     265.327E-03    -53.8649E-03     78.6490E-03    -24.7289E-03     265.964E-03
            1108     16.6732E-03     101.748E-03    -5.51047E+06     161.984E+06     54.8960E+06    -4.10981E+06    -43.7291E-03     68.9785E-03    -25.2494E-03     255.611E-03    -52.4944E-03     78.1401E-03    -25.2018E-03     260.017E-03
            1109     880.568E-06     101.450E-03     6.46578E+06     3.07000E+06     6.11066E+06    -3.05635E+06    -21.8137E-03     43.6434E-03    -21.8297E-03     6.11353E-03    -21.7948E-03     43.6406E-03    -21.8130E-03     6.07349E-03
            1110     1.76113E-03     101.456E-03     4.21163E+06    -2.25288E+06     2.68084E+06    -4.88867E+06    -21.7298E-03     43.5147E-03    -21.7849E-03     11.3215E-03    -21.7096E-03     43.4935E-03    -21.7743E-03     11.2573E-03
            1111     2.64191E-03     101.467E-03     521.119E+03    -9.98264E+06    -1.99363E+06    -5.81729E+06    -21.6056E-03     43.3258E-03    -21.7202E-03     16.9117E-03    -21.5859E-03     43.2782E-03    -21.7164E-03     16.8350E-03
            1112     3.52277E-03     101.482E-03    -4.48884E+06    -19.0041E+06    -6.98972E+06    -5.68876E+06    -21.4651E-03     43.1071E-03    -21.6421E-03     22.7089E-03    -21.4503E-03     43.0291E-03    -21.6429E-03     22.6332E-03
            1113     4.40390E-03     101.501E-03    -10.2158E+06    -27.9763E+06    -11.1224E+06    -4.86699E+06    -21.3356E-03     42.8951E-03    -21.5595E-03     28.7429E-03    -21.3308E-03     42.7869E-03    -21.5597E-03     28.6770E-03
            1114     5.28513E-03     101.526E-03    -15.7144E+06    -35.2131E+06    -13.2878E+06    -4.12933E+06    -21.2524E-03     42.7333E-03    -21.4810E-03     35.0651E-03    -21.2619E-03     42.6006E-03    -21.4736E-03     35.0075E-03
            1115     6.16658E-03     101.555E-03    -20.0582E+06    -39.8988E+06    -12.8317E+06    -4.01923E+06    -21.2659E-03     42.6812E-03    -21.4154E-03     41.7392E-03    -21.2919E-03     42.5316E-03    -21.3926E-03     41.6812E-03
            1116     7.04797E-03     101.591E-03    -22.7295E+06    -42.3249E+06    -10.0816E+06    -4.64310E+06    -21.4404E-03     42.8114E-03    -21.3711E-03     48.8228E-03    -21.4819E-03     42.6512E-03    -21.3271E-03     48.7537E-03
            1117     7.92938E-03     101.632E-03    -23.3135E+06    -42.4643E+06    -5.95735E+06    -6.36212E+06    -21.8470E-03     43.2022E-03    -21.3552E-03     56.3452E-03    -21.9003E-03     43.0392E-03    -21.2896E-03     56.2491E-03
            1118     8.81036E-03     101.681E-03    -22.4343E+06    -41.0285E+06    -1.46947E+06    -7.71445E+06    -22.5684E-03     43.9474E-03    -21.3790E-03     64.3228E-03    -22.6314E-03     43.7893E-03    -21.2943E-03     64.2015E-03
            1119     9.69098E-03     101.736E-03    -20.8837E+06    -41.3174E+06     1.81173E+06    -9.45486E+06    -23.7074E-03     45.1652E-03    -21.4577E-03     72.6508E-03    -23.7770E-03     45.0086E-03    -21.3585E-03     72.4946E-03
            1120     10.5703E-03     101.799E-03    -18.8948E+06    -44.3000E+06     1.94571E+06    -12.3268E+06    -25.3217E-03     46.9234E-03    -21.6016E-03     81.1446E-03    -25.3947E-03     46.7664E-03    -21.5003E-03     80.9321E-03
            1121     11.4489E-03     101.869E-03    -17.1899E+06    -34.8137E+06     3.19673E+06    -13.5500E+06    -27.5001E-03     49.3284E-03    -21.8283E-03     90.9507E-03    -27.6130E-03     49.2475E-03    -21.7369E-03     90.6915E-03
            1122     12.3246E-03     101.951E-03    -15.2025E+06    -32.0013E+06     5.93215E+06    -14.5577E+06    -30.1459E-03     52.3245E-03    -22.1786E-03     101.055E-03    -30.3133E-03     52.3072E-03    -22.0805E-03     100.738E-03
            1123     13.2008E-03     102.041E-03    -13.6184E+06    -59.1992E+06    -9.85137E+06    -17.1474E+06    -33.0751E-03     55.6729E-03    -22.5977E-03     104.596E-03    -33.2518E-03     55.6199E-03    -22.5414E-03     104.188E-03
            1124     14.0700E-03     102.131E-03    -12.7293E+06    -41.5947E+06    -12.5503E+06    -17.9672E+06    -36.5341E-03     59.6691E-03    -23.1349E-03     117.388E-03    -36.9408E-03     59.9196E-03    -23.1189E-03     116.881E-03
            1125     14.9408E-03     102.249E-03    -11.5977E+06    -22.0300E+06    -9.58913E+06    -17.7743E+06    -42.5939E-03     66.3707E-03    -23.7768E-03     174.899E-03    -44.0895E-03     67.7749E-03    -23.7759E-03     174.281E-03
            1126     15.8089E-03     102.453E-03    -9.93215E+06     44.6774E+06    -12.0657E+06    -14.9526E+06    -49.3547E-03     73.6829E-03    -24.3282E-03     265.579E-03    -55.8990E-03     80.3857E-03    -24.4389E-03     266.040E-03
            1127     16.6779E-03     102.756E-03    -6.03869E+06     152.201E+06     56.2697E+06    -6.73219E+06    -45.6180E-03     70.7191E-03    -25.1011E-03     254.787E-03    -54.3730E-03     79.8298E-03    -25.0316E-03     258.956E-03
            1128     881.557E-06     102.439E-03     482.947E+03     7.25905E+06     434.074E+03    -1.23115E+06    -20.6003E-03     41.2158E-03    -20.6155E-03     6.11802E-03    -20.6091E-03     41.2508E-03    -20.6246E-03     6.10181E-03
            1129     1.76329E-03     102.445E-03    -3.20017E+06     343.265E+03    -3.68256E+06    -1.34501E+06    -20.5324E-03     41.1098E-03    -20.5774E-03     11.3235E-03    -20.5437E-03     41.1215E-03    -20.5916E-03     11.3055E-03
            1130     2.64499E-03     102.456E-03    -8.59705E+06    -9.05814E+06    -8.49719E+06    -639.255E+03    -20.4395E-03     40.9678E-03    -20.5283E-03     16.9224E-03    -20.4572E-03     40.9474E-03    -20.5452E-03     16.9133E-03
            1131     3.52695E-03     102.470E-03    -14.7098E+06    -19.3014E+06    -12.7959E+06     622.589E+03    -20.3449E-03     40.8187E-03    -20.4738E-03     22.7430E-03    -20.3722E-03     40.7622E-03    -20.4885E-03     22.7498E-03
            1132     4.40892E-03     102.490E-03    -20.4950E+06    -28.4403E+06    -15.3819E+06     1.63753E+06    -20.2756E-03     40.6962E-03    -20.4206E-03     28.8288E-03    -20.3150E-03     40.6064E-03    -20.4266E-03     28.8481E-03
            1133     5.29112E-03     102.514E-03    -24.9732E+06    -34.7574E+06    -15.6803E+06     1.62516E+06    -20.2644E-03     40.6381E-03    -20.3737E-03     35.2456E-03    -20.3170E-03     40.5241E-03    -20.3655E-03     35.2638E-03
            1134     6.17326E-03     102.544E-03    -27.6175E+06    -38.2900E+06    -13.8607E+06     335.575E+03    -20.3585E-03     40.6974E-03    -20.3389E-03     42.0748E-03    -20.4226E-03     40.5676E-03    -20.3126E-03     42.0748E-03
            1135     7.05552E-03     102.579E-03    -28.0278E+06    -39.4784E+06    -10.2817E+06    -2.16814E+06    -20.6222E-03     40.9461E-03    -20.3239E-03     49.3957E-03    -20.6933E-03     40.8073E-03    -20.2774E-03     49.3608E-03
            1136     7.93745E-03     102.621E-03    -26.9336E+06    -38.5669E+06    -5.70427E+06    -5.27699E+06    -21.1323E-03     41.4709E-03    -20.3387E-03     57.2382E-03    -21.2086E-03     41.3312E-03    -20.2722E-03     57.1588E-03
            1137     8.81920E-03     102.670E-03    -24.6875E+06    -38.9478E+06    -1.62390E+06    -7.72732E+06    -21.9941E-03     42.3909E-03    -20.3969E-03     65.6469E-03    -22.0697E-03     42.2454E-03    -20.3127E-03     65.5285E-03
            1138     9.70000E-03     102.726E-03    -21.4055E+06    -36.8490E+06     2.22727E+06    -10.2066E+06    -23.2836E-03     43.7959E-03    -20.5122E-03     74.5428E-03    -23.3612E-03     43.6601E-03    -20.4166E-03     74.3805E-03
            1139     10.5802E-03     102.791E-03    -18.1490E+06    -40.2080E+06     3.18175E+06    -13.1611E+06    -25.1381E-03     45.8432E-03    -20.7051E-03     83.6462E-03    -25.2136E-03     45.7024E-03    -20.6046E-03     83.4264E-03
            1140     11.4582E-03     102.864E-03    -15.3146E+06    -34.1084E+06     4.07952E+06    -13.9004E+06    -27.5835E-03     48.5715E-03    -20.9880E-03     94.2019E-03    -27.6888E-03     48.4895E-03    -20.8959E-03     93.9410E-03
            1141     12.3352E-03     102.948E-03    -12.6688E+06    -27.2480E+06     7.53134E+06    -15.6053E+06    -30.6530E-03     52.0556E-03    -21.4026E-03     104.832E-03    -30.8191E-03     52.0583E-03    -21.3070E-03     104.501E-03
            1142     13.2077E-03     103.042E-03    -10.4379E+06    -56.1331E+06    -7.47744E+06    -18.2357E+06    -34.2928E-03     56.2127E-03    -21.9199E-03     109.043E-03    -34.4702E-03     56.1757E-03    -21.8607E-03     108.613E-03
            1143     14.0802E-03     103.136E-03    -8.26204E+06    -40.8130E+06    -10.8321E+06    -18.7719E+06    -38.2533E-03     60.8249E-03    -22.5716E-03     121.937E-03    -38.6609E-03     61.0900E-03    -22.5546E-03     121.400E-03
            1144     14.9469E-03     103.256E-03    -5.73291E+06    -20.0078E+06    -6.31439E+06    -19.2163E+06    -44.7099E-03     68.0538E-03    -23.3439E-03     178.461E-03    -46.2178E-03     69.4890E-03    -23.3381E-03     177.776E-03
            1145     15.8133E-03     103.464E-03    -4.40865E+06     37.6383E+06    -12.5252E+06    -15.1747E+06    -51.6366E-03     75.6588E-03    -24.0222E-03     266.349E-03    -58.1237E-03     82.3004E-03    -24.1330E-03     266.657E-03
            1146     16.6787E-03     103.765E-03    -3.44305E+06     142.028E+06     52.5354E+06    -6.35576E+06    -47.6367E-03     72.5505E-03    -24.9138E-03     253.560E-03    -56.3047E-03     81.5582E-03    -24.8521E-03     257.493E-03
            1147     882.797E-06     103.426E-03    -11.2979E+06     5.83591E+06    -9.82957E+06     2.68037E+06    -19.2900E-03     38.5900E-03    -19.3000E-03     6.05440E-03    -19.3407E-03     38.6498E-03    -19.3413E-03     6.08890E-03
            1148     1.76550E-03     103.432E-03    -15.7732E+06    -1.73953E+06    -12.9310E+06     4.58205E+06    -19.2633E-03     38.5507E-03    -19.2873E-03     11.2235E-03    -19.3210E-03     38.5835E-03    -19.3266E-03     11.2824E-03
            1149     2.64841E-03     103.442E-03    -21.0608E+06    -11.7907E+06    -15.5684E+06     6.59642E+06    -19.2305E-03     38.5046E-03    -19.2741E-03     16.7997E-03    -19.2963E-03     38.4988E-03    -19.3043E-03     16.8845E-03
            1150     3.53123E-03     103.457E-03    -26.1527E+06    -21.7573E+06    -17.2532E+06     8.04044E+06    -19.2103E-03     38.4701E-03    -19.2599E-03     22.6338E-03    -19.2846E-03     38.4243E-03    -19.2767E-03     22.7370E-03
            1151     4.41426E-03     103.476E-03    -29.9454E+06    -29.2917E+06    -17.4718E+06     8.03036E+06    -19.2239E-03     38.4700E-03    -19.2460E-03     28.7717E-03    -19.3061E-03     38.3924E-03    -19.2475E-03     28.8744E-03
            1152     5.29718E-03     103.501E-03    -31.6899E+06    -33.4913E+06    -16.1523E+06     6.13660E+06    -19.2974E-03     38.5323E-03    -19.2349E-03     35.2851E-03    -19.3844E-03     38.4347E-03    -19.2211E-03     35.3627E-03
            1153     6.18026E-03     103.530E-03    -31.3225E+06    -35.4455E+06    -13.4677E+06     2.95512E+06    -19.4757E-03     38.7086E-03    -19.2328E-03     42.2734E-03    -19.5626E-03     38.5973E-03    -19.2033E-03     42.3087E-03
            1154     7.06307E-03     103.566E-03    -29.9887E+06    -35.2480E+06    -9.72283E+06    -848.470E+03    -19.8200E-03     39.0690E-03    -19.2490E-03     49.8334E-03    -19.9070E-03     38.9526E-03    -19.2030E-03     49.8174E-03
            1155     7.94589E-03     103.608E-03    -28.2153E+06    -34.1927E+06    -5.55951E+06    -4.60134E+06    -20.4257E-03     39.7215E-03    -19.2958E-03     58.0215E-03    -20.5139E-03     39.6042E-03    -19.2331E-03     57.9532E-03
            1156     8.82797E-03     103.658E-03    -25.5508E+06    -34.5303E+06    -1.79779E+06    -8.67748E+06    -21.3976E-03     40.7859E-03    -19.3883E-03     66.9031E-03    -21.4824E-03     40.6625E-03    -19.3101E-03     66.7755E-03
            1157     9.70964E-03     103.715E-03    -21.7304E+06    -32.5304E+06     1.90086E+06    -12.2954E+06    -22.8292E-03     42.3703E-03    -19.5411E-03     76.3939E-03    -22.9124E-03     42.2554E-03    -19.4529E-03     76.2082E-03
            1158     10.5897E-03     103.782E-03    -18.3594E+06    -36.8709E+06     2.82532E+06    -14.2015E+06    -24.8752E-03     44.6533E-03    -19.7781E-03     86.2915E-03    -24.9543E-03     44.5282E-03    -19.6839E-03     86.0622E-03
            1159     11.4685E-03     103.857E-03    -15.1832E+06    -32.0583E+06     3.66141E+06    -16.0599E+06    -27.6021E-03     47.7144E-03    -20.1123E-03     97.6655E-03    -27.7081E-03     47.6421E-03    -20.0255E-03     97.3802E-03
            1160     12.3446E-03     103.945E-03    -11.1406E+06    -23.1058E+06     8.03735E+06    -17.7150E+06    -31.2048E-03     51.7980E-03    -20.5932E-03     109.344E-03    -31.3725E-03     51.8210E-03    -20.5034E-03     108.986E-03
            1161     13.2190E-03     104.043E-03    -8.66338E+06    -52.6815E+06    -5.76824E+06    -19.6454E+06    -35.2993E-03     56.5028E-03    -21.2035E-03     114.281E-03    -35.4831E-03     56.4858E-03    -21.1434E-03     113.828E-03
            1162     14.0869E-03     104.141E-03    -7.39483E+06    -39.1360E+06    -10.4541E+06    -20.8281E+06    -39.8189E-03     61.7752E-03    -21.9563E-03     127.298E-03    -40.2435E-03     62.0653E-03    -21.9411E-03     126.716E-03
            1163     14.9548E-03     104.266E-03    -6.69534E+06    -19.5506E+06    -6.44883E+06    -20.4705E+06    -47.1283E-03     69.9885E-03    -22.8601E-03     182.905E-03    -48.6718E-03     71.4580E-03    -22.8543E-03     182.145E-03
            1164     15.8186E-03     104.477E-03    -7.45700E+06     29.3667E+06    -20.0374E+06    -16.2460E+06    -54.3294E-03     77.9975E-03    -23.6681E-03     267.567E-03    -60.7989E-03     84.6031E-03    -23.8001E-03     267.671E-03
            1165     16.6840E-03     104.777E-03    -5.84546E+06     131.878E+06     43.3103E+06    -7.61829E+06    -49.9195E-03     74.6177E-03    -24.6982E-03     251.991E-03    -58.5177E-03     83.5377E-03    -24.6644E-03     255.595E-03
            1166     883.876E-06     104.410E-03    -27.2314E+06    -5.09746E+06    -23.7892E+06     8.73309E+06    -17.9792E-03     35.9663E-03    -17.9871E-03     5.91004E-03    -18.0735E-03     36.0148E-03    -18.0592E-03     6.02277E-03
            1167     1.76787E-03     104.416E-03    -30.9041E+06    -9.12810E+06    -22.8683E+06     12.5482E+06    -18.0026E-03     36.0113E-03    -18.0087E-03     11.0001E-03    -18.1108E-03     36.0436E-03    -18.0650E-03     11.1620E-03
            1168     2.65166E-03     104.427E-03    -34.0502E+06    -17.1451E+06    -21.6026E+06     14.1029E+06    -18.0412E-03     36.0787E-03    -18.0375E-03     16.5413E-03    -18.1553E-03     36.0736E-03    -18.0713E-03     16.7233E-03
            1169     3.53564E-03     104.441E-03    -35.2373E+06    -24.9070E+06    -19.9783E+06     14.0413E+06    -18.1062E-03     36.1695E-03    -18.0633E-03     22.3935E-03    -18.2174E-03     36.1250E-03    -18.0760E-03     22.5746E-03
            1170     4.41941E-03     104.461E-03    -34.7204E+06    -29.4554E+06    -17.8539E+06     12.1759E+06    -18.2082E-03     36.2931E-03    -18.0849E-03     28.5895E-03    -18.3133E-03     36.2221E-03    -18.0811E-03     28.7463E-03
            1171     5.30334E-03     104.485E-03    -33.3662E+06    -31.0218E+06    -15.4705E+06     8.71675E+06    -18.3641E-03     36.4699E-03    -18.1058E-03     35.1933E-03    -18.4638E-03     36.3858E-03    -18.0898E-03     35.3050E-03
            1172     6.18700E-03     104.515E-03    -31.9043E+06    -31.4068E+06    -12.8627E+06     4.31108E+06    -18.6143E-03     36.7487E-03    -18.1344E-03     42.3220E-03    -18.7103E-03     36.6572E-03    -18.1069E-03     42.3759E-03
            1173     7.07078E-03     104.550E-03    -29.8436E+06    -30.4084E+06    -9.43884E+06    -258.125E+03    -19.0290E-03     37.2098E-03    -18.1808E-03     50.1080E-03    -19.1221E-03     37.1164E-03    -18.1407E-03     50.1011E-03
            1174     7.95400E-03     104.593E-03    -27.1832E+06    -29.3992E+06    -5.43600E+06    -4.52756E+06    -19.7105E-03     37.9693E-03    -18.2588E-03     58.6502E-03    -19.7997E-03     37.8733E-03    -18.2039E-03     58.5850E-03
            1175     8.83703E-03     104.644E-03    -24.7702E+06    -28.2611E+06    -1.55367E+06    -9.00758E+06    -20.7678E-03     39.1508E-03    -18.3830E-03     68.0180E-03    -20.8566E-03     39.0558E-03    -18.3139E-03     67.8890E-03
            1176     9.71882E-03     104.703E-03    -22.9735E+06    -27.6913E+06     973.145E+03    -13.3060E+06    -22.3011E-03     40.8696E-03    -18.5685E-03     78.1732E-03    -22.3943E-03     40.7801E-03    -18.4901E-03     77.9781E-03
            1177     10.5998E-03     104.771E-03    -19.9656E+06    -33.9239E+06     1.28841E+06    -16.1898E+06    -24.4507E-03     43.2896E-03    -18.8390E-03     88.9272E-03    -24.5374E-03     43.1814E-03    -18.7544E-03     88.6768E-03
            1178     11.4787E-03     104.850E-03    -16.6503E+06    -27.9977E+06     3.11114E+06    -18.0352E+06    -27.4985E-03     46.7141E-03    -19.2157E-03     101.489E-03    -27.6150E-03     46.6633E-03    -19.1354E-03     101.182E-03
            1179     12.3554E-03     104.941E-03    -13.8651E+06    -19.4539E+06     7.71117E+06    -20.6712E+06    -31.5055E-03     51.2588E-03    -19.7533E-03     114.580E-03    -31.6924E-03     51.3053E-03    -19.6665E-03     114.186E-03
            1180     13.2274E-03     105.044E-03    -9.60847E+06    -50.5142E+06    -4.77453E+06    -22.4461E+06    -36.1606E-03     56.6026E-03    -20.4420E-03     120.325E-03    -36.3601E-03     56.6030E-03    -20.3787E-03     119.832E-03
            1181     14.0985E-03     105.147E-03    -7.93459E+06    -37.7428E+06    -9.51882E+06    -21.7944E+06    -41.6096E-03     62.9096E-03    -21.3000E-03     133.516E-03    -42.0615E-03     63.2275E-03    -21.2814E-03     132.900E-03
            1182     14.9623E-03     105.279E-03    -8.08220E+06    -18.4029E+06    -5.04496E+06    -21.2234E+06    -49.6702E-03     72.0167E-03    -22.3465E-03     187.775E-03    -51.2460E-03     73.5137E-03    -22.3334E-03     186.940E-03
            1183     15.8246E-03     105.492E-03    -5.85410E+06     21.0544E+06    -18.6131E+06    -17.4663E+06    -56.6150E-03     79.9181E-03    -23.3031E-03     269.447E-03    -62.9828E-03     86.3940E-03    -23.4182E-03     269.369E-03
            1184     16.6846E-03     105.792E-03    -2.75489E+06     120.513E+06     43.0468E+06    -7.75617E+06    -52.9029E-03     77.3708E-03    -24.4679E-03     253.096E-03    -61.4083E-03     86.1696E-03    -24.4234E-03     256.352E-03
            1185     885.036E-06     105.392E-03    -45.8855E+06    -24.8227E+06    -43.4481E+06     11.6737E+06    -16.7876E-03     33.5886E-03    -16.8010E-03     5.72007E-03    -16.9180E-03     33.5940E-03    -16.9157E-03     5.87077E-03
            1186     1.76987E-03     105.398E-03    -43.1059E+06    -21.7421E+06    -34.2516E+06     17.7545E+06    -16.8338E-03     33.6738E-03    -16.8399E-03     10.6934E-03    -16.9682E-03     33.6771E-03    -16.9172E-03     10.9226E-03
            1187     2.65484E-03     105.409E-03    -40.9921E+06    -23.5953E+06    -26.4324E+06     19.5021E+06    -16.9269E-03     33.8207E-03    -16.8938E-03     16.1963E-03    -17.0593E-03     33.8004E-03    -16.9323E-03     16.4481E-03
            1188     3.53955E-03     105.423E-03    -39.1853E+06    -27.0510E+06    -21.9236E+06     17.4674E+06    -17.0674E-03     34.0102E-03    -16.9429E-03     22.0655E-03    -17.1923E-03     33.9635E-03    -16.9564E-03     22.2911E-03
            1189     4.42441E-03     105.443E-03    -36.4167E+06    -28.2198E+06    -18.8591E+06     13.4668E+06    -17.2394E-03     34.2260E-03    -16.9866E-03     28.2818E-03    -17.3532E-03     34.1650E-03    -16.9872E-03     28.4557E-03
            1190     5.30897E-03     105.467E-03    -32.7198E+06    -27.9069E+06    -15.7601E+06     8.88617E+06    -17.4591E-03     34.4914E-03    -17.0323E-03     34.9315E-03    -17.5595E-03     34.4222E-03    -17.0232E-03     35.0459E-03
            1191     6.19366E-03     105.497E-03    -28.9901E+06    -27.1523E+06    -12.3290E+06     4.52677E+06    -17.7770E-03     34.8647E-03    -17.0876E-03     42.1733E-03    -17.8652E-03     34.7892E-03    -17.0679E-03     42.2308E-03
            1192     7.07786E-03     105.533E-03    -26.4620E+06    -25.3533E+06    -8.57263E+06     101.221E+03    -18.2584E-03     35.4203E-03    -17.1619E-03     50.1680E-03    -18.3427E-03     35.3455E-03    -17.1296E-03     50.1670E-03
            1193     7.96208E-03     105.577E-03    -24.7313E+06    -24.1897E+06    -4.90310E+06    -4.33476E+06    -18.9943E-03     36.2615E-03    -17.2672E-03     59.0235E-03    -19.0788E-03     36.1864E-03    -17.2208E-03     58.9626E-03
            1194     8.84539E-03     105.628E-03    -22.7446E+06    -21.9191E+06    -1.16972E+06    -8.83562E+06    -20.0829E-03     37.4981E-03    -17.4152E-03     68.8706E-03    -20.1699E-03     37.4299E-03    -17.3563E-03     68.7464E-03
            1195     9.72826E-03     105.689E-03    -20.6668E+06    -22.4802E+06     1.61256E+06    -12.7334E+06    -21.6636E-03     39.2889E-03    -17.6253E-03     79.6803E-03    -21.7516E-03     39.2190E-03    -17.5547E-03     79.4964E-03
            1196     10.6094E-03     105.759E-03    -18.5312E+06    -27.3581E+06     2.59447E+06    -17.9643E+06    -23.9390E-03     41.8597E-03    -17.9207E-03     91.3488E-03    -24.0270E-03     41.7773E-03    -17.8412E-03     91.0804E-03
            1197     11.4892E-03     105.840E-03    -13.7950E+06    -25.8365E+06     4.09600E+06    -21.2611E+06    -27.1721E-03     45.4973E-03    -18.3252E-03     105.253E-03    -27.2756E-03     45.4484E-03    -18.2473E-03     104.911E-03
            1198     12.3658E-03     105.937E-03    -10.2632E+06    -16.0925E+06     9.58756E+06    -20.5602E+06    -31.4225E-03     50.3161E-03    -18.8936E-03     119.719E-03    -31.5963E-03     50.3687E-03    -18.8075E-03     119.333E-03
            1199     13.2404E-03     106.044E-03    -11.0952E+06    -44.9969E+06     -2.6595E+06    -24.3783E+06    -36.9093E-03     56.5500E-03    -19.6408E-03     127.237E-03    -37.1315E-03     56.5814E-03    -19.5727E-03     126.717E-03
            1200     14.1064E-03     106.155E-03    -7.68113E+06    -39.1131E+06    -8.30942E+06    -25.7287E+06    -43.5436E-03     64.1474E-03    -20.6038E-03     141.002E-03    -44.0160E-03     64.4785E-03    -20.5775E-03     140.312E-03
            1201     14.9708E-03     106.291E-03    -3.13397E+06    -17.9135E+06    -1.16773E+06    -21.5519E+06    -51.8482E-03     73.6283E-03    -21.7801E-03     194.032E-03    -53.4149E-03     75.1242E-03    -21.7554E-03     193.137E-03
            1202     15.8307E-03     106.510E-03    -4.64687E+06     13.7576E+06    -19.5620E+06    -16.8503E+06    -58.3486E-03     81.1823E-03    -22.8337E-03     272.333E-03    -64.4599E-03     87.3829E-03    -22.9447E-03     272.099E-03
            1203     16.6962E-03     106.806E-03    -5.78622E+06     108.377E+06     38.1183E+06    -8.79521E+06    -57.2616E-03     81.4029E-03    -24.1413E-03     257.356E-03    -65.6921E-03     90.0879E-03    -24.0994E-03     260.182E-03
            1204     885.694E-06     106.372E-03    -76.6286E+06    -42.5904E+06    -76.9706E+06     6.37850E+06    -15.7837E-03     31.5838E-03    -15.8001E-03     5.54272E-03    -15.9934E-03     31.5936E-03    -16.0121E-03     5.62503E-03
            1205     1.77164E-03     106.378E-03    -64.8738E+06    -35.5630E+06    -61.2019E+06     11.6116E+06    -15.8104E-03     31.6416E-03    -15.8313E-03     10.3542E-03    -15.9944E-03     31.6466E-03    -15.9917E-03     10.5041E-03
            1206     2.65737E-03     106.388E-03    -50.8671E+06    -30.9349E+06    -42.5910E+06     15.0045E+06    -15.9107E-03     31.8027E-03    -15.8920E-03     15.7264E-03    -16.0584E-03     31.7835E-03    -15.9864E-03     15.9202E-03
            1207     3.54320E-03     106.403E-03    -39.1294E+06    -28.7250E+06    -28.7696E+06     14.7859E+06    -16.0910E-03     32.0439E-03    -15.9529E-03     21.5492E-03    -16.2033E-03     31.9987E-03    -15.9984E-03     21.7402E-03
            1208     4.42863E-03     106.423E-03    -32.1343E+06    -27.0021E+06    -21.0923E+06     12.3246E+06    -16.3237E-03     32.3322E-03    -16.0085E-03     27.7836E-03    -16.4146E-03     32.2742E-03    -16.0282E-03     27.9428E-03
            1209     5.31420E-03     106.447E-03    -29.3821E+06    -24.8243E+06    -16.6176E+06     8.86065E+06    -16.6106E-03     32.6804E-03    -16.0698E-03     34.4651E-03    -16.6974E-03     32.6229E-03    -16.0743E-03     34.5795E-03
            1210     6.19937E-03     106.478E-03    -27.8736E+06    -22.4963E+06    -12.9680E+06     4.05600E+06    -16.9857E-03     33.1308E-03    -16.1451E-03     41.7519E-03    -17.0739E-03     33.0777E-03    -16.1369E-03     41.8038E-03
            1211     7.08463E-03     106.514E-03    -24.7481E+06    -20.4601E+06    -8.71196E+06    -755.130E+03    -17.5153E-03     33.7567E-03    -16.2414E-03     49.8713E-03    -17.5976E-03     33.7037E-03    -16.2194E-03     49.8601E-03
            1212     7.96912E-03     106.559E-03    -21.0503E+06    -19.2806E+06    -4.35223E+06    -4.66875E+06    -18.2812E-03     34.6478E-03    -16.3666E-03     58.9830E-03    -18.3543E-03     34.5904E-03    -16.3299E-03     58.9192E-03
            1213     8.85344E-03     106.611E-03    -18.9551E+06    -16.3659E+06    -1.73838E+03    -8.19830E+06    -19.3688E-03     35.9009E-03    -16.5320E-03     69.2321E-03    -19.4452E-03     35.8518E-03    -16.4808E-03     69.1186E-03
            1214     9.73660E-03     106.673E-03    -17.6283E+06    -16.8403E+06     3.43980E+06    -12.3240E+06    -20.9587E-03     37.7164E-03    -16.7577E-03     80.6369E-03    -21.0398E-03     37.6651E-03    -16.6905E-03     80.4621E-03
            1215     10.6190E-03     106.745E-03    -15.9255E+06    -17.9176E+06     5.89545E+06    -18.0505E+06    -23.2787E-03     40.3429E-03    -17.0643E-03     93.2988E-03    -23.3683E-03     40.2954E-03    -16.9857E-03     93.0348E-03
            1216     11.4988E-03     106.830E-03    -14.7169E+06    -21.3312E+06     5.61590E+06    -24.2031E+06    -26.6269E-03     44.1077E-03    -17.4808E-03     108.526E-03    -26.7386E-03     44.0752E-03    -17.4004E-03     108.153E-03
            1217     12.3768E-03     106.930E-03    -10.0962E+06    -18.6776E+06     8.37924E+06    -23.7450E+06    -31.3024E-03     49.3652E-03    -18.0627E-03     124.369E-03    -31.4649E-03     49.4015E-03    -17.9791E-03     123.948E-03
            1218     13.2497E-03     107.044E-03    -5.52255E+06    -34.1872E+06     3.79394E+06    -23.8565E+06    -37.2335E-03     56.0897E-03    -18.8562E-03     133.768E-03    -37.4506E-03     56.1554E-03    -18.7797E-03     133.259E-03
            1219     14.1193E-03     107.163E-03    -3.14662E+06    -36.9215E+06    -3.38734E+06    -30.6788E+06    -44.4732E-03     64.3514E-03    -19.8783E-03     149.419E-03    -44.9410E-03     64.6876E-03    -19.8371E-03     148.656E-03
            1220     14.9803E-03     107.307E-03     1.07838E+06    -29.6239E+06    -910.845E+03    -24.6356E+06    -53.1774E-03     74.2980E-03    -21.1206E-03     200.651E-03    -54.6831E-03     75.7056E-03    -21.0838E-03     199.682E-03
            1221     15.8424E-03     107.527E-03     1.74152E+06     8.54962E+06    -15.6578E+06    -11.8314E+06    -61.3193E-03     83.6114E-03    -22.2921E-03     275.181E-03    -67.0725E-03     89.4472E-03    -22.3853E-03     274.690E-03
            1222     16.6986E-03     107.824E-03    -1.10571E+06     102.113E+06     41.1912E+06    -5.00291E+06    -63.6355E-03     87.4576E-03    -23.8221E-03     263.604E-03    -71.9775E-03     96.0403E-03    -23.7626E-03     265.878E-03
            1223     886.387E-06     107.350E-03    -95.3281E+06    -47.6181E+06    -95.9613E+06    -1.56801E+06    -15.0843E-03     30.1786E-03    -15.0944E-03     5.37246E-03    -15.3527E-03     30.2180E-03    -15.3669E-03     5.35211E-03
            1224     1.77263E-03     107.356E-03    -86.9049E+06    -42.1710E+06    -85.5480E+06    -1.11518E+06    -15.0768E-03     30.1805E-03    -15.1037E-03     10.0078E-03    -15.3261E-03     30.2197E-03    -15.3443E-03     9.99326E-03
            1225     2.65920E-03     107.366E-03    -73.3626E+06    -36.0426E+06    -70.9288E+06     411.910E+03    -15.1049E-03     30.2310E-03    -15.1262E-03     15.1330E-03    -15.3166E-03     30.2601E-03    -15.3222E-03     15.1381E-03
            1226     3.54559E-03     107.381E-03    -57.6058E+06    -30.7986E+06    -56.1771E+06     1.80517E+06    -15.2117E-03     30.3649E-03    -15.1532E-03     20.7015E-03    -15.3736E-03     30.3759E-03    -15.3059E-03     20.7247E-03
            1227     4.43222E-03     107.401E-03    -42.3165E+06    -27.9181E+06    -40.8347E+06     2.90970E+06    -15.4373E-03     30.6414E-03    -15.2041E-03     26.7763E-03    -15.5492E-03     30.6224E-03    -15.3064E-03     26.8138E-03
            1228     5.31833E-03     107.426E-03    -29.6051E+06    -24.2049E+06    -25.7089E+06     3.69154E+06    -15.7803E-03     31.0619E-03    -15.2816E-03     33.4377E-03    -15.8560E-03     31.0211E-03    -15.3322E-03     33.4852E-03
            1229     6.20440E-03     107.457E-03    -21.7881E+06    -18.2639E+06    -14.1527E+06     2.30641E+06    -16.2453E-03     31.6199E-03    -15.3746E-03     40.8332E-03    -16.3074E-03     31.5809E-03    -15.3873E-03     40.8626E-03
            1230     7.08981E-03     107.494E-03    -19.3507E+06    -16.0231E+06    -7.73974E+06    -1.15354E+06    -16.8548E-03     32.3418E-03    -15.4870E-03     49.0687E-03    -16.9177E-03     32.3015E-03    -15.4744E-03     49.0528E-03
            1231     7.97533E-03     107.539E-03    -19.2051E+06    -15.0616E+06    -3.94851E+06    -4.43661E+06    -17.6290E-03     33.2538E-03    -15.6249E-03     58.2811E-03    -17.6991E-03     33.2137E-03    -15.5949E-03     58.2212E-03
            1232     8.85992E-03     107.592E-03    -17.9734E+06    -11.3191E+06     855.312E+03    -7.94217E+06    -18.6849E-03     34.4851E-03    -15.8002E-03     68.7800E-03    -18.7637E-03     34.4574E-03    -15.7535E-03     68.6717E-03
            1233     9.74411E-03     107.656E-03    -15.6045E+06    -10.4075E+06     5.48035E+06    -12.2653E+06    -20.2316E-03     36.2616E-03    -16.0300E-03     80.7183E-03    -20.3122E-03     36.2340E-03    -15.9649E-03     80.5478E-03
            1234     10.6266E-03     107.730E-03    -14.3705E+06    -9.80391E+06     8.89009E+06    -16.9951E+06    -22.4810E-03     38.8147E-03    -16.3337E-03     94.2420E-03    -22.5743E-03     38.7965E-03    -16.2542E-03     93.9975E-03
            1235     11.5081E-03     107.818E-03    -15.0707E+06    -13.1064E+06     9.69502E+06    -21.8295E+06    -25.9485E-03     42.6989E-03    -16.7504E-03     110.765E-03    -26.0724E-03     42.6948E-03    -16.6611E-03     110.431E-03
            1236     12.3858E-03     107.922E-03    -16.1086E+06    -17.3624E+06     7.82934E+06    -27.2703E+06    -30.9698E-03     48.2986E-03    -17.3289E-03     128.820E-03    -31.1547E-03     48.3423E-03    -17.2412E-03     128.363E-03
            1237     13.2601E-03     108.043E-03    -11.1947E+06    -29.6957E+06     5.76655E+06    -30.0606E+06    -37.0533E-03     55.1906E-03    -18.1373E-03     140.401E-03    -37.2989E-03     55.2748E-03    -18.0492E-03     139.823E-03
            1238     14.1280E-03     108.169E-03    -7.27436E+06    -26.9487E+06     2.80142E+06    -32.4816E+06    -44.6422E-03     63.8243E-03    -19.1821E-03     157.069E-03    -45.1432E-03     64.1966E-03    -19.1185E-03     156.288E-03
            1239     14.9931E-03     108.323E-03    -5.54126E+06    -46.5577E+06    -6.28490E+06    -31.4798E+06    -54.7012E-03     75.1691E-03    -20.4679E-03     204.751E-03    -56.1572E-03     76.4593E-03    -20.4238E-03     203.639E-03
            1240     15.8509E-03     108.544E-03    -483.183E+03    -8.64245E+06    -19.6368E+06    -15.1278E+06    -65.8035E-03     87.6095E-03    -21.8059E-03     276.679E-03    -71.1677E-03     92.9993E-03    -21.8909E-03     275.696E-03
            1241     16.7073E-03     108.852E-03    -3.12417E+06     101.139E+06     44.8905E+06    -528.915E+03    -69.7451E-03     93.3465E-03    -23.6014E-03     270.053E-03    -77.9589E-03     101.780E-03    -23.5190E-03     271.699E-03
            1242     886.620E-06     108.326E-03    -82.1558E+06    -41.9461E+06    -81.0254E+06    -4.39588E+06    -14.7496E-03     29.4994E-03    -14.7498E-03     5.13920E-03    -14.9820E-03     29.5264E-03    -14.9750E-03     5.08221E-03
            1243     1.77343E-03     108.333E-03    -80.3648E+06    -38.7809E+06    -78.1144E+06    -7.46813E+06    -14.7573E-03     29.5123E-03    -14.7550E-03     9.56945E-03    -14.9897E-03     29.5482E-03    -14.9728E-03     9.47262E-03
            1244     2.66001E-03     108.343E-03    -76.6036E+06    -34.3823E+06    -73.5406E+06    -9.89896E+06    -14.7587E-03     29.5172E-03    -14.7585E-03     14.4061E-03    -14.9853E-03     29.5631E-03    -14.9653E-03     14.2777E-03
            1245     3.54694E-03     108.358E-03    -70.0067E+06    -30.0499E+06    -66.7728E+06    -11.0518E+06    -14.7826E-03     29.5461E-03    -14.7635E-03     19.5728E-03    -14.9924E-03     29.5944E-03    -14.9523E-03     19.4294E-03
            1246     4.43364E-03     108.378E-03    -60.3177E+06    -28.0740E+06    -57.0096E+06    -11.2652E+06    -14.8720E-03     29.6548E-03    -14.7828E-03     25.2250E-03    -15.0505E-03     29.6848E-03    -14.9397E-03     25.0789E-03
            1247     5.32067E-03     108.403E-03    -47.2317E+06    -25.0038E+06    -44.9768E+06    -10.4655E+06    -15.0907E-03     29.9076E-03    -14.8169E-03     31.5653E-03    -15.2256E-03     29.9166E-03    -14.9371E-03     31.4295E-03
            1248     6.20731E-03     108.434E-03    -32.7143E+06    -18.3608E+06    -32.2511E+06    -8.02916E+06    -15.5107E-03     30.3815E-03    -14.8708E-03     38.8114E-03    -15.6012E-03     30.3842E-03    -14.9580E-03     38.7070E-03
            1249     7.09384E-03     108.472E-03    -21.0229E+06    -14.6971E+06    -17.3059E+06    -5.36499E+06    -16.1661E-03     31.1475E-03    -14.9813E-03     47.0800E-03    -16.2255E-03     31.1302E-03    -15.0161E-03     47.0096E-03
            1250     7.97928E-03     108.518E-03    -14.0660E+06    -12.0067E+06    -3.61504E+06    -5.34822E+06    -17.0390E-03     32.1782E-03    -15.1392E-03     56.4764E-03    -17.0880E-03     32.1451E-03    -15.1195E-03     56.4052E-03
            1251     8.86463E-03     108.572E-03    -11.4762E+06    -7.05807E+06     4.37552E+06    -7.20251E+06    -18.1456E-03     33.4656E-03    -15.3200E-03     67.1664E-03    -18.2022E-03     33.4437E-03    -15.2712E-03     67.0690E-03
            1252     9.74894E-03     108.637E-03    -12.0659E+06    -4.33773E+06     9.16457E+06    -10.3454E+06    -19.5864E-03     35.1315E-03    -15.5451E-03     79.3509E-03    -19.6611E-03     35.1214E-03    -15.4755E-03     79.2082E-03
            1253     10.6327E-03     108.713E-03    -12.6801E+06    -2.61560E+06     13.3149E+06    -14.8564E+06    -21.7391E-03     37.5781E-03    -15.8390E-03     93.5592E-03    -21.8357E-03     37.5818E-03    -15.7502E-03     93.3480E-03
            1254     11.5142E-03     108.804E-03    -11.6906E+06    -6.44882E+06     15.4439E+06    -19.2027E+06    -25.2017E-03     41.4421E-03    -16.2404E-03     111.398E-03    -25.3170E-03     41.4483E-03    -16.1368E-03     111.107E-03
            1255     12.3935E-03     108.913E-03    -11.8663E+06    -8.47028E+06     15.7272E+06    -23.4894E+06    -30.1132E-03     46.9094E-03    -16.7962E-03     131.188E-03    -30.2850E-03     46.9637E-03    -16.6881E-03     130.794E-03
            1256     13.2685E-03     109.040E-03    -16.4060E+06    -23.5759E+06     9.35854E+06    -30.3321E+06    -36.3303E-03     53.8978E-03    -17.5674E-03     144.957E-03    -36.5953E-03     53.9941E-03    -17.4627E-03     144.392E-03
            1257     14.1388E-03     109.174E-03    -21.4684E+06    -24.1828E+06     3.33436E+06    -30.8255E+06    -44.9677E-03     63.5775E-03    -18.6099E-03     163.809E-03    -45.5124E-03     63.9516E-03    -18.5270E-03     163.060E-03
            1258     14.9996E-03     109.337E-03    -28.8074E+06    -44.0648E+06    -8.52913E+06    -32.3638E+06    -59.2364E-03     79.2716E-03    -20.0352E-03     209.316E-03    -60.7898E-03     80.5932E-03    -19.9721E-03     208.050E-03
            1259     15.8558E-03     109.566E-03    -32.2166E+06    -30.1822E+06    -29.1115E+06    -31.8138E+06    -72.3440E-03     94.0523E-03    -21.7083E-03     271.046E-03    -77.3897E-03     98.9618E-03    -21.7634E-03     269.363E-03
            1260     16.7031E-03     109.880E-03    -15.7736E+06     77.0611E+06     31.3678E+06    -13.5476E+06    -69.3875E-03     93.0377E-03    -23.6501E-03     267.154E-03    -77.1428E-03     100.919E-03    -23.5822E-03     268.188E-03
            1261     886.869E-06     109.303E-03    -59.0139E+06    -33.1306E+06    -58.2682E+06    -4.23816E+06    -14.7621E-03     29.5167E-03    -14.7547E-03     4.77501E-03    -14.9246E-03     29.5212E-03    -14.9124E-03     4.71987E-03
            1262     1.77349E-03     109.309E-03    -57.6249E+06    -30.6310E+06    -54.8446E+06    -8.20327E+06    -14.8335E-03     29.6147E-03    -14.7813E-03     8.88885E-03    -14.9978E-03     29.6248E-03    -14.9275E-03     8.78215E-03
            1263     2.66033E-03     109.320E-03    -55.7838E+06    -27.5935E+06    -49.8194E+06    -11.7001E+06    -14.9171E-03     29.7428E-03    -14.8257E-03     13.3466E-03    -15.0840E-03     29.7581E-03    -14.9539E-03     13.1944E-03
            1264     3.54680E-03     109.335E-03    -54.0830E+06    -25.0793E+06    -45.4348E+06    -14.4217E+06    -14.9810E-03     29.8474E-03    -14.8664E-03     18.0763E-03    -15.1495E-03     29.8667E-03    -14.9788E-03     17.8885E-03
            1265     4.43360E-03     109.354E-03    -52.4602E+06    -23.7966E+06    -43.0062E+06    -16.8081E+06    -15.0298E-03     29.9214E-03    -14.8916E-03     23.1940E-03    -15.1958E-03     29.9414E-03    -14.9961E-03     22.9751E-03
            1266     5.32021E-03     109.380E-03    -50.2332E+06    -22.1319E+06    -40.9959E+06    -19.2190E+06    -15.1177E-03     30.0249E-03    -14.9073E-03     28.9029E-03    -15.2781E-03     30.0473E-03    -15.0073E-03     28.6527E-03
            1267     6.20711E-03     109.411E-03    -45.0560E+06    -19.0683E+06    -36.8482E+06    -19.7589E+06    -15.3071E-03     30.2361E-03    -14.9290E-03     35.4708E-03    -15.4523E-03     30.2605E-03    -15.0203E-03     35.2135E-03
            1268     7.09368E-03     109.450E-03    -34.8615E+06    -16.8432E+06    -26.8448E+06    -17.3343E+06    -15.6964E-03     30.6834E-03    -14.9870E-03     43.2215E-03    -15.8085E-03     30.6898E-03    -15.0463E-03     42.9955E-03
            1269     7.98043E-03     109.496E-03    -21.9917E+06    -11.5022E+06    -13.9647E+06    -14.3454E+06    -16.4196E-03     31.5006E-03    -15.0810E-03     52.4715E-03    -16.4942E-03     31.4968E-03    -15.1022E-03     52.2837E-03
            1270     8.86584E-03     109.551E-03    -11.1064E+06    -7.68209E+06    -637.962E+03    -10.9643E+06    -17.5408E-03     32.7722E-03    -15.2315E-03     63.3624E-03    -17.5868E-03     32.7535E-03    -15.2074E-03     63.2171E-03
            1271     9.75069E-03     109.617E-03    -4.68548E+06    -432.319E+03     13.3486E+06    -9.20811E+06    -19.0528E-03     34.5029E-03    -15.4500E-03     75.8575E-03    -19.1004E-03     34.4936E-03    -15.3759E-03     75.7317E-03
            1272     10.6343E-03     109.695E-03    -2.85312E+06     3.68280E+06     21.0652E+06    -11.6929E+06    -21.2515E-03     36.9806E-03    -15.7290E-03     90.6388E-03    -21.3146E-03     36.9856E-03    -15.6249E-03     90.4732E-03
            1273     11.5168E-03     109.788E-03    -4.36944E+06    -459.690E+03     24.0100E+06    -15.3947E+06    -24.4760E-03     40.5850E-03    -16.1090E-03     109.289E-03    -24.5645E-03     40.5868E-03    -15.9819E-03     109.058E-03
            1274     12.3963E-03     109.901E-03    -5.80512E+06    -1.40050E+06     25.4402E+06    -18.9383E+06    -29.0619E-03     45.6841E-03    -16.6222E-03     130.543E-03    -29.2054E-03     45.7285E-03    -16.4845E-03     130.226E-03
            1275     13.2727E-03     110.034E-03    -8.60535E+06    -16.4741E+06     19.3665E+06    -19.7448E+06    -35.5301E-03     52.8682E-03    -17.3381E-03     146.458E-03    -35.7482E-03     52.9416E-03    -17.2049E-03     146.053E-03
            1276     14.1430E-03     110.177E-03    -13.7332E+06    -20.4527E+06     11.5509E+06    -23.2787E+06    -46.0591E-03     64.4396E-03    -18.3805E-03     167.379E-03    -46.5400E-03     64.7668E-03    -18.2731E-03     166.732E-03
            1277     15.0068E-03     110.353E-03    -15.8027E+06    -33.3499E+06     8.25684E+06    -27.0354E+06    -62.6689E-03     82.5918E-03    -19.9229E-03     218.593E-03    -64.1061E-03     83.8322E-03    -19.8103E-03     217.338E-03
            1278     15.8442E-03     110.605E-03    -14.6828E+06    -35.3131E+06    -8.59993E+06    -23.8414E+06    -72.5927E-03     94.2308E-03    -21.6381E-03     284.741E-03    -76.9861E-03     98.4687E-03    -21.6086E-03     283.181E-03
            1279     16.6873E-03     110.897E-03     1.74752E+06     51.8422E+06     37.1132E+06    -17.6371E+06    -71.7575E-03     95.2125E-03    -23.4549E-03     291.017E-03    -79.3283E-03     102.869E-03    -23.3471E-03     291.494E-03
            1280     886.395E-06     110.280E-03    -36.4120E+06    -24.5601E+06    -35.5028E+06    -4.39806E+06    -15.2696E-03     30.5153E-03    -15.2458E-03     4.24147E-03    -15.3645E-03     30.4969E-03    -15.3349E-03     4.18399E-03
            1281     1.77295E-03     110.286E-03    -35.5686E+06    -22.0294E+06    -31.9912E+06    -7.69697E+06    -15.3918E-03     30.6884E-03    -15.2966E-03     7.88221E-03    -15.4914E-03     30.6763E-03    -15.3731E-03     7.78152E-03
            1282     2.65905E-03     110.297E-03    -34.8408E+06    -20.4231E+06    -28.1191E+06    -10.5840E+06    -15.5611E-03     30.9328E-03    -15.3717E-03     11.7944E-03    -15.6652E-03     30.9222E-03    -15.4322E-03     11.6557E-03
            1283     3.54535E-03     110.312E-03    -33.7915E+06    -18.3446E+06    -24.6918E+06    -13.2026E+06    -15.7503E-03     31.2048E-03    -15.4545E-03     15.9149E-03    -15.8574E-03     31.1984E-03    -15.5024E-03     15.7416E-03
            1284     4.43121E-03     110.332E-03    -31.9985E+06    -17.1525E+06    -20.8006E+06    -16.1678E+06    -15.9429E-03     31.4871E-03    -15.5442E-03     20.3374E-03    -16.0488E-03     31.4788E-03    -15.5769E-03     20.1250E-03
            1285     5.31720E-03     110.357E-03    -30.2898E+06    -16.1383E+06    -16.8546E+06    -18.7481E+06    -16.0954E-03     31.7267E-03    -15.6313E-03     25.2586E-03    -16.2004E-03     31.7157E-03    -15.6483E-03     25.0121E-03
            1286     6.20287E-03     110.388E-03    -30.2853E+06    -15.5191E+06    -14.2976E+06    -20.8263E+06    -16.1978E-03     31.9019E-03    -15.7041E-03     30.9043E-03    -16.3079E-03     31.8907E-03    -15.7092E-03     30.6304E-03
            1287     7.08894E-03     110.427E-03    -30.5542E+06    -15.2842E+06    -13.5740E+06    -22.8206E+06    -16.3052E-03     32.0610E-03    -15.7558E-03     37.5943E-03    -16.4185E-03     32.0508E-03    -15.7572E-03     37.2944E-03
            1288     7.97472E-03     110.473E-03    -27.8930E+06    -12.0443E+06    -11.9252E+06    -22.9446E+06    -16.5498E-03     32.3467E-03    -15.7970E-03     45.7831E-03    -16.6573E-03     32.3469E-03    -15.7987E-03     45.4817E-03
            1289     8.86105E-03     110.530E-03    -20.8097E+06    -10.9923E+06    -4.55389E+06    -20.1588E+06    -17.1625E-03     33.0373E-03    -15.8748E-03     55.9156E-03    -17.2472E-03     33.0222E-03    -15.8515E-03     55.6502E-03
            1290     9.74635E-03     110.597E-03    -10.9978E+06    -2.24595E+06     7.36472E+06    -15.6671E+06    -18.4142E-03     34.4167E-03    -16.0025E-03     68.4505E-03    -18.4810E-03     34.4152E-03    -15.9465E-03     68.2421E-03
            1291     10.6304E-03     110.676E-03    -3.26574E+06     6.26239E+06     20.7703E+06    -12.3956E+06    -20.6149E-03     36.8389E-03    -16.2240E-03     84.0155E-03    -20.6790E-03     36.8535E-03    -16.1245E-03     83.8450E-03
            1292     11.5122E-03     110.772E-03     927.940E+03     3.74902E+06     30.8559E+06    -12.5759E+06    -23.7850E-03     40.3524E-03    -16.5673E-03     103.264E-03    -23.8517E-03     40.3462E-03    -16.4198E-03     103.079E-03
            1293     12.3929E-03     110.888E-03     1.08276E+06     2.86951E+06     34.1824E+06     -13.704E+06    -28.1367E-03     45.1612E-03    -17.0245E-03     125.504E-03    -28.2399E-03     45.1794E-03    -16.8593E-03     125.274E-03
            1294     13.2700E-03     111.027E-03     1.54606E+06    -14.7892E+06     30.3706E+06    -14.3652E+06    -34.8426E-03     52.5309E-03    -17.6883E-03     144.376E-03    -34.9861E-03     52.5399E-03    -17.5172E-03     144.069E-03
            1295     14.1406E-03     111.180E-03     4.95698E+06    -9.66680E+06     28.4172E+06    -17.1156E+06    -46.2159E-03     64.9015E-03    -18.6856E-03     171.769E-03    -46.5784E-03     65.1662E-03    -18.5367E-03     171.232E-03
            1296     14.9953E-03     111.372E-03     7.32401E+06    -27.8944E+06     23.8187E+06    -22.2077E+06    -57.3210E-03     77.3313E-03    -20.0103E-03     227.441E-03    -58.3837E-03     78.2522E-03    -19.8614E-03     226.450E-03
            1297     15.8651E-03     111.631E-03     15.0829E+06    -42.2349E+06     6.26742E+06    -23.3437E+06    -63.3516E-03     84.6129E-03    -21.2613E-03     288.442E-03    -66.5031E-03     87.6460E-03    -21.1906E-03     287.213E-03
            1298     16.7481E-03     111.920E-03     6.28905E+06     43.7681E+06     46.7013E+06    -13.4167E+06    -78.1543E-03     101.084E-03    -22.9298E-03     304.400E-03    -85.2121E-03     108.191E-03    -22.7688E-03     303.785E-03
            1299     885.607E-06     111.258E-03    -15.1285E+06    -16.6472E+06    -13.8580E+06    -3.85605E+06    -16.4901E-03     32.9266E-03    -16.4365E-03     3.51088E-03    -16.5216E-03     32.8855E-03    -16.4597E-03     3.46000E-03
            1300     1.77086E-03     111.265E-03    -14.9060E+06    -14.9221E+06    -11.7391E+06    -6.34138E+06    -16.6532E-03     33.1662E-03    -16.5130E-03     6.49561E-03    -16.6894E-03     33.1303E-03    -16.5284E-03     6.41165E-03
            1301     2.65626E-03     111.276E-03    -14.2934E+06    -13.7422E+06    -8.48322E+06    -8.95402E+06    -16.9215E-03     33.5414E-03    -16.6199E-03     9.65955E-03    -16.9613E-03     33.5060E-03    -16.6217E-03     9.54069E-03
            1302     3.54107E-03     111.291E-03    -13.3885E+06    -12.1265E+06    -4.59657E+06    -11.5486E+06    -17.2611E-03     34.0187E-03    -16.7576E-03     12.9577E-03    -17.3046E-03     33.9847E-03    -16.7436E-03     12.8040E-03
            1303     4.42582E-03     111.311E-03    -13.2508E+06    -10.4593E+06    -1.17217E+06     -14.084E+06    -17.6095E-03     34.5232E-03    -16.9137E-03     16.4995E-03    -17.6602E-03     34.4928E-03    -16.8852E-03     16.3116E-03
            1304     5.31003E-03     111.337E-03    -13.5630E+06    -10.7383E+06     918.605E+03    -16.3022E+06    -17.9195E-03     34.9928E-03    -17.0733E-03     20.4321E-03    -17.9751E-03     34.9591E-03    -17.0335E-03     20.2140E-03
            1305     6.19434E-03     111.368E-03    -13.2065E+06    -10.7940E+06     3.05044E+06    -17.4713E+06    -18.1587E-03     35.3853E-03    -17.2266E-03     24.9450E-03    -18.2163E-03     35.3485E-03    -17.1766E-03     24.7103E-03
            1306     7.07815E-03     111.406E-03    -13.2378E+06    -9.58687E+06     6.30112E+06    -19.3782E+06    -18.3016E-03     35.6708E-03    -17.3692E-03     30.3114E-03    -18.3667E-03     35.6361E-03    -17.3046E-03     30.0510E-03
            1307     7.96239E-03     111.453E-03    -14.7213E+06    -9.62477E+06     8.26466E+06    -21.3416E+06    -18.3355E-03     35.8214E-03    -17.4859E-03     36.9150E-03    -18.4117E-03     35.7866E-03    -17.4093E-03     36.6287E-03
            1308     8.84630E-03     111.508E-03    -16.2939E+06    -10.5608E+06     8.12582E+06    -22.3291E+06    -18.3711E-03     35.9386E-03    -17.5674E-03     45.2452E-03    -18.4543E-03     35.9023E-03    -17.4879E-03     44.9463E-03
            1309     9.73105E-03     111.576E-03    -15.3196E+06    -5.62605E+06     9.98441E+06    -21.1511E+06    -18.7965E-03     36.4336E-03    -17.6371E-03     56.2142E-03    -18.8852E-03     36.4185E-03    -17.5568E-03     55.9311E-03
            1310     10.6155E-03     111.657E-03    -10.6249E+06     3.26333E+06     20.5107E+06    -16.9024E+06    -20.1498E-03     37.9222E-03    -17.7724E-03     70.9387E-03    -20.2444E-03     37.9309E-03    -17.6592E-03     70.7102E-03
            1311     11.4985E-03     111.755E-03    -4.77667E+06     6.46380E+06     32.8272E+06    -14.8859E+06    -22.8035E-03     40.8161E-03    -18.0126E-03     90.1342E-03    -22.8966E-03     40.8200E-03    -17.8509E-03     89.9268E-03
            1312     12.3781E-03     111.874E-03    -105.998E+03     517.532E+03     38.1228E+06    -11.9866E+06    -26.9884E-03     45.3627E-03    -18.3743E-03     113.417E-03    -27.0754E-03     45.3408E-03    -18.1843E-03     113.229E-03
            1313     13.2550E-03     112.017E-03     145.824E+03    -8.69069E+06     38.0803E+06    -12.1813E+06    -33.3468E-03     52.2796E-03    -18.9328E-03     136.104E-03    -33.4660E-03     52.2587E-03    -18.7300E-03     135.866E-03
            1314     14.1263E-03     112.180E-03    -3.87594E+06    -7.30856E+06     37.5015E+06    -14.9741E+06    -41.6518E-03     61.3898E-03    -19.7380E-03     168.211E-03    -41.9455E-03     61.5358E-03    -19.5343E-03     167.809E-03
            1315     14.9977E-03     112.386E-03    -3.70439E+06    -13.5128E+06     37.2530E+06    -22.1966E+06    -49.9085E-03     70.6444E-03    -20.7359E-03     214.415E-03    -50.6803E-03     71.2470E-03    -20.5247E-03     213.650E-03
            1316     15.8657E-03     112.623E-03    -9.66337E+06    -40.8489E+06     8.89585E+06    -33.5241E+06    -62.2093E-03     84.0373E-03    -21.8280E-03     263.184E-03    -64.3954E-03     86.0185E-03    -21.7103E-03     261.758E-03
            1317     16.7019E-03     112.941E-03    -22.1401E+06     13.3093E+06     19.7748E+06    -22.1441E+06    -74.3257E-03     97.6447E-03    -23.3191E-03     300.046E-03    -80.2836E-03     103.517E-03    -23.2074E-03     299.019E-03
            1318     883.670E-06     112.240E-03     3.84019E+06    -10.1733E+06     4.52278E+06    -2.81092E+06    -18.6405E-03     37.2001E-03    -18.5595E-03     2.57065E-03    -18.6134E-03     37.1369E-03    -18.5277E-03     2.53276E-03
            1319     1.76743E-03     112.247E-03     3.71354E+06    -9.04720E+06     6.13330E+06    -5.01567E+06    -18.8774E-03     37.5460E-03    -18.6686E-03     4.71601E-03    -18.8551E-03     37.4864E-03    -18.6302E-03     4.64818E-03
            1320     2.65059E-03     112.258E-03     4.08875E+06    -7.88988E+06     9.56659E+06    -7.39788E+06    -19.2507E-03     38.0732E-03    -18.8225E-03     6.94910E-03    -19.2334E-03     38.0140E-03    -18.7692E-03     6.84881E-03
            1321     3.53360E-03     112.274E-03     4.14620E+06    -7.10241E+06     12.9574E+06    -9.12371E+06    -19.7033E-03     38.7196E-03    -19.0163E-03     9.26374E-03    -19.6921E-03     38.6597E-03    -18.9473E-03     9.13922E-03
            1322     4.41594E-03     112.294E-03     3.78320E+06    -5.34522E+06     15.3685E+06    -10.5248E+06    -20.2062E-03     39.4407E-03    -19.2344E-03     11.7479E-03    -20.2035E-03     39.3870E-03    -19.1553E-03     11.6031E-03
            1323     5.29805E-03     112.321E-03     2.98698E+06    -5.61270E+06     17.5161E+06    -12.3943E+06    -20.7333E-03     40.2105E-03    -19.4772E-03     14.5028E-03    -20.7380E-03     40.1542E-03    -19.3858E-03     14.3315E-03
            1324     6.17934E-03     112.352E-03     2.05518E+06    -7.00965E+06     19.2476E+06    -14.2412E+06    -21.2113E-03     40.9431E-03    -19.7318E-03     17.6982E-03    -21.2220E-03     40.8794E-03    -19.6284E-03     17.5005E-03
            1325     7.06062E-03     112.391E-03     728.027E+03    -5.67541E+06     20.9612E+06    -14.5505E+06    -21.5850E-03     41.5673E-03    -19.9823E-03     21.5275E-03    -21.6078E-03     41.5107E-03    -19.8703E-03     21.3234E-03
            1326     7.94119E-03     112.437E-03    -1.30353E+06    -5.31554E+06     22.8116E+06    -15.3182E+06    -21.8340E-03     42.0580E-03    -20.2241E-03     26.2327E-03    -21.8715E-03     42.0046E-03    -20.1004E-03     26.0165E-03
            1327     8.82215E-03     112.492E-03    -2.91945E+06    -6.19477E+06     24.4980E+06    -17.5275E+06    -21.9696E-03     42.4162E-03    -20.4466E-03     32.2082E-03    -22.0178E-03     42.3594E-03    -20.3109E-03     31.9619E-03
            1328     9.70274E-03     112.558E-03    -4.01923E+06    -5.65063E+06     26.9321E+06    -18.6222E+06    -22.0654E-03     42.7135E-03    -20.6481E-03     40.2012E-03    -22.1249E-03     42.6586E-03    -20.4994E-03     39.9401E-03
            1329     10.5836E-03     112.639E-03    -4.63677E+06    -241.250E+03     31.4986E+06    -17.0476E+06    -22.3132E-03     43.1500E-03    -20.8368E-03     51.4265E-03    -22.3913E-03     43.1174E-03    -20.6722E-03     51.1866E-03
            1330     11.4647E-03     112.738E-03    -5.81476E+06     5.71919E+06     37.2939E+06    -13.2186E+06    -23.2620E-03     44.3025E-03    -21.0405E-03     67.3225E-03    -23.3641E-03     44.2943E-03    -20.8539E-03     67.1335E-03
            1331     12.3455E-03     112.859E-03    -6.76701E+06    -771.035E+03     39.7971E+06    -11.6411E+06    -25.6842E-03     46.9885E-03    -21.3043E-03     88.9815E-03    -25.7893E-03     46.9505E-03    -21.0944E-03     88.8107E-03
            1332     13.2228E-03     113.005E-03    -4.38059E+06    -6.31024E+06     44.6225E+06    -9.88795E+06    -30.0398E-03     51.7396E-03    -21.6998E-03     113.652E-03    -30.1486E-03     51.6812E-03    -21.4612E-03     113.486E-03
            1333     14.0961E-03     113.176E-03    -641.193E+03    -2.99988E+06     49.5971E+06    -10.6681E+06    -36.0332E-03     58.2907E-03    -22.2575E-03     142.643E-03    -36.2067E-03     58.3072E-03    -22.0043E-03     142.401E-03
            1334     14.9675E-03     113.375E-03    -6.05717E+06    -1.52781E+06     45.5089E+06    -13.2476E+06    -47.0396E-03     70.0995E-03    -23.0599E-03     184.211E-03    -47.5259E-03     70.4275E-03    -22.8214E-03     183.702E-03
            1335     15.8209E-03     113.638E-03    -15.1291E+06    -23.0524E+06     29.0548E+06    -16.6120E+06    -60.5660E-03     84.7307E-03    -24.1646E-03     241.159E-03    -62.0234E-03     85.9702E-03    -23.9640E-03     240.089E-03
            1336     16.6838E-03     113.958E-03    -9.56082E+06    -3.65954E+06     18.7460E+06    -24.5362E+06    -51.6557E-03     76.5869E-03    -24.9313E-03     291.890E-03    -55.4618E-03     80.2973E-03    -24.8184E-03     291.545E-03
            1337     881.030E-06     113.226E-03     18.3912E+06    -5.54137E+06     19.8344E+06    -1.65384E+06    -22.0168E-03     43.8207E-03    -21.8039E-03     1.53908E-03    -21.9462E-03     43.7371E-03    -21.7233E-03     1.51571E-03
            1338     1.76159E-03     113.233E-03     18.6866E+06    -4.15616E+06     21.2888E+06    -3.71382E+06    -22.2960E-03     44.3046E-03    -22.0086E-03     2.56768E-03    -22.2282E-03     44.2253E-03    -21.9232E-03     2.51580E-03
            1339     2.64201E-03     113.246E-03     18.3312E+06    -3.58554E+06     23.5206E+06    -5.17727E+06    -22.7151E-03     44.9200E-03    -22.2049E-03     3.69258E-03    -22.6533E-03     44.8409E-03    -22.1087E-03     3.61968E-03
            1340     3.52175E-03     113.262E-03     17.9145E+06    -3.47765E+06     25.8652E+06    -6.27311E+06    -23.2640E-03     45.7065E-03    -22.4425E-03     4.90050E-03    -23.2081E-03     45.6254E-03    -22.3341E-03     4.81106E-03
            1341     4.40110E-03     113.284E-03     17.5201E+06    -2.14770E+06     28.6351E+06    -7.09803E+06    -23.9390E-03     46.6650E-03    -22.7260E-03     6.21484E-03    -23.8915E-03     46.5875E-03    -22.6051E-03     6.11203E-03
            1342     5.27949E-03     113.310E-03     16.5866E+06    -1.74779E+06     31.7545E+06     -7.8352E+06    -24.7079E-03     47.7662E-03    -23.0583E-03     7.68411E-03    -24.6706E-03     47.6879E-03    -22.9211E-03     7.56870E-03
            1343     6.15740E-03     113.343E-03     14.5528E+06    -3.29283E+06     33.3424E+06    -8.93387E+06    -25.5328E-03     48.9606E-03    -23.4278E-03     9.38070E-03    -25.5066E-03     48.8757E-03    -23.2774E-03     9.24762E-03
            1344     7.03416E-03     113.382E-03     12.7335E+06    -4.11648E+06     33.4694E+06    -9.59528E+06    -26.3616E-03     50.1834E-03    -23.8218E-03     11.4085E-03    -26.3444E-03     50.0975E-03    -23.6670E-03     11.2631E-03
            1345     7.91055E-03     113.428E-03     11.9670E+06    -1.68764E+06     36.3435E+06    -10.0675E+06    -27.1954E-03     51.4468E-03    -24.2514E-03     13.8570E-03    -27.1910E-03     51.3708E-03    -24.0846E-03     13.7011E-03
            1346     8.78560E-03     113.483E-03     10.0744E+06    -2.25495E+06     39.8641E+06    -11.0118E+06    -28.0290E-03     52.7462E-03    -24.7171E-03     16.9663E-03    -28.0401E-03     52.6660E-03    -24.5292E-03     16.7934E-03
            1347     9.65999E-03     113.550E-03     6.98848E+06    -2.82715E+06     41.6397E+06    -12.2621E+06    -28.6979E-03     53.8946E-03    -25.1967E-03     21.2798E-03    -28.7282E-03     53.8146E-03    -24.9945E-03     21.0863E-03
            1348     10.5337E-03     113.629E-03     4.51349E+06    -1.72262E+06     43.4719E+06    -11.9394E+06    -29.0153E-03     54.6924E-03    -25.6771E-03     27.5384E-03    -29.0645E-03     54.6199E-03    -25.4638E-03     27.3463E-03
            1349     11.4071E-03     113.726E-03     3.85555E+06     859.021E+03     45.7465E+06    -8.22620E+06    -28.8318E-03     54.9653E-03    -26.1335E-03     36.8766E-03    -28.8930E-03     54.9040E-03    -25.9116E-03     36.7335E-03
            1350     12.2808E-03     113.845E-03     3.93656E+06     2.04658E+06     50.1822E+06    -6.07083E+06    -28.2088E-03     54.7603E-03    -26.5514E-03     51.2864E-03    -28.2780E-03     54.6986E-03    -26.3092E-03     51.1770E-03
            1351     13.1559E-03     113.991E-03     6.16271E+06    -5.00351E+06     56.0826E+06    -9.07338E+06    -28.2383E-03     55.1748E-03    -26.9365E-03     70.7276E-03    -28.2962E-03     55.0687E-03    -26.6578E-03     70.5834E-03
            1352     14.0311E-03     114.163E-03     8.97006E+06    -3.53111E+06     55.1083E+06    -6.21476E+06    -31.7501E-03     59.0749E-03    -27.3248E-03     97.0234E-03    -31.8160E-03     58.9983E-03    -27.0571E-03     96.8916E-03
            1353     14.8952E-03     114.371E-03     10.9707E+06    -509.336E+03     54.7280E+06     614.474E+03    -41.4156E-03     69.3678E-03    -27.9522E-03     142.391E-03    -41.6055E-03     69.4358E-03    -27.6937E-03     142.213E-03
            1354     15.7605E-03     114.638E-03     22.7613E+06    -3.51807E+06     64.0382E+06    -7.84276E+06    -45.2186E-03     73.9444E-03    -28.7258E-03     194.743E-03    -45.7630E-03     74.3731E-03    -28.4335E-03     194.245E-03
            1355     16.6248E-03     114.944E-03     19.1708E+06     1.10265E+06     41.8109E+06    -13.4570E+06    -18.3265E-03     46.8090E-03    -28.4825E-03     216.451E-03    -19.4395E-03     47.8768E-03    -28.3028E-03     216.368E-03
            1356     876.896E-06     114.221E-03     29.5221E+06    -2.04955E+06     29.6696E+06    -1.26092E+06    -26.6501E-03     53.3593E-03    -26.7092E-03    -20.7393E-06    -26.5437E-03     53.2621E-03    -26.6006E-03    -38.8452E-06
            1357     1.75347E-03     114.229E-03     29.0260E+06    -1.22390E+06     31.0049E+06    -2.06151E+06    -26.9992E-03     53.7719E-03    -26.7727E-03    -53.2084E-06    -26.8985E-03     53.6775E-03    -26.6580E-03    -83.3134E-06
            1358     2.62955E-03     114.241E-03     28.2509E+06    -1.09170E+06     32.6340E+06    -2.51892E+06    -27.4590E-03     54.4247E-03    -26.9657E-03    -49.7269E-06    -27.3648E-03     54.3298E-03    -26.8419E-03    -87.5581E-06
            1359     3.50527E-03     114.258E-03     27.3687E+06    -1.03062E+06     35.2710E+06    -3.19146E+06    -28.1347E-03     55.3706E-03    -27.2359E-03    -15.9654E-06    -28.0490E-03     55.2735E-03    -27.0978E-03    -64.5242E-06
            1360     4.38003E-03     114.281E-03     26.3206E+06    -588.440E+03     38.1592E+06    -3.43277E+06    -29.0188E-03     56.6043E-03    -27.5855E-03     5.75749E-06    -28.9433E-03     56.5067E-03    -27.4320E-03    -48.2423E-06
            1361     5.25406E-03     114.309E-03     25.2618E+06     56.9951E+03     40.5815E+06    -3.38957E+06    -30.1259E-03     58.1403E-03    -28.0144E-03    -4.43228E-06    -30.0605E-03     58.0440E-03    -27.8482E-03    -60.6032E-06
            1362     6.12665E-03     114.342E-03     24.2697E+06    -1.13894E+06     43.7454E+06    -3.42186E+06    -31.4801E-03     60.0173E-03    -28.5371E-03    -77.3248E-06    -31.4229E-03     59.9118E-03    -28.3519E-03    -137.240E-06
            1363     6.99805E-03     114.383E-03     23.0484E+06    -1.54524E+06     46.9388E+06    -4.55538E+06    -33.0658E-03     62.2189E-03    -29.1531E-03    -232.471E-06    -33.0194E-03     62.1085E-03    -28.9496E-03    -311.148E-06
            1364     7.86739E-03     114.430E-03     21.3593E+06    -771.153E+03     48.9671E+06    -4.92132E+06    -34.8332E-03     64.6929E-03    -29.8597E-03    -441.593E-06    -34.8001E-03     64.5857E-03    -29.6447E-03    -530.119E-06
            1365     8.73507E-03     114.488E-03     20.0010E+06     190.094E+03     52.2415E+06    -4.56304E+06    -36.7501E-03     67.4213E-03    -30.6713E-03    -631.714E-06    -36.7309E-03     67.3160E-03    -30.4393E-03    -721.890E-06
            1366     9.60036E-03     114.554E-03     18.3052E+06    -779.455E+03     54.3197E+06    -4.55393E+06    -38.7068E-03     70.2869E-03    -31.5800E-03    -707.557E-06    -38.6992E-03     70.1757E-03    -31.3339E-03    -804.850E-06
            1367     10.4632E-03     114.635E-03     15.8605E+06    -931.748E+03     55.5323E+06    -4.70096E+06    -40.2092E-03     72.7761E-03    -32.5669E-03    -334.687E-06    -40.2171E-03     72.6655E-03    -32.3109E-03    -440.474E-06
            1368     11.3239E-03     114.730E-03     14.6201E+06    -2.70987E+06     56.7281E+06    -3.95980E+06    -40.4153E-03     73.9949E-03    -33.5796E-03     1.39974E-03    -40.4306E-03     73.8749E-03    -33.3132E-03     1.30026E-03
            1369     12.1838E-03     114.845E-03     15.9927E+06     1.65361E+06     61.9171E+06    -2.57758E+06    -38.5046E-03     73.0333E-03    -34.5287E-03     5.87055E-03    -38.5290E-03     72.9245E-03    -34.2447E-03     5.79066E-03
            1370     13.0455E-03     114.982E-03     14.4172E+06     927.391E+03     66.8518E+06    -3.09020E+06    -35.0973E-03     70.4376E-03    -35.3403E-03     14.4661E-03    -35.1376E-03     70.3197E-03    -35.0283E-03     14.3846E-03
            1371     13.9083E-03     115.151E-03     9.73729E+06    -9.75064E+06     56.2519E+06    -3.12144E+06    -33.4074E-03     69.4115E-03    -36.0041E-03     30.0889E-03    -33.4448E-03     69.2628E-03    -35.7229E-03     30.0084E-03
            1372     14.7777E-03     115.357E-03     17.5692E+06    -6.90023E+06     64.1805E+06    -2.77753E+06    -34.8539E-03     71.6501E-03    -36.7962E-03     60.6149E-03    -34.8983E-03     71.5230E-03    -36.4908E-03     60.5050E-03
            1373     15.6321E-03     115.625E-03     18.4378E+06     8.08906E+06     76.4904E+06    -6.59219E+06    -22.1586E-03     59.4495E-03    -37.2909E-03     90.3240E-03    -22.2998E-03     59.4539E-03    -36.9470E-03     90.1350E-03
            1374     16.5156E-03     115.895E-03     6.36144E+06     6.70802E+06     39.7591E+06    -3.03881E+06     7.12231E-03     29.3217E-03    -36.4440E-03     85.9970E-03     6.97624E-03     29.3881E-03    -36.2641E-03     85.9306E-03
            1375     16.6505E-03     57.7274E-03    -5.41293E+06     172.922E+06     85.6871E+06     47.1860E+03    -37.0072E-03     63.8269E-03    -26.8197E-03     260.164E-03    -45.7901E-03     72.9559E-03    -26.6342E-03     265.165E-03
            1376     15.7742E-03     57.4167E-03    -7.83170E+06     129.721E+06     21.9581E+06     583.833E+03    -39.2667E-03     65.8594E-03    -26.5926E-03     262.733E-03    -45.7507E-03     72.7124E-03    -26.6596E-03     263.843E-03
            1377     14.8972E-03     57.2184E-03    -7.35502E+06     62.7003E+06    -12.8328E+06     906.556E+03    -32.3109E-03     58.8454E-03    -26.5345E-03     158.744E-03    -33.7265E-03     60.4947E-03    -26.6789E-03     158.546E-03
            1378     14.0205E-03     57.1137E-03    -7.24526E+06     7.36558E+06    -12.2603E+06     780.540E+03    -28.5929E-03     55.2218E-03    -26.6289E-03     94.3775E-03    -28.9697E-03     55.6346E-03    -26.6904E-03     94.1718E-03
            1379     13.1444E-03     57.0394E-03    -7.59254E+06    -24.9902E+06    -10.1378E+06     656.702E+03    -28.1390E-03     54.8329E-03    -26.6938E-03     80.2849E-03    -28.3113E-03     54.9189E-03    -26.6973E-03     80.1155E-03
            1380     12.2679E-03     56.9614E-03    -8.18100E+06    -39.2540E+06    -3.15977E+06     311.463E+03    -28.1266E-03     54.8824E-03    -26.7557E-03     77.9380E-03    -28.2307E-03     54.8272E-03    -26.7027E-03     77.7974E-03
            1381     11.3917E-03     56.8914E-03    -9.04340E+06    -53.8820E+06    -1.99743E+06     179.393E+03    -27.8860E-03     54.6750E-03    -26.7890E-03     69.7206E-03    -27.9311E-03     54.5025E-03    -26.7077E-03     69.6074E-03
            1382     10.5153E-03     56.8291E-03    -9.59169E+06    -67.9163E+06    -2.64478E+06     278.486E+03    -27.7125E-03     54.5239E-03    -26.8114E-03     63.1512E-03    -27.7116E-03     54.2555E-03    -26.7123E-03     63.0636E-03
            1383     9.63902E-03     56.7715E-03    -10.3490E+06    -76.2771E+06    -183.480E+03     247.216E+03    -27.5785E-03     54.4197E-03    -26.8413E-03     57.9514E-03    -27.5557E-03     54.0900E-03    -26.7166E-03     57.8826E-03
            1384     8.76268E-03     56.7190E-03    -11.4664E+06    -80.5854E+06     1.13782E+06     312.388E+03    -27.4388E-03     54.2991E-03    -26.8603E-03     52.6525E-03    -27.4058E-03     53.9360E-03    -26.7211E-03     52.5999E-03
            1385     7.88640E-03     56.6715E-03    -12.8468E+06    -86.0589E+06     336.298E+03     273.631E+03    -27.3138E-03     54.1851E-03    -26.8713E-03     47.3515E-03    -27.2705E-03     53.7897E-03    -26.7262E-03     47.3108E-03
            1386     7.01007E-03     56.6291E-03    -14.4491E+06    -92.4354E+06    -945.390E+03     172.224E+03    -27.2071E-03     54.0890E-03    -26.8819E-03     42.0340E-03    -27.1552E-03     53.6604E-03    -26.7316E-03     42.0018E-03
            1387     6.13379E-03     56.5917E-03    -16.1640E+06    -96.9693E+06    -3.97601E+06     73.1579E+03    -27.1128E-03     53.9942E-03    -26.8814E-03     36.7149E-03    -27.0547E-03     53.5460E-03    -26.7372E-03     36.6893E-03
            1388     5.25750E-03     56.5594E-03    -17.8797E+06    -102.574E+06    -7.74171E+06     68.8598E+03    -27.0384E-03     53.9170E-03    -26.8786E-03     31.3882E-03    -26.9727E-03     53.4461E-03    -26.7427E-03     31.3688E-03
            1389     4.38123E-03     56.5321E-03    -19.5593E+06    -107.511E+06    -11.6525E+06     94.7152E+03    -26.9782E-03     53.8518E-03    -26.8735E-03     26.0918E-03    -26.9062E-03     53.3624E-03    -26.7476E-03     26.0777E-03
            1390     3.50497E-03     56.5098E-03    -21.1021E+06    -109.719E+06    -15.7253E+06     83.0921E+03    -26.9270E-03     53.7899E-03    -26.8629E-03     20.8417E-03    -26.8524E-03     53.2964E-03    -26.7518E-03     20.8315E-03
            1391     2.62872E-03     56.4925E-03    -22.3393E+06    -111.658E+06    -19.2662E+06     80.1328E+03    -26.8903E-03     53.7434E-03    -26.8531E-03     15.6374E-03    -26.8131E-03     53.2464E-03    -26.7551E-03     15.6305E-03
            1392     1.75247E-03     56.4801E-03    -23.2558E+06    -113.069E+06    -21.8692E+06     54.5078E+03    -26.8614E-03     53.7079E-03    -26.8465E-03     10.5104E-03    -26.7825E-03     53.2084E-03    -26.7581E-03     10.5060E-03
            1393     876.235E-06     56.4726E-03    -23.7726E+06    -113.930E+06    -23.4606E+06     33.5508E+03    -26.8367E-03     53.6920E-03    -26.8553E-03     5.68617E-03    -26.7565E-03     53.1911E-03    -26.7729E-03     5.68392E-03
            1394     16.6505E-03     56.7267E-03    -5.22502E+06     172.786E+06     86.1589E+06     37.0249E+03    -36.9707E-03     63.7998E-03    -26.8291E-03     260.292E-03    -45.7606E-03     72.9347E-03    -26.6413E-03     265.302E-03
            1395     15.7735E-03     56.4167E-03    -8.62477E+06     129.651E+06     23.5031E+06    -387.231E+03    -39.3180E-03     65.9264E-03    -26.6084E-03     262.741E-03    -45.8068E-03     72.7767E-03    -26.6664E-03     263.835E-03
            1396     14.8971E-03     56.2183E-03    -9.16012E+06     61.4681E+06    -12.6105E+06    -26.8613E+03    -32.2967E-03     58.8427E-03    -26.5460E-03     158.900E-03    -33.7209E-03     60.4892E-03    -26.6849E-03     158.690E-03
            1397     14.0208E-03     56.1136E-03    -8.25767E+06     7.24676E+06    -12.5722E+06     1.00084E+06    -28.6212E-03     55.2561E-03    -26.6350E-03     94.3605E-03    -29.0022E-03     55.6701E-03    -26.6964E-03     94.1573E-03
            1398     13.1443E-03     56.0392E-03    -8.10876E+06    -24.3434E+06    -9.76962E+06     822.548E+03    -28.1910E-03     54.8897E-03    -26.6987E-03     80.1775E-03    -28.3675E-03     54.9793E-03    -26.7005E-03     80.0098E-03
            1399     12.2681E-03     55.9613E-03    -8.23805E+06    -39.0055E+06    -2.98167E+06     639.074E+03    -28.1288E-03     54.8863E-03    -26.7575E-03     77.8973E-03    -28.2338E-03     54.8322E-03    -26.7039E-03     77.7609E-03
            1400     11.3916E-03     55.8913E-03    -8.76480E+06    -53.6177E+06    -1.95982E+06     441.722E+03    -27.8717E-03     54.6618E-03    -26.7901E-03     69.7383E-03    -27.9158E-03     54.4901E-03    -26.7095E-03     69.6287E-03
            1401     10.5153E-03     55.8289E-03    -9.55917E+06    -68.0295E+06    -2.68886E+06     275.240E+03    -27.7235E-03     54.5369E-03    -26.8134E-03     63.1587E-03    -27.7222E-03     54.2680E-03    -26.7143E-03     63.0710E-03
            1402     9.63898E-03     55.7714E-03    -10.3648E+06    -76.1286E+06    -241.117E+03     326.152E+03    -27.5868E-03     54.4290E-03    -26.8422E-03     57.9495E-03    -27.5643E-03     54.1001E-03    -26.7180E-03     57.8817E-03
            1403     8.76270E-03     55.7189E-03    -11.4727E+06    -80.6834E+06     992.879E+03     282.266E+03    -27.4396E-03     54.3004E-03    -26.8608E-03     52.6425E-03    -27.4062E-03     53.9369E-03    -26.7222E-03     52.5896E-03
            1404     7.88636E-03     55.6715E-03    -12.8146E+06    -85.8739E+06     261.902E+03     320.096E+03    -27.3138E-03     54.1855E-03    -26.8718E-03     47.3463E-03    -27.2705E-03     53.7911E-03    -26.7274E-03     47.3062E-03
            1405     7.01008E-03     55.6290E-03    -14.3912E+06    -92.2686E+06    -1.05155E+06     181.326E+03    -27.2074E-03     54.0897E-03    -26.8823E-03     42.0304E-03    -27.1553E-03     53.6621E-03    -26.7329E-03     41.9983E-03
            1406     6.13378E-03     55.5916E-03    -16.1091E+06    -96.8886E+06    -4.18446E+06     103.683E+03    -27.1125E-03     53.9941E-03    -26.8817E-03     36.7099E-03    -27.0539E-03     53.5465E-03    -26.7387E-03     36.6847E-03
            1407     5.25749E-03     55.5593E-03    -17.8699E+06    -102.635E+06    -7.91616E+06     132.802E+03    -27.0383E-03     53.9180E-03    -26.8797E-03     31.3842E-03    -26.9721E-03     53.4470E-03    -26.7446E-03     31.3655E-03
            1408     4.38122E-03     55.5320E-03    -19.5680E+06    -107.451E+06    -11.6328E+06     166.934E+03    -26.9791E-03     53.8549E-03    -26.8758E-03     26.0868E-03    -26.9073E-03     53.3658E-03    -26.7498E-03     26.0736E-03
            1409     3.50496E-03     55.5097E-03    -21.0745E+06    -109.671E+06    -15.7103E+06     155.168E+03    -26.9294E-03     53.7945E-03    -26.8651E-03     20.8375E-03    -26.8547E-03     53.3012E-03    -26.7541E-03     20.8282E-03
            1410     2.62871E-03     55.4925E-03    -22.3075E+06    -111.582E+06    -19.2216E+06     128.043E+03    -26.8923E-03     53.7478E-03    -26.8555E-03     15.6328E-03    -26.8151E-03     53.2510E-03    -26.7575E-03     15.6265E-03
            1411     1.75247E-03     55.4800E-03    -23.1663E+06    -112.981E+06    -21.8291E+06     84.4958E+03    -26.8640E-03     53.7128E-03    -26.8488E-03     10.5038E-03    -26.7847E-03     53.2136E-03    -26.7606E-03     10.4998E-03
            1412     876.228E-06     55.4725E-03    -23.7318E+06    -113.842E+06    -23.3604E+06     39.8397E+03    -26.8513E-03     53.6973E-03    -26.8460E-03     5.70603E-03    -26.7711E-03     53.1965E-03    -26.7633E-03     5.70384E-03
            1413     16.6501E-03     55.7263E-03    -5.25952E+06     172.281E+06     85.6124E+06    -14.5151E+03    -36.8854E-03     63.7190E-03    -26.8337E-03     260.507E-03    -45.6807E-03     72.8590E-03    -26.6478E-03     265.530E-03
            1414     15.7737E-03     55.4164E-03    -8.90622E+06     130.361E+06     25.5515E+06     54.2334E+03    -39.3451E-03     65.9714E-03    -26.6262E-03     262.486E-03    -45.8380E-03     72.8213E-03    -26.6746E-03     263.587E-03
            1415     14.8969E-03     55.2184E-03    -9.75592E+06     61.1521E+06    -13.6147E+06    -603.676E+03    -32.3865E-03     58.9323E-03    -26.5458E-03     158.645E-03    -33.8107E-03     60.5785E-03    -26.6884E-03     158.426E-03
            1416     14.0204E-03     55.1133E-03    -8.78636E+06     5.91742E+06    -15.8748E+06    -134.475E+03    -28.6328E-03     55.2537E-03    -26.6210E-03     94.3489E-03    -29.0093E-03     55.6661E-03    -26.6962E-03     94.1314E-03
            1417     13.1444E-03     55.0390E-03    -7.85972E+06    -23.9831E+06    -9.66127E+06     996.572E+03    -28.1568E-03     54.8558E-03    -26.6990E-03     80.1037E-03    -28.3324E-03     54.9464E-03    -26.7012E-03     79.9385E-03
            1418     12.2679E-03     54.9613E-03    -8.20104E+06    -38.9074E+06    -3.22411E+06     848.115E+03    -28.1148E-03     54.8732E-03    -26.7585E-03     77.9019E-03    -28.2193E-03     54.8198E-03    -26.7063E-03     77.7683E-03
            1419     11.3916E-03     54.8912E-03    -8.88354E+06    -53.1438E+06    -2.06048E+06     625.302E+03    -27.8872E-03     54.6787E-03    -26.7916E-03     69.7454E-03    -27.9324E-03     54.5098E-03    -26.7119E-03     69.6381E-03
            1420     10.5153E-03     54.8288E-03    -9.52308E+06    -68.0401E+06    -2.95311E+06     489.563E+03    -27.7354E-03     54.5489E-03    -26.8135E-03     63.1314E-03    -27.7336E-03     54.2803E-03    -26.7158E-03     63.0463E-03
            1421     9.63901E-03     54.7713E-03    -10.4664E+06    -76.0091E+06    -392.241E+03     426.617E+03    -27.5886E-03     54.4310E-03    -26.8424E-03     57.9222E-03    -27.5666E-03     54.1031E-03    -26.7189E-03     57.8556E-03
            1422     8.76266E-03     54.7188E-03    -11.6901E+06    -80.5897E+06     714.547E+03     363.729E+03    -27.4379E-03     54.2984E-03    -26.8605E-03     52.6326E-03    -27.4053E-03     53.9362E-03    -26.7231E-03     52.5807E-03
            1423     7.88638E-03     54.6713E-03    -13.0453E+06    -85.7714E+06    -69.4869E+03     227.640E+03    -27.3131E-03     54.1844E-03    -26.8714E-03     47.3398E-03    -27.2706E-03     53.7914E-03    -26.7284E-03     47.2985E-03
            1424     7.01005E-03     54.6289E-03    -14.4698E+06    -92.0538E+06    -1.41170E+06     145.953E+03    -27.2066E-03     54.0882E-03    -26.8815E-03     42.0259E-03    -27.1547E-03     53.6622E-03    -26.7341E-03     41.9934E-03
            1425     6.13377E-03     54.5915E-03    -16.1278E+06    -96.9896E+06    -4.19738E+06     163.790E+03    -27.1137E-03     53.9967E-03    -26.8831E-03     36.6992E-03    -27.0550E-03     53.5487E-03    -26.7400E-03     36.6747E-03
            1426     5.25748E-03     54.5592E-03    -17.8795E+06    -102.571E+06    -7.83766E+06     235.864E+03    -27.0398E-03     53.9211E-03    -26.8813E-03     31.3744E-03    -26.9739E-03     53.4503E-03    -26.7458E-03     31.3571E-03
            1427     4.38121E-03     54.5319E-03    -19.5531E+06    -107.416E+06    -11.6351E+06     199.003E+03    -26.9810E-03     53.8578E-03    -26.8768E-03     26.0777E-03    -26.9091E-03     53.3689E-03    -26.7508E-03     26.0649E-03
            1428     3.50496E-03     54.5097E-03    -21.0396E+06    -109.578E+06    -15.6536E+06     193.765E+03    -26.9305E-03     53.7967E-03    -26.8662E-03     20.8316E-03    -26.8559E-03     53.3038E-03    -26.7551E-03     20.8228E-03
            1429     2.62871E-03     54.4924E-03    -22.2281E+06    -111.475E+06    -19.1325E+06     147.008E+03    -26.8924E-03     53.7492E-03    -26.8568E-03     15.6258E-03    -26.8151E-03     53.2527E-03    -26.7586E-03     15.6197E-03
            1430     1.75246E-03     54.4800E-03    -23.1184E+06    -112.865E+06    -21.6970E+06     104.207E+03    -26.8692E-03     53.7184E-03    -26.8492E-03     10.5007E-03    -26.7901E-03     53.2195E-03    -26.7605E-03     10.4969E-03
            1431     876.232E-06     54.4724E-03    -23.6189E+06    -113.740E+06    -23.3201E+06     64.5484E+03    -26.8554E-03     53.6946E-03    -26.8393E-03     5.69120E-03    -26.7748E-03     53.1942E-03    -26.7567E-03     5.68934E-03
            1432     16.6504E-03     54.7271E-03    -5.27966E+06     172.171E+06     84.6523E+06     107.585E+03    -36.9479E-03     63.7730E-03    -26.8251E-03     260.340E-03    -45.7335E-03     72.9056E-03    -26.6438E-03     265.348E-03
            1433     15.7732E-03     54.4154E-03    -8.49916E+06     130.584E+06     24.9394E+06     6.28334E+03    -39.3065E-03     65.9235E-03    -26.6170E-03     262.337E-03    -45.7992E-03     72.7773E-03    -26.6693E-03     263.435E-03
            1434     14.8973E-03     54.2185E-03    -9.01187E+06     62.1574E+06    -13.0628E+06    -271.948E+03    -32.3909E-03     58.9313E-03    -26.5404E-03     158.369E-03    -33.8118E-03     60.5787E-03    -26.6827E-03     158.154E-03
            1435     14.0210E-03     54.1131E-03    -9.40296E+06     4.69812E+06    -16.6847E+06    -453.309E+03    -28.5812E-03     55.1954E-03    -26.6142E-03     94.2995E-03    -28.9578E-03     55.6037E-03    -26.6908E-03     94.0782E-03
            1436     13.1443E-03     54.0390E-03    -9.25189E+06    -25.0321E+06    -10.5235E+06     247.796E+03    -28.0629E-03     54.7600E-03    -26.6972E-03     80.0794E-03    -28.2424E-03     54.8484E-03    -26.7001E-03     79.9052E-03
            1437     12.2679E-03     53.9611E-03    -8.71053E+06    -38.3781E+06    -3.36976E+06     815.857E+03    -28.1178E-03     54.8771E-03    -26.7593E-03     77.8765E-03    -28.2255E-03     54.8275E-03    -26.7079E-03     77.7424E-03
            1438     11.3916E-03     53.8911E-03    -9.03003E+06    -53.0804E+06    -2.10177E+06     658.590E+03    -27.9073E-03     54.6994E-03    -26.7921E-03     69.6945E-03    -27.9534E-03     54.5311E-03    -26.7125E-03     69.5874E-03
            1439     10.5153E-03     53.8287E-03    -9.59607E+06    -67.7899E+06    -2.93888E+06     619.928E+03    -27.7321E-03     54.5452E-03    -26.8131E-03     63.1003E-03    -27.7310E-03     54.2779E-03    -26.7156E-03     63.0169E-03
            1440     9.63897E-03     53.7712E-03    -10.3665E+06    -75.9922E+06    -392.363E+03     574.077E+03    -27.5826E-03     54.4249E-03    -26.8423E-03     57.8982E-03    -27.5601E-03     54.0970E-03    -26.7190E-03     57.8335E-03
            1441     8.76269E-03     53.7187E-03    -11.4822E+06    -80.2752E+06     747.397E+03     460.864E+03    -27.4373E-03     54.2976E-03    -26.8604E-03     52.6174E-03    -27.4042E-03     53.9366E-03    -26.7236E-03     52.5668E-03
            1442     7.88635E-03     53.6713E-03    -12.8667E+06    -85.5832E+06    -147.093E+03     243.430E+03    -27.3145E-03     54.1854E-03    -26.8709E-03     47.3275E-03    -27.2713E-03     53.7932E-03    -26.7289E-03     47.2864E-03
            1443     7.01007E-03     53.6288E-03    -14.5428E+06    -92.0278E+06    -1.57806E+06     190.924E+03    -27.2086E-03     54.0896E-03    -26.8811E-03     42.0090E-03    -27.1568E-03     53.6641E-03    -26.7344E-03     41.9771E-03
            1444     6.13376E-03     53.5915E-03    -16.3110E+06    -97.0015E+06    -4.39404E+06     221.030E+03    -27.1154E-03     53.9977E-03    -26.8823E-03     36.6824E-03    -27.0574E-03     53.5502E-03    -26.7400E-03     36.6587E-03
            1445     5.25748E-03     53.5591E-03    -17.9791E+06    -102.534E+06    -7.82723E+06     203.530E+03    -27.0420E-03     53.9229E-03    -26.8809E-03     31.3583E-03    -26.9767E-03     53.4524E-03    -26.7453E-03     31.3406E-03
            1446     4.38122E-03     53.5319E-03    -19.5651E+06    -107.322E+06    -11.6040E+06     215.903E+03    -26.9818E-03     53.8576E-03    -26.8758E-03     26.0640E-03    -26.9102E-03     53.3691E-03    -26.7498E-03     26.0514E-03
            1447     3.50496E-03     53.5096E-03    -21.0193E+06    -109.495E+06    -15.5781E+06     163.284E+03    -26.9301E-03     53.7951E-03    -26.8650E-03     20.8191E-03    -26.8556E-03     53.3025E-03    -26.7536E-03     20.8099E-03
            1448     2.62871E-03     53.4923E-03    -22.1882E+06    -111.364E+06    -19.0258E+06     143.556E+03    -26.8923E-03     53.7474E-03    -26.8552E-03     15.6122E-03    -26.8151E-03     53.2513E-03    -26.7566E-03     15.6061E-03
            1449     1.75247E-03     53.4799E-03    -23.0346E+06    -112.753E+06    -21.6209E+06     97.8659E+03    -26.8689E-03     53.7153E-03    -26.8464E-03     10.4994E-03    -26.7897E-03     53.2167E-03    -26.7576E-03     10.4955E-03
            1450     876.256E-06     53.4723E-03    -23.5630E+06    -113.605E+06    -23.1717E+06     56.6048E+03    -26.8457E-03     53.6878E-03    -26.8421E-03     5.67098E-03    -26.7653E-03     53.1877E-03    -26.7590E-03     5.66902E-03
            1451     16.6506E-03     53.7267E-03    -5.13271E+06     172.415E+06     84.8808E+06     156.788E+03    -37.1052E-03     63.9217E-03    -26.8165E-03     260.199E-03    -45.8855E-03     73.0497E-03    -26.6346E-03     265.192E-03
            1452     15.7743E-03     53.4161E-03    -8.55147E+06     131.132E+06     26.5527E+06    -50.4112E+03    -39.2219E-03     65.8351E-03    -26.6131E-03     262.565E-03    -45.7148E-03     72.6861E-03    -26.6581E-03     263.663E-03
            1453     14.8971E-03     53.2177E-03    -9.92305E+06     62.1211E+06    -12.0689E+06    -216.780E+03    -32.2688E-03     58.8109E-03    -26.5421E-03     158.562E-03    -33.6958E-03     60.4582E-03    -26.6781E-03     158.350E-03
            1454     14.0207E-03     53.1133E-03    -9.21358E+06     4.45787E+06    -16.3551E+06    -69.6091E+03    -28.5576E-03     55.1737E-03    -26.6161E-03     94.3683E-03    -28.9338E-03     55.5804E-03    -26.6910E-03     94.1519E-03
            1455     13.1443E-03     53.0389E-03    -8.95910E+06    -25.7320E+06    -10.7560E+06    -19.0512E+03    -28.0857E-03     54.7829E-03    -26.6972E-03     80.2785E-03    -28.2629E-03     54.8681E-03    -26.7007E-03     80.1005E-03
            1456     12.2679E-03     52.9610E-03    -9.23505E+06    -38.5610E+06    -3.89099E+06     282.594E+03    -28.1366E-03     54.8939E-03    -26.7572E-03     77.9197E-03    -28.2460E-03     54.8448E-03    -26.7074E-03     77.7787E-03
            1457     11.3916E-03     52.8909E-03    -9.37405E+06    -52.9695E+06    -2.41615E+06     608.855E+03    -27.8961E-03     54.6861E-03    -26.7899E-03     69.6812E-03    -27.9436E-03     54.5192E-03    -26.7116E-03     69.5735E-03
            1458     10.5153E-03     52.8286E-03    -9.84648E+06    -67.7355E+06    -3.29011E+06     584.854E+03    -27.7263E-03     54.5376E-03    -26.8113E-03     63.0984E-03    -27.7260E-03     54.2714E-03    -26.7152E-03     63.0146E-03
            1459     9.63901E-03     52.7711E-03    -10.5027E+06    -75.8376E+06    -642.299E+03     550.745E+03    -27.5827E-03     54.4235E-03    -26.8408E-03     57.8894E-03    -27.5607E-03     54.0969E-03    -26.7188E-03     57.8244E-03
            1460     8.76266E-03     52.7187E-03    -11.4896E+06    -80.0539E+06     552.824E+03     458.884E+03    -27.4390E-03     54.2977E-03    -26.8587E-03     52.6074E-03    -27.4060E-03     53.9381E-03    -26.7232E-03     52.5567E-03
            1461     7.88638E-03     52.6711E-03    -12.8912E+06    -85.4022E+06    -160.360E+03     420.674E+03    -27.3188E-03     54.1886E-03    -26.8697E-03     47.3063E-03    -27.2760E-03     53.7973E-03    -26.7280E-03     47.2675E-03
            1462     7.01006E-03     52.6288E-03    -14.5669E+06    -91.9882E+06    -1.55116E+06     373.737E+03    -27.2124E-03     54.0919E-03    -26.8796E-03     41.9842E-03    -27.1608E-03     53.6666E-03    -26.7328E-03     41.9546E-03
            1463     6.13378E-03     52.5914E-03    -16.3021E+06    -96.8165E+06    -4.40722E+06     235.695E+03    -27.1179E-03     53.9975E-03    -26.8796E-03     36.6615E-03    -27.0601E-03     53.5509E-03    -26.7376E-03     36.6379E-03
            1464     5.25750E-03     52.5591E-03    -17.9976E+06    -102.527E+06    -7.86637E+06     152.829E+03    -27.0432E-03     53.9207E-03    -26.8776E-03     31.3384E-03    -26.9779E-03     53.4504E-03    -26.7421E-03     31.3200E-03
            1465     4.38123E-03     52.5318E-03    -19.5981E+06    -107.244E+06    -11.5181E+06     141.017E+03    -26.9817E-03     53.8538E-03    -26.8721E-03     26.0456E-03    -26.9104E-03     53.3657E-03    -26.7458E-03     26.0320E-03
            1466     3.50498E-03     52.5095E-03    -21.0132E+06    -109.404E+06    -15.5196E+06     123.164E+03    -26.9277E-03     53.7881E-03    -26.8603E-03     20.8032E-03    -26.8534E-03     53.2958E-03    -26.7488E-03     20.7935E-03
            1467     2.62873E-03     52.4922E-03    -22.1775E+06    -111.288E+06    -18.9797E+06     78.1538E+03    -26.8886E-03     53.7384E-03    -26.8498E-03     15.6043E-03    -26.8115E-03     53.2425E-03    -26.7512E-03     15.5973E-03
            1468     1.75249E-03     52.4799E-03    -22.9941E+06    -112.652E+06    -21.5503E+06     52.8103E+03    -26.8587E-03     53.7009E-03    -26.8422E-03     10.4951E-03    -26.7795E-03     53.2026E-03    -26.7532E-03     10.4907E-03
            1469     876.220E-06     52.4722E-03    -23.4997E+06    -113.524E+06    -23.1370E+06     1.20243E+03    -26.8432E-03     53.6821E-03    -26.8389E-03     5.65635E-03    -26.7626E-03     53.1823E-03    -26.7559E-03     5.65369E-03
            1470     16.6507E-03     52.7262E-03    -5.28424E+06     172.217E+06     84.4664E+06    -108.948E+03    -37.0780E-03     63.8975E-03    -26.8196E-03     260.387E-03    -45.8657E-03     73.0329E-03    -26.6393E-03     265.387E-03
            1471     15.7735E-03     52.4160E-03    -8.22192E+06     130.823E+06     25.6470E+06     399.858E+03    -39.2616E-03     65.8762E-03    -26.6146E-03     262.878E-03    -45.7507E-03     72.7261E-03    -26.6641E-03     263.980E-03
            1472     14.8973E-03     52.2179E-03    -9.44724E+06     62.6709E+06    -12.5087E+06     296.037E+03    -32.2500E-03     58.7964E-03    -26.5464E-03     158.877E-03    -33.6771E-03     60.4487E-03    -26.6861E-03     158.673E-03
            1473     14.0206E-03     52.1132E-03    -9.72695E+06     4.39625E+06    -17.2909E+06    -222.566E+03    -28.6039E-03     55.2248E-03    -26.6209E-03     94.4160E-03    -28.9813E-03     55.6334E-03    -26.6996E-03     94.1974E-03
            1474     13.1442E-03     52.0389E-03    -9.30511E+06    -25.8780E+06    -11.8408E+06     102.416E+03    -28.1947E-03     54.8912E-03    -26.6965E-03     80.3325E-03    -28.3723E-03     54.9782E-03    -26.7047E-03     80.1553E-03
            1475     12.2680E-03     51.9607E-03    -9.39419E+06    -38.7249E+06    -4.39338E+06     233.352E+03    -28.1501E-03     54.9054E-03    -26.7553E-03     77.9158E-03    -28.2592E-03     54.8564E-03    -26.7075E-03     77.7741E-03
            1476     11.3916E-03     51.8909E-03    -9.91050E+06    -53.2058E+06    -2.98935E+06     323.026E+03    -27.8877E-03     54.6759E-03    -26.7881E-03     69.6845E-03    -27.9367E-03     54.5094E-03    -26.7116E-03     69.5731E-03
            1477     10.5153E-03     51.8284E-03    -10.2670E+06    -67.5895E+06    -3.69671E+06     491.852E+03    -27.7283E-03     54.5380E-03    -26.8097E-03     63.0925E-03    -27.7298E-03     54.2738E-03    -26.7153E-03     63.0075E-03
            1478     9.63898E-03     51.7710E-03    -10.9236E+06    -75.7849E+06    -976.905E+03     449.188E+03    -27.5905E-03     54.4295E-03    -26.8390E-03     57.8723E-03    -27.5701E-03     54.1042E-03    -26.7182E-03     57.8060E-03
            1479     8.76270E-03     51.7185E-03    -11.9870E+06    -79.8913E+06     277.134E+03     438.619E+03    -27.4471E-03     54.3032E-03    -26.8561E-03     52.5886E-03    -27.4164E-03     53.9454E-03    -26.7214E-03     52.5377E-03
            1480     7.88638E-03     51.6711E-03    -13.2676E+06    -85.4052E+06    -343.608E+03     437.878E+03    -27.3230E-03     54.1895E-03    -26.8665E-03     47.2799E-03    -27.2818E-03     53.7990E-03    -26.7251E-03     47.2413E-03
            1481     7.01010E-03     51.6286E-03    -14.6909E+06    -91.7347E+06    -1.57780E+06     377.211E+03    -27.2149E-03     54.0903E-03    -26.8754E-03     41.9593E-03    -27.1643E-03     53.6665E-03    -26.7290E-03     41.9297E-03
            1482     6.13381E-03     51.5913E-03    -16.2953E+06    -96.6343E+06    -4.29938E+06     225.501E+03    -27.1192E-03     53.9942E-03    -26.8750E-03     36.6387E-03    -27.0617E-03     53.5483E-03    -26.7328E-03     36.6151E-03
            1483     5.25753E-03     51.5590E-03    -17.9634E+06    -102.425E+06    -7.74094E+06     119.039E+03    -27.0424E-03     53.9146E-03    -26.8722E-03     31.3181E-03    -26.9773E-03     53.4445E-03    -26.7363E-03     31.2993E-03
            1484     4.38127E-03     51.5317E-03    -19.5747E+06    -107.211E+06    -11.5071E+06     61.6810E+03    -26.9789E-03     53.8443E-03    -26.8654E-03     26.0309E-03    -26.9076E-03     53.3563E-03    -26.7391E-03     26.0163E-03
            1485     3.50500E-03     51.5094E-03    -21.0092E+06    -109.334E+06    -15.4779E+06     39.4642E+03    -26.9228E-03     53.7758E-03    -26.8530E-03     20.7902E-03    -26.8487E-03     53.2838E-03    -26.7414E-03     20.7794E-03
            1486     2.62875E-03     51.4922E-03    -22.1554E+06    -111.223E+06    -18.9573E+06     11.6300E+03    -26.8789E-03     53.7212E-03    -26.8423E-03     15.5968E-03    -26.8018E-03     53.2257E-03    -26.7437E-03     15.5890E-03
            1487     1.75249E-03     51.4798E-03    -23.0150E+06    -112.623E+06    -21.5563E+06    -13.8375E+03    -26.8492E-03     53.6850E-03    -26.8358E-03     10.4869E-03    -26.7701E-03     53.1869E-03    -26.7469E-03     10.4816E-03
            1488     876.253E-06     51.4722E-03    -23.5199E+06    -113.505E+06    -23.1814E+06     6.87057E+03    -26.8475E-03     53.6706E-03    -26.8231E-03     5.67120E-03    -26.7670E-03     53.1710E-03    -26.7403E-03     5.66860E-03
            1489     16.6499E-03     51.7257E-03    -5.34061E+06     172.051E+06     83.8780E+06    -94.4804E+03    -36.8744E-03     63.7040E-03    -26.8296E-03     260.446E-03    -45.6624E-03     72.8406E-03    -26.6519E-03     265.463E-03
            1490     15.7736E-03     51.4159E-03    -8.87392E+06     129.713E+06     23.7638E+06     348.693E+03    -39.2937E-03     65.9183E-03    -26.6246E-03     262.617E-03    -45.7781E-03     72.7627E-03    -26.6810E-03     263.718E-03
            1491     14.8967E-03     51.2177E-03    -10.2647E+06     63.3326E+06    -10.3680E+06     882.225E+03    -32.3711E-03     58.9400E-03    -26.5690E-03     158.759E-03    -33.8085E-03     60.5959E-03    -26.6977E-03     158.559E-03
            1492     14.0203E-03     51.1131E-03    -10.8668E+06     5.38310E+06    -14.5397E+06     185.176E+03    -28.7032E-03     55.3424E-03    -26.6392E-03     94.2712E-03    -29.0925E-03     55.7544E-03    -26.7039E-03     94.0564E-03
            1493     13.1443E-03     51.0385E-03    -10.5591E+06    -26.3896E+06    -12.2433E+06    -466.125E+03    -28.2055E-03     54.9026E-03    -26.6971E-03     80.1497E-03    -28.3876E-03     54.9890E-03    -26.7047E-03     79.9651E-03
            1494     12.2679E-03     50.9608E-03    -9.98495E+06    -38.9033E+06    -4.45372E+06    -82.0668E+03    -28.1334E-03     54.8892E-03    -26.7558E-03     77.8643E-03    -28.2450E-03     54.8402E-03    -26.7072E-03     77.7186E-03
            1495     11.3916E-03     50.8906E-03    -10.0676E+06    -53.4873E+06    -3.00097E+06     162.221E+03    -27.8992E-03     54.6875E-03    -26.7883E-03     69.6604E-03    -27.9485E-03     54.5199E-03    -26.7111E-03     69.5469E-03
            1496     10.5153E-03     50.8284E-03    -10.5116E+06    -67.5899E+06    -3.62161E+06     308.492E+03    -27.7369E-03     54.5458E-03    -26.8089E-03     63.0564E-03    -27.7396E-03     54.2818E-03    -26.7138E-03     62.9690E-03
            1497     9.63901E-03     50.7708E-03    -11.0928E+06    -75.7145E+06    -967.039E+03     356.225E+03    -27.6005E-03     54.4371E-03    -26.8366E-03     57.8365E-03    -27.5812E-03     54.1124E-03    -26.7155E-03     57.7690E-03
            1498     8.76272E-03     50.7185E-03    -12.0334E+06    -79.8768E+06     334.085E+03     364.773E+03    -27.4554E-03     54.3078E-03    -26.8524E-03     52.5483E-03    -27.4250E-03     53.9501E-03    -26.7174E-03     52.4963E-03
            1499     7.88644E-03     50.6709E-03    -13.2847E+06    -85.2964E+06    -345.899E+03     349.633E+03    -27.3264E-03     54.1875E-03    -26.8611E-03     47.2509E-03    -27.2855E-03     53.7976E-03    -26.7199E-03     47.2111E-03
            1500     7.01014E-03     50.6286E-03    -14.7653E+06    -91.5621E+06    -1.53370E+06     254.369E+03    -27.2153E-03     54.0844E-03    -26.8692E-03     41.9311E-03    -27.1654E-03     53.6615E-03    -26.7227E-03     41.9000E-03
            1501     6.13386E-03     50.5912E-03    -16.3398E+06    -96.4131E+06    -4.30946E+06     129.335E+03    -27.1171E-03     53.9845E-03    -26.8675E-03     36.6152E-03    -27.0601E-03     53.5398E-03    -26.7255E-03     36.5903E-03
            1502     5.25758E-03     50.5589E-03    -17.9370E+06    -102.382E+06    -7.73656E+06     41.6621E+03    -27.0384E-03     53.9025E-03    -26.8640E-03     31.2958E-03    -26.9732E-03     53.4326E-03    -26.7283E-03     31.2760E-03
            1503     4.38130E-03     50.5316E-03    -19.5335E+06    -107.131E+06    -11.4822E+06     20.2098E+03    -26.9727E-03     53.8294E-03    -26.8567E-03     26.0150E-03    -26.9013E-03     53.3417E-03    -26.7304E-03     25.9999E-03
            1504     3.50504E-03     50.5094E-03    -20.9925E+06    -109.310E+06    -15.4806E+06    -36.0953E+03    -26.9150E-03     53.7588E-03    -26.8438E-03     20.7750E-03    -26.8408E-03     53.2669E-03    -26.7323E-03     20.7632E-03
            1505     2.62877E-03     50.4921E-03    -22.1821E+06    -111.217E+06    -18.9967E+06    -40.5251E+03    -26.8695E-03     53.7024E-03    -26.8329E-03     15.5841E-03    -26.7925E-03     53.2069E-03    -26.7344E-03     15.5756E-03
            1506     1.75251E-03     50.4798E-03    -23.0367E+06    -112.629E+06    -21.6291E+06    -25.9899E+03    -26.8424E-03     53.6677E-03    -26.8253E-03     10.4828E-03    -26.7633E-03     53.1697E-03    -26.7367E-03     10.4773E-03
            1507     876.242E-06     50.4722E-03    -23.5791E+06    -113.504E+06    -23.1839E+06    -19.1628E+03    -26.8255E-03     53.6484E-03    -26.8229E-03     5.67745E-03    -26.7453E-03     53.1489E-03    -26.7401E-03     5.67451E-03
            1508     16.6502E-03     50.7257E-03    -5.16985E+06     171.918E+06     84.6793E+06     230.360E+03    -36.7906E-03     63.6224E-03    -26.8318E-03     260.204E-03    -45.5686E-03     72.7468E-03    -26.6502E-03     265.225E-03
            1509     15.7731E-03     50.4155E-03    -8.87386E+06     129.372E+06     24.1468E+06     517.059E+03    -39.2280E-03     65.8557E-03    -26.6277E-03     262.345E-03    -45.7133E-03     72.6987E-03    -26.6817E-03     263.463E-03
            1510     14.8970E-03     50.2176E-03    -9.43354E+06     63.0684E+06    -10.4504E+06     691.177E+03    -32.4617E-03     59.0277E-03    -26.5660E-03     158.476E-03    -33.8934E-03     60.6801E-03    -26.6960E-03     158.272E-03
            1511     14.0208E-03     50.1125E-03    -8.49926E+06     6.53557E+06    -13.3205E+06     675.472E+03    -28.6969E-03     55.3322E-03    -26.6352E-03     94.1098E-03    -29.0773E-03     55.7442E-03    -26.6990E-03     93.9012E-03
            1512     13.1443E-03     50.0386E-03    -8.72906E+06    -25.9274E+06    -11.5233E+06     28.2642E+03    -28.1676E-03     54.8614E-03    -26.6938E-03     80.0840E-03    -28.3420E-03     54.9462E-03    -26.7012E-03     79.9062E-03
            1513     12.2679E-03     49.9605E-03    -9.57159E+06    -39.5499E+06    -4.51685E+06    -305.428E+03    -28.1411E-03     54.8945E-03    -26.7533E-03     77.8495E-03    -28.2497E-03     54.8417E-03    -26.7047E-03     77.7009E-03
            1514     11.3916E-03     49.8906E-03    -10.0571E+06    -53.6127E+06    -2.97411E+06     56.6135E+03    -27.9076E-03     54.6929E-03    -26.7853E-03     69.6033E-03    -27.9567E-03     54.5245E-03    -26.7078E-03     69.4884E-03
            1515     10.5153E-03     49.8282E-03    -10.4819E+06    -67.7024E+06    -3.64138E+06     151.368E+03    -27.7462E-03     54.5507E-03    -26.8045E-03     63.0174E-03    -27.7486E-03     54.2861E-03    -26.7093E-03     62.9279E-03
            1516     9.63907E-03     49.7708E-03    -11.0833E+06    -75.6431E+06    -982.385E+03     175.912E+03    -27.6055E-03     54.4363E-03    -26.8308E-03     57.8021E-03    -27.5862E-03     54.1119E-03    -26.7099E-03     57.7323E-03
            1517     8.76279E-03     49.7183E-03    -12.0209E+06    -79.9460E+06     341.592E+03     220.878E+03    -27.4571E-03     54.3029E-03    -26.8459E-03     52.5149E-03    -27.4265E-03     53.9449E-03    -26.7108E-03     52.4611E-03
            1518     7.88649E-03     49.6709E-03    -13.2286E+06    -85.1771E+06    -301.991E+03     256.265E+03    -27.3279E-03     54.1813E-03    -26.8535E-03     47.2200E-03    -27.2868E-03     53.7918E-03    -26.7123E-03     47.1790E-03
            1519     7.01020E-03     49.6285E-03    -14.6440E+06    -91.3588E+06    -1.45883E+06     133.470E+03    -27.2130E-03     54.0735E-03    -26.8605E-03     41.9045E-03    -27.1628E-03     53.6513E-03    -26.7141E-03     41.8718E-03
            1520     6.13392E-03     49.5912E-03    -16.2167E+06    -96.3053E+06    -4.22463E+06     14.5077E+03    -27.1119E-03     53.9702E-03    -26.8583E-03     36.5915E-03    -27.0546E-03     53.5257E-03    -26.7163E-03     36.5651E-03
            1521     5.25763E-03     49.5588E-03    -17.8873E+06    -102.351E+06    -7.73693E+06        -301.621    -27.0323E-03     53.8863E-03    -26.8540E-03     31.2752E-03    -26.9669E-03     53.4165E-03    -26.7184E-03     31.2549E-03
            1522     4.38135E-03     49.5316E-03    -19.5117E+06    -107.088E+06    -11.4671E+06    -32.6141E+03    -26.9662E-03     53.8122E-03    -26.8460E-03     25.9951E-03    -26.8948E-03     53.3247E-03    -26.7198E-03     25.9793E-03
            1523     3.50507E-03     49.5094E-03    -20.9815E+06    -109.282E+06    -15.5173E+06    -40.8751E+03    -26.9069E-03     53.7388E-03    -26.8320E-03     20.7504E-03    -26.8325E-03     53.2471E-03    -26.7207E-03     20.7386E-03
            1524     2.62880E-03     49.4921E-03    -22.2079E+06    -111.240E+06    -19.0569E+06    -49.1775E+03    -26.8635E-03     53.6828E-03    -26.8194E-03     15.5612E-03    -26.7865E-03     53.1874E-03    -26.7212E-03     15.5526E-03
            1525     1.75253E-03     49.4797E-03    -23.1045E+06    -112.662E+06    -21.6861E+06    -28.7113E+03    -26.8346E-03     53.6429E-03    -26.8083E-03     10.4648E-03    -26.7557E-03     53.1450E-03    -26.7199E-03     10.4594E-03
            1526     876.283E-06     49.4722E-03    -23.6037E+06    -113.547E+06    -23.3058E+06    -21.0230E+03    -26.7974E-03     53.6095E-03    -26.8121E-03     5.63715E-03    -26.7171E-03     53.1099E-03    -26.7297E-03     5.63422E-03
            1527     16.6508E-03     49.7267E-03    -5.04545E+06     171.627E+06     85.0917E+06     272.067E+03    -37.0276E-03     63.8527E-03    -26.8251E-03     260.144E-03    -45.8030E-03     72.9726E-03    -26.6412E-03     265.138E-03
            1528     15.7737E-03     49.4155E-03    -8.07594E+06     129.255E+06     23.8844E+06     471.294E+03    -39.3308E-03     65.9382E-03    -26.6073E-03     262.390E-03    -45.8177E-03     72.7860E-03    -26.6636E-03     263.492E-03
            1529     14.8971E-03     49.2171E-03    -8.79311E+06     63.0934E+06    -11.0081E+06     649.000E+03    -32.3126E-03     58.8573E-03    -26.5447E-03     158.227E-03    -33.7364E-03     60.5057E-03    -26.6785E-03     158.024E-03
            1530     14.0206E-03     49.1126E-03    -8.92457E+06     6.69426E+06    -13.2998E+06     643.761E+03    -28.5299E-03     55.1562E-03    -26.6263E-03     94.0704E-03    -28.9113E-03     55.5682E-03    -26.6896E-03     93.8634E-03
            1531     13.1443E-03     49.0383E-03    -8.82795E+06    -25.2779E+06    -11.2417E+06     485.136E+03    -28.1515E-03     54.8416E-03    -26.6901E-03     80.0595E-03    -28.3279E-03     54.9295E-03    -26.6969E-03     79.8876E-03
            1532     12.2681E-03     48.9604E-03    -8.97695E+06    -39.4055E+06    -4.12445E+06     188.258E+03    -28.1604E-03     54.9098E-03    -26.7493E-03     77.7853E-03    -28.2669E-03     54.8564E-03    -26.6998E-03     77.6429E-03
            1533     11.3917E-03     48.8904E-03    -9.74563E+06    -53.8038E+06    -2.86020E+06    -8.97636E+03    -27.9062E-03     54.6859E-03    -26.7798E-03     69.5912E-03    -27.9535E-03     54.5160E-03    -26.7019E-03     69.4755E-03
            1534     10.5154E-03     48.8281E-03    -10.2535E+06    -67.6862E+06    -3.55578E+06     65.8123E+03    -27.7500E-03     54.5481E-03    -26.7982E-03     63.0036E-03    -27.7514E-03     54.2832E-03    -26.7029E-03     62.9130E-03
            1535     9.63914E-03     48.7706E-03    -10.9818E+06    -75.6889E+06    -996.129E+03     106.599E+03    -27.6086E-03     54.4320E-03    -26.8233E-03     57.7833E-03    -27.5887E-03     54.1072E-03    -26.7026E-03     57.7126E-03
            1536     8.76285E-03     48.7182E-03    -12.0776E+06    -79.9659E+06     320.935E+03     155.914E+03    -27.4586E-03     54.2962E-03    -26.8376E-03     52.4878E-03    -27.4282E-03     53.9381E-03    -26.7025E-03     52.4332E-03
            1537     7.88657E-03     48.6708E-03    -13.3218E+06    -85.0449E+06    -447.731E+03     62.5579E+03    -27.3250E-03     54.1684E-03    -26.8434E-03     47.1958E-03    -27.2844E-03     53.7799E-03    -26.7030E-03     47.1524E-03
            1538     7.01028E-03     48.6284E-03    -14.6469E+06    -91.1983E+06    -1.59038E+06    -55.4948E+03    -27.2092E-03     54.0588E-03    -26.8495E-03     41.8819E-03    -27.1592E-03     53.6375E-03    -26.7040E-03     41.8468E-03
            1539     6.13398E-03     48.5911E-03    -16.2065E+06    -96.3548E+06    -4.22974E+06    -39.6907E+03    -27.1060E-03     53.9534E-03    -26.8474E-03     36.5641E-03    -27.0486E-03     53.5087E-03    -26.7053E-03     36.5371E-03
            1540     5.25769E-03     48.5588E-03    -17.8659E+06    -102.293E+06    -7.72362E+06    -25.5890E+03    -27.0260E-03     53.8681E-03    -26.8422E-03     31.2523E-03    -26.9606E-03     53.3985E-03    -26.7065E-03     31.2317E-03
            1541     4.38140E-03     48.5316E-03    -19.5159E+06    -107.085E+06    -11.5312E+06    -38.3688E+03    -26.9602E-03     53.7929E-03    -26.8327E-03     25.9690E-03    -26.8888E-03     53.3054E-03    -26.7067E-03     25.9532E-03
            1542     3.50513E-03     48.5094E-03    -21.0090E+06    -109.287E+06    -15.5558E+06    -31.8370E+03    -26.8987E-03     53.7159E-03    -26.8172E-03     20.7246E-03    -26.8245E-03     53.2243E-03    -26.7061E-03     20.7129E-03
            1543     2.62885E-03     48.4921E-03    -22.2416E+06    -111.258E+06    -19.1089E+06    -8.87172E+03    -26.8513E-03     53.6543E-03    -26.8030E-03     15.5490E-03    -26.7744E-03     53.1589E-03    -26.7050E-03     15.5410E-03
            1544     1.75259E-03     48.4797E-03    -23.1468E+06    -112.692E+06    -21.7436E+06    -3.95092E+03    -26.8167E-03     53.6083E-03    -26.7916E-03     10.4676E-03    -26.7379E-03     53.1103E-03    -26.7033E-03     10.4624E-03
            1545     876.292E-06     48.4722E-03    -23.7045E+06    -113.567E+06    -23.3362E+06        -616.334    -26.7941E-03     53.5766E-03    -26.7825E-03     5.63325E-03    -26.7142E-03     53.0772E-03    -26.7002E-03     5.63059E-03
            1546     16.6500E-03     48.7259E-03    -5.42765E+06     171.276E+06     84.3065E+06      69.288E+03    -37.2241E-03     64.0398E-03    -26.8158E-03     259.986E-03    -45.9917E-03     73.1517E-03    -26.6347E-03     264.962E-03
            1547     15.7743E-03     48.4152E-03    -8.62430E+06     129.014E+06     23.3088E+06     348.711E+03    -39.4165E-03     66.0080E-03    -26.5915E-03     262.539E-03    -45.8979E-03     72.8492E-03    -26.6495E-03     263.623E-03
            1548     14.8977E-03     48.2174E-03    -9.46705E+06     62.9865E+06    -11.0592E+06     579.955E+03    -32.1886E-03     58.7218E-03    -26.5332E-03     158.531E-03    -33.6167E-03     60.3719E-03    -26.6661E-03     158.331E-03
            1549     14.0209E-03     48.1126E-03    -8.97683E+06     6.86210E+06    -13.1422E+06     645.532E+03    -28.5109E-03     55.1299E-03    -26.6191E-03     94.2720E-03    -28.8935E-03     55.5432E-03    -26.6817E-03     94.0652E-03
            1550     13.1445E-03     48.0381E-03    -8.79492E+06    -24.9815E+06    -10.9346E+06     475.161E+03    -28.1281E-03     54.8126E-03    -26.6846E-03     80.0904E-03    -28.3050E-03     54.9014E-03    -26.6902E-03     79.9185E-03
            1551     12.2681E-03     47.9603E-03    -8.99498E+06    -39.0662E+06    -3.97293E+06     357.856E+03    -28.1398E-03     54.8839E-03    -26.7441E-03     77.7916E-03    -28.2468E-03     54.8318E-03    -26.6943E-03     77.6516E-03
            1552     11.3918E-03     47.8903E-03    -9.38931E+06    -53.6587E+06    -2.67886E+06     174.007E+03    -27.9207E-03     54.6950E-03    -26.7743E-03     69.6083E-03    -27.9667E-03     54.5250E-03    -26.6962E-03     69.4950E-03
            1553     10.5155E-03     47.8280E-03    -10.0815E+06    -67.7475E+06    -3.46425E+06     61.7454E+03    -27.7575E-03     54.5490E-03    -26.7915E-03     62.9889E-03    -27.7580E-03     54.2832E-03    -26.6960E-03     62.8984E-03
            1554     9.63922E-03     47.7705E-03    -10.8067E+06    -75.7148E+06    -893.497E+03     121.731E+03    -27.6145E-03     54.4299E-03    -26.8154E-03     57.7581E-03    -27.5937E-03     54.1046E-03    -26.6945E-03     57.6877E-03
            1555     8.76295E-03     47.7181E-03    -11.7725E+06    -79.8947E+06     481.685E+03     78.4050E+03    -27.4612E-03     54.2896E-03    -26.8284E-03     52.4564E-03    -27.4296E-03     53.9312E-03    -26.6931E-03     52.4009E-03
            1556     7.88664E-03     47.6707E-03    -12.9869E+06    -84.8412E+06    -290.175E+03    -49.4216E+03    -27.3244E-03     54.1573E-03    -26.8329E-03     47.1654E-03    -27.2826E-03     53.7690E-03    -26.6925E-03     47.1206E-03
            1557     7.01035E-03     47.6283E-03    -14.5380E+06    -91.2141E+06    -1.64649E+06    -107.669E+03    -27.2075E-03     54.0449E-03    -26.8374E-03     41.8499E-03    -27.1567E-03     53.6235E-03    -26.6923E-03     41.8142E-03
            1558     6.13406E-03     47.5911E-03    -16.2124E+06    -96.4036E+06    -4.37469E+06    -83.2551E+03    -27.1049E-03     53.9384E-03    -26.8336E-03     36.5251E-03    -27.0472E-03     53.4937E-03    -26.6922E-03     36.4975E-03
            1559     5.25776E-03     47.5588E-03    -17.8887E+06    -102.314E+06    -7.83873E+06    -36.8671E+03    -27.0209E-03     53.8477E-03    -26.8267E-03     31.2152E-03    -26.9554E-03     53.3782E-03    -26.6916E-03     31.1945E-03
            1560     4.38148E-03     47.5316E-03    -19.5255E+06    -107.074E+06    -11.5863E+06    -12.8392E+03    -26.9478E-03     53.7640E-03    -26.8161E-03     25.9297E-03    -26.8763E-03     53.2767E-03    -26.6905E-03     25.9143E-03
            1561     3.50518E-03     47.5094E-03    -21.0366E+06    -109.323E+06    -15.6393E+06     5.34268E+03    -26.8824E-03     53.6826E-03    -26.8001E-03     20.7004E-03    -26.8082E-03     53.1909E-03    -26.6893E-03     20.6892E-03
            1562     2.62889E-03     47.4921E-03    -22.2662E+06    -111.257E+06    -19.1362E+06     23.2916E+03    -26.8314E-03     53.6180E-03    -26.7866E-03     15.5305E-03    -26.7546E-03     53.1227E-03    -26.6887E-03     15.5229E-03
            1563     1.75257E-03     47.4798E-03    -23.1611E+06    -112.671E+06    -21.7508E+06     22.0249E+03    -26.7922E-03     53.5709E-03    -26.7787E-03     10.4548E-03    -26.7135E-03     53.0731E-03    -26.6905E-03     10.4499E-03
            1564     876.281E-06     47.4722E-03    -23.7043E+06    -113.553E+06    -23.3434E+06    -9.90670E+03    -26.7911E-03     53.5566E-03    -26.7655E-03     5.63626E-03    -26.7112E-03     53.0572E-03    -26.6832E-03     5.63347E-03
            1565     16.6512E-03     47.7255E-03    -5.65009E+06     171.117E+06     83.8713E+06     136.482E+03    -37.1366E-03     63.9409E-03    -26.8043E-03     259.688E-03    -45.8885E-03     73.0370E-03    -26.6249E-03     264.668E-03
            1566     15.7739E-03     47.4150E-03    -8.45013E+06     128.772E+06     22.4181E+06     238.446E+03    -39.1202E-03     65.7066E-03    -26.5864E-03     262.520E-03    -45.5903E-03     72.5389E-03    -26.6488E-03     263.629E-03
            1567     14.8970E-03     47.2175E-03    -9.02769E+06     62.7130E+06    -11.8310E+06     411.255E+03    -32.2570E-03     58.7924E-03    -26.5354E-03     158.865E-03    -33.6834E-03     60.4437E-03    -26.6724E-03     158.662E-03
            1568     14.0208E-03     47.1123E-03    -9.13056E+06     6.84848E+06    -13.9044E+06     610.261E+03    -28.6493E-03     55.2662E-03    -26.6169E-03     94.4892E-03    -29.0329E-03     55.6821E-03    -26.6831E-03     94.2805E-03
            1569     13.1445E-03     47.0382E-03    -8.76171E+06    -24.6040E+06    -11.0736E+06     576.335E+03    -28.1522E-03     54.8322E-03    -26.6800E-03     80.2031E-03    -28.3293E-03     54.9229E-03    -26.6870E-03     80.0326E-03
            1570     12.2681E-03     46.9601E-03    -8.87668E+06    -38.8896E+06    -3.86898E+06     377.515E+03    -28.1481E-03     54.8879E-03    -26.7398E-03     77.8384E-03    -28.2549E-03     54.8363E-03    -26.6899E-03     77.6986E-03
            1571     11.3918E-03     46.8902E-03    -9.38470E+06    -53.4410E+06    -2.59833E+06     279.702E+03    -27.9367E-03     54.7054E-03    -26.7687E-03     69.5842E-03    -27.9831E-03     54.5363E-03    -26.6906E-03     69.4722E-03
            1572     10.5156E-03     46.8279E-03    -9.96218E+06    -67.6697E+06    -3.32356E+06     161.540E+03    -27.7726E-03     54.5569E-03    -26.7844E-03     62.9598E-03    -27.7727E-03     54.2912E-03    -26.6884E-03     62.8705E-03
            1573     9.63932E-03     46.7704E-03    -10.6808E+06    -75.6665E+06    -913.085E+03     24.1191E+03    -27.6205E-03     54.4265E-03    -26.8059E-03     57.7302E-03    -27.5991E-03     54.1011E-03    -26.6853E-03     57.6585E-03
            1574     8.76302E-03     46.7180E-03    -11.5936E+06    -79.7988E+06     416.646E+03    -63.7607E+03    -27.4649E-03     54.2820E-03    -26.8171E-03     52.4208E-03    -27.4324E-03     53.9239E-03    -26.6825E-03     52.3635E-03
            1575     7.88675E-03     46.6707E-03    -12.8891E+06    -84.8404E+06    -396.375E+03    -12.0908E+03    -27.3285E-03     54.1484E-03    -26.8200E-03     47.1217E-03    -27.2860E-03     53.7602E-03    -26.6803E-03     47.0774E-03
            1576     7.01045E-03     46.6283E-03    -14.4560E+06    -91.1543E+06    -1.79734E+06         153.805    -27.2094E-03     54.0316E-03    -26.8223E-03     41.8029E-03    -27.1581E-03     53.6106E-03    -26.6781E-03     41.7686E-03
            1577     6.13415E-03     46.5910E-03    -16.1895E+06    -96.4537E+06    -4.51457E+06    -30.0840E+03    -27.1041E-03     53.9206E-03    -26.8165E-03     36.4765E-03    -27.0460E-03     53.4757E-03    -26.6757E-03     36.4497E-03
            1578     5.25787E-03     46.5588E-03    -17.9382E+06    -102.335E+06    -7.94121E+06    -12.1920E+03    -27.0127E-03     53.8205E-03    -26.8078E-03     31.1695E-03    -26.9472E-03     53.3511E-03    -26.6731E-03     31.1491E-03
            1579     4.38157E-03     46.5316E-03    -19.5962E+06    -107.115E+06    -11.6977E+06     18.3818E+03    -26.9318E-03     53.7277E-03    -26.7959E-03     25.8882E-03    -26.8604E-03     53.2404E-03    -26.6706E-03     25.8732E-03
            1580     3.50525E-03     46.5095E-03    -21.0762E+06    -109.313E+06    -15.6790E+06     43.3545E+03    -26.8631E-03     53.6425E-03    -26.7794E-03     20.6573E-03    -26.7890E-03     53.1510E-03    -26.6687E-03     20.6466E-03
            1581     2.62894E-03     46.4922E-03    -22.2759E+06    -111.233E+06    -19.1446E+06     29.4136E+03    -26.8110E-03     53.5766E-03    -26.7656E-03     15.4872E-03    -26.7342E-03     53.0814E-03    -26.6677E-03     15.4797E-03
            1582     1.75264E-03     46.4799E-03    -23.1530E+06    -112.630E+06    -21.7459E+06     14.2047E+03    -26.7765E-03     53.5321E-03    -26.7556E-03     10.4166E-03    -26.6978E-03     53.0344E-03    -26.6675E-03     10.4117E-03
            1583     876.303E-06     46.4723E-03    -23.6825E+06    -113.536E+06    -23.3577E+06     11.9104E+03    -26.7567E-03     53.5068E-03    -26.7501E-03     5.62354E-03    -26.6767E-03     53.0075E-03    -26.6679E-03     5.62104E-03
            1584     16.6510E-03     46.7254E-03    -5.11371E+06     171.452E+06     84.7263E+06     415.291E+03    -36.9903E-03     63.8066E-03    -26.8163E-03     259.977E-03    -45.7554E-03     72.9164E-03    -26.6338E-03     264.974E-03
            1585     15.7739E-03     46.4159E-03    -8.71339E+06     129.028E+06     23.5830E+06     39.5281E+03    -39.2041E-03     65.8086E-03    -26.6045E-03     262.785E-03    -45.6904E-03     72.6536E-03    -26.6610E-03     263.892E-03
            1586     14.8972E-03     46.2170E-03    -9.60605E+06     61.8658E+06    -11.2125E+06     218.436E+03    -32.3739E-03     58.9222E-03    -26.5483E-03     158.856E-03    -33.8039E-03     60.5702E-03    -26.6801E-03     158.647E-03
            1587     14.0208E-03     46.1123E-03    -8.88390E+06     7.05495E+06    -12.5640E+06     534.752E+03    -28.6704E-03     55.2972E-03    -26.6268E-03     94.3100E-03    -29.0549E-03     55.7116E-03    -26.6869E-03     94.0998E-03
            1588     13.1444E-03     46.0379E-03    -8.54942E+06    -24.5102E+06    -10.2161E+06     379.193E+03    -28.2178E-03     54.9023E-03    -26.6845E-03     80.1958E-03    -28.3955E-03     54.9923E-03    -26.6877E-03     80.0220E-03
            1589     12.2682E-03     45.9601E-03    -8.57423E+06    -38.7903E+06    -3.61648E+06     462.846E+03    -28.2075E-03     54.9443E-03    -26.7368E-03     77.8305E-03    -28.3134E-03     54.8925E-03    -26.6862E-03     77.6915E-03
            1590     11.3919E-03     45.8900E-03    -9.03647E+06    -53.1885E+06    -2.49423E+06     370.114E+03    -27.9525E-03     54.7141E-03    -26.7616E-03     69.5734E-03    -27.9975E-03     54.5454E-03    -26.6838E-03     69.4626E-03
            1591     10.5157E-03     45.8278E-03    -9.62203E+06    -67.5635E+06    -3.38504E+06     231.196E+03    -27.7888E-03     54.5637E-03    -26.7748E-03     62.9149E-03    -27.7873E-03     54.2979E-03    -26.6798E-03     62.8265E-03
            1592     9.63940E-03     45.7703E-03    -10.3733E+06    -75.4138E+06    -963.252E+03     74.7409E+03    -27.6329E-03     54.4270E-03    -26.7941E-03     57.6767E-03    -27.6102E-03     54.1026E-03    -26.6746E-03     57.6057E-03
            1593     8.76315E-03     45.7180E-03    -11.6139E+06    -79.8910E+06     120.714E+03     25.9386E+03    -27.4738E-03     54.2767E-03    -26.8029E-03     52.3641E-03    -27.4408E-03     53.9185E-03    -26.6696E-03     52.3080E-03
            1594     7.88685E-03     45.6706E-03    -13.0500E+06     -84.842E+06    -666.847E+03     73.5113E+03    -27.3372E-03     54.1405E-03    -26.8034E-03     47.0559E-03    -27.2950E-03     53.7528E-03    -26.6647E-03     47.0128E-03
            1595     7.01058E-03     45.6283E-03    -14.5898E+06    -91.1226E+06    -1.92367E+06     66.4004E+03    -27.2115E-03     54.0149E-03    -26.8034E-03     41.7312E-03    -27.1606E-03     53.5943E-03    -26.6597E-03     41.6979E-03
            1596     6.13429E-03     45.5910E-03    -16.2463E+06    -96.4117E+06    -4.59761E+06     58.0417E+03    -27.0963E-03     53.8916E-03    -26.7953E-03     36.4110E-03    -27.0384E-03     53.4471E-03    -26.6549E-03     36.3853E-03
            1597     5.25798E-03     45.5588E-03    -17.9663E+06    -102.351E+06    -8.00575E+06     46.3865E+03    -26.9982E-03     53.7832E-03    -26.7849E-03     31.1015E-03    -26.9328E-03     53.3138E-03    -26.6505E-03     31.0820E-03
            1598     4.38166E-03     45.5317E-03    -19.6450E+06    -107.104E+06    -11.7141E+06     51.6914E+03    -26.9138E-03     53.6856E-03    -26.7717E-03     25.8357E-03    -26.8427E-03     53.1984E-03    -26.6465E-03     25.8212E-03
            1599     3.50536E-03     45.5095E-03    -21.1143E+06    -109.305E+06    -15.7039E+06     28.9805E+03    -26.8439E-03     53.5975E-03    -26.7536E-03     20.6167E-03    -26.7699E-03     53.1061E-03    -26.6431E-03     20.6059E-03
            1600     2.62903E-03     45.4924E-03    -22.2939E+06    -111.206E+06    -19.1883E+06     29.4859E+03    -26.7906E-03     53.5281E-03    -26.7375E-03     15.4561E-03    -26.7139E-03     53.0331E-03    -26.6399E-03     15.4486E-03
            1601     1.75267E-03     45.4800E-03    -23.1575E+06    -112.614E+06    -21.7759E+06     34.1486E+03    -26.7536E-03     53.4777E-03    -26.7242E-03     10.4025E-03    -26.6749E-03     52.9802E-03    -26.6362E-03     10.3979E-03
            1602     876.378E-06     45.4725E-03    -23.6791E+06    -113.482E+06    -23.3280E+06     20.5202E+03    -26.7094E-03     53.4399E-03    -26.7305E-03     5.62089E-03    -26.6295E-03     52.9408E-03    -26.6482E-03     5.61851E-03
            1603     16.6494E-03     45.7246E-03     -4.7313E+06     171.307E+06     84.0799E+06     399.248E+03    -36.8637E-03     63.7014E-03    -26.8377E-03     260.194E-03    -45.6380E-03     72.8232E-03    -26.6588E-03     265.210E-03
            1604     15.7733E-03     45.4152E-03    -8.33930E+06     129.677E+06     24.0001E+06     596.418E+03    -39.5738E-03     66.1967E-03    -26.6229E-03     262.353E-03    -46.0492E-03     73.0332E-03    -26.6788E-03     263.436E-03
            1605     14.8972E-03     45.2169E-03    -8.80799E+06     61.9975E+06    -13.3673E+06    -193.920E+03    -32.4861E-03     59.0258E-03    -26.5397E-03     158.830E-03    -33.9102E-03     60.6774E-03    -26.6836E-03     158.613E-03
            1606     14.0207E-03     45.1121E-03    -7.66369E+06     6.22361E+06    -16.0235E+06    -8.82330E+03    -28.7040E-03     55.3127E-03    -26.6087E-03     94.3388E-03    -29.0754E-03     55.7254E-03    -26.6867E-03     94.1220E-03
            1607     13.1445E-03     45.0377E-03    -7.55918E+06    -24.5279E+06    -10.9545E+06     980.605E+03    -28.2685E-03     54.9454E-03    -26.6769E-03     80.1004E-03    -28.4400E-03     55.0348E-03    -26.6851E-03     79.9342E-03
            1608     12.2682E-03     44.9598E-03    -8.27802E+06    -38.4907E+06    -4.06975E+06     739.737E+03    -28.2404E-03     54.9683E-03    -26.7280E-03     77.7248E-03    -28.3444E-03     54.9181E-03    -26.6805E-03     77.5893E-03
            1609     11.3920E-03     44.8899E-03    -9.02222E+06    -53.0066E+06    -2.81947E+06     509.165E+03    -27.9856E-03     54.7365E-03    -26.7508E-03     69.5043E-03    -28.0304E-03     54.5692E-03    -26.6750E-03     69.3952E-03
            1610     10.5158E-03     44.8275E-03    -9.64106E+06    -67.3189E+06    -3.67254E+06     344.671E+03    -27.8044E-03     54.5657E-03    -26.7613E-03     62.8331E-03    -27.8028E-03     54.3015E-03    -26.6681E-03     62.7463E-03
            1611     9.63956E-03     44.7702E-03    -10.5523E+06    -75.3648E+06    -1.07622E+06     304.930E+03    -27.6472E-03     54.4265E-03    -26.7793E-03     57.5773E-03    -27.6252E-03     54.1026E-03    -26.6601E-03     57.5093E-03
            1612     8.76327E-03     44.7179E-03    -11.7849E+06    -79.7533E+06     123.879E+03     260.686E+03    -27.4862E-03     54.2715E-03    -26.7853E-03     52.2739E-03    -27.4542E-03     53.9142E-03    -26.6520E-03     52.2208E-03
            1613     7.88704E-03     44.6706E-03    -13.1673E+06    -84.7938E+06    -628.057E+03     105.802E+03    -27.3417E-03     54.1245E-03    -26.7828E-03     46.9616E-03    -27.3003E-03     53.7371E-03    -26.6439E-03     46.9190E-03
            1614     7.01074E-03     44.6283E-03    -14.6538E+06    -91.1020E+06    -1.93520E+06     86.3589E+03    -27.2048E-03     53.9845E-03    -26.7797E-03     41.6438E-03    -27.1542E-03     53.5641E-03    -26.6361E-03     41.6108E-03
            1615     6.13445E-03     44.5911E-03    -16.3148E+06    -96.4089E+06    -4.62928E+06     109.162E+03    -27.0810E-03     53.8505E-03    -26.7695E-03     36.3377E-03    -27.0233E-03     53.4061E-03    -26.6292E-03     36.3128E-03
            1616     5.25813E-03     44.5589E-03    -18.0031E+06    -102.280E+06    -8.03771E+06     91.0180E+03    -26.9798E-03     53.7371E-03    -26.7573E-03     31.0346E-03    -26.9146E-03     53.2682E-03    -26.6230E-03     31.0156E-03
            1617     4.38181E-03     44.5318E-03    -19.6034E+06    -107.085E+06    -11.7268E+06     40.1699E+03    -26.8918E-03     53.6343E-03    -26.7425E-03     25.7757E-03    -26.8205E-03     53.1473E-03    -26.6174E-03     25.7611E-03
            1618     3.50544E-03     44.5097E-03    -21.0694E+06    -109.274E+06    -15.7643E+06     51.2910E+03    -26.8186E-03     53.5413E-03    -26.7227E-03     20.5720E-03    -26.7443E-03     53.0500E-03    -26.6125E-03     20.5615E-03
            1619     2.62910E-03     44.4925E-03    -22.2970E+06    -111.194E+06    -19.2283E+06     45.8819E+03    -26.7644E-03     53.4694E-03    -26.7050E-03     15.4170E-03    -26.6876E-03     52.9745E-03    -26.6076E-03     15.4098E-03
            1620     1.75276E-03     44.4802E-03    -23.1752E+06    -112.571E+06    -21.7761E+06     41.8943E+03    -26.7147E-03     53.4072E-03    -26.6925E-03     10.3759E-03    -26.6361E-03     52.9099E-03    -26.6046E-03     10.3714E-03
            1621     876.341E-06     44.4727E-03    -23.6609E+06    -113.435E+06    -23.3378E+06     16.6972E+03    -26.6800E-03     53.3800E-03    -26.7000E-03     5.60954E-03    -26.6001E-03     52.8812E-03    -26.6179E-03     5.60712E-03
            1622     16.6499E-03     44.7239E-03    -4.91420E+06     170.541E+06     83.3717E+06     65.2432E+03    -36.8671E-03     63.6992E-03    -26.8322E-03     260.129E-03    -45.6373E-03     72.8157E-03    -26.6555E-03     265.141E-03
            1623     15.7736E-03     44.4145E-03    -7.62616E+06     129.389E+06     22.7489E+06     524.644E+03    -39.3934E-03     66.0088E-03    -26.6154E-03     261.844E-03    -45.8481E-03     72.8298E-03    -26.6782E-03     262.938E-03
            1624     14.8970E-03     44.2169E-03    -9.15407E+06     63.1948E+06    -11.5611E+06     763.771E+03    -32.5505E-03     59.0979E-03    -26.5474E-03     158.529E-03    -33.9791E-03     60.7519E-03    -26.6836E-03     158.323E-03
            1625     14.0208E-03     44.1117E-03    -10.9841E+06     5.71381E+06    -15.0125E+06     196.995E+03    -28.7959E-03     55.4082E-03    -26.6124E-03     94.1153E-03    -29.1846E-03     55.8218E-03    -26.6798E-03     93.8997E-03
            1626     13.1447E-03     44.0375E-03    -10.4919E+06    -25.0457E+06    -11.9956E+06     156.517E+03    -28.2537E-03     54.9190E-03    -26.6653E-03     79.8822E-03    -28.4370E-03     55.0109E-03    -26.6737E-03     79.7054E-03
            1627     12.2684E-03     43.9596E-03    -9.33330E+06    -38.1648E+06    -4.07502E+06     578.244E+03    -28.2276E-03     54.9442E-03    -26.7166E-03     77.6247E-03    -28.3372E-03     54.8970E-03    -26.6681E-03     77.4872E-03
            1628     11.3921E-03     43.8897E-03    -9.36475E+06    -52.9252E+06    -2.64684E+06     476.685E+03    -28.0063E-03     54.7441E-03    -26.7378E-03     69.3657E-03    -28.0530E-03     54.5774E-03    -26.6607E-03     69.2561E-03
            1629     10.5160E-03     43.8275E-03    -9.87421E+06    -67.0858E+06    -3.29739E+06     462.393E+03    -27.8171E-03     54.5629E-03    -26.7458E-03     62.7210E-03    -27.8175E-03     54.2996E-03    -26.6507E-03     62.6357E-03
            1630     9.63971E-03     43.7701E-03    -10.6073E+06    -75.3850E+06    -823.951E+03     424.709E+03    -27.6599E-03     54.4200E-03    -26.7601E-03     57.4681E-03    -27.6384E-03     54.0956E-03    -26.6395E-03     57.4017E-03
            1631     8.76352E-03     43.7178E-03    -11.6270E+06    -79.4743E+06     423.179E+03     341.038E+03    -27.4917E-03     54.2540E-03    -26.7623E-03     52.1674E-03    -27.4597E-03     53.8974E-03    -26.6281E-03     52.1154E-03
            1632     7.88723E-03     43.6705E-03    -12.9808E+06    -84.6647E+06    -521.135E+03     208.889E+03    -27.3328E-03     54.0891E-03    -26.7563E-03     46.8673E-03    -27.2907E-03     53.7018E-03    -26.6173E-03     46.8261E-03
            1633     7.01096E-03     43.6283E-03    -14.6389E+06    -91.1111E+06    -1.92429E+06     172.930E+03    -27.1900E-03     53.9412E-03    -26.7512E-03     41.5545E-03    -27.1394E-03     53.5207E-03    -26.6075E-03     41.5227E-03
            1634     6.13463E-03     43.5912E-03    -16.3388E+06    -96.3280E+06    -4.67244E+06     136.467E+03    -27.0607E-03     53.7994E-03    -26.7388E-03     36.2567E-03    -27.0032E-03     53.3555E-03    -26.5987E-03     36.2323E-03
            1635     5.25829E-03     43.5590E-03    -17.9557E+06    -102.227E+06    -8.07324E+06     62.0428E+03    -26.9559E-03     53.6807E-03    -26.7249E-03     30.9662E-03    -26.8904E-03     53.2120E-03    -26.5910E-03     30.9469E-03
            1636     4.38194E-03     43.5320E-03    -19.5841E+06    -107.076E+06    -11.8311E+06     88.1596E+03    -26.8688E-03     53.5768E-03    -26.7080E-03     25.7105E-03    -26.7972E-03     53.0899E-03    -26.5835E-03     25.6966E-03
            1637     3.50560E-03     43.5099E-03    -21.0954E+06    -109.254E+06    -15.7571E+06     92.2198E+03    -26.7887E-03     53.4755E-03    -26.6868E-03     20.5192E-03    -26.7146E-03     52.9843E-03    -26.5765E-03     20.5093E-03
            1638     2.62920E-03     43.4927E-03    -22.2718E+06    -111.126E+06    -19.1777E+06     72.4863E+03    -26.7274E-03     53.3956E-03    -26.6682E-03     15.3736E-03    -26.6507E-03     52.9010E-03    -26.5707E-03     15.3667E-03
            1639     1.75280E-03     43.4805E-03    -23.1413E+06    -112.505E+06    -21.7583E+06     23.6720E+03    -26.6817E-03     53.3358E-03    -26.6541E-03     10.3291E-03    -26.6031E-03     52.8388E-03    -26.5662E-03     10.3244E-03
            1640     876.410E-06     43.4730E-03    -23.6661E+06    -113.389E+06    -23.3358E+06     24.1129E+03    -26.6549E-03     53.3003E-03    -26.6454E-03     5.59762E-03    -26.5751E-03     52.8017E-03    -26.5634E-03     5.59530E-03
            1641     16.6513E-03     43.7249E-03    -5.64635E+06     170.154E+06     84.3178E+06    -124.444E+03    -37.0097E-03     63.8389E-03    -26.8292E-03     260.891E-03    -45.8097E-03     72.9784E-03    -26.6461E-03     265.898E-03
            1642     15.7733E-03     43.4143E-03    -9.27792E+06     128.713E+06     24.3739E+06     107.196E+03    -39.4387E-03     66.0549E-03    -26.6162E-03     262.310E-03    -45.9201E-03     72.8896E-03    -26.6675E-03     263.399E-03
            1643     14.8972E-03     43.2163E-03    -9.91849E+06     62.8144E+06    -10.4911E+06     849.392E+03    -32.6288E-03     59.1690E-03    -26.5402E-03     158.140E-03    -34.0585E-03     60.8169E-03    -26.6694E-03     157.932E-03
            1644     14.0213E-03     43.1114E-03    -8.45817E+06     6.88968E+06    -12.7191E+06     949.648E+03    -28.7600E-03     55.3610E-03    -26.6010E-03     93.8348E-03    -29.1403E-03     55.7726E-03    -26.6623E-03     93.6292E-03
            1645     13.1449E-03     43.0375E-03    -8.35516E+06    -24.9790E+06    -10.5297E+06    -45.7239E+03    -28.2349E-03     54.8876E-03    -26.6527E-03     79.8747E-03    -28.4097E-03     54.9746E-03    -26.6570E-03     79.6956E-03
            1646     12.2686E-03     42.9594E-03    -9.06546E+06    -38.7090E+06    -4.00659E+06     16.0600E+03    -28.2519E-03     54.9514E-03    -26.6995E-03     77.6227E-03    -28.3595E-03     54.9010E-03    -26.6503E-03     77.4779E-03
            1647     11.3924E-03     42.8895E-03     -9.3906E+06    -52.7145E+06    -2.56427E+06     448.994E+03    -28.0038E-03     54.7216E-03    -26.7178E-03     69.2758E-03    -28.0509E-03     54.5556E-03    -26.6406E-03     69.1660E-03
            1648     10.5162E-03     42.8273E-03    -9.87648E+06    -67.1506E+06    -3.39258E+06     420.882E+03    -27.8286E-03     54.5515E-03    -26.7229E-03     62.6412E-03    -27.8286E-03     54.2880E-03    -26.6282E-03     62.5554E-03
            1649     9.64002E-03     42.7700E-03    -10.5067E+06    -75.1342E+06    -869.669E+03     387.516E+03    -27.6674E-03     54.4012E-03    -26.7338E-03     57.3910E-03    -27.6457E-03     54.0780E-03    -26.6140E-03     57.3242E-03
            1650     8.76375E-03     42.7178E-03    -11.5163E+06    -79.4587E+06     310.168E+03     328.924E+03    -27.4877E-03     54.2208E-03    -26.7331E-03     52.0777E-03    -27.4549E-03     53.8641E-03    -26.5996E-03     52.0258E-03
            1651     7.88750E-03     42.6706E-03    -12.8659E+06    -84.5406E+06    -454.619E+03     403.935E+03    -27.3204E-03     54.0457E-03    -26.7254E-03     46.7721E-03    -27.2779E-03     53.6588E-03    -26.5864E-03     46.7335E-03
            1652     7.01117E-03     42.6284E-03    -14.4567E+06    -90.9997E+06    -1.78830E+06     320.542E+03    -27.1740E-03     53.8922E-03    -26.7182E-03     41.4591E-03    -27.1227E-03     53.4718E-03    -26.5743E-03     41.4293E-03
            1653     6.13486E-03     42.5913E-03    -16.1482E+06    -96.1219E+06    -4.64304E+06     157.655E+03    -27.0413E-03     53.7440E-03    -26.7027E-03     36.1602E-03    -26.9832E-03     53.3008E-03    -26.5632E-03     36.1361E-03
            1654     5.25849E-03     42.5592E-03    -17.9129E+06    -102.276E+06    -8.10178E+06     147.941E+03    -26.9311E-03     53.6178E-03    -26.6867E-03     30.8778E-03    -26.8653E-03     53.1488E-03    -26.5530E-03     30.8597E-03
            1655     4.38213E-03     42.5322E-03    -19.6183E+06    -107.006E+06    -11.7487E+06     159.425E+03    -26.8384E-03     53.5064E-03    -26.6680E-03     25.6250E-03    -26.7672E-03     53.0197E-03    -26.5431E-03     25.6120E-03
            1656     3.50572E-03     42.5102E-03    -21.0916E+06    -109.184E+06    -15.6965E+06     97.3718E+03    -26.7544E-03     53.3986E-03    -26.6442E-03     20.4449E-03    -26.6804E-03     52.9077E-03    -26.5338E-03     20.4351E-03
            1657     2.62931E-03     42.4930E-03    -22.2836E+06    -111.064E+06    -19.1300E+06     52.5921E+03    -26.6895E-03     53.3127E-03    -26.6232E-03     15.3125E-03    -26.6131E-03     52.8183E-03    -26.5255E-03     15.3055E-03
            1658     1.75289E-03     42.4808E-03    -23.1288E+06    -112.454E+06    -21.7305E+06     39.6901E+03    -26.6459E-03     53.2498E-03    -26.6039E-03     10.2739E-03    -26.5674E-03     52.7530E-03    -26.5160E-03     10.2694E-03
            1659     876.467E-06     42.4733E-03    -23.6725E+06    -113.338E+06    -23.3092E+06     17.5639E+03    -26.6094E-03     53.1921E-03    -26.5827E-03     5.56449E-03    -26.5297E-03     52.6938E-03    -26.5006E-03     5.56212E-03
            1660     16.6491E-03     42.7242E-03    -5.07587E+06     169.908E+06     84.2057E+06     262.750E+03    -37.2216E-03     64.0428E-03    -26.8212E-03     260.440E-03    -46.0000E-03     73.1621E-03    -26.6391E-03     265.427E-03
            1661     15.7739E-03     42.4137E-03    -8.20697E+06     128.539E+06     24.3765E+06     535.847E+03    -39.6360E-03     66.2300E-03    -26.5940E-03     261.873E-03    -46.0987E-03     73.0491E-03    -26.6466E-03     262.948E-03
            1662     14.8980E-03     42.2158E-03    -8.61475E+06     62.8483E+06    -13.2682E+06    -37.4747E+03    -32.4596E-03     58.9600E-03    -26.5003E-03     157.948E-03    -33.8754E-03     60.6067E-03    -26.6453E-03     157.734E-03
            1663     14.0213E-03     42.1115E-03    -7.84573E+06     6.46483E+06    -16.3085E+06     137.259E+03    -28.6450E-03     55.2112E-03    -26.5662E-03     93.9478E-03    -29.0153E-03     55.6239E-03    -26.6458E-03     93.7338E-03
            1664     13.1450E-03     42.0372E-03    -7.54331E+06    -24.3283E+06    -11.1818E+06     1.12569E+06    -28.2750E-03     54.9077E-03    -26.6327E-03     79.9733E-03    -28.4460E-03     54.9980E-03    -26.6424E-03     79.8091E-03
            1665     12.2689E-03     41.9592E-03    -8.42650E+06    -38.6256E+06    -4.44592E+06     631.203E+03    -28.2943E-03     54.9724E-03    -26.6781E-03     77.5948E-03    -28.3981E-03     54.9220E-03    -26.6321E-03     77.4577E-03
            1666     11.3926E-03     41.8894E-03    -9.44321E+06    -52.8566E+06    -3.06891E+06     397.911E+03    -28.0219E-03     54.7157E-03    -26.6938E-03     69.2493E-03    -28.0682E-03     54.5497E-03    -26.6188E-03     69.1389E-03
            1667     10.5165E-03     41.8272E-03    -9.99246E+06    -66.9568E+06    -3.82874E+06     484.795E+03    -27.8395E-03     54.5353E-03    -26.6958E-03     62.5839E-03    -27.8397E-03     54.2734E-03    -26.6033E-03     62.4991E-03
            1668     9.64024E-03     41.7700E-03    -10.8419E+06    -75.1029E+06    -1.24142E+06     397.405E+03    -27.6721E-03     54.3764E-03    -26.7043E-03     57.3129E-03    -27.6514E-03     54.0542E-03    -26.5858E-03     57.2464E-03
            1669     8.76405E-03     41.7177E-03    -12.0412E+06    -79.3569E+06     24.2417E+03     422.327E+03    -27.4867E-03     54.1875E-03    -26.7007E-03     51.9725E-03    -27.4562E-03     53.8324E-03    -26.5681E-03     51.9219E-03
            1670     7.88775E-03     41.6706E-03    -13.3422E+06    -84.5207E+06    -756.987E+03     331.018E+03    -27.3131E-03     54.0024E-03    -26.6894E-03     46.6594E-03    -27.2725E-03     53.6167E-03    -26.5513E-03     46.6201E-03
            1671     7.01146E-03     41.6285E-03    -14.6194E+06    -90.7550E+06    -2.00794E+06     262.761E+03    -27.1589E-03     53.8373E-03    -26.6784E-03     41.3486E-03    -27.1084E-03     53.4186E-03    -26.5356E-03     41.3181E-03
            1672     6.13509E-03     41.5915E-03    -16.2247E+06    -96.1033E+06    -4.57902E+06     276.837E+03    -27.0244E-03     53.6852E-03    -26.6608E-03     36.0423E-03    -26.9667E-03     53.2421E-03    -26.5209E-03     36.0199E-03
            1673     5.25874E-03     41.5595E-03    -17.9830E+06    -102.148E+06    -7.94489E+06     257.889E+03    -26.9064E-03     53.5474E-03    -26.6411E-03     30.7609E-03    -26.8413E-03     53.0789E-03    -26.5066E-03     30.7443E-03
            1674     4.38233E-03     41.5325E-03    -19.6002E+06    -106.923E+06    -11.6475E+06     145.512E+03    -26.8011E-03     53.4197E-03    -26.6186E-03     25.5216E-03    -26.7300E-03     52.9332E-03    -26.4933E-03     25.5086E-03
            1675     3.50592E-03     41.5105E-03    -21.0465E+06    -109.066E+06    -15.6352E+06     93.3664E+03    -26.7128E-03     53.3044E-03    -26.5917E-03     20.3501E-03    -26.6388E-03     52.8139E-03    -26.4812E-03     20.3404E-03
            1676     2.62947E-03     41.4935E-03    -22.2567E+06    -111.009E+06    -19.1322E+06     52.3074E+03    -26.6437E-03     53.2108E-03    -26.5671E-03     15.2447E-03    -26.5672E-03     52.7167E-03    -26.4695E-03     15.2377E-03
            1677     1.75301E-03     41.4812E-03    -23.1568E+06    -112.413E+06    -21.7223E+06     44.9901E+03    -26.5890E-03     53.1348E-03    -26.5458E-03     10.2264E-03    -26.5106E-03     52.6382E-03    -26.4578E-03     10.2221E-03
            1678     876.513E-06     41.4738E-03    -23.6867E+06    -113.327E+06    -23.3467E+06     26.0589E+03    -26.5499E-03     53.0748E-03    -26.5248E-03     5.51725E-03    -26.4703E-03     52.5765E-03    -26.4429E-03     5.51502E-03
            1679     16.6520E-03     41.7243E-03    -4.83277E+06     169.640E+06     83.6175E+06     96.6491E+03    -37.4969E-03     64.2771E-03    -26.7802E-03     259.287E-03    -46.2231E-03     73.3460E-03    -26.6011E-03     264.216E-03
            1680     15.7749E-03     41.4133E-03    -7.71610E+06     128.277E+06     23.4738E+06     518.062E+03    -39.1530E-03     65.7069E-03    -26.5539E-03     262.092E-03    -45.6140E-03     72.5278E-03    -26.6113E-03     263.202E-03
            1681     14.8979E-03     41.2160E-03     -9.5561E+06     63.6135E+06    -10.9352E+06     793.629E+03    -32.1998E-03     58.6974E-03    -26.4976E-03     158.234E-03    -33.6253E-03     60.3465E-03    -26.6307E-03     158.035E-03
            1682     14.0214E-03     41.1114E-03    -11.0305E+06     6.16334E+06    -14.6546E+06     340.281E+03    -28.6595E-03     55.2311E-03    -26.5716E-03     94.2184E-03    -29.0488E-03     55.6457E-03    -26.6378E-03     94.0063E-03
            1683     13.1453E-03     41.0369E-03    -10.7574E+06    -24.9181E+06    -12.1884E+06     243.689E+03    -28.3439E-03     54.9652E-03    -26.6214E-03     80.0699E-03    -28.5288E-03     55.0589E-03    -26.6306E-03     79.8936E-03
            1684     12.2690E-03     40.9590E-03    -9.54538E+06    -38.0027E+06    -4.41647E+06     677.167E+03    -28.3351E-03     54.9969E-03    -26.6617E-03     77.5410E-03    -28.4453E-03     54.9511E-03    -26.6149E-03     77.4044E-03
            1685     11.3929E-03     40.8892E-03    -9.52158E+06    -52.9000E+06    -2.96133E+06     502.942E+03    -28.0656E-03     54.7378E-03    -26.6722E-03     69.1692E-03    -28.1122E-03     54.5714E-03    -26.5965E-03     69.0601E-03
            1686     10.5167E-03     40.8271E-03    -10.1627E+06    -66.8413E+06    -3.59569E+06     487.894E+03    -27.8636E-03     54.5334E-03    -26.6698E-03     62.4875E-03    -27.8650E-03     54.2718E-03    -26.5761E-03     62.4028E-03
            1687     9.64058E-03     40.7698E-03    -10.8506E+06    -75.0619E+06    -1.03269E+06     523.006E+03    -27.6858E-03     54.3593E-03    -26.6734E-03     57.1880E-03    -27.6654E-03     54.0369E-03    -26.5540E-03     57.1232E-03
            1688     8.76433E-03     40.7178E-03    -11.8442E+06    -79.2086E+06     237.700E+03     428.388E+03    -27.4944E-03     54.1593E-03    -26.6649E-03     51.8281E-03    -27.4633E-03     53.8043E-03    -26.5317E-03     51.7776E-03
            1689     7.88809E-03     40.6707E-03    -13.1156E+06    -84.2987E+06    -576.310E+03     297.087E+03    -27.3145E-03     53.9627E-03    -26.6483E-03     46.5087E-03    -27.2733E-03     53.5774E-03    -26.5099E-03     46.4690E-03
            1690     7.01175E-03     40.6287E-03    -14.7823E+06    -90.7605E+06    -1.93133E+06     249.166E+03    -27.1503E-03     53.7828E-03    -26.6325E-03     41.1958E-03    -27.1007E-03     53.3641E-03    -26.4891E-03     41.1653E-03
            1691     6.13543E-03     40.5917E-03    -16.4172E+06    -96.0260E+06    -4.53462E+06     247.560E+03    -27.0020E-03     53.6117E-03    -26.6097E-03     35.8974E-03    -26.9455E-03     53.1691E-03    -26.4693E-03     35.8747E-03
            1692     5.25903E-03     40.5598E-03    -17.9304E+06    -102.024E+06    -7.81090E+06     179.245E+03    -26.8730E-03     53.4585E-03    -26.5855E-03     30.6241E-03    -26.8080E-03     52.9903E-03    -26.4506E-03     30.6067E-03
            1693     4.38261E-03     40.5329E-03    -19.5144E+06    -106.791E+06    -11.5944E+06     153.352E+03    -26.7585E-03     53.3171E-03    -26.5586E-03     25.4075E-03    -26.6872E-03     52.8310E-03    -26.4334E-03     25.3947E-03
            1694     3.50613E-03     40.5110E-03    -21.0164E+06    -109.002E+06    -15.6214E+06     105.601E+03    -26.6584E-03     53.1870E-03    -26.5285E-03     20.2563E-03    -26.5845E-03     52.6967E-03    -26.4181E-03     20.2468E-03
            1695     2.62964E-03     40.4940E-03    -22.2316E+06    -110.946E+06    -19.1401E+06     95.3407E+03    -26.5815E-03     53.0837E-03    -26.5021E-03     15.1742E-03    -26.5049E-03     52.5898E-03    -26.4047E-03     15.1678E-03
            1696     1.75311E-03     40.4818E-03    -23.1330E+06    -112.373E+06    -21.7696E+06     57.3361E+03    -26.5206E-03     53.0017E-03    -26.4811E-03     10.1602E-03    -26.4421E-03     52.5053E-03    -26.3934E-03     10.1561E-03
            1697     876.558E-06     40.4744E-03    -23.6672E+06    -113.247E+06    -23.3197E+06     30.7354E+03    -26.4815E-03     52.9476E-03    -26.4661E-03     5.48113E-03    -26.4019E-03     52.4497E-03    -26.3842E-03     5.47899E-03
            1698     16.6524E-03     40.7256E-03    -5.56671E+06     169.070E+06     83.8724E+06    -326.103E+03    -37.5413E-03     64.3269E-03    -26.7855E-03     259.916E-03    -46.2920E-03     73.4148E-03    -26.6033E-03     264.841E-03
            1699     15.7745E-03     40.4137E-03    -8.68137E+06     127.334E+06     23.6090E+06     679.641E+03    -39.2650E-03     65.8275E-03    -26.5626E-03     263.373E-03    -45.7656E-03     72.6809E-03    -26.6166E-03     264.481E-03
            1700     14.8979E-03     40.2161E-03    -9.30196E+06     63.7598E+06    -10.6592E+06     1.35429E+06    -32.3366E-03     58.8392E-03    -26.5026E-03     158.708E-03    -33.7627E-03     60.4896E-03    -26.6349E-03     158.515E-03
            1701     14.0215E-03     40.1111E-03    -8.60609E+06     7.30483E+06    -13.4440E+06     1.11143E+06    -28.8478E-03     55.4165E-03    -26.5687E-03     94.3417E-03    -29.2291E-03     55.8321E-03    -26.6340E-03     94.1375E-03
            1702     13.1452E-03     40.0366E-03    -8.81539E+06    -24.9632E+06    -11.5533E+06     214.914E+03    -28.4375E-03     55.0466E-03    -26.6091E-03     80.0115E-03    -28.6135E-03     55.1361E-03    -26.6179E-03     79.8344E-03
            1703     12.2694E-03     39.9587E-03     -9.4923E+06    -38.3758E+06    -4.40169E+06     81.4751E+03    -28.3970E-03     55.0403E-03    -26.6432E-03     77.4247E-03    -28.5062E-03     54.9923E-03    -26.5958E-03     77.2802E-03
            1704     11.3932E-03     39.8890E-03    -9.80589E+06    -52.6999E+06    -2.96783E+06     464.435E+03    -28.1159E-03     54.7631E-03    -26.6471E-03     69.0461E-03    -28.1641E-03     54.5979E-03    -26.5713E-03     68.9365E-03
            1705     10.5171E-03     39.8269E-03    -10.1751E+06    -66.9139E+06    -3.59257E+06     428.676E+03    -27.9086E-03     54.5468E-03    -26.6382E-03     62.3404E-03    -27.9097E-03     54.2847E-03    -26.5444E-03     62.2549E-03
            1706     9.64091E-03     39.7699E-03    -10.7667E+06    -74.8836E+06    -958.216E+03     395.046E+03    -27.7104E-03     54.3457E-03    -26.6353E-03     57.0266E-03    -27.6898E-03     54.0238E-03    -26.5159E-03     56.9602E-03
            1707     8.76474E-03     39.7178E-03    -11.6365E+06    -79.1179E+06     375.544E+03     319.034E+03    -27.5052E-03     54.1261E-03    -26.6209E-03     51.6488E-03    -27.4732E-03     53.7709E-03    -26.4875E-03     51.5971E-03
            1708     7.88846E-03     39.6709E-03    -12.9276E+06    -84.2223E+06    -249.033E+03     392.365E+03    -27.3166E-03     53.9159E-03    -26.5992E-03     46.3208E-03    -27.2750E-03     53.5301E-03    -26.4596E-03     46.2825E-03
            1709     7.01218E-03     39.6289E-03    -14.4530E+06    -90.6066E+06    -1.53676E+06     360.690E+03    -27.1388E-03     53.7162E-03    -26.5773E-03     41.0150E-03    -27.0883E-03     53.2971E-03    -26.4327E-03     40.9860E-03
            1710     6.13580E-03     39.5921E-03    -16.1172E+06    -95.8563E+06    -4.43568E+06     164.029E+03    -26.9702E-03     53.5179E-03    -26.5478E-03     35.7364E-03    -26.9124E-03     53.0756E-03    -26.4076E-03     35.7127E-03
            1711     5.25937E-03     39.5603E-03    -17.8285E+06    -102.036E+06    -7.88171E+06     144.359E+03    -26.8287E-03     53.3478E-03    -26.5191E-03     30.4797E-03    -26.7630E-03     52.8794E-03    -26.3847E-03     30.4620E-03
            1712     4.38291E-03     39.5335E-03    -19.4710E+06    -106.713E+06    -11.5896E+06     177.808E+03    -26.7031E-03     53.1921E-03    -26.4890E-03     25.2779E-03    -26.6317E-03     52.7063E-03    -26.3640E-03     25.2654E-03
            1713     3.50640E-03     39.5116E-03    -20.9629E+06    -108.929E+06    -15.6370E+06     172.396E+03    -26.5945E-03     53.0507E-03    -26.4562E-03     20.1547E-03    -26.5204E-03     52.5608E-03    -26.3460E-03     20.1462E-03
            1714     2.62983E-03     39.4946E-03    -22.2099E+06    -110.876E+06    -19.1366E+06     134.559E+03    -26.5113E-03     52.9394E-03    -26.4280E-03     15.0862E-03    -26.4347E-03     52.4458E-03    -26.3308E-03     15.0804E-03
            1715     1.75325E-03     39.4825E-03    -23.0899E+06    -112.268E+06    -21.7379E+06     96.8319E+03    -26.4469E-03     52.8528E-03    -26.4058E-03     10.0892E-03    -26.3684E-03     52.3568E-03    -26.3183E-03     10.0857E-03
            1716     876.630E-06     39.4752E-03    -23.6003E+06    -113.141E+06    -23.3048E+06     37.7278E+03    -26.4030E-03     52.7961E-03    -26.3931E-03     5.43474E-03    -26.3233E-03     52.2986E-03    -26.3114E-03     5.43272E-03
            1717     16.6485E-03     39.7222E-03    -5.31524E+06     168.358E+06     83.4828E+06    -22.9026E+03    -37.1733E-03     64.0065E-03    -26.8332E-03     259.779E-03    -45.9248E-03     73.0948E-03    -26.6522E-03     264.747E-03
            1718     15.7740E-03     39.4140E-03    -8.60132E+06     125.970E+06     22.1665E+06     512.459E+03    -39.9042E-03     66.4988E-03    -26.5946E-03     262.319E-03    -46.3709E-03     73.3179E-03    -26.6540E-03     263.375E-03
            1719     14.8974E-03     39.2155E-03    -8.93069E+06     63.8687E+06    -11.4746E+06     914.047E+03    -32.7156E-03     59.2193E-03    -26.5037E-03     158.595E-03    -34.1432E-03     60.8752E-03    -26.6407E-03     158.387E-03
            1720     14.0216E-03     39.1108E-03    -8.86076E+06     7.85051E+06    -13.8406E+06     894.359E+03    -29.0059E-03     55.5612E-03    -26.5553E-03     94.0854E-03    -29.3885E-03     55.9804E-03    -26.6230E-03     93.8769E-03
            1721     13.1458E-03     39.0362E-03    -8.63168E+06    -24.2281E+06    -11.3406E+06     810.741E+03    -28.4954E-03     55.0846E-03    -26.5893E-03     79.8056E-03    -28.6714E-03     55.1769E-03    -26.5983E-03     79.6358E-03
            1722     12.2695E-03     38.9585E-03    -8.89247E+06    -38.4410E+06    -4.15325E+06     441.685E+03    -28.4418E-03     55.0605E-03    -26.6187E-03     77.2466E-03    -28.5480E-03     55.0107E-03    -26.5708E-03     77.1067E-03
            1723     11.3936E-03     38.8887E-03    -9.58799E+06    -52.7611E+06    -2.93755E+06     278.582E+03    -28.1746E-03     54.7903E-03    -26.6157E-03     68.8669E-03    -28.2214E-03     54.6243E-03    -26.5400E-03     68.7547E-03
            1724     10.5175E-03     38.8269E-03    -9.99724E+06    -66.8031E+06    -3.55184E+06     347.515E+03    -27.9554E-03     54.5545E-03    -26.5991E-03     62.1340E-03    -27.9557E-03     54.2925E-03    -26.5055E-03     62.0475E-03
            1725     9.64139E-03     38.7698E-03    -10.6433E+06    -74.8196E+06    -918.299E+03     293.206E+03    -27.7397E-03     54.3285E-03    -26.5889E-03     56.8177E-03    -27.7184E-03     54.0065E-03    -26.4695E-03     56.7501E-03
            1726     8.76519E-03     38.7179E-03    -11.7881E+06    -79.0728E+06     379.612E+03     341.805E+03    -27.5140E-03     54.0817E-03    -26.5677E-03     51.4425E-03    -27.4827E-03     53.7267E-03    -26.4340E-03     51.3912E-03
            1727     7.88897E-03     38.6711E-03    -13.0806E+06    -84.2263E+06    -502.086E+03     314.051E+03    -27.3096E-03     53.8477E-03    -26.5381E-03     46.1229E-03    -27.2682E-03     53.4623E-03    -26.3995E-03     46.0837E-03
            1728     7.01263E-03     38.6293E-03    -14.3950E+06    -90.3797E+06    -1.73722E+06     246.892E+03    -27.1155E-03     53.6251E-03    -26.5096E-03     40.8162E-03    -27.0646E-03     53.2073E-03    -26.3664E-03     40.7860E-03
            1729     6.13624E-03     38.5925E-03    -15.9740E+06    -95.7808E+06    -4.45672E+06     270.363E+03    -26.9323E-03     53.4078E-03    -26.4755E-03     35.5424E-03    -26.8738E-03     52.9655E-03    -26.3357E-03     35.5203E-03
            1730     5.25979E-03     38.5608E-03    -17.7501E+06    -101.978E+06    -7.95585E+06     256.774E+03    -26.7708E-03     53.2132E-03    -26.4423E-03     30.3067E-03    -26.7047E-03     52.7450E-03    -26.3085E-03     30.2905E-03
            1731     4.38326E-03     38.5341E-03    -19.4523E+06    -106.687E+06    -11.6738E+06     226.411E+03    -26.6348E-03     53.0441E-03    -26.4093E-03     25.1325E-03    -26.5633E-03     52.5586E-03    -26.2847E-03     25.1208E-03
            1732     3.50667E-03     38.5123E-03    -20.9468E+06    -108.833E+06    -15.6003E+06     227.023E+03    -26.5233E-03     52.8974E-03    -26.3741E-03     20.0366E-03    -26.4492E-03     52.4079E-03    -26.2639E-03     20.0288E-03
            1733     2.63006E-03     38.4954E-03    -22.1515E+06    -110.746E+06    -19.0807E+06     188.016E+03    -26.4294E-03     52.7734E-03    -26.3440E-03     14.9863E-03    -26.3528E-03     52.2803E-03    -26.2467E-03     14.9813E-03
            1734     1.75338E-03     38.4834E-03    -23.0463E+06    -112.134E+06    -21.6660E+06     120.914E+03    -26.3633E-03     52.6842E-03    -26.3209E-03     10.0326E-03    -26.2849E-03     52.1888E-03    -26.2332E-03     10.0294E-03
            1735     876.714E-06     38.4761E-03    -23.5900E+06    -113.028E+06    -23.2627E+06     83.3888E+03    -26.3278E-03     52.6248E-03    -26.2970E-03     5.37178E-03    -26.2482E-03     52.1278E-03    -26.2152E-03     5.37041E-03
            1736     16.6504E-03     38.7212E-03    -5.13364E+06     168.305E+06     83.9630E+06     298.949E+03    -37.0787E-03     63.9127E-03    -26.8340E-03     259.441E-03    -45.8149E-03     72.9847E-03    -26.6508E-03     264.413E-03
            1737     15.7735E-03     38.4127E-03    -8.87812E+06     125.767E+06     22.9065E+06    -22.5939E+03    -39.7588E-03     66.3558E-03    -26.5970E-03     261.023E-03    -46.1893E-03     73.1348E-03    -26.6520E-03     262.080E-03
            1738     14.8982E-03     38.2151E-03    -9.57977E+06     62.9897E+06    -11.7335E+06     430.966E+03    -32.9312E-03     59.4251E-03    -26.4939E-03     158.157E-03    -34.3613E-03     61.0787E-03    -26.6300E-03     157.937E-03
            1739     14.0220E-03     38.1101E-03    -8.90230E+06     7.95164E+06    -13.5524E+06     1.04039E+06    -29.0804E-03     55.6150E-03    -26.5346E-03     93.8492E-03    -29.4633E-03     56.0339E-03    -26.6010E-03     93.6416E-03
            1740     13.1459E-03     38.0360E-03    -8.47087E+06    -23.6853E+06    -10.4988E+06     731.317E+03    -28.5437E-03     55.1079E-03    -26.5642E-03     79.6040E-03    -28.7205E-03     55.2010E-03    -26.5701E-03     79.4329E-03
            1741     12.2700E-03     37.9581E-03    -8.48856E+06    -38.2297E+06    -3.77946E+06     626.529E+03    -28.4928E-03     55.0780E-03    -26.5852E-03     77.0429E-03    -28.5974E-03     55.0278E-03    -26.5364E-03     76.9053E-03
            1742     11.3940E-03     37.8885E-03    -8.91293E+06    -52.5162E+06    -2.58613E+06     489.119E+03    -28.2143E-03     54.7894E-03    -26.5751E-03     68.6311E-03    -28.2583E-03     54.6228E-03    -26.4990E-03     68.5217E-03
            1743     10.5180E-03     37.8267E-03    -9.62643E+06    -66.8219E+06    -3.47722E+06     322.617E+03    -27.9903E-03     54.5412E-03    -26.5510E-03     61.9002E-03    -27.9885E-03     54.2782E-03    -26.4575E-03     61.8134E-03
            1744     9.64190E-03     37.7698E-03    -10.4098E+06    -74.7497E+06    -934.584E+03     412.477E+03    -27.7627E-03     54.2954E-03    -26.5328E-03     56.5718E-03    -27.7401E-03     53.9733E-03    -26.4140E-03     56.5060E-03
            1745     8.76576E-03     37.7180E-03    -11.4625E+06    -79.0729E+06     303.651E+03     397.506E+03    -27.5206E-03     54.0243E-03    -26.5037E-03     51.2099E-03    -27.4875E-03     53.6689E-03    -26.3709E-03     51.1595E-03
            1746     7.88949E-03     37.6713E-03    -12.7823E+06    -84.0008E+06    -590.898E+03     327.098E+03    -27.2960E-03     53.7627E-03    -26.4667E-03     45.8861E-03    -27.2532E-03     53.3780E-03    -26.3293E-03     45.8473E-03
            1747     7.01318E-03     37.6297E-03    -14.4225E+06    -90.3941E+06    -1.95679E+06     280.252E+03    -27.0838E-03     53.5156E-03    -26.4318E-03     40.5842E-03    -27.0326E-03     53.0980E-03    -26.2896E-03     40.5546E-03
            1748     6.13676E-03     37.5931E-03    -16.1446E+06    -95.7651E+06    -4.64222E+06     340.302E+03    -26.8836E-03     53.2758E-03    -26.3922E-03     35.3239E-03    -26.8257E-03     52.8340E-03    -26.2531E-03     35.3029E-03
            1749     5.26025E-03     37.5615E-03    -17.8062E+06    -101.849E+06    -8.00190E+06     348.562E+03    -26.7069E-03     53.0612E-03    -26.3544E-03     30.1088E-03    -26.6411E-03     52.5939E-03    -26.2209E-03     30.0939E-03
            1750     4.38364E-03     37.5349E-03    -19.4426E+06    -106.578E+06    -11.6464E+06     298.089E+03    -26.5617E-03     52.8789E-03    -26.3172E-03     24.9620E-03    -26.4902E-03     52.3939E-03    -26.1927E-03     24.9513E-03
            1751     3.50702E-03     37.5132E-03    -20.9178E+06    -108.723E+06    -15.5755E+06     244.565E+03    -26.4354E-03     52.7142E-03    -26.2788E-03     19.8827E-03    -26.3613E-03     52.2251E-03    -26.1687E-03     19.8752E-03
            1752     2.63030E-03     37.4965E-03    -22.1148E+06    -110.601E+06    -19.0041E+06     205.854E+03    -26.3326E-03     52.5801E-03    -26.2475E-03     14.8686E-03    -26.2560E-03     52.0876E-03    -26.1501E-03     14.8638E-03
            1753     1.75356E-03     37.4844E-03    -22.9836E+06    -111.979E+06    -21.5998E+06     150.065E+03    -26.2632E-03     52.4884E-03    -26.2252E-03     9.96246E-03    -26.1848E-03     51.9935E-03    -26.1375E-03     9.95968E-03
            1754     876.785E-06     37.4772E-03    -23.5452E+06    -112.864E+06    -23.1751E+06     92.2270E+03    -26.2461E-03     52.4354E-03    -26.1893E-03     5.32322E-03    -26.1667E-03     51.9390E-03    -26.1074E-03     5.32199E-03
            1755     16.6512E-03     37.7222E-03    -5.08890E+06     168.272E+06     84.7665E+06     302.237E+03    -37.4188E-03     64.2331E-03    -26.8143E-03     260.121E-03    -46.1765E-03     73.3243E-03    -26.6271E-03     265.073E-03
            1756     15.7745E-03     37.4122E-03    -8.41173E+06     126.422E+06     24.9001E+06     383.811E+03    -39.6740E-03     66.2533E-03    -26.5793E-03     261.654E-03    -46.1220E-03     73.0480E-03    -26.6259E-03     262.723E-03
            1757     14.8980E-03     37.2142E-03    -9.09845E+06     62.3552E+06    -13.7569E+06     48.5822E+03    -32.9075E-03     59.3697E-03    -26.4621E-03     157.976E-03    -34.3239E-03     61.0150E-03    -26.6081E-03     157.751E-03
            1758     14.0223E-03     37.1098E-03    -7.97247E+06     7.22073E+06    -15.9848E+06     419.494E+03    -29.1655E-03     55.6624E-03    -26.4969E-03     93.7756E-03    -29.5387E-03     56.0793E-03    -26.5757E-03     93.5594E-03
            1759     13.1465E-03     37.0355E-03    -7.41970E+06    -23.2623E+06    -10.3710E+06     1.13223E+06    -28.6484E-03     55.1780E-03    -26.5296E-03     79.4429E-03    -28.8207E-03     55.2714E-03    -26.5369E-03     79.2764E-03
            1760     12.2705E-03     36.9578E-03    -8.04051E+06    -37.9581E+06    -4.09874E+06     941.171E+03    -28.5595E-03     55.1003E-03    -26.5408E-03     76.8927E-03    -28.6615E-03     55.0509E-03    -26.4946E-03     76.7590E-03
            1761     11.3946E-03     36.8883E-03    -8.81794E+06    -52.1957E+06    -2.83263E+06     709.230E+03    -28.2577E-03     54.7814E-03    -26.5237E-03     68.4464E-03    -28.3010E-03     54.6164E-03    -26.4494E-03     68.3399E-03
            1762     10.5186E-03     36.8266E-03    -9.46995E+06    -66.7274E+06    -3.86025E+06     621.349E+03    -28.0225E-03     54.5139E-03    -26.4913E-03     61.6577E-03    -28.0193E-03     54.2514E-03    -26.4002E-03     61.5750E-03
            1763     9.64255E-03     36.7698E-03    -10.3833E+06    -74.7038E+06    -1.28379E+06     543.472E+03    -27.7838E-03     54.2491E-03    -26.4653E-03     56.2926E-03    -27.7604E-03     53.9274E-03    -26.3483E-03     56.2287E-03
            1764     8.76639E-03     36.7183E-03    -11.5597E+06    -78.9199E+06    -5.62133E+03     504.912E+03    -27.5228E-03     53.9507E-03    -26.4280E-03     50.9228E-03    -27.4897E-03     53.5965E-03    -26.2968E-03     50.8740E-03
            1765     7.89017E-03     36.6717E-03    -12.9707E+06    -83.8725E+06    -744.222E+03     446.748E+03    -27.2728E-03     53.6567E-03    -26.3840E-03     45.6008E-03    -27.2307E-03     53.2731E-03    -26.2473E-03     45.5637E-03
            1766     7.01379E-03     36.6302E-03    -14.4987E+06    -90.3160E+06    -2.00617E+06     431.103E+03    -27.0399E-03     53.3826E-03    -26.3427E-03     40.3111E-03    -26.9890E-03     52.9655E-03    -26.2008E-03     40.2837E-03
            1767     6.13733E-03     36.5938E-03    -16.1523E+06    -95.7292E+06    -4.57496E+06     382.271E+03    -26.8254E-03     53.1228E-03    -26.2974E-03     35.0656E-03    -26.7676E-03     52.6811E-03    -26.1581E-03     35.0452E-03
            1768     5.26076E-03     36.5624E-03    -17.8178E+06    -101.713E+06    -7.89497E+06     353.613E+03    -26.6423E-03     52.8955E-03    -26.2532E-03     29.8727E-03    -26.5768E-03     52.4286E-03    -26.1194E-03     29.8581E-03
            1769     4.38414E-03     36.5359E-03    -19.4210E+06    -106.442E+06    -11.5704E+06     319.487E+03    -26.4775E-03     52.6873E-03    -26.2098E-03     24.7569E-03    -26.4062E-03     52.2027E-03    -26.0852E-03     24.7467E-03
            1770     3.50740E-03     36.5144E-03    -20.8764E+06    -108.576E+06    -15.5263E+06     264.898E+03    -26.3318E-03     52.4992E-03    -26.1674E-03     19.7104E-03    -26.2578E-03     52.0107E-03    -26.0573E-03     19.7033E-03
            1771     2.63061E-03     36.4976E-03    -22.0663E+06    -110.459E+06    -18.9664E+06     196.172E+03    -26.2250E-03     52.3586E-03    -26.1336E-03     14.7384E-03    -26.1485E-03     51.8666E-03    -26.0363E-03     14.7336E-03
            1772     1.75375E-03     36.4857E-03    -22.9278E+06    -111.812E+06    -21.5314E+06     146.661E+03    -26.1505E-03     52.2597E-03    -26.1093E-03     9.86230E-03    -26.0721E-03     51.7655E-03    -26.0215E-03     9.85955E-03
            1773     876.873E-06     36.4784E-03    -23.4407E+06    -112.679E+06    -23.1079E+06     80.6666E+03    -26.1136E-03     52.2014E-03    -26.0878E-03     5.28158E-03    -26.0340E-03     51.7057E-03    -26.0060E-03     5.28023E-03
            1774     16.6502E-03     36.7215E-03    -5.23015E+06     167.827E+06     83.1299E+06     173.198E+03    -37.6077E-03     64.4157E-03    -26.8080E-03     260.222E-03    -46.3665E-03     73.5106E-03    -26.6281E-03     265.150E-03
            1775     15.7744E-03     36.4112E-03    -8.35834E+06     126.224E+06     24.0481E+06     574.789E+03    -40.0218E-03     66.5850E-03    -26.5633E-03     261.864E-03    -46.4773E-03     73.3892E-03    -26.6139E-03     262.908E-03
            1776     14.8988E-03     36.2141E-03    -9.39840E+06     63.4782E+06    -13.0995E+06     265.343E+03    -32.9779E-03     59.4182E-03    -26.4403E-03     157.836E-03    -34.3950E-03     61.0652E-03    -26.5842E-03     157.613E-03
            1777     14.0226E-03     36.1089E-03    -9.70699E+06     6.21178E+06    -17.5841E+06    -91.2253E+03    -29.2327E-03     55.6950E-03    -26.4623E-03     93.5477E-03    -29.6097E-03     56.1107E-03    -26.5452E-03     93.3244E-03
            1778     13.1469E-03     36.0351E-03    -9.44367E+06    -24.0612E+06    -12.1431E+06     804.262E+03    -28.7110E-03     55.1978E-03    -26.4869E-03     79.1966E-03    -28.8890E-03     55.2921E-03    -26.4990E-03     79.0256E-03
            1779     12.2711E-03     35.9575E-03    -9.06356E+06    -37.1868E+06    -4.68152E+06     1.14645E+06    -28.6432E-03     55.1345E-03    -26.4913E-03     76.6968E-03    -28.7503E-03     55.0910E-03    -26.4477E-03     76.5656E-03
            1780     11.3952E-03     35.8881E-03    -9.42352E+06    -52.0983E+06    -3.22107E+06     821.788E+03    -28.3344E-03     54.7992E-03    -26.4648E-03     68.1680E-03    -28.3800E-03     54.6358E-03    -26.3917E-03     68.0629E-03
            1781     10.5193E-03     35.8265E-03    -10.0105E+06    -66.4541E+06    -4.06528E+06     741.253E+03    -28.0613E-03     54.4837E-03    -26.4224E-03     61.3346E-03    -28.0606E-03     54.2233E-03    -26.3318E-03     61.2536E-03
            1782     9.64327E-03     35.7699E-03    -10.6863E+06    -74.6392E+06    -1.36869E+06     666.569E+03    -27.7977E-03     54.1849E-03    -26.3872E-03     55.9553E-03    -27.7756E-03     53.8638E-03    -26.2703E-03     55.8931E-03
            1783     8.76718E-03     35.7185E-03    -11.7199E+06    -78.6790E+06     102.161E+03     582.360E+03    -27.5140E-03     53.8553E-03    -26.3412E-03     50.5820E-03    -27.4820E-03     53.5021E-03    -26.2096E-03     50.5345E-03
            1784     7.89089E-03     35.6722E-03    -12.9608E+06    -83.8147E+06    -596.091E+03     498.368E+03    -27.2413E-03     53.5303E-03    -26.2890E-03     45.2747E-03    -27.1993E-03     53.1465E-03    -26.1517E-03     45.2386E-03
            1785     7.01453E-03     35.6309E-03    -14.4464E+06    -90.1704E+06    -1.84919E+06     467.946E+03    -26.9893E-03     53.2292E-03    -26.2399E-03     39.9938E-03    -26.9385E-03     52.8124E-03    -26.0975E-03     39.9671E-03
            1786     6.13801E-03     35.5947E-03    -16.0701E+06    -95.5846E+06    -4.43203E+06     403.690E+03    -26.7610E-03     52.9481E-03    -26.1871E-03     34.7708E-03    -26.7031E-03     52.5067E-03    -26.0473E-03     34.7510E-03
            1787     5.26140E-03     35.5634E-03    -17.7393E+06    -101.617E+06    -7.79796E+06     362.170E+03    -26.5599E-03     52.6956E-03    -26.1357E-03     29.6100E-03    -26.4943E-03     52.2289E-03    -26.0017E-03     29.5957E-03
            1788     4.38467E-03     35.5371E-03    -19.3745E+06    -106.297E+06    -11.5275E+06     327.554E+03    -26.3767E-03     52.4629E-03    -26.0862E-03     24.5249E-03    -26.3054E-03     51.9789E-03    -25.9616E-03     24.5150E-03
            1789     3.50786E-03     35.5157E-03    -20.8307E+06    -108.418E+06    -15.4829E+06     263.404E+03    -26.2203E-03     52.2590E-03    -26.0387E-03     19.5236E-03    -26.1463E-03     51.7711E-03    -25.9287E-03     19.5167E-03
            1790     2.63095E-03     35.4991E-03    -22.0134E+06    -110.298E+06    -18.9362E+06     203.425E+03    -26.1039E-03     52.1042E-03    -26.0003E-03     14.5962E-03    -26.0274E-03     51.6129E-03    -25.9031E-03     14.5916E-03
            1791     1.75401E-03     35.4872E-03    -22.8787E+06    -111.662E+06    -21.4941E+06     131.745E+03    -26.0239E-03     51.9945E-03    -25.9706E-03     9.76752E-03    -25.9456E-03     51.5009E-03    -25.8830E-03     9.76464E-03
            1792     877.038E-06     35.4800E-03    -23.3868E+06    -112.508E+06    -23.0627E+06     83.8559E+03    -25.9463E-03     51.9177E-03    -25.9714E-03     5.21222E-03    -25.8668E-03     51.4227E-03    -25.8896E-03     5.21095E-03
            1793     16.6507E-03     35.7203E-03    -5.15963E+06     167.603E+06     82.8578E+06     223.784E+03    -37.7926E-03     64.5965E-03    -26.8039E-03     260.273E-03    -46.5504E-03     73.6907E-03    -26.6251E-03     265.175E-03
            1794     15.7747E-03     35.4103E-03    -8.38896E+06     125.522E+06     23.4160E+06     502.247E+03    -40.2739E-03     66.8176E-03    -26.5436E-03     261.245E-03    -46.7147E-03     73.6063E-03    -26.5964E-03     262.266E-03
            1795     14.8988E-03     35.2130E-03    -9.58130E+06     64.0405E+06    -10.5531E+06     1.14009E+06    -33.1351E-03     59.5535E-03    -26.4184E-03     157.248E-03    -34.5556E-03     61.1980E-03    -26.5502E-03     157.032E-03
            1796     14.0235E-03     35.1085E-03    -10.4209E+06     6.84314E+06    -15.2782E+06     826.409E+03    -29.2525E-03     55.6825E-03    -26.4300E-03     93.1719E-03    -29.6355E-03     56.0971E-03    -26.5012E-03     92.9603E-03
            1797     13.1475E-03     35.0345E-03    -10.6751E+06    -24.7121E+06    -12.6787E+06     68.1383E+03    -28.7541E-03     55.1906E-03    -26.4365E-03     78.8989E-03    -28.9355E-03     55.2831E-03    -26.4486E-03     78.7185E-03
            1798     12.2718E-03     34.9570E-03    -10.1177E+06    -37.2820E+06    -4.70731E+06     413.509E+03    -28.7305E-03     55.1633E-03    -26.4328E-03     76.3172E-03    -28.8423E-03     55.1205E-03    -26.3876E-03     76.1762E-03
            1799     11.3960E-03     34.8878E-03    -10.0343E+06    -51.9409E+06    -3.12300E+06     756.756E+03    -28.3920E-03     54.7863E-03    -26.3943E-03     67.7568E-03    -28.4406E-03     54.6239E-03    -26.3200E-03     67.6510E-03
            1800     10.5202E-03     34.8265E-03    -10.4127E+06    -66.2460E+06    -3.78416E+06     640.365E+03    -28.0853E-03     54.4270E-03    -26.3417E-03     60.9453E-03    -28.0869E-03     54.1674E-03    -26.2494E-03     60.8632E-03
            1801     9.64421E-03     34.7701E-03    -10.9383E+06    -74.4526E+06    -1.34939E+06     490.097E+03    -27.7927E-03     54.0882E-03    -26.2954E-03     55.5967E-03    -27.7718E-03     53.7680E-03    -26.1784E-03     55.5326E-03
            1802     8.76804E-03     34.7189E-03    -11.6871E+06    -78.6086E+06     174.851E+03     444.911E+03    -27.4929E-03     53.7334E-03    -26.2405E-03     50.2201E-03    -27.4606E-03     53.3801E-03    -26.1087E-03     50.1712E-03
            1803     7.89180E-03     34.6728E-03    -12.8848E+06    -83.7292E+06    -533.739E+03     511.310E+03    -27.2050E-03     53.3842E-03    -26.1792E-03     44.9172E-03    -27.1627E-03     53.0004E-03    -26.0417E-03     44.8817E-03
            1804     7.01535E-03     34.6318E-03    -14.3576E+06    -90.0429E+06    -1.83865E+06     485.983E+03    -26.9339E-03     53.0546E-03    -26.1207E-03     39.6525E-03    -26.8827E-03     52.6381E-03    -25.9785E-03     39.6263E-03
            1805     6.13881E-03     34.5957E-03    -15.9978E+06    -95.4240E+06    -4.50442E+06     438.157E+03    -26.6829E-03     52.7421E-03    -26.0592E-03     34.4558E-03    -26.6247E-03     52.3014E-03    -25.9201E-03     34.4368E-03
            1806     5.26210E-03     34.5647E-03    -17.6874E+06    -101.510E+06    -7.83118E+06     388.983E+03    -26.4592E-03     52.4602E-03    -26.0011E-03     29.3199E-03    -26.3933E-03     51.9939E-03    -25.8674E-03     29.3062E-03
            1807     4.38529E-03     34.5385E-03    -19.2930E+06    -106.142E+06    -11.5257E+06     345.142E+03    -26.2624E-03     52.2079E-03    -25.9455E-03     24.2679E-03    -26.1909E-03     51.7245E-03    -25.8212E-03     24.2584E-03
            1808     3.50837E-03     34.5173E-03    -20.7720E+06    -108.253E+06    -15.4832E+06     285.350E+03    -26.0940E-03     51.9863E-03    -25.8924E-03     19.3194E-03    -26.0199E-03     51.4992E-03    -25.7827E-03     19.3129E-03
            1809     2.63136E-03     34.5008E-03    -21.9777E+06    -110.133E+06    -18.9056E+06     218.083E+03    -25.9631E-03     51.8127E-03    -25.8496E-03     14.4485E-03    -25.8867E-03     51.3221E-03    -25.7526E-03     14.4442E-03
            1810     1.75427E-03     34.4890E-03    -22.8486E+06    -111.498E+06    -21.4713E+06     146.647E+03    -25.8699E-03     51.6883E-03    -25.8184E-03     9.67689E-03    -25.7917E-03     51.1954E-03    -25.7310E-03     9.67427E-03
            1811     877.145E-06     34.4818E-03    -23.3663E+06    -112.340E+06    -23.0323E+06     74.5318E+03    -25.7878E-03     51.6138E-03    -25.8260E-03     5.15678E-03    -25.7084E-03     51.1195E-03    -25.7444E-03     5.15544E-03
            1812     16.6507E-03     34.7192E-03    -5.20635E+06     167.451E+06     84.3591E+06     230.492E+03    -38.0474E-03     64.8350E-03    -26.7876E-03     259.748E-03    -46.7782E-03     73.8972E-03    -26.6011E-03     264.608E-03
            1813     15.7753E-03     34.4091E-03    -8.69597E+06     125.155E+06     24.5626E+06     565.582E+03    -40.2937E-03     66.8114E-03    -26.5177E-03     261.412E-03    -46.7386E-03     73.5984E-03    -26.5637E-03     262.442E-03
            1814     14.9003E-03     34.2123E-03    -9.45048E+06     63.0483E+06    -10.8192E+06     1.33442E+06    -33.3858E-03     59.7615E-03    -26.3757E-03     156.849E-03    -34.8026E-03     61.4000E-03    -26.5075E-03     156.628E-03
            1815     14.0240E-03     34.1081E-03    -8.52310E+06     8.30433E+06    -13.4758E+06     1.42711E+06    -29.3752E-03     55.7513E-03    -26.3761E-03     92.6759E-03    -29.7515E-03     56.1659E-03    -26.4432E-03     92.4710E-03
            1816     13.1484E-03     34.0340E-03    -8.45450E+06    -23.8493E+06    -10.8457E+06     406.752E+03    -28.8045E-03     55.1774E-03    -26.3728E-03     78.6203E-03    -28.9777E-03     55.2673E-03    -26.3802E-03     78.4444E-03
            1817     12.2728E-03     33.9566E-03    -9.07887E+06    -38.1750E+06    -4.27067E+06     126.444E+03    -28.7734E-03     55.1312E-03    -26.3578E-03     75.9888E-03    -28.8787E-03     55.0811E-03    -26.3107E-03     75.8442E-03
            1818     11.3970E-03     33.8876E-03    -9.47322E+06    -51.8503E+06    -2.78611E+06     518.381E+03    -28.4095E-03     54.7187E-03    -26.3092E-03     67.3996E-03    -28.4552E-03     54.5548E-03    -26.2342E-03     67.2912E-03
            1819     10.5212E-03     33.8265E-03    -9.80094E+06    -66.0824E+06    -3.50028E+06     549.683E+03    -28.0917E-03     54.3389E-03    -26.2472E-03     60.5943E-03    -28.0904E-03     54.0784E-03    -26.1547E-03     60.5116E-03
            1820     9.64518E-03     33.7704E-03    -10.4451E+06    -74.1796E+06    -1.21033E+06     404.759E+03    -27.7891E-03     53.9799E-03    -26.1907E-03     55.2325E-03    -27.7660E-03     53.6598E-03    -26.0741E-03     55.1678E-03
            1821     8.76908E-03     33.7194E-03    -11.5941E+06    -78.7587E+06    -14.0386E+03     433.513E+03    -27.4699E-03     53.5954E-03    -26.1254E-03     49.8409E-03    -27.4365E-03     53.2412E-03    -25.9945E-03     49.7923E-03
            1822     7.89274E-03     33.6736E-03    -12.9420E+06    -83.6291E+06    -723.313E+03     537.044E+03    -27.1638E-03     53.2176E-03    -26.0538E-03     44.5291E-03    -27.1214E-03     52.8345E-03    -25.9174E-03     44.4943E-03
            1823     7.01632E-03     33.6328E-03    -14.4300E+06    -89.8985E+06    -1.95281E+06     492.124E+03    -26.8685E-03     52.8542E-03    -25.9857E-03     39.2775E-03    -26.8175E-03     52.4385E-03    -25.8442E-03     39.2518E-03
            1824     6.13967E-03     33.5970E-03    -15.9978E+06    -95.2960E+06    -4.61716E+06     441.819E+03    -26.5917E-03     52.5067E-03    -25.9151E-03     34.1025E-03    -26.5333E-03     52.0667E-03    -25.7768E-03     34.0838E-03
            1825     5.26291E-03     33.5661E-03    -17.5984E+06    -101.394E+06    -7.93972E+06     427.889E+03    -26.3462E-03     52.1953E-03    -25.8491E-03     28.9997E-03    -26.2798E-03     51.7295E-03    -25.7163E-03     28.9868E-03
            1826     4.38598E-03     33.5403E-03    -19.2457E+06    -105.992E+06    -11.5531E+06     400.605E+03    -26.1312E-03     51.9186E-03    -25.7874E-03     23.9950E-03    -26.0595E-03     51.4358E-03    -25.6636E-03     23.9864E-03
            1827     3.50895E-03     33.5191E-03    -20.7248E+06    -108.064E+06    -15.4475E+06     335.594E+03    -25.9476E-03     51.6769E-03    -25.7292E-03     19.0952E-03    -25.8736E-03     51.1905E-03    -25.6197E-03     19.0896E-03
            1828     2.63179E-03     33.5028E-03    -21.9302E+06    -109.955E+06    -18.8882E+06     248.736E+03    -25.8034E-03     51.4860E-03    -25.6826E-03     14.2794E-03    -25.7270E-03     50.9962E-03    -25.5858E-03     14.2757E-03
            1829     1.75458E-03     33.4911E-03    -22.8161E+06    -111.317E+06    -21.4565E+06     172.355E+03    -25.6980E-03     51.3490E-03    -25.6510E-03     9.55731E-03    -25.6199E-03     50.8569E-03    -25.5638E-03     9.55511E-03
            1830     877.281E-06     33.4840E-03    -23.3383E+06    -112.149E+06    -23.0210E+06     87.6290E+03    -25.6268E-03     51.2808E-03    -25.6540E-03     5.10659E-03    -25.5476E-03     50.7874E-03    -25.5726E-03     5.10545E-03
            1831     16.6528E-03     33.7205E-03    -5.31615E+06     166.930E+06     84.3159E+06     359.427E+03    -38.3541E-03     65.1217E-03    -26.7676E-03     259.110E-03    -47.0443E-03     74.1412E-03    -26.5804E-03     263.916E-03
            1832     15.7753E-03     33.4076E-03    -8.43773E+06     125.186E+06     24.9944E+06     944.627E+03    -40.4296E-03     66.9181E-03    -26.4885E-03     262.230E-03    -46.8873E-03     73.7178E-03    -26.5328E-03     263.258E-03
            1833     14.8999E-03     33.2107E-03    -9.13276E+06     62.9084E+06    -13.7016E+06     401.361E+03    -33.6550E-03     59.9746E-03    -26.3196E-03     156.519E-03    -35.0637E-03     61.6140E-03    -26.4661E-03     156.279E-03
            1834     14.0255E-03     33.1076E-03    -8.03142E+06     8.17364E+06    -16.5975E+06     577.857E+03    -29.5963E-03     55.8965E-03    -26.3002E-03     92.2422E-03    -29.9629E-03     56.3118E-03    -26.3834E-03     92.0250E-03
            1835     13.1496E-03     33.0337E-03    -7.04349E+06    -23.1369E+06    -10.5654E+06     1.31772E+06    -28.8956E-03     55.1925E-03    -26.2969E-03     78.6942E-03    -29.0631E-03     55.2835E-03    -26.3060E-03     78.5299E-03
            1836     12.2738E-03     32.9562E-03    -7.68009E+06    -37.9785E+06    -4.10012E+06     913.881E+03    -28.8148E-03     55.0872E-03    -26.2724E-03     75.7547E-03    -28.9128E-03     55.0350E-03    -26.2267E-03     75.6207E-03
            1837     11.3981E-03     32.8875E-03    -8.61198E+06    -51.8135E+06    -2.85784E+06     558.990E+03    -28.4257E-03     54.6404E-03    -26.2146E-03     67.1420E-03    -28.4664E-03     54.4748E-03    -26.1413E-03     67.0347E-03
            1838     10.5222E-03     32.8266E-03    -9.23785E+06    -66.0165E+06    -3.65196E+06     568.287E+03    -28.1240E-03     54.2663E-03    -26.1423E-03     60.2432E-03    -28.1192E-03     54.0050E-03    -26.0515E-03     60.1611E-03
            1839     9.64634E-03     32.7707E-03    -10.1460E+06    -74.0771E+06    -1.12876E+06     718.804E+03    -27.7966E-03     53.8720E-03    -26.0754E-03     54.8299E-03    -27.7718E-03     53.5515E-03    -25.9589E-03     54.7697E-03
            1840     8.77015E-03     32.7201E-03    -11.4334E+06    -78.6701E+06     14.4999E+03     666.134E+03    -27.4556E-03     53.4534E-03    -25.9978E-03     49.4186E-03    -27.4211E-03     53.0990E-03    -25.8671E-03     49.3735E-03
            1841     7.89389E-03     32.6745E-03    -12.7810E+06    -83.5458E+06    -725.718E+03     552.721E+03    -27.1174E-03     53.0316E-03    -25.9142E-03     44.0979E-03    -27.0741E-03     52.6484E-03    -25.7782E-03     44.0638E-03
            1842     7.01734E-03     32.6340E-03    -14.2096E+06    -89.7145E+06    -1.92935E+06     519.164E+03    -26.7939E-03     52.6290E-03    -25.8352E-03     38.8592E-03    -26.7419E-03     52.2137E-03    -25.6941E-03     38.8343E-03
            1843     6.14068E-03     32.5985E-03    -15.8587E+06    -95.2267E+06    -4.64686E+06     500.278E+03    -26.4896E-03     52.2444E-03    -25.7547E-03     33.7101E-03    -26.4305E-03     51.8044E-03    -25.6169E-03     33.6925E-03
            1844     5.26378E-03     32.5679E-03    -17.5940E+06    -101.264E+06    -8.02249E+06     514.107E+03    -26.2185E-03     51.8988E-03    -25.6802E-03     28.6483E-03    -26.1521E-03     51.4337E-03    -25.5480E-03     28.6368E-03
            1845     4.38676E-03     32.5422E-03    -19.2103E+06    -105.810E+06    -11.5529E+06     453.284E+03    -25.9845E-03     51.5962E-03    -25.6117E-03     23.6906E-03    -25.9129E-03     51.1143E-03    -25.4882E-03     23.6829E-03
            1846     3.50957E-03     32.5214E-03    -20.6595E+06    -107.876E+06    -15.4534E+06     384.181E+03    -25.7856E-03     51.3330E-03    -25.5474E-03     18.8394E-03    -25.7115E-03     50.8474E-03    -25.4383E-03     18.8346E-03
            1847     2.63229E-03     32.5051E-03    -21.8680E+06    -109.748E+06    -18.8826E+06     314.678E+03    -25.6263E-03     51.1226E-03    -25.4964E-03     14.0798E-03    -25.5498E-03     50.6337E-03    -25.3999E-03     14.0771E-03
            1848     1.75489E-03     32.4936E-03    -22.7559E+06    -111.091E+06    -21.4214E+06     220.700E+03    -25.5127E-03     50.9748E-03    -25.4621E-03     9.42861E-03    -25.4346E-03     50.4837E-03    -25.3751E-03     9.42712E-03
            1849     877.467E-06     32.4865E-03    -23.2924E+06    -111.917E+06    -22.9770E+06     113.701E+03    -25.4494E-03     50.9010E-03    -25.4516E-03     5.07576E-03    -25.3703E-03     50.4086E-03    -25.3705E-03     5.07497E-03
            1850     16.6506E-03     32.7175E-03    -5.50499E+06     166.328E+06     83.6507E+06     419.023E+03    -38.9636E-03     65.7259E-03    -26.7623E-03     258.456E-03    -47.6381E-03     74.7287E-03    -26.5772E-03     263.176E-03
            1851     15.7764E-03     32.4080E-03    -8.53429E+06     124.946E+06     25.2909E+06     572.335E+03    -41.0977E-03     67.5445E-03    -26.4468E-03     261.187E-03    -47.5399E-03     74.3266E-03    -26.4892E-03     262.127E-03
            1852     14.9013E-03     32.2080E-03    -8.82495E+06     63.5310E+06    -12.6147E+06     142.823E+03    -33.2444E-03     59.5101E-03    -26.2657E-03     155.711E-03    -34.6371E-03     61.1336E-03    -26.4081E-03     155.474E-03
            1853     14.0256E-03     32.1076E-03    -8.90346E+06     7.58074E+06    -17.0330E+06     195.294E+03    -29.5687E-03     55.8184E-03    -26.2497E-03     92.2596E-03    -29.9371E-03     56.2315E-03    -26.3329E-03     92.0385E-03
            1854     13.1502E-03     32.0326E-03    -8.73818E+06    -23.3851E+06    -11.3565E+06     1.01258E+06    -29.2104E-03     55.4418E-03    -26.2314E-03     78.6027E-03    -29.3858E-03     55.5361E-03    -26.2417E-03     78.4317E-03
            1855     12.2750E-03     31.9562E-03    -8.20447E+06    -37.1457E+06    -4.23118E+06     1.20160E+06    -28.8980E-03     55.0855E-03    -26.1875E-03     75.4707E-03    -28.9988E-03     55.0376E-03    -26.1429E-03     75.3406E-03
            1856     11.3991E-03     31.8873E-03    -8.56466E+06    -51.5822E+06    -2.92685E+06     819.166E+03    -28.5046E-03     54.6211E-03    -26.1165E-03     66.8546E-03    -28.5447E-03     54.4562E-03    -26.0440E-03     66.7508E-03
            1857     10.5235E-03     31.8268E-03    -9.28341E+06    -66.1300E+06    -3.79652E+06     843.872E+03    -28.1721E-03     54.2023E-03    -26.0302E-03     59.8201E-03    -28.1666E-03     53.9401E-03    -25.9398E-03     59.7421E-03
            1858     9.64749E-03     31.7712E-03    -10.1602E+06    -74.0844E+06    -1.23038E+06     996.995E+03    -27.8218E-03     53.7705E-03    -25.9486E-03     54.3885E-03    -27.7965E-03     53.4496E-03    -25.8326E-03     54.3324E-03
            1859     8.77145E-03     31.7208E-03    -11.2733E+06    -78.2772E+06     63.2736E+03     918.504E+03    -27.4432E-03     53.2997E-03    -25.8566E-03     48.9431E-03    -27.4082E-03     52.9467E-03    -25.7264E-03     48.9018E-03
            1860     7.89506E-03     31.6757E-03    -12.6809E+06    -83.2851E+06    -893.127E+03     641.093E+03    -27.0686E-03     52.8273E-03    -25.7587E-03     43.6226E-03    -27.0246E-03     52.4452E-03    -25.6240E-03     43.5901E-03
            1861     7.01855E-03     31.6354E-03    -14.1962E+06    -89.6696E+06    -2.18749E+06     561.496E+03    -26.7107E-03     52.3782E-03    -25.6675E-03     38.3953E-03    -26.6581E-03     51.9633E-03    -25.5278E-03     38.3714E-03
            1862     6.14174E-03     31.6003E-03    -15.8360E+06    -95.1619E+06    -4.67282E+06     666.731E+03    -26.3776E-03     51.9549E-03    -25.5772E-03     33.2679E-03    -26.3183E-03     51.5150E-03    -25.4396E-03     33.2529E-03
            1863     5.26478E-03     31.5700E-03    -17.5038E+06    -101.027E+06    -8.00157E+06     598.308E+03    -26.0821E-03     51.5747E-03    -25.4927E-03     28.2461E-03    -26.0155E-03     51.1106E-03    -25.3608E-03     28.2361E-03
            1864     4.38761E-03     31.5446E-03    -19.1108E+06    -105.633E+06    -11.6547E+06     509.463E+03    -25.8237E-03     51.2387E-03    -25.4149E-03     23.3400E-03    -25.7516E-03     50.7575E-03    -25.2923E-03     23.3334E-03
            1865     3.51030E-03     31.5239E-03    -20.5839E+06    -107.676E+06    -15.5177E+06     471.101E+03    -25.6030E-03     50.9471E-03    -25.3441E-03     18.5502E-03    -25.5287E-03     50.4625E-03    -25.2357E-03     18.5467E-03
            1866     2.63283E-03     31.5079E-03    -21.7971E+06    -109.509E+06    -18.8802E+06     400.755E+03    -25.4324E-03     50.7202E-03    -25.2878E-03     13.8598E-03    -25.3560E-03     50.2324E-03    -25.1918E-03     13.8583E-03
            1867     1.75528E-03     31.4964E-03    -22.6676E+06    -110.801E+06    -21.3637E+06     275.676E+03    -25.3093E-03     50.5575E-03    -25.2483E-03     9.27627E-03    -25.2313E-03     50.0677E-03    -25.1616E-03     9.27559E-03
            1868     877.632E-06     31.4895E-03    -23.2063E+06    -111.616E+06    -22.8979E+06     153.703E+03    -25.2455E-03     50.4678E-03    -25.2223E-03     5.02201E-03    -25.1666E-03     49.9767E-03    -25.1413E-03     5.02177E-03
            1869     16.6514E-03     31.7160E-03    -5.68386E+06     165.989E+06     83.7361E+06     293.207E+03    -39.6396E-03     66.3860E-03    -26.7464E-03     258.499E-03    -48.3120E-03     75.3846E-03    -26.5601E-03     263.148E-03
            1870     15.7784E-03     31.4032E-03    -8.36680E+06     125.345E+06     26.7060E+06     199.237E+03    -41.3143E-03     67.7184E-03    -26.4041E-03     259.526E-03    -47.7012E-03     74.4432E-03    -26.4402E-03     260.407E-03
            1871     14.9028E-03     31.2112E-03    -9.14212E+06     63.5128E+06    -12.2673E+06     467.553E+03    -33.0497E-03     59.2598E-03    -26.2101E-03     155.998E-03    -34.4382E-03     60.8769E-03    -26.3502E-03     155.776E-03
            1872     14.0257E-03     31.1049E-03    -8.53792E+06     7.43309E+06    -17.0225E+06     726.999E+03    -29.6870E-03     55.8772E-03    -26.1902E-03     92.3298E-03    -30.0537E-03     56.2894E-03    -26.2738E-03     92.1140E-03
            1873     13.1516E-03     31.0324E-03    -8.48207E+06    -23.6334E+06    -11.2706E+06     518.131E+03    -29.2657E-03     55.4282E-03    -26.1625E-03     77.7190E-03    -29.4377E-03     55.5189E-03    -26.1723E-03     77.5414E-03
            1874     12.2757E-03     30.9556E-03    -8.77395E+06    -37.2303E+06    -4.56688E+06     693.489E+03    -29.0307E-03     55.1349E-03    -26.1042E-03     75.2779E-03    -29.1333E-03     55.0875E-03    -26.0603E-03     75.1409E-03
            1875     11.4005E-03     30.8873E-03    -8.88687E+06    -51.3409E+06    -2.91112E+06     971.587E+03    -28.6556E-03     54.6716E-03    -26.0160E-03     66.5098E-03    -28.6973E-03     54.5079E-03    -25.9432E-03     66.4078E-03
            1876     10.5246E-03     30.8270E-03      -9.368E+06    -66.1897E+06    -3.96657E+06     1.00865E+06    -28.2586E-03     54.1681E-03    -25.9095E-03     59.3862E-03    -28.2526E-03     53.9053E-03    -25.8197E-03     59.3107E-03
            1877     9.64892E-03     30.7717E-03    -9.96027E+06    -74.0047E+06    -1.36973E+06     1.07096E+06    -27.8642E-03     53.6737E-03    -25.8095E-03     53.8685E-03    -27.8372E-03     53.3526E-03    -25.6946E-03     53.8139E-03
            1878     8.77274E-03     30.7218E-03    -10.8856E+06    -77.9444E+06     55.1546E+03     1.02005E+06    -27.4361E-03     53.1367E-03    -25.7007E-03     48.3994E-03    -27.3992E-03     52.7844E-03    -25.5716E-03     48.3600E-03
            1879     7.89645E-03     30.6769E-03    -12.1814E+06    -82.9524E+06    -677.951E+03     934.363E+03    -27.0201E-03     52.6085E-03    -25.5884E-03     43.0631E-03    -26.9741E-03     52.2268E-03    -25.4539E-03     43.0349E-03
            1880     7.01980E-03     30.6372E-03    -13.9544E+06    -89.5928E+06    -2.10752E+06     878.457E+03    -26.6233E-03     52.1066E-03    -25.4833E-03     37.8565E-03    -26.5695E-03     51.6913E-03    -25.3437E-03     37.8372E-03
            1881     6.14298E-03     30.6023E-03    -15.7290E+06    -94.9463E+06    -4.82912E+06     752.191E+03    -26.2574E-03     51.6365E-03    -25.3791E-03     32.7681E-03    -26.1975E-03     51.1977E-03    -25.2427E-03     32.7546E-03
            1882     5.26587E-03     30.5725E-03    -17.3526E+06    -100.832E+06    -8.14007E+06     698.967E+03    -25.9327E-03     51.2158E-03    -25.2831E-03     27.7957E-03    -25.8653E-03     50.7525E-03    -25.1524E-03     27.7873E-03
            1883     4.38859E-03     30.5473E-03    -19.0014E+06    -105.423E+06    -11.7650E+06     681.305E+03    -25.6460E-03     50.8416E-03    -25.1956E-03     22.9488E-03    -25.5735E-03     50.3615E-03    -25.0740E-03     22.9447E-03
            1884     3.51108E-03     30.5269E-03    -20.5127E+06    -107.430E+06    -15.5651E+06     598.576E+03    -25.4041E-03     50.5208E-03    -25.1167E-03     18.2259E-03    -25.3297E-03     50.0373E-03    -25.0090E-03     18.2243E-03
            1885     2.63344E-03     30.5110E-03    -21.6948E+06    -109.191E+06    -18.8509E+06     479.116E+03    -25.2165E-03     50.2699E-03    -25.0534E-03     13.6062E-03    -25.1400E-03     49.7834E-03    -24.9579E-03     13.6059E-03
            1886     1.75570E-03     30.4998E-03    -22.5630E+06    -110.469E+06    -21.3137E+06     356.199E+03    -25.0821E-03     50.0892E-03    -25.0071E-03     9.10941E-03    -25.0041E-03     49.6008E-03    -24.9208E-03     9.10989E-03
            1887     877.886E-06     30.4929E-03    -23.1070E+06    -111.247E+06    -22.7965E+06     197.253E+03    -25.0022E-03     49.9783E-03    -24.9761E-03     4.95100E-03    -24.9234E-03     49.4888E-03    -24.8953E-03     4.95137E-03
            1888     16.6521E-03     30.7081E-03    -5.46932E+06     165.952E+06     83.8157E+06     171.101E+03    -39.5981E-03     66.3007E-03    -26.7026E-03     257.978E-03    -48.2201E-03     75.2494E-03    -26.5162E-03     262.626E-03
            1889     15.7780E-03     30.4042E-03    -7.92455E+06     125.189E+06     26.2452E+06     265.000E+03    -40.4502E-03     66.8237E-03    -26.3735E-03     258.392E-03    -46.7533E-03     73.4670E-03    -26.4123E-03     259.354E-03
            1890     14.9014E-03     30.2089E-03    -9.22601E+06     63.9028E+06    -13.3652E+06     766.197E+03    -33.7221E-03     59.8981E-03    -26.1760E-03     156.546E-03    -35.1179E-03     61.5268E-03    -26.3221E-03     156.316E-03
            1891     14.0288E-03     30.1045E-03    -9.59313E+06     7.27756E+06    -18.5440E+06     624.870E+03    -30.0690E-03     56.1922E-03    -26.1232E-03     92.3487E-03    -30.4404E-03     56.6092E-03    -26.2126E-03     92.1271E-03
            1892     13.1519E-03     30.0318E-03    -8.71684E+06    -24.0159E+06    -12.2125E+06     496.961E+03    -29.1825E-03     55.2665E-03    -26.0840E-03     77.6044E-03    -29.3512E-03     55.3544E-03    -26.0976E-03     77.4288E-03
            1893     12.2770E-03     29.9551E-03    -8.36726E+06    -37.3624E+06    -4.97763E+06     686.768E+03    -29.2235E-03     55.2407E-03    -26.0172E-03     75.0835E-03    -29.3229E-03     55.1921E-03    -25.9758E-03     74.9459E-03
            1894     11.4014E-03     29.8871E-03    -9.01814E+06    -51.5275E+06    -3.36538E+06     957.345E+03    -28.8605E-03     54.7674E-03    -25.9069E-03     65.9371E-03    -28.9012E-03     54.6029E-03    -25.8359E-03     65.8346E-03
            1895     10.5262E-03     29.8271E-03    -9.49481E+06    -66.0039E+06    -4.38011E+06     1.09837E+06    -28.3806E-03     54.1566E-03    -25.7760E-03     58.7576E-03    -28.3743E-03     53.8950E-03    -25.6884E-03     58.6834E-03
            1896     9.65028E-03     29.7724E-03    -10.1416E+06    -73.8844E+06    -1.96182E+06     1.00588E+06    -27.9102E-03     53.5644E-03    -25.6542E-03     53.2402E-03    -27.8830E-03     53.2445E-03    -25.5421E-03     53.1852E-03
            1897     8.77432E-03     29.7229E-03    -11.0666E+06    -77.7565E+06    -406.539E+03     1.03496E+06    -27.4284E-03     52.9555E-03    -25.5271E-03     47.7494E-03    -27.3916E-03     52.6045E-03    -25.4003E-03     47.7108E-03
            1898     7.89789E-03     29.6786E-03    -12.3587E+06    -82.9106E+06    -1.08404E+06     1.18379E+06    -26.9620E-03     52.3602E-03    -25.3983E-03     42.4373E-03    -26.9160E-03     51.9792E-03    -25.2655E-03     42.4129E-03
            1899     7.02128E-03     29.6392E-03    -13.7913E+06    -89.2098E+06    -2.28138E+06     1.17039E+06    -26.5306E-03     51.8081E-03    -25.2776E-03     37.2550E-03    -26.4761E-03     51.3946E-03    -25.1396E-03     37.2400E-03
            1900     6.14430E-03     29.6048E-03    -15.4536E+06    -94.6436E+06    -5.01121E+06     989.969E+03    -26.1264E-03     51.2852E-03    -25.1588E-03     32.2077E-03    -26.0651E-03     50.8476E-03    -25.0242E-03     32.1978E-03
            1901     5.26711E-03     29.5752E-03    -17.2661E+06    -100.670E+06    -8.36095E+06     930.893E+03    -25.7648E-03     50.8151E-03    -25.0503E-03     27.2873E-03    -25.6968E-03     50.3527E-03    -24.9211E-03     27.2823E-03
            1902     4.38963E-03     29.5505E-03    -18.9404E+06    -105.129E+06    -11.7810E+06     882.302E+03    -25.4504E-03     50.4031E-03    -24.9526E-03     22.5109E-03    -25.3779E-03     49.9243E-03    -24.8317E-03     22.5097E-03
            1903     3.51198E-03     29.5303E-03    -20.3874E+06    -107.068E+06    -15.5338E+06     739.477E+03    -25.1872E-03     50.0509E-03    -24.8637E-03     17.8696E-03    -25.1127E-03     49.5689E-03    -24.7565E-03     17.8700E-03
            1904     2.63415E-03     29.5147E-03    -21.5926E+06    -108.835E+06    -18.8116E+06     592.733E+03    -24.9749E-03     49.7669E-03    -24.7921E-03     13.3286E-03    -24.8984E-03     49.2820E-03    -24.6970E-03     13.3300E-03
            1905     1.75616E-03     29.5035E-03    -22.4501E+06    -110.052E+06    -21.1807E+06     416.792E+03    -24.8218E-03     49.5625E-03    -24.7407E-03     8.93237E-03    -24.7441E-03     49.0758E-03    -24.6545E-03     8.93374E-03
            1906     878.100E-06     29.4968E-03    -22.9415E+06    -110.799E+06    -22.6420E+06     229.396E+03    -24.7270E-03     49.4418E-03    -24.7148E-03     4.84769E-03    -24.6483E-03     48.9541E-03    -24.6341E-03     4.84854E-03
            1907     16.6557E-03     29.7087E-03    -4.83247E+06     165.979E+06     83.8018E+06     226.982E+03    -39.1908E-03     65.9033E-03    -26.7125E-03     258.426E-03    -47.8052E-03     74.8467E-03    -26.5271E-03     263.091E-03
            1908     15.7771E-03     29.4039E-03    -8.93994E+06     124.608E+06     26.3678E+06     685.176E+03    -40.9459E-03     67.3364E-03    -26.3905E-03     259.451E-03    -47.2881E-03     74.0126E-03    -26.4263E-03     260.432E-03
            1909     14.9036E-03     29.2064E-03    -9.52047E+06     63.3792E+06    -12.5894E+06     771.894E+03    -34.5281E-03     60.6890E-03    -26.1609E-03     156.158E-03    -35.9290E-03     62.3176E-03    -26.3019E-03     155.905E-03
            1910     14.0271E-03     29.1034E-03    -7.96103E+06     7.60435E+06    -17.5798E+06     560.576E+03    -30.2611E-03     56.3329E-03    -26.0718E-03     91.2880E-03    -30.6221E-03     56.7437E-03    -26.1592E-03     91.0642E-03
            1911     13.1534E-03     29.0314E-03    -8.22086E+06    -23.7512E+06    -12.1867E+06     596.030E+03    -29.4865E-03     55.4941E-03    -26.0076E-03     77.2904E-03    -29.6521E-03     55.5815E-03    -26.0222E-03     77.1145E-03
            1912     12.2777E-03     28.9544E-03    -8.70871E+06    -37.4391E+06    -5.74579E+06     820.137E+03    -29.4995E-03     55.4110E-03    -25.9115E-03     74.5472E-03    -29.5988E-03     55.3631E-03    -25.8733E-03     74.4102E-03
            1913     11.4032E-03     28.8866E-03    -9.10516E+06    -51.7306E+06    -3.95972E+06     1.08082E+06    -29.0148E-03     54.7904E-03    -25.7756E-03     64.9862E-03    -29.0536E-03     54.6247E-03    -25.7072E-03     64.8854E-03
            1914     10.5276E-03     28.8275E-03    -9.77493E+06    -65.8039E+06    -4.93861E+06     1.23983E+06    -28.4493E-03     54.0716E-03    -25.6223E-03     57.9394E-03    -28.4430E-03     53.8114E-03    -25.5374E-03     57.8675E-03
            1915     9.65203E-03     28.7731E-03    -10.5046E+06    -73.6079E+06    -2.67850E+06     1.10196E+06    -27.9355E-03     53.4151E-03    -25.4796E-03     52.4854E-03    -27.9088E-03     53.0976E-03    -25.3710E-03     52.4323E-03
            1916     8.77593E-03     28.7243E-03    -11.5534E+06    -77.8605E+06    -1.15821E+06     1.13134E+06    -27.4018E-03     52.7358E-03    -25.3340E-03     47.0145E-03    -27.3657E-03     52.3857E-03    -25.2101E-03     46.9778E-03
            1917     7.89958E-03     28.6803E-03    -12.7369E+06    -82.7888E+06    -1.78349E+06     1.24663E+06    -26.8982E-03     52.0851E-03    -25.1869E-03     41.7388E-03    -26.8529E-03     51.7059E-03    -25.0573E-03     41.7159E-03
            1918     7.02282E-03     28.6415E-03    -14.0687E+06    -88.9136E+06    -2.89364E+06     1.21498E+06    -26.4246E-03     51.4736E-03    -25.0489E-03     36.5855E-03    -26.3708E-03     51.0625E-03    -24.9141E-03     36.5716E-03
            1919     6.14582E-03     28.6075E-03    -15.5906E+06    -94.3943E+06    -5.19030E+06     1.25588E+06    -25.9816E-03     50.8977E-03    -24.9161E-03     31.5783E-03    -25.9209E-03     50.4616E-03    -24.7826E-03     31.5723E-03
            1920     5.26844E-03     28.5785E-03    -17.2104E+06    -100.350E+06    -8.38652E+06     1.19988E+06    -25.5823E-03     50.3758E-03    -24.7935E-03     26.7188E-03    -25.5143E-03     49.9148E-03    -24.6650E-03     26.7177E-03
            1921     4.39083E-03     28.5540E-03    -18.8107E+06    -104.748E+06    -11.7952E+06     1.04826E+06    -25.2353E-03     49.9182E-03    -24.6829E-03     22.0219E-03    -25.1625E-03     49.4410E-03    -24.5627E-03     22.0232E-03
            1922     3.51295E-03     28.5342E-03    -20.2848E+06    -106.642E+06    -15.4340E+06     903.670E+03    -24.9396E-03     49.5236E-03    -24.5841E-03     17.4660E-03    -24.8653E-03     49.0435E-03    -24.4772E-03     17.4689E-03
            1923     2.63489E-03     28.5188E-03    -21.4477E+06    -108.349E+06    -18.6329E+06     677.859E+03    -24.7063E-03     49.2109E-03    -24.5047E-03     13.0208E-03    -24.6300E-03     48.7280E-03    -24.4096E-03     13.0235E-03
            1924     1.75669E-03     28.5079E-03    -22.2662E+06    -109.562E+06    -21.0358E+06     444.138E+03    -24.5382E-03     48.9850E-03    -24.4468E-03     8.72752E-03    -24.4605E-03     48.5003E-03    -24.3608E-03     8.72937E-03
            1925     878.365E-06     28.5012E-03    -22.7675E+06    -110.308E+06    -22.4801E+06     279.378E+03    -24.4336E-03     48.8482E-03    -24.4146E-03     4.72372E-03    -24.3550E-03     48.3624E-03    -24.3340E-03     4.72530E-03
            1926     16.6475E-03     28.7061E-03    -4.79010E+06     165.355E+06     82.9582E+06     545.095E+03    -39.3152E-03     66.0765E-03    -26.7613E-03     257.323E-03    -47.8754E-03     74.9662E-03    -26.5794E-03     261.916E-03
            1927     15.7765E-03     28.3989E-03    -8.98323E+06     124.239E+06     25.6913E+06     552.371E+03    -42.3525E-03     68.7453E-03    -26.3928E-03     257.826E-03    -48.6788E-03     75.4062E-03    -26.4315E-03     258.677E-03
            1928     14.9029E-03     28.2046E-03    -9.65186E+06     63.6329E+06    -12.7314E+06     299.844E+03    -34.7572E-03     60.8657E-03    -26.1085E-03     153.970E-03    -36.1466E-03     62.4837E-03    -26.2505E-03     153.700E-03
            1929     14.0302E-03     28.1020E-03    -9.53919E+06     7.26328E+06    -19.3069E+06     453.179E+03    -30.3250E-03     56.3202E-03    -25.9952E-03     90.3033E-03    -30.6846E-03     56.7277E-03    -26.0885E-03     90.0787E-03
            1930     13.1540E-03     28.0308E-03    -8.99249E+06    -23.5042E+06    -13.6146E+06     921.568E+03    -29.9653E-03     55.8701E-03    -25.9048E-03     76.7957E-03    -30.1338E-03     55.9627E-03    -25.9257E-03     76.6202E-03
            1931     12.2801E-03     27.9532E-03    -9.32993E+06    -37.5271E+06    -6.61325E+06     976.539E+03    -29.7693E-03     55.5456E-03    -25.7763E-03     73.6615E-03    -29.8692E-03     55.4983E-03    -25.7414E-03     73.5256E-03
            1932     11.4047E-03     27.8867E-03    -9.71884E+06    -51.9769E+06    -4.68928E+06     1.20936E+06    -29.0287E-03     54.6468E-03    -25.6181E-03     64.1123E-03    -29.0677E-03     54.4803E-03    -25.5521E-03     64.0143E-03
            1933     10.5296E-03     27.8276E-03    -10.1093E+06    -65.5367E+06    -5.31814E+06     1.32204E+06    -28.4860E-03     53.9339E-03    -25.4480E-03     57.1422E-03    -28.4802E-03     53.6751E-03    -25.3649E-03     57.0722E-03
            1934     9.65382E-03     27.7742E-03    -10.6988E+06    -73.3785E+06    -3.00141E+06     1.26022E+06    -27.9338E-03     53.2197E-03    -25.2859E-03     51.6480E-03    -27.9071E-03     52.9033E-03    -25.1790E-03     51.5977E-03
            1935     8.77781E-03     27.7256E-03    -11.5923E+06    -77.8812E+06    -1.51731E+06     1.24403E+06    -27.3703E-03     52.4909E-03    -25.1206E-03     46.1985E-03    -27.3333E-03     52.1407E-03    -24.9985E-03     46.1639E-03
            1936     7.90138E-03     27.6825E-03    -12.7467E+06    -82.6114E+06    -2.03592E+06     1.27539E+06    -26.8285E-03     51.7823E-03    -24.9538E-03     40.9252E-03    -26.7828E-03     51.4039E-03    -24.8257E-03     40.9033E-03
            1937     7.02462E-03     27.6441E-03    -14.1039E+06    -88.7062E+06    -3.20916E+06     1.30601E+06    -26.3042E-03     51.1007E-03    -24.7965E-03     35.8128E-03    -26.2501E-03     50.6909E-03    -24.6635E-03     35.8007E-03
            1938     6.14743E-03     27.6108E-03    -15.5855E+06    -94.2591E+06     -5.3736E+06     1.34819E+06    -25.8180E-03     50.4650E-03    -24.6470E-03     30.8586E-03    -25.7570E-03     50.0297E-03    -24.5146E-03     30.8544E-03
            1939     5.26995E-03     27.5821E-03    -17.1393E+06    -99.9470E+06    -8.33472E+06     1.38025E+06    -25.3820E-03     49.8910E-03    -24.5090E-03     26.0744E-03    -25.3141E-03     49.4317E-03    -24.3809E-03     26.0761E-03
            1940     4.39212E-03     27.5582E-03    -18.7440E+06    -104.279E+06    -11.7070E+06     1.24609E+06    -24.9952E-03     49.3794E-03    -24.3843E-03     21.4646E-03    -24.9228E-03     48.9043E-03    -24.2644E-03     21.4688E-03
            1941     3.51405E-03     27.5386E-03    -20.1413E+06    -106.099E+06    -15.2848E+06     987.252E+03    -24.6635E-03     48.9377E-03    -24.2742E-03     17.0053E-03    -24.5894E-03     48.4598E-03    -24.1676E-03     17.0095E-03
            1942     2.63574E-03     27.5236E-03    -21.2370E+06    -107.808E+06    -18.5015E+06     732.159E+03    -24.4071E-03     48.5934E-03    -24.1863E-03     12.6727E-03    -24.3308E-03     48.1126E-03    -24.0917E-03     12.6763E-03
            1943     1.75724E-03     27.5128E-03     -22.077E+06    -109.021E+06    -20.8754E+06     526.188E+03    -24.2276E-03     48.3487E-03    -24.1210E-03     8.48933E-03    -24.1499E-03     47.8661E-03    -24.0353E-03     8.49239E-03
            1944     878.670E-06     27.5063E-03    -22.6055E+06    -109.754E+06    -22.2961E+06     291.678E+03    -24.1082E-03     48.1884E-03    -24.0803E-03     4.59621E-03    -24.0298E-03     47.7049E-03    -23.9998E-03     4.59803E-03
            1945     16.6535E-03     27.7029E-03    -4.56784E+06     165.235E+06     83.2507E+06     782.199E+03    -40.3285E-03     67.0550E-03    -26.7265E-03     255.594E-03    -48.8024E-03     75.8579E-03    -26.5432E-03     260.057E-03
            1946     15.7792E-03     27.3957E-03    -7.96954E+06     123.660E+06     24.2428E+06     666.247E+03    -42.3683E-03     68.6799E-03    -26.3116E-03     256.161E-03    -48.6108E-03     75.2628E-03    -26.3581E-03     256.962E-03
            1947     14.9061E-03     27.2021E-03    -9.39365E+06     64.7101E+06    -11.0384E+06     1.08219E+06    -34.5702E-03     60.6052E-03    -26.0350E-03     152.414E-03    -35.9393E-03     62.2027E-03    -26.1704E-03     152.154E-03
            1948     14.0292E-03     27.1021E-03    -10.9225E+06     8.61367E+06    -16.4842E+06     1.18573E+06    -30.6551E-03     56.5695E-03    -25.9144E-03     89.8890E-03    -31.0261E-03     56.9801E-03    -25.9935E-03     89.6710E-03
            1949     13.1562E-03     27.0281E-03    -11.2249E+06    -24.2703E+06    -14.7237E+06     581.706E+03    -30.3021E-03     56.0799E-03    -25.7777E-03     76.1462E-03    -30.4778E-03     56.1722E-03    -25.7999E-03     75.9643E-03
            1950     12.2817E-03     26.9530E-03    -10.2150E+06    -37.7580E+06    -6.95963E+06     862.739E+03    -29.8465E-03     55.4706E-03    -25.6241E-03     72.6620E-03    -29.9477E-03     55.4217E-03    -25.5894E-03     72.5255E-03
            1951     11.4068E-03     26.8863E-03    -10.1490E+06    -52.1712E+06    -5.09675E+06     1.06222E+06    -29.0887E-03     54.5342E-03    -25.4455E-03     63.4010E-03    -29.1274E-03     54.3665E-03    -25.3806E-03     63.3022E-03
            1952     10.5315E-03     26.8283E-03    -10.2355E+06    -65.4196E+06    -5.57066E+06     1.19875E+06    -28.5287E-03     53.7834E-03    -25.2546E-03     56.2738E-03    -28.5224E-03     53.5246E-03    -25.1728E-03     56.2032E-03
            1953     9.65592E-03     26.7752E-03    -10.6564E+06    -73.2838E+06    -3.22127E+06     1.31597E+06    -27.9493E-03     53.0195E-03    -25.0702E-03     50.7286E-03    -27.9215E-03     52.7030E-03    -24.9646E-03     50.6800E-03
            1954     8.77987E-03     26.7275E-03    -11.5787E+06    -77.6546E+06    -1.75621E+06     1.35180E+06    -27.3399E-03     52.2216E-03    -24.8817E-03     45.2616E-03    -27.3022E-03     51.8722E-03    -24.7611E-03     45.2293E-03
            1955     7.90345E-03     26.6848E-03    -12.7486E+06    -82.5070E+06    -2.37781E+06     1.35698E+06    -26.7402E-03     51.4327E-03    -24.6925E-03     40.0066E-03    -26.6937E-03     51.0549E-03    -24.5663E-03     39.9866E-03
            1956     7.02656E-03     26.6472E-03    -14.0760E+06    -88.5152E+06    -3.45857E+06     1.42414E+06    -26.1679E-03     50.6829E-03    -24.5149E-03     34.9381E-03    -26.1132E-03     50.2740E-03    -24.3835E-03     34.9283E-03
            1957     6.14929E-03     26.6143E-03    -15.5559E+06    -94.0662E+06    -5.76412E+06     1.45601E+06    -25.6334E-03     49.9791E-03    -24.3457E-03     30.0517E-03    -25.5717E-03     49.5449E-03    -24.2155E-03     30.0495E-03
            1958     5.27160E-03     26.5863E-03    -17.0660E+06    -99.6667E+06    -8.51783E+06     1.49253E+06    -25.1517E-03     49.3432E-03    -24.1915E-03     25.3472E-03    -25.0835E-03     48.8853E-03    -24.0648E-03     25.3509E-03
            1959     4.39360E-03     26.5628E-03    -18.5165E+06    -103.654E+06    -11.5321E+06     1.37597E+06    -24.7241E-03     48.7772E-03    -24.0531E-03     20.8395E-03    -24.6516E-03     48.3045E-03    -23.9336E-03     20.8459E-03
            1960     3.51526E-03     26.5438E-03    -19.8923E+06    -105.476E+06    -15.2066E+06     1.07815E+06    -24.3608E-03     48.2910E-03    -23.9302E-03     16.4945E-03    -24.2864E-03     47.8156E-03    -23.8245E-03     16.5003E-03
            1961     2.63666E-03     26.5290E-03    -21.0799E+06    -107.265E+06    -18.4115E+06     846.997E+03    -24.0784E-03     47.9109E-03    -23.8325E-03     12.2876E-03    -24.0021E-03     47.4324E-03    -23.7385E-03     12.2929E-03
            1962     1.75790E-03     26.5185E-03    -21.9263E+06    -108.412E+06    -20.6671E+06     583.103E+03    -23.8756E-03     47.6363E-03    -23.7607E-03     8.22370E-03    -23.7983E-03     47.1563E-03    -23.6751E-03     8.22766E-03
            1963     878.980E-06     26.5120E-03    -22.4091E+06    -109.129E+06    -22.1132E+06     310.298E+03    -23.7472E-03     47.4621E-03    -23.7148E-03     4.43832E-03    -23.6690E-03     46.9811E-03    -23.6347E-03     4.44047E-03
            1964     16.6531E-03     26.7010E-03    -5.01278E+06     164.845E+06     83.6640E+06     99.4244E+03    -41.1217E-03     67.8085E-03    -26.6868E-03     257.059E-03    -49.6241E-03     76.6357E-03    -26.5002E-03     261.445E-03
            1965     15.7797E-03     26.3912E-03    -7.57255E+06     123.401E+06     24.6806E+06     1.38072E+06    -42.4254E-03     68.6806E-03    -26.2552E-03     257.070E-03    -48.6716E-03     75.2665E-03    -26.2997E-03     257.869E-03
            1966     14.9048E-03     26.2013E-03    -9.17307E+06     63.9840E+06    -12.0402E+06     2.09963E+06    -35.0686E-03     61.0251E-03    -25.9565E-03     151.901E-03    -36.4168E-03     62.6028E-03    -26.0961E-03     151.648E-03
            1967     14.0330E-03     26.0993E-03    -8.84927E+06     10.1367E+06    -15.9068E+06     1.95484E+06    -31.3269E-03     57.1221E-03    -25.7953E-03     89.0621E-03    -31.6889E-03     57.5348E-03    -25.8767E-03     88.8469E-03
            1968     13.1582E-03     26.0272E-03    -8.59848E+06    -23.6067E+06    -13.9281E+06     1.17914E+06    -30.3481E-03     55.9757E-03    -25.6276E-03     75.2774E-03    -30.5088E-03     56.0624E-03    -25.6505E-03     75.1048E-03
            1969     12.2836E-03     25.9520E-03    -9.36019E+06    -38.3087E+06    -7.18761E+06     799.134E+03    -29.8966E-03     55.3540E-03    -25.4574E-03     71.7834E-03    -29.9901E-03     55.2991E-03    -25.4242E-03     71.6474E-03
            1970     11.4089E-03     25.8865E-03    -9.70459E+06    -51.9913E+06    -5.36706E+06     966.794E+03    -29.2539E-03     54.5087E-03    -25.2548E-03     62.4238E-03    -29.2888E-03     54.3402E-03    -25.1922E-03     62.3242E-03
            1971     10.5338E-03     25.8288E-03    -10.1324E+06    -65.5955E+06    -6.01496E+06     1.11833E+06    -28.5950E-03     53.6315E-03    -25.0365E-03     55.2525E-03    -28.5860E-03     53.3711E-03    -24.9568E-03     55.1818E-03
            1972     9.65821E-03     25.7766E-03    -10.6958E+06    -73.1811E+06    -3.63101E+06     1.35254E+06    -27.9625E-03     52.7888E-03    -24.8263E-03     49.6700E-03    -27.9335E-03     52.4726E-03    -24.7229E-03     49.6228E-03
            1973     8.78225E-03     25.7295E-03    -11.5295E+06    -77.5332E+06    -2.03798E+06     1.45147E+06    -27.2930E-03     51.9063E-03    -24.6133E-03     44.2097E-03    -27.2541E-03     51.5572E-03    -24.4943E-03     44.1796E-03
            1974     7.90573E-03     25.6876E-03    -12.6675E+06    -82.3046E+06    -2.69159E+06     1.50120E+06    -26.6324E-03     51.0328E-03    -24.4004E-03     38.9933E-03    -26.5848E-03     50.6558E-03    -24.2761E-03     38.9761E-03
            1975     7.02877E-03     25.6506E-03    -14.0145E+06    -88.4262E+06    -3.82086E+06     1.57591E+06    -26.0070E-03     50.2080E-03    -24.2010E-03     33.9793E-03    -25.9512E-03     49.7996E-03    -24.0716E-03     33.9722E-03
            1976     6.15133E-03     25.6185E-03    -15.5432E+06    -93.7970E+06    -6.05954E+06     1.68925E+06    -25.4205E-03     49.4324E-03    -24.0119E-03     29.1714E-03    -25.3584E-03     48.9997E-03    -23.8837E-03     29.1729E-03
            1977     5.27347E-03     25.5910E-03    -17.0863E+06    -99.2426E+06    -8.89960E+06     1.56944E+06    -24.8888E-03     48.7283E-03    -23.8396E-03     24.5698E-03    -24.8205E-03     48.2729E-03    -23.7154E-03     24.5751E-03
            1978     4.39519E-03     25.5681E-03    -18.4693E+06    -103.091E+06    -11.7617E+06     1.38402E+06    -24.4237E-03     48.1100E-03    -23.6863E-03     20.1663E-03    -24.3514E-03     47.6403E-03    -23.5689E-03     20.1732E-03
            1979     3.51659E-03     25.5495E-03    -19.7808E+06    -104.873E+06    -15.0964E+06     1.24408E+06    -24.0295E-03     47.5807E-03    -23.5512E-03     15.9317E-03    -23.9555E-03     47.1080E-03    -23.4460E-03     15.9400E-03
            1980     2.63771E-03     25.5351E-03    -20.9145E+06    -106.586E+06    -18.1956E+06     949.668E+03    -23.7135E-03     47.1560E-03    -23.4426E-03     11.8574E-03    -23.6377E-03     46.6804E-03    -23.3487E-03     11.8643E-03
            1981     1.75859E-03     25.5248E-03    -21.7210E+06    -107.742E+06    -20.5349E+06     624.447E+03    -23.4830E-03     46.8474E-03    -23.3644E-03     7.93824E-03    -23.4058E-03     46.3702E-03    -23.2794E-03     7.94291E-03
            1982     879.332E-06     25.5186E-03    -22.2191E+06    -108.437E+06    -21.9339E+06     348.333E+03    -23.3514E-03     46.6673E-03    -23.3159E-03     4.29340E-03    -23.2735E-03     46.1893E-03    -23.2362E-03     4.29613E-03
            1983     16.6519E-03     25.6928E-03    -5.31742E+06     163.947E+06     82.4104E+06    -37.0838E+03    -41.3237E-03     68.0080E-03    -26.6842E-03     256.111E-03    -49.7822E-03     76.7905E-03    -26.5022E-03     260.423E-03
            1984     15.7797E-03     25.3901E-03    -8.55999E+06      122.05E+06     23.4125E+06     755.162E+03    -43.1471E-03     69.3634E-03    -26.2163E-03     254.799E-03    -49.3326E-03     75.8839E-03    -26.2638E-03     255.531E-03
            1985     14.9075E-03     25.1967E-03    -9.33948E+06     63.8513E+06    -12.6219E+06     2.15041E+06    -35.7679E-03     61.6317E-03    -25.8637E-03     150.597E-03    -37.1036E-03     63.1975E-03    -26.0059E-03     150.327E-03
            1986     14.0337E-03     25.0973E-03    -9.41788E+06     10.3339E+06    -17.3916E+06     1.99149E+06    -31.6265E-03     57.2840E-03    -25.6575E-03     87.8943E-03    -31.9841E-03     57.6953E-03    -25.7458E-03     87.6769E-03
            1987     13.1602E-03     25.0261E-03    -8.71710E+06    -22.6985E+06    -14.1755E+06     1.55729E+06    -30.5340E-03     56.0009E-03    -25.4669E-03     74.4699E-03    -30.6938E-03     56.0903E-03    -25.4922E-03     74.3021E-03
            1988     12.2859E-03     24.9514E-03    -8.52329E+06    -37.8986E+06    -6.99029E+06     1.26850E+06    -30.0980E-03     55.3690E-03    -25.2711E-03     70.8718E-03    -30.1862E-03     55.3127E-03    -25.2387E-03     70.7421E-03
            1989     11.4114E-03     24.8863E-03    -9.14816E+06    -52.0271E+06    -5.29593E+06     1.20620E+06    -29.3971E-03     54.4360E-03    -25.0390E-03     61.2103E-03    -29.4276E-03     54.2648E-03    -24.9767E-03     61.1145E-03
            1990     10.5364E-03     24.8297E-03    -9.75981E+06    -65.5877E+06    -5.96901E+06     1.36076E+06    -28.6651E-03     53.4564E-03    -24.7912E-03     54.0834E-03    -28.6530E-03     53.1941E-03    -24.7118E-03     54.0169E-03
            1991     9.66089E-03     24.7780E-03    -10.4137E+06    -73.1431E+06    -3.76481E+06     1.42893E+06    -27.9454E-03     52.4984E-03    -24.5530E-03     48.5280E-03    -27.9138E-03     52.1811E-03    -24.4507E-03     48.4830E-03
            1992     8.78484E-03     24.7319E-03    -11.2599E+06    -77.4398E+06    -2.20316E+06     1.54348E+06    -27.2200E-03     51.5344E-03    -24.3144E-03     43.0673E-03    -27.1789E-03     51.1849E-03    -24.1968E-03     43.0396E-03
            1993     7.90830E-03     24.6907E-03    -12.3401E+06    -82.1807E+06    -2.82012E+06     1.67526E+06    -26.5051E-03     50.5823E-03    -24.0772E-03     37.8900E-03    -26.4553E-03     50.2051E-03    -23.9542E-03     37.8760E-03
            1994     7.03120E-03     24.6546E-03    -13.6633E+06    -88.3007E+06    -3.98737E+06     1.82953E+06    -25.8193E-03     49.6741E-03    -23.8548E-03     32.9372E-03    -25.7613E-03     49.2657E-03    -23.7269E-03     32.9343E-03
            1995     6.15359E-03     24.6232E-03    -15.0930E+06    -93.5488E+06    -6.17973E+06     1.91811E+06    -25.1776E-03     48.8228E-03    -23.6451E-03     28.2062E-03    -25.1132E-03     48.3906E-03    -23.5185E-03     28.2113E-03
            1996     5.27547E-03     24.5964E-03    -16.5999E+06    -98.5758E+06    -8.87766E+06     1.83859E+06    -24.5997E-03     48.0542E-03    -23.4545E-03     23.7069E-03    -24.5298E-03     47.6012E-03    -23.3319E-03     23.7162E-03
            1997     4.39696E-03     24.5740E-03    -18.2456E+06    -102.542E+06    -11.8067E+06     1.56535E+06    -24.0935E-03     47.3785E-03    -23.2851E-03     19.4248E-03    -24.0207E-03     46.9112E-03    -23.1689E-03     19.4346E-03
            1998     3.51806E-03     24.5560E-03    -19.6106E+06    -104.248E+06    -15.0894E+06     1.29846E+06    -23.6610E-03     46.7970E-03    -23.1361E-03     15.3267E-03    -23.5870E-03     46.3271E-03    -23.0319E-03     15.3361E-03
            1999     2.63883E-03     24.5420E-03    -20.6530E+06    -105.843E+06    -18.0921E+06     1.06358E+06    -23.3141E-03     46.3306E-03    -23.0165E-03     11.3936E-03    -23.2382E-03     45.8581E-03    -22.9235E-03     11.4022E-03
            2000     1.75936E-03     24.5321E-03    -21.5217E+06    -106.970E+06    -20.3638E+06     747.544E+03    -23.0622E-03     45.9925E-03    -22.9303E-03     7.61888E-03    -22.9854E-03     45.5186E-03    -22.8458E-03     7.62534E-03
            2001     879.705E-06     24.5259E-03    -22.0551E+06    -107.687E+06    -21.7845E+06     384.702E+03    -22.9077E-03     45.7912E-03    -22.8835E-03     4.12776E-03    -22.8303E-03     45.3165E-03    -22.8043E-03     4.13105E-03
            2002     16.6535E-03     24.6895E-03    -5.20639E+06     163.684E+06     82.7266E+06     714.290E+03    -42.1269E-03     68.7715E-03    -26.6447E-03     254.420E-03    -50.4894E-03     77.4567E-03    -26.4608E-03     258.605E-03
            2003     15.7814E-03     24.3843E-03    -9.21826E+06     121.508E+06     23.6831E+06     907.116E+03    -43.6242E-03     69.7560E-03    -26.1317E-03     253.087E-03    -49.7368E-03     76.1985E-03    -26.1761E-03     253.768E-03
            2004     14.9091E-03     24.1943E-03    -10.3850E+06     63.4609E+06    -13.2803E+06     1.48353E+06    -36.0282E-03     61.7689E-03    -25.7408E-03     149.293E-03    -37.3512E-03     63.3189E-03    -25.8841E-03     149.004E-03
            2005     14.0362E-03     24.0948E-03    -9.00844E+06     11.0700E+06    -16.8571E+06     1.81500E+06    -31.7409E-03     57.2539E-03    -25.5130E-03     86.5234E-03    -32.0907E-03     57.6599E-03    -25.6003E-03     86.3040E-03
            2006     13.1624E-03     24.0248E-03    -8.37197E+06    -22.2905E+06    -13.2572E+06     1.33831E+06    -30.8693E-03     56.1659E-03    -25.2966E-03     73.2190E-03    -31.0267E-03     56.2530E-03    -25.3184E-03     73.0466E-03
            2007     12.2886E-03     23.9505E-03    -8.31171E+06    -37.6845E+06    -6.81792E+06     1.45729E+06    -30.3522E-03     55.4135E-03    -25.0613E-03     69.8394E-03    -30.4380E-03     55.3558E-03    -25.0287E-03     69.7121E-03
            2008     11.4142E-03     23.8864E-03    -8.53611E+06    -51.9316E+06    -5.14484E+06     1.61941E+06    -29.5174E-03     54.3130E-03    -24.7956E-03     59.9907E-03    -29.5433E-03     54.1392E-03    -24.7337E-03     59.9013E-03
            2009     10.5393E-03     23.8306E-03    -9.04868E+06    -65.4844E+06    -5.88797E+06     1.65620E+06    -28.7092E-03     53.2269E-03    -24.5177E-03     52.8494E-03    -28.6924E-03     52.9626E-03    -24.4390E-03     52.7880E-03
            2010     9.66379E-03     23.7799E-03    -9.72208E+06    -72.9910E+06    -3.73529E+06     1.73756E+06    -27.9232E-03     52.1740E-03    -24.2508E-03     47.3175E-03    -27.8873E-03     51.8554E-03    -24.1496E-03     47.2780E-03
            2011     8.78775E-03     23.7346E-03    -10.7464E+06    -77.3516E+06    -2.27883E+06     1.78451E+06    -27.1313E-03     51.1164E-03    -23.9851E-03     41.8487E-03    -27.0869E-03     50.7658E-03    -23.8687E-03     41.8254E-03
            2012     7.91110E-03     23.6944E-03    -11.9489E+06    -82.0963E+06    -2.97916E+06     1.92450E+06    -26.3550E-03     50.0769E-03    -23.7219E-03     36.6951E-03    -26.3025E-03     49.6992E-03    -23.6004E-03     36.6855E-03
            2013     7.03387E-03     23.6591E-03    -13.2850E+06    -88.2151E+06    -4.11182E+06     2.13084E+06    -25.6085E-03     49.0841E-03    -23.4757E-03     31.8028E-03    -25.5481E-03     48.6754E-03    -23.3491E-03     31.8048E-03
            2014     6.15605E-03     23.6286E-03    -14.7979E+06    -93.1637E+06    -6.36674E+06     2.23907E+06    -24.9105E-03     48.1539E-03    -23.2434E-03     27.1592E-03    -24.8446E-03     47.7232E-03    -23.1187E-03     27.1693E-03
            2015     5.27772E-03     23.6025E-03    -16.3171E+06    -97.9763E+06    -8.94048E+06     2.14086E+06    -24.2803E-03     47.3136E-03    -23.0333E-03     22.7710E-03    -24.2096E-03     46.8631E-03    -22.9123E-03     22.7849E-03
            2016     4.39889E-03     23.5808E-03    -17.7256E+06    -101.739E+06    -11.6850E+06     1.89715E+06    -23.7247E-03     46.5721E-03    -22.8474E-03     18.6193E-03    -23.6505E-03     46.1077E-03    -22.7326E-03     18.6339E-03
            2017     3.51963E-03     23.5632E-03    -19.1790E+06    -103.535E+06    -15.2080E+06     1.55801E+06    -23.2540E-03     45.9382E-03    -22.6842E-03     14.6640E-03    -23.1786E-03     45.4713E-03    -22.5823E-03     14.6771E-03
            2018     2.64004E-03     23.5498E-03    -20.4015E+06    -105.056E+06    -18.1142E+06     1.25357E+06    -22.8818E-03     45.4359E-03    -22.5541E-03     10.8844E-03    -22.8057E-03     44.9670E-03    -22.4628E-03     10.8958E-03
            2019     1.76019E-03     23.5401E-03    -21.2296E+06    -106.079E+06    -20.2087E+06     909.332E+03    -22.6096E-03     45.0681E-03    -22.4585E-03     7.27832E-03    -22.5328E-03     44.5979E-03    -22.3749E-03     7.28705E-03
            2020     880.160E-06     23.5342E-03    -21.7578E+06    -106.766E+06    -21.5735E+06     546.735E+03    -22.4379E-03     44.8383E-03    -22.4004E-03     3.94505E-03    -22.3607E-03     44.3674E-03    -22.3219E-03     3.95054E-03
            2021     16.6550E-03     23.6844E-03    -5.76898E+06     163.128E+06     83.2131E+06     1.00194E+06    -43.1618E-03     69.7626E-03    -26.6008E-03     253.684E-03    -51.4566E-03     78.3747E-03    -26.4129E-03     257.724E-03
            2022     15.7833E-03     23.3799E-03    -8.93677E+06     122.064E+06     25.6663E+06     1.56340E+06    -44.1983E-03     70.2453E-03    -26.0469E-03     252.697E-03    -50.2755E-03     76.6496E-03    -26.0826E-03     253.326E-03
            2023     14.9111E-03     23.1908E-03    -9.03646E+06     63.1445E+06    -15.8430E+06     819.962E+03    -36.4321E-03     62.0293E-03    -25.5972E-03     147.833E-03    -37.7218E-03     63.5571E-03    -25.7549E-03     147.526E-03
            2024     14.0383E-03     23.0925E-03    -7.70238E+06     10.6625E+06    -20.4082E+06     973.227E+03    -32.0936E-03     57.4230E-03    -25.3294E-03     85.3439E-03    -32.4240E-03     57.8231E-03    -25.4357E-03     85.1122E-03
            2025     13.1650E-03     23.0232E-03    -7.02062E+06    -21.8508E+06    -13.4514E+06     1.86262E+06    -31.1277E-03     56.2229E-03    -25.0952E-03     72.1485E-03    -31.2751E-03     56.3068E-03    -25.1206E-03     71.9830E-03
            2026     12.2914E-03     22.9497E-03    -7.41618E+06    -37.8685E+06    -7.21422E+06     1.87517E+06    -30.5848E-03     55.4112E-03    -24.8264E-03     68.6377E-03    -30.6628E-03     55.3494E-03    -24.7968E-03     68.5162E-03
            2027     11.4172E-03     22.8866E-03    -8.00639E+06    -51.7372E+06    -5.22741E+06     1.97583E+06    -29.6341E-03     54.1626E-03    -24.5284E-03     58.6784E-03    -29.6554E-03     53.9869E-03    -24.4679E-03     58.5950E-03
            2028     10.5424E-03     22.8318E-03    -8.56765E+06    -65.3226E+06    -6.06930E+06     2.07206E+06    -28.7570E-03     52.9753E-03    -24.2183E-03     51.5325E-03    -28.7362E-03     52.7098E-03    -24.1415E-03     51.4780E-03
            2029     9.66699E-03     22.7821E-03    -9.29265E+06    -72.7979E+06    -3.90699E+06     2.11007E+06    -27.9037E-03     51.8242E-03    -23.9205E-03     45.9904E-03    -27.8645E-03     51.5050E-03    -23.8210E-03     45.9571E-03
            2030     8.79090E-03     22.7378E-03    -10.2541E+06    -77.1994E+06    -2.42513E+06     2.20864E+06    -27.0338E-03     50.6589E-03    -23.6251E-03     40.5237E-03    -26.9860E-03     50.3077E-03    -23.5104E-03     40.5073E-03
            2031     7.91417E-03     22.6985E-03    -11.5398E+06    -81.9971E+06    -3.13504E+06     2.36042E+06    -26.1863E-03     49.5207E-03    -23.3345E-03     35.4002E-03    -26.1310E-03     49.1425E-03    -23.2145E-03     35.3974E-03
            2032     7.03676E-03     22.6643E-03    -13.0004E+06    -88.0604E+06    -4.33390E+06     2.53715E+06    -25.3759E-03     48.4383E-03    -23.0624E-03     30.5704E-03    -25.3136E-03     48.0298E-03    -22.9375E-03     30.5786E-03
            2033     6.15874E-03     22.6345E-03    -14.4505E+06    -92.7360E+06    -6.58553E+06     2.62757E+06    -24.6156E-03     47.4218E-03    -22.8062E-03     26.0266E-03    -24.5480E-03     46.9927E-03    -22.6837E-03     26.0426E-03
            2034     5.28012E-03     22.6094E-03    -15.9225E+06    -97.2614E+06    -9.31483E+06     2.51587E+06    -23.9275E-03     46.5018E-03    -22.5744E-03     21.7632E-03    -23.8551E-03     46.0547E-03    -22.4568E-03     21.7827E-03
            2035     4.40097E-03     22.5883E-03    -17.4955E+06    -100.946E+06    -11.8595E+06     2.27914E+06    -23.3222E-03     45.6946E-03    -22.3723E-03     17.7483E-03    -23.2476E-03     45.2339E-03    -22.2599E-03     17.7684E-03
            2036     3.52136E-03     22.5714E-03    -18.8871E+06    -102.594E+06    -15.0508E+06     1.98740E+06    -22.8126E-03     45.0088E-03    -22.1962E-03     13.9452E-03    -22.7373E-03     44.5458E-03    -22.0953E-03     13.9642E-03
            2037     2.64137E-03     22.5584E-03    -20.0199E+06    -104.108E+06    -18.0543E+06     1.55074E+06    -22.4104E-03     44.4645E-03    -22.0541E-03     10.3349E-03    -22.3338E-03     43.9996E-03    -21.9644E-03     10.3504E-03
            2038     1.76107E-03     22.5492E-03    -20.8377E+06    -105.048E+06    -20.0879E+06     1.15034E+06    -22.1165E-03     44.0662E-03    -21.9498E-03     6.89785E-03    -22.0394E-03     43.6005E-03    -21.8677E-03     6.90989E-03
            2039     880.578E-06     22.5434E-03    -21.2994E+06    -105.513E+06    -21.1463E+06     711.845E+03    -21.9409E-03     43.8152E-03    -21.8742E-03     3.73780E-03    -21.8638E-03     43.3493E-03    -21.7961E-03     3.74553E-03
            2040     16.6542E-03     22.6776E-03    -5.23828E+06     162.416E+06     82.1994E+06     1.15997E+06    -44.0441E-03     70.6207E-03    -26.5766E-03     252.391E-03    -52.2547E-03     79.1509E-03    -26.3935E-03     256.292E-03
            2041     15.7838E-03     22.3741E-03    -8.24965E+06     122.496E+06     26.6698E+06     1.26425E+06    -45.2155E-03     71.1861E-03    -25.9706E-03     250.929E-03    -51.2278E-03     77.5267E-03    -26.0029E-03     251.468E-03
            2042     14.9131E-03     22.1867E-03     -8.5943E+06     63.8071E+06    -14.2365E+06     930.054E+03    -37.0167E-03     62.4810E-03    -25.4644E-03     145.748E-03    -38.2813E-03     63.9830E-03    -25.6156E-03     145.428E-03
            2043     14.0410E-03     22.0902E-03    -8.60779E+06     9.73732E+06    -21.3111E+06     1.11681E+06    -32.4559E-03     57.6000E-03    -25.1441E-03     83.7076E-03    -32.7796E-03     57.9896E-03    -25.2523E-03     83.4762E-03
            2044     13.1679E-03     22.0215E-03    -8.52678E+06    -22.1040E+06    -14.3552E+06     1.74426E+06    -31.3669E-03     56.2407E-03    -24.8738E-03     70.9608E-03    -31.5161E-03     56.3228E-03    -24.9011E-03     70.7942E-03
            2045     12.2946E-03     21.9489E-03    -8.03406E+06    -37.5693E+06    -7.82422E+06     2.05104E+06    -30.7676E-03     55.3381E-03    -24.5704E-03     67.3086E-03    -30.8454E-03     55.2766E-03    -24.5434E-03     67.1905E-03
            2046     11.4205E-03     21.8869E-03    -8.09641E+06    -51.8806E+06    -5.68825E+06     2.20161E+06    -29.7662E-03     54.0043E-03    -24.2381E-03     57.2131E-03    -29.7847E-03     53.8264E-03    -24.1796E-03     57.1343E-03
            2047     10.5458E-03     21.8332E-03    -8.41449E+06    -65.0479E+06    -6.32323E+06     2.46317E+06    -28.8130E-03     52.7061E-03    -23.8930E-03     50.0747E-03    -28.7897E-03     52.4404E-03    -23.8181E-03     50.0268E-03
            2048     9.67044E-03     21.7846E-03    -9.00084E+06    -72.6388E+06    -4.18580E+06     2.51918E+06    -27.8791E-03     51.4403E-03    -23.5612E-03     44.5176E-03    -27.8371E-03     51.1206E-03    -23.4637E-03     44.4911E-03
            2049     8.79434E-03     21.7414E-03    -9.96577E+06    -76.9982E+06    -2.77743E+06     2.64252E+06    -26.9217E-03     50.1552E-03    -23.2336E-03     39.0716E-03    -26.8713E-03     49.8042E-03    -23.1213E-03     39.0623E-03
            2050     7.91748E-03     21.7033E-03    -11.1338E+06    -81.9436E+06    -3.49636E+06     2.88439E+06    -25.9994E-03     48.9129E-03    -22.9135E-03     33.9982E-03    -25.9410E-03     48.5342E-03    -22.7961E-03     34.0034E-03
            2051     7.03992E-03     21.6700E-03    -12.5312E+06    -87.7355E+06    -4.62349E+06     3.10956E+06    -25.1190E-03     47.7332E-03    -22.6142E-03     29.2405E-03    -25.0539E-03     47.3256E-03    -22.4920E-03     29.2573E-03
            2052     6.16165E-03     21.6414E-03    -14.1201E+06    -92.2446E+06    -7.09607E+06     3.13963E+06    -24.2918E-03     46.6243E-03    -22.3324E-03     24.8028E-03    -24.2222E-03     46.1976E-03    -22.2137E-03     24.8263E-03
            2053     5.28273E-03     21.6170E-03    -15.6957E+06    -96.4810E+06    -9.78294E+06     3.08825E+06    -23.5446E-03     45.6236E-03    -22.0790E-03     20.6673E-03    -23.4713E-03     45.1804E-03    -21.9653E-03     20.6949E-03
            2054     4.40322E-03     21.5968E-03    -17.1605E+06    -99.9195E+06    -12.0313E+06     2.76056E+06    -22.8910E-03     44.7502E-03    -21.8592E-03     16.8015E-03    -22.8159E-03     44.2943E-03    -21.7495E-03     16.8284E-03
            2055     3.52321E-03     21.5805E-03    -18.4887E+06    -101.588E+06    -14.9207E+06     2.31808E+06    -22.3378E-03     44.0063E-03    -21.6686E-03     13.1639E-03    -22.2620E-03     43.5476E-03    -21.5691E-03     13.1877E-03
            2056     2.64278E-03     21.5681E-03    -19.6052E+06    -102.926E+06    -17.6836E+06     1.95513E+06    -21.9002E-03     43.4152E-03    -21.5150E-03     9.73363E-03    -21.8237E-03     42.9550E-03    -21.4257E-03     9.75469E-03
            2057     1.76205E-03     21.5591E-03    -20.4241E+06    -103.717E+06    -19.5193E+06     1.37438E+06    -21.5839E-03     42.9854E-03    -21.4016E-03     6.48359E-03    -21.5075E-03     42.5249E-03    -21.3192E-03     6.49873E-03
            2058     881.105E-06     21.5538E-03    -20.8123E+06    -104.045E+06    -20.5648E+06     736.595E+03    -21.3908E-03     42.7080E-03    -21.3172E-03     3.50003E-03    -21.3143E-03     42.2479E-03    -21.2390E-03     3.50818E-03
            2059     16.6547E-03     21.6689E-03    -4.72647E+06     161.805E+06     81.4761E+06     731.538E+03    -45.1675E-03     71.6949E-03    -26.5274E-03     249.942E-03    -53.2375E-03     80.0863E-03    -26.3478E-03     253.636E-03
            2060     15.7863E-03     21.3676E-03    -7.60785E+06     122.776E+06     27.1431E+06     1.24478E+06    -45.8253E-03     71.6866E-03    -25.8613E-03     247.924E-03    -51.7238E-03     77.9152E-03    -25.8926E-03     248.384E-03
            2061     14.9157E-03     21.1823E-03    -9.02732E+06     63.8383E+06    -14.4037E+06     1.77169E+06    -37.4124E-03     62.7173E-03    -25.3049E-03     143.425E-03    -38.6469E-03     64.1883E-03    -25.4564E-03     143.106E-03
            2062     14.0438E-03     21.0875E-03    -8.98333E+06     9.72931E+06    -22.5303E+06     1.81711E+06    -32.8238E-03     57.7629E-03    -24.9390E-03     82.1201E-03    -33.1382E-03     58.1453E-03    -25.0528E-03     81.8966E-03
            2063     13.1712E-03     21.0200E-03    -8.07882E+06    -22.2522E+06    -14.9393E+06     1.67193E+06    -31.6725E-03     56.3047E-03    -24.6322E-03     69.8172E-03    -31.8143E-03     56.3821E-03    -24.6629E-03     69.6497E-03
            2064     12.2978E-03     20.9481E-03    -7.96657E+06    -37.5907E+06    -8.39936E+06     1.94608E+06    -30.9891E-03     55.2797E-03    -24.2907E-03     65.8706E-03    -31.0623E-03     55.2157E-03    -24.2666E-03     65.7523E-03
            2065     11.4241E-03     20.8874E-03    -8.16594E+06    -51.8806E+06    -6.31947E+06     2.33676E+06    -29.9052E-03     53.8249E-03    -23.9197E-03     55.5346E-03    -29.9206E-03     53.6455E-03    -23.8642E-03     55.4591E-03
            2066     10.5495E-03     20.8348E-03    -8.40592E+06    -65.0296E+06    -6.94974E+06     2.60053E+06    -28.8579E-03     52.3950E-03    -23.5371E-03     48.4489E-03    -28.8319E-03     52.1285E-03    -23.4653E-03     48.4046E-03
            2067     9.67422E-03     20.7874E-03    -8.80592E+06    -72.4549E+06    -4.60613E+06     2.90957E+06    -27.8300E-03     51.0005E-03    -23.1705E-03     42.8924E-03    -27.7853E-03     50.6807E-03    -23.0757E-03     42.8727E-03
            2068     8.79804E-03     20.7455E-03    -9.66666E+06    -76.8629E+06    -3.24101E+06     3.11278E+06    -26.7911E-03     49.6008E-03    -22.8097E-03     37.4894E-03    -26.7379E-03     49.2498E-03    -22.7004E-03     37.4877E-03
            2069     7.92108E-03     20.7086E-03    -10.7904E+06    -81.8300E+06    -4.06430E+06     3.36080E+06    -25.7881E-03     48.2466E-03    -22.4585E-03     32.4797E-03    -25.7267E-03     47.8681E-03    -22.3445E-03     32.4925E-03
            2070     7.04330E-03     20.6765E-03    -11.9428E+06    -87.4045E+06    -5.03623E+06     3.60101E+06    -24.8339E-03     46.9651E-03    -22.1313E-03     27.8090E-03    -24.7652E-03     46.5585E-03    -22.0124E-03     27.8333E-03
            2071     6.16477E-03     20.6489E-03    -13.2411E+06    -91.7257E+06    -6.56441E+06     3.81995E+06    -23.9436E-03     45.7716E-03    -21.8280E-03     23.4829E-03    -23.8708E-03     45.3452E-03    -21.7086E-03     23.5161E-03
            2072     5.28552E-03     20.6256E-03    -14.7665E+06    -95.5714E+06    -8.98020E+06     3.76025E+06    -23.1366E-03     44.6888E-03    -21.5522E-03     19.4896E-03    -23.0609E-03     44.2475E-03    -21.4371E-03     19.5266E-03
            2073     4.40565E-03     20.6062E-03    -16.3429E+06    -98.5998E+06    -11.8443E+06     3.36105E+06    -22.4280E-03     43.7367E-03    -21.3087E-03     15.7883E-03    -22.3508E-03     43.2858E-03    -21.2013E-03     15.8236E-03
            2074     3.52522E-03     20.5907E-03    -17.8555E+06    -100.420E+06    -14.6955E+06     2.88698E+06    -21.8321E-03     42.9337E-03    -21.1015E-03     12.3284E-03    -21.7552E-03     42.4794E-03    -21.0035E-03     12.3599E-03
            2075     2.64434E-03     20.5788E-03    -19.0422E+06    -101.399E+06    -16.8945E+06     2.27031E+06    -21.3544E-03     42.2903E-03    -20.9359E-03     9.08891E-03    -21.2785E-03     41.8358E-03    -20.8457E-03     9.11434E-03
            2076     1.76308E-03     20.5704E-03    -19.8200E+06    -102.090E+06    -18.6616E+06     1.48805E+06    -21.0049E-03     41.8179E-03    -20.8130E-03     6.04599E-03    -20.9290E-03     41.3634E-03    -20.7296E-03     6.06279E-03
            2077     881.606E-06     20.5651E-03    -20.3615E+06    -102.534E+06    -20.0191E+06     710.721E+03    -20.7905E-03     41.5211E-03    -20.7306E-03     3.25018E-03    -20.7146E-03     41.0671E-03    -20.6525E-03     3.25811E-03
            2078     16.6577E-03     20.6602E-03    -5.08573E+06     161.241E+06     81.8159E+06     400.261E+03    -46.4856E-03     72.9619E-03    -26.4763E-03     248.676E-03    -54.4372E-03     81.2306E-03    -26.2936E-03     252.160E-03
            2079     15.7882E-03     20.3609E-03    -8.21739E+06     121.767E+06     26.5451E+06     1.63628E+06    -46.5742E-03     72.3166E-03    -25.7425E-03     246.175E-03    -52.3717E-03     78.4404E-03    -25.7744E-03     246.551E-03
            2080     14.9181E-03     20.1775E-03    -9.15955E+06     64.0786E+06    -15.4383E+06     2.23022E+06    -37.9212E-03     63.0520E-03    -25.1308E-03     141.135E-03    -39.1223E-03     64.4929E-03    -25.2876E-03     140.809E-03
            2081     14.0467E-03     20.0847E-03    -8.52959E+06     10.7190E+06    -22.7912E+06     1.86127E+06    -33.2506E-03     57.9715E-03    -24.7209E-03     80.2420E-03    -33.5537E-03     58.3485E-03    -24.8380E-03     80.0175E-03
            2082     13.1743E-03     20.0181E-03    -7.94817E+06    -22.4062E+06    -15.7560E+06     1.70715E+06    -32.0904E-03     56.4573E-03    -24.3669E-03     68.2183E-03    -32.2257E-03     56.5306E-03    -24.4017E-03     68.0507E-03
            2083     12.3018E-03     19.9473E-03    -7.67617E+06    -37.8779E+06    -8.95248E+06     2.08254E+06    -31.2350E-03     55.2159E-03    -23.9808E-03     64.0795E-03    -31.3020E-03     55.1472E-03    -23.9595E-03     63.9642E-03
            2084     11.4281E-03     19.8880E-03    -7.79582E+06    -51.9168E+06    -6.67932E+06     2.51343E+06    -30.0002E-03     53.5700E-03    -23.5698E-03     53.6829E-03    -30.0104E-03     53.3876E-03    -23.5166E-03     53.6117E-03
            2085     10.5537E-03     19.8368E-03    -8.10787E+06    -65.0501E+06    -7.47712E+06     2.84692E+06    -28.8676E-03     52.0171E-03    -23.1495E-03     46.6691E-03    -28.8374E-03     51.7489E-03    -23.0808E-03     46.6300E-03
            2086     9.67827E-03     19.7908E-03    -8.57718E+06    -72.4652E+06    -5.13123E+06     3.17037E+06    -27.7527E-03     50.5006E-03    -22.7478E-03     41.1511E-03    -27.7048E-03     50.1798E-03    -22.6560E-03     41.1366E-03
            2087     8.80206E-03     19.7502E-03    -9.25276E+06    -76.7442E+06    -3.56812E+06     3.55358E+06    -26.6335E-03     48.9876E-03    -22.3541E-03     35.7851E-03    -26.5768E-03     48.6360E-03    -22.2472E-03     35.7907E-03
            2088     7.92492E-03     19.7146E-03    -10.2512E+06    -81.6717E+06    -4.39534E+06     3.88132E+06    -25.5484E-03     47.5198E-03    -21.9714E-03     30.8528E-03    -25.4833E-03     47.1412E-03    -21.8601E-03     30.8738E-03
            2089     7.04694E-03     19.6837E-03    -11.5635E+06    -87.0684E+06    -5.38243E+06     4.18790E+06    -24.5206E-03     46.1362E-03    -21.6155E-03     26.2877E-03    -24.4496E-03     45.7306E-03    -21.4994E-03     26.3207E-03
            2090     6.16811E-03     19.6574E-03    -12.9601E+06    -91.1947E+06    -6.91848E+06     4.35308E+06    -23.5657E-03     44.8514E-03    -21.2857E-03     22.0865E-03    -23.4914E-03     44.4275E-03    -21.1693E-03     22.1276E-03
            2091     5.28853E-03     19.6350E-03    -14.2729E+06    -94.5593E+06    -8.95745E+06     4.38353E+06    -22.6977E-03     43.6845E-03    -20.9868E-03     18.2377E-03    -22.6209E-03     43.2473E-03    -20.8738E-03     18.2835E-03
            2092     4.40823E-03     19.6167E-03    -15.7455E+06    -97.2178E+06    -11.3555E+06     4.14725E+06    -21.9348E-03     42.6583E-03    -20.7236E-03     14.7058E-03    -21.8572E-03     42.2126E-03    -20.6165E-03     14.7518E-03
            2093     3.52735E-03     19.6019E-03    -17.0868E+06    -98.6859E+06    -13.9980E+06     3.44330E+06    -21.2884E-03     41.7870E-03    -20.4986E-03     11.4367E-03    -21.2111E-03     41.3392E-03    -20.4007E-03     11.4758E-03
            2094     2.64597E-03     19.5907E-03    -18.0850E+06    -99.5700E+06    -16.0878E+06     2.53363E+06    -20.7693E-03     41.0886E-03    -20.3194E-03     8.41501E-03    -20.6923E-03     40.6406E-03    -20.2292E-03     8.44416E-03
            2095     1.76422E-03     19.5826E-03    -18.9365E+06    -100.280E+06    -17.9391E+06     1.67491E+06    -20.3907E-03     40.5784E-03    -20.1877E-03     5.58837E-03    -20.3141E-03     40.1306E-03    -20.1046E-03     5.60779E-03
            2096     882.171E-06     19.5778E-03    -19.5307E+06    -100.902E+06    -19.4207E+06     877.436E+03    -20.1499E-03     40.2651E-03    -20.1152E-03     3.00051E-03    -20.0732E-03     39.8172E-03    -20.0376E-03     3.01069E-03
            2097     16.6555E-03     19.6491E-03    -5.69843E+06     160.364E+06     82.0728E+06     587.155E+03    -47.5488E-03     74.0085E-03    -26.4597E-03     247.073E-03    -55.3817E-03     82.1525E-03    -26.2736E-03     250.380E-03
            2098     15.7893E-03     19.3522E-03    -9.11646E+06     120.615E+06     26.9661E+06     1.34328E+06    -47.8408E-03     73.4928E-03    -25.6520E-03     243.175E-03    -53.5233E-03     79.4930E-03    -25.6788E-03     243.432E-03
            2099     14.9211E-03     19.1725E-03    -9.62250E+06     64.3047E+06    -16.1683E+06     1.81682E+06    -38.8486E-03     63.7980E-03    -24.9495E-03     138.012E-03    -40.0136E-03     65.2042E-03    -25.1096E-03     137.659E-03
            2100     14.0501E-03     19.0816E-03    -8.41920E+06     11.5449E+06    -23.6931E+06     1.76089E+06    -33.8931E-03     58.3615E-03    -24.4684E-03     77.8121E-03    -34.1845E-03     58.7328E-03    -24.5914E-03     77.5829E-03
            2101     13.1786E-03     19.0160E-03    -7.48531E+06    -22.4188E+06    -16.4655E+06     1.76590E+06    -32.4107E-03     56.4737E-03    -24.0630E-03     66.2147E-03    -32.5369E-03     56.5416E-03    -24.1020E-03     66.0486E-03
            2102     12.3059E-03     18.9468E-03    -7.32561E+06    -38.2669E+06     -9.7254E+06     2.28866E+06    -31.3973E-03     55.0319E-03    -23.6347E-03     62.1386E-03    -31.4569E-03     54.9580E-03    -23.6172E-03     62.0281E-03
            2103     11.4325E-03     18.8889E-03    -7.59866E+06    -52.0696E+06    -7.19949E+06     2.85143E+06    -30.0722E-03     53.2576E-03    -23.1855E-03     51.6777E-03    -30.0774E-03     53.0720E-03    -23.1349E-03     51.6133E-03
            2104     10.5580E-03     18.8392E-03    -7.96281E+06    -64.9321E+06    -7.92495E+06     3.15974E+06    -28.8391E-03     51.5668E-03    -22.7277E-03     44.7096E-03    -28.8056E-03     51.2976E-03    -22.6617E-03     44.6768E-03
            2105     9.68268E-03     18.7946E-03    -8.23793E+06    -72.4837E+06    -5.57345E+06     3.38971E+06    -27.6477E-03     49.9380E-03    -22.2903E-03     39.2144E-03    -27.5959E-03     49.6159E-03    -22.2011E-03     39.2048E-03
            2106     8.80633E-03     18.7555E-03    -8.77931E+06    -76.8392E+06    -3.84187E+06     3.84465E+06    -26.4402E-03     48.3036E-03    -21.8634E-03     33.8942E-03    -26.3795E-03     47.9502E-03    -21.7585E-03     33.9054E-03
            2107     7.92904E-03     18.7213E-03    -9.65663E+06    -81.6258E+06    -4.50846E+06     4.47336E+06    -25.2773E-03     46.7269E-03    -21.4496E-03     29.0462E-03    -25.2083E-03     46.3470E-03    -21.3398E-03     29.0763E-03
            2108     7.05077E-03     18.6919E-03    -10.7819E+06    -86.6605E+06    -5.50773E+06     4.90146E+06    -24.1799E-03     45.2432E-03    -21.0634E-03     24.5986E-03    -24.1048E-03     44.8382E-03    -20.9496E-03     24.6422E-03
            2109     6.17165E-03     18.6667E-03    -12.1423E+06    -90.5001E+06    -6.86876E+06     5.07233E+06    -23.1570E-03     43.8636E-03    -20.7066E-03     20.5305E-03    -23.0794E-03     43.4415E-03    -20.5921E-03     20.5820E-03
            2110     5.29167E-03     18.6456E-03    -13.7216E+06    -93.5710E+06    -8.75243E+06     5.07584E+06    -22.2249E-03     42.6084E-03    -20.3835E-03     16.8454E-03    -22.1468E-03     42.1748E-03    -20.2717E-03     16.9010E-03
            2111     4.41098E-03     18.6282E-03    -14.9947E+06    -95.4760E+06    -10.8765E+06     4.63862E+06    -21.4025E-03     41.5010E-03    -20.0985E-03     13.5139E-03    -21.3242E-03     41.0621E-03    -19.9927E-03     13.5668E-03
            2112     3.52962E-03     18.6144E-03    -15.9594E+06    -96.6531E+06    -13.3829E+06     3.81780E+06    -20.7032E-03     40.5588E-03    -19.8557E-03     10.4573E-03    -20.6239E-03     40.1186E-03    -19.7593E-03     10.5017E-03
            2113     2.64770E-03     18.6038E-03    -16.8875E+06    -97.5270E+06    -15.4496E+06     2.92541E+06    -20.1453E-03     39.8090E-03    -19.6637E-03     7.66611E-03    -20.0662E-03     39.3685E-03    -19.5750E-03     7.70067E-03
            2114     1.76535E-03     18.5963E-03    -17.6589E+06    -98.2767E+06    -17.0194E+06     1.99953E+06    -19.7466E-03     39.2698E-03    -19.5232E-03     5.07008E-03    -19.6678E-03     38.8288E-03    -19.4402E-03     5.09389E-03
            2115     882.757E-06     18.5917E-03    -18.1367E+06    -98.8638E+06    -18.1102E+06     1.18206E+06    -19.4890E-03     38.9296E-03    -19.4407E-03     2.69876E-03    -19.4101E-03     38.4879E-03    -19.3616E-03     2.71299E-03
            2116     16.6572E-03     18.6364E-03    -5.19372E+06     159.766E+06     82.2768E+06     1.21186E+06    -49.0170E-03     75.4350E-03    -26.4179E-03     244.508E-03    -56.6980E-03     83.4261E-03    -26.2307E-03     247.580E-03
            2117     15.7915E-03     18.3424E-03    -8.79793E+06     120.256E+06     28.3752E+06     1.38591E+06    -49.1387E-03     74.6557E-03    -25.5170E-03     237.831E-03    -54.6520E-03     80.4827E-03    -25.5368E-03     237.955E-03
            2118     14.9237E-03     18.1661E-03    -9.45741E+06     64.6999E+06    -15.7868E+06     1.45885E+06    -39.5936E-03     64.3109E-03    -24.7173E-03     133.045E-03    -40.7038E-03     65.6632E-03    -24.8763E-03     132.671E-03
            2119     14.0546E-03     18.0776E-03    -8.87813E+06     12.0413E+06    -24.8245E+06     1.51995E+06    -34.1932E-03     58.3625E-03    -24.1693E-03     74.7588E-03    -34.4718E-03     58.7244E-03    -24.2980E-03     74.5279E-03
            2120     13.1829E-03     18.0145E-03    -7.79506E+06    -22.7187E+06    -17.4297E+06     1.71721E+06    -32.6204E-03     56.3439E-03    -23.7235E-03     64.3242E-03    -32.7404E-03     56.4061E-03    -23.7664E-03     64.1597E-03
            2121     12.3106E-03     17.9460E-03    -7.36829E+06    -38.9361E+06    -10.4863E+06     2.59688E+06    -31.5895E-03     54.8433E-03    -23.2538E-03     60.0344E-03    -31.6430E-03     54.7629E-03    -23.2391E-03     59.9300E-03
            2122     11.4372E-03     17.8902E-03    -7.57247E+06    -52.0985E+06    -7.43427E+06     3.22156E+06    -30.1298E-03     52.8929E-03    -22.7631E-03     49.3549E-03    -30.1312E-03     52.7041E-03    -22.7138E-03     49.2980E-03
            2123     10.5629E-03     17.8419E-03    -7.67375E+06    -64.6237E+06    -8.05590E+06     3.30897E+06    -28.7875E-03     51.0529E-03    -22.2654E-03     42.5251E-03    -28.7506E-03     50.7828E-03    -22.2009E-03     42.4969E-03
            2124     9.68748E-03     17.7990E-03    -7.84844E+06    -72.5206E+06    -5.90247E+06     3.54234E+06    -27.5011E-03     49.2917E-03    -21.7906E-03     37.0497E-03    -27.4451E-03     48.9676E-03    -21.7036E-03     37.0446E-03
            2125     8.81104E-03     17.7615E-03    -8.31680E+06    -77.1129E+06    -4.13649E+06     4.12105E+06    -26.2101E-03     47.5397E-03    -21.3296E-03     31.8001E-03    -26.1451E-03     47.1835E-03    -21.2264E-03     31.8170E-03
            2126     7.93350E-03     17.7289E-03    -9.03915E+06    -81.8392E+06    -4.56625E+06     4.92441E+06    -24.9749E-03     45.8588E-03    -20.8839E-03     27.0488E-03    -24.9016E-03     45.4762E-03    -20.7750E-03     27.0866E-03
            2127     7.05501E-03     17.7008E-03    -9.93735E+06    -86.1299E+06    -5.48554E+06     5.48912E+06    -23.8009E-03     44.2667E-03    -20.4658E-03     22.7257E-03    -23.7218E-03     43.8625E-03    -20.3539E-03     22.7783E-03
            2128     6.17551E-03     17.6771E-03    -10.9914E+06    -89.8514E+06    -6.15081E+06     5.76158E+06    -22.7029E-03     42.7869E-03    -20.0839E-03     18.8167E-03    -22.6211E-03     42.3649E-03    -19.9685E-03     18.8782E-03
            2129     5.29515E-03     17.6572E-03    -12.1084E+06    -92.2706E+06    -7.66382E+06     5.78331E+06    -21.7020E-03     41.4388E-03    -19.7368E-03     15.3282E-03    -21.6190E-03     41.0075E-03    -19.6238E-03     15.3939E-03
            2130     4.41394E-03     17.6410E-03    -13.4306E+06    -93.4266E+06    -10.2820E+06     5.21090E+06    -20.8158E-03     40.2443E-03    -19.4285E-03     12.2246E-03    -20.7334E-03     39.8124E-03    -19.3250E-03     12.2856E-03
            2131     3.53203E-03     17.6280E-03    -14.7210E+06    -94.5121E+06    -12.7839E+06     4.34212E+06    -20.0731E-03     39.2434E-03    -19.1703E-03     9.41087E-03    -19.9915E-03     38.8111E-03    -19.0758E-03     9.46261E-03
            2132     2.64956E-03     17.6182E-03    -15.6218E+06    -95.2521E+06    -14.6311E+06     3.38234E+06    -19.4856E-03     38.4512E-03    -18.9656E-03     6.86939E-03    -19.4046E-03     38.0190E-03    -18.8780E-03     6.91018E-03
            2133     1.76665E-03     17.6112E-03    -16.2344E+06    -95.9737E+06    -15.7949E+06     2.36140E+06    -19.0597E-03     37.8747E-03    -18.8151E-03     4.53121E-03    -18.9789E-03     37.4414E-03    -18.7313E-03     4.55991E-03
            2134     883.415E-06     17.6070E-03    -16.6378E+06    -96.3849E+06    -16.4631E+06     1.30568E+06    -18.7862E-03     37.5047E-03    -18.7185E-03     2.38276E-03    -18.7057E-03     37.0708E-03    -18.6369E-03     2.39870E-03
            2135     16.6582E-03     17.6219E-03    -4.42937E+06     159.182E+06     81.7276E+06     1.32608E+06    -51.3101E-03     77.6165E-03    -26.3064E-03     241.424E-03    -58.7812E-03     85.4001E-03    -26.1222E-03     244.174E-03
            2136     15.7955E-03     17.3311E-03    -7.59313E+06     120.663E+06     29.4056E+06     1.97453E+06    -50.1825E-03     75.4768E-03    -25.2943E-03     232.302E-03    -55.4774E-03     81.0881E-03    -25.3112E-03     232.300E-03
            2137     14.9301E-03     17.1596E-03    -8.78166E+06     65.1753E+06    -14.9890E+06     1.89801E+06    -39.8324E-03     64.2544E-03    -24.4220E-03     128.275E-03    -40.8815E-03     65.5474E-03    -24.5787E-03     127.902E-03
            2138     14.0591E-03     17.0750E-03    -8.33926E+06     12.6655E+06    -25.5771E+06     1.73207E+06    -34.2646E-03     58.0907E-03    -23.8261E-03     71.8234E-03    -34.5245E-03     58.4403E-03    -23.9603E-03     71.6000E-03
            2139     13.1876E-03     17.0123E-03    -8.09264E+06    -23.1662E+06    -18.5706E+06     1.86938E+06    -32.8394E-03     56.1827E-03    -23.3433E-03     62.1721E-03    -32.9520E-03     56.2382E-03    -23.3908E-03     62.0120E-03
            2140     12.3158E-03     16.9458E-03    -7.79368E+06    -39.9022E+06    -11.8423E+06     2.46400E+06    -31.7714E-03     54.5989E-03    -22.8275E-03     57.5294E-03    -31.8185E-03     54.5112E-03    -22.8176E-03     57.4262E-03
            2141     11.4427E-03     16.8917E-03    -7.18738E+06    -52.0650E+06    -7.89517E+06     3.17092E+06    -30.1513E-03     52.4450E-03    -22.2937E-03     46.8616E-03    -30.1464E-03     52.2528E-03    -22.2473E-03     46.8074E-03
            2142     10.5683E-03     16.8453E-03    -7.12453E+06    -64.3474E+06    -8.07990E+06     3.54546E+06    -28.7115E-03     50.4682E-03    -21.7567E-03     40.1834E-03    -28.6696E-03     50.1961E-03    -21.6935E-03     40.1614E-03
            2143     9.69280E-03     16.8040E-03    -7.48523E+06    -72.5845E+06    -6.18866E+06     3.85519E+06    -27.3297E-03     48.5723E-03    -21.2426E-03     34.7131E-03    -27.2696E-03     48.2460E-03    -21.1574E-03     34.7148E-03
            2144     8.81614E-03     16.7683E-03    -8.07630E+06    -77.3905E+06    -4.39804E+06     4.42136E+06    -25.9505E-03     46.6960E-03    -20.7454E-03     29.5240E-03    -25.8823E-03     46.3371E-03    -20.6435E-03     29.5472E-03
            2145     7.93842E-03     16.7373E-03    -8.73265E+06    -82.1714E+06    -4.62519E+06     5.22122E+06    -24.6263E-03     44.8927E-03    -20.2663E-03     24.8748E-03    -24.5501E-03     44.5072E-03    -20.1577E-03     24.9184E-03
            2146     7.05956E-03     16.7109E-03    -9.51648E+06    -85.7526E+06    -5.65698E+06     5.99814E+06    -23.3591E-03     43.1748E-03    -19.8157E-03     20.7050E-03    -23.2777E-03     42.7716E-03    -19.7059E-03     20.7658E-03
            2147     6.17969E-03     16.6885E-03    -10.4774E+06    -88.9542E+06    -6.73178E+06     6.24711E+06    -22.1758E-03     41.5808E-03    -19.4050E-03     17.0022E-03    -22.0915E-03     41.1631E-03    -19.2945E-03     17.0713E-03
            2148     5.29881E-03     16.6700E-03    -11.4325E+06    -90.9776E+06    -7.87967E+06     6.19925E+06    -21.1043E-03     40.1426E-03    -19.0384E-03     13.7488E-03    -21.0193E-03     39.7169E-03    -18.9293E-03     13.8208E-03
            2149     4.41709E-03     16.6549E-03    -12.3392E+06    -91.3292E+06    -9.64052E+06     5.92129E+06    -20.1673E-03     38.8840E-03    -18.7167E-03     10.8871E-03    -20.0833E-03     38.4599E-03    -18.6146E-03     10.9579E-03
            2150     3.53461E-03     16.6430E-03    -13.3192E+06    -92.0438E+06    -11.7586E+06     5.02005E+06    -19.3893E-03     37.8366E-03    -18.4472E-03     8.34593E-03    -19.3058E-03     37.4131E-03    -18.3533E-03     8.40690E-03
            2151     2.65151E-03     16.6339E-03    -14.2232E+06    -92.7061E+06    -13.4512E+06     3.91017E+06    -18.7779E-03     37.0115E-03    -18.2336E-03     6.07116E-03    -18.6952E-03     36.5883E-03    -18.1458E-03     6.11909E-03
            2152     1.76794E-03     16.6276E-03    -14.8888E+06    -93.2559E+06    -14.6614E+06     2.75229E+06    -18.3247E-03     36.4026E-03    -18.0778E-03     4.00394E-03    -18.2428E-03     35.9792E-03    -17.9943E-03     4.03788E-03
            2153     884.061E-06     16.6236E-03    -15.2251E+06    -93.5469E+06    -15.2917E+06     1.46105E+06    -18.0657E-03     36.0302E-03    -17.9644E-03     2.09009E-03    -17.9841E-03     35.6067E-03    -17.8832E-03     2.10814E-03
            2154     16.6624E-03     16.6049E-03    -4.80101E+06     157.975E+06     80.7721E+06     637.219E+03    -53.8700E-03     80.0237E-03    -26.1537E-03     237.162E-03    -61.0753E-03     87.5389E-03    -25.9719E-03     239.550E-03
            2155     15.8006E-03     16.3194E-03    -7.44921E+06     119.958E+06     29.2341E+06     2.16096E+06    -50.7135E-03     75.7443E-03    -25.0308E-03     226.695E-03    -55.7589E-03     81.1048E-03    -25.0478E-03     226.602E-03
            2156     14.9330E-03     16.1531E-03    -8.32796E+06     66.0623E+06    -14.6562E+06     2.84498E+06    -39.8974E-03     64.0028E-03    -24.1054E-03     123.795E-03    -40.8837E-03     65.2369E-03    -24.2624E-03     123.436E-03
            2157     14.0646E-03     16.0720E-03    -8.46477E+06     13.5881E+06    -26.7273E+06     2.37691E+06    -34.6336E-03     58.0928E-03    -23.4592E-03     69.3112E-03    -34.8801E-03     58.4351E-03    -23.6003E-03     69.0979E-03
            2158     13.1935E-03     16.0107E-03    -8.40828E+06    -23.2355E+06    -20.1879E+06     2.17694E+06    -33.1953E-03     56.1186E-03    -22.9233E-03     60.3346E-03    -33.3006E-03     56.1702E-03    -22.9783E-03     60.1803E-03
            2159     12.3216E-03     15.9456E-03    -7.75179E+06    -40.3804E+06    -13.3822E+06     2.37453E+06    -31.9003E-03     54.2577E-03    -22.3574E-03     55.0196E-03    -31.9385E-03     54.1639E-03    -22.3545E-03     54.9192E-03
            2160     11.4485E-03     15.8938E-03    -7.50263E+06    -52.5745E+06    -9.10936E+06     2.99373E+06    -30.1893E-03     51.9685E-03    -21.7792E-03     44.3184E-03    -30.1794E-03     51.7719E-03    -21.7377E-03     44.2660E-03
            2161     10.5741E-03     15.8491E-03    -7.38659E+06    -64.2961E+06    -8.53768E+06     3.71441E+06    -28.6729E-03     49.8712E-03    -21.1983E-03     37.6347E-03    -28.6290E-03     49.5977E-03    -21.1371E-03     37.6183E-03
            2162     9.69858E-03     15.8099E-03    -7.47608E+06    -72.6577E+06    -6.50375E+06     4.21306E+06    -27.1678E-03     47.8068E-03    -20.6390E-03     32.0860E-03    -27.1051E-03     47.4786E-03    -20.5553E-03     32.0953E-03
            2163     8.82182E-03     15.7758E-03    -8.00013E+06    -77.5891E+06    -4.54226E+06     4.81568E+06    -25.6550E-03     45.7565E-03    -20.1015E-03     26.9635E-03    -25.5846E-03     45.3954E-03    -20.0001E-03     26.9944E-03
            2164     7.94378E-03     15.7467E-03    -8.78967E+06    -82.4102E+06    -4.61320E+06     5.54766E+06    -24.2030E-03     43.7912E-03    -19.5882E-03     22.4547E-03    -24.1258E-03     43.4037E-03    -19.4790E-03     22.5047E-03
            2165     7.06457E-03     15.7220E-03    -9.41878E+06    -85.5434E+06    -5.95269E+06     6.22948E+06    -22.8260E-03     41.9329E-03    -19.1069E-03     18.4838E-03    -22.7434E-03     41.5304E-03    -18.9990E-03     18.5493E-03
            2166     6.18418E-03     15.7013E-03    -9.94662E+06    -87.9128E+06     -6.9359E+06     6.63605E+06    -21.5525E-03     40.2264E-03    -18.6739E-03     15.0287E-03    -21.4664E-03     39.8130E-03    -18.5666E-03     15.1041E-03
            2167     5.30277E-03     15.6842E-03    -10.6822E+06    -89.5941E+06    -7.63866E+06     6.55843E+06    -20.4160E-03     38.7105E-03    -18.2946E-03     12.0631E-03    -20.3294E-03     38.2901E-03    -18.1874E-03     12.1406E-03
            2168     4.42041E-03     15.6703E-03    -11.3235E+06    -89.3342E+06    -9.06899E+06     6.13067E+06    -19.4373E-03     37.4025E-03    -17.9653E-03     9.51206E-03    -19.3517E-03     36.9860E-03    -17.8647E-03     9.58630E-03
            2169     3.53727E-03     15.6594E-03    -11.7917E+06    -89.5115E+06    -10.6938E+06     5.54208E+06    -18.6405E-03     36.3338E-03    -17.6932E-03     7.28593E-03    -18.5545E-03     35.9191E-03    -17.5998E-03     7.35411E-03
            2170     2.65352E-03     15.6511E-03    -12.4477E+06    -89.8603E+06    -12.1688E+06     4.58994E+06    -18.0226E-03     35.5019E-03    -17.4793E-03     5.28674E-03    -17.9371E-03     35.0884E-03    -17.3918E-03     5.34376E-03
            2171     1.76930E-03     15.6453E-03    -13.0906E+06    -90.0601E+06    -13.2284E+06     3.31369E+06    -17.5692E-03     34.8941E-03    -17.3250E-03     3.45847E-03    -17.4849E-03     34.4820E-03    -17.2415E-03     3.49987E-03
            2172     884.691E-06     15.6419E-03    -13.5232E+06    -90.1443E+06    -13.7709E+06     1.92368E+06    -17.3248E-03     34.5277E-03    -17.2029E-03     1.84271E-03    -17.2417E-03     34.1166E-03    -17.1215E-03     1.86684E-03
            2173     16.6649E-03     15.5851E-03    -4.84370E+06     156.862E+06     79.8263E+06     419.010E+03    -56.0031E-03     82.0252E-03    -26.0222E-03     232.365E-03    -62.9138E-03     89.2447E-03    -25.8435E-03     234.419E-03
            2174     15.8042E-03     15.3077E-03    -8.27217E+06     117.896E+06     28.0508E+06     2.15041E+06    -51.5250E-03     76.3173E-03    -24.7922E-03     220.898E-03    -56.3172E-03     81.4178E-03    -24.8109E-03     220.699E-03
            2175     14.9396E-03     15.1469E-03    -9.41273E+06     66.1739E+06    -15.4115E+06     3.28269E+06    -40.3771E-03     64.1721E-03    -23.7951E-03     119.367E-03    -41.3020E-03     65.3436E-03    -23.9544E-03     119.009E-03
            2176     14.0691E-03     15.0689E-03    -8.64898E+06     15.0435E+06    -27.7658E+06     3.09820E+06    -35.2286E-03     58.3101E-03    -23.0815E-03     66.8044E-03    -35.4630E-03     58.6478E-03    -23.2296E-03     66.6011E-03
            2177     13.1989E-03     15.0084E-03    -8.05597E+06    -22.5724E+06    -20.8759E+06     2.60616E+06    -33.7066E-03     56.1884E-03    -22.4818E-03     58.0208E-03    -33.8028E-03     56.2366E-03    -22.5418E-03     57.8737E-03
            2178     12.3277E-03     14.9461E-03    -8.05904E+06    -40.4337E+06    -14.1551E+06     2.68762E+06    -32.1499E-03     54.0048E-03    -21.8549E-03     52.1983E-03    -32.1821E-03     53.9060E-03    -21.8554E-03     52.1060E-03
            2179     11.4547E-03     14.8961E-03    -8.15026E+06    -53.0354E+06    -9.83226E+06     3.06790E+06    -30.3322E-03     51.5518E-03    -21.2196E-03     41.4551E-03    -30.3197E-03     51.3507E-03    -21.1800E-03     41.4075E-03
            2180     10.5806E-03     14.8536E-03    -8.00677E+06    -64.5159E+06    -9.00713E+06     3.57407E+06    -28.6902E-03     49.2718E-03    -20.5816E-03     34.6862E-03    -28.6456E-03     48.9960E-03    -20.5215E-03     34.6714E-03
            2181     9.70513E-03     14.8163E-03    -7.86787E+06    -72.8640E+06    -6.79284E+06     4.24265E+06    -26.9984E-03     46.9676E-03    -19.9692E-03     29.1244E-03    -26.9350E-03     46.6374E-03    -19.8861E-03     29.1373E-03
            2182     8.82814E-03     14.7845E-03    -8.08427E+06     -77.941E+06    -4.49650E+06     5.11361E+06    -25.3041E-03     44.6922E-03    -19.3880E-03     24.1252E-03    -25.2324E-03     44.3281E-03    -19.2858E-03     24.1626E-03
            2183     7.94977E-03     14.7573E-03    -8.62818E+06    -82.2803E+06    -4.06674E+06     5.80855E+06    -23.6930E-03     42.5340E-03    -18.8410E-03     19.7953E-03    -23.6152E-03     42.1453E-03    -18.7295E-03     19.8509E-03
            2184     7.07004E-03     14.7344E-03    -9.24280E+06    -85.2904E+06    -4.86396E+06     6.25644E+06    -22.1882E-03     40.5252E-03    -18.3370E-03     16.0643E-03    -22.1060E-03     40.1216E-03    -18.2243E-03     16.1319E-03
            2185     6.18908E-03     14.7154E-03    -9.74275E+06    -87.0903E+06    -6.05583E+06     6.67179E+06    -20.8250E-03     38.7111E-03    -17.8861E-03     12.8999E-03    -20.7400E-03     38.2999E-03    -17.7759E-03     12.9770E-03
            2186     5.30698E-03     14.6998E-03    -10.0125E+06    -87.8630E+06    -7.27222E+06     6.57663E+06    -19.6317E-03     37.1258E-03    -17.4942E-03     10.2448E-03    -19.5446E-03     36.7123E-03    -17.3886E-03     10.3235E-03
            2187     4.42390E-03     14.6872E-03    -10.2452E+06    -87.4979E+06    -8.70749E+06     6.15575E+06    -18.6263E-03     35.7887E-03    -17.1624E-03     8.00656E-03    -18.5385E-03     35.3791E-03    -17.0642E-03     8.08179E-03
            2188     3.54003E-03     14.6773E-03    -10.5149E+06    -87.2362E+06    -9.95502E+06     5.73924E+06    -17.8181E-03     34.7126E-03    -16.8945E-03     6.09263E-03    -17.7300E-03     34.3064E-03    -16.8026E-03     6.16384E-03
            2189     2.65555E-03     14.6698E-03    -10.6421E+06    -86.8608E+06    -10.6434E+06     5.00265E+06    -17.2049E-03     33.8950E-03    -16.6901E-03     4.40700E-03    -17.1169E-03     33.4917E-03    -16.6020E-03     4.46968E-03
            2190     1.77061E-03     14.6646E-03    -10.7592E+06    -86.4903E+06    -10.9187E+06     3.77006E+06    -16.7775E-03     33.3230E-03    -16.5455E-03     2.88112E-03    -16.6901E-03     32.9220E-03    -16.4591E-03     2.92862E-03
            2191     885.439E-06     14.6615E-03    -10.7923E+06    -86.0214E+06    -10.8418E+06     2.23867E+06    -16.5358E-03     32.9763E-03    -16.4405E-03     1.56924E-03    -16.4493E-03     32.5777E-03    -16.3543E-03     1.59754E-03
            2192     16.6655E-03     14.5632E-03    -4.29674E+06     155.920E+06     79.4647E+06     732.819E+03    -57.8281E-03     83.7626E-03    -25.9345E-03     226.430E-03    -64.4077E-03     90.6506E-03    -25.7570E-03     228.182E-03
            2193     15.8074E-03     14.2932E-03    -8.52109E+06     115.909E+06     27.3003E+06     2.51894E+06    -52.8046E-03     77.3875E-03    -24.5828E-03     212.275E-03    -57.2774E-03     82.1631E-03    -24.6020E-03     211.933E-03
            2194     14.9420E-03     14.1404E-03    -9.95581E+06     65.7785E+06    -15.8716E+06     3.63527E+06    -41.2103E-03     64.6931E-03    -23.4828E-03     113.918E-03    -42.0666E-03     65.7940E-03    -23.6431E-03     113.556E-03
            2195     14.0752E-03     14.0647E-03    -9.45811E+06     16.7202E+06    -28.0998E+06     3.47598E+06    -36.0731E-03     58.7567E-03    -22.6836E-03     63.7271E-03    -36.2987E-03     59.0898E-03    -22.8346E-03     63.5276E-03
            2196     13.2055E-03     14.0066E-03    -8.60832E+06    -21.7309E+06    -21.2613E+06     3.02184E+06    -34.2818E-03     56.2874E-03    -22.0056E-03     55.0016E-03    -34.3726E-03     56.3324E-03    -22.0679E-03     54.8619E-03
            2197     12.3344E-03     13.9464E-03    -8.20135E+06    -40.4220E+06    -14.5110E+06     3.02523E+06    -32.5517E-03     53.8569E-03    -21.3052E-03     48.8969E-03    -32.5773E-03     53.7522E-03    -21.3073E-03     48.8129E-03
            2198     11.4620E-03     13.8990E-03    -8.09886E+06    -52.9498E+06    -9.72140E+06     3.24394E+06    -30.5659E-03     51.1659E-03    -20.6000E-03     38.1765E-03    -30.5493E-03     50.9609E-03    -20.5601E-03     38.1351E-03
            2199     10.5879E-03     13.8585E-03    -8.18666E+06    -64.6797E+06    -8.94470E+06     3.51994E+06    -28.6862E-03     48.5826E-03    -19.8965E-03     31.3897E-03    -28.6395E-03     48.3034E-03    -19.8355E-03     31.3779E-03
            2200     9.71235E-03     13.8238E-03    -8.26458E+06    -73.3125E+06    -6.78394E+06     4.13234E+06    -26.7807E-03     46.0084E-03    -19.2277E-03     25.8723E-03    -26.7167E-03     45.6746E-03    -19.1434E-03     25.8870E-03
            2201     8.83515E-03     13.7941E-03    -8.48250E+06    -78.4596E+06    -4.22262E+06     5.08411E+06    -24.8911E-03     43.4922E-03    -18.6011E-03     21.0450E-03    -24.8197E-03     43.1245E-03    -18.4961E-03     21.0848E-03
            2202     7.95637E-03     13.7692E-03    -8.89093E+06    -81.9277E+06    -3.40725E+06     5.80232E+06    -23.1077E-03     41.1262E-03    -18.0185E-03     16.9253E-03    -23.0318E-03     40.7379E-03    -17.9039E-03     16.9829E-03
            2203     7.07607E-03     13.7483E-03    -9.36317E+06    -84.8177E+06    -3.50368E+06     6.10699E+06    -21.4747E-03     38.9669E-03    -17.4922E-03     13.4476E-03    -21.3953E-03     38.5634E-03    -17.3732E-03     13.5149E-03
            2204     6.19442E-03     13.7311E-03    -9.67526E+06    -86.3136E+06    -4.74811E+06     6.31111E+06    -20.0245E-03     37.0483E-03    -17.0239E-03     10.5648E-03    -19.9419E-03     36.6387E-03    -16.9084E-03     10.6384E-03
            2205     5.31159E-03     13.7170E-03    -9.88985E+06    -86.2110E+06    -6.82816E+06     6.25680E+06    -18.7800E-03     35.3967E-03    -16.6167E-03     8.21735E-03    -18.6951E-03     34.9905E-03    -16.5115E-03     8.29283E-03
            2206     4.42777E-03     13.7057E-03    -9.97422E+06    -85.7810E+06    -8.20974E+06     5.94124E+06    -17.7460E-03     34.0265E-03    -16.2804E-03     6.30024E-03    -17.6600E-03     33.6242E-03    -16.1826E-03     6.37333E-03
            2207     3.54315E-03     13.6969E-03    -9.74618E+06    -84.9829E+06    -8.75230E+06     5.42937E+06    -16.9176E-03     32.9326E-03    -16.0151E-03     4.72979E-03    -16.8306E-03     32.5347E-03    -15.9215E-03     4.79745E-03
            2208     2.65786E-03     13.6902E-03    -9.19572E+06    -83.9461E+06    -8.55299E+06     4.52236E+06    -16.3005E-03     32.1197E-03    -15.8192E-03     3.39732E-03    -16.2125E-03     31.7257E-03    -15.7269E-03     3.45413E-03
            2209     1.77214E-03     13.6854E-03    -8.34544E+06    -82.8803E+06    -8.04485E+06     3.29293E+06    -15.8869E-03     31.5744E-03    -15.6875E-03     2.21102E-03    -15.7969E-03     31.1838E-03    -15.5955E-03     2.25258E-03
            2210     886.077E-06     13.6827E-03    -7.64870E+06    -82.0060E+06    -7.48490E+06     1.87726E+06    -15.7039E-03     31.2740E-03    -15.5702E-03     1.22370E-03    -15.6124E-03     30.8860E-03    -15.4776E-03     1.24745E-03
            2211     16.6667E-03     13.5343E-03    -4.28949E+06     154.668E+06     80.3629E+06     737.222E+03    -59.9543E-03     85.7947E-03    -25.8404E-03     219.953E-03    -66.2078E-03     92.3495E-03    -25.6566E-03     221.392E-03
            2212     15.8118E-03     13.2795E-03    -7.50602E+06     114.206E+06     27.5492E+06     2.78652E+06    -54.1318E-03     78.4733E-03    -24.3415E-03     200.660E-03    -58.1993E-03     82.8408E-03    -24.3585E-03     200.178E-03
            2213     14.9491E-03     13.1325E-03    -8.49172E+06     66.2090E+06    -16.4624E+06     4.52703E+06    -41.9447E-03     65.0671E-03    -23.1224E-03     107.445E-03    -42.7147E-03     66.0902E-03    -23.2884E-03     107.092E-03
            2214     14.0809E-03     13.0602E-03    -8.49911E+06     18.3695E+06    -27.9186E+06     4.39450E+06    -36.7839E-03     59.0298E-03    -22.2459E-03     60.3063E-03    -36.9904E-03     59.3526E-03    -22.3998E-03     60.1203E-03
            2215     13.2121E-03     13.0044E-03    -8.03079E+06    -21.3603E+06    -21.7710E+06     3.40995E+06    -35.0494E-03     56.5328E-03    -21.4834E-03     51.8814E-03    -35.1290E-03     56.5714E-03    -21.5496E-03     51.7477E-03
            2216     12.3420E-03     12.9469E-03    -7.87420E+06    -40.0769E+06    -14.6827E+06     3.44635E+06    -33.0862E-03     53.7828E-03    -20.6967E-03     45.1945E-03    -33.1036E-03     53.6728E-03    -20.7006E-03     45.1198E-03
            2217     11.4698E-03     12.9019E-03    -8.01625E+06    -52.7809E+06    -9.60628E+06     3.61941E+06    -30.7688E-03     50.6822E-03    -19.9134E-03     34.6222E-03    -30.7479E-03     50.4735E-03    -19.8733E-03     34.5899E-03
            2218     10.5960E-03     12.8643E-03    -8.34310E+06    -64.5953E+06    -8.60799E+06     3.81791E+06    -28.6452E-03     47.7881E-03    -19.1429E-03     27.8454E-03    -28.5971E-03     47.5062E-03    -19.0802E-03     27.8413E-03
            2219     9.72034E-03     12.8321E-03    -8.82011E+06    -73.6267E+06    -6.57323E+06     4.27640E+06    -26.4922E-03     44.9090E-03    -18.4168E-03     22.4238E-03    -26.4291E-03     44.5724E-03    -18.3301E-03     22.4437E-03
            2220     8.84285E-03     12.8051E-03    -9.31429E+06    -78.8526E+06    -3.83100E+06     4.91657E+06    -24.4057E-03     42.1506E-03    -17.7450E-03     17.8314E-03    -24.3372E-03     41.7805E-03    -17.6363E-03     17.8717E-03
            2221     7.96357E-03     12.7824E-03    -9.73938E+06    -81.6971E+06    -3.12571E+06     5.53134E+06    -22.4674E-03     39.5918E-03    -17.1244E-03     13.9870E-03    -22.3958E-03     39.2048E-03    -17.0075E-03     14.0432E-03
            2222     7.08270E-03     12.7638E-03    -10.2102E+06    -84.0485E+06    -3.42319E+06     5.76231E+06    -20.7167E-03     37.2851E-03    -16.5684E-03     10.8046E-03    -20.6424E-03     36.8861E-03    -16.4489E-03     10.8689E-03
            2223     6.20039E-03     12.7484E-03    -10.6880E+06    -85.4218E+06    -4.28122E+06     5.71095E+06    -19.1790E-03     35.2605E-03    -16.0815E-03     8.25222E-03    -19.1032E-03     34.8559E-03    -15.9636E-03     8.31915E-03
            2224     5.31680E-03     12.7360E-03    -10.7763E+06    -84.7590E+06    -5.86976E+06     5.51154E+06    -17.8709E-03     33.5326E-03    -15.6616E-03     6.25682E-03    -17.7939E-03     33.1333E-03    -15.5524E-03     6.32336E-03
            2225     4.43217E-03     12.7261E-03    -10.3724E+06    -83.9997E+06    -6.86486E+06     4.98015E+06    -16.7943E-03     32.1118E-03    -15.3175E-03     4.69869E-03    -16.7147E-03     31.7170E-03    -15.2150E-03     4.75983E-03
            2226     3.54666E-03     12.7183E-03    -9.61069E+06    -82.7546E+06    -6.85686E+06     4.16924E+06    -15.9489E-03     30.9980E-03    -15.0491E-03     3.48946E-03    -15.8672E-03     30.6082E-03    -14.9495E-03     3.54116E-03
            2227     2.66052E-03     12.7123E-03    -8.64348E+06    -81.3052E+06    -6.82326E+06     3.15136E+06    -15.3278E-03     30.1761E-03    -14.8483E-03     2.49064E-03    -15.2434E-03     29.7921E-03    -14.7520E-03     2.52993E-03
            2228     1.77389E-03     12.7082E-03    -7.72097E+06    -80.0403E+06    -6.95851E+06     2.04550E+06    -14.9166E-03     29.6251E-03    -14.7086E-03     1.60472E-03    -14.8291E-03     29.2462E-03    -14.6161E-03     1.63028E-03
            2229     887.040E-06     12.7056E-03    -7.01480E+06    -79.0531E+06    -6.77588E+06     1.13599E+06    -14.7133E-03     29.3048E-03    -14.5916E-03     914.612E-06    -14.6239E-03     28.9296E-03    -14.5006E-03     928.850E-06
            2230     16.6695E-03     12.5028E-03    -5.90013E+06     152.862E+06     80.5639E+06     728.887E+03    -62.2282E-03     87.9221E-03    -25.6939E-03     213.521E-03    -68.1335E-03     94.1162E-03    -25.5042E-03     214.620E-03
            2231     15.8167E-03     12.2630E-03    -8.62281E+06     111.896E+06     28.2891E+06     2.16366E+06    -55.2772E-03     79.3319E-03    -24.0547E-03     187.995E-03    -58.9172E-03     83.2579E-03    -24.0630E-03     187.370E-03
            2232     14.9542E-03     12.1244E-03    -8.35134E+06     66.3294E+06    -15.5334E+06     4.27828E+06    -42.5636E-03     65.2886E-03    -22.7250E-03     100.552E-03    -43.2560E-03     66.2325E-03    -22.8867E-03     100.197E-03
            2233     14.0878E-03     12.0562E-03    -8.28787E+06     20.2263E+06    -28.0024E+06     5.04762E+06    -37.4071E-03     59.1713E-03    -21.7642E-03     57.2436E-03    -37.5981E-03     59.4861E-03    -21.9216E-03     57.0712E-03
            2234     13.2196E-03     12.0010E-03    -7.98661E+06    -20.6811E+06    -23.2870E+06     4.30331E+06    -35.9471E-03     56.8560E-03    -20.9088E-03     48.3536E-03    -36.0167E-03     56.8915E-03    -20.9837E-03     48.2327E-03
            2235     12.3504E-03     11.9476E-03    -7.80507E+06    -39.7905E+06    -15.1688E+06     4.17262E+06    -33.6246E-03     53.6555E-03    -20.0309E-03     40.9451E-03    -33.6343E-03     53.5406E-03    -20.0378E-03     40.8839E-03
            2236     11.4785E-03     11.9055E-03    -8.27689E+06    -52.3413E+06    -9.58559E+06     4.27654E+06    -30.9138E-03     50.0821E-03    -19.1682E-03     30.8763E-03    -30.8907E-03     49.8718E-03    -19.1283E-03     30.8575E-03
            2237     10.6047E-03     11.8707E-03    -8.97631E+06    -64.3674E+06    -8.21171E+06     4.43728E+06    -28.4925E-03     46.8270E-03    -18.3346E-03     24.1583E-03    -28.4458E-03     46.5440E-03    -18.2693E-03     24.1664E-03
            2238     9.72891E-03     11.8417E-03    -9.71185E+06    -73.4846E+06    -6.19142E+06     4.62547E+06    -26.0900E-03     43.6466E-03    -17.5566E-03     19.0248E-03    -26.0304E-03     43.3098E-03    -17.4669E-03     19.0525E-03
            2239     8.85097E-03     11.8173E-03    -10.3830E+06    -78.8082E+06    -3.14756E+06     4.79763E+06    -23.8141E-03     40.6608E-03    -16.8467E-03     14.7997E-03    -23.7511E-03     40.2905E-03    -16.7332E-03     14.8409E-03
            2240     7.97121E-03     11.7973E-03    -10.9562E+06    -81.4779E+06    -2.77478E+06     5.06190E+06    -21.7355E-03     37.9303E-03    -16.1949E-03     11.3474E-03    -21.6702E-03     37.5451E-03    -16.0747E-03     11.3992E-03
            2241     7.08966E-03     11.7809E-03    -11.3930E+06    -83.2346E+06    -3.23141E+06     5.22560E+06    -19.8801E-03     35.4964E-03    -15.6163E-03     8.59091E-03    -19.8129E-03     35.1027E-03    -15.4952E-03     8.64935E-03
            2242     6.20659E-03     11.7676E-03    -11.7103E+06    -84.1386E+06    -3.26726E+06     4.85690E+06    -18.2769E-03     33.3953E-03    -15.1184E-03     6.46451E-03    -18.2094E-03     32.9970E-03    -14.9958E-03     6.52107E-03
            2243     5.32220E-03     11.7569E-03    -11.6889E+06    -83.2337E+06    -4.25750E+06     4.05568E+06    -16.9269E-03     31.6184E-03    -14.6915E-03     4.84495E-03    -16.8589E-03     31.2257E-03    -14.5751E-03     4.89305E-03
            2244     4.43667E-03     11.7484E-03    -11.2238E+06    -82.2801E+06    -5.40290E+06     3.25986E+06    -15.8324E-03     30.1716E-03    -14.3392E-03     3.60308E-03    -15.7616E-03     29.7845E-03    -14.2306E-03     3.64219E-03
            2245     3.55031E-03     11.7416E-03    -10.6604E+06    -80.8603E+06    -6.36834E+06     2.41558E+06    -14.9834E-03     29.0415E-03    -14.0581E-03     2.65999E-03    -14.9104E-03     28.6620E-03    -13.9572E-03     2.68911E-03
            2246     2.66326E-03     11.7365E-03    -10.2362E+06    -79.4462E+06    -7.56418E+06     1.58758E+06    -14.3539E-03     28.1947E-03    -13.8408E-03     1.88125E-03    -14.2790E-03     27.8233E-03    -13.7486E-03     1.90035E-03
            2247     1.77579E-03     11.7328E-03    -9.88114E+06    -78.3358E+06    -8.76585E+06     951.024E+03    -13.9203E-03     27.6023E-03    -13.6820E-03     1.22851E-03    -13.8435E-03     27.2377E-03    -13.5979E-03     1.23993E-03
            2248     887.996E-06     11.7306E-03    -9.53921E+06    -77.4455E+06    -9.27068E+06     493.176E+03    -13.6433E-03     27.2295E-03    -13.5862E-03     680.853E-06    -13.5653E-03     26.8696E-03    -13.5064E-03     686.777E-06
            2249     16.6730E-03     11.4710E-03    -4.67355E+06     152.257E+06     82.5568E+06     1.76887E+06    -64.4170E-03     89.9338E-03    -25.5168E-03     207.232E-03    -69.9310E-03     95.7331E-03    -25.3180E-03     208.007E-03
            2250     15.8220E-03     11.2431E-03    -8.42038E+06     109.936E+06     28.7773E+06     2.30168E+06    -56.1388E-03     79.8843E-03    -23.7454E-03     175.017E-03    -59.3428E-03     83.3668E-03    -23.7488E-03     174.281E-03
            2251     14.9621E-03     11.1178E-03    -10.0065E+06     64.3604E+06    -15.8703E+06     3.59808E+06    -43.5353E-03     65.8420E-03    -22.3067E-03     93.2628E-03    -44.1597E-03     66.7060E-03    -22.4648E-03     92.8990E-03
            2252     14.0946E-03     11.0509E-03    -9.55325E+06     21.6505E+06    -26.6786E+06     5.24468E+06    -38.4917E-03     59.7366E-03    -21.2449E-03     54.0515E-03    -38.6777E-03     60.0431E-03    -21.3958E-03     53.8836E-03
            2253     13.2280E-03     10.9975E-03    -9.04659E+06    -19.3865E+06    -23.4729E+06     5.23636E+06    -36.5848E-03     56.8694E-03    -20.2847E-03     44.3774E-03    -36.6505E-03     56.9026E-03    -20.3608E-03     44.2739E-03
            2254     12.3590E-03     10.9483E-03    -9.07000E+06    -39.5975E+06    -15.4338E+06     4.85082E+06    -33.9506E-03     53.2745E-03    -19.3238E-03     36.4890E-03    -33.9596E-03     53.1558E-03    -19.3304E-03     36.4424E-03
            2255     11.4877E-03     10.9096E-03    -9.30028E+06    -51.7236E+06    -9.15037E+06     4.93719E+06    -30.9061E-03     49.2983E-03    -18.3922E-03     27.0551E-03    -30.8857E-03     49.0880E-03    -18.3494E-03     27.0500E-03
            2256     10.6138E-03     10.8783E-03    -9.74174E+06    -63.8084E+06    -7.19116E+06     4.85869E+06    -28.1115E-03     45.6205E-03    -17.5091E-03     20.7455E-03    -28.0686E-03     45.3376E-03    -17.4384E-03     20.7635E-03
            2257     9.73754E-03     10.8524E-03    -10.0895E+06    -73.0332E+06    -4.93050E+06     4.76239E+06    -25.4948E-03     42.1929E-03    -16.6981E-03     16.0311E-03    -25.4383E-03     41.8558E-03    -16.6022E-03     16.0637E-03
            2258     8.85910E-03     10.8312E-03    -10.7074E+06     -78.248E+06    -1.57304E+06     4.70733E+06    -23.0382E-03     39.0081E-03    -15.9699E-03     12.3417E-03    -22.9793E-03     38.6381E-03    -15.8488E-03     12.3839E-03
            2259     7.97856E-03     10.8138E-03    -11.5164E+06    -80.9355E+06    -481.481E+03     4.53219E+06    -20.8396E-03     36.1550E-03    -15.3153E-03     9.43692E-03    -20.7810E-03     35.7696E-03    -15.1837E-03     9.48321E-03
            2260     7.09620E-03     10.7999E-03    -12.0503E+06    -82.3596E+06    -1.10978E+06     4.24752E+06    -18.9364E-03     33.6745E-03    -14.7381E-03     7.19471E-03    -18.8767E-03     33.2829E-03    -14.6068E-03     7.24126E-03
            2261     6.21227E-03     10.7886E-03    -12.2343E+06    -82.4356E+06    -1.60214E+06     3.50749E+06    -17.3303E-03     31.5741E-03    -14.2439E-03     5.50533E-03    -17.2703E-03     31.1827E-03    -14.1146E-03     5.54481E-03
            2262     5.32701E-03     10.7796E-03    -12.4025E+06    -81.6960E+06    -2.90252E+06     2.46357E+06    -16.0110E-03     29.8343E-03    -13.8233E-03     4.21340E-03    -15.9508E-03     29.4484E-03    -13.7014E-03     4.24106E-03
            2263     4.44073E-03     10.7724E-03    -12.6855E+06    -80.9368E+06    -5.37571E+06     1.62359E+06    -14.9528E-03     28.4220E-03    -13.4691E-03     3.22346E-03    -14.8914E-03     28.0437E-03    -13.3603E-03     3.24142E-03
            2264     3.55357E-03     10.7668E-03    -12.8974E+06    -79.5855E+06    -7.92764E+06     954.275E+03    -14.1237E-03     27.3026E-03    -13.1789E-03     2.45135E-03    -14.0615E-03     26.9350E-03    -13.0844E-03     2.46153E-03
            2265     2.66580E-03     10.7624E-03    -13.0201E+06    -78.4636E+06    -10.0984E+06     428.783E+03    -13.4916E-03     26.4421E-03    -12.9505E-03     1.77704E-03    -13.4284E-03     26.0834E-03    -12.8683E-03     1.78110E-03
            2266     1.77748E-03     10.7594E-03    -13.0651E+06    -77.6362E+06    -11.7040E+06     143.972E+03    -13.0350E-03     25.8170E-03    -12.7821E-03     1.17561E-03    -12.9708E-03     25.4648E-03    -12.7091E-03     1.17652E-03
            2267     888.810E-06     10.7575E-03    -13.0198E+06    -76.9983E+06    -12.6064E+06    -11.5796E+03    -12.7496E-03     25.4189E-03    -12.6693E-03     610.491E-06    -12.6848E-03     25.0712E-03    -12.6018E-03     609.852E-06
            2268     16.6761E-03     10.4335E-03    -3.92645E+06     150.784E+06     83.6389E+06     1.39292E+06    -66.1955E-03     91.5213E-03    -25.3258E-03     199.722E-03    -71.3005E-03     96.9062E-03    -25.1206E-03     200.177E-03
            2269     15.8271E-03     10.2243E-03    -7.70472E+06     108.153E+06     31.8069E+06     3.44614E+06    -56.5993E-03     80.0557E-03    -23.4565E-03     161.731E-03    -59.3675E-03     83.0902E-03    -23.4431E-03     160.953E-03
            2270     14.9663E-03     10.1080E-03    -10.1732E+06     62.9177E+06    -13.5221E+06     5.06319E+06    -45.1028E-03     67.0073E-03    -21.9045E-03     86.8045E-03    -45.6681E-03     67.7997E-03    -22.0486E-03     86.4560E-03
            2271     14.1040E-03     10.0449E-03    -10.2012E+06     22.1187E+06    -25.5540E+06     5.89877E+06    -40.0337E-03     60.7359E-03    -20.7022E-03     50.4990E-03    -40.2103E-03     61.0294E-03    -20.8473E-03     50.3389E-03
            2272     13.2369E-03     9.99471E-03    -9.60180E+06    -17.9444E+06    -22.5190E+06     6.10520E+06    -37.0714E-03     56.7040E-03    -19.6326E-03     40.5928E-03    -37.1327E-03     56.7332E-03    -19.7053E-03     40.5087E-03
            2273     12.3684E-03     9.94904E-03    -9.82484E+06    -38.6437E+06    -14.3908E+06     5.57335E+06    -33.9183E-03     52.5244E-03    -18.6061E-03     32.1882E-03    -33.9272E-03     52.4033E-03    -18.6078E-03     32.1588E-03
            2274     11.4968E-03     9.91481E-03    -10.0757E+06    -50.9866E+06    -8.05453E+06     5.07782E+06    -30.5151E-03     48.1471E-03    -17.6320E-03     23.4920E-03    -30.4977E-03     47.9366E-03    -17.5837E-03     23.4948E-03
            2275     10.6224E-03     9.88701E-03    -10.0497E+06    -62.8881E+06    -5.49221E+06     4.66109E+06    -27.4354E-03     44.1646E-03    -16.7293E-03     17.8980E-03    -27.3960E-03     43.8825E-03    -16.6510E-03     17.9178E-03
            2276     9.74554E-03     9.86471E-03    -10.1572E+06    -72.5349E+06    -2.66846E+06     4.48561E+06    -24.5955E-03     40.5158E-03    -15.9202E-03     13.7885E-03    -24.5425E-03     40.1771E-03    -15.8137E-03     13.8205E-03
            2277     8.86619E-03     9.84665E-03    -10.6375E+06    -77.4376E+06     596.738E+03     4.38835E+06    -22.0150E-03     37.2229E-03    -15.2078E-03     10.7647E-03    -21.9598E-03     36.8533E-03    -15.0771E-03     10.8045E-03
            2278     7.98471E-03     9.83219E-03    -11.3824E+06    -79.8796E+06     2.35878E+06     3.87617E+06    -19.7729E-03     34.3595E-03    -14.5866E-03     8.48891E-03    -19.7191E-03     33.9750E-03    -14.4425E-03     8.52774E-03
            2279     7.10140E-03     9.82056E-03    -12.1103E+06    -81.1073E+06     1.73433E+06     3.01916E+06    -17.9091E-03     31.9568E-03    -14.0477E-03     6.79013E-03    -17.8556E-03     31.5674E-03    -13.9039E-03     6.82134E-03
            2280     6.21658E-03     9.81136E-03    -12.6954E+06    -80.8214E+06     72.9233E+03     1.99636E+06    -16.3940E-03     29.9815E-03    -13.5875E-03     5.52341E-03    -16.3411E-03     29.5964E-03    -13.4515E-03     5.54360E-03
            2281     5.33056E-03     9.80389E-03    -13.3887E+06    -80.5636E+06    -2.58340E+06     1.20644E+06    -15.1804E-03     28.3785E-03    -13.1981E-03     4.51088E-03    -15.1273E-03     27.9993E-03    -13.0748E-03     4.52235E-03
            2282     4.44354E-03     9.79812E-03    -14.1924E+06    -79.8898E+06    -6.33915E+06     536.653E+03    -14.2219E-03     27.0904E-03    -12.8685E-03     3.69924E-03    -14.1681E-03     26.7210E-03    -12.7638E-03     3.70315E-03
            2283     3.55578E-03     9.79342E-03    -14.8132E+06    -78.8997E+06    -9.64176E+06    -120.817E+03    -13.4661E-03     26.0649E-03    -12.5988E-03     2.98891E-03    -13.4120E-03     25.7060E-03    -12.5111E-03     2.98516E-03
            2284     2.66737E-03     9.78999E-03    -15.1913E+06    -78.1950E+06    -12.2336E+06    -397.818E+03    -12.8845E-03     25.2714E-03    -12.3869E-03     2.28348E-03    -12.8294E-03     24.9202E-03    -12.3126E-03     2.27682E-03
            2285     1.77854E-03     9.78744E-03    -15.4990E+06    -77.6770E+06    -14.1046E+06    -446.616E+03    -12.4666E-03     24.6965E-03    -12.2298E-03     1.56389E-03    -12.4111E-03     24.3511E-03    -12.1653E-03     1.55715E-03
            2286     889.405E-06     9.78604E-03    -15.7453E+06    -77.3036E+06    -15.1738E+06    -356.470E+03    -12.2212E-03     24.3223E-03    -12.1011E-03     837.082E-06    -12.1658E-03     23.9807E-03    -12.0421E-03     831.972E-06
            2287     16.6809E-03     9.39416E-03    -6.06912E+06     147.618E+06     81.6183E+06     769.187E+03    -67.7499E-03     92.8936E-03    -25.1437E-03     192.117E-03    -72.4671E-03     97.8779E-03    -24.9409E-03     192.266E-03
            2288     15.8310E-03     9.20664E-03    -9.32140E+06     105.579E+06     32.9771E+06     3.48378E+06    -57.6794E-03     80.8515E-03    -23.1721E-03     148.184E-03    -60.0493E-03     83.4694E-03    -23.1468E-03     147.343E-03
            2289     14.9738E-03     9.09456E-03    -10.1142E+06     62.9249E+06    -9.01700E+06     6.14088E+06    -46.6661E-03     68.1703E-03    -21.5042E-03     79.4349E-03    -47.1802E-03     68.8989E-03    -21.6259E-03     79.0952E-03
            2290     14.1105E-03     9.03852E-03    -10.4498E+06     22.4582E+06    -23.4572E+06     6.86392E+06    -41.1436E-03     61.3139E-03    -20.1703E-03     45.7434E-03    -41.3088E-03     61.5903E-03    -20.3050E-03     45.5998E-03
            2291     13.2458E-03     8.99127E-03    -10.6757E+06    -16.7243E+06    -21.3307E+06     6.85348E+06    -37.4851E-03     56.4905E-03    -19.0055E-03     36.7798E-03    -37.5462E-03     56.5167E-03    -19.0724E-03     36.7129E-03
            2292     12.3772E-03     8.95127E-03    -10.5092E+06    -36.9467E+06    -12.2996E+06     6.00725E+06    -33.4921E-03     51.4267E-03    -17.9347E-03     28.2335E-03    -33.5038E-03     51.3062E-03    -17.9274E-03     28.2188E-03
            2293     11.5049E-03     8.92095E-03    -10.4771E+06    -49.5194E+06    -5.90182E+06     4.83628E+06    -29.6338E-03     46.5901E-03    -16.9563E-03     20.6212E-03    -29.6209E-03     46.3816E-03    -16.8988E-03     20.6276E-03
            2294     10.6298E-03     8.89741E-03    -10.5858E+06    -61.9689E+06    -3.03768E+06     4.11132E+06    -26.3319E-03     42.4122E-03    -16.0803E-03     15.8192E-03    -26.2989E-03     42.1307E-03    -15.9903E-03     15.8362E-03
            2295     9.75179E-03     8.87869E-03    -10.8392E+06    -72.0181E+06     274.266E+03     3.86980E+06    -23.3399E-03     38.6611E-03    -15.3211E-03     12.5614E-03    -23.2948E-03     38.3212E-03    -15.1996E-03     12.5882E-03
            2296     8.87134E-03     8.86396E-03    -11.2187E+06    -76.5324E+06     2.79644E+06     3.55186E+06    -20.7508E-03     35.4195E-03    -14.6688E-03     10.2728E-03    -20.7027E-03     35.0520E-03    -14.5275E-03     10.3034E-03
            2297     7.98875E-03     8.85218E-03    -11.7364E+06    -78.5015E+06     3.78568E+06     2.84382E+06    -18.5816E-03     32.6999E-03    -14.1182E-03     8.66953E-03    -18.5337E-03     32.3207E-03    -13.9685E-03     8.69593E-03
            2298     7.10438E-03     8.84290E-03    -12.4199E+06    -79.5435E+06     3.52695E+06     1.71127E+06    -16.8616E-03     30.5235E-03    -13.6619E-03     7.51937E-03    -16.8146E-03     30.1399E-03    -13.5109E-03     7.53417E-03
            2299     6.21870E-03     8.83535E-03    -13.3053E+06    -79.6748E+06     1.10835E+06     703.507E+03    -15.5335E-03     28.8126E-03    -13.2791E-03     6.59405E-03    -15.4869E-03     28.4327E-03    -13.1387E-03     6.59782E-03
            2300     5.33194E-03     8.82948E-03    -14.1985E+06    -79.8604E+06    -2.86021E+06     60.0015E+03    -14.5138E-03     27.4728E-03    -12.9590E-03     5.77408E-03    -14.4653E-03     27.0988E-03    -12.8370E-03     5.77091E-03
            2301     4.44440E-03     8.82468E-03    -14.8554E+06    -79.1546E+06    -6.81648E+06    -501.385E+03    -13.7348E-03     26.4306E-03    -12.6958E-03     4.99580E-03    -13.6848E-03     26.0666E-03    -12.5935E-03     4.98641E-03
            2302     3.55622E-03     8.82103E-03    -15.4257E+06    -78.6622E+06    -10.2118E+06    -929.850E+03    -13.1361E-03     25.6215E-03    -12.4854E-03     4.17562E-03    -13.0846E-03     25.2655E-03    -12.4000E-03     4.16152E-03
            2303     2.66759E-03     8.81817E-03    -15.9592E+06    -78.5002E+06    -13.0529E+06    -1.05034E+06    -12.6854E-03     25.0090E-03    -12.3236E-03     3.27012E-03    -12.6325E-03     24.6587E-03    -12.2519E-03     3.25511E-03
            2304     1.77857E-03     8.81625E-03    -16.2764E+06    -78.2561E+06    -14.9171E+06    -895.560E+03    -12.3685E-03     24.5782E-03    -12.2097E-03     2.27877E-03    -12.3148E-03     24.2322E-03    -12.1473E-03     2.26630E-03
            2305     889.312E-06     8.81502E-03    -16.4448E+06    -78.1135E+06    -15.9812E+06    -582.490E+03    -12.1887E-03     24.3231E-03    -12.1344E-03     1.26274E-03    -12.1345E-03     23.9796E-03    -12.0772E-03     1.25474E-03
            2306     16.6806E-03     8.35416E-03    -4.08921E+06     145.524E+06     82.3701E+06     1.72078E+06    -69.5048E-03     94.4897E-03    -24.9848E-03     183.293E-03    -73.8024E-03     99.0518E-03    -24.7781E-03     183.161E-03
            2307     15.8363E-03     8.18331E-03    -8.01481E+06     103.288E+06     32.8664E+06     4.12489E+06    -59.3281E-03     82.2044E-03    -22.8764E-03     134.254E-03    -61.3380E-03     84.4593E-03    -22.8502E-03     133.353E-03
            2308     14.9804E-03     8.08188E-03    -11.1069E+06     61.2285E+06    -8.25106E+06     6.89591E+06    -47.8651E-03     68.9520E-03    -21.0870E-03     71.7500E-03    -48.3253E-03     69.6153E-03    -21.2009E-03     71.4232E-03
            2309     14.1191E-03     8.03124E-03    -12.1093E+06     22.6764E+06    -21.2736E+06     8.09450E+06    -41.5741E-03     61.2459E-03    -19.6718E-03     41.3578E-03    -41.7344E-03     61.5060E-03    -19.7935E-03     41.2422E-03
            2310     13.2534E-03     7.98814E-03    -12.0429E+06    -14.8282E+06    -19.0931E+06     7.52203E+06    -37.3124E-03     55.7702E-03    -18.4578E-03     32.5474E-03    -37.3775E-03     55.7959E-03    -18.5143E-03     32.4997E-03
            2311     12.3845E-03     7.95459E-03    -12.0614E+06    -34.5662E+06    -9.17483E+06     5.80733E+06    -32.5107E-03     49.9000E-03    -17.3893E-03     24.7147E-03    -32.5332E-03     49.7841E-03    -17.3676E-03     24.7073E-03
            2312     11.5113E-03     7.92893E-03    -12.0436E+06    -47.4505E+06    -2.68506E+06     4.17600E+06    -28.2264E-03     44.6848E-03    -16.4584E-03     18.7816E-03    -28.2269E-03     44.4822E-03    -16.3855E-03     18.7864E-03
            2313     10.6347E-03     7.90954E-03    -11.8870E+06    -60.9885E+06     254.080E+03     3.10347E+06    -24.7430E-03     40.4079E-03    -15.6649E-03     14.9523E-03    -24.7218E-03     40.1275E-03    -15.5580E-03     14.9608E-03
            2314     9.75533E-03     7.89465E-03    -11.5835E+06    -71.2338E+06     3.75812E+06     2.45489E+06    -21.7803E-03     36.7895E-03    -15.0093E-03     12.6203E-03    -21.7448E-03     36.4493E-03    -14.8704E-03     12.6316E-03
            2315     8.87348E-03     7.88286E-03    -11.3838E+06    -75.7727E+06     6.59625E+06     1.97382E+06    -19.3157E-03     33.7900E-03    -14.4742E-03     11.1090E-03    -19.2751E-03     33.4209E-03    -14.3149E-03     11.1209E-03
            2316     7.98963E-03     7.87380E-03    -11.6058E+06    -77.2124E+06     6.63901E+06     1.33107E+06    -17.3917E-03     31.4315E-03    -14.0398E-03     10.1211E-03    -17.3492E-03     31.0545E-03    -13.8778E-03     10.1289E-03
            2317     7.10429E-03     7.86627E-03    -12.2881E+06    -78.1278E+06     4.93501E+06     334.264E+03    -15.9527E-03     29.6484E-03    -13.6957E-03     9.33958E-03    -15.9092E-03     29.2696E-03    -13.5400E-03     9.33722E-03
            2318     6.21783E-03     7.86036E-03    -13.1689E+06    -78.8766E+06     1.75211E+06    -571.572E+03    -14.9095E-03     28.3331E-03    -13.4235E-03     8.55168E-03    -14.8643E-03     27.9561E-03    -13.2813E-03     8.53943E-03
            2319     5.33060E-03     7.85544E-03    -13.8626E+06    -79.3078E+06    -2.36179E+06    -1.31249E+06    -14.1727E-03     27.3796E-03    -13.2068E-03     7.69013E-03    -14.1241E-03     27.0071E-03    -13.0836E-03     7.66958E-03
            2320     4.44280E-03     7.85161E-03    -14.2716E+06    -79.0116E+06    -6.14586E+06    -1.79667E+06    -13.6417E-03     26.6790E-03    -13.0373E-03     6.72479E-03    -13.5899E-03     26.3139E-03    -12.9328E-03     6.69897E-03
            2321     3.55463E-03     7.84847E-03    -14.5520E+06    -79.0019E+06    -9.32183E+06    -1.84685E+06    -13.2624E-03     26.1714E-03    -12.9090E-03     5.62840E-03    -13.2073E-03     25.8112E-03    -12.8199E-03     5.60269E-03
            2322     2.66617E-03     7.84620E-03    -14.8046E+06    -79.1792E+06    -11.9359E+06    -1.66909E+06    -12.9986E-03     25.8141E-03    -12.8154E-03     4.39267E-03    -12.9407E-03     25.4571E-03    -12.7388E-03     4.36986E-03
            2323     1.77753E-03     7.84449E-03    -15.0752E+06    -79.3461E+06    -13.7684E+06    -1.32721E+06    -12.8266E-03     25.5802E-03    -12.7536E-03     3.03897E-03    -12.7671E-03     25.2254E-03    -12.6855E-03     3.02105E-03
            2324     888.801E-06     7.84356E-03    -15.1925E+06    -79.4645E+06    -14.7924E+06    -819.957E+03    -12.7197E-03     25.4552E-03    -12.7355E-03     1.65164E-03    -12.6590E-03     25.1015E-03    -12.6722E-03     1.64064E-03
            2325     16.6867E-03     7.31495E-03    -4.09571E+06     142.738E+06     82.6808E+06     2.19338E+06    -71.5332E-03     96.4020E-03    -24.8688E-03     177.175E-03    -75.4663E-03     100.589E-03    -24.6564E-03     176.775E-03
            2326     15.8405E-03     7.15612E-03    -9.45514E+06     98.9888E+06     34.0356E+06     5.99873E+06    -61.2423E-03     83.8777E-03    -22.6354E-03     121.265E-03    -62.9582E-03     85.8149E-03    -22.5951E-03     120.333E-03
            2327     14.9866E-03     7.06954E-03    -12.5060E+06     59.1660E+06    -4.70720E+06     8.80008E+06    -48.8285E-03     69.5616E-03    -20.7331E-03     62.6691E-03    -49.2355E-03     70.1494E-03    -20.8243E-03     62.3814E-03
            2328     14.1244E-03     7.02299E-03    -14.3410E+06     24.0100E+06    -17.6567E+06     9.47725E+06    -41.3430E-03     60.6014E-03    -19.2584E-03     37.0562E-03    -41.5062E-03     60.8508E-03    -19.3607E-03     36.9762E-03
            2329     13.2598E-03     6.98655E-03    -15.4114E+06    -11.2814E+06    -16.0979E+06     8.05145E+06    -36.0640E-03     54.1202E-03    -18.0562E-03     28.5426E-03    -36.1466E-03     54.1554E-03    -18.0980E-03     28.5177E-03
            2330     12.3892E-03     6.95943E-03    -15.6039E+06    -31.0883E+06    -5.81598E+06     5.07294E+06    -30.7069E-03     47.7719E-03    -17.0651E-03     22.4104E-03    -30.7531E-03     47.6697E-03    -17.0264E-03     22.4049E-03
            2331     11.5144E-03     6.93895E-03    -15.0372E+06    -45.1909E+06      611.79E+03     2.40038E+06    -26.2716E-03     42.5216E-03    -16.2500E-03     18.3247E-03    -26.2936E-03     42.3284E-03    -16.1597E-03     18.3137E-03
            2332     10.6360E-03     6.92382E-03    -14.0106E+06    -59.7202E+06     3.72105E+06     851.713E+03    -22.7999E-03     38.3992E-03    -15.5993E-03     15.7528E-03    -22.7956E-03     38.1225E-03    -15.4738E-03     15.7369E-03
            2333     9.75490E-03     6.91219E-03    -12.9886E+06    -70.3786E+06     6.92213E+06    -93.2685E+03    -20.0718E-03     35.1701E-03    -15.0984E-03     14.2284E-03    -20.0489E-03     34.8314E-03    -14.9429E-03     14.2096E-03
            2334     8.87153E-03     6.90345E-03    -12.2234E+06    -75.3600E+06     9.68047E+06    -642.361E+03    -17.9742E-03     32.6951E-03    -14.7209E-03     13.3292E-03    -17.9428E-03     32.3248E-03    -14.5455E-03     13.3091E-03
            2335     7.98657E-03     6.89612E-03    -11.8051E+06    -76.6076E+06     8.96375E+06    -911.240E+03    -16.4873E-03     30.9177E-03    -14.4304E-03     12.6044E-03    -16.4500E-03     30.5406E-03    -14.2573E-03     12.5844E-03
            2336     7.10054E-03     6.89031E-03    -11.8611E+06    -77.1926E+06     5.94009E+06    -1.41307E+06    -15.4631E-03     29.6747E-03    -14.2116E-03     11.8037E-03    -15.4202E-03     29.2985E-03    -14.0528E-03     11.7796E-03
            2337     6.21373E-03     6.88523E-03    -12.0862E+06    -78.1896E+06     2.67466E+06    -2.32889E+06    -14.7852E-03     28.8399E-03    -14.0547E-03     10.8326E-03    -14.7369E-03     28.4634E-03    -13.9104E-03     10.7983E-03
            2338     5.32650E-03     6.88114E-03    -12.1148E+06    -79.0618E+06    -922.870E+03    -3.10955E+06    -14.3555E-03     28.2954E-03    -13.9400E-03     9.64801E-03    -14.3006E-03     27.9195E-03    -13.8124E-03     9.60476E-03
            2339     4.43898E-03     6.87767E-03    -12.0663E+06    -79.5836E+06    -4.38141E+06    -3.32492E+06    -14.0817E-03     27.9381E-03    -13.8565E-03     8.30350E-03    -14.0206E-03     27.5643E-03    -13.7455E-03     8.25834E-03
            2340     3.55129E-03     6.87497E-03    -12.0674E+06    -80.0365E+06    -7.23470E+06    -3.00837E+06    -13.9086E-03     27.7073E-03    -13.7987E-03     6.82328E-03    -13.8426E-03     27.3352E-03    -13.7013E-03     6.78287E-03
            2341     2.66351E-03     6.87278E-03    -12.1529E+06    -80.4609E+06    -9.43987E+06    -2.42434E+06    -13.8077E-03     27.5684E-03    -13.7607E-03     5.23579E-03    -13.7382E-03     27.1974E-03    -13.6736E-03     5.20344E-03
            2342     1.77568E-03     6.87132E-03    -12.2756E+06    -80.8664E+06    -11.0566E+06    -1.72134E+06    -13.7552E-03     27.4916E-03    -13.7364E-03     3.58419E-03    -13.6834E-03     27.1211E-03    -13.6567E-03     3.56131E-03
            2343     887.843E-06     6.87031E-03    -12.4308E+06    -81.2850E+06    -12.1101E+06    -994.006E+03    -13.7224E-03     27.4492E-03    -13.7268E-03     1.94776E-03    -13.6492E-03     27.0784E-03    -13.6514E-03     1.93459E-03
            2344     16.6818E-03     6.27087E-03    -6.21649E+06     138.648E+06     81.7580E+06     3.64127E+06    -74.1064E-03     98.8686E-03    -24.7622E-03     168.222E-03    -77.6661E-03     102.663E-03    -24.5454E-03     167.548E-03
            2345     15.8433E-03     6.12465E-03    -12.2844E+06     94.2109E+06     35.5599E+06     6.46301E+06    -62.3807E-03     84.7901E-03    -22.4094E-03     104.054E-03    -63.8074E-03     86.4072E-03    -22.3504E-03     103.113E-03
            2346     14.9916E-03     6.05667E-03    -14.7956E+06     56.9437E+06     6.44862E+03     10.4623E+06    -48.4050E-03     68.8605E-03    -20.4555E-03     51.7468E-03    -48.7645E-03     69.3712E-03    -20.5165E-03     51.5151E-03
            2347     14.1306E-03     6.01567E-03    -17.6470E+06     25.6432E+06    -13.7290E+06     12.4864E+06    -39.5743E-03     58.5842E-03    -19.0099E-03     33.3262E-03    -39.7478E-03     58.8267E-03    -19.0902E-03     33.3118E-03
            2348     13.2623E-03     5.98749E-03    -20.0305E+06    -4.93232E+06    -12.1875E+06     8.69742E+06    -33.5404E-03     51.4626E-03    -17.9223E-03     26.4274E-03    -33.6533E-03     51.5229E-03    -17.9470E-03     26.4321E-03
            2349     12.3897E-03     5.96634E-03    -20.1740E+06    -25.9535E+06    -1.80625E+06     2.90015E+06    -28.1898E-03     45.2868E-03    -17.0970E-03     22.2301E-03    -28.2690E-03     45.2080E-03    -17.0392E-03     22.2086E-03
            2350     11.5125E-03     5.95137E-03    -18.6543E+06    -42.6262E+06     4.01058E+06    -907.478E+03    -23.9480E-03     40.4121E-03    -16.4641E-03     19.8611E-03    -23.9955E-03     40.2307E-03    -16.3552E-03     19.8147E-03
            2351     10.6321E-03     5.93974E-03    -16.9240E+06    -58.6920E+06     6.72553E+06    -2.79408E+06    -20.8798E-03     36.8817E-03    -16.0019E-03     18.3335E-03    -20.8953E-03     36.6094E-03    -15.8587E-03     18.2751E-03
            2352     9.74928E-03     5.93136E-03    -15.3893E+06    -69.8634E+06     8.78249E+06    -3.63177E+06    -18.6903E-03     34.3671E-03    -15.6768E-03     17.1786E-03    -18.6826E-03     34.0314E-03    -15.5093E-03     17.1171E-03
            2353     8.86486E-03     5.92441E-03    -14.1622E+06    -75.3090E+06     9.79715E+06    -4.16485E+06    -17.2182E-03     32.6689E-03    -15.4507E-03     16.3361E-03    -17.1965E-03     32.3012E-03    -15.2720E-03     16.2724E-03
            2354     7.97943E-03     5.91866E-03    -12.9066E+06    -76.8723E+06     8.73990E+06    -4.37988E+06    -16.2825E-03     31.5713E-03    -15.2888E-03     15.3317E-03    -16.2499E-03     31.1946E-03    -15.1149E-03     15.2681E-03
            2355     7.09334E-03     5.91354E-03    -11.4400E+06    -77.0998E+06     6.09667E+06    -4.46454E+06    -15.7058E-03     30.8778E-03    -15.1719E-03     14.0791E-03    -15.6611E-03     30.5010E-03    -15.0130E-03     14.0164E-03
            2356     6.20696E-03     5.90916E-03    -10.3295E+06    -78.0258E+06     2.88241E+06    -4.78056E+06    -15.3598E-03     30.4508E-03    -15.0911E-03     12.6194E-03    -15.3032E-03     30.0721E-03    -14.9485E-03     12.5541E-03
            2357     5.32034E-03     5.90528E-03    -9.90934E+06    -79.5323E+06    -685.204E+03    -5.03358E+06    -15.1593E-03     30.1945E-03    -15.0352E-03     10.9708E-03    -15.0930E-03     29.8125E-03    -14.9089E-03     10.9032E-03
            2358     4.43365E-03     5.90209E-03    -9.81158E+06    -80.9074E+06    -3.86742E+06    -4.78100E+06    -15.0540E-03     30.0511E-03    -14.9971E-03     9.22277E-03    -14.9804E-03     29.6665E-03    -14.8849E-03     9.15917E-03
            2359     3.54694E-03     5.89941E-03    -9.82228E+06    -81.8021E+06    -6.23623E+06    -4.05223E+06    -14.9968E-03     29.9684E-03    -14.9716E-03     7.41437E-03    -14.9184E-03     29.5827E-03    -14.8700E-03     7.36073E-03
            2360     2.66020E-03     5.89737E-03    -9.87950E+06    -82.4089E+06    -7.89143E+06    -3.12381E+06    -14.9624E-03     29.9179E-03    -14.9555E-03     5.59513E-03    -14.8810E-03     29.5316E-03    -14.8611E-03     5.55390E-03
            2361     1.77346E-03     5.89582E-03    -9.98249E+06    -82.9594E+06    -9.16508E+06    -2.07360E+06    -14.9439E-03     29.8903E-03    -14.9465E-03     3.77913E-03    -14.8603E-03     29.5032E-03    -14.8575E-03     3.75180E-03
            2362     886.732E-06     5.89495E-03    -9.96469E+06    -83.2973E+06    -9.90365E+06    -1.09007E+06    -14.9238E-03     29.8852E-03    -14.9613E-03     2.07031E-03    -14.8386E-03     29.4975E-03    -14.8756E-03     2.05595E-03
            2363     16.6927E-03     5.22246E-03    -5.38142E+06     135.023E+06     82.8032E+06       5.351E+06    -76.9672E-03     101.582E-03    -24.6147E-03     156.301E-03    -80.0782E-03     104.916E-03    -24.3887E-03     155.339E-03
            2364     15.8507E-03     5.09618E-03    -11.4057E+06     90.3299E+06     40.3260E+06     9.82563E+06    -60.3095E-03     82.5351E-03    -22.2256E-03     88.2865E-03    -61.4319E-03     83.8238E-03    -22.1384E-03     87.5071E-03
            2365     14.9953E-03     5.04332E-03    -18.7112E+06     52.0162E+06     4.65347E+06     14.8926E+06    -45.2971E-03     65.6906E-03    -20.3935E-03     44.4761E-03    -45.6199E-03     66.1197E-03    -20.4185E-03     44.3708E-03
            2366     14.1296E-03     5.01301E-03    -23.2499E+06     29.9319E+06    -8.67686E+06     15.2541E+06    -36.2889E-03     55.4103E-03    -19.1214E-03     32.9405E-03    -36.4919E-03     55.6630E-03    -19.1745E-03     32.9961E-03
            2367     13.2591E-03     4.99036E-03    -24.0197E+06     5.75095E+06    -6.93370E+06     7.41178E+06    -30.3115E-03     48.5505E-03    -18.2390E-03     27.7377E-03    -30.4613E-03     48.6561E-03    -18.2472E-03     27.7484E-03
            2368     12.3836E-03     4.97626E-03    -22.3481E+06    -19.9657E+06     2.40562E+06    -806.724E+03    -25.5272E-03     43.1649E-03    -17.6378E-03     24.7045E-03    -25.6294E-03     43.1103E-03    -17.5644E-03     24.6469E-03
            2369     11.5040E-03     4.96527E-03    -20.9233E+06    -40.2609E+06     6.60672E+06    -4.86602E+06    -22.0308E-03     39.2435E-03    -17.2127E-03     23.3597E-03    -22.0954E-03     39.0720E-03    -17.0909E-03     23.2689E-03
            2370     10.6220E-03     4.95701E-03    -19.4375E+06    -57.7063E+06     8.25999E+06    -7.13470E+06    -19.7648E-03     36.6947E-03    -16.9298E-03     21.8848E-03    -19.7957E-03     36.4278E-03    -16.7767E-03     21.7746E-03
            2371     9.73844E-03     4.95040E-03    -17.2878E+06    -69.9322E+06     8.52478E+06    -8.39706E+06    -18.3576E-03     35.0984E-03    -16.7408E-03     20.3576E-03    -18.3583E-03     34.7647E-03    -16.5717E-03     20.2371E-03
            2372     8.85400E-03     4.94485E-03    -14.6610E+06    -75.9254E+06     8.06777E+06    -8.73062E+06    -17.5472E-03     34.1562E-03    -16.6090E-03     18.9063E-03    -17.5243E-03     33.7882E-03    -16.4373E-03     18.7852E-03
            2373     7.96906E-03     4.93963E-03    -12.3388E+06    -77.7472E+06     6.98646E+06    -8.73568E+06    -17.0829E-03     33.5934E-03    -16.5105E-03     17.1800E-03    -17.0434E-03     33.2136E-03    -16.3449E-03     17.0613E-03
            2374     7.08397E-03     4.93507E-03    -10.3977E+06    -78.3060E+06     4.06827E+06    -8.45094E+06    -16.7986E-03     33.2252E-03    -16.4266E-03     15.2871E-03    -16.7438E-03     32.8436E-03    -16.2776E-03     15.1737E-03
            2375     6.19865E-03     4.93082E-03    -8.88028E+06    -79.5065E+06     865.340E+03    -7.51824E+06    -16.6121E-03     32.9711E-03    -16.3590E-03     13.2883E-03    -16.5430E-03     32.5856E-03    -16.2266E-03     13.1882E-03
            2376     5.31329E-03     4.92720E-03    -8.31212E+06    -81.1237E+06    -2.33381E+06    -6.39703E+06    -16.4795E-03     32.7843E-03    -16.3048E-03     11.2524E-03    -16.4004E-03     32.3944E-03    -16.1868E-03     11.1676E-03
            2377     4.42782E-03     4.92402E-03    -8.60668E+06    -82.8723E+06    -5.37138E+06    -5.46311E+06    -16.3846E-03     32.6455E-03    -16.2609E-03     9.25746E-03    -16.2999E-03     32.2516E-03    -16.1552E-03     9.18531E-03
            2378     3.54233E-03     4.92145E-03    -9.05933E+06    -84.0655E+06    -7.33262E+06    -4.51929E+06    -16.3127E-03     32.5403E-03    -16.2275E-03     7.32218E-03    -16.2257E-03     32.1437E-03    -16.1292E-03     7.26268E-03
            2379     2.65680E-03     4.91941E-03    -9.39447E+06    -84.8136E+06    -8.51525E+06    -3.38669E+06    -16.2545E-03     32.4563E-03    -16.2019E-03     5.45688E-03    -16.1662E-03     32.0582E-03    -16.1079E-03     5.41237E-03
            2380     1.77122E-03     4.91795E-03    -9.63374E+06    -85.3544E+06    -9.38295E+06    -2.21649E+06    -16.2068E-03     32.3897E-03    -16.1829E-03     3.64386E-03    -16.1176E-03     31.9905E-03    -16.0921E-03     3.61475E-03
            2381     885.596E-06     4.91704E-03    -9.69233E+06    -85.5836E+06    -9.79671E+06    -1.13002E+06    -16.1594E-03     32.3510E-03    -16.1916E-03     1.96915E-03    -16.0696E-03     31.9514E-03    -16.1025E-03     1.95431E-03
            2382     16.6921E-03     4.17442E-03    -6.34535E+06     127.257E+06     78.4674E+06     6.97916E+06    -77.2960E-03     101.948E-03    -24.6515E-03     145.277E-03    -79.8923E-03     104.750E-03    -24.4345E-03     144.174E-03
            2383     15.8488E-03     4.07041E-03    -11.3488E+06     83.4508E+06     45.2846E+06     16.0022E+06    -56.2695E-03     78.6646E-03    -22.3951E-03     78.0654E-03    -57.1374E-03     79.6604E-03    -22.2732E-03     77.5552E-03
            2384     14.9893E-03     4.03559E-03    -17.7024E+06     51.1706E+06     19.2497E+06     19.8666E+06    -40.7320E-03     61.5769E-03    -20.8449E-03     41.3876E-03    -41.0238E-03     61.9333E-03    -20.7972E-03     41.4272E-03
            2385     14.1211E-03     4.01204E-03    -19.8366E+06     39.7567E+06     6.44366E+06     14.1557E+06    -32.3497E-03     52.1847E-03    -19.8350E-03     35.7996E-03    -32.5610E-03     52.4487E-03    -19.8316E-03     35.8756E-03
            2386     13.2470E-03     3.99688E-03    -19.1244E+06     17.7536E+06     2.74938E+06     4.37271E+06    -27.5475E-03     46.7263E-03    -19.1788E-03     31.6952E-03    -27.6983E-03     46.8646E-03    -19.1631E-03     31.6867E-03
            2387     12.3689E-03     3.98714E-03    -19.4312E+06    -14.4388E+06     5.55126E+06    -3.48149E+06    -23.9915E-03     42.7600E-03    -18.7685E-03     28.5613E-03    -24.0883E-03     42.7206E-03    -18.6916E-03     28.4797E-03
            2388     11.4885E-03     3.97983E-03    -19.2474E+06    -37.6881E+06     6.61622E+06    -8.40698E+06    -21.6393E-03     40.1278E-03    -18.4885E-03     26.8813E-03    -21.6977E-03     39.9648E-03    -18.3728E-03     26.7504E-03
            2389     10.6065E-03     3.97312E-03    -17.8044E+06    -56.3951E+06     5.81062E+06    -11.5804E+06    -20.2722E-03     38.5650E-03    -18.2928E-03     24.5567E-03    -20.2922E-03     38.3045E-03    -18.1561E-03     24.3926E-03
            2390     9.72380E-03     3.96797E-03    -15.4784E+06    -70.3404E+06     4.59808E+06    -13.5250E+06    -19.5331E-03     37.6781E-03    -18.1450E-03     22.1619E-03    -19.5178E-03     37.3445E-03    -17.9975E-03     21.9773E-03
            2391     8.84068E-03     3.96270E-03    -12.6272E+06    -77.5401E+06     3.26225E+06    -13.9261E+06    -19.1236E-03     37.1380E-03    -18.0144E-03     19.7800E-03    -19.0807E-03     36.7653E-03    -17.8674E-03     19.5933E-03
            2392     7.95744E-03     3.95807E-03    -9.92424E+06    -80.0210E+06     1.98106E+06    -12.9487E+06    -18.8050E-03     36.6969E-03    -17.8919E-03     17.3298E-03    -18.7426E-03     36.3092E-03    -17.7515E-03     17.1577E-03
            2393     7.07388E-03     3.95362E-03    -8.43149E+06    -81.0555E+06    -454.117E+03    -11.2830E+06    -18.5343E-03     36.3077E-03    -17.7734E-03     14.9440E-03    -18.4590E-03     35.9158E-03    -17.6459E-03     14.7948E-03
            2394     6.19025E-03     3.94976E-03    -8.03224E+06    -82.7738E+06    -3.25306E+06    -9.30693E+06    -18.2845E-03     35.9489E-03    -17.6644E-03     12.6714E-03    -18.2004E-03     35.5516E-03    -17.5489E-03     12.5487E-03
            2395     5.30634E-03     3.94626E-03    -7.94918E+06    -84.1378E+06    -5.25633E+06    -7.10706E+06    -18.0534E-03     35.6217E-03    -17.5683E-03     10.5082E-03    -17.9638E-03     35.2203E-03    -17.4611E-03     10.4146E-03
            2396     4.42230E-03     3.94336E-03    -8.21717E+06    -85.3009E+06    -7.04495E+06    -5.33115E+06    -17.8345E-03     35.3188E-03    -17.4843E-03     8.48687E-03    -17.7419E-03     34.9145E-03    -17.3839E-03     8.41667E-03
            2397     3.53804E-03     3.94091E-03    -8.91434E+06    -86.4566E+06    -8.77409E+06    -4.08336E+06    -17.6439E-03     35.0581E-03    -17.4142E-03     6.62751E-03    -17.5505E-03     34.6515E-03    -17.3198E-03     6.57381E-03
            2398     2.65366E-03     3.93902E-03    -9.65448E+06    -87.2202E+06    -9.78894E+06    -2.98839E+06    -17.4937E-03     34.8546E-03    -17.3609E-03     4.89744E-03    -17.4014E-03     34.4467E-03    -17.2694E-03     4.85819E-03
            2399     1.76918E-03     3.93765E-03    -10.2049E+06    -87.6499E+06    -10.2912E+06    -1.97685E+06    -17.3908E-03     34.7116E-03    -17.3208E-03     3.27251E-03    -17.2998E-03     34.3030E-03    -17.2304E-03     3.24657E-03
            2400     884.651E-06     3.93681E-03    -10.4677E+06    -87.8291E+06    -10.4841E+06    -1.06295E+06    -17.3218E-03     34.6069E-03    -17.2851E-03     1.74940E-03    -17.2316E-03     34.1981E-03    -17.1950E-03     1.73546E-03
            2401     16.6856E-03     3.12707E-03    -6.11460E+06     116.020E+06     71.6216E+06     10.5633E+06    -75.2303E-03     100.398E-03    -25.1675E-03     131.979E-03    -77.2447E-03     102.599E-03    -24.9688E-03     130.922E-03
            2402     15.8381E-03     3.04891E-03    -11.9576E+06     75.2693E+06     49.0514E+06     17.7828E+06    -51.3888E-03     74.5417E-03    -23.1529E-03     65.3023E-03    -52.0142E-03     75.2536E-03    -22.9995E-03     64.9959E-03
            2403     14.9752E-03     3.03082E-03    -11.0664E+06     57.7168E+06     38.3527E+06     17.6539E+06    -35.3127E-03     57.2808E-03    -21.9681E-03     42.1248E-03    -35.5746E-03     57.5985E-03    -21.8439E-03     42.2061E-03
            2404     14.1012E-03     3.01549E-03    -9.83152E+06     50.3449E+06     22.7756E+06     10.5756E+06    -29.8900E-03     51.1208E-03    -21.2308E-03     41.8079E-03    -30.0797E-03     51.3884E-03    -21.1756E-03     41.8663E-03
            2405     13.2250E-03     3.00277E-03    -9.62835E+06     26.4032E+06     8.92863E+06     3.00633E+06    -27.0351E-03     47.7426E-03    -20.7075E-03     34.9576E-03    -27.1519E-03     47.8930E-03    -20.6872E-03     34.9487E-03
            2406     12.3477E-03     2.99785E-03    -10.1245E+06    -7.68879E+06     3.65302E+06    -4.42053E+06    -24.7399E-03     45.0948E-03    -20.3548E-03     30.7388E-03    -24.7935E-03     45.0743E-03    -20.3108E-03     30.6534E-03
            2407     11.4683E-03     2.99134E-03    -10.1713E+06    -34.4164E+06    -555.836E+03    -10.7028E+06    -23.4528E-03     43.5305E-03    -20.0777E-03     27.7283E-03    -23.4581E-03     43.3787E-03    -20.0158E-03     27.5722E-03
            2408     10.5885E-03     2.98674E-03    -9.41784E+06    -55.0069E+06    -4.45414E+06    -14.3898E+06    -22.5489E-03     42.3869E-03    -19.8380E-03     24.3264E-03    -22.5127E-03     42.1345E-03    -19.7669E-03     24.1290E-03
            2409     9.70795E-03     2.98154E-03    -8.43484E+06    -70.7575E+06    -6.86825E+06    -16.4975E+06    -22.0082E-03     41.6308E-03    -19.6225E-03     21.2198E-03    -21.9397E-03     41.3006E-03    -19.5420E-03     20.9988E-03
            2410     8.82738E-03     2.97722E-03    -7.49928E+06    -79.9123E+06    -7.70476E+06    -16.8943E+06    -21.5361E-03     40.9505E-03    -19.4145E-03     18.2421E-03    -21.4476E-03     40.5739E-03    -19.3262E-03     18.0184E-03
            2411     7.94616E-03     2.97285E-03    -6.70703E+06    -84.3407E+06    -8.00618E+06    -15.1897E+06    -21.0253E-03     40.2369E-03    -19.2117E-03     15.5391E-03    -20.9256E-03     39.8371E-03    -19.1197E-03     15.3390E-03
            2412     7.06469E-03     2.96909E-03    -6.35760E+06    -85.5610E+06    -7.87927E+06    -11.9847E+06    -20.5153E-03     39.5360E-03    -19.0206E-03     13.0566E-03    -20.4121E-03     39.1291E-03    -18.9267E-03     12.8991E-03
            2413     6.18261E-03     2.96561E-03    -6.87088E+06    -86.8252E+06    -8.52290E+06    -9.04158E+06    -20.0340E-03     38.8773E-03    -18.8433E-03     10.8526E-03    -19.9304E-03     38.4656E-03    -18.7500E-03     10.7339E-03
            2414     5.30028E-03     2.96262E-03    -7.81168E+06    -87.8093E+06    -9.22302E+06    -6.73809E+06    -19.5872E-03     38.2714E-03    -18.6842E-03     8.86900E-03    -19.4857E-03     37.8571E-03    -18.5917E-03     8.78055E-03
            2415     4.41750E-03     2.96011E-03    -8.55996E+06    -88.2158E+06     -9.2822E+06    -4.70050E+06    -19.1870E-03     37.7352E-03    -18.5482E-03     7.08501E-03    -19.0886E-03     37.3200E-03    -18.4542E-03     7.02327E-03
            2416     3.53444E-03     2.95804E-03    -9.23071E+06    -88.7120E+06    -9.90575E+06    -3.13128E+06    -18.8468E-03     37.2793E-03    -18.4325E-03     5.47837E-03    -18.7500E-03     36.8635E-03    -18.3400E-03     5.43719E-03
            2417     2.65104E-03     2.95644E-03    -9.93486E+06    -89.1665E+06    -10.5046E+06    -2.14527E+06    -18.5756E-03     36.9175E-03    -18.3419E-03     4.00583E-03    -18.4808E-03     36.5013E-03    -18.2508E-03     3.97761E-03
            2418     1.76745E-03     2.95524E-03    -10.5341E+06    -89.4411E+06    -10.7742E+06    -1.45490E+06    -18.3793E-03     36.6584E-03    -18.2791E-03     2.66308E-03    -18.2867E-03     36.2421E-03    -18.1881E-03     2.64397E-03
            2419     883.753E-06     2.95451E-03    -10.9787E+06    -89.7226E+06    -11.0486E+06    -854.288E+03    -18.2746E-03     36.5092E-03    -18.2346E-03     1.43076E-03    -18.1833E-03     36.0926E-03    -18.1439E-03     1.41956E-03
            2420     16.6645E-03     2.07184E-03    -4.15525E+06     106.371E+06     70.9751E+06     12.3990E+06    -72.1865E-03     98.4366E-03    -26.2501E-03     107.705E-03    -73.5606E-03     99.9767E-03    -26.0435E-03     106.756E-03
            2421     15.8196E-03     2.03483E-03    -3.13911E+06     75.7673E+06     58.9176E+06     14.6309E+06    -43.2988E-03     67.8855E-03    -24.5867E-03     54.9455E-03    -43.6913E-03     68.3685E-03    -24.3974E-03     54.8219E-03
            2422     14.9446E-03     2.03437E-03    -2.31633E+06     64.7063E+06     47.6936E+06     10.4991E+06    -33.5866E-03     57.3152E-03    -23.7286E-03     46.9144E-03    -33.8012E-03     57.6125E-03    -23.5806E-03     46.9566E-03
            2423     14.0712E-03     2.01252E-03     153.222E+03     56.4524E+06     27.1012E+06     6.01548E+06    -31.6023E-03     54.6674E-03    -23.0650E-03     42.5608E-03    -31.7431E-03     54.9300E-03    -23.0116E-03     42.5843E-03
            2424     13.1998E-03     2.00873E-03     1.44145E+06     32.5576E+06     3.89434E+06     1.83583E+06    -29.4348E-03     51.9118E-03    -22.4770E-03     32.2463E-03    -29.4895E-03     52.0755E-03    -22.5068E-03     32.2375E-03
            2425     12.3234E-03     2.00278E-03     2.26063E+06    -445.916E+03    -7.67593E+06    -4.37402E+06    -27.8601E-03     49.8835E-03    -22.0235E-03     27.4718E-03    -27.8421E-03     49.8938E-03    -22.0645E-03     27.3945E-03
            2426     11.4483E-03     1.99919E-03     1.96294E+06    -30.7854E+06    -13.8604E+06    -10.0310E+06    -26.7684E-03     48.4027E-03    -21.6343E-03     23.4383E-03    -26.6966E-03     48.2684E-03    -21.6618E-03     23.2958E-03
            2427     10.5714E-03     1.99498E-03     868.860E+03    -53.9372E+06    -20.4285E+06    -13.4678E+06    -25.8298E-03     47.0863E-03    -21.2564E-03     20.0011E-03    -25.7193E-03     46.8462E-03    -21.2816E-03     19.8187E-03
            2428     9.69419E-03     1.99124E-03    -329.330E+03    -71.2680E+06    -24.1072E+06    -15.0669E+06    -24.9343E-03     45.8373E-03    -20.9030E-03     16.8459E-03    -24.7986E-03     45.5172E-03    -20.9198E-03     16.6456E-03
            2429     8.81578E-03     1.98749E-03    -1.93734E+06    -82.6435E+06    -23.2598E+06    -15.0548E+06    -24.0226E-03     44.6073E-03    -20.5847E-03     14.1254E-03    -23.8793E-03     44.2310E-03    -20.5784E-03     13.9271E-03
            2430     7.93695E-03     1.98437E-03    -3.77818E+06    -89.1137E+06    -21.0146E+06    -13.3850E+06    -23.1651E-03     43.4547E-03    -20.2896E-03     11.8019E-03    -23.0246E-03     43.0453E-03    -20.2600E-03     11.6263E-03
            2431     7.05706E-03     1.98137E-03    -5.27633E+06    -91.1325E+06    -17.1133E+06    -10.3589E+06    -22.3305E-03     42.3520E-03    -20.0215E-03     9.74812E-03    -22.2002E-03     41.9289E-03    -19.9672E-03     9.61247E-03
            2432     6.17670E-03     1.97882E-03    -6.43530E+06    -90.9238E+06    -13.5384E+06    -7.12430E+06    -21.5458E-03     41.3245E-03    -19.7787E-03     7.96097E-03    -21.4267E-03     40.8989E-03    -19.7052E-03     7.86763E-03
            2433     5.29548E-03     1.97658E-03    -7.72117E+06    -91.0352E+06    -12.4998E+06    -4.92030E+06    -20.8545E-03     40.4123E-03    -19.5579E-03     6.43680E-03    -20.7430E-03     39.9865E-03    -19.4772E-03     6.37231E-03
            2434     4.41379E-03     1.97471E-03    -8.97856E+06    -90.8766E+06    -11.4647E+06    -3.38927E+06    -20.2745E-03     39.6452E-03    -19.3707E-03     5.09672E-03    -20.1711E-03     39.2205E-03    -19.2833E-03     5.05227E-03
            2435     3.53158E-03     1.97320E-03    -9.80835E+06    -90.6529E+06    -10.8306E+06    -2.22900E+06    -19.8004E-03     39.0142E-03    -19.2138E-03     3.91480E-03    -19.7023E-03     38.5909E-03    -19.1223E-03     3.88553E-03
            2436     2.64907E-03     1.97201E-03    -10.2684E+06    -90.5722E+06    -10.7688E+06    -1.39912E+06    -19.4243E-03     38.5109E-03    -19.0866E-03     2.85080E-03    -19.3287E-03     38.0886E-03    -18.9943E-03     2.83239E-03
            2437     1.76624E-03     1.97117E-03    -10.6408E+06    -90.6561E+06    -10.9388E+06    -820.464E+03    -19.1418E-03     38.1363E-03    -18.9945E-03     1.87157E-03    -19.0477E-03     37.7143E-03    -18.9024E-03     1.86077E-03
            2438     883.123E-06     1.97063E-03    -11.0795E+06    -90.9760E+06    -11.3585E+06    -393.849E+03    -18.9688E-03     37.9166E-03    -18.9478E-03     1.00607E-03    -18.8757E-03     37.4943E-03    -18.8566E-03     1.00087E-03
            2439     16.6556E-03     1.04084E-03     710.803E+03     100.062E+06     75.4070E+06     8.59236E+06    -71.2105E-03     99.6745E-03    -28.4641E-03     95.5201E-03    -71.9627E-03     100.575E-03    -28.2331E-03     94.8115E-03
            2440     15.7747E-03     1.03467E-03     4.16996E+06     79.8731E+06     66.0572E+06     8.90960E+06    -47.0378E-03     73.8002E-03    -26.7624E-03     54.8605E-03    -47.2885E-03     74.1514E-03    -26.5540E-03     54.8609E-03
            2441     14.9105E-03     1.02070E-03     6.00732E+06     70.0954E+06     47.5987E+06     4.58461E+06    -41.2522E-03     66.8917E-03    -25.6394E-03     38.8081E-03    -41.4073E-03     67.1774E-03    -25.5118E-03     38.8247E-03
            2442     14.0475E-03     1.01049E-03     8.58862E+06     58.0904E+06     21.0196E+06     1.81484E+06    -36.4842E-03     61.1709E-03    -24.6867E-03     28.2767E-03    -36.5628E-03     61.4251E-03    -24.6783E-03     28.2696E-03
            2443     13.1751E-03     1.00562E-03     11.2910E+06     36.6773E+06    -5.17232E+06     490.789E+03    -33.0065E-03     56.9208E-03    -23.9143E-03     19.7826E-03    -32.9987E-03     57.0980E-03    -24.0097E-03     19.7724E-03
            2444     12.3063E-03     1.00367E-03     11.9857E+06     4.49082E+06    -20.4872E+06    -2.74427E+06    -31.3921E-03     54.6942E-03    -23.3021E-03     16.2134E-03    -31.3107E-03     54.7305E-03    -23.4285E-03     16.1669E-03
            2445     11.4328E-03     1.00122E-03     10.8489E+06    -27.9403E+06    -27.4183E+06    -5.92052E+06    -29.9343E-03     52.7031E-03    -22.7688E-03     13.5751E-03    -29.8007E-03     52.5882E-03    -22.8811E-03     13.4917E-03
            2446     10.5595E-03     998.859E-06     8.54182E+06    -52.7976E+06    -34.7512E+06    -8.15640E+06    -28.6073E-03     50.8601E-03    -22.2528E-03     11.3396E-03    -28.4382E-03     50.6346E-03    -22.3624E-03     11.2296E-03
            2447     9.68442E-03     996.722E-06     5.40196E+06    -72.2202E+06    -37.5222E+06    -9.07496E+06    -27.2408E-03     49.0247E-03    -21.7839E-03     9.40883E-03    -27.0550E-03     48.7105E-03    -21.8746E-03     9.28861E-03
            2448     8.80829E-03     994.824E-06     1.88366E+06    -84.9639E+06    -34.3070E+06    -8.63621E+06    -25.9172E-03     47.2906E-03    -21.3734E-03     7.77577E-03    -25.7350E-03     46.9130E-03    -21.4245E-03     7.66227E-03
            2449     7.93060E-03     992.906E-06    -1.64130E+06    -92.4193E+06    -29.5006E+06    -7.69909E+06    -24.6954E-03     45.6988E-03    -21.0035E-03     6.37058E-03    -24.5269E-03     45.2820E-03    -21.0146E-03     6.26979E-03
            2450     7.05230E-03     991.333E-06    -4.57890E+06    -95.4857E+06    -24.0269E+06    -6.11412E+06    -23.5795E-03     44.2506E-03    -20.6711E-03     5.20593E-03    -23.4291E-03     43.8147E-03    -20.6461E-03     5.12602E-03
            2451     6.17272E-03     989.949E-06    -6.72046E+06    -94.4186E+06    -18.2295E+06    -4.09208E+06    -22.5710E-03     42.9477E-03    -20.3768E-03     4.22459E-03    -22.4412E-03     42.5118E-03    -20.3213E-03     4.17108E-03
            2452     5.29250E-03     988.786E-06    -8.10257E+06    -93.3049E+06    -14.7085E+06    -2.47514E+06    -21.7071E-03     41.8216E-03    -20.1145E-03     3.38475E-03    -21.5910E-03     41.3882E-03    -20.0410E-03     3.35231E-03
            2453     4.41145E-03     987.760E-06    -9.14804E+06    -92.3973E+06    -12.5322E+06    -1.65567E+06    -20.9834E-03     40.8729E-03    -19.8895E-03     2.65463E-03    -20.8770E-03     40.4424E-03    -19.8049E-03     2.63290E-03
            2454     3.52989E-03     986.957E-06    -9.94701E+06    -91.8698E+06    -11.4727E+06    -1.24829E+06    -20.4007E-03     40.1028E-03    -19.7020E-03     2.02889E-03    -20.3006E-03     39.6745E-03    -19.6118E-03     2.01252E-03
            2455     2.64781E-03     986.325E-06    -10.4652E+06    -91.6278E+06    -11.1662E+06    -799.948E+03    -19.9505E-03     39.5029E-03    -19.5524E-03     1.48000E-03    -19.8538E-03     39.0761E-03    -19.4602E-03     1.46951E-03
            2456     1.76539E-03     985.898E-06    -10.7615E+06    -91.4633E+06    -11.0611E+06    -285.285E+03    -19.6293E-03     39.0702E-03    -19.4410E-03     982.246E-06    -19.5344E-03     38.6445E-03    -19.3480E-03     978.464E-06
            2457     882.833E-06     985.612E-06    -10.9783E+06    -91.3633E+06    -11.0022E+06     30.6477E+03    -19.4318E-03     38.7900E-03    -19.3582E-03     538.630E-06    -19.3381E-03     38.3651E-03    -19.2649E-03     538.993E-06


