********************************************************************************
Field Output Report, written Tue May 28 21:18:21 2024

Source 1
---------

   ODB: G:/Abaqus_calc_2019/1740/Vel_10/odb/zeides_2a_16_red_500_cal_30_vel_10_fric_0100.odb
   Step: Step-1
   Frame: Increment   7414431: Step Time =   0.9280

Loc 1 : Nodal values from source 1

Output sorted by column "Nodal Label".

Field Output reported at nodes for region: DIE_2A_16_D0_36-1.Region_1
   Computation algorithm: EXTRAPOLATE_COMPUTE_AVERAGE
   Averaged at nodes
   Averaging regions: ODB_REGIONS

      Node Label     COORD.COOR1     COORD.COOR2
                          @Loc 1          @Loc 1
-------------------------------------------------
               1     19.4799E-03     125.962E-03


Field Output reported at nodes for region: DIE_2A_16_D0_36-1.Region_2
   Computation algorithm: EXTRAPOLATE_COMPUTE_AVERAGE
   Averaged at nodes
   Averaging regions: ODB_REGIONS

      Node Label     COORD.COOR1     COORD.COOR2
                          @Loc 1          @Loc 1
-------------------------------------------------
               1     19.4799E-03     125.962E-03


Field Output reported at nodes for part: WIRE-1
   Computation algorithm: EXTRAPOLATE_COMPUTE_AVERAGE
   Averaged at nodes
   Averaging regions: ODB_REGIONS

      Node Label     COORD.COOR1     COORD.COOR2           S.S11           S.S22           S.S33           S.S12         PE.PE11         PE.PE22         PE.PE33         PE.PE12         LE.LE11         LE.LE22         LE.LE33         LE.LE12
                          @Loc 1          @Loc 1          @Loc 1          @Loc 1          @Loc 1          @Loc 1          @Loc 1          @Loc 1          @Loc 1          @Loc 1          @Loc 1          @Loc 1          @Loc 1          @Loc 1
-------------------------------------------------------------------------------------------------------------------------------------------------------------------------------------------------------------------------------------------------
               1    -155.856E-09     60.4259E-03    -64.6642E+06    -180.974E+06    -64.5881E+06     58.9758E+03    -53.0884E-03     106.105E-03    -53.0164E-03     5.78100E-03    -53.0558E-03     105.388E-03    -52.9832E-03     5.76209E-03
               2     17.0760E-03     61.7683E-03    -2.15000E+06     119.957E+06     84.3263E+06    -8.45322E+03    -52.3510E-03     105.327E-03    -52.9759E-03     54.1194E-03    -53.0381E-03     106.188E-03    -52.7251E-03     53.6589E-03
               3     16.8474E-03     123.539E-03     5.98165E+06     16.7535E+06     18.0304E+06     1.90975E+06     33.1639E-03     26.9506E-03    -60.1146E-03    -540.176E-06     33.1296E-03     26.9857E-03    -60.0574E-03    -515.533E-06
               4     876.721E-09     120.969E-03     40.0454E+06    -2.21485E+06     40.9950E+06    -1.79097E+06    -52.2569E-03     104.501E-03    -52.2441E-03    -2.95459E-03    -52.1222E-03     104.363E-03    -52.0940E-03    -2.98419E-03
               5     493.821E-09     69.3889E-18    -32.3028E+06    -148.717E+06    -32.2879E+06     191.815E+03    -52.4606E-03     104.735E-03    -52.2741E-03     314.866E-06    -52.3585E-03     104.085E-03    -52.1731E-03     317.280E-06
               6     16.8619E-03     69.3889E-18     2.87420E+06     101.688E+06     84.0915E+06     3.56723E+06    -88.9621E-03     150.785E-03    -61.8232E-03     96.9451E-03    -89.5057E-03     151.435E-03    -61.5543E-03     96.0926E-03
               7     853.460E-06     60.4317E-03    -63.8741E+06    -179.475E+06    -62.3219E+06     108.389E+03    -53.0819E-03     106.120E-03    -53.0377E-03     9.52188E-03    -53.0520E-03     105.407E-03    -52.9965E-03     9.49006E-03
               8     1.70714E-03     60.4450E-03    -61.7634E+06    -175.441E+06    -56.1821E+06     101.549E+03    -53.1137E-03     106.185E-03    -53.0714E-03     17.4007E-03    -53.0914E-03     105.484E-03    -53.0084E-03     17.3391E-03
               9     2.56057E-03     60.4665E-03    -58.6394E+06    -169.825E+06    -47.7878E+06     4.84182E+03    -53.1937E-03     106.291E-03    -53.0977E-03     25.6332E-03    -53.1818E-03     105.607E-03    -53.0053E-03     25.5361E-03
              10     3.41422E-03     60.4963E-03    -54.9215E+06    -159.938E+06    -39.1449E+06    -37.8498E+03    -53.2788E-03     106.394E-03    -53.1152E-03     33.7281E-03    -53.2840E-03     105.750E-03    -52.9994E-03     33.5919E-03
              11     4.26771E-03     60.5340E-03    -51.0004E+06    -149.857E+06    -30.2911E+06    -72.8588E+03    -53.3841E-03     106.513E-03    -53.1288E-03     41.5680E-03    -53.4097E-03     105.913E-03    -52.9890E-03     41.3875E-03
              12     5.12141E-03     60.5795E-03    -46.7376E+06    -142.544E+06    -20.7777E+06    -77.7711E+03    -53.5210E-03     106.668E-03    -53.1470E-03     49.0935E-03    -53.5669E-03     106.102E-03    -52.9764E-03     48.8630E-03
              13     5.97497E-03     60.6323E-03    -42.4775E+06    -133.417E+06    -13.0914E+06    -60.2857E+03    -53.6740E-03     106.827E-03    -53.1527E-03     56.2444E-03    -53.7459E-03     106.312E-03    -52.9631E-03     55.9572E-03
              14     6.82868E-03     60.6920E-03    -38.5202E+06    -125.414E+06    -8.23278E+06    -88.8698E+03    -53.8416E-03     106.988E-03    -53.1466E-03     62.9550E-03    -53.9426E-03     106.531E-03    -52.9500E-03     62.6022E-03
              15     7.68231E-03     60.7582E-03    -34.9164E+06    -115.488E+06    -4.73235E+06    -89.3059E+03    -54.0051E-03     107.137E-03    -53.1316E-03     69.3029E-03    -54.1467E-03     106.758E-03    -52.9371E-03     68.8771E-03
              16     8.53609E-03     60.8305E-03    -31.7927E+06    -101.057E+06    -3.04519E+06    -137.551E+03    -54.1496E-03     107.251E-03    -53.1013E-03     75.2538E-03    -54.3491E-03     106.988E-03    -52.9239E-03     74.7456E-03
              17     9.38973E-03     60.9084E-03    -29.0413E+06    -85.9176E+06    -1.16100E+06    -261.228E+03    -54.2643E-03     107.335E-03    -53.0706E-03     80.7460E-03    -54.5389E-03     107.205E-03    -52.9097E-03     80.1454E-03
              18     10.2437E-03     60.9916E-03    -26.6122E+06    -68.4858E+06     317.343E+03    -488.916E+03    -54.3608E-03     107.395E-03    -53.0343E-03     85.6843E-03    -54.7325E-03     107.428E-03    -52.8948E-03     84.9809E-03
              19     11.0973E-03     61.0791E-03    -24.5961E+06    -43.8574E+06     1.66511E+06    -659.194E+03    -54.4479E-03     107.437E-03    -52.9887E-03     90.3482E-03    -54.9557E-03     107.697E-03    -52.8811E-03     89.5306E-03
              20     11.9513E-03     61.1716E-03    -22.8943E+06    -10.7308E+06     5.25310E+06    -287.364E+03    -54.5874E-03     107.533E-03    -52.9455E-03     96.4022E-03    -55.2961E-03     108.107E-03    -52.8704E-03     95.4624E-03
              21     12.8047E-03     61.2713E-03    -21.8627E+06     44.6499E+06     7.85480E+06     763.029E+03    -54.6241E-03     107.487E-03    -52.8631E-03     105.708E-03    -55.6471E-03     108.568E-03    -52.8569E-03     104.649E-03
              22     13.6589E-03     61.3821E-03    -19.6962E+06     93.1339E+06     30.4351E+06     1.66054E+06    -54.5264E-03     107.400E-03    -52.8740E-03     116.167E-03    -55.9113E-03     108.958E-03    -52.8283E-03     115.051E-03
              23     14.5136E-03     61.5024E-03    -15.5732E+06     109.200E+06     61.8197E+06     1.36044E+06    -54.1756E-03     107.139E-03    -52.9632E-03     114.062E-03    -55.7173E-03     108.834E-03    -52.7898E-03     113.012E-03
              24     15.3666E-03     61.6089E-03    -10.1232E+06     119.472E+06     80.2737E+06     212.915E+03    -53.8726E-03     106.874E-03    -53.0015E-03     106.830E-03    -55.4588E-03     108.616E-03    -52.7587E-03     105.907E-03
              25     16.2220E-03     61.7149E-03    -4.48732E+06     122.474E+06     86.8117E+06    -211.882E+03    -53.1208E-03     106.120E-03    -52.9989E-03     80.3294E-03    -54.2847E-03     107.451E-03    -52.7359E-03     79.6684E-03
              26     17.0754E-03     62.8221E-03    -2.33663E+06     119.472E+06     84.3693E+06    -321.255E+03    -52.8729E-03     105.847E-03    -52.9737E-03     53.3392E-03    -53.5592E-03     106.704E-03    -52.7217E-03     52.8661E-03
              27     17.0754E-03     63.8767E-03    -2.19239E+06     119.501E+06     84.0065E+06     207.126E+03    -52.5015E-03     105.485E-03    -52.9830E-03     53.5790E-03    -53.1883E-03     106.344E-03    -52.7331E-03     53.1163E-03
              28     17.0759E-03     64.9308E-03    -2.18152E+06     119.880E+06     83.7501E+06     119.675E+03    -52.0511E-03     105.043E-03    -52.9918E-03     54.6261E-03    -52.7420E-03     105.909E-03    -52.7437E-03     54.1688E-03
              29     17.0750E-03     65.9840E-03    -2.19223E+06     120.048E+06     83.7244E+06     421.302E+03    -52.3521E-03     105.339E-03    -52.9873E-03     54.6286E-03    -53.0428E-03     106.206E-03    -52.7395E-03     54.1698E-03
              30     17.0761E-03     67.0370E-03    -2.35006E+06     120.207E+06     83.6991E+06    -110.377E+03    -52.5062E-03     105.490E-03    -52.9838E-03     53.2100E-03    -53.1929E-03     106.352E-03    -52.7362E-03     52.7408E-03
              31     17.0747E-03     68.0907E-03    -2.24509E+06     120.086E+06     83.9229E+06     19.6449E+03    -52.6542E-03     105.636E-03    -52.9818E-03     53.6279E-03    -53.3427E-03     106.499E-03    -52.7330E-03     53.1600E-03
              32     17.0764E-03     69.1463E-03    -2.07771E+06     119.995E+06     84.2187E+06     -54.457E+03    -52.5520E-03     105.532E-03    -52.9801E-03     54.6288E-03    -53.2464E-03     106.401E-03    -52.7300E-03     54.1596E-03
              33     17.0749E-03     70.1998E-03    -2.28624E+06     120.207E+06     84.3134E+06     297.283E+03    -52.4432E-03     105.430E-03    -52.9867E-03     55.3796E-03    -53.1432E-03     106.304E-03    -52.7361E-03     54.9159E-03
              34     17.0760E-03     71.2539E-03    -1.74240E+06     121.086E+06     84.7601E+06     210.670E+03    -51.9523E-03     104.941E-03    -52.9886E-03     55.1584E-03    -52.6483E-03     105.815E-03    -52.7379E-03     54.6999E-03
              35     17.0759E-03     72.3053E-03    -2.26404E+06     120.523E+06     84.1498E+06    -882.663E+03    -52.2337E-03     105.208E-03    -52.9740E-03     54.5703E-03    -52.9275E-03     106.077E-03    -52.7247E-03     54.0935E-03
              36     17.0753E-03     73.3601E-03    -2.38006E+06     119.718E+06     83.6917E+06    -118.602E+03    -52.9530E-03     105.924E-03    -52.9711E-03     53.4537E-03    -53.6384E-03     106.783E-03    -52.7228E-03     52.9821E-03
              37     17.0755E-03     74.4142E-03    -2.38619E+06     120.114E+06     83.9348E+06     231.066E+03    -52.6879E-03     105.675E-03    -52.9869E-03     53.7411E-03    -53.3767E-03     106.538E-03    -52.7379E-03     53.2786E-03
              38     17.0752E-03     75.4681E-03    -1.97256E+06     120.127E+06     84.0751E+06    -26.0621E+03    -52.1574E-03     105.148E-03    -52.9909E-03     54.2671E-03    -52.8470E-03     106.014E-03    -52.7419E-03     53.8060E-03
              39     17.0762E-03     76.5219E-03    -2.29408E+06     118.739E+06     83.2741E+06    -1.25315E+06    -51.8741E-03     104.856E-03    -52.9821E-03     54.8069E-03    -52.5647E-03     105.719E-03    -52.7346E-03     54.3318E-03
              40     17.0755E-03     77.5744E-03    -2.19678E+06     120.012E+06     84.6098E+06    -249.733E+03    -52.5341E-03     105.510E-03    -52.9759E-03     54.6758E-03    -53.2271E-03     106.376E-03    -52.7237E-03     54.2085E-03
              41     17.0756E-03     78.6295E-03    -1.09708E+06     121.138E+06     85.2811E+06     1.06096E+06    -52.4446E-03     105.424E-03    -52.9789E-03     53.2090E-03    -53.1269E-03     106.285E-03    -52.7266E-03     52.7604E-03
              42     17.0760E-03     79.6800E-03    -2.16386E+06     120.119E+06     83.8552E+06     671.128E+03    -52.1669E-03     105.145E-03    -52.9778E-03     52.9065E-03    -52.8489E-03     106.002E-03    -52.7296E-03     52.4557E-03
              43     17.0753E-03     80.7370E-03    -2.22886E+06     121.464E+06     84.6840E+06     381.277E+03    -52.6833E-03     105.654E-03    -52.9708E-03     54.4264E-03    -53.3789E-03     106.527E-03    -52.7203E-03     53.9620E-03
              44     17.0761E-03     81.7907E-03    -2.11264E+06     121.572E+06     84.4891E+06    -253.627E+03    -52.6129E-03     105.584E-03    -52.9711E-03     54.8604E-03    -53.3114E-03     106.462E-03    -52.7219E-03     54.3876E-03
              45     17.0752E-03     82.8438E-03    -1.92973E+06     121.510E+06     84.3748E+06     182.278E+03    -51.9705E-03     104.954E-03    -52.9834E-03     53.6077E-03    -52.6611E-03     105.824E-03    -52.7350E-03     53.1558E-03
              46     17.0764E-03     83.8958E-03    -2.78215E+06     121.831E+06     84.3866E+06    -56.8663E+03    -52.2296E-03     105.205E-03    -52.9758E-03     53.9116E-03    -52.9287E-03     106.082E-03    -52.7265E-03     53.4500E-03
              47     17.0751E-03     84.9514E-03    -1.93417E+06     122.240E+06       84.73E+06     343.943E+03    -52.8099E-03     105.773E-03    -52.9626E-03     54.6038E-03    -53.5083E-03     106.652E-03    -52.7134E-03     54.1346E-03
              48     17.0764E-03     86.0063E-03    -1.90303E+06     122.723E+06     84.5945E+06     75.8622E+03    -52.5471E-03     105.521E-03    -52.9737E-03     55.0614E-03    -53.2486E-03     106.406E-03    -52.7259E-03     54.5924E-03
              49     17.0747E-03     87.0583E-03    -2.89641E+06     123.480E+06     84.3955E+06     588.876E+03    -52.5030E-03     105.486E-03    -52.9826E-03     54.6524E-03    -53.2076E-03     106.373E-03    -52.7354E-03     54.1951E-03
              50     17.0762E-03     88.1132E-03    -2.15347E+06     124.575E+06     84.9104E+06     508.153E+03    -52.4366E-03     105.420E-03    -52.9833E-03     54.4182E-03    -53.1365E-03     106.308E-03    -52.7362E-03     53.9616E-03
              51     17.0750E-03     89.1664E-03    -2.89581E+06     124.510E+06     84.6715E+06    -224.427E+03    -52.3582E-03     105.343E-03    -52.9844E-03     54.7412E-03    -53.0640E-03     106.235E-03    -52.7374E-03     54.2746E-03
              52     17.0760E-03     90.2206E-03    -1.82678E+06     125.318E+06     85.4247E+06     656.203E+03    -52.1774E-03     105.150E-03    -52.9731E-03     55.6426E-03    -52.8837E-03     106.048E-03    -52.7251E-03     55.1888E-03
              53     17.0763E-03     91.2744E-03    -1.13652E+06     125.497E+06     85.5635E+06    -448.122E+03    -52.2102E-03     105.181E-03    -52.9704E-03     55.4579E-03    -52.9123E-03     106.076E-03    -52.7229E-03     54.9901E-03
              54     17.0747E-03     92.3277E-03    -2.47005E+06     125.335E+06     85.0042E+06     742.708E+03    -52.3224E-03     105.297E-03    -52.9745E-03     55.1183E-03    -53.0290E-03     106.193E-03    -52.7276E-03     54.6655E-03
              55     17.0771E-03     93.3798E-03    -2.53231E+06     126.218E+06     84.9773E+06    -455.590E+03    -52.0634E-03     105.002E-03    -52.9386E-03     54.7989E-03    -52.7688E-03     105.900E-03    -52.6931E-03     54.3267E-03
              56     17.0767E-03     94.4340E-03    -2.53909E+06     126.635E+06     85.6044E+06    -2.39732E+06    -52.3086E-03     105.221E-03    -52.9123E-03     53.7646E-03    -53.0113E-03     106.116E-03    -52.6642E-03     53.2652E-03
              57     17.0765E-03     95.4877E-03    -852.195E+03     128.478E+06     87.8523E+06     669.873E+03    -52.5583E-03     105.462E-03    -52.9038E-03     54.4625E-03    -53.2603E-03     106.362E-03    -52.6496E-03     54.0042E-03
              58     17.0779E-03     96.5413E-03    -1.88559E+06     127.993E+06     87.4500E+06     1.81338E+06    -52.7088E-03     105.582E-03    -52.8729E-03     54.6852E-03    -53.4129E-03     106.480E-03    -52.6185E-03     54.2379E-03
              59     17.0772E-03     97.5965E-03    -2.87130E+06     126.960E+06     87.4989E+06     936.026E+03    -52.4494E-03     105.286E-03    -52.8364E-03     54.8212E-03    -53.1608E-03     106.184E-03    -52.5788E-03     54.3629E-03
              60     17.0802E-03     98.6474E-03    -2.85906E+06     125.947E+06     87.9936E+06    -1.43044E+06    -52.2952E-03     105.059E-03    -52.7633E-03     54.6904E-03    -53.0074E-03     105.952E-03    -52.5018E-03     54.1995E-03
              61     17.0802E-03     99.7024E-03    -2.42821E+06     126.476E+06     89.5786E+06    -804.723E+03    -52.9561E-03     105.629E-03    -52.6728E-03     54.6593E-03    -53.6711E-03     106.525E-03    -52.4048E-03     54.1659E-03
              62     17.0826E-03     100.757E-03    -1.40087E+06     126.770E+06     90.8817E+06     1.19499E+06    -53.3651E-03     105.930E-03    -52.5650E-03     56.4510E-03    -54.0872E-03     106.834E-03    -52.2924E-03     55.9703E-03
              63     17.0848E-03     101.811E-03    -3.05714E+06     123.711E+06     89.4861E+06     158.110E+03    -54.1397E-03     106.551E-03    -52.4110E-03     57.0392E-03    -54.8668E-03     107.447E-03    -52.1386E-03     56.5281E-03
              64     17.0870E-03     102.868E-03    -2.68481E+06     122.812E+06     90.9745E+06    -127.843E+03    -55.4682E-03     107.695E-03    -52.2267E-03     57.7397E-03    -56.2040E-03     108.593E-03    -51.9460E-03     57.1990E-03
              65     17.0909E-03     103.924E-03    -1.86526E+06     121.056E+06     92.3838E+06    -924.156E+03    -57.1177E-03     109.127E-03    -52.0098E-03     59.0347E-03    -57.8591E-03     110.024E-03    -51.7207E-03     58.4495E-03
              66     17.0931E-03     104.985E-03    -2.25206E+06     117.858E+06     92.0892E+06    -858.725E+03    -59.7547E-03     111.533E-03    -51.7781E-03     60.5193E-03    -60.5102E-03     112.432E-03    -51.4852E-03     59.8849E-03
              67     17.0961E-03     106.045E-03    -2.30318E+06     114.737E+06     91.2480E+06    -997.842E+03    -63.7493E-03     115.278E-03    -51.5289E-03     61.9765E-03    -64.5175E-03     116.181E-03    -51.2357E-03     61.2622E-03
              68     17.0978E-03     107.115E-03    -2.29363E+06     110.946E+06     90.4827E+06    -1.38360E+06    -68.4961E-03     119.791E-03    -51.2954E-03     64.1752E-03    -69.2774E-03     120.697E-03    -51.0005E-03     63.3614E-03
              69     17.0992E-03     108.189E-03    -2.83970E+06     106.633E+06     89.1494E+06    -1.44954E+06    -73.0179E-03     124.122E-03    -51.1037E-03     68.0555E-03    -73.8304E-03     125.044E-03    -50.8084E-03     67.1380E-03
              70     17.1002E-03     109.265E-03    -2.97232E+06     102.213E+06     88.3262E+06    -1.55204E+06    -77.9575E-03     128.876E-03    -50.9189E-03     70.9483E-03    -78.7902E-03     129.806E-03    -50.6211E-03     69.9132E-03
              71     17.1013E-03     110.349E-03    -2.18714E+06     97.1113E+06     88.0825E+06    -1.95132E+06    -83.6408E-03     134.375E-03    -50.7337E-03     73.8423E-03    -84.4872E-03     135.303E-03    -50.4310E-03     72.6639E-03
              72     17.1016E-03     111.438E-03    -2.44521E+06     90.9606E+06     86.5401E+06    -2.56139E+06    -89.6703E-03     140.224E-03    -50.5536E-03     78.1155E-03    -90.5452E-03     141.163E-03    -50.2493E-03     76.7671E-03
              73     17.1023E-03     112.535E-03    -2.45125E+06     81.8491E+06     83.6328E+06    -4.25447E+06    -96.1504E-03     146.513E-03    -50.3630E-03     82.7839E-03    -97.0552E-03     147.458E-03    -50.0600E-03     81.2236E-03
              74     17.1028E-03     113.637E-03    -832.611E+03     76.4656E+06     85.7470E+06    -3.74022E+06    -102.934E-03     153.115E-03    -50.1812E-03     86.6160E-03    -103.877E-03     154.080E-03    -49.8621E-03     84.8391E-03
              75     17.1034E-03     114.747E-03    -2.02262E+06     69.3594E+06     86.4544E+06    -1.33871E+06    -110.103E-03     160.092E-03    -49.9889E-03     92.5107E-03    -111.108E-03     161.088E-03    -49.6542E-03     90.5087E-03
              76     17.1044E-03     115.868E-03    -3.21776E+06     58.6406E+06     84.3536E+06    -2.04453E+06    -117.241E-03     167.022E-03    -49.7810E-03     100.979E-03    -118.315E-03     168.052E-03    -49.4396E-03     98.6958E-03
              77     17.1054E-03     116.997E-03    -2.75540E+06     46.1454E+06     82.7229E+06    -6.69633E+06    -124.430E-03     174.003E-03    -49.5736E-03     111.815E-03    -125.575E-03     175.066E-03    -49.2229E-03     109.189E-03
              78     17.1065E-03     118.133E-03     833.954E+03     39.1834E+06     89.9831E+06    -4.27020E+06    -131.786E-03     181.183E-03    -49.3965E-03     122.228E-03    -133.022E-03     182.303E-03    -49.0046E-03     119.301E-03
              79     17.1073E-03     119.275E-03     172.032E+03     42.2404E+06     96.0380E+06     5.95254E+06    -136.726E-03     185.989E-03    -49.2626E-03     133.908E-03    -138.135E-03     187.275E-03    -48.8439E-03     130.741E-03
              80     17.1087E-03     120.427E-03    -6.35365E+06     42.4339E+06     79.7246E+06     847.477E+03    -131.355E-03     180.633E-03    -49.2781E-03     157.453E-03    -133.007E-03     182.195E-03    -48.9318E-03     154.097E-03
              81     17.1105E-03     121.578E-03    -4.37942E+06     22.6366E+06     45.7067E+06    -13.7354E+06    -88.7764E-03     138.992E-03    -50.2160E-03     182.101E-03    -89.9512E-03     140.122E-03    -50.0139E-03     179.945E-03
              82     17.1061E-03     122.623E-03     3.07523E+06     10.0832E+06     21.1075E+06    -8.66755E+06    -9.90948E-03     65.5015E-03    -55.5921E-03     95.3931E-03    -10.2110E-03     65.7890E-03    -55.5056E-03     94.9556E-03
              83     15.9563E-03     123.329E-03     3.90342E+06     5.55808E+06     36.2426E+06    -619.854E+03     11.3721E-03     49.8759E-03    -61.2480E-03     9.90442E-03     11.3172E-03     49.8471E-03    -61.0805E-03     9.87174E-03
              84     15.0933E-03     123.068E-03     5.12885E+06    -9.19624E+06     59.5551E+06    -5.61227E+06    -17.5622E-03     80.1928E-03    -62.6306E-03     17.3241E-03    -17.6213E-03     80.0696E-03    -62.3269E-03     17.1899E-03
              85     14.2455E-03     122.791E-03     13.1043E+06    -8.22199E+06     77.0866E+06    -1.93996E+06    -25.3285E-03     88.2470E-03    -62.9185E-03     6.07691E-03    -25.3800E-03     88.0807E-03    -62.5402E-03     5.96500E-03
              86     13.4083E-03     122.535E-03     18.3929E+06     2.40282E+06     87.9527E+06     2.49764E+06    -30.3206E-03     93.1620E-03    -62.8414E-03    -7.66461E-03    -30.3797E-03     93.0140E-03    -62.4318E-03    -7.74447E-03
              87     12.5720E-03     122.305E-03     21.5524E+06     452.983E+03     87.1732E+06     1.57277E+06    -39.3770E-03     101.815E-03    -62.4379E-03    -19.6063E-03    -39.4128E-03     101.644E-03    -62.0339E-03    -19.7247E-03
              88     11.7472E-03     122.095E-03     25.2510E+06    -1.21952E+06     89.1270E+06     1.72445E+06    -46.5738E-03     108.289E-03    -61.7147E-03    -28.1601E-03    -46.5902E-03     108.092E-03    -61.3040E-03    -28.2888E-03
              89     10.9212E-03     121.911E-03     27.2792E+06     485.872E+03     86.9837E+06     994.833E+03    -51.3581E-03     112.145E-03    -60.7868E-03    -31.3333E-03    -51.3594E-03     111.956E-03    -60.3921E-03    -31.4656E-03
              90     10.0946E-03     121.750E-03     29.6004E+06    -1.51465E+06     83.8664E+06    -18.9870E+03    -55.0632E-03     114.823E-03    -59.7599E-03    -32.0472E-03    -55.0435E-03     114.626E-03    -59.3813E-03    -32.1823E-03
              91     9.26684E-03     121.608E-03     32.1913E+06    -849.149E+03     83.0689E+06    -187.644E+03    -57.1553E-03     115.833E-03    -58.6775E-03    -30.4823E-03    -57.1217E-03     115.639E-03    -58.3076E-03    -30.6052E-03
              92     8.43644E-03     121.485E-03     33.7644E+06    -398.125E+03     80.7755E+06      422.82E+03    -57.9732E-03     115.559E-03    -57.5858E-03    -27.7117E-03    -57.9283E-03     115.372E-03    -57.2303E-03    -27.8106E-03
              93     7.60301E-03     121.378E-03     34.2401E+06     382.500E+03     76.7602E+06     338.230E+03    -57.9298E-03     114.454E-03    -56.5243E-03    -24.6117E-03    -57.8774E-03     114.279E-03    -56.1907E-03    -24.6961E-03
              94     6.76670E-03     121.287E-03     34.4359E+06     447.460E+03     71.9277E+06    -173.276E+03    -57.2877E-03     112.815E-03    -55.5270E-03    -21.4938E-03    -57.2270E-03     112.649E-03    -55.2179E-03    -21.5706E-03
              95     5.92731E-03     121.209E-03     34.9678E+06     517.373E+03     66.2898E+06    -1.01636E+06    -56.3002E-03     110.917E-03    -54.6165E-03    -18.5177E-03    -56.2284E-03     110.761E-03    -54.3365E-03    -18.5928E-03
              96     5.08539E-03     121.144E-03     35.8895E+06     64.3968E+03     60.0289E+06    -1.32701E+06    -55.2050E-03     109.016E-03    -53.8112E-03    -15.7023E-03    -55.1189E-03     108.868E-03    -53.5632E-03    -15.7700E-03
              97     4.24109E-03     121.089E-03     36.8705E+06     218.581E+03     55.0066E+06    -1.58124E+06    -54.1096E-03     107.242E-03    -53.1326E-03    -12.9673E-03    -54.0114E-03     107.102E-03    -52.9113E-03    -13.0281E-03
              98     3.39491E-03     121.046E-03     38.3014E+06    -217.870E+03     50.9958E+06    -1.98493E+06    -53.0922E-03     105.692E-03    -52.6001E-03    -10.3863E-03    -52.9803E-03     105.554E-03    -52.4004E-03    -10.4435E-03
              99     2.54706E-03     121.013E-03     40.1928E+06    -602.220E+03     47.0887E+06    -2.10613E+06    -52.2536E-03     104.493E-03    -52.2397E-03    -8.15639E-03    -52.1259E-03     104.357E-03    -52.0617E-03    -8.20732E-03
             100     1.69765E-03     120.989E-03     41.9467E+06    -576.181E+03     43.9897E+06    -1.81362E+06    -51.7218E-03     103.830E-03    -52.1086E-03    -6.26213E-03    -51.5810E-03     103.696E-03    -51.9486E-03    -6.30251E-03
             101     847.625E-06     120.974E-03     41.4230E+06    -880.616E+03     42.0311E+06    -1.68043E+06    -51.9063E-03     104.083E-03    -52.1769E-03    -4.15784E-03    -51.7667E-03     103.950E-03    -52.0256E-03    -4.18968E-03
             102    -818.282E-09     119.914E-03     36.0746E+06    -3.07092E+06     35.8160E+06    -1.09653E+06    -45.9739E-03     92.3511E-03    -46.3772E-03    -919.262E-06    -45.8471E-03     92.2255E-03    -46.2459E-03    -939.823E-06
             103     118.626E-09     118.888E-03     20.3349E+06    -8.87925E+06     19.6216E+06    -1.60903E+06    -36.1192E-03     72.5155E-03    -36.3964E-03     1.61312E-03    -36.0352E-03     72.4113E-03    -36.3149E-03     1.58652E-03
             104     120.159E-09     117.876E-03    -2.63645E+06    -17.6319E+06    -2.01761E+06    -2.70650E+06    -29.9161E-03     59.5724E-03    -29.6564E-03     2.83878E-03    -29.9017E-03     59.4904E-03    -29.6371E-03     2.79964E-03
             105     109.596E-09     116.876E-03    -26.3048E+06    -27.8551E+06    -26.0502E+06    -3.07709E+06    -25.7215E-03     51.3354E-03    -25.6140E-03     4.02180E-03    -25.7750E-03     51.2722E-03    -25.6657E-03     3.97971E-03
             106    -152.137E-09     115.881E-03    -53.9251E+06    -40.1831E+06    -53.6558E+06    -3.73541E+06    -23.5588E-03     47.2952E-03    -23.7364E-03     4.88765E-03    -23.6923E-03     47.2506E-03    -23.8682E-03     4.83842E-03
             107    -124.882E-09     114.888E-03    -84.9406E+06    -53.1263E+06    -84.2390E+06    -4.11446E+06    -23.3188E-03     46.8018E-03    -23.4831E-03     5.54518E-03    -23.5442E-03     46.7818E-03    -23.7041E-03     5.49209E-03
             108     107.037E-09     113.894E-03    -116.094E+06    -65.1928E+06    -116.362E+06    -3.04075E+06    -24.7569E-03     49.3788E-03    -24.6219E-03     6.22106E-03    -25.0742E-03     49.3900E-03    -24.9408E-03     6.18247E-03
             109     128.591E-09     112.896E-03    -122.904E+06    -70.5086E+06    -123.745E+06     21.6489E+03    -27.3904E-03     54.5893E-03    -27.1988E-03     6.77504E-03    -27.7235E-03     54.5942E-03    -27.5371E-03     6.77601E-03
             110    -55.3404E-09     111.891E-03    -92.3253E+06    -66.5846E+06    -92.2561E+06     2.54839E+06    -30.8290E-03     61.6511E-03    -30.8220E-03     7.00056E-03    -31.0607E-03     61.5855E-03    -31.0529E-03     7.03344E-03
             111    -21.9672E-09     110.879E-03    -60.3632E+06    -59.1481E+06    -59.5209E+06     1.57709E+06    -34.5967E-03     69.2929E-03    -34.6962E-03     6.94554E-03    -34.7269E-03     69.1708E-03    -34.8205E-03     6.96468E-03
             112    -81.1010E-09     109.858E-03       -46.8E+06    -58.1794E+06    -46.4529E+06    -990.107E+03    -38.3253E-03     76.5381E-03    -38.2129E-03     6.80495E-03    -38.4079E-03     76.3824E-03    -38.2929E-03     6.78903E-03
             113     365.037E-09     108.831E-03    -41.3357E+06    -64.4374E+06    -41.0320E+06    -2.39457E+06    -41.6827E-03     83.0664E-03    -41.3837E-03     6.80147E-03    -41.7369E-03     82.8638E-03    -41.4355E-03     6.76499E-03
             114    -146.763E-09     107.798E-03    -41.1605E+06    -73.9091E+06    -41.3225E+06    -2.74405E+06    -44.3627E-03     88.6330E-03    -44.2704E-03     6.67376E-03    -44.4017E-03     88.3834E-03    -44.3101E-03     6.63033E-03
             115     68.1679E-09     106.759E-03    -43.5997E+06    -83.6597E+06    -43.9652E+06    -2.64425E+06    -46.5931E-03     93.1354E-03    -46.5422E-03     6.42895E-03    -46.6263E-03     92.8444E-03    -46.5775E-03     6.38443E-03
             116     76.1070E-09     105.716E-03    -45.8101E+06    -93.5142E+06    -46.3295E+06    -3.23394E+06    -48.4298E-03     96.7063E-03    -48.2765E-03     6.25524E-03    -48.4564E-03     96.3729E-03    -48.3061E-03     6.20092E-03
             117     20.0094E-09     104.671E-03    -49.7349E+06    -104.946E+06    -50.0685E+06    -3.07940E+06    -49.7663E-03     99.5624E-03    -49.7961E-03     6.08366E-03    -49.7905E-03     99.1830E-03    -49.8221E-03     6.02945E-03
             118    -186.718E-09     103.622E-03    -52.0251E+06    -115.380E+06    -52.1325E+06    -2.49891E+06    -50.8674E-03     101.771E-03    -50.9031E-03     5.90728E-03    -50.8849E-03     101.345E-03    -50.9210E-03     5.85909E-03
             119     275.468E-09     102.572E-03    -55.5920E+06    -125.141E+06    -55.5440E+06    -2.64248E+06    -51.7533E-03     103.281E-03    -51.5281E-03     5.87781E-03    -51.7696E-03     102.818E-03    -51.5437E-03     5.82658E-03
             120     5.76704E-09     101.520E-03    -59.6628E+06    -133.594E+06    -60.1968E+06    -1.89838E+06    -52.2244E-03     104.295E-03    -52.0711E-03     5.87018E-03    -52.2420E-03     103.802E-03    -52.0919E-03     5.82732E-03
             121    -46.5170E-09     100.468E-03    -62.1543E+06    -140.374E+06    -61.6616E+06    -1.73931E+06    -52.5029E-03     105.049E-03    -52.5462E-03     5.79697E-03    -52.5209E-03     104.527E-03    -52.5609E-03     5.75585E-03
             122     3.34698E-09     99.4144E-03    -65.0785E+06    -147.440E+06    -65.1374E+06    -2.04592E+06    -52.7648E-03     105.536E-03    -52.7714E-03     5.76173E-03    -52.7822E-03     104.989E-03    -52.7889E-03     5.71645E-03
             123     12.8566E-09     98.3611E-03    -67.9049E+06    -153.398E+06    -68.2388E+06    -1.45688E+06    -52.9844E-03     105.876E-03    -52.8918E-03     5.75115E-03    -53.0028E-03     105.307E-03    -52.9121E-03     5.71305E-03
             124     110.280E-09     97.3074E-03    -69.8457E+06    -159.044E+06    -69.3544E+06    -1.55123E+06    -53.1395E-03     106.140E-03    -53.0005E-03     5.73293E-03    -53.1578E-03     105.547E-03    -53.0154E-03     5.69355E-03
             125    -5.73452E-09     96.2533E-03    -70.4164E+06    -164.758E+06    -71.2163E+06    -1.20113E+06    -53.1676E-03     106.224E-03    -53.0559E-03     5.75155E-03    -53.1778E-03     105.606E-03    -53.0710E-03     5.71649E-03
             126     67.8890E-09     95.1996E-03    -71.4915E+06    -168.943E+06    -71.1296E+06    -908.359E+03    -53.1533E-03     106.267E-03    -53.1137E-03     5.69791E-03    -53.1629E-03     105.630E-03    -53.1208E-03     5.66672E-03
             127    -73.3146E-09     94.1457E-03    -71.2618E+06    -172.551E+06    -71.1393E+06    -1.09085E+06    -53.1320E-03     106.350E-03    -53.2178E-03     5.63477E-03    -53.1353E-03     105.694E-03    -53.2200E-03     5.60100E-03
             128    -80.7283E-09     93.0916E-03    -70.8374E+06    -175.564E+06    -71.0071E+06    -697.008E+03    -53.1862E-03     106.415E-03    -53.2288E-03     5.68423E-03    -53.1831E-03     105.744E-03    -53.2266E-03     5.65592E-03
             129     145.403E-09     92.0374E-03    -71.6393E+06    -177.817E+06    -71.9765E+06    -525.326E+03    -53.2308E-03     106.366E-03    -53.1349E-03     5.83187E-03    -53.2270E-03     105.686E-03    -53.1331E-03     5.80575E-03
             130    -65.7501E-09     90.9835E-03    -72.9818E+06    -179.364E+06    -72.7261E+06    -322.894E+03    -53.1950E-03     106.258E-03    -53.0627E-03     5.75844E-03    -53.1946E-03     105.573E-03    -53.0604E-03     5.73421E-03
             131     199.544E-09     89.9300E-03    -70.1287E+06    -180.803E+06    -70.0296E+06    -706.747E+03    -53.1984E-03     106.259E-03    -53.0610E-03     5.63928E-03    -53.1857E-03     105.559E-03    -53.0473E-03     5.60968E-03
             132    -112.209E-09     88.8759E-03    -67.7168E+06    -182.838E+06    -68.2863E+06    -503.511E+03    -53.0962E-03     106.249E-03    -53.1525E-03     5.61293E-03    -53.0710E-03     105.533E-03    -53.1306E-03     5.58626E-03
             133    -91.7526E-09     87.8224E-03    -68.5877E+06    -183.990E+06    -68.3851E+06     161.860E+03    -53.0769E-03     106.226E-03    -53.1490E-03     5.58158E-03    -53.0541E-03     105.505E-03    -53.1247E-03     5.56414E-03
             134     160.604E-09     86.7682E-03    -68.3434E+06    -184.241E+06    -68.3894E+06    -168.792E+03    -53.2082E-03     106.222E-03    -53.0143E-03     5.70023E-03    -53.1839E-03     105.500E-03    -52.9900E-03     5.67823E-03
             135     86.1709E-09     85.7147E-03    -68.6353E+06    -184.567E+06    -68.2453E+06    -261.068E+03    -53.1704E-03     106.162E-03    -52.9917E-03     5.78052E-03    -53.1473E-03     105.439E-03    -52.9658E-03     5.75675E-03
             136    -38.8252E-09     84.6609E-03    -67.9377E+06    -184.442E+06    -68.1461E+06    -108.736E+03    -53.1267E-03     106.159E-03    -53.0322E-03     5.74654E-03    -53.1004E-03     105.435E-03    -53.0070E-03     5.72514E-03
             137     135.375E-09     83.6072E-03    -67.3954E+06    -183.927E+06    -67.4231E+06     257.262E+03    -53.1112E-03     106.140E-03    -53.0285E-03     5.76535E-03    -53.0840E-03     105.416E-03    -53.0012E-03     5.74953E-03
             138    -106.329E-09     82.5535E-03    -66.9393E+06    -183.429E+06    -66.8078E+06     274.758E+03    -53.0208E-03     106.049E-03    -53.0287E-03     5.71338E-03    -52.9929E-03     105.327E-03    -52.9997E-03     5.69742E-03
             139     50.2133E-09     81.5002E-03    -66.8578E+06    -183.411E+06    -66.9688E+06    -26.8964E+03    -53.0169E-03     106.043E-03    -53.0262E-03     5.57852E-03    -52.9884E-03     105.321E-03    -52.9982E-03     5.55830E-03
             140    -25.4649E-09     80.4465E-03    -66.5264E+06    -182.940E+06    -66.5032E+06    -114.684E+03    -53.1249E-03     106.109E-03    -52.9844E-03     5.50803E-03    -53.0960E-03     105.388E-03    -52.9552E-03     5.48689E-03
             141     226.859E-09     79.3928E-03    -65.9880E+06    -182.658E+06    -66.4959E+06     225.763E+03    -53.1018E-03     106.128E-03    -53.0264E-03     5.58559E-03    -53.0708E-03     105.408E-03    -52.9983E-03     5.56924E-03
             142    -319.315E-09     78.3392E-03    -65.9535E+06    -182.103E+06    -65.4464E+06     206.219E+03    -53.0228E-03     106.170E-03    -53.1470E-03     5.62428E-03    -52.9938E-03     105.451E-03    -53.1146E-03     5.60798E-03
             143     190.741E-09     77.2852E-03    -65.6804E+06    -182.153E+06    -65.8460E+06    -103.215E+03    -53.1376E-03     106.211E-03    -53.0731E-03     5.65965E-03    -53.1067E-03     105.491E-03    -53.0430E-03     5.63920E-03
             144     31.3402E-09     76.2314E-03    -65.8345E+06    -182.054E+06    -65.6009E+06     269.611E+03    -53.1927E-03     106.134E-03    -52.9415E-03     5.74204E-03    -53.1630E-03     105.415E-03    -52.9101E-03     5.72610E-03
             145     162.783E-09     75.1779E-03    -65.2460E+06    -181.525E+06    -65.1253E+06     54.6249E+03    -53.1460E-03     106.090E-03    -52.9441E-03     5.65638E-03    -53.1148E-03     105.372E-03    -52.9119E-03     5.63747E-03
             146    -25.5480E-09     74.1244E-03    -64.7082E+06    -181.191E+06    -65.0174E+06    -69.7564E+03    -53.0594E-03     106.134E-03    -53.0742E-03     5.64302E-03    -53.0262E-03     105.417E-03    -53.0428E-03     5.62230E-03
             147    -155.056E-09     73.0704E-03    -64.6749E+06    -180.937E+06    -64.6844E+06    -112.679E+03    -52.9968E-03     106.149E-03    -53.1523E-03     5.60610E-03    -52.9643E-03     105.433E-03    -53.1195E-03     5.58492E-03
             148     55.8361E-09     72.0170E-03    -64.7201E+06    -181.107E+06    -64.9593E+06    -23.3571E+03    -53.0740E-03     106.174E-03    -53.0997E-03     5.62898E-03    -53.0410E-03     105.457E-03    -53.0680E-03     5.60897E-03
             149    -17.6158E-09     70.9629E-03    -64.6844E+06    -180.895E+06    -64.5097E+06     44.8632E+03    -53.1505E-03     106.196E-03    -53.0459E-03     5.71097E-03    -53.1184E-03     105.480E-03    -53.0123E-03     5.69166E-03
             150     144.980E-09     69.9092E-03    -64.8778E+06    -181.142E+06    -64.9344E+06     193.485E+03    -53.1492E-03     106.154E-03    -53.0051E-03     5.73768E-03    -53.1170E-03     105.438E-03    -52.9731E-03     5.72070E-03
             151    -42.2405E-09     68.8557E-03    -64.5493E+06    -180.732E+06    -64.5101E+06     136.194E+03    -53.0960E-03     106.145E-03    -53.0492E-03     5.75493E-03    -53.0634E-03     105.429E-03    -53.0161E-03     5.73739E-03
             152     4.58819E-09     67.8017E-03    -64.4603E+06    -180.701E+06    -64.4222E+06    -368.291E+03    -53.0660E-03     106.134E-03    -53.0679E-03     5.77105E-03    -53.0331E-03     105.418E-03    -53.0345E-03     5.74657E-03
             153     14.9734E-09     66.7482E-03    -64.8572E+06    -181.107E+06    -64.8349E+06     71.9268E+03    -53.1125E-03     106.107E-03    -52.9946E-03     5.62644E-03    -53.0805E-03     105.390E-03    -52.9621E-03     5.60791E-03
             154     152.515E-09     65.6949E-03    -64.7256E+06    -180.958E+06    -64.7003E+06     114.063E+03    -53.1012E-03     106.133E-03    -53.0313E-03     5.48487E-03    -53.0689E-03     105.416E-03    -52.9986E-03     5.46678E-03
             155    -214.277E-09     64.6409E-03    -64.5086E+06    -180.865E+06    -64.6814E+06    -57.1570E+03    -53.0520E-03     106.164E-03    -53.1123E-03     5.47018E-03    -53.0187E-03     105.448E-03    -53.0799E-03     5.44982E-03
             156     157.534E-09     63.5873E-03    -64.7842E+06    -181.001E+06    -64.6175E+06     39.9555E+03    -53.1314E-03     106.217E-03    -53.0856E-03     5.55870E-03    -53.0994E-03     105.500E-03    -53.0523E-03     5.54011E-03
             157    -35.1173E-09     62.5333E-03    -64.3343E+06    -180.576E+06    -64.2440E+06    -131.162E+03    -53.1799E-03     106.187E-03    -53.0068E-03     5.60475E-03    -53.1468E-03     105.471E-03    -52.9729E-03     5.58373E-03
             158     194.743E-09     61.4797E-03    -64.7712E+06    -181.076E+06    -64.7822E+06     33.7734E+03    -53.1162E-03     106.107E-03    -52.9909E-03     5.74305E-03    -53.0838E-03     105.390E-03    -52.9583E-03     5.72375E-03
             159     225.251E-09     59.3722E-03    -64.1494E+06    -180.560E+06    -64.3684E+06    -18.8624E+03    -52.9930E-03     106.084E-03    -53.0910E-03     5.78651E-03    -52.9589E-03     105.368E-03    -53.0580E-03     5.76651E-03
             160    -479.716E-09     58.3188E-03    -64.0452E+06    -180.379E+06    -64.1796E+06    -154.274E+03    -52.9725E-03     106.120E-03    -53.1476E-03     5.64469E-03    -52.9383E-03     105.405E-03    -53.1141E-03     5.62254E-03
             161     419.087E-09     57.2649E-03    -64.5884E+06    -180.999E+06    -64.8065E+06    -63.8138E+03    -53.1363E-03     106.148E-03    -53.0118E-03     5.54198E-03    -53.1030E-03     105.432E-03    -52.9797E-03     5.52087E-03
             162    -162.410E-09     56.2114E-03    -64.7327E+06    -180.940E+06    -64.5309E+06     13.0775E+03    -53.1114E-03     106.086E-03    -52.9751E-03     5.63270E-03    -53.0793E-03     105.370E-03    -52.9415E-03     5.61272E-03
             163     126.019E-09     55.1577E-03    -64.7493E+06    -180.994E+06    -64.6424E+06    -58.0759E+03    -53.0095E-03     106.058E-03    -53.0480E-03     5.56010E-03    -52.9773E-03     105.341E-03    -53.0149E-03     5.53972E-03
             164    -168.466E-09     54.1043E-03    -64.7094E+06    -181.078E+06    -64.8386E+06     67.3462E+03    -52.9699E-03     106.052E-03    -53.0817E-03     5.60077E-03    -52.9371E-03     105.335E-03    -53.0495E-03     5.58266E-03
             165     4.12884E-09     53.0503E-03    -64.4686E+06    -180.819E+06    -64.5098E+06     46.3950E+03    -52.9750E-03     106.061E-03    -53.0865E-03     5.64249E-03    -52.9418E-03     105.345E-03    -53.0534E-03     5.62409E-03
             166    -45.3901E-09     51.9970E-03    -64.4558E+06    -180.827E+06    -64.5181E+06     52.3729E+03    -53.0638E-03     106.070E-03    -53.0058E-03     5.60484E-03    -53.0305E-03     105.353E-03    -52.9727E-03     5.58597E-03
             167     170.546E-09     50.9432E-03    -64.5819E+06    -180.915E+06    -64.6210E+06     27.8314E+03    -53.0239E-03     105.978E-03    -52.9545E-03     5.57918E-03    -52.9910E-03     105.262E-03    -52.9216E-03     5.56021E-03
             168    -191.896E-09     49.8900E-03     -64.455E+06    -180.774E+06    -64.4486E+06    -45.5808E+03    -52.9306E-03     105.925E-03    -52.9939E-03     5.54419E-03    -52.8975E-03     105.208E-03    -52.9606E-03     5.52427E-03
             169     91.0527E-09     48.8364E-03    -64.4332E+06    -180.831E+06    -64.5176E+06    -118.196E+03    -52.9870E-03     105.969E-03    -52.9823E-03     5.49939E-03    -52.9536E-03     105.253E-03    -52.9493E-03     5.47811E-03
             170     2.96697E-09     47.7827E-03    -64.8816E+06    -181.153E+06    -64.7166E+06     53.4907E+03    -53.0649E-03     105.929E-03    -52.8644E-03     5.56799E-03    -53.0331E-03     105.212E-03    -52.8312E-03     5.54923E-03
             171     232.891E-09     46.7294E-03    -64.5396E+06    -180.959E+06    -64.6538E+06    -238.055E+03    -52.9852E-03     105.859E-03    -52.8738E-03     5.64100E-03    -52.9520E-03     105.142E-03    -52.8411E-03     5.61812E-03
             172    -294.395E-09     45.6761E-03    -64.6012E+06    -181.091E+06    -64.8324E+06     22.9343E+03    -52.8789E-03     105.833E-03    -52.9538E-03     5.65368E-03    -52.8455E-03     105.116E-03    -52.9217E-03     5.63426E-03
             173     210.766E-09     44.6224E-03    -64.8043E+06    -181.088E+06    -64.6766E+06     215.631E+03    -52.8669E-03     105.713E-03    -52.8463E-03     5.63497E-03    -52.8347E-03     104.996E-03    -52.8132E-03     5.61851E-03
             174    -105.343E-09     43.5697E-03    -64.7609E+06    -181.164E+06    -64.8995E+06    -11.5466E+03    -52.8060E-03     105.592E-03    -52.7857E-03     5.63224E-03    -52.7732E-03     104.875E-03    -52.7536E-03     5.61295E-03
             175     18.3535E-09     42.5164E-03    -64.4647E+06    -180.815E+06    -64.5291E+06     170.687E+03    -52.7346E-03     105.493E-03    -52.7585E-03     5.56564E-03    -52.7014E-03     104.777E-03    -52.7255E-03     5.54900E-03
             176     12.7911E-09     41.4633E-03    -65.1011E+06    -181.266E+06    -64.8752E+06     192.054E+03    -52.6756E-03     105.233E-03    -52.5569E-03     5.52764E-03    -52.6444E-03     104.515E-03    -52.5240E-03     5.51147E-03
             177     147.162E-09     40.4112E-03     -64.814E+06    -180.964E+06    -64.5408E+06    -66.6099E+03    -52.6159E-03     105.030E-03    -52.4145E-03     5.46945E-03    -52.5841E-03     104.314E-03    -52.3809E-03     5.44951E-03
             178     25.9881E-09     39.3584E-03    -64.7579E+06    -181.000E+06    -64.6461E+06    -255.209E+03    -52.5072E-03     104.867E-03    -52.3594E-03     5.45557E-03    -52.4750E-03     104.150E-03    -52.3263E-03     5.43264E-03
             179     40.9021E-09     38.3062E-03    -64.9149E+06    -181.237E+06    -65.0354E+06    -32.9755E+03    -52.2235E-03     104.500E-03    -52.2767E-03     5.48460E-03    -52.1912E-03     103.783E-03    -52.2450E-03     5.46539E-03
             180    -213.877E-09     37.2545E-03    -64.7384E+06    -181.065E+06    -64.8857E+06    -3.28848E+03    -51.9887E-03     104.103E-03    -52.1138E-03     5.36423E-03    -51.9559E-03     103.386E-03    -52.0818E-03     5.34571E-03
             181     158.205E-09     36.2033E-03    -64.7262E+06    -181.055E+06    -64.8387E+06    -99.8748E+03    -51.9584E-03     103.786E-03    -51.8273E-03     5.27758E-03    -51.9256E-03     103.069E-03    -51.7951E-03     5.25772E-03
             182     107.527E-09     35.1520E-03    -64.7067E+06    -180.985E+06    -64.8368E+06     216.666E+03    -51.7382E-03     103.360E-03    -51.6222E-03     5.44420E-03    -51.7054E-03     102.644E-03    -51.5901E-03     5.42909E-03
             183    -190.204E-09     34.1015E-03    -64.6838E+06    -180.807E+06    -64.6965E+06     306.156E+03    -51.3349E-03     102.750E-03    -51.4156E-03     5.45272E-03    -51.3024E-03     102.035E-03    -51.3831E-03     5.43924E-03
             184     120.821E-09     33.0517E-03    -64.4552E+06    -180.545E+06    -64.5374E+06     25.7305E+03    -51.1142E-03     102.123E-03    -51.0089E-03     5.33828E-03    -51.0812E-03     101.408E-03    -50.9763E-03     5.32082E-03
             185     114.595E-09     32.0029E-03    -64.6278E+06    -180.493E+06    -64.4821E+06    -29.1103E+03    -50.8144E-03     101.518E-03    -50.7040E-03     5.15185E-03    -50.7824E-03     100.804E-03    -50.6710E-03     5.13372E-03
             186    -171.858E-09     30.9546E-03    -64.2329E+06    -180.116E+06    -64.4325E+06     114.883E+03    -50.4178E-03     100.863E-03    -50.4449E-03     4.96868E-03    -50.3845E-03     100.149E-03    -50.4127E-03     4.95316E-03
             187     169.134E-09     29.9063E-03    -64.5036E+06    -180.111E+06    -64.4587E+06     315.741E+03    -50.0809E-03     100.094E-03    -50.0130E-03     4.97134E-03    -50.0488E-03     99.3811E-03    -49.9806E-03     4.95898E-03
             188    -61.1767E-09     28.8599E-03    -64.1722E+06    -179.569E+06    -64.0229E+06    -12.3499E+03    -49.6046E-03     99.1877E-03    -49.5831E-03     4.85689E-03    -49.5723E-03     98.4765E-03    -49.5498E-03     4.84053E-03
             189    -19.3948E-09     27.8138E-03    -63.8554E+06    -179.117E+06    -64.1525E+06     63.4579E+03    -49.0954E-03     98.2681E-03    -49.1727E-03     4.77657E-03    -49.0620E-03     97.5589E-03    -49.1412E-03     4.76132E-03
             190    -46.4366E-09     26.7689E-03    -63.7051E+06    -178.291E+06    -63.6697E+06     463.185E+03    -48.6528E-03     97.2933E-03    -48.6404E-03     4.67517E-03    -48.6206E-03     96.5872E-03    -48.6079E-03     4.66570E-03
             191     123.838E-09     25.7251E-03    -63.2888E+06    -177.542E+06    -63.2364E+06     67.4564E+03    -48.1390E-03     96.2392E-03    -48.1002E-03     4.59237E-03    -48.1064E-03     95.5357E-03    -48.0671E-03     4.57778E-03
             192    -143.790E-09     24.6825E-03    -63.3254E+06    -177.515E+06    -63.5010E+06    -164.028E+03    -47.6280E-03     95.2207E-03    -47.5927E-03     4.40641E-03    -47.5952E-03     94.5177E-03    -47.5610E-03     4.38899E-03
             193     213.491E-09     23.6407E-03    -63.4976E+06    -177.187E+06    -63.4832E+06    -184.654E+03    -47.1546E-03     94.2303E-03    -47.0758E-03     4.32600E-03    -47.1231E-03     93.5293E-03    -47.0442E-03     4.30897E-03
             194    -156.360E-09     22.6002E-03    -63.8834E+06    -176.998E+06    -63.7103E+06     116.247E+03    -46.7070E-03     93.3000E-03    -46.5930E-03     4.23994E-03    -46.6774E-03     92.6007E-03    -46.5623E-03     4.22726E-03
             195     288.602E-09     21.5603E-03    -63.6546E+06    -176.183E+06    -63.5259E+06     265.048E+03    -46.2786E-03     92.3903E-03    -46.1117E-03     4.02510E-03    -46.2493E-03     91.6945E-03    -46.0816E-03     4.01485E-03
             196    -140.194E-09     20.5219E-03    -62.7773E+06    -174.873E+06    -63.2035E+06     236.158E+03    -45.7627E-03     91.5198E-03    -45.7571E-03     3.92264E-03    -45.7314E-03     90.8288E-03    -45.7285E-03     3.91251E-03
             197    -10.4924E-09     19.4836E-03    -61.8495E+06    -173.432E+06    -62.2786E+06     657.458E+03    -45.3288E-03     90.7256E-03    -45.3969E-03     3.72275E-03    -45.2962E-03     90.0392E-03    -45.3671E-03     3.71821E-03
             198     32.7930E-09     18.4468E-03    -61.2604E+06    -171.566E+06    -60.7582E+06     377.082E+03    -44.9321E-03     89.7681E-03    -44.8360E-03     3.44151E-03    -44.9014E-03     89.0878E-03    -44.8022E-03     3.43388E-03
             199     110.297E-09     17.4107E-03    -60.0506E+06    -169.416E+06    -60.3276E+06     387.952E+03    -44.1980E-03     88.3606E-03    -44.1625E-03     3.20851E-03    -44.1651E-03     87.6887E-03    -44.1315E-03     3.20200E-03
             200    -200.170E-09     16.3765E-03    -58.9793E+06    -166.724E+06    -59.1126E+06     919.389E+03    -43.0789E-03     86.2331E-03    -43.1542E-03     2.68946E-03    -43.0463E-03     85.5713E-03    -43.1225E-03     2.69112E-03
             201     155.798E-09     15.3452E-03    -56.6874E+06    -162.730E+06    -56.6464E+06     1.21932E+06    -41.6930E-03     83.3079E-03    -41.6149E-03     2.01811E-03    -41.6582E-03     82.6591E-03    -41.5800E-03     2.02551E-03
             202     22.8790E-09     14.3171E-03    -54.0740E+06    -158.378E+06    -54.0972E+06     1.51126E+06    -39.8969E-03     79.6226E-03    -39.7257E-03     1.45596E-03    -39.8591E-03     78.9879E-03    -39.6881E-03     1.46875E-03
             203     94.4706E-09     13.2931E-03    -50.8795E+06    -153.313E+06    -51.0243E+06     1.40759E+06    -37.5690E-03     74.9490E-03    -37.3800E-03     902.573E-06    -37.5272E-03     74.3305E-03    -37.3390E-03     915.279E-06
             204     116.581E-09     12.2743E-03    -48.1466E+06    -148.344E+06    -48.2841E+06     1.48832E+06    -34.8200E-03     69.5343E-03    -34.7143E-03     791.095E-06    -34.7757E-03     68.9327E-03    -34.6708E-03     805.633E-06
             205    -143.231E-09     11.2613E-03    -46.6974E+06    -144.244E+06    -46.0266E+06     1.05776E+06    -32.1826E-03     64.2943E-03    -32.1117E-03     699.157E-06    -32.1402E-03     63.7078E-03    -32.0650E-03     708.376E-06
             206     303.121E-09     10.2535E-03    -46.2398E+06    -142.118E+06    -45.8374E+06     407.353E+03    -30.2146E-03     60.1841E-03    -29.9695E-03     757.519E-06    -30.1732E-03     59.6075E-03    -29.9255E-03     758.283E-06
             207    -29.4155E-09     9.24905E-03    -46.7322E+06    -141.588E+06    -46.1627E+06     25.8571E+03    -29.2172E-03     58.2523E-03    -29.0351E-03     1.19899E-03    -29.1784E-03     57.6796E-03    -28.9929E-03     1.19487E-03
             208     79.5627E-09     8.24486E-03    -46.8646E+06    -142.437E+06    -46.5418E+06    -667.657E+03    -29.6195E-03     59.1835E-03    -29.5640E-03     1.78541E-03    -29.5797E-03     58.6073E-03    -29.5222E-03     1.77272E-03
             209    -30.1514E-09     7.23831E-03    -47.1375E+06    -144.566E+06    -46.6690E+06    -591.289E+03    -31.4911E-03     62.9764E-03    -31.4853E-03     2.45711E-03    -31.4496E-03     62.3898E-03    -31.4407E-03     2.44592E-03
             210    -3.90458E-09     6.22644E-03    -46.2525E+06    -146.634E+06    -45.9539E+06    -438.210E+03    -34.5013E-03     69.1149E-03    -34.6136E-03     2.96173E-03    -34.4535E-03     68.5154E-03    -34.5637E-03     2.95292E-03
             211    -152.977E-09     5.20727E-03    -43.8403E+06    -148.115E+06    -44.1817E+06    -135.498E+03    -38.3168E-03     76.6835E-03    -38.3667E-03     3.16510E-03    -38.2575E-03     76.0704E-03    -38.3093E-03     3.16048E-03
             212     220.458E-09     4.17998E-03    -40.3802E+06    -148.408E+06    -40.5290E+06     58.3046E+03    -42.3082E-03     84.7040E-03    -42.3959E-03     3.16890E-03    -42.2364E-03     84.0792E-03    -42.3248E-03     3.16684E-03
             213    -438.848E-09     3.14452E-03    -36.8460E+06    -148.430E+06    -37.2739E+06    -129.735E+03    -46.1296E-03     92.4167E-03    -46.2870E-03     2.72200E-03    -46.0446E-03     91.7820E-03    -46.2048E-03     2.71789E-03
             214     382.725E-09     2.10138E-03    -34.4784E+06    -148.613E+06    -34.7186E+06    -58.5983E+03    -49.4780E-03     98.9595E-03    -49.4815E-03     1.99399E-03    -49.3841E-03     98.3171E-03    -49.3896E-03     1.99132E-03
             215    -335.435E-09     1.05223E-03    -32.9455E+06    -148.709E+06    -32.8675E+06     41.3120E+03    -51.6926E-03     103.265E-03    -51.5720E-03     1.00325E-03    -51.5931E-03     102.617E-03    -51.4729E-03     1.00286E-03
             216     853.781E-06     69.3889E-18    -32.3410E+06    -148.785E+06    -32.3383E+06    -101.733E+03    -52.4920E-03     104.838E-03    -52.3465E-03     779.817E-06    -52.3904E-03     104.189E-03    -52.2455E-03     777.682E-06
             217     1.70764E-03     69.3889E-18    -32.1038E+06    -148.711E+06    -32.2623E+06    -194.346E+03    -52.7056E-03     105.182E-03    -52.4761E-03     1.69900E-03    -52.6037E-03     104.531E-03    -52.3752E-03     1.69450E-03
             218     2.56088E-03     69.3889E-18    -31.8812E+06    -148.946E+06    -32.6470E+06    -171.748E+03    -53.1348E-03     105.752E-03    -52.6169E-03     2.59552E-03    -53.0309E-03     105.101E-03    -52.5179E-03     2.59044E-03
             219     3.41389E-03     69.3889E-18    -31.5745E+06    -149.509E+06    -33.8083E+06    -703.498E+03    -53.7004E-03     106.507E-03    -52.8070E-03     3.52156E-03    -53.5924E-03     105.855E-03    -52.7135E-03     3.50838E-03
             220     4.26624E-03     69.3889E-18    -30.8518E+06    -149.838E+06    -35.2454E+06    -1.02743E+06    -54.4018E-03     107.444E-03    -53.0425E-03     4.45626E-03    -54.2877E-03     106.791E-03    -52.9567E-03     4.43716E-03
             221     5.11798E-03     69.3889E-18    -29.7685E+06    -150.302E+06    -37.7841E+06    -1.54949E+06    -55.2205E-03     108.537E-03    -53.3166E-03     5.42742E-03    -55.0967E-03     107.884E-03    -53.2444E-03     5.39954E-03
             222     5.96893E-03     69.3889E-18    -27.6526E+06    -147.304E+06    -42.9000E+06    -3.09137E+06    -56.1510E-03     109.764E-03    -53.6126E-03     6.44306E-03    -56.0136E-03     109.129E-03    -53.5734E-03     6.39272E-03
             223     6.81910E-03     69.3889E-18    -23.8985E+06    -137.174E+06    -49.7407E+06    -4.77836E+06    -57.2071E-03     111.134E-03    -53.9274E-03     7.57353E-03    -57.0559E-03     110.556E-03    -53.9425E-03     7.49818E-03
             224     7.66811E-03     69.3889E-18    -19.4127E+06    -122.237E+06    -56.3262E+06    -5.31043E+06    -58.3878E-03     112.664E-03    -54.2763E-03     8.85256E-03    -58.2265E-03     112.163E-03    -54.3526E-03     8.76597E-03
             225     8.51615E-03     69.3889E-18    -14.6920E+06    -102.823E+06    -61.0098E+06    -5.86659E+06    -59.6699E-03     114.338E-03    -54.6685E-03     10.2915E-03    -59.5066E-03     113.935E-03    -54.8032E-03     10.1924E-03
             226     9.36282E-03     69.3889E-18    -9.69840E+06    -78.0758E+06    -62.9850E+06    -6.23496E+06    -61.0346E-03     116.140E-03    -55.1049E-03     11.9304E-03    -60.8797E-03     115.856E-03    -55.2926E-03     11.8194E-03
             227     10.2083E-03     69.3889E-18    -4.83997E+06    -46.7113E+06    -60.2090E+06    -5.64748E+06    -62.4788E-03     118.072E-03    -55.5927E-03     13.7871E-03    -62.3498E-03     117.934E-03    -55.8190E-03     13.6735E-03
             228     11.0523E-03     69.3889E-18    -2.38078E+06    -4.59314E+06    -51.5118E+06    -2.42339E+06    -63.9922E-03     120.127E-03    -56.1344E-03     16.1006E-03    -63.9256E-03     120.184E-03    -56.3818E-03     16.0155E-03
             229     11.8945E-03     69.3889E-18    -3.97103E+06     37.9319E+06    -29.4323E+06     1.08547E+06    -65.5770E-03     122.362E-03    -56.7849E-03     19.0171E-03    -65.6136E-03     122.604E-03    -56.9813E-03     18.9582E-03
             230     12.7352E-03     69.3889E-18    -6.62166E+06     66.7294E+06     3.78563E+06     1.54302E+06    -67.3247E-03     124.876E-03    -57.5511E-03     22.0194E-03    -67.4672E-03     125.220E-03    -57.6193E-03     21.9380E-03
             231     13.5745E-03     69.3889E-18    -6.53634E+06     81.6006E+06     36.4074E+06     841.227E+03    -69.5059E-03     127.886E-03    -58.3796E-03     26.5291E-03    -69.7212E-03     128.261E-03    -58.3064E-03     26.4043E-03
             232     14.4089E-03     69.3889E-18    -2.93621E+06     89.6822E+06     66.2842E+06    -719.932E+03    -71.4823E-03     130.730E-03    -59.2473E-03     33.6048E-03    -71.7422E-03     131.104E-03    -59.0417E-03     33.4182E-03
             233     15.2412E-03     69.3889E-18    -675.309E+03     96.0055E+06     82.6637E+06     879.898E+03    -75.3030E-03     135.440E-03    -60.1368E-03     48.4576E-03    -75.6204E-03     135.853E-03    -59.8617E-03     48.1391E-03
             234     16.0645E-03     69.3889E-18     1.00222E+06     100.161E+06     84.6100E+06     3.48431E+06    -83.6784E-03     144.884E-03    -61.2058E-03     78.1515E-03    -84.1287E-03     145.436E-03    -60.9294E-03     77.5180E-03
             235     16.9646E-03     1.11227E-03     648.194E+03     102.000E+06     80.5089E+06     3.41529E+06    -80.6292E-03     140.331E-03    -59.7017E-03     90.4310E-03    -81.1932E-03     141.019E-03    -59.4480E-03     89.6283E-03
             236     17.0158E-03     2.19557E-03    -2.53930E+06     102.899E+06     75.6810E+06     3.57525E+06    -81.1080E-03     137.258E-03    -56.1505E-03     71.0169E-03    -81.6728E-03     137.965E-03    -55.9177E-03     70.1382E-03
             237     17.0450E-03     3.29647E-03    -3.84974E+06     103.821E+06     74.9111E+06     2.77027E+06    -94.2146E-03     148.194E-03    -53.9797E-03     52.1745E-03    -94.7574E-03     148.877E-03    -53.7501E-03     51.0635E-03
             238     17.0584E-03     4.40542E-03    -3.30162E+06     105.202E+06     76.8701E+06     1.96429E+06    -99.1438E-03     152.066E-03    -52.9220E-03     44.5001E-03    -99.6828E-03     152.745E-03    -52.6854E-03     43.2641E-03
             239     17.0654E-03     5.51503E-03    -204.803E+03     107.913E+06     80.2444E+06     1.10388E+06    -97.1547E-03     149.675E-03    -52.5207E-03     42.4769E-03    -97.6882E-03     150.359E-03    -52.2756E-03     41.2327E-03
             240     17.0686E-03     6.61381E-03    -766.452E+03     108.817E+06     80.7273E+06    -241.748E+03    -93.9326E-03     146.373E-03    -52.4409E-03     40.6360E-03    -94.4680E-03     147.058E-03    -52.1939E-03     39.4217E-03
             241     17.0659E-03     7.70971E-03    -3.24450E+06     107.600E+06     78.8033E+06     346.895E+03    -91.0276E-03     143.540E-03    -52.5127E-03     36.7891E-03    -91.5499E-03     144.204E-03    -52.2700E-03     35.6688E-03
             242     17.0677E-03     8.80163E-03    -1.34684E+06     108.446E+06     78.5213E+06     266.487E+03    -84.6483E-03     137.301E-03    -52.6531E-03     35.0516E-03    -85.1505E-03     137.956E-03    -52.4158E-03     34.0434E-03
             243     17.0675E-03     9.88439E-03    -3.11636E+06     108.171E+06     77.2115E+06    -1.09911E+06    -79.5922E-03     132.368E-03    -52.7760E-03     35.8532E-03    -80.1043E-03     133.029E-03    -52.5423E-03     34.9087E-03
             244     17.0660E-03     10.9679E-03    -2.66035E+06     109.255E+06     78.4512E+06     343.465E+03    -75.9784E-03     128.852E-03    -52.8739E-03     36.4963E-03    -76.4930E-03     129.518E-03    -52.6362E-03     35.6435E-03
             245     17.0690E-03     12.0423E-03    -990.524E+03     111.207E+06     79.6627E+06     1.43697E+06    -71.5964E-03     124.527E-03    -52.9308E-03     36.8414E-03    -72.1140E-03     125.205E-03    -52.6923E-03     36.0625E-03
             246     17.0681E-03     13.1146E-03    -2.79605E+06     111.002E+06     78.6389E+06     852.507E+03    -69.6660E-03     122.589E-03    -52.9231E-03     39.0775E-03    -70.2037E-03     123.283E-03    -52.6868E-03     38.3157E-03
             247     17.0705E-03     14.1910E-03    -1.95517E+06     112.471E+06     79.5760E+06     425.861E+03    -68.2154E-03     121.105E-03    -52.8896E-03     42.6871E-03    -68.7745E-03     121.826E-03    -52.6520E-03     41.9297E-03
             248     17.0715E-03     15.2588E-03    -3.42991E+06     112.493E+06     79.2289E+06    -627.587E+03    -66.9334E-03     119.796E-03    -52.8627E-03     43.7624E-03    -67.5120E-03     120.532E-03    -52.6247E-03     43.0075E-03
             249     17.0712E-03     16.3290E-03    -1.90447E+06     115.172E+06     81.6368E+06     586.368E+03    -65.8732E-03     118.726E-03    -52.8527E-03     44.2825E-03    -66.4567E-03     119.475E-03    -52.6088E-03     43.5677E-03
             250     17.0737E-03     17.3966E-03    -641.411E+03     116.905E+06     82.2948E+06     1.00726E+06    -64.7979E-03     117.630E-03    -52.8317E-03     46.1122E-03    -65.3942E-03     118.400E-03    -52.5888E-03     45.4103E-03
             251     17.0722E-03     18.4642E-03    -2.61514E+06     115.425E+06     80.4445E+06     599.327E+03    -64.5429E-03     117.352E-03    -52.8091E-03     47.4031E-03    -65.1562E-03     118.133E-03    -52.5705E-03     46.6976E-03
             252     17.0744E-03     19.5315E-03    -2.49725E+06     116.102E+06     80.9541E+06     125.591E+03    -63.8139E-03     116.608E-03    -52.7940E-03     48.7966E-03    -64.4429E-03     117.406E-03    -52.5540E-03     48.0926E-03
             253     17.0738E-03     20.5959E-03    -2.62747E+06     116.446E+06     81.2341E+06    -8.58681E+03    -63.2631E-03     116.056E-03    -52.7927E-03     49.1692E-03    -63.9007E-03     116.862E-03    -52.5515E-03     48.4760E-03
             254     17.0738E-03     21.6638E-03    -2.43573E+06     116.942E+06     81.8926E+06     973.084E+03    -61.6622E-03     114.483E-03    -52.8210E-03     50.2117E-03    -62.3084E-03     115.298E-03    -52.5776E-03     49.5619E-03
             255     17.0754E-03     22.7231E-03    -1.78741E+06     117.809E+06     82.7224E+06    -247.017E+03    -60.3408E-03     113.164E-03    -52.8236E-03     52.0105E-03    -61.0014E-03     113.997E-03    -52.5782E-03     51.3579E-03
             256     17.0744E-03     23.7885E-03    -1.83830E+06     117.932E+06     83.2253E+06    -214.291E+03    -59.7798E-03     112.612E-03    -52.8325E-03     52.2884E-03    -60.4426E-03     113.446E-03    -52.5847E-03     51.6544E-03
             257     17.0753E-03     24.8485E-03    -2.56554E+06     117.621E+06     82.6563E+06     484.229E+03    -58.9564E-03     111.806E-03    -52.8497E-03     53.5063E-03    -59.6308E-03     112.649E-03    -52.6033E-03     52.9018E-03
             258     17.0748E-03     25.9074E-03    -1.68602E+06     118.674E+06     82.7977E+06     162.376E+03    -58.3351E-03     111.187E-03    -52.8516E-03     52.2976E-03    -59.0046E-03     112.032E-03    -52.6073E-03     51.6990E-03
             259     17.0757E-03     26.9688E-03    -2.22820E+06     119.265E+06     82.8152E+06     89.7841E+03    -57.0585E-03     109.935E-03    -52.8765E-03     53.1682E-03    -57.7362E-03     110.788E-03    -52.6322E-03     52.5951E-03
             260     17.0749E-03     28.0262E-03    -3.10279E+06     118.740E+06     82.5450E+06     60.1930E+03    -56.8144E-03     109.700E-03    -52.8859E-03     55.3119E-03    -57.5085E-03     110.566E-03    -52.6409E-03     54.7473E-03
             261     17.0755E-03     29.0859E-03    -1.78215E+06     119.123E+06     83.4717E+06    -47.1536E+03    -56.1795E-03     109.081E-03    -52.9020E-03     54.4146E-03    -56.8654E-03     109.942E-03    -52.6548E-03     53.8601E-03
             262     17.0753E-03     30.1412E-03    -1.41893E+06     119.470E+06     84.0576E+06     107.273E+03    -54.7840E-03     107.707E-03    -52.9232E-03     54.5418E-03    -55.4688E-03     108.567E-03    -52.6741E-03     54.0151E-03
             263     17.0762E-03     31.1967E-03    -2.17080E+06     118.898E+06     83.1674E+06    -360.038E+03    -55.0511E-03     107.958E-03    -52.9073E-03     54.1427E-03    -55.7368E-03     108.817E-03    -52.6607E-03     53.6101E-03
             264     17.0749E-03     32.2544E-03    -2.44910E+06     118.714E+06     82.6981E+06    -62.3076E+03    -54.9556E-03     107.880E-03    -52.9243E-03     53.2833E-03    -55.6379E-03     108.735E-03    -52.6794E-03     52.7624E-03
             265     17.0754E-03     33.3103E-03    -1.92575E+06     119.038E+06     83.4686E+06     685.097E+03    -53.7268E-03     106.687E-03    -52.9598E-03     54.1920E-03    -54.4113E-03     107.545E-03    -52.7123E-03     53.7050E-03
             266     17.0757E-03     34.3635E-03    -1.84302E+06     119.175E+06     83.6154E+06    -375.104E+03    -53.6849E-03     106.632E-03    -52.9467E-03     53.6424E-03    -54.3695E-03     107.490E-03    -52.6987E-03     53.1405E-03
             267     17.0757E-03     35.4188E-03    -2.43378E+06     119.008E+06     83.2206E+06    -116.702E+03    -54.3021E-03     107.232E-03    -52.9301E-03     53.4878E-03    -54.9882E-03     108.091E-03    -52.6830E-03     52.9827E-03
             268     17.0754E-03     36.4776E-03    -2.99171E+06     118.679E+06     82.8893E+06     317.873E+03    -53.8535E-03     106.803E-03    -52.9492E-03     55.9341E-03    -54.5538E-03     107.673E-03    -52.7025E-03     55.4434E-03
             269     17.0755E-03     37.5323E-03    -1.62866E+06     118.674E+06     83.2996E+06    -528.585E+03    -52.5876E-03     105.564E-03    -52.9763E-03     55.9966E-03    -53.2849E-03     106.435E-03    -52.7295E-03     55.5106E-03
             270     17.0760E-03     38.5815E-03    -2.08769E+06     118.132E+06     83.2441E+06    -141.346E+03    -52.8222E-03     105.796E-03    -52.9740E-03     54.3864E-03    -53.5085E-03     106.653E-03    -52.7261E-03     53.9095E-03
             271     17.0747E-03     39.6398E-03    -3.09881E+06     118.349E+06     83.2035E+06     880.853E+03    -53.2140E-03     106.187E-03    -52.9730E-03     53.9181E-03    -53.8995E-03     107.040E-03    -52.7241E-03     53.4538E-03
             272     17.0762E-03     40.6923E-03    -1.69756E+06     119.737E+06     84.0104E+06     39.1582E+03    -52.5056E-03     105.490E-03    -52.9844E-03     53.9892E-03    -53.1909E-03     106.351E-03    -52.7355E-03     53.5188E-03
             273     17.0749E-03     41.7451E-03    -1.39241E+06     120.020E+06     84.1421E+06    -92.9781E+03    -52.4061E-03     105.386E-03    -52.9799E-03     53.3460E-03    -53.0871E-03     106.244E-03    -52.7312E-03     52.8779E-03
             274     17.0764E-03     42.8005E-03    -2.16993E+06     119.312E+06     83.6303E+06    -327.264E+03    -52.7384E-03     105.708E-03    -52.9697E-03     53.7843E-03    -53.4254E-03     106.568E-03    -52.7214E-03     53.3082E-03
             275     17.0748E-03     43.8534E-03    -2.57806E+06     118.877E+06     83.1999E+06     9.58394E+03    -53.1817E-03     106.149E-03    -52.9674E-03     53.6310E-03    -53.8685E-03     107.007E-03    -52.7200E-03     53.1542E-03
             276     17.0759E-03     44.9098E-03    -1.89626E+06     119.520E+06     83.7431E+06     308.601E+03    -52.3156E-03     105.299E-03    -52.9832E-03     53.8320E-03    -53.0022E-03     106.160E-03    -52.7351E-03     53.3715E-03
             277     17.0758E-03     45.9613E-03    -1.95218E+06     119.679E+06     84.0325E+06    -349.810E+03    -52.4402E-03     105.414E-03    -52.9736E-03     55.5012E-03    -53.1392E-03     106.287E-03    -52.7241E-03     55.0269E-03
             278     17.0754E-03     47.0176E-03    -2.38955E+06     119.308E+06     83.5652E+06     27.6362E+03    -53.2562E-03     106.215E-03    -52.9587E-03     55.2270E-03    -53.9539E-03     107.085E-03    -52.7104E-03     54.7465E-03
             279     17.0758E-03     48.0720E-03    -2.23583E+06     119.477E+06     83.4149E+06    -56.1757E+03    -52.4212E-03     105.402E-03    -52.9810E-03     55.2809E-03    -53.1194E-03     106.275E-03    -52.7339E-03     54.8105E-03
             280     17.0753E-03     49.1238E-03    -1.79791E+06     119.675E+06     84.0247E+06     144.341E+03    -51.8767E-03     104.875E-03    -52.9981E-03     54.6616E-03    -52.5656E-03     105.738E-03    -52.7489E-03     54.2064E-03
             281     17.0758E-03     50.1772E-03    -2.05227E+06     119.348E+06     83.8945E+06     134.375E+03    -52.2344E-03     105.221E-03    -52.9863E-03     53.7286E-03    -52.9180E-03     106.077E-03    -52.7369E-03     53.2702E-03
             282     17.0754E-03     51.2295E-03    -2.48284E+06     119.054E+06     83.4120E+06    -263.987E+03    -52.9761E-03     105.946E-03    -52.9695E-03     52.5557E-03    -53.6598E-03     106.801E-03    -52.7215E-03     52.0795E-03
             283     17.0754E-03     52.2858E-03    -2.45511E+06     119.130E+06     83.5305E+06     365.077E+03    -52.8287E-03     105.805E-03    -52.9758E-03     53.8312E-03    -53.5189E-03     106.667E-03    -52.7273E-03     53.3650E-03
             284     17.0758E-03     53.3414E-03    -1.95557E+06     119.767E+06     84.0377E+06     44.8859E+03    -52.3560E-03     105.335E-03    -52.9791E-03     56.6999E-03    -53.0619E-03     106.215E-03    -52.7297E-03     56.2302E-03
             285     17.0758E-03     54.3940E-03    -1.72546E+06     119.853E+06     84.1558E+06    -381.126E+03    -52.1853E-03     105.164E-03    -52.9782E-03     55.7935E-03    -52.8834E-03     106.037E-03    -52.7287E-03     55.3234E-03
             286     17.0757E-03     55.4464E-03    -2.17556E+06     119.257E+06     83.7754E+06    -137.727E+03    -52.0136E-03     105.004E-03    -52.9907E-03     54.3950E-03    -52.7018E-03     105.865E-03    -52.7415E-03     53.9387E-03
             287     17.0753E-03     56.4998E-03    -2.55786E+06     118.870E+06     83.2284E+06     78.5754E+03    -52.4875E-03     105.475E-03    -52.9874E-03     54.2061E-03    -53.1758E-03     106.335E-03    -52.7399E-03     53.7435E-03
             288     17.0755E-03     57.5534E-03    -2.48892E+06     118.883E+06     82.9646E+06     35.1457E+03    -52.7426E-03     105.730E-03    -52.9876E-03     53.2883E-03    -53.4262E-03     106.586E-03    -52.7415E-03     52.8199E-03
             289     17.0749E-03     58.6083E-03    -2.56945E+06     118.978E+06     82.8979E+06     404.475E+03    -52.3963E-03     105.389E-03    -52.9931E-03     54.4311E-03    -53.0862E-03     106.252E-03    -52.7475E-03     53.9715E-03
             290     17.0761E-03     59.6617E-03    -1.86854E+06     119.689E+06     83.6233E+06     135.373E+03    -52.3179E-03     105.297E-03    -52.9794E-03     55.1705E-03    -53.0099E-03     106.165E-03    -52.7322E-03     54.7048E-03
             291     17.0755E-03     60.7156E-03    -1.35221E+06     120.473E+06     84.4927E+06    -281.692E+03    -52.2374E-03     105.213E-03    -52.9759E-03     54.3809E-03    -52.9241E-03     106.078E-03    -52.7262E-03     53.9133E-03
             292     853.601E-06     61.4853E-03    -63.8941E+06    -179.559E+06    -62.4940E+06     1.13645E+03    -53.1038E-03     106.131E-03    -53.0277E-03     9.51270E-03    -53.0736E-03     105.419E-03    -52.9871E-03     9.47948E-03
             293     1.70702E-03     61.4987E-03    -61.6718E+06    -175.503E+06    -56.3337E+06     19.7359E+03    -53.1241E-03     106.202E-03    -53.0774E-03     17.3993E-03    -53.1009E-03     105.500E-03    -53.0152E-03     17.3366E-03
             294     2.56065E-03     61.5202E-03    -58.6112E+06    -169.825E+06    -47.7953E+06     87.2414E+03    -53.1963E-03     106.301E-03    -53.1044E-03     25.6161E-03    -53.1842E-03     105.616E-03    -53.0122E-03     25.5201E-03
             295     3.41409E-03     61.5500E-03    -54.9193E+06    -159.934E+06    -39.1356E+06     109.005E+03    -53.2766E-03     106.397E-03    -53.1205E-03     33.7239E-03    -53.2818E-03     105.753E-03    -53.0046E-03     33.5896E-03
             296     4.26777E-03     61.5878E-03    -50.9602E+06    -149.754E+06    -30.1639E+06     72.8387E+03    -53.3833E-03     106.516E-03    -53.1331E-03     41.5811E-03    -53.4091E-03     105.917E-03    -52.9928E-03     41.4026E-03
             297     5.12131E-03     61.6332E-03    -46.8945E+06    -142.449E+06    -20.6806E+06    -46.0395E+03    -53.5188E-03     106.669E-03    -53.1505E-03     49.1183E-03    -53.5657E-03     106.104E-03    -52.9793E-03     48.8885E-03
             298     5.97502E-03     61.6860E-03    -42.5451E+06    -133.370E+06    -13.1379E+06    -142.612E+03    -53.6663E-03     106.821E-03    -53.1543E-03     56.2842E-03    -53.7386E-03     106.306E-03    -52.9649E-03     55.9962E-03
             299     6.82864E-03     61.7457E-03    -38.4656E+06    -125.511E+06    -8.18205E+06    -53.8072E+03    -53.8318E-03     106.979E-03    -53.1472E-03     63.0064E-03    -53.9324E-03     106.521E-03    -52.9503E-03     62.6545E-03
             300     7.68238E-03     61.8119E-03    -35.0830E+06    -115.491E+06    -4.62585E+06     60.5906E+03    -53.9836E-03     107.114E-03    -53.1307E-03     69.3416E-03    -54.1260E-03     106.736E-03    -52.9355E-03     68.9182E-03
             301     8.53607E-03     61.8842E-03    -32.1840E+06    -100.839E+06    -2.92292E+06    -41.0785E+03    -54.1250E-03     107.223E-03    -53.0984E-03     75.2996E-03    -54.3269E-03     106.962E-03    -52.9201E-03     74.7931E-03
             302     9.38990E-03     61.9622E-03    -29.6583E+06    -85.6982E+06    -1.14668E+06    -220.464E+03    -54.2604E-03     107.327E-03    -53.0666E-03     80.7453E-03    -54.5385E-03     107.199E-03    -52.9051E-03     80.1451E-03
             303     10.2436E-03     62.0452E-03    -27.6313E+06    -68.1793E+06     145.017E+03    -295.057E+03    -54.3725E-03     107.403E-03    -53.0309E-03     85.6461E-03    -54.7496E-03     107.440E-03    -52.8913E-03     84.9447E-03
             304     11.0975E-03     62.1331E-03    -25.9999E+06    -43.7032E+06     1.25772E+06    -317.365E+03    -54.4676E-03     107.455E-03    -52.9869E-03     90.3487E-03    -54.9825E-03     107.718E-03    -52.8796E-03     89.5346E-03
             305     11.9510E-03     62.2253E-03    -24.4651E+06    -11.7423E+06     4.18170E+06     38.9595E+03    -54.5218E-03     107.463E-03    -52.9412E-03     96.4722E-03    -55.2356E-03     108.036E-03    -52.8678E-03     95.5375E-03
             306     12.8051E-03     62.3253E-03    -22.1747E+06     43.2738E+06     7.18013E+06     970.559E+03    -54.4738E-03     107.327E-03    -52.8529E-03     105.531E-03    -55.4936E-03     108.401E-03    -52.8476E-03     104.479E-03
             307     13.6593E-03     62.4352E-03    -19.1636E+06     92.8035E+06     30.4041E+06     1.43511E+06    -54.5022E-03     107.362E-03    -52.8598E-03     115.956E-03    -55.8823E-03     108.915E-03    -52.8146E-03     114.839E-03
             308     14.5133E-03     62.5561E-03    -14.5797E+06     110.203E+06     62.2502E+06     723.185E+03    -54.1516E-03     107.100E-03    -52.9482E-03     114.078E-03    -55.6906E-03     108.798E-03    -52.7756E-03     113.019E-03
             309     15.3687E-03     62.6627E-03    -9.54959E+06     120.590E+06     80.8654E+06    -121.933E+03    -53.8052E-03     106.791E-03    -52.9858E-03     106.990E-03    -55.3903E-03     108.536E-03    -52.7424E-03     106.067E-03
             310     16.2216E-03     62.7690E-03    -4.99226E+06     122.357E+06     86.8105E+06    -333.959E+03    -53.3856E-03     106.375E-03    -52.9891E-03     80.1149E-03    -54.5503E-03     107.704E-03    -52.7253E-03     79.4507E-03
             311     853.450E-06     62.5390E-03    -63.7674E+06    -179.389E+06    -62.3274E+06    -55.5644E+03    -53.1374E-03     106.186E-03    -53.0490E-03     9.44195E-03    -53.1071E-03     105.474E-03    -53.0080E-03     9.40816E-03
             312     1.70706E-03     62.5524E-03    -61.7571E+06    -175.624E+06    -56.5230E+06     10.2095E+03    -53.1182E-03     106.216E-03    -53.0974E-03     17.4045E-03    -53.0950E-03     105.514E-03    -53.0359E-03     17.3417E-03
             313     2.56050E-03     62.5739E-03    -58.5533E+06    -169.952E+06    -48.0529E+06     79.8028E+03    -53.1799E-03     106.293E-03    -53.1127E-03     25.6402E-03    -53.1670E-03     105.608E-03    -53.0217E-03     25.5443E-03
             314     3.41418E-03     62.6037E-03    -54.9053E+06    -160.045E+06    -39.3236E+06     181.791E+03    -53.2647E-03     106.387E-03    -53.1227E-03     33.7482E-03    -53.2693E-03     105.743E-03    -53.0076E-03     33.6150E-03
             315     4.26770E-03     62.6414E-03    -50.9688E+06    -149.800E+06    -30.2339E+06     260.297E+03    -53.3755E-03     106.508E-03    -53.1329E-03     41.6012E-03    -53.4010E-03     105.909E-03    -52.9930E-03     41.4254E-03
             316     5.12139E-03     62.6869E-03    -46.8614E+06    -142.199E+06    -20.4868E+06     207.846E+03    -53.5071E-03     106.657E-03    -53.1494E-03     49.1343E-03    -53.5545E-03     106.092E-03    -52.9777E-03     48.9080E-03
             317     5.97498E-03     62.7397E-03    -42.9219E+06    -133.206E+06    -12.9266E+06     3.13331E+03    -53.6505E-03     106.803E-03    -53.1525E-03     56.3030E-03    -53.7251E-03     106.290E-03    -52.9617E-03     56.0171E-03
             318     6.82873E-03     62.7995E-03    -39.2338E+06    -125.808E+06    -8.30152E+06     61.3372E+03    -53.8165E-03     106.960E-03    -53.1436E-03     63.0183E-03    -53.9204E-03     106.502E-03    -52.9458E-03     62.6681E-03
             319     7.68238E-03     62.8655E-03    -35.7059E+06    -115.528E+06    -4.78214E+06     197.480E+03    -53.9768E-03     107.103E-03    -53.1260E-03     69.3269E-03    -54.1221E-03     106.725E-03    -52.9306E-03     68.9052E-03
             320     8.53618E-03     62.9379E-03    -32.5814E+06    -100.598E+06    -2.99957E+06     137.906E+03    -54.1305E-03     107.225E-03    -53.0941E-03     75.2689E-03    -54.3347E-03     106.965E-03    -52.9160E-03     74.7644E-03
             321     9.38988E-03     63.0158E-03    -30.1074E+06    -85.6296E+06    -1.35275E+06     143.073E+03    -54.2872E-03     107.351E-03    -53.0641E-03     80.6986E-03    -54.5675E-03     107.225E-03    -52.9031E-03     80.1024E-03
             322     10.2436E-03     63.0990E-03    -27.9725E+06    -68.0665E+06    -140.806E+03     165.619E+03    -54.3974E-03     107.428E-03    -53.0304E-03     85.6231E-03    -54.7764E-03     107.466E-03    -52.8919E-03     84.9266E-03
             323     11.0973E-03     63.1866E-03    -26.1942E+06    -43.9554E+06     924.003E+03     358.489E+03    -54.4230E-03     107.409E-03    -52.9858E-03     90.4018E-03    -54.9382E-03     107.672E-03    -52.8795E-03     89.5969E-03
             324     11.9513E-03     63.2794E-03    -24.5016E+06    -11.9316E+06     3.86466E+06     438.230E+03    -54.4274E-03     107.362E-03    -52.9348E-03     96.4674E-03    -55.1399E-03     107.934E-03    -52.8627E-03     95.5403E-03
             325     12.8051E-03     63.3786E-03    -22.1738E+06     43.1173E+06     6.70951E+06    -44.5642E+03    -54.4873E-03     107.331E-03    -52.8435E-03     105.339E-03    -55.5052E-03     108.404E-03    -52.8403E-03     104.273E-03
             326     13.6593E-03     63.4890E-03    -18.1479E+06     92.4602E+06     29.0883E+06    -69.1856E+03    -54.6046E-03     107.454E-03    -52.8498E-03     115.645E-03    -55.9787E-03     109.008E-03    -52.8121E-03     114.504E-03
             327     14.5137E-03     63.6095E-03    -13.3205E+06     110.818E+06     61.6500E+06     114.374E+03    -54.3571E-03     107.307E-03    -52.9503E-03     113.617E-03    -55.8924E-03     109.010E-03    -52.7834E-03     112.542E-03
             328     15.3671E-03     63.7159E-03    -9.16171E+06     120.856E+06     81.0338E+06    -11.8858E+03    -53.9283E-03     106.933E-03    -53.0042E-03     106.076E-03    -55.5070E-03     108.673E-03    -52.7610E-03     105.151E-03
             329     16.2222E-03     63.8235E-03    -4.67276E+06     122.033E+06     86.4849E+06     103.329E+03    -53.1610E-03     106.166E-03    -53.0046E-03     79.6087E-03    -54.3178E-03     107.488E-03    -52.7423E-03     78.9540E-03
             330     853.477E-06     63.5927E-03    -63.9092E+06    -179.480E+06    -62.3844E+06     25.1786E+03    -53.1093E-03     106.202E-03    -53.0928E-03     9.44064E-03    -53.0795E-03     105.489E-03    -53.0518E-03     9.40793E-03
             331     1.70695E-03     63.6061E-03    -61.7904E+06    -175.570E+06    -56.4710E+06     51.9768E+03    -53.1077E-03     106.210E-03    -53.1020E-03     17.4545E-03    -53.0849E-03     105.508E-03    -53.0402E-03     17.3923E-03
             332     2.56062E-03     63.6276E-03    -58.7422E+06    -170.095E+06    -48.2091E+06     62.9068E+03    -53.1728E-03     106.285E-03    -53.1119E-03     25.6780E-03    -53.1604E-03     105.600E-03    -53.0211E-03     25.5819E-03
             333     3.41411E-03     63.6574E-03    -55.0261E+06    -160.274E+06    -39.6229E+06     178.606E+03    -53.2621E-03     106.382E-03    -53.1199E-03     33.7636E-03    -53.2666E-03     105.737E-03    -53.0058E-03     33.6305E-03
             334     4.26777E-03     63.6952E-03    -51.0684E+06    -149.960E+06    -30.4421E+06     349.851E+03    -53.3669E-03     106.497E-03    -53.1297E-03     41.6017E-03    -53.3924E-03     105.897E-03    -52.9904E-03     41.4272E-03
             335     5.12136E-03     63.7406E-03    -46.7557E+06    -142.015E+06    -20.2433E+06     282.960E+03    -53.4980E-03     106.645E-03    -53.1466E-03     49.1250E-03    -53.5454E-03     106.081E-03    -52.9741E-03     48.8997E-03
             336     5.97509E-03     63.7934E-03    -42.4114E+06    -133.353E+06    -12.3206E+06     411.681E+03    -53.6498E-03     106.801E-03    -53.1511E-03     56.2717E-03    -53.7226E-03     106.285E-03    -52.9578E-03     55.9909E-03
             337     6.82872E-03     63.8531E-03    -38.6430E+06    -125.941E+06    -7.76005E+06     562.779E+03    -53.8173E-03     106.959E-03    -53.1422E-03     62.9736E-03    -53.9188E-03     106.499E-03    -52.9423E-03     62.6295E-03
             338     7.68247E-03     63.9193E-03    -35.3926E+06    -115.430E+06    -4.68044E+06     398.276E+03    -53.9897E-03     107.113E-03    -53.1235E-03     69.2853E-03    -54.1338E-03     106.735E-03    -52.9282E-03     68.8658E-03
             339     8.53613E-03     63.9915E-03    -32.4749E+06    -100.630E+06    -3.07094E+06     385.352E+03    -54.1619E-03     107.256E-03    -53.0936E-03     75.2436E-03    -54.3655E-03     106.996E-03    -52.9160E-03     74.7417E-03
             340     9.38984E-03     64.0696E-03    -29.8113E+06    -85.6006E+06    -1.30807E+06     415.714E+03    -54.2927E-03     107.358E-03    -53.0656E-03     80.6950E-03    -54.5718E-03     107.232E-03    -52.9048E-03     80.1020E-03
             341     10.2436E-03     64.1527E-03    -27.5087E+06    -68.2993E+06    -80.0423E+03     573.042E+03    -54.3846E-03     107.416E-03    -53.0315E-03     85.6460E-03    -54.7613E-03     107.453E-03    -52.8930E-03     84.9547E-03
             342     11.0975E-03     64.2405E-03    -25.4382E+06    -44.2345E+06     1.13971E+06     720.342E+03    -54.4028E-03     107.389E-03    -52.9858E-03     90.3171E-03    -54.9142E-03     107.649E-03    -52.8791E-03     89.5169E-03
             343     11.9512E-03     64.3327E-03    -23.3560E+06    -11.5721E+06     4.54908E+06     661.592E+03    -54.4323E-03     107.368E-03    -52.9353E-03     96.2864E-03    -55.1400E-03     107.938E-03    -52.8619E-03     95.3622E-03
             344     12.8053E-03     64.4326E-03    -21.6723E+06     44.6550E+06     7.74926E+06    -184.859E+03    -54.5725E-03     107.421E-03    -52.8485E-03     105.191E-03    -55.5921E-03     108.500E-03    -52.8430E-03     104.122E-03
             345     13.6590E-03     64.5425E-03    -19.3821E+06     92.8165E+06     29.4022E+06    -1.67390E+06    -54.8259E-03     107.692E-03    -52.8656E-03     115.460E-03    -56.2098E-03     109.251E-03    -52.8251E-03     114.290E-03
             346     14.5129E-03     64.6630E-03    -15.0648E+06     109.472E+06     61.0635E+06    -1.12309E+06    -54.6367E-03     107.616E-03    -52.9795E-03     113.765E-03    -56.1812E-03     109.319E-03    -52.8111E-03     112.667E-03
             347     15.3667E-03     64.7710E-03    -9.31403E+06     120.223E+06     80.6164E+06     379.045E+03    -53.9137E-03     106.950E-03    -53.0366E-03     106.329E-03    -55.4916E-03     108.688E-03    -52.7943E-03     105.409E-03
             348     16.2199E-03     64.8756E-03    -4.22335E+06     122.204E+06      86.278E+06     405.271E+03    -52.8015E-03     105.825E-03    -53.0237E-03     80.1278E-03    -53.9565E-03     107.149E-03    -52.7634E-03     79.4837E-03
             349     853.518E-06     64.6465E-03    -63.9038E+06    -179.539E+06    -62.5477E+06     7.40416E+03    -53.0692E-03     106.166E-03    -53.0970E-03     9.37967E-03    -53.0391E-03     105.454E-03    -53.0567E-03     9.34658E-03
             350     1.70710E-03     64.6597E-03    -61.9184E+06    -175.649E+06    -56.5147E+06     60.1827E+03    -53.1147E-03     106.204E-03    -53.0895E-03     17.4332E-03    -53.0923E-03     105.502E-03    -53.0276E-03     17.3711E-03
             351     2.56055E-03     64.6813E-03    -58.7568E+06    -170.004E+06    -48.0754E+06    -3.96688E+03    -53.1784E-03     106.285E-03    -53.1069E-03     25.6714E-03    -53.1664E-03     105.601E-03    -53.0155E-03     25.5744E-03
             352     3.41418E-03     64.7111E-03    -54.9065E+06    -160.666E+06    -39.0990E+06     122.677E+03    -53.2579E-03     106.377E-03    -53.1191E-03     33.7682E-03    -53.2620E-03     105.729E-03    -53.0021E-03     33.6343E-03
             353     4.26774E-03     64.7489E-03    -50.8402E+06    -150.311E+06    -29.8899E+06     452.433E+03    -53.3671E-03     106.496E-03    -53.1291E-03     41.6039E-03    -53.3918E-03     105.893E-03    -52.9868E-03     41.4306E-03
             354     5.12142E-03     64.7943E-03    -46.8280E+06    -141.861E+06    -20.2400E+06     506.574E+03    -53.5039E-03     106.648E-03    -53.1440E-03     49.1135E-03    -53.5520E-03     106.085E-03    -52.9716E-03     48.8909E-03
             355     5.97502E-03     64.8471E-03    -42.7323E+06    -133.830E+06    -12.6130E+06     540.063E+03    -53.6578E-03     106.808E-03    -53.1498E-03     56.2464E-03    -53.7311E-03     106.291E-03    -52.9568E-03     55.9670E-03
             356     6.82874E-03     64.9068E-03    -38.6403E+06    -126.118E+06    -7.84556E+06     791.330E+03    -53.8283E-03     106.971E-03    -53.1424E-03     62.9405E-03    -53.9294E-03     106.510E-03    -52.9427E-03     62.5992E-03
             357     7.68240E-03     64.9729E-03    -35.0677E+06    -115.106E+06    -4.46309E+06     724.067E+03    -54.0095E-03     107.135E-03    -53.1257E-03     69.2761E-03    -54.1529E-03     106.758E-03    -52.9303E-03     68.8604E-03
             358     8.53612E-03     65.0453E-03    -31.9726E+06    -100.717E+06    -2.95709E+06     508.707E+03    -54.1674E-03     107.264E-03    -53.0967E-03     75.2343E-03    -54.3686E-03     107.003E-03    -52.9190E-03     74.7338E-03
             359     9.38982E-03     65.1233E-03    -29.2431E+06    -85.6697E+06    -1.07796E+06     561.874E+03    -54.2961E-03     107.365E-03    -53.0690E-03     80.6798E-03    -54.5727E-03     107.237E-03    -52.9078E-03     80.0884E-03
             360     10.2436E-03     65.2064E-03    -26.8201E+06    -68.5582E+06     230.891E+03     639.382E+03    -54.3960E-03     107.432E-03    -53.0357E-03     85.5786E-03    -54.7694E-03     107.466E-03    -52.8963E-03     84.8876E-03
             361     11.0973E-03     65.2942E-03    -24.4320E+06    -44.2573E+06     1.69577E+06     639.410E+03    -54.4389E-03     107.431E-03    -52.9921E-03     90.1823E-03    -54.9459E-03     107.689E-03    -52.8840E-03     89.3802E-03
             362     11.9512E-03     65.3865E-03    -22.0502E+06    -11.4659E+06     5.27951E+06     520.635E+03    -54.4874E-03     107.432E-03    -52.9447E-03     96.2277E-03    -55.1899E-03     108.000E-03    -52.8697E-03     95.3004E-03
             363     12.8048E-03     65.4862E-03    -19.3099E+06     46.0663E+06     9.62877E+06    -271.512E+03    -54.6092E-03     107.471E-03    -52.8623E-03     105.284E-03    -55.6224E-03     108.552E-03    -52.8529E-03     104.212E-03
             364     13.6590E-03     65.5965E-03    -16.4846E+06     93.6717E+06     34.3520E+06    -877.705E+03    -54.9219E-03     107.819E-03    -52.8969E-03     115.881E-03    -56.3022E-03     109.374E-03    -52.8371E-03     114.719E-03
             365     14.5124E-03     65.7176E-03    -13.8262E+06     108.031E+06     64.2494E+06    -519.198E+03    -54.4633E-03     107.466E-03    -53.0028E-03     114.359E-03    -56.0050E-03     109.156E-03    -52.8182E-03     113.275E-03
             366     15.3666E-03     65.8242E-03    -9.70015E+06     119.732E+06     80.3819E+06    -171.374E+03    -53.6877E-03     106.718E-03    -53.0304E-03     106.931E-03    -55.2705E-03     108.458E-03    -52.7880E-03     106.011E-03
             367     16.2224E-03     65.9296E-03    -4.55924E+06     122.581E+06     86.2026E+06     151.908E+03    -52.9776E-03     105.992E-03    -53.0146E-03     80.4743E-03    -54.1398E-03     107.323E-03    -52.7547E-03     79.8230E-03
             368     853.499E-06     65.7001E-03    -63.9996E+06    -179.561E+06    -62.5060E+06     53.0147E+03    -53.1051E-03     106.160E-03    -53.0553E-03     9.37563E-03    -53.0754E-03     105.448E-03    -53.0147E-03     9.34316E-03
             369     1.70699E-03     65.7135E-03    -61.8878E+06    -175.625E+06    -56.4926E+06    -31.7809E+03    -53.1210E-03     106.210E-03    -53.0886E-03     17.3985E-03    -53.0985E-03     105.508E-03    -53.0267E-03     17.3351E-03
             370     2.56061E-03     65.7350E-03    -58.6713E+06    -169.879E+06    -47.9816E+06    -82.8721E+03    -53.1669E-03     106.273E-03    -53.1062E-03     25.6490E-03    -53.1548E-03     105.589E-03    -53.0148E-03     25.5508E-03
             371     3.41415E-03     65.7648E-03    -54.8599E+06    -161.150E+06    -38.5589E+06     110.594E+03    -53.2544E-03     106.374E-03    -53.1198E-03     33.7631E-03    -53.2583E-03     105.723E-03    -52.9994E-03     33.6289E-03
             372     4.26781E-03     65.8026E-03    -50.7026E+06    -150.882E+06    -29.5146E+06     495.238E+03    -53.3746E-03     106.504E-03    -53.1297E-03     41.5898E-03    -53.3983E-03     105.898E-03    -52.9849E-03     41.4169E-03
             373     5.12138E-03     65.8480E-03    -46.4101E+06    -142.047E+06    -20.3903E+06     847.442E+03    -53.5154E-03     106.658E-03    -53.1427E-03     49.0963E-03    -53.5609E-03     106.094E-03    -52.9714E-03     48.8780E-03
             374     5.97507E-03     65.9008E-03    -42.4288E+06    -134.029E+06    -12.5616E+06     984.460E+03    -53.6707E-03     106.822E-03    -53.1512E-03     56.2258E-03    -53.7422E-03     106.303E-03    -52.9581E-03     55.9521E-03
             375     6.82870E-03     65.9604E-03    -38.7094E+06    -126.213E+06    -7.78879E+06     797.478E+03    -53.8487E-03     106.995E-03    -53.1461E-03     62.9358E-03    -53.9503E-03     106.533E-03    -52.9459E-03     62.5942E-03
             376     7.68240E-03     66.0267E-03    -34.9018E+06    -114.882E+06    -4.28368E+06     602.641E+03    -54.0216E-03     107.152E-03    -53.1307E-03     69.2842E-03    -54.1647E-03     106.776E-03    -52.9349E-03     68.8668E-03
             377     8.53604E-03     66.0990E-03    -31.5695E+06    -100.715E+06    -2.72651E+06     510.233E+03    -54.1711E-03     107.273E-03    -53.1022E-03     75.2028E-03    -54.3707E-03     107.011E-03    -52.9240E-03     74.7022E-03
             378     9.38982E-03     66.1770E-03    -28.7763E+06    -85.9329E+06    -979.263E+03     550.272E+03    -54.3122E-03     107.387E-03    -53.0745E-03     80.6680E-03    -54.5863E-03     107.256E-03    -52.9131E-03     80.0762E-03
             379     10.2434E-03     66.2602E-03    -26.1164E+06    -68.4119E+06     561.339E+03     436.308E+03    -54.4143E-03     107.457E-03    -53.0422E-03     85.5800E-03    -54.7849E-03     107.490E-03    -52.9023E-03     84.8863E-03
             380     11.0973E-03     66.3479E-03    -23.6004E+06    -44.2407E+06     1.99744E+06     245.761E+03    -54.4445E-03     107.443E-03    -52.9985E-03     90.2541E-03    -54.9479E-03     107.700E-03    -52.8902E-03     89.4472E-03
             381     11.9510E-03     66.4403E-03    -21.0190E+06    -11.0640E+06     5.67577E+06    -156.229E+03    -54.4759E-03     107.425E-03    -52.9495E-03     96.3701E-03    -55.1747E-03     107.994E-03    -52.8746E-03     95.4346E-03
             382     12.8050E-03     66.5399E-03    -18.9849E+06     46.6502E+06     9.68946E+06    -511.979E+03    -54.5943E-03     107.458E-03    -52.8640E-03     105.606E-03    -55.6077E-03     108.542E-03    -52.8556E-03     104.531E-03
             383     13.6587E-03     66.6506E-03    -17.4391E+06     93.0129E+06     32.7549E+06    -5.03337E+03    -54.6888E-03     107.574E-03    -52.8849E-03     116.268E-03    -56.0691E-03     109.127E-03    -52.8307E-03     115.126E-03
             384     14.5133E-03     66.7714E-03    -13.5732E+06     108.192E+06     64.3767E+06     514.575E+03    -54.1789E-03     107.160E-03    -52.9809E-03     114.278E-03    -55.7158E-03     108.846E-03    -52.7962E-03     113.217E-03
             385     15.3681E-03     66.8772E-03    -8.97803E+06     120.244E+06     81.6692E+06     289.610E+03    -53.8473E-03     106.858E-03    -53.0103E-03     106.980E-03    -55.4290E-03     108.597E-03    -52.7633E-03     106.063E-03
             386     16.2205E-03     66.9841E-03    -4.88827E+06     122.219E+06     85.9667E+06    -50.6453E+03    -53.2720E-03     106.275E-03    -53.0029E-03     80.0109E-03    -54.4340E-03     107.604E-03    -52.7432E-03     79.3506E-03
             387     853.550E-06     66.7539E-03    -63.9726E+06    -179.530E+06     -62.469E+06    -1.80588E+03    -53.1179E-03     106.153E-03    -53.0353E-03     9.43983E-03    -53.0882E-03     105.440E-03    -52.9946E-03     9.40659E-03
             388     1.70703E-03     66.7672E-03    -61.7897E+06    -175.491E+06    -56.3855E+06    -116.587E+03    -53.1259E-03     106.213E-03    -53.0867E-03     17.3993E-03    -53.1034E-03     105.511E-03    -53.0246E-03     17.3347E-03
             389     2.56056E-03     66.7887E-03    -58.7819E+06    -169.939E+06    -48.0903E+06    -33.1739E+03    -53.1742E-03     106.281E-03    -53.1067E-03     25.6489E-03    -53.1624E-03     105.597E-03    -53.0155E-03     25.5513E-03
             390     3.41419E-03     66.8185E-03    -55.0474E+06    -161.549E+06    -38.9452E+06     176.748E+03    -53.2652E-03     106.387E-03    -53.1217E-03     33.7367E-03    -53.2689E-03     105.735E-03    -53.0024E-03     33.6033E-03
             391     4.26773E-03     66.8563E-03    -50.9272E+06    -151.426E+06    -30.0767E+06     452.507E+03    -53.3760E-03     106.508E-03    -53.1317E-03     41.5680E-03    -53.3992E-03     105.900E-03    -52.9887E-03     41.3944E-03
             392     5.12140E-03     66.9017E-03    -46.6808E+06    -142.701E+06    -20.7890E+06     850.755E+03    -53.5165E-03     106.662E-03    -53.1454E-03     49.0821E-03    -53.5618E-03     106.095E-03    -52.9747E-03     48.8637E-03
             393     5.97500E-03     66.9545E-03    -42.1726E+06    -134.190E+06    -12.5237E+06     1.08895E+06    -53.6854E-03     106.840E-03    -53.1551E-03     56.2154E-03    -53.7555E-03     106.321E-03    -52.9620E-03     55.9429E-03
             394     6.82869E-03     67.0142E-03    -37.7938E+06    -125.722E+06    -7.28366E+06     776.080E+03    -53.8698E-03     107.022E-03    -53.1519E-03     62.9326E-03    -53.9683E-03     106.561E-03    -52.9512E-03     62.5905E-03
             395     7.68230E-03     67.0804E-03    -34.1747E+06    -114.979E+06    -4.00262E+06     502.229E+03    -54.0263E-03     107.163E-03    -53.1371E-03     69.2664E-03    -54.1660E-03     106.785E-03    -52.9408E-03     68.8476E-03
             396     8.53605E-03     67.1528E-03    -31.1092E+06    -100.760E+06    -2.45929E+06     562.817E+03    -54.1746E-03     107.283E-03    -53.1084E-03     75.2230E-03    -54.3722E-03     107.020E-03    -52.9295E-03     74.7232E-03
             397     9.38965E-03     67.2308E-03    -28.3343E+06    -85.8280E+06    -724.269E+03     355.577E+03    -54.3033E-03     107.383E-03    -53.0794E-03     80.7280E-03    -54.5756E-03     107.252E-03    -52.9175E-03     80.1340E-03
             398     10.2435E-03     67.3140E-03    -25.7850E+06    -68.3427E+06     788.469E+03     219.890E+03    -54.3915E-03     107.437E-03    -53.0451E-03     85.6715E-03    -54.7607E-03     107.469E-03    -52.9047E-03     84.9758E-03
             399     11.0972E-03     67.4017E-03    -23.5339E+06    -43.8394E+06     2.34977E+06    -114.810E+03    -54.4221E-03     107.422E-03    -52.9997E-03     90.3118E-03    -54.9260E-03     107.680E-03    -52.8903E-03     89.5009E-03
             400     11.9512E-03     67.4939E-03    -21.7135E+06    -10.5967E+06     5.85601E+06    -507.623E+03    -54.4658E-03     107.415E-03    -52.9497E-03     96.3963E-03    -55.1691E-03     107.987E-03    -52.8736E-03     95.4560E-03
             401     12.8049E-03     67.5936E-03    -20.0679E+06     46.3107E+06     9.44733E+06    -147.352E+03    -54.5206E-03     107.382E-03    -52.8615E-03     105.571E-03    -55.5379E-03     108.465E-03    -52.8523E-03     104.503E-03
             402     13.6593E-03     67.7044E-03    -17.4221E+06     92.7406E+06     33.1190E+06     474.257E+03    -54.6163E-03     107.497E-03    -52.8803E-03     115.848E-03    -55.9935E-03     109.045E-03    -52.8239E-03     114.715E-03
             403     14.5136E-03     67.8243E-03    -14.2687E+06     108.111E+06     64.0959E+06      574.04E+03    -54.3407E-03     107.320E-03    -52.9790E-03     113.411E-03    -55.8777E-03     109.004E-03    -52.7945E-03     112.345E-03
             404     15.3672E-03     67.9315E-03    -9.62906E+06     120.236E+06     81.2443E+06     428.437E+03    -53.8016E-03     106.815E-03    -53.0134E-03     106.360E-03    -55.3808E-03     108.551E-03    -52.7675E-03     105.445E-03
             405     16.2223E-03     68.0384E-03    -4.28787E+06     122.614E+06     86.6827E+06     234.397E+03    -53.1444E-03     106.150E-03    -53.0053E-03     80.1171E-03    -54.3016E-03     107.476E-03    -52.7435E-03     79.4649E-03
             406     853.511E-06     67.8077E-03    -63.7971E+06    -179.419E+06    -62.4732E+06    -160.592E+03    -53.0768E-03     106.146E-03    -53.0692E-03     9.47612E-03    -53.0464E-03     105.434E-03    -53.0289E-03     9.44076E-03
             407     1.70706E-03     67.8208E-03    -61.8617E+06    -175.558E+06    -56.5145E+06     97.9885E+03    -53.1269E-03     106.210E-03    -53.0836E-03     17.3639E-03    -53.1043E-03     105.509E-03    -53.0219E-03     17.3022E-03
             408     2.56060E-03     67.8424E-03    -58.8879E+06    -170.026E+06    -48.1419E+06     113.930E+03    -53.2012E-03     106.310E-03    -53.1092E-03     25.6380E-03    -53.1897E-03     105.626E-03    -53.0180E-03     25.5423E-03
             409     3.41409E-03     67.8722E-03    -55.2415E+06    -161.817E+06    -39.3349E+06     188.084E+03    -53.2754E-03     106.403E-03    -53.1275E-03     33.7277E-03    -53.2792E-03     105.750E-03    -53.0094E-03     33.5944E-03
             410     4.26775E-03     67.9100E-03    -51.2138E+06    -151.968E+06    -30.2379E+06     466.417E+03    -53.3789E-03     106.518E-03    -53.1392E-03     41.5725E-03    -53.4026E-03     105.908E-03    -52.9958E-03     41.3991E-03
             411     5.12133E-03     67.9554E-03    -46.8839E+06    -143.327E+06    -20.8823E+06     763.027E+03    -53.5233E-03     106.676E-03    -53.1528E-03     49.0792E-03    -53.5686E-03     106.107E-03    -52.9814E-03     48.8597E-03
             412     5.97501E-03     68.0082E-03    -42.4277E+06    -134.110E+06    -13.0641E+06     647.388E+03    -53.6909E-03     106.850E-03    -53.1593E-03     56.2313E-03    -53.7616E-03     106.332E-03    -52.9687E-03     55.9531E-03
             413     6.82860E-03     68.0680E-03    -38.1898E+06    -125.445E+06    -7.71679E+06     441.716E+03    -53.8613E-03     107.017E-03    -53.1557E-03     62.9543E-03    -53.9614E-03     106.559E-03    -52.9570E-03     62.6082E-03
             414     7.68230E-03     68.1342E-03    -34.4172E+06    -115.140E+06    -4.01141E+06     489.555E+03    -54.0188E-03     107.161E-03    -53.1419E-03     69.2900E-03    -54.1595E-03     106.782E-03    -52.9451E-03     68.8713E-03
             415     8.53594E-03     68.2065E-03    -31.1072E+06    -100.763E+06    -2.39279E+06     422.257E+03    -54.1611E-03     107.273E-03    -53.1115E-03     75.2704E-03    -54.3587E-03     107.009E-03    -52.9322E-03     74.7690E-03
             416     9.38980E-03     68.2845E-03    -28.3183E+06    -85.5045E+06    -423.083E+03     307.138E+03    -54.2882E-03     107.370E-03    -53.0815E-03     80.7399E-03    -54.5613E-03     107.240E-03    -52.9186E-03     80.1457E-03
             417     10.2434E-03     68.3676E-03    -26.0083E+06    -68.2913E+06     968.742E+03     115.081E+03    -54.3556E-03     107.401E-03    -53.0453E-03     85.6451E-03    -54.7258E-03     107.434E-03    -52.9037E-03     84.9488E-03
             418     11.0974E-03     68.4555E-03    -24.1614E+06    -43.4495E+06     2.44938E+06     43.6562E+03    -54.4149E-03     107.413E-03    -52.9982E-03     90.3290E-03    -54.9227E-03     107.674E-03    -52.8879E-03     89.5204E-03
             419     11.9510E-03     68.5475E-03    -22.5697E+06    -10.2210E+06     5.85388E+06    -83.8688E+03    -54.5084E-03     107.458E-03    -52.9497E-03     96.3743E-03    -55.2171E-03     108.033E-03    -52.8729E-03     95.4383E-03
             420     12.8050E-03     68.6476E-03    -20.7982E+06     46.0676E+06     9.67788E+06    -26.9646E+03    -54.5741E-03     107.441E-03    -52.8673E-03     105.347E-03    -55.5943E-03     108.523E-03    -52.8555E-03     104.279E-03
             421     13.6590E-03     68.7575E-03    -18.4480E+06     91.7303E+06     32.2415E+06     556.907E+03    -54.7676E-03     107.657E-03    -52.8892E-03     115.668E-03    -56.1475E-03     109.203E-03    -52.8342E-03     114.531E-03
             422     14.5124E-03     68.8790E-03    -14.4964E+06     107.623E+06     62.7294E+06     853.786E+03    -54.3992E-03     107.388E-03    -52.9890E-03     113.738E-03    -55.9362E-03     109.074E-03    -52.8103E-03     112.673E-03
             423     15.3666E-03     68.9847E-03    -9.35660E+06     121.093E+06     81.3761E+06     471.545E+03    -53.6400E-03     106.664E-03    -53.0236E-03     106.656E-03    -55.2182E-03     108.402E-03    -52.7787E-03     105.746E-03
             424     16.2211E-03     69.0909E-03    -4.41757E+06     122.975E+06     86.9924E+06     27.0469E+03    -52.9856E-03     105.994E-03    -53.0080E-03     80.5778E-03    -54.1464E-03     107.323E-03    -52.7449E-03     79.9261E-03
             425     853.496E-06     68.8613E-03    -63.9656E+06    -179.464E+06    -62.4480E+06     56.6437E+03    -53.1005E-03     106.166E-03    -53.0655E-03     9.48657E-03    -53.0709E-03     105.454E-03    -53.0248E-03     9.45419E-03
             426     1.70704E-03     68.8746E-03    -61.9404E+06    -175.737E+06    -56.7368E+06     58.0798E+03    -53.1346E-03     106.227E-03    -53.0925E-03     17.3772E-03    -53.1119E-03     105.525E-03    -53.0315E-03     17.3149E-03
             427     2.56052E-03     68.8962E-03    -58.7171E+06    -170.041E+06    -48.2487E+06     130.149E+03    -53.1988E-03     106.315E-03    -53.1158E-03     25.6317E-03    -53.1863E-03     105.630E-03    -53.0253E-03     25.5361E-03
             428     3.41414E-03     68.9259E-03    -54.8105E+06    -162.014E+06    -38.2595E+06     150.962E+03    -53.2841E-03     106.422E-03    -53.1383E-03     33.7320E-03    -53.2870E-03     105.767E-03    -53.0152E-03     33.5982E-03
             429     4.26768E-03     68.9637E-03    -50.5356E+06    -152.650E+06    -28.8785E+06     483.191E+03    -53.3978E-03     106.551E-03    -53.1530E-03     41.5738E-03    -53.4191E-03     105.934E-03    -53.0027E-03     41.4006E-03
             430     5.12132E-03     69.0091E-03    -46.1786E+06    -143.564E+06    -20.3174E+06     723.263E+03    -53.5345E-03     106.697E-03    -53.1629E-03     49.0915E-03    -53.5767E-03     106.125E-03    -52.9893E-03     48.8715E-03
             431     5.97489E-03     69.0620E-03    -41.9052E+06    -133.802E+06    -12.8746E+06     555.418E+03    -53.6798E-03     106.845E-03    -53.1655E-03     56.2551E-03    -53.7486E-03     106.328E-03    -52.9751E-03     55.9760E-03
             432     6.82862E-03     69.1217E-03    -38.0276E+06    -125.509E+06    -7.67947E+06     408.273E+03    -53.8415E-03     107.001E-03    -53.1592E-03     62.9766E-03    -53.9407E-03     106.542E-03    -52.9605E-03     62.6304E-03
             433     7.68228E-03     69.1879E-03    -34.4852E+06    -115.214E+06     -3.9364E+06     366.296E+03    -54.0084E-03     107.152E-03    -53.1438E-03     69.3052E-03    -54.1494E-03     106.773E-03    -52.9464E-03     68.8851E-03
             434     8.53604E-03     69.2602E-03    -31.3825E+06    -100.669E+06    -2.31521E+06     338.302E+03    -54.1629E-03     107.276E-03    -53.1128E-03     75.2638E-03    -54.3621E-03     107.013E-03    -52.9329E-03     74.7613E-03
             435     9.38966E-03     69.3382E-03    -28.7702E+06    -85.5651E+06    -563.418E+03     359.310E+03    -54.2771E-03     107.359E-03    -53.0820E-03     80.7239E-03    -54.5520E-03     107.230E-03    -52.9191E-03     80.1306E-03
             436     10.2435E-03     69.4215E-03    -26.5781E+06    -68.0346E+06     887.453E+03     326.257E+03    -54.3528E-03     107.398E-03    -53.0455E-03     85.5881E-03    -54.7261E-03     107.433E-03    -52.9039E-03     84.8944E-03
             437     11.0973E-03     69.5088E-03    -24.5699E+06    -43.5319E+06     2.17953E+06     244.264E+03    -54.4328E-03     107.431E-03    -52.9985E-03     90.3382E-03    -54.9422E-03     107.693E-03    -52.8889E-03     89.5317E-03
             438     11.9511E-03     69.6018E-03    -22.7760E+06    -10.0507E+06     5.78077E+06     456.511E+03    -54.5379E-03     107.490E-03    -52.9521E-03     96.3386E-03    -55.2475E-03     108.066E-03    -52.8756E-03     95.4095E-03
             439     12.8049E-03     69.7008E-03    -21.4194E+06     45.8792E+06     8.96406E+06     532.053E+03    -54.6306E-03     107.501E-03    -52.8703E-03     105.384E-03    -55.6530E-03     108.584E-03    -52.8610E-03     104.322E-03
             440     13.6585E-03     69.8121E-03    -19.0027E+06     91.0047E+06     31.0680E+06     236.224E+03    -54.7285E-03     107.619E-03    -52.8901E-03     116.079E-03    -56.1101E-03     109.166E-03    -52.8392E-03     114.939E-03
             441     14.5132E-03     69.9320E-03    -14.4655E+06     107.681E+06     62.7373E+06     197.657E+03    -54.3092E-03     107.298E-03    -52.9887E-03     113.879E-03    -55.8461E-03     108.984E-03    -52.8102E-03     112.808E-03
             442     15.3680E-03     70.0388E-03    -9.01872E+06     121.447E+06     81.8228E+06     276.272E+03    -53.7312E-03     106.756E-03    -53.0248E-03     106.285E-03    -55.3080E-03     108.495E-03    -52.7787E-03     105.369E-03
             443     16.2218E-03     70.1447E-03    -4.29916E+06     123.318E+06     87.2210E+06     265.900E+03    -53.0425E-03     106.056E-03    -53.0131E-03     80.7219E-03    -54.2057E-03     107.388E-03    -52.7495E-03     80.0695E-03
             444     853.545E-06     69.9150E-03    -64.0119E+06    -179.596E+06    -62.5953E+06     121.776E+03    -53.1374E-03     106.186E-03    -53.0486E-03     9.49126E-03    -53.1076E-03     105.473E-03    -53.0083E-03     9.45964E-03
             445     1.70697E-03     69.9283E-03    -61.9250E+06    -175.673E+06    -56.5751E+06    -24.2574E+03    -53.1418E-03     106.244E-03    -53.1026E-03     17.3979E-03    -53.1193E-03     105.543E-03    -53.0410E-03     17.3346E-03
             446     2.56058E-03     69.9498E-03    -58.8150E+06    -170.143E+06    -48.3025E+06    -44.3676E+03    -53.1975E-03     106.321E-03    -53.1233E-03     25.6376E-03    -53.1852E-03     105.636E-03    -53.0328E-03     25.5399E-03
             447     3.41407E-03     69.9797E-03    -54.9504E+06    -162.249E+06    -38.7748E+06     164.112E+03    -53.2874E-03     106.429E-03    -53.1419E-03     33.7326E-03    -53.2899E-03     105.773E-03    -53.0209E-03     33.5991E-03
             448     4.26768E-03     70.0174E-03    -50.7754E+06    -153.247E+06    -29.1795E+06     414.684E+03    -53.4014E-03     106.559E-03    -53.1578E-03     41.5947E-03    -53.4225E-03     105.941E-03    -53.0079E-03     41.4206E-03
             449     5.12124E-03     70.0629E-03    -46.3889E+06    -143.807E+06    -20.1859E+06     638.472E+03    -53.5289E-03     106.697E-03    -53.1683E-03     49.1304E-03    -53.5720E-03     106.124E-03    -52.9934E-03     48.9094E-03
             450     5.97495E-03     70.1157E-03    -42.1558E+06    -133.577E+06    -12.8428E+06     606.680E+03    -53.6691E-03     106.837E-03    -53.1681E-03     56.2795E-03    -53.7395E-03     106.321E-03    -52.9775E-03     56.0011E-03
             451     6.82859E-03     70.1754E-03    -38.1926E+06    -125.504E+06    -7.84342E+06     452.315E+03    -53.8361E-03     106.996E-03    -53.1597E-03     62.9891E-03    -53.9359E-03     106.537E-03    -52.9616E-03     62.6436E-03
             452     7.68229E-03     70.2417E-03    -34.6266E+06    -115.263E+06    -4.14832E+06     424.384E+03    -54.0064E-03     107.150E-03    -53.1436E-03     69.3078E-03    -54.1477E-03     106.771E-03    -52.9470E-03     68.8885E-03
             453     8.53595E-03     70.3139E-03    -31.6082E+06    -100.744E+06    -2.42638E+06     473.481E+03    -54.1582E-03     107.271E-03    -53.1129E-03     75.2767E-03    -54.3583E-03     107.008E-03    -52.9332E-03     74.7760E-03
             454     9.38973E-03     70.3921E-03    -29.0610E+06    -85.6276E+06    -748.730E+03     523.106E+03    -54.2778E-03     107.360E-03    -53.0817E-03     80.7086E-03    -54.5538E-03     107.231E-03    -52.9192E-03     80.1174E-03
             455     10.2435E-03     70.4749E-03    -26.7745E+06    -68.0014E+06     689.121E+03     563.508E+03    -54.3962E-03     107.443E-03    -53.0467E-03     85.5940E-03    -54.7705E-03     107.479E-03    -52.9058E-03     84.9026E-03
             456     11.0972E-03     70.5630E-03    -24.9151E+06    -43.3530E+06     2.07466E+06     500.075E+03    -54.4561E-03     107.459E-03    -53.0027E-03     90.3299E-03    -54.9675E-03     107.722E-03    -52.8934E-03     89.5260E-03
             457     11.9510E-03     70.6551E-03    -23.0159E+06    -10.7527E+06     5.37032E+06     633.524E+03    -54.4763E-03     107.431E-03    -52.9542E-03     96.4372E-03    -55.1847E-03     108.003E-03    -52.8784E-03     95.5123E-03
             458     12.8047E-03     70.7554E-03    -20.8500E+06     45.5997E+06     8.87821E+06     902.882E+03    -54.5335E-03     107.400E-03    -52.8662E-03     105.529E-03    -55.5526E-03     108.481E-03    -52.8577E-03     104.474E-03
             459     13.6593E-03     70.8649E-03    -18.3703E+06     91.8796E+06     32.4796E+06     468.646E+03    -54.6748E-03     107.562E-03    -52.8868E-03     116.056E-03    -56.0556E-03     109.109E-03    -52.8310E-03     114.921E-03
             460     14.5129E-03     70.9865E-03    -14.8928E+06     108.360E+06     64.1130E+06    -66.8118E+03    -54.4066E-03     107.395E-03    -52.9888E-03     113.951E-03    -55.9492E-03     109.084E-03    -52.8037E-03     112.875E-03
             461     15.3660E-03     71.0920E-03    -10.4840E+06     120.965E+06     81.1570E+06    -113.218E+03    -53.9422E-03     106.969E-03    -53.0270E-03     106.327E-03    -55.5299E-03     108.714E-03    -52.7814E-03     105.398E-03
             462     16.2210E-03     71.1982E-03    -4.91628E+06     122.932E+06     86.5546E+06     76.2513E+03    -52.9071E-03     105.923E-03    -53.0164E-03     80.5600E-03    -54.0732E-03     107.258E-03    -52.7547E-03     79.9049E-03
             463     853.444E-06     70.9688E-03    -64.0068E+06    -179.591E+06    -62.5101E+06     28.0835E+03    -53.1244E-03     106.195E-03    -53.0709E-03     9.48743E-03    -53.0948E-03     105.482E-03    -53.0302E-03     9.45445E-03
             464     1.70705E-03     70.9820E-03    -61.9561E+06    -175.685E+06    -56.5269E+06     35.0428E+03    -53.1355E-03     106.241E-03    -53.1053E-03     17.4183E-03    -53.1132E-03     105.539E-03    -53.0434E-03     17.3558E-03
             465     2.56048E-03     71.0036E-03    -58.8878E+06    -170.133E+06    -48.1852E+06     29.8681E+03    -53.2073E-03     106.333E-03    -53.1256E-03     25.6611E-03    -53.1957E-03     105.648E-03    -53.0344E-03     25.5643E-03
             466     3.41408E-03     71.0334E-03    -55.1965E+06    -162.625E+06    -39.1322E+06     142.672E+03    -53.2851E-03     106.429E-03    -53.1434E-03     33.7622E-03    -53.2878E-03     105.771E-03    -53.0233E-03     33.6284E-03
             467     4.26766E-03     71.0712E-03    -51.0133E+06    -153.638E+06    -29.4169E+06     417.835E+03    -53.3902E-03     106.548E-03    -53.1581E-03     41.6226E-03    -53.4116E-03     105.928E-03    -53.0084E-03     41.4487E-03
             468     5.12131E-03     71.1166E-03    -46.5705E+06     -144.04E+06    -20.1907E+06     510.076E+03    -53.5219E-03     106.690E-03    -53.1677E-03     49.1426E-03    -53.5656E-03     106.115E-03    -52.9923E-03     48.9200E-03
             469     5.97491E-03     71.1694E-03    -42.1457E+06    -133.562E+06    -12.9056E+06     529.190E+03    -53.6704E-03     106.837E-03    -53.1663E-03     56.2908E-03    -53.7407E-03     106.321E-03    -52.9761E-03     56.0114E-03
             470     6.82860E-03     71.2292E-03    -38.1484E+06    -125.481E+06    -7.87509E+06     525.947E+03    -53.8408E-03     106.999E-03    -53.1585E-03     63.0081E-03    -53.9403E-03     106.541E-03    -52.9606E-03     62.6635E-03
             471     7.68227E-03     71.2953E-03    -34.6810E+06    -115.391E+06    -4.32486E+06     540.152E+03    -54.0061E-03     107.148E-03    -53.1422E-03     69.3352E-03    -54.1472E-03     106.769E-03    -52.9462E-03     68.9174E-03
             472     8.53602E-03     71.3677E-03    -31.6789E+06    -100.910E+06    -2.58183E+06     659.926E+03    -54.1515E-03     107.263E-03    -53.1114E-03     75.2797E-03    -54.3514E-03     107.000E-03    -52.9321E-03     74.7816E-03
             473     9.38975E-03     71.4456E-03    -29.0487E+06    -85.6954E+06    -768.587E+03     737.324E+03    -54.2952E-03     107.376E-03    -53.0811E-03     80.7197E-03    -54.5710E-03     107.247E-03    -52.9186E-03     80.1311E-03
             474     10.2434E-03     71.5289E-03    -26.8065E+06    -68.1559E+06     608.740E+03     770.266E+03    -54.4094E-03     107.457E-03    -53.0471E-03     85.6791E-03    -54.7837E-03     107.492E-03    -52.9064E-03     84.9903E-03
             475     11.0972E-03     71.6165E-03    -24.8717E+06    -43.3461E+06     2.04210E+06     965.388E+03    -54.4313E-03     107.434E-03    -53.0022E-03     90.4261E-03    -54.9424E-03     107.697E-03    -52.8931E-03     89.6291E-03
             476     11.9510E-03     71.7091E-03    -23.1095E+06    -10.6405E+06     5.33059E+06     671.686E+03    -54.4010E-03     107.351E-03    -52.9499E-03     96.4875E-03    -55.1098E-03     107.924E-03    -52.8743E-03     95.5646E-03
             477     12.8053E-03     71.8084E-03    -20.8557E+06     45.3796E+06     8.68595E+06     389.200E+03    -54.4743E-03     107.331E-03    -52.8571E-03     105.558E-03    -55.4920E-03     108.411E-03    -52.8493E-03     104.499E-03
             478     13.6588E-03     71.9194E-03    -17.9406E+06     92.1520E+06     32.3512E+06     935.873E+03    -54.6527E-03     107.527E-03    -52.8744E-03     116.098E-03    -56.0301E-03     109.074E-03    -52.8202E-03     114.971E-03
             479     14.5133E-03     72.0396E-03    -14.5151E+06     108.859E+06     64.4778E+06     849.317E+03    -54.3029E-03     107.277E-03    -52.9746E-03     114.351E-03    -55.8449E-03     108.967E-03    -52.7890E-03     113.292E-03
             480     15.3684E-03     72.1469E-03    -10.0638E+06     121.403E+06     81.6675E+06     141.632E+03    -53.8904E-03     106.898E-03    -53.0081E-03     107.159E-03    -55.4819E-03     108.648E-03    -52.7612E-03     106.239E-03
             481     16.2209E-03     72.2522E-03    -4.91935E+06     122.949E+06     86.3768E+06    -512.137E+03    -53.0782E-03     106.076E-03    -52.9977E-03     80.7230E-03    -54.2465E-03     107.413E-03    -52.7370E-03     80.0585E-03
             482     853.527E-06     72.0224E-03    -63.9963E+06    -179.624E+06    -62.6094E+06     20.7562E+03    -53.0883E-03     106.184E-03    -53.0954E-03     9.46243E-03    -53.0584E-03     105.471E-03    -53.0552E-03     9.42945E-03
             483     1.70698E-03     72.0358E-03    -61.9585E+06    -175.753E+06    -56.6255E+06     86.0262E+03    -53.1278E-03     106.226E-03    -53.0987E-03     17.4504E-03    -53.1053E-03     105.524E-03    -53.0372E-03     17.3886E-03
             484     2.56059E-03     72.0574E-03    -58.8045E+06    -170.109E+06    -48.1557E+06     74.1571E+03    -53.1981E-03     106.316E-03    -53.1183E-03     25.6952E-03    -53.1861E-03     105.631E-03    -53.0272E-03     25.5991E-03
             485     3.41409E-03     72.0871E-03    -54.8461E+06    -162.958E+06    -37.8217E+06     167.296E+03    -53.2912E-03     106.435E-03    -53.1437E-03     33.7857E-03    -53.2935E-03     105.774E-03    -53.0170E-03     33.6522E-03
             486     4.26769E-03     72.1249E-03    -50.5438E+06    -154.131E+06    -28.2905E+06     466.552E+03    -53.3936E-03     106.553E-03    -53.1595E-03     41.6296E-03    -53.4136E-03     105.929E-03    -53.0042E-03     41.4563E-03
             487     5.12128E-03     72.1704E-03    -46.2481E+06    -143.979E+06    -20.0637E+06     553.093E+03    -53.5181E-03     106.682E-03    -53.1641E-03     49.1524E-03    -53.5605E-03     106.107E-03    -52.9886E-03     48.9303E-03
             488     5.97496E-03     72.2232E-03    -42.0885E+06    -133.752E+06    -12.9652E+06     474.044E+03    -53.6700E-03     106.833E-03    -53.1625E-03     56.3084E-03    -53.7397E-03     106.316E-03    -52.9724E-03     56.0284E-03
             489     6.82863E-03     72.2829E-03    -38.1605E+06    -125.611E+06    -8.00633E+06     608.268E+03    -53.8393E-03     106.994E-03    -53.1545E-03     63.0256E-03    -53.9385E-03     106.535E-03    -52.9571E-03     62.6822E-03
             490     7.68231E-03     72.3491E-03    -34.7107E+06    -115.517E+06    -4.44981E+06     711.226E+03    -54.0053E-03     107.144E-03    -53.1385E-03     69.3526E-03    -54.1462E-03     106.764E-03    -52.9429E-03     68.9371E-03
             491     8.53601E-03     72.4214E-03    -31.6697E+06    -101.097E+06    -2.75056E+06     758.390E+03    -54.1565E-03     107.264E-03    -53.1079E-03     75.2985E-03    -54.3559E-03     107.000E-03    -52.9292E-03     74.8017E-03
             492     9.38970E-03     72.4995E-03    -28.9851E+06    -85.8887E+06    -913.880E+03     852.047E+03    -54.2837E-03     107.361E-03    -53.0774E-03     80.7909E-03    -54.5588E-03     107.231E-03    -52.9154E-03     80.2040E-03
             493     10.2436E-03     72.5825E-03    -26.6268E+06    -68.2824E+06     543.479E+03     971.161E+03    -54.3733E-03     107.415E-03    -53.0415E-03     85.7617E-03    -54.7463E-03     107.449E-03    -52.9011E-03     85.0763E-03
             494     11.0972E-03     72.6704E-03    -24.3758E+06    -43.5734E+06     1.94459E+06     984.585E+03    -54.3927E-03     107.386E-03    -52.9933E-03     90.4410E-03    -54.9007E-03     107.647E-03    -52.8851E-03     89.6453E-03
             495     11.9513E-03     72.7625E-03    -22.1587E+06    -10.0599E+06     5.71916E+06     1.00590E+06    -54.4186E-03     107.360E-03    -52.9412E-03     96.4243E-03    -55.1245E-03     107.935E-03    -52.8659E-03     95.5048E-03
             496     12.8048E-03     72.8623E-03    -20.7027E+06     45.6308E+06     9.09727E+06     613.879E+03    -54.4491E-03     107.300E-03    -52.8506E-03     105.542E-03    -55.4666E-03     108.379E-03    -52.8412E-03     104.486E-03
             497     13.6595E-03     72.9727E-03    -18.3005E+06     91.4316E+06     31.9159E+06     406.097E+03    -54.5780E-03     107.441E-03    -52.8632E-03     116.071E-03    -55.9551E-03     108.985E-03    -52.8097E-03     114.939E-03
             498     14.5136E-03     73.0934E-03    -13.5966E+06     108.733E+06     64.0275E+06     799.827E+03    -54.2494E-03     107.207E-03    -52.9580E-03     114.048E-03    -55.7853E-03     108.895E-03    -52.7758E-03     112.989E-03
             499     15.3670E-03     73.2000E-03    -8.23426E+06     122.341E+06     82.4271E+06     257.938E+03    -53.7694E-03     106.761E-03    -52.9916E-03     106.550E-03    -55.3497E-03     108.507E-03    -52.7449E-03     105.633E-03
             500     16.2232E-03     73.3063E-03    -3.94933E+06     123.569E+06     87.0190E+06    -253.882E+03    -53.3555E-03     106.344E-03    -52.9884E-03     79.7908E-03    -54.5138E-03     107.675E-03    -52.7268E-03     79.1289E-03
             501     853.498E-06     73.0762E-03    -64.0105E+06    -179.668E+06    -62.6703E+06    -31.1403E+03    -53.0468E-03     106.162E-03    -53.1157E-03     9.44463E-03    -53.0168E-03     105.449E-03    -53.0757E-03     9.41094E-03
             502     1.70706E-03     73.0894E-03    -62.0076E+06    -175.826E+06    -56.6961E+06     45.1404E+03    -53.1220E-03     106.211E-03    -53.0890E-03     17.4461E-03    -53.0996E-03     105.509E-03    -53.0276E-03     17.3837E-03
             503     2.56056E-03     73.1111E-03    -58.9537E+06    -170.149E+06    -48.0614E+06     106.645E+03    -53.1894E-03     106.300E-03    -53.1106E-03     25.6907E-03    -53.1781E-03     105.615E-03    -53.0187E-03     25.5951E-03
             504     3.41416E-03     73.1409E-03    -55.1953E+06    -163.324E+06    -38.1137E+06     291.798E+03    -53.2839E-03     106.419E-03    -53.1352E-03     33.7756E-03    -53.2870E-03     105.757E-03    -53.0089E-03     33.6439E-03
             505     4.26770E-03     73.1786E-03    -50.8728E+06    -154.506E+06    -28.5223E+06     446.098E+03    -53.3924E-03     106.545E-03    -53.1522E-03     41.6288E-03    -53.4132E-03     105.919E-03    -52.9970E-03     41.4553E-03
             506     5.12135E-03     73.2241E-03    -46.3759E+06    -144.155E+06    -20.1638E+06     592.484E+03    -53.5170E-03     106.675E-03    -53.1579E-03     49.1636E-03    -53.5596E-03     106.100E-03    -52.9824E-03     48.9421E-03
             507     5.97499E-03     73.2769E-03    -42.1836E+06    -133.769E+06    -13.1116E+06     655.038E+03    -53.6680E-03     106.824E-03    -53.1565E-03     56.3199E-03    -53.7379E-03     106.308E-03    -52.9669E-03     56.0423E-03
             508     6.82865E-03     73.3366E-03    -38.3743E+06    -125.903E+06    -8.25711E+06     641.163E+03    -53.8344E-03     106.983E-03    -53.1488E-03     63.0240E-03    -53.9340E-03     106.524E-03    -52.9519E-03     62.6810E-03
             509     7.68237E-03     73.4028E-03    -34.8143E+06    -115.656E+06    -4.65355E+06     769.033E+03    -53.9985E-03     107.131E-03    -53.1325E-03     69.3741E-03    -54.1394E-03     106.751E-03    -52.9376E-03     68.9595E-03
             510     8.53605E-03     73.4752E-03    -31.6357E+06    -101.223E+06    -2.89568E+06     749.353E+03    -54.1515E-03     107.253E-03    -53.1018E-03     75.3237E-03    -54.3504E-03     106.989E-03    -52.9237E-03     74.8268E-03
             511     9.38986E-03     73.5531E-03    -28.8158E+06    -86.1051E+06    -1.02524E+06     798.644E+03    -54.2720E-03     107.343E-03    -53.0711E-03     80.7868E-03    -54.5458E-03     107.212E-03    -52.9096E-03     80.1992E-03
             512     10.2435E-03     73.6364E-03    -26.3100E+06    -68.4265E+06     561.341E+03     900.792E+03    -54.3474E-03     107.382E-03    -53.0344E-03     85.7102E-03    -54.7185E-03     107.415E-03    -52.8942E-03     85.0242E-03
             513     11.0975E-03     73.7239E-03    -24.0602E+06    -43.5603E+06     2.13137E+06     829.697E+03    -54.3948E-03     107.381E-03    -52.9865E-03     90.3625E-03    -54.9015E-03     107.642E-03    -52.8778E-03     89.5643E-03
             514     11.9511E-03     73.8164E-03    -21.8455E+06    -10.4987E+06     5.83715E+06     849.358E+03    -54.4292E-03     107.365E-03    -52.9359E-03     96.3425E-03    -55.1334E-03     107.938E-03    -52.8599E-03     95.4203E-03
             515     12.8054E-03     73.9159E-03    -19.7068E+06     45.9146E+06     10.0371E+06     1.34738E+06    -54.4821E-03     107.332E-03    -52.8496E-03     105.329E-03    -55.4968E-03     108.410E-03    -52.8374E-03     104.281E-03
             516     13.6592E-03     74.0261E-03    -17.9099E+06     92.0185E+06     32.9320E+06     955.708E+03    -54.6574E-03     107.525E-03    -52.8676E-03     115.822E-03    -56.0353E-03     109.070E-03    -52.8103E-03     114.694E-03
             517     14.5133E-03     74.1472E-03    -14.4604E+06     108.787E+06     63.7006E+06    -286.752E+03    -54.3303E-03     107.294E-03    -52.9640E-03     113.741E-03    -55.8702E-03     108.984E-03    -52.7823E-03     112.664E-03
             518     15.3683E-03     74.2536E-03    -9.63959E+06     122.567E+06     81.6774E+06    -70.6850E+03    -53.9231E-03     106.926E-03    -53.0030E-03     106.544E-03    -55.5109E-03     108.678E-03    -52.7584E-03     105.617E-03
             519     16.2200E-03     74.3604E-03    -4.94631E+06     123.529E+06     86.6820E+06     379.662E+03    -53.3342E-03     106.339E-03    -53.0046E-03     80.1473E-03    -54.4995E-03     107.674E-03    -52.7431E-03     79.4926E-03
             520     853.516E-06     74.1298E-03    -64.1296E+06    -179.788E+06    -62.7150E+06     36.1642E+03    -53.0761E-03     106.151E-03    -53.0745E-03     9.47031E-03    -53.0464E-03     105.437E-03    -53.0344E-03     9.43750E-03
             521     1.70703E-03     74.1432E-03    -62.2620E+06    -175.921E+06    -56.6023E+06     171.936E+03    -53.1225E-03     106.208E-03    -53.0856E-03     17.4425E-03    -53.1013E-03     105.505E-03    -53.0232E-03     17.3818E-03
             522     2.56059E-03     74.1648E-03    -59.2293E+06    -170.394E+06    -48.2425E+06     276.294E+03    -53.1838E-03     106.291E-03    -53.1074E-03     25.6789E-03    -53.1733E-03     105.605E-03    -53.0156E-03     25.5854E-03
             523     3.41413E-03     74.1946E-03    -55.2998E+06    -163.572E+06    -38.4056E+06     352.378E+03    -53.2653E-03     106.394E-03    -53.1291E-03     33.7734E-03    -53.2681E-03     105.732E-03    -53.0038E-03     33.6426E-03
             524     4.26777E-03     74.2323E-03    -50.9769E+06    -154.813E+06    -28.8613E+06     472.150E+03    -53.3831E-03     106.527E-03    -53.1440E-03     41.6192E-03    -53.4034E-03     105.901E-03    -52.9899E-03     41.4461E-03
             525     5.12136E-03     74.2778E-03    -46.7131E+06    -144.419E+06    -20.4580E+06     612.967E+03    -53.5191E-03     106.670E-03    -53.1508E-03     49.1485E-03    -53.5626E-03     106.094E-03    -52.9759E-03     48.9272E-03
             526     5.97502E-03     74.3306E-03    -42.4275E+06    -133.890E+06    -13.2724E+06     681.161E+03    -53.6610E-03     106.811E-03    -53.1505E-03     56.3134E-03    -53.7317E-03     106.295E-03    -52.9612E-03     56.0361E-03
             527     6.82872E-03     74.3903E-03    -38.3556E+06    -125.946E+06    -8.27868E+06     660.259E+03    -53.8292E-03     106.972E-03    -53.1431E-03     63.0229E-03    -53.9286E-03     106.512E-03    -52.9462E-03     62.6801E-03
             528     7.68238E-03     74.4565E-03    -34.7445E+06    -115.816E+06    -4.73190E+06     672.487E+03    -53.9937E-03     107.120E-03    -53.1266E-03     69.3651E-03    -54.1340E-03     106.740E-03    -52.9319E-03     68.9493E-03
             529     8.53616E-03     74.5288E-03    -31.6036E+06    -101.260E+06    -2.89815E+06     729.251E+03    -54.1510E-03     107.247E-03    -53.0965E-03     75.3106E-03    -54.3497E-03     106.983E-03    -52.9183E-03     74.8134E-03
             530     9.38979E-03     74.6069E-03    -28.9179E+06    -86.2491E+06    -1.08231E+06     696.152E+03    -54.2869E-03     107.354E-03    -53.0671E-03     80.7316E-03    -54.5609E-03     107.222E-03    -52.9055E-03     80.1423E-03
             531     10.2437E-03     74.6899E-03    -26.4270E+06    -68.6267E+06     457.812E+03     718.886E+03    -54.3639E-03     107.396E-03    -53.0322E-03     85.6207E-03    -54.7353E-03     107.429E-03    -52.8921E-03     84.9317E-03
             532     11.0973E-03     74.7777E-03    -24.2436E+06    -43.7965E+06     1.91400E+06     765.663E+03    -54.3856E-03     107.370E-03    -52.9847E-03     90.3014E-03    -54.8925E-03     107.630E-03    -52.8765E-03     89.5023E-03
             533     11.9514E-03     74.8701E-03    -22.4309E+06    -10.5902E+06     5.53349E+06     821.306E+03    -54.4619E-03     107.397E-03    -52.9353E-03     96.2635E-03    -55.1682E-03     107.970E-03    -52.8597E-03     95.3406E-03
             534     12.8050E-03     74.9694E-03    -20.2623E+06     45.5491E+06     9.03261E+06     870.641E+03    -54.6056E-03     107.457E-03    -52.8514E-03     105.190E-03    -55.6217E-03     108.537E-03    -52.8429E-03     104.133E-03
             535     13.6591E-03     75.0801E-03    -17.0331E+06     92.4240E+06     32.4155E+06     1.26417E+06    -54.7386E-03     107.614E-03    -52.8751E-03     115.721E-03    -56.1133E-03     109.162E-03    -52.8224E-03     114.593E-03
             536     14.5132E-03     75.2006E-03    -13.9303E+06     109.977E+06     64.6089E+06     1.01963E+06    -54.5006E-03     107.485E-03    -52.9847E-03     113.800E-03    -56.0430E-03     109.181E-03    -52.8009E-03     112.735E-03
             537     15.3664E-03     75.3075E-03    -11.0400E+06     122.577E+06     81.5721E+06     49.3404E+03    -53.9612E-03     106.990E-03    -53.0284E-03     106.352E-03    -55.5543E-03     108.742E-03    -52.7823E-03     105.427E-03
             538     16.2226E-03     75.4145E-03    -5.64348E+06     123.354E+06     86.2151E+06    -157.751E+03    -52.9448E-03     105.963E-03    -53.0179E-03     80.1396E-03    -54.1108E-03     107.296E-03    -52.7575E-03     79.4844E-03
             539     853.535E-06     75.1836E-03    -64.5721E+06    -180.185E+06    -63.0182E+06     203.410E+03    -53.1325E-03     106.139E-03    -53.0061E-03     9.49004E-03    -53.1041E-03     105.424E-03    -52.9663E-03     9.45953E-03
             540     1.70704E-03     75.1969E-03    -62.5121E+06    -176.227E+06    -56.9235E+06     406.509E+03    -53.1299E-03     106.212E-03    -53.0821E-03     17.4474E-03    -53.1090E-03     105.509E-03    -53.0205E-03     17.3898E-03
             541     2.56057E-03     75.2185E-03    -59.3333E+06    -170.561E+06    -48.4300E+06     416.735E+03    -53.1741E-03     106.279E-03    -53.1054E-03     25.6663E-03    -53.1636E-03     105.593E-03    -53.0142E-03     25.5747E-03
             542     3.41418E-03     75.2482E-03    -55.5118E+06    -163.753E+06    -38.5844E+06     434.970E+03    -53.2593E-03     106.385E-03    -53.1257E-03     33.7627E-03    -53.2626E-03     105.722E-03    -53.0007E-03     33.6329E-03
             543     4.26776E-03     75.2860E-03    -51.2218E+06    -155.008E+06    -28.9995E+06     453.435E+03    -53.3761E-03     106.516E-03    -53.1404E-03     41.6095E-03    -53.3972E-03     105.890E-03    -52.9863E-03     41.4362E-03
             544     5.12140E-03     75.3315E-03    -46.7194E+06    -144.658E+06    -20.6051E+06     476.431E+03    -53.5113E-03     106.658E-03    -53.1463E-03     49.1368E-03    -53.5543E-03     106.081E-03    -52.9718E-03     48.9137E-03
             545     5.97505E-03     75.3843E-03    -42.4492E+06    -134.136E+06    -13.3953E+06     621.486E+03    -53.6570E-03     106.803E-03    -53.1458E-03     56.2927E-03    -53.7272E-03     106.285E-03    -52.9568E-03     56.0146E-03
             546     6.82873E-03     75.4440E-03    -38.5004E+06    -125.971E+06    -8.35918E+06     680.566E+03    -53.8262E-03     106.965E-03    -53.1387E-03     63.0081E-03    -53.9261E-03     106.505E-03    -52.9420E-03     62.6657E-03
             547     7.68245E-03     75.5102E-03    -34.9397E+06    -115.929E+06    -4.86597E+06     635.754E+03    -53.9985E-03     107.121E-03    -53.1229E-03     69.3338E-03    -54.1394E-03     106.741E-03    -52.9284E-03     68.9173E-03
             548     8.53611E-03     75.5825E-03    -31.8359E+06    -101.366E+06    -3.11441E+06     695.333E+03    -54.1544E-03     107.248E-03    -53.0933E-03     75.3058E-03    -54.3537E-03     106.983E-03    -52.9157E-03     74.8083E-03
             549     9.38992E-03     75.6606E-03    -29.1094E+06    -86.2025E+06    -1.24735E+06     659.065E+03    -54.2933E-03     107.358E-03    -53.0646E-03     80.7318E-03    -54.5681E-03     107.227E-03    -52.9036E-03     80.1420E-03
             550     10.2435E-03     75.7437E-03    -26.7036E+06    -68.8863E+06     87.9552E+03     585.593E+03    -54.3860E-03     107.417E-03    -53.0306E-03     85.6320E-03    -54.7580E-03     107.449E-03    -52.8916E-03     84.9409E-03
             551     11.0974E-03     75.8314E-03    -24.5106E+06    -43.8981E+06     1.52093E+06     690.008E+03    -54.4242E-03     107.409E-03    -52.9852E-03     90.2759E-03    -54.9318E-03     107.670E-03    -52.8784E-03     89.4753E-03
             552     11.9512E-03     75.9236E-03    -22.3533E+06    -10.6544E+06     5.34960E+06     865.685E+03    -54.5019E-03     107.441E-03    -52.9389E-03     96.3072E-03    -55.2072E-03     108.013E-03    -52.8643E-03     95.3847E-03
             553     12.8050E-03     76.0237E-03    -20.4662E+06     45.5501E+06     9.07255E+06     690.771E+03    -54.6487E-03     107.507E-03    -52.8585E-03     105.369E-03    -55.6661E-03     108.587E-03    -52.8495E-03     104.310E-03
             554     13.6588E-03     76.1335E-03    -18.0667E+06     91.8327E+06     31.5063E+06     521.655E+03    -54.8697E-03     107.754E-03    -52.8843E-03     115.786E-03    -56.2495E-03     109.304E-03    -52.8337E-03     114.644E-03
             555     14.5129E-03     76.2547E-03    -13.6625E+06     109.319E+06     63.1384E+06     1.67946E+06    -54.5697E-03     107.564E-03    -52.9939E-03     114.136E-03    -56.1090E-03     109.259E-03    -52.8169E-03     113.078E-03
             556     15.3671E-03     76.3622E-03    -8.48232E+06     124.352E+06     82.6910E+06     1.74798E+06    -53.8143E-03     106.854E-03    -53.0394E-03     106.585E-03    -55.3955E-03     108.606E-03    -52.7940E-03     105.689E-03
             557     16.2194E-03     76.4667E-03    -4.19101E+06     124.327E+06     87.3471E+06    -234.664E+03    -52.6891E-03     105.709E-03    -53.0197E-03     80.2976E-03    -53.8491E-03     107.042E-03    -52.7571E-03     79.6469E-03
             558     853.551E-06     76.2373E-03    -64.9522E+06    -180.596E+06    -63.4242E+06     215.790E+03    -53.1470E-03     106.156E-03    -53.0091E-03     9.50271E-03    -53.1193E-03     105.441E-03    -52.9702E-03     9.47248E-03
             559     1.70704E-03     76.2506E-03    -62.6222E+06    -176.580E+06    -57.4508E+06     217.380E+03    -53.1141E-03     106.199E-03    -53.0846E-03     17.4067E-03    -53.0925E-03     105.495E-03    -53.0250E-03     17.3467E-03
             560     2.56060E-03     76.2722E-03    -59.4487E+06    -170.860E+06    -48.9022E+06     438.206E+03    -53.1691E-03     106.271E-03    -53.1023E-03     25.6603E-03    -53.1582E-03     105.585E-03    -53.0128E-03     25.5689E-03
             561     3.41415E-03     76.3019E-03    -55.5337E+06    -163.848E+06    -38.6827E+06     505.447E+03    -53.2628E-03     106.387E-03    -53.1240E-03     33.7640E-03    -53.2660E-03     105.723E-03    -52.9993E-03     33.6350E-03
             562     4.26777E-03     76.3397E-03    -51.1962E+06    -155.015E+06    -29.0064E+06     387.067E+03    -53.3718E-03     106.511E-03    -53.1391E-03     41.6073E-03    -53.3927E-03     105.884E-03    -52.9852E-03     41.4331E-03
             563     5.12140E-03     76.3852E-03    -46.8423E+06    -144.922E+06    -20.7301E+06     430.623E+03    -53.5032E-03     106.647E-03    -53.1442E-03     49.1313E-03    -53.5462E-03     106.070E-03    -52.9698E-03     48.9077E-03
             564     5.97507E-03     76.4380E-03    -42.6377E+06    -134.392E+06    -13.6068E+06     642.942E+03    -53.6580E-03     106.801E-03    -53.1433E-03     56.2751E-03    -53.7285E-03     106.283E-03    -52.9546E-03     55.9973E-03
             565     6.82875E-03     76.4977E-03    -38.7507E+06    -126.075E+06    -8.56039E+06     712.149E+03    -53.8294E-03     106.966E-03    -53.1367E-03     62.9940E-03    -53.9302E-03     106.507E-03    -52.9405E-03     62.6519E-03
             566     7.68242E-03     76.5639E-03    -35.1698E+06    -116.012E+06    -5.01448E+06     619.878E+03    -53.9998E-03     107.121E-03    -53.1216E-03     69.3259E-03    -54.1416E-03     106.741E-03    -52.9275E-03     68.9092E-03
             567     8.53617E-03     76.6362E-03    -32.0076E+06    -101.511E+06    -3.30211E+06     602.377E+03    -54.1474E-03     107.239E-03    -53.0918E-03     75.2993E-03    -54.3470E-03     106.974E-03    -52.9147E-03     74.8008E-03
             568     9.38983E-03     76.7143E-03    -29.2751E+06    -86.3340E+06    -1.41566E+06     623.301E+03    -54.2738E-03     107.336E-03    -53.0620E-03     80.7630E-03    -54.5489E-03     107.205E-03    -52.9015E-03     80.1734E-03
             569     10.2437E-03     76.7974E-03    -26.9693E+06    -68.8321E+06     61.3851E+03     628.964E+03    -54.3913E-03     107.419E-03    -53.0282E-03     85.6626E-03    -54.7645E-03     107.452E-03    -52.8889E-03     84.9724E-03
             570     11.0974E-03     76.8851E-03    -24.9005E+06    -43.9838E+06     1.45661E+06     654.612E+03    -54.4777E-03     107.463E-03    -52.9852E-03     90.3740E-03    -54.9872E-03     107.724E-03    -52.8780E-03     89.5725E-03
             571     11.9510E-03     76.9776E-03    -23.0362E+06    -10.9694E+06     5.07416E+06     699.892E+03    -54.4981E-03     107.438E-03    -52.9403E-03     96.4064E-03    -55.2060E-03     108.011E-03    -52.8656E-03     95.4820E-03
             572     12.8051E-03     77.0771E-03    -20.9414E+06     45.4928E+06     8.80067E+06     728.592E+03    -54.6308E-03     107.489E-03    -52.8580E-03     105.588E-03    -55.6504E-03     108.570E-03    -52.8496E-03     104.529E-03
             573     13.6590E-03     77.1880E-03    -18.3618E+06     91.6224E+06     31.7686E+06     737.948E+03    -54.9374E-03     107.824E-03    -52.8869E-03     116.130E-03    -56.3213E-03     109.376E-03    -52.8343E-03     114.990E-03
             574     14.5125E-03     77.3085E-03    -14.6931E+06     108.445E+06     62.0403E+06     689.809E+03    -54.3729E-03     107.360E-03    -52.9873E-03     114.376E-03    -55.9153E-03     109.056E-03    -52.8130E-03     113.309E-03
             575     15.3668E-03     77.4156E-03    -8.85668E+06     124.332E+06     81.6113E+06     993.569E+03    -53.5168E-03     106.533E-03    -53.0166E-03     106.867E-03    -55.1003E-03     108.290E-03    -52.7760E-03     105.965E-03
             576     16.2232E-03     77.5209E-03    -3.78133E+06     125.451E+06     88.3662E+06     538.091E+03    -52.9630E-03     105.967E-03    -53.0040E-03     80.3983E-03    -54.1270E-03     107.307E-03    -52.7386E-03     79.7542E-03
             577     853.422E-06     77.2910E-03    -64.8802E+06    -180.687E+06    -63.6186E+06    -18.8189E+03    -53.1017E-03     106.183E-03    -53.0815E-03     9.45980E-03    -53.0732E-03     105.468E-03    -53.0435E-03     9.42660E-03
             578     1.70702E-03     77.3043E-03    -62.8638E+06    -176.802E+06    -57.6211E+06     110.352E+03    -53.0943E-03     106.186E-03    -53.0915E-03     17.4062E-03    -53.0733E-03     105.481E-03    -53.0321E-03     17.3447E-03
             579     2.56060E-03     77.3258E-03    -59.8896E+06    -171.389E+06    -49.4873E+06     290.461E+03    -53.1664E-03     106.267E-03    -53.1009E-03     25.6625E-03    -53.1560E-03     105.579E-03    -53.0130E-03     25.5692E-03
             580     3.41418E-03     77.3556E-03    -56.1820E+06    -163.874E+06    -40.3604E+06     389.749E+03    -53.2574E-03     106.373E-03    -53.1158E-03     33.7654E-03    -53.2614E-03     105.713E-03    -52.9986E-03     33.6350E-03
             581     4.26777E-03     77.3934E-03    -51.9913E+06    -155.061E+06    -30.6742E+06     372.573E+03    -53.3700E-03     106.501E-03    -53.1309E-03     41.6071E-03    -53.3924E-03     105.877E-03    -52.9840E-03     41.4328E-03
             582     5.12141E-03     77.4389E-03    -47.6398E+06    -145.249E+06    -21.3172E+06     513.277E+03    -53.5031E-03     106.645E-03    -53.1422E-03     49.1284E-03    -53.5487E-03     106.068E-03    -52.9690E-03     48.9059E-03
             583     5.97506E-03     77.4916E-03    -43.2638E+06    -134.555E+06    -13.8522E+06     540.644E+03    -53.6529E-03     106.795E-03    -53.1425E-03     56.2803E-03    -53.7260E-03     106.277E-03    -52.9540E-03     56.0012E-03
             584     6.82874E-03     77.5514E-03    -39.0491E+06    -126.188E+06    -8.75933E+06     530.113E+03    -53.8274E-03     106.963E-03    -53.1354E-03     63.0090E-03    -53.9291E-03     106.503E-03    -52.9396E-03     62.6647E-03
             585     7.68245E-03     77.6176E-03    -35.3960E+06    -116.002E+06    -5.09474E+06     548.763E+03    -53.9913E-03     107.112E-03    -53.1203E-03     69.3488E-03    -54.1340E-03     106.732E-03    -52.9262E-03     68.9315E-03
             586     8.53612E-03     77.6900E-03    -32.2435E+06    -101.688E+06    -3.37656E+06     534.504E+03    -54.1354E-03     107.225E-03    -53.0899E-03     75.3192E-03    -54.3358E-03     106.960E-03    -52.9125E-03     74.8200E-03
             587     9.38996E-03     77.7679E-03    -29.5699E+06    -86.5460E+06    -1.52994E+06     658.197E+03    -54.2716E-03     107.331E-03    -53.0596E-03     80.7756E-03    -54.5476E-03     107.199E-03    -52.8989E-03     80.1867E-03
             588     10.2436E-03     77.8511E-03    -27.1864E+06    -68.7837E+06     33.6866E+03     717.668E+03    -54.3840E-03     107.409E-03    -53.0255E-03     85.6824E-03    -54.7582E-03     107.443E-03    -52.8862E-03     84.9936E-03
             589     11.0974E-03     77.9389E-03    -25.2048E+06    -44.2986E+06     1.23987E+06     811.286E+03    -54.4329E-03     107.413E-03    -52.9804E-03     90.4346E-03    -54.9429E-03     107.673E-03    -52.8734E-03     89.6362E-03
             590     11.9514E-03     78.0313E-03    -23.3616E+06    -10.9029E+06     4.68746E+06     844.695E+03    -54.5296E-03     107.463E-03    -52.9337E-03     96.4702E-03    -55.2393E-03     108.038E-03    -52.8606E-03     95.5466E-03
             591     12.8050E-03     78.1308E-03    -21.5896E+06     45.6588E+06     8.15857E+06     577.134E+03    -54.6548E-03     107.507E-03    -52.8526E-03     105.671E-03    -55.6785E-03     108.593E-03    -52.8467E-03     104.608E-03
             592     13.6590E-03     78.2419E-03    -18.9915E+06     91.2226E+06     30.9854E+06     645.516E+03    -54.6683E-03     107.542E-03    -52.8742E-03     116.244E-03    -56.0516E-03     109.092E-03    -52.8240E-03     115.109E-03
             593     14.5134E-03     78.3625E-03    -14.5396E+06     109.457E+06     63.1462E+06     641.696E+03    -54.1186E-03     107.085E-03    -52.9660E-03     114.258E-03    -55.6609E-03     108.781E-03    -52.7879E-03     113.199E-03
             594     15.3681E-03     78.4684E-03    -9.91820E+06     124.217E+06     81.7574E+06    -82.2909E+03    -53.8148E-03     106.811E-03    -52.9967E-03     106.846E-03    -55.4108E-03     108.576E-03    -52.7536E-03     105.920E-03
             595     16.2207E-03     78.5745E-03    -4.49958E+06     124.865E+06     87.4591E+06     260.520E+03    -53.2451E-03     106.241E-03    -52.9963E-03     79.8068E-03    -54.4136E-03     107.584E-03    -52.7335E-03     79.1489E-03
             596     853.533E-06     78.3447E-03    -65.2225E+06    -180.788E+06    -63.4724E+06     153.216E+03    -53.0518E-03     106.166E-03    -53.1145E-03     9.43540E-03    -53.0251E-03     105.451E-03    -53.0752E-03     9.40438E-03
             597     1.70705E-03     78.3579E-03    -63.1964E+06    -177.066E+06    -57.7960E+06     205.051E+03    -53.1059E-03     106.193E-03    -53.0875E-03     17.4102E-03    -53.0860E-03     105.488E-03    -53.0281E-03     17.3499E-03
             598     2.56058E-03     78.3795E-03    -60.1332E+06    -171.624E+06    -49.6787E+06     275.992E+03    -53.1671E-03     106.268E-03    -53.1009E-03     25.6666E-03    -53.1573E-03     105.580E-03    -53.0133E-03     25.5732E-03
             599     3.41416E-03     78.4092E-03    -56.3338E+06    -164.034E+06    -40.5086E+06     308.215E+03    -53.2527E-03     106.368E-03    -53.1155E-03     33.7602E-03    -53.2570E-03     105.708E-03    -52.9985E-03     33.6287E-03
             600     4.26778E-03     78.4471E-03    -52.2191E+06    -155.225E+06    -30.8118E+06     403.142E+03    -53.3674E-03     106.497E-03    -53.1301E-03     41.6085E-03    -53.3905E-03     105.873E-03    -52.9833E-03     41.4345E-03
             601     5.12140E-03     78.4925E-03    -47.8251E+06    -145.444E+06    -21.4571E+06     386.023E+03    -53.4992E-03     106.640E-03    -53.1410E-03     49.1357E-03    -53.5453E-03     106.062E-03    -52.9680E-03     48.9117E-03
             602     5.97507E-03     78.5453E-03    -43.3442E+06    -134.589E+06    -13.9336E+06     303.192E+03    -53.6471E-03     106.788E-03    -53.1407E-03     56.3038E-03    -53.7203E-03     106.270E-03    -52.9524E-03     56.0218E-03
             603     6.82877E-03     78.6050E-03    -39.2395E+06    -126.361E+06    -8.87948E+06     343.905E+03    -53.8206E-03     106.954E-03    -53.1331E-03     63.0313E-03    -53.9228E-03     106.494E-03    -52.9374E-03     62.6847E-03
             604     7.68244E-03     78.6713E-03    -35.5850E+06    -116.127E+06    -5.23504E+06     452.296E+03    -53.9885E-03     107.106E-03    -53.1175E-03     69.3458E-03    -54.1317E-03     106.726E-03    -52.9237E-03     68.9273E-03
             605     8.53625E-03     78.7435E-03    -32.4308E+06    -101.740E+06    -3.44187E+06     519.102E+03    -54.1417E-03     107.230E-03    -53.0879E-03     75.2866E-03    -54.3429E-03     106.964E-03    -52.9106E-03     74.7871E-03
             606     9.38989E-03     78.8217E-03    -29.6035E+06    -86.7572E+06    -1.66960E+06     601.855E+03    -54.2731E-03     107.331E-03    -53.0579E-03     80.7615E-03    -54.5487E-03     107.198E-03    -52.8976E-03     80.1718E-03
             607     10.2437E-03     78.9048E-03    -27.1751E+06    -68.9218E+06    -183.191E+03     736.991E+03    -54.3733E-03     107.396E-03    -53.0230E-03     85.6956E-03    -54.7469E-03     107.429E-03    -52.8846E-03     85.0073E-03
             608     11.0975E-03     78.9926E-03    -24.9468E+06    -44.4379E+06     1.30507E+06     843.999E+03    -54.4296E-03     107.408E-03    -52.9786E-03     90.3304E-03    -54.9382E-03     107.667E-03    -52.8715E-03     89.5319E-03
             609     11.9513E-03     79.0849E-03    -22.8911E+06    -11.1247E+06     4.70279E+06     961.720E+03    -54.5262E-03     107.458E-03    -52.9315E-03     96.4539E-03    -55.2337E-03     108.031E-03    -52.8586E-03     95.5312E-03
             610     12.8051E-03     79.1851E-03    -21.1576E+06     46.1145E+06     8.57837E+06     1.03528E+06    -54.5628E-03     107.411E-03    -52.8485E-03     105.627E-03    -55.5849E-03     108.497E-03    -52.8418E-03     104.573E-03
             611     13.6591E-03     79.2952E-03    -18.7672E+06     91.9697E+06     31.6854E+06     512.089E+03    -54.5501E-03     107.416E-03    -52.8656E-03     115.964E-03    -55.9312E-03     108.965E-03    -52.8134E-03     114.833E-03
             612     14.5138E-03     79.4156E-03    -14.8415E+06     109.387E+06     63.2240E+06    -97.1316E+03    -54.3714E-03     107.334E-03    -52.9623E-03     113.536E-03    -55.9140E-03     109.029E-03    -52.7833E-03     112.460E-03
             613     15.3678E-03     79.5222E-03    -9.38087E+06     124.630E+06     82.4575E+06     68.2167E+03    -54.0065E-03     107.015E-03    -53.0089E-03     106.258E-03    -55.5966E-03     108.776E-03    -52.7637E-03     105.330E-03
             614     16.2216E-03     79.6304E-03    -4.24548E+06     124.962E+06     87.4776E+06     508.142E+03    -53.0122E-03     106.018E-03    -53.0053E-03     79.6459E-03    -54.1729E-03     107.353E-03    -52.7430E-03     78.9972E-03
             615     853.509E-06     79.3984E-03    -65.3659E+06    -181.200E+06    -64.1283E+06     278.401E+03    -53.0951E-03     106.144E-03    -53.0488E-03     9.40230E-03    -53.0675E-03     105.427E-03    -53.0119E-03     9.37279E-03
             616     1.70702E-03     79.4116E-03    -63.4463E+06    -177.292E+06    -58.0322E+06     335.483E+03    -53.1104E-03     106.190E-03    -53.0798E-03     17.4031E-03    -53.0911E-03     105.485E-03    -53.0208E-03     17.3446E-03
             617     2.56060E-03     79.4332E-03    -60.2395E+06    -171.587E+06    -49.5047E+06     226.657E+03    -53.1702E-03     106.269E-03    -53.0989E-03     25.6767E-03    -53.1613E-03     105.581E-03    -53.0102E-03     25.5826E-03
             618     3.41417E-03     79.4630E-03    -56.1980E+06    -164.350E+06    -39.0764E+06     272.862E+03    -53.2557E-03     106.377E-03    -53.1216E-03     33.7702E-03    -53.2609E-03     105.713E-03    -52.9972E-03     33.6383E-03
             619     4.26777E-03     79.5007E-03    -51.8579E+06    -155.433E+06    -29.3095E+06     445.806E+03    -53.3631E-03     106.499E-03    -53.1364E-03     41.6167E-03    -53.3862E-03     105.872E-03    -52.9823E-03     41.4434E-03
             620     5.12143E-03     79.5462E-03    -47.4082E+06    -145.224E+06    -21.1209E+06     293.007E+03    -53.4974E-03     106.638E-03    -53.1403E-03     49.1356E-03    -53.5422E-03     106.060E-03    -52.9665E-03     48.9104E-03
             621     5.97510E-03     79.5990E-03    -43.1170E+06    -134.708E+06    -14.0411E+06     201.620E+03    -53.6514E-03     106.790E-03    -53.1387E-03     56.2875E-03    -53.7232E-03     106.271E-03    -52.9511E-03     56.0042E-03
             622     6.82877E-03     79.6588E-03    -39.1527E+06    -126.483E+06    -8.99801E+06     274.857E+03    -53.8202E-03     106.952E-03    -53.1317E-03     62.9999E-03    -53.9216E-03     106.491E-03    -52.9365E-03     62.6524E-03
             623     7.68251E-03     79.7249E-03    -35.5370E+06    -116.377E+06    -5.45306E+06     366.525E+03    -53.9966E-03     107.113E-03    -53.1164E-03     69.3229E-03    -54.1389E-03     106.732E-03    -52.9234E-03     68.9032E-03
             624     8.53612E-03     79.7973E-03    -32.3418E+06    -101.805E+06    -3.62694E+06     476.398E+03    -54.1541E-03     107.242E-03    -53.0877E-03     75.2685E-03    -54.3544E-03     106.976E-03    -52.9113E-03     74.7682E-03
             625     9.38993E-03     79.8753E-03    -29.6033E+06    -86.8633E+06    -1.85021E+06     470.745E+03    -54.2760E-03     107.335E-03    -53.0586E-03     80.7241E-03    -54.5513E-03     107.202E-03    -52.8990E-03     80.1324E-03
             626     10.2437E-03     79.9585E-03    -27.0823E+06    -69.2216E+06    -382.161E+03     626.139E+03    -54.3938E-03     107.418E-03    -53.0246E-03     85.6551E-03    -54.7662E-03     107.450E-03    -52.8869E-03     84.9649E-03
             627     11.0974E-03     80.0463E-03    -24.7859E+06    -44.4963E+06     1.23456E+06     661.466E+03    -54.4716E-03     107.454E-03    -52.9828E-03     90.2879E-03    -54.9797E-03     107.713E-03    -52.8761E-03     89.4858E-03
             628     11.9511E-03     80.1387E-03    -22.6518E+06    -11.6624E+06     4.58783E+06     837.668E+03    -54.4645E-03     107.400E-03    -52.9351E-03     96.4217E-03    -55.1695E-03     107.970E-03    -52.8624E-03     95.4986E-03
             629     12.8052E-03     80.2386E-03    -20.2898E+06     45.9949E+06     8.37392E+06     1.09517E+06    -54.4719E-03     107.317E-03    -52.8450E-03     105.398E-03    -55.4867E-03     108.399E-03    -52.8404E-03     104.348E-03
             630     13.6595E-03     80.3487E-03    -17.7798E+06     92.7413E+06     32.0320E+06     930.221E+03    -54.8059E-03     107.675E-03    -52.8690E-03     115.667E-03    -56.1839E-03     109.226E-03    -52.8176E-03     114.535E-03
             631     14.5129E-03     80.4696E-03    -14.9544E+06     109.743E+06     63.0340E+06     321.142E+03    -54.5873E-03     107.566E-03    -52.9789E-03     113.894E-03    -56.1340E-03     109.267E-03    -52.8011E-03     112.817E-03
             632     15.3658E-03     80.5771E-03    -10.3639E+06     124.002E+06     81.2475E+06    -147.161E+03    -53.5798E-03     106.595E-03    -53.0156E-03     106.651E-03    -55.1689E-03     108.352E-03    -52.7741E-03     105.733E-03
             633     16.2216E-03     80.6811E-03    -4.78256E+06     125.034E+06     87.3692E+06     135.463E+03    -52.8911E-03     105.891E-03    -52.9996E-03     80.3677E-03    -54.0549E-03     107.228E-03    -52.7371E-03     79.7207E-03
             634     853.513E-06     80.4520E-03    -65.7966E+06    -181.630E+06    -64.5054E+06     30.2919E+03    -53.1016E-03     106.124E-03    -53.0219E-03     9.37520E-03    -53.0751E-03     105.406E-03    -52.9857E-03     9.34235E-03
             635     1.70709E-03     80.4652E-03    -63.6569E+06    -177.592E+06    -58.3738E+06     242.550E+03    -53.1066E-03     106.177E-03    -53.0706E-03     17.4157E-03    -53.0873E-03     105.471E-03    -53.0126E-03     17.3559E-03
             636     2.56060E-03     80.4869E-03    -60.5569E+06    -171.611E+06    -49.3166E+06     357.149E+03    -53.1740E-03     106.269E-03    -53.0950E-03     25.6788E-03    -53.1669E-03     105.581E-03    -53.0049E-03     25.5864E-03
             637     3.41418E-03     80.5166E-03    -56.7032E+06    -164.511E+06    -39.0794E+06     310.304E+03    -53.2596E-03     106.380E-03    -53.1202E-03     33.7627E-03    -53.2671E-03     105.715E-03    -52.9948E-03     33.6313E-03
             638     4.26779E-03     80.5544E-03    -52.1104E+06    -155.569E+06    -29.4580E+06     255.401E+03    -53.3667E-03     106.502E-03    -53.1354E-03     41.6018E-03    -53.3907E-03     105.874E-03    -52.9816E-03     41.4260E-03
             639     5.12143E-03     80.5998E-03    -47.5760E+06    -145.107E+06    -21.2401E+06     325.461E+03    -53.5031E-03     106.643E-03    -53.1401E-03     49.1253E-03    -53.5487E-03     106.066E-03    -52.9669E-03     48.9005E-03
             640     5.97506E-03     80.6527E-03    -43.3743E+06    -134.672E+06    -14.3720E+06     240.773E+03    -53.6583E-03     106.797E-03    -53.1388E-03     56.2727E-03    -53.7309E-03     106.279E-03    -52.9525E-03     55.9898E-03
             641     6.82876E-03     80.7124E-03    -39.3796E+06    -126.589E+06    -9.46254E+06     153.698E+03    -53.8279E-03     106.960E-03    -53.1321E-03     62.9869E-03    -53.9297E-03     106.500E-03    -52.9388E-03     62.6377E-03
             642     7.68241E-03     80.7787E-03    -35.7093E+06    -116.567E+06    -5.86103E+06     210.025E+03    -53.9972E-03     107.115E-03    -53.1174E-03     69.3271E-03    -54.1395E-03     106.733E-03    -52.9259E-03     68.9054E-03
             643     8.53621E-03     80.8510E-03    -32.4463E+06    -102.003E+06    -4.05598E+06     295.326E+03    -54.1596E-03     107.248E-03    -53.0885E-03     75.2648E-03    -54.3596E-03     106.983E-03    -52.9138E-03     74.7622E-03
             644     9.38987E-03     80.9290E-03    -29.5655E+06    -86.8248E+06    -2.04140E+06     346.690E+03    -54.3132E-03     107.375E-03    -53.0618E-03     80.7043E-03    -54.5881E-03     107.243E-03    -52.9032E-03     80.1105E-03
             645     10.2436E-03     81.0122E-03    -27.0286E+06    -69.5516E+06    -691.030E+03     332.194E+03    -54.3995E-03     107.429E-03    -53.0292E-03     85.6689E-03    -54.7708E-03     107.459E-03    -52.8926E-03     84.9749E-03
             646     11.0974E-03     81.1002E-03    -24.7692E+06    -44.7533E+06     870.225E+03     550.213E+03    -54.4299E-03     107.415E-03    -52.9849E-03     90.4093E-03    -54.9367E-03     107.672E-03    -52.8797E-03     89.6072E-03
             647     11.9512E-03     81.1924E-03    -22.5532E+06    -11.8068E+06     4.41689E+06     546.509E+03    -54.4564E-03     107.392E-03    -52.9355E-03     96.4091E-03    -55.1600E-03     107.961E-03    -52.8636E-03     95.4832E-03
             648     12.8051E-03     81.2921E-03    -20.4982E+06     45.3446E+06     7.88239E+06     713.901E+03    -54.6130E-03     107.462E-03    -52.8491E-03     105.441E-03    -55.6277E-03     108.542E-03    -52.8457E-03     104.384E-03
             649     13.6588E-03     81.4027E-03    -18.0281E+06     92.3256E+06     31.1771E+06     1.03304E+06    -54.8463E-03     107.722E-03    -52.8756E-03     116.052E-03    -56.2263E-03     109.275E-03    -52.8275E-03     114.919E-03
             650     14.5126E-03     81.5242E-03    -13.7304E+06     110.746E+06     63.7049E+06     990.206E+03    -54.1738E-03     107.150E-03    -52.9764E-03     114.113E-03    -55.7126E-03     108.849E-03    -52.7985E-03     113.057E-03
             651     15.3689E-03     81.6294E-03    -9.34356E+06     124.908E+06     82.2500E+06     455.134E+03    -53.5818E-03     106.585E-03    -53.0029E-03     106.499E-03    -55.1636E-03     108.338E-03    -52.7593E-03     105.592E-03
             652     16.2222E-03     81.7358E-03    -4.92402E+06     124.927E+06      87.031E+06    -184.584E+03    -53.1819E-03     106.174E-03    -52.9919E-03     80.4448E-03    -54.3487E-03     107.514E-03    -52.7308E-03     79.7857E-03
             653     853.560E-06     81.5057E-03    -66.1487E+06    -181.894E+06    -64.5982E+06     51.3136E+03    -53.0576E-03     106.094E-03    -53.0367E-03     9.42580E-03    -53.0323E-03     105.376E-03    -53.0000E-03     9.39314E-03
             654     1.70704E-03     81.5189E-03    -64.1098E+06    -177.892E+06    -58.4686E+06     204.641E+03    -53.1202E-03     106.183E-03    -53.0628E-03     17.4186E-03    -53.1027E-03     105.476E-03    -53.0042E-03     17.3583E-03
             655     2.56064E-03     81.5405E-03    -60.9312E+06    -172.136E+06    -49.9692E+06     516.737E+03    -53.1772E-03     106.269E-03    -53.0914E-03     25.6627E-03    -53.1702E-03     105.579E-03    -53.0033E-03     25.5724E-03
             656     3.41418E-03     81.5703E-03    -57.0911E+06    -164.229E+06    -40.2480E+06     488.024E+03    -53.2622E-03     106.376E-03    -53.1142E-03     33.7502E-03    -53.2704E-03     105.716E-03    -52.9945E-03     33.6211E-03
             657     4.26777E-03     81.6080E-03    -52.8721E+06    -155.404E+06    -30.7461E+06     63.0497E+03    -53.3754E-03     106.506E-03    -53.1310E-03     41.5956E-03    -53.4016E-03     105.882E-03    -52.9828E-03     41.4172E-03
             658     5.12140E-03     81.6536E-03    -48.2299E+06    -145.426E+06    -22.0343E+06     70.1381E+03    -53.5068E-03     106.647E-03    -53.1399E-03     49.1288E-03    -53.5540E-03     106.070E-03    -52.9693E-03     48.9006E-03
             659     5.97508E-03     81.7063E-03    -43.6809E+06    -134.456E+06    -14.7590E+06     132.624E+03    -53.6583E-03     106.798E-03    -53.1395E-03     56.2798E-03    -53.7323E-03     106.282E-03    -52.9550E-03     55.9955E-03
             660     6.82873E-03     81.7662E-03    -39.6114E+06    -126.531E+06    -9.78725E+06    -34.0924E+03    -53.8367E-03     106.970E-03    -53.1336E-03     62.9976E-03    -53.9393E-03     106.511E-03    -52.9417E-03     62.6459E-03
             661     7.68244E-03     81.8323E-03    -35.8789E+06    -116.643E+06    -6.17636E+06    -67.0734E+03    -54.0076E-03     107.127E-03    -53.1198E-03     69.3255E-03    -54.1502E-03     106.746E-03    -52.9296E-03     68.9001E-03
             662     8.53609E-03     81.9047E-03    -32.5069E+06    -102.181E+06    -4.31341E+06    -29.3984E+03    -54.1642E-03     107.256E-03    -53.0916E-03     75.2753E-03    -54.3638E-03     106.990E-03    -52.9179E-03     74.7685E-03
             663     9.38982E-03     81.9827E-03    -29.5826E+06    -86.9783E+06    -2.29953E+06     48.1640E+03    -54.3037E-03     107.368E-03    -53.0640E-03     80.7821E-03    -54.5781E-03     107.235E-03    -52.9065E-03     80.1848E-03
             664     10.2435E-03     82.0660E-03    -27.0094E+06    -69.6528E+06    -705.741E+03     161.243E+03    -54.3718E-03     107.402E-03    -53.0304E-03     85.7169E-03    -54.7427E-03     107.432E-03    -52.8938E-03     85.0212E-03
             665     11.0974E-03     82.1536E-03    -24.7615E+06    -45.0823E+06     760.966E+03     279.639E+03    -54.3892E-03     107.372E-03    -52.9831E-03     90.4710E-03    -54.8949E-03     107.628E-03    -52.8780E-03     89.6668E-03
             666     11.9513E-03     82.2464E-03    -22.8260E+06    -11.7849E+06     4.43570E+06     509.334E+03    -54.5111E-03     107.446E-03    -52.9346E-03     96.4397E-03    -55.2161E-03     108.015E-03    -52.8623E-03     95.5124E-03
             667     12.8051E-03     82.3457E-03    -20.9887E+06     44.9509E+06     7.70026E+06     553.733E+03    -54.6493E-03     107.500E-03    -52.8509E-03     105.674E-03    -55.6674E-03     108.581E-03    -52.8471E-03     104.612E-03
             668     13.6589E-03     82.4572E-03    -17.9223E+06     92.0749E+06     31.3541E+06     523.959E+03    -54.6137E-03     107.485E-03    -52.8715E-03     116.200E-03    -55.9909E-03     109.035E-03    -52.8223E-03     115.067E-03
             669     14.5139E-03     82.5767E-03    -13.4782E+06     111.006E+06     64.3802E+06     681.412E+03    -54.2455E-03     107.215E-03    -52.9695E-03     113.677E-03    -55.7830E-03     108.912E-03    -52.7891E-03     112.614E-03
             670     15.3666E-03     82.6833E-03    -8.97420E+06     125.282E+06     82.5997E+06     631.515E+03    -54.0342E-03     107.045E-03    -53.0104E-03     106.083E-03    -55.6185E-03     108.802E-03    -52.7660E-03     105.163E-03
             671     16.2209E-03     82.7900E-03    -4.35202E+06     125.347E+06     87.2422E+06     343.456E+03    -53.0506E-03     106.059E-03    -53.0080E-03     79.7102E-03    -54.2130E-03     107.397E-03    -52.7472E-03     79.0593E-03
             672     853.573E-06     82.5593E-03    -66.3473E+06    -182.160E+06    -64.8225E+06     235.322E+03    -53.0618E-03     106.100E-03    -53.0386E-03     9.48852E-03    -53.0368E-03     105.381E-03    -53.0024E-03     9.45833E-03
             673     1.70710E-03     82.5726E-03    -64.3819E+06    -178.268E+06    -58.9071E+06     319.416E+03    -53.1244E-03     106.190E-03    -53.0651E-03     17.4033E-03    -53.1071E-03     105.482E-03    -53.0078E-03     17.3445E-03
             674     2.56057E-03     82.5942E-03    -61.2529E+06    -172.632E+06    -50.6340E+06     473.060E+03    -53.1784E-03     106.271E-03    -53.0928E-03     25.6491E-03    -53.1713E-03     105.581E-03    -53.0068E-03     25.5583E-03
             675     3.41419E-03     82.6240E-03    -57.4713E+06    -164.122E+06    -41.6570E+06     468.561E+03    -53.2589E-03     106.369E-03    -53.1100E-03     33.7501E-03    -53.2671E-03     105.711E-03    -52.9969E-03     33.6207E-03
             676     4.26777E-03     82.6618E-03    -53.2967E+06    -154.823E+06    -31.5710E+06     163.381E+03    -53.3754E-03     106.504E-03    -53.1283E-03     41.6059E-03    -53.4034E-03     105.884E-03    -52.9844E-03     41.4288E-03
             677     5.12139E-03     82.7072E-03    -48.8418E+06    -145.386E+06    -22.2769E+06    -329.170E+03    -53.5139E-03     106.656E-03    -53.1418E-03     49.1395E-03    -53.5640E-03     106.081E-03    -52.9716E-03     48.9060E-03
             678     5.97503E-03     82.7601E-03    -44.0683E+06    -134.390E+06    -15.2239E+06    -493.097E+03    -53.6662E-03     106.807E-03    -53.1410E-03     56.2854E-03    -53.7415E-03     106.293E-03    -52.9583E-03     55.9928E-03
             679     6.82873E-03     82.8198E-03    -39.5175E+06    -126.459E+06    -9.94276E+06    -407.488E+03    -53.8414E-03     106.978E-03    -53.1364E-03     62.9911E-03    -53.9433E-03     106.519E-03    -52.9454E-03     62.6345E-03
             680     7.68236E-03     82.8861E-03    -35.7165E+06    -116.725E+06    -6.32507E+06    -344.568E+03    -54.0063E-03     107.129E-03    -53.1225E-03     69.3371E-03    -54.1477E-03     106.747E-03    -52.9330E-03     68.9081E-03
             681     8.53610E-03     82.9584E-03    -32.5465E+06    -102.210E+06    -4.54461E+06    -313.499E+03    -54.1513E-03     107.244E-03    -53.0928E-03     75.3343E-03    -54.3507E-03     106.978E-03    -52.9202E-03     74.8240E-03
             682     9.38983E-03     83.0365E-03    -29.7738E+06    -87.1500E+06    -2.57212E+06    -250.506E+03    -54.2663E-03     107.329E-03    -53.0628E-03     80.8093E-03    -54.5409E-03     107.196E-03    -52.9061E-03     80.2088E-03
             683     10.2437E-03     83.1196E-03    -27.2204E+06    -69.8710E+06    -969.994E+03    -64.4511E+03    -54.3607E-03     107.388E-03    -53.0274E-03     85.6887E-03    -54.7319E-03     107.417E-03    -52.8915E-03     84.9903E-03
             684     11.0974E-03     83.2074E-03    -25.0323E+06    -45.2896E+06     477.209E+03     115.971E+03    -54.4285E-03     107.410E-03    -52.9814E-03     90.4087E-03    -54.9350E-03     107.665E-03    -52.8771E-03     89.6011E-03
             685     11.9513E-03     83.2999E-03    -22.8405E+06    -12.0001E+06     4.16969E+06     247.779E+03    -54.5048E-03     107.439E-03    -52.9340E-03     96.5306E-03    -55.2096E-03     108.008E-03    -52.8626E-03     95.5998E-03
             686     12.8049E-03     83.4000E-03    -20.3703E+06     45.3336E+06     8.05900E+06     308.644E+03    -54.5234E-03     107.371E-03    -52.8472E-03     105.590E-03    -55.5390E-03     108.451E-03    -52.8431E-03     104.528E-03
             687     13.6594E-03     83.5099E-03    -17.9982E+06     91.9047E+06     31.4434E+06     442.247E+03    -54.6511E-03     107.517E-03    -52.8664E-03     115.845E-03    -56.0260E-03     109.064E-03    -52.8163E-03     114.711E-03
             688     14.5130E-03     83.6309E-03    -14.8769E+06     110.165E+06     63.1376E+06     590.322E+03    -54.4918E-03     107.462E-03    -52.9697E-03     113.858E-03    -56.0388E-03     109.164E-03    -52.7922E-03     112.786E-03
             689     15.3675E-03     83.7378E-03    -9.82608E+06     125.496E+06     82.0011E+06     753.930E+03    -53.8869E-03     106.900E-03    -53.0133E-03     106.944E-03    -55.4837E-03     108.670E-03    -52.7710E-03     106.027E-03
             690     16.2210E-03     83.8438E-03    -4.76997E+06     125.956E+06     87.5800E+06     427.744E+03    -52.9206E-03     105.926E-03    -53.0050E-03     80.4064E-03    -54.0897E-03     107.271E-03    -52.7428E-03     79.7606E-03
             691     853.491E-06     83.6130E-03    -66.6823E+06    -182.572E+06    -65.3250E+06     260.474E+03    -53.0968E-03     106.147E-03    -53.0500E-03     9.51423E-03    -53.0722E-03     105.427E-03    -53.0152E-03     9.48446E-03
             692     1.70701E-03     83.6263E-03    -64.5910E+06    -178.674E+06    -59.4558E+06     337.949E+03    -53.1101E-03     106.190E-03    -53.0796E-03     17.4013E-03    -53.0924E-03     105.481E-03    -53.0241E-03     17.3427E-03
             693     2.56062E-03     83.6479E-03    -61.4793E+06    -172.888E+06    -50.9599E+06     412.975E+03    -53.1752E-03     106.274E-03    -53.0988E-03     25.6366E-03    -53.1684E-03     105.583E-03    -53.0138E-03     25.5450E-03
             694     3.41414E-03     83.6777E-03    -57.5371E+06    -163.964E+06    -41.4650E+06     208.825E+03    -53.2581E-03     106.374E-03    -53.1156E-03     33.7440E-03    -53.2671E-03     105.717E-03    -53.0017E-03     33.6112E-03
             695     4.26778E-03     83.7154E-03    -53.0613E+06    -154.572E+06    -31.5575E+06     47.3451E+03    -53.3731E-03     106.504E-03    -53.1313E-03     41.6013E-03    -53.4003E-03     105.886E-03    -52.9880E-03     41.4226E-03
             696     5.12139E-03     83.7610E-03    -48.6646E+06    -144.495E+06    -22.2878E+06    -353.193E+03    -53.5177E-03     106.661E-03    -53.1432E-03     49.1367E-03    -53.5682E-03     106.090E-03    -52.9746E-03     48.9028E-03
             697     5.97502E-03     83.8137E-03    -44.4527E+06    -134.024E+06    -15.5920E+06    -1.03176E+06    -53.6724E-03     106.815E-03    -53.1426E-03     56.3015E-03    -53.7497E-03     106.304E-03    -52.9618E-03     56.0019E-03
             698     6.82865E-03     83.8736E-03    -40.3620E+06    -126.811E+06    -10.9079E+06    -967.069E+03    -53.8341E-03     106.971E-03    -53.1365E-03     63.0217E-03    -53.9383E-03     106.513E-03    -52.9486E-03     62.6580E-03
             699     7.68238E-03     83.9397E-03    -36.4890E+06    -116.628E+06    -7.03296E+06    -799.650E+03    -53.9919E-03     107.114E-03    -53.1218E-03     69.3556E-03    -54.1364E-03     106.735E-03    -52.9349E-03     68.9208E-03
             700     8.53611E-03     84.0121E-03    -32.9060E+06    -102.264E+06    -5.12178E+06    -815.903E+03    -54.1394E-03     107.230E-03    -53.0911E-03     75.3201E-03    -54.3397E-03     106.966E-03    -52.9207E-03     74.8034E-03
             701     9.38985E-03     84.0902E-03    -29.7835E+06    -87.3475E+06    -3.09007E+06    -576.248E+03    -54.2676E-03     107.328E-03    -53.0607E-03     80.7622E-03    -54.5412E-03     107.195E-03    -52.9063E-03     80.1573E-03
             702     10.2436E-03     84.1733E-03    -27.1870E+06    -70.0138E+06    -1.52201E+06    -448.296E+03    -54.3786E-03     107.404E-03    -53.0258E-03     85.6617E-03    -54.7487E-03     107.434E-03    -52.8924E-03     84.9579E-03
             703     11.0974E-03     84.2611E-03    -24.6988E+06    -45.6398E+06    -33.9808E+03    -178.984E+03    -54.4346E-03     107.415E-03    -52.9806E-03     90.4158E-03    -54.9386E-03     107.670E-03    -52.8788E-03     89.6040E-03
             704     11.9511E-03     84.3537E-03    -22.5020E+06    -12.1486E+06     3.66515E+06    -38.2313E+03    -54.4250E-03     107.355E-03    -52.9300E-03     96.5818E-03    -55.1269E-03     107.923E-03    -52.8614E-03     95.6491E-03
             705     12.8054E-03     84.4534E-03    -20.8044E+06     45.0814E+06     7.31855E+06     121.811E+03    -54.5008E-03     107.341E-03    -52.8398E-03     105.580E-03    -55.5159E-03     108.421E-03    -52.8384E-03     104.517E-03
             706     13.6590E-03     84.5639E-03    -18.5959E+06     91.2380E+06     30.5269E+06     760.711E+03    -54.7753E-03     107.637E-03    -52.8618E-03     116.090E-03    -56.1545E-03     109.186E-03    -52.8145E-03     114.956E-03
             707     14.5132E-03     84.6848E-03    -14.7386E+06     110.073E+06     63.3765E+06     888.911E+03    -54.3994E-03     107.369E-03    -52.9693E-03     114.223E-03    -55.9477E-03     109.072E-03    -52.7906E-03     113.158E-03
             708     15.3671E-03     84.7913E-03    -9.55729E+06     125.862E+06     82.7487E+06     400.120E+03    -53.5515E-03     106.554E-03    -53.0030E-03     106.350E-03    -55.1391E-03     108.315E-03    -52.7579E-03     105.441E-03
             709     16.2230E-03     84.8967E-03    -4.37782E+06     126.405E+06     87.7304E+06     240.639E+03    -53.0384E-03     106.026E-03    -52.9873E-03     80.1016E-03    -54.2006E-03     107.367E-03    -52.7256E-03     79.4530E-03
             710     853.484E-06     84.6667E-03    -67.2085E+06    -183.003E+06    -65.8741E+06     18.5099E+03    -53.1102E-03     106.167E-03    -53.0573E-03     9.52644E-03    -53.0867E-03     105.447E-03    -53.0239E-03     9.49326E-03
             711     1.70705E-03     84.6799E-03    -65.0465E+06    -178.929E+06    -59.6584E+06     161.579E+03    -53.1176E-03     106.208E-03    -53.0906E-03     17.4287E-03    -53.1015E-03     105.499E-03    -53.0352E-03     17.3679E-03
             712     2.56053E-03     84.7016E-03    -61.6155E+06    -172.912E+06    -50.9087E+06     114.620E+03    -53.1779E-03     106.287E-03    -53.1088E-03     25.6344E-03    -53.1718E-03     105.596E-03    -53.0233E-03     25.5388E-03
             713     3.41416E-03     84.7313E-03    -57.5444E+06    -163.615E+06    -41.1816E+06    -38.7727E+03    -53.2630E-03     106.388E-03    -53.1247E-03     33.7351E-03    -53.2730E-03     105.732E-03    -53.0100E-03     33.5991E-03
             714     4.26771E-03     84.7692E-03    -52.9929E+06    -154.197E+06    -31.4487E+06    -470.260E+03    -53.3782E-03     106.517E-03    -53.1389E-03     41.5953E-03    -53.4058E-03     105.900E-03    -52.9958E-03     41.4098E-03
             715     5.12136E-03     84.8146E-03    -47.9608E+06    -143.909E+06    -22.5840E+06    -778.255E+03    -53.5127E-03     106.659E-03    -53.1463E-03     49.1310E-03    -53.5601E-03     106.091E-03    -52.9810E-03     48.8917E-03
             716     5.97500E-03     84.8675E-03    -43.5905E+06    -133.458E+06    -15.4629E+06    -809.960E+03    -53.6632E-03     106.808E-03    -53.1453E-03     56.2805E-03    -53.7372E-03     106.299E-03    -52.9659E-03     55.9837E-03
             717     6.82870E-03     84.9271E-03    -39.8814E+06    -126.652E+06    -10.8602E+06    -1.19704E+06    -53.8335E-03     106.972E-03    -53.1385E-03     62.9930E-03    -53.9357E-03     106.514E-03    -52.9513E-03     62.6260E-03
             718     7.68237E-03     84.9935E-03    -36.0388E+06    -116.338E+06    -7.45882E+06    -1.50179E+06    -54.0014E-03     107.123E-03    -53.1213E-03     69.3361E-03    -54.1434E-03     106.745E-03    -52.9376E-03     68.8920E-03
             719     8.53605E-03     85.0657E-03    -32.5635E+06    -102.423E+06    -5.56351E+06    -1.37313E+06    -54.1443E-03     107.236E-03    -53.0917E-03     75.2760E-03    -54.3421E-03     106.971E-03    -52.9238E-03     74.7517E-03
             720     9.38983E-03     85.1438E-03    -29.5453E+06    -87.5819E+06    -3.66152E+06    -1.15963E+06    -54.2685E-03     107.329E-03    -53.0608E-03     80.7586E-03    -54.5397E-03     107.195E-03    -52.9093E-03     80.1461E-03
             721     10.2436E-03     85.2270E-03    -26.8049E+06    -70.2159E+06    -1.90428E+06    -870.958E+03    -54.3676E-03     107.393E-03    -53.0256E-03     85.7207E-03    -54.7349E-03     107.422E-03    -52.8945E-03     85.0118E-03
             722     11.0973E-03     85.3148E-03    -24.5511E+06    -45.9937E+06    -454.049E+03    -659.043E+03    -54.3847E-03     107.363E-03    -52.9781E-03     90.4589E-03    -54.8864E-03     107.615E-03    -52.8781E-03     89.6423E-03
             723     11.9514E-03     85.4072E-03    -22.4793E+06    -12.7266E+06     3.31341E+06    -94.6497E+03    -54.4247E-03     107.351E-03    -52.9264E-03     96.5148E-03    -55.1251E-03     107.917E-03    -52.8588E-03     95.5814E-03
             724     12.8051E-03     85.5070E-03    -21.0136E+06     44.2301E+06     6.88131E+06     660.847E+03    -54.5175E-03     107.355E-03    -52.8373E-03     105.519E-03    -55.5316E-03     108.431E-03    -52.8366E-03     104.463E-03
             725     13.6595E-03     85.6177E-03    -18.8131E+06     91.1617E+06     30.1659E+06     516.860E+03    -54.6676E-03     107.524E-03    -52.8560E-03     116.156E-03    -56.0476E-03     109.073E-03    -52.8101E-03     115.021E-03
             726     14.5134E-03     85.7386E-03    -14.1668E+06     110.543E+06     64.1914E+06     303.397E+03    -54.2977E-03     107.259E-03    -52.9613E-03     114.182E-03    -55.8405E-03     108.958E-03    -52.7801E-03     113.115E-03
             727     15.3678E-03     85.8450E-03    -9.13161E+06     126.011E+06     83.3572E+06     721.834E+03    -53.8446E-03     106.845E-03    -53.0003E-03     106.163E-03    -55.4290E-03     108.603E-03    -52.7530E-03     105.251E-03
             728     16.2207E-03     85.9498E-03    -4.42307E+06     126.555E+06     87.5049E+06     534.341E+03    -53.2133E-03     106.207E-03    -52.9941E-03     80.2306E-03    -54.3803E-03     107.554E-03    -52.7337E-03     79.5773E-03
             729     853.541E-06     85.7203E-03    -67.6799E+06    -183.059E+06    -66.0078E+06    -188.959E+03    -53.1440E-03     106.186E-03    -53.0420E-03     9.51703E-03    -53.1226E-03     105.466E-03    -53.0084E-03     9.48106E-03
             730     1.70698E-03     85.7337E-03    -65.2512E+06    -178.859E+06    -59.6960E+06    -178.676E+03    -53.1309E-03     106.233E-03    -53.1018E-03     17.3967E-03    -53.1159E-03     105.524E-03    -53.0463E-03     17.3315E-03
             731     2.56057E-03     85.7552E-03    -61.8686E+06    -172.856E+06    -50.8833E+06    -226.117E+03    -53.1838E-03     106.304E-03    -53.1206E-03     25.6327E-03    -53.1791E-03     105.614E-03    -53.0346E-03     25.5326E-03
             732     3.41407E-03     85.7851E-03    -57.7116E+06    -163.219E+06    -41.8100E+06    -408.280E+03    -53.2702E-03     106.402E-03    -53.1316E-03     33.7441E-03    -53.2807E-03     105.749E-03    -53.0203E-03     33.6033E-03
             733     4.26770E-03     85.8228E-03    -53.2865E+06    -153.214E+06    -32.1901E+06    -950.398E+03    -53.3836E-03     106.528E-03    -53.1440E-03     41.6057E-03    -53.4130E-03     105.917E-03    -53.0055E-03     41.4140E-03
             734     5.12128E-03     85.8684E-03    -48.8666E+06    -143.498E+06    -23.3899E+06    -1.46911E+06    -53.5123E-03     106.664E-03    -53.1520E-03     49.1237E-03    -53.5636E-03     106.101E-03    -52.9901E-03     48.8753E-03
             735     5.97497E-03     85.9211E-03    -43.9310E+06    -133.345E+06    -16.5018E+06    -1.55387E+06    -53.6586E-03     106.807E-03    -53.1483E-03     56.2548E-03    -53.7330E-03     106.300E-03    -52.9737E-03     55.9482E-03
             736     6.82861E-03     85.9810E-03    -39.0932E+06    -125.765E+06    -11.0782E+06    -1.68223E+06    -53.8355E-03     106.977E-03    -53.1417E-03     62.9584E-03    -53.9348E-03     106.523E-03    -52.9580E-03     62.5849E-03
             737     7.68230E-03     86.0471E-03    -35.3997E+06    -116.113E+06    -7.83678E+06    -1.91069E+06    -53.9971E-03     107.121E-03    -53.1238E-03     69.3164E-03    -54.1357E-03     106.744E-03    -52.9432E-03     68.8669E-03
             738     8.53604E-03     86.1195E-03    -32.3053E+06    -102.455E+06    -6.19418E+06    -1.87666E+06    -54.1454E-03     107.238E-03    -53.0929E-03     75.2775E-03    -54.3409E-03     106.973E-03    -52.9285E-03     74.7468E-03
             739     9.38975E-03     86.1974E-03    -29.4255E+06    -87.7454E+06    -4.10630E+06    -1.71997E+06    -54.2625E-03     107.325E-03    -53.0625E-03     80.7498E-03    -54.5322E-03     107.191E-03    -52.9132E-03     80.1301E-03
             740     10.2436E-03     86.2808E-03    -26.9466E+06    -70.7563E+06    -2.50698E+06    -1.34818E+06    -54.3315E-03     107.357E-03    -53.0255E-03     85.6875E-03    -54.6976E-03     107.384E-03    -52.8963E-03     84.9731E-03
             741     11.0975E-03     86.3684E-03    -24.7748E+06    -46.2963E+06    -819.866E+03    -876.273E+03    -54.3847E-03     107.362E-03    -52.9775E-03     90.3499E-03    -54.8866E-03     107.614E-03    -52.8786E-03     89.5300E-03
             742     11.9512E-03     86.4609E-03    -22.8459E+06    -13.7347E+06     2.72906E+06    -344.410E+03    -54.4606E-03     107.388E-03    -52.9275E-03     96.4482E-03    -55.1608E-03     107.951E-03    -52.8608E-03     95.5104E-03
             743     12.8052E-03     86.5608E-03    -20.1882E+06     43.4325E+06     6.99571E+06     417.696E+03    -54.5265E-03     107.368E-03    -52.8414E-03     105.442E-03    -55.5362E-03     108.440E-03    -52.8401E-03     104.381E-03
             744     13.6591E-03     86.6710E-03    -17.2469E+06     91.8978E+06     31.5773E+06     830.575E+03    -54.6547E-03     107.518E-03    -52.8632E-03     115.952E-03    -56.0290E-03     109.066E-03    -52.8136E-03     114.821E-03
             745     14.5136E-03     86.7923E-03    -14.5992E+06     110.474E+06     63.2811E+06     436.141E+03    -54.3201E-03     107.282E-03    -52.9620E-03     113.719E-03    -55.8608E-03     108.980E-03    -52.7846E-03     112.652E-03
             746     15.3676E-03     86.8985E-03    -9.91631E+06     125.335E+06     81.8179E+06     293.313E+03    -53.9102E-03     106.913E-03    -53.0024E-03     106.086E-03    -55.4982E-03     108.673E-03    -52.7607E-03     105.163E-03
             747     16.2221E-03     87.0052E-03    -4.79581E+06     127.124E+06     87.5931E+06     552.687E+03    -53.2272E-03     106.231E-03    -53.0038E-03     80.3026E-03    -54.3997E-03     107.584E-03    -52.7432E-03     79.6492E-03
             748     853.424E-06     86.7742E-03    -67.6346E+06    -182.742E+06    -66.0737E+06    -153.521E+03    -53.1588E-03     106.221E-03    -53.0622E-03     9.48271E-03    -53.1375E-03     105.503E-03    -53.0295E-03     9.44734E-03
             749     1.70698E-03     86.7874E-03    -65.4682E+06    -178.469E+06    -59.7850E+06    -327.022E+03    -53.1333E-03     106.250E-03    -53.1163E-03     17.4010E-03    -53.1198E-03     105.544E-03    -53.0616E-03     17.3338E-03
             750     2.56047E-03     86.8090E-03    -61.9568E+06    -172.576E+06    -51.1738E+06    -638.066E+03    -53.1943E-03     106.325E-03    -53.1310E-03     25.6343E-03    -53.1900E-03     105.637E-03    -53.0468E-03     25.5289E-03
             751     3.41408E-03     86.8387E-03    -57.7955E+06    -162.637E+06    -42.2177E+06    -901.262E+03    -53.2791E-03     106.420E-03    -53.1406E-03     33.7451E-03    -53.2903E-03     105.771E-03    -53.0321E-03     33.5977E-03
             752     4.26763E-03     86.8766E-03    -53.5422E+06    -152.317E+06    -32.9240E+06    -1.20605E+06    -53.3893E-03     106.540E-03    -53.1505E-03     41.5962E-03    -53.4202E-03     105.935E-03    -53.0166E-03     41.4010E-03
             753     5.12127E-03     86.9220E-03    -49.2448E+06    -142.463E+06    -24.3610E+06    -1.77536E+06    -53.5192E-03     106.676E-03    -53.1569E-03     49.1072E-03    -53.5725E-03     106.119E-03    -53.0007E-03     48.8547E-03
             754     5.97486E-03     86.9749E-03    -44.9707E+06    -132.502E+06    -17.9880E+06    -2.67928E+06    -53.6643E-03     106.816E-03    -53.1516E-03     56.2582E-03    -53.7429E-03     106.317E-03    -52.9843E-03     55.9370E-03
             755     6.82857E-03     87.0346E-03    -40.6356E+06    -125.629E+06    -12.8123E+06    -2.83941E+06    -53.8232E-03     106.968E-03    -53.1445E-03     62.9680E-03    -53.9278E-03     106.519E-03    -52.9675E-03     62.5797E-03
             756     7.68226E-03     87.1009E-03    -36.4278E+06    -115.737E+06    -8.68058E+06    -2.62055E+06    -53.9834E-03     107.111E-03    -53.1281E-03     69.2950E-03    -54.1264E-03     106.739E-03    -52.9508E-03     68.8363E-03
             757     8.53599E-03     87.1731E-03    -32.7447E+06    -102.382E+06    -6.96555E+06    -2.67130E+06    -54.1367E-03     107.232E-03    -53.0957E-03     75.2600E-03    -54.3334E-03     106.970E-03    -52.9346E-03     74.7189E-03
             758     9.38974E-03     87.2513E-03    -29.7008E+06    -88.0064E+06    -4.95017E+06    -2.32319E+06    -54.2679E-03     107.333E-03    -53.0647E-03     80.7006E-03    -54.5375E-03     107.199E-03    -52.9188E-03     80.0728E-03
             759     10.2435E-03     87.3342E-03    -27.0028E+06    -71.1888E+06    -3.22039E+06    -1.89632E+06    -54.3465E-03     107.375E-03    -53.0288E-03     85.5920E-03    -54.7114E-03     107.401E-03    -52.9025E-03     84.8697E-03
             760     11.0972E-03     87.4222E-03    -24.5094E+06    -47.0797E+06    -1.68966E+06    -1.29698E+06    -54.3962E-03     107.377E-03    -52.9807E-03     90.3359E-03    -54.8945E-03     107.626E-03    -52.8854E-03     89.5101E-03
             761     11.9512E-03     87.5145E-03    -22.2004E+06    -14.1822E+06     2.19675E+06    -649.472E+03    -54.4536E-03     107.384E-03    -52.9308E-03     96.4324E-03    -55.1488E-03     107.944E-03    -52.8671E-03     95.4908E-03
             762     12.8051E-03     87.6145E-03    -20.5652E+06     42.6184E+06     5.68096E+06    -57.6946E+03    -54.6081E-03     107.453E-03    -52.8447E-03     105.428E-03    -55.6171E-03     108.524E-03    -52.8483E-03     104.359E-03
             763     13.6592E-03     87.7248E-03    -18.5908E+06     91.2420E+06     28.8495E+06     867.831E+03    -54.7864E-03     107.654E-03    -52.8672E-03     115.742E-03    -56.1629E-03     109.204E-03    -52.8283E-03     114.608E-03
             764     14.5129E-03     87.8460E-03    -14.3003E+06     111.190E+06     61.9967E+06     979.539E+03    -54.3306E-03     107.303E-03    -52.9727E-03     113.757E-03    -55.8706E-03     109.007E-03    -52.8032E-03     112.695E-03
             765     15.3669E-03     87.9524E-03    -9.72118E+06     125.243E+06     81.1905E+06     265.960E+03    -53.7735E-03     106.786E-03    -53.0127E-03     106.434E-03    -55.3613E-03     108.549E-03    -52.7742E-03     105.516E-03
             766     16.2210E-03     88.0583E-03    -5.04463E+06     126.853E+06     86.9376E+06     239.139E+03    -53.0810E-03     106.087E-03    -53.0061E-03     80.2536E-03    -54.2516E-03     107.438E-03    -52.7480E-03     79.6016E-03
             767     853.497E-06     87.8278E-03    -67.6710E+06    -182.335E+06    -66.0218E+06    -85.1547E+03    -53.1002E-03     106.233E-03    -53.1325E-03     9.44248E-03    -53.0798E-03     105.516E-03    -53.1001E-03     9.40811E-03
             768     1.70697E-03     87.8412E-03    -65.2405E+06    -177.738E+06    -59.7637E+06    -564.347E+03    -53.1496E-03     106.273E-03    -53.1235E-03     17.4126E-03    -53.1361E-03     105.570E-03    -53.0700E-03     17.3422E-03
             769     2.56049E-03     87.8627E-03    -61.7906E+06    -171.702E+06    -51.1062E+06    -1.09790E+06    -53.2151E-03     106.357E-03    -53.1418E-03     25.6352E-03    -53.2114E-03     105.673E-03    -53.0588E-03     25.5237E-03
             770     3.41399E-03     87.8925E-03    -57.7407E+06    -162.078E+06    -42.1110E+06    -1.38483E+06    -53.2947E-03     106.449E-03    -53.1541E-03     33.7425E-03    -53.3066E-03     105.803E-03    -53.0459E-03     33.5887E-03
             771     4.26759E-03     87.9303E-03    -53.3037E+06    -151.509E+06    -33.0550E+06    -1.63574E+06    -53.3961E-03     106.558E-03    -53.1619E-03     41.5843E-03    -53.4268E-03     105.957E-03    -53.0302E-03     41.3835E-03
             772     5.12116E-03     87.9758E-03    -48.5204E+06    -140.985E+06    -24.6046E+06    -2.38575E+06    -53.5280E-03     106.693E-03    -53.1649E-03     49.1033E-03    -53.5796E-03     106.143E-03    -53.0132E-03     48.8427E-03
             773     5.97485E-03     88.0286E-03    -44.0655E+06    -131.150E+06    -17.8496E+06    -3.06156E+06    -53.6728E-03     106.834E-03    -53.1608E-03     56.2266E-03    -53.7491E-03     106.340E-03    -52.9960E-03     55.9001E-03
             774     6.82847E-03     88.0883E-03    -40.1891E+06    -125.286E+06    -13.0791E+06    -3.53361E+06    -53.8290E-03     106.982E-03    -53.1531E-03     62.9296E-03    -53.9316E-03     106.535E-03    -52.9786E-03     62.5320E-03
             775     7.68219E-03     88.1545E-03    -36.4188E+06    -115.404E+06    -9.48722E+06    -3.64504E+06    -53.9902E-03     107.124E-03    -53.1341E-03     69.2741E-03    -54.1326E-03     106.755E-03    -52.9614E-03     68.8019E-03
             776     8.53588E-03     88.2269E-03    -33.0494E+06    -102.154E+06    -7.67328E+06    -3.49953E+06    -54.1400E-03     107.243E-03    -53.1025E-03     75.2066E-03    -54.3376E-03     106.982E-03    -52.9448E-03     74.6545E-03
             777     9.38966E-03     88.3048E-03    -29.9043E+06    -88.3472E+06    -5.99424E+06    -3.30542E+06    -54.2647E-03     107.334E-03    -53.0698E-03     80.6664E-03    -54.5332E-03     107.201E-03    -52.9283E-03     80.0259E-03
             778     10.2434E-03     88.3882E-03    -26.9095E+06    -71.5539E+06    -4.12870E+06    -2.82141E+06    -54.3685E-03     107.403E-03    -53.0341E-03     85.5833E-03    -54.7312E-03     107.428E-03    -52.9120E-03     84.8485E-03
             779     11.0973E-03     88.4755E-03    -24.2413E+06    -48.0378E+06    -2.57495E+06    -2.21280E+06    -54.4162E-03     107.404E-03    -52.9875E-03     90.3208E-03    -54.9106E-03     107.649E-03    -52.8956E-03     89.4827E-03
             780     11.9511E-03     88.5685E-03    -21.8868E+06    -15.0035E+06     1.53530E+06    -1.25872E+06    -54.5230E-03     107.464E-03    -52.9408E-03     96.3400E-03    -55.2147E-03     108.020E-03    -52.8797E-03     95.3889E-03
             781     12.8050E-03     88.6679E-03    -19.8010E+06     41.0086E+06     5.24806E+06     160.060E+03    -54.6626E-03     107.522E-03    -52.8596E-03     105.354E-03    -55.6651E-03     108.585E-03    -52.8641E-03     104.286E-03
             782     13.6584E-03     88.7793E-03    -17.1671E+06     90.5861E+06     28.9860E+06     884.082E+03    -54.7763E-03     107.659E-03    -52.8827E-03     115.816E-03    -56.1461E-03     109.205E-03    -52.8442E-03     114.681E-03
             783     14.5129E-03     88.8990E-03    -13.7522E+06     111.670E+06     61.9557E+06     871.616E+03    -54.3462E-03     107.332E-03    -52.9857E-03     113.743E-03    -55.8869E-03     109.041E-03    -52.8179E-03     112.677E-03
             784     15.3676E-03     89.0065E-03    -9.03552E+06     125.604E+06     81.2778E+06     1.07173E+06    -53.6790E-03     106.702E-03    -53.0235E-03     106.299E-03    -55.2616E-03     108.463E-03    -52.7862E-03     105.394E-03
             785     16.2216E-03     89.1122E-03    -4.53262E+06     127.458E+06     87.4672E+06     488.255E+03    -52.9416E-03     105.954E-03    -53.0122E-03     80.3482E-03    -54.1087E-03     107.304E-03    -52.7531E-03     79.7037E-03
             786     853.459E-06     88.8817E-03    -67.0471E+06    -181.554E+06    -65.9782E+06    -506.588E+03    -53.1192E-03     106.260E-03    -53.1404E-03     9.44196E-03    -53.0969E-03     105.546E-03    -53.1098E-03     9.40188E-03
             787     1.70694E-03     88.8949E-03    -65.0323E+06    -176.823E+06    -59.8824E+06    -781.191E+03    -53.1662E-03     106.302E-03    -53.1354E-03     17.3943E-03    -53.1528E-03     105.603E-03    -53.0841E-03     17.3211E-03
             788     2.56043E-03     88.9165E-03    -61.8708E+06    -170.466E+06    -51.3044E+06    -1.33147E+06    -53.2310E-03     106.385E-03    -53.1544E-03     25.6251E-03    -53.2292E-03     105.708E-03    -53.0741E-03     25.5104E-03
             789     3.41396E-03     88.9463E-03    -57.9353E+06    -161.350E+06    -42.2029E+06    -1.80743E+06    -53.3080E-03     106.477E-03    -53.1686E-03     33.7266E-03    -53.3218E-03     105.834E-03    -53.0616E-03     33.5672E-03
             790     4.26751E-03     88.9841E-03    -53.5549E+06    -150.451E+06    -33.3565E+06    -2.27111E+06    -53.4056E-03     106.580E-03    -53.1746E-03     41.5756E-03    -53.4387E-03     105.986E-03    -53.0456E-03     41.3663E-03
             791     5.12113E-03     89.0296E-03    -49.2625E+06    -139.208E+06    -25.3342E+06    -3.07957E+06    -53.5302E-03     106.704E-03    -53.1743E-03     49.0950E-03    -53.5870E-03     106.166E-03    -53.0277E-03     48.8252E-03
             792     5.97470E-03     89.0824E-03    -44.8609E+06    -130.026E+06    -18.8923E+06    -3.87388E+06    -53.6734E-03     106.842E-03    -53.1685E-03     56.2065E-03    -53.7539E-03     106.356E-03    -53.0094E-03     55.8693E-03
             793     6.82841E-03     89.1420E-03    -40.4751E+06    -124.191E+06    -13.9923E+06    -4.26317E+06    -53.8419E-03     107.002E-03    -53.1604E-03     62.9137E-03    -53.9462E-03     106.563E-03    -52.9916E-03     62.5063E-03
             794     7.68205E-03     89.2083E-03    -36.7304E+06    -115.066E+06    -10.6452E+06    -4.45891E+06    -54.0015E-03     107.143E-03    -53.1414E-03     69.2622E-03    -54.1442E-03     106.778E-03    -52.9745E-03     68.7793E-03
             795     8.53580E-03     89.2805E-03    -33.2027E+06    -101.658E+06    -8.62946E+06    -4.52069E+06    -54.1454E-03     107.255E-03    -53.1100E-03     75.2066E-03    -54.3432E-03     106.999E-03    -52.9575E-03     74.6412E-03
             796     9.38946E-03     89.3586E-03    -29.9326E+06    -88.2676E+06    -6.71818E+06    -4.51118E+06    -54.2598E-03     107.338E-03    -53.0778E-03     80.6518E-03    -54.5276E-03     107.205E-03    -52.9400E-03     79.9955E-03
             797     10.2434E-03     89.4416E-03    -26.9733E+06    -72.2189E+06    -5.14026E+06    -3.97617E+06    -54.3745E-03     107.415E-03    -53.0408E-03     85.6188E-03    -54.7351E-03     107.439E-03    -52.9226E-03     84.8692E-03
             798     11.0970E-03     89.5296E-03    -24.5651E+06    -48.6789E+06    -3.36316E+06    -3.12625E+06    -54.4875E-03     107.485E-03    -52.9976E-03     90.3071E-03    -54.9819E-03     107.729E-03    -52.9082E-03     89.4556E-03
             799     11.9508E-03     89.6218E-03    -22.4529E+06    -16.9898E+06     227.907E+03    -1.93303E+06    -54.5582E-03     107.511E-03    -52.9533E-03     96.4863E-03    -55.2486E-03     108.061E-03    -52.8950E-03     95.5257E-03
             800     12.8043E-03     89.7225E-03    -20.0978E+06     39.2166E+06     4.71863E+06    -708.324E+03    -54.5845E-03     107.457E-03    -52.8722E-03     105.576E-03    -55.5852E-03     108.512E-03    -52.8763E-03     104.500E-03
             801     13.6590E-03     89.8320E-03    -17.2144E+06     89.4881E+06     29.2926E+06     876.694E+03    -54.7199E-03     107.612E-03    -52.8922E-03     116.041E-03    -56.0884E-03     109.152E-03    -52.8505E-03     114.910E-03
             802     14.5127E-03     89.9540E-03    -14.2060E+06     111.540E+06     62.0908E+06     2.00019E+06    -54.3746E-03     107.366E-03    -52.9914E-03     113.952E-03    -55.9172E-03     109.074E-03    -52.8221E-03     112.902E-03
             803     15.3659E-03     90.0591E-03     -9.9268E+06     126.132E+06     81.4129E+06     680.065E+03    -53.5893E-03     106.616E-03    -53.0266E-03     106.440E-03    -55.1773E-03     108.380E-03    -52.7881E-03     105.532E-03
             804     16.2212E-03     90.1657E-03    -4.38156E+06     128.175E+06     87.7697E+06     59.3787E+03    -52.7335E-03     105.739E-03    -53.0059E-03     80.9517E-03    -53.9030E-03     107.094E-03    -52.7466E-03     80.3041E-03
             805     853.423E-06     89.9354E-03    -69.3010E+06    -180.322E+06    -67.7227E+06    -834.916E+03    -53.1815E-03     106.283E-03    -53.1019E-03     9.44783E-03    -53.1697E-03     105.582E-03    -53.0786E-03     9.40335E-03
             806     1.70691E-03     89.9488E-03    -67.0434E+06    -175.851E+06    -61.8543E+06    -1.07507E+06    -53.1802E-03     106.328E-03    -53.1482E-03     17.3932E-03    -53.1755E-03     105.641E-03    -53.1053E-03     17.3162E-03
             807     2.56038E-03     89.9703E-03    -63.6804E+06    -168.857E+06    -53.3948E+06    -1.68725E+06    -53.2337E-03     106.398E-03    -53.1643E-03     25.6238E-03    -53.2403E-03     105.734E-03    -53.0941E-03     25.5045E-03
             808     3.41388E-03     90.0001E-03    -59.3672E+06    -160.090E+06    -43.3643E+06    -2.48097E+06    -53.3171E-03     106.498E-03    -53.1814E-03     33.7103E-03    -53.3382E-03     105.866E-03    -53.0800E-03     33.5421E-03
             809     4.26745E-03     90.0379E-03    -54.5277E+06    -149.165E+06    -33.9736E+06    -3.06126E+06    -53.4152E-03     106.604E-03    -53.1891E-03     41.5527E-03    -53.4541E-03     106.019E-03    -53.0636E-03     41.3331E-03
             810     5.12099E-03     90.0834E-03    -49.6582E+06    -137.364E+06    -26.2657E+06    -3.78949E+06    -53.5242E-03     106.708E-03    -53.1839E-03     49.0754E-03    -53.5843E-03     106.180E-03    -53.0440E-03     48.7965E-03
             811     5.97469E-03     90.1361E-03    -45.2936E+06    -128.460E+06    -19.8000E+06    -4.64510E+06    -53.6733E-03     106.850E-03    -53.1764E-03     56.2060E-03    -53.7569E-03     106.374E-03    -53.0234E-03     55.8588E-03
             812     6.82828E-03     90.1958E-03    -41.3799E+06    -123.161E+06    -14.9587E+06    -5.21717E+06    -53.8499E-03     107.018E-03    -53.1686E-03     62.9146E-03    -53.9588E-03     106.587E-03    -53.0048E-03     62.4949E-03
             813     7.68198E-03     90.2620E-03    -37.2515E+06    -113.935E+06    -11.3828E+06    -5.72840E+06    -53.9989E-03     107.148E-03    -53.1494E-03     69.2667E-03    -54.1448E-03     106.791E-03    -52.9871E-03     68.7674E-03
             814     8.53564E-03     90.3343E-03    -33.2765E+06    -101.294E+06    -9.55562E+06    -5.96835E+06    -54.1305E-03     107.246E-03    -53.1155E-03     75.2508E-03    -54.3276E-03     106.993E-03    -52.9681E-03     74.6671E-03
             815     9.38948E-03     90.4122E-03    -29.9996E+06    -88.0065E+06    -7.40856E+06    -5.64206E+06    -54.2634E-03     107.346E-03    -53.0829E-03     80.7066E-03    -54.5309E-03     107.216E-03    -52.9489E-03     80.0358E-03
             816     10.2431E-03     90.4954E-03    -27.3112E+06    -72.9617E+06    -6.09426E+06    -5.11045E+06    -54.3743E-03     107.420E-03    -53.0455E-03     85.7389E-03    -54.7342E-03     107.441E-03    -52.9306E-03     84.9749E-03
             817     11.0971E-03     90.5833E-03    -24.7118E+06    -49.7279E+06    -4.39465E+06    -3.92978E+06    -54.4660E-03     107.466E-03    -52.9998E-03     90.6103E-03    -54.9579E-03     107.706E-03    -52.9139E-03     89.7501E-03
             818     11.9506E-03     90.6759E-03    -22.5241E+06    -18.8615E+06    -942.948E+03    -2.53309E+06    -54.4616E-03     107.412E-03    -52.9502E-03     96.7128E-03    -55.1479E-03     107.954E-03    -52.8949E-03     95.7471E-03
             819     12.8051E-03     90.7755E-03    -21.3358E+06     37.2708E+06     2.62220E+06    -499.491E+03    -54.5192E-03     107.379E-03    -52.8597E-03     105.903E-03    -55.5194E-03     108.428E-03    -52.8697E-03     104.833E-03
             820     13.6584E-03     90.8865E-03    -19.9620E+06     87.8842E+06     26.2786E+06     667.026E+03    -54.6856E-03     107.559E-03    -52.8729E-03     116.389E-03    -56.0612E-03     109.099E-03    -52.8400E-03     115.257E-03
             821     14.5128E-03     91.0069E-03    -14.8002E+06     111.185E+06     61.0982E+06     663.627E+03    -54.2361E-03     107.208E-03    -52.9719E-03     114.356E-03    -55.7781E-03     108.915E-03    -52.8062E-03     113.295E-03
             822     15.3682E-03     91.1138E-03    -9.26437E+06     127.737E+06     82.1797E+06     1.20264E+06    -53.6870E-03     106.697E-03    -53.0100E-03     106.441E-03    -55.2727E-03     108.465E-03    -52.7709E-03     105.540E-03
             823     16.2218E-03     91.2182E-03    -4.51794E+06     128.403E+06     87.5462E+06     482.291E+03    -52.9274E-03     105.924E-03    -52.9966E-03     80.5028E-03    -54.0972E-03     107.280E-03    -52.7385E-03     79.8556E-03
             824     853.480E-06     90.9894E-03    -71.9496E+06    -178.584E+06    -70.0334E+06    -795.873E+03    -53.1961E-03     106.306E-03    -53.1094E-03     9.47898E-03    -53.1967E-03     105.620E-03    -53.0963E-03     9.43517E-03
             825     1.70683E-03     91.0026E-03    -69.1020E+06    -174.197E+06    -63.4261E+06    -1.72371E+06    -53.1988E-03     106.364E-03    -53.1647E-03     17.3644E-03    -53.2045E-03     105.689E-03    -53.1291E-03     17.2789E-03
             826     2.56033E-03     91.0242E-03    -65.1092E+06    -167.103E+06    -54.3750E+06    -2.47374E+06    -53.2371E-03     106.419E-03    -53.1822E-03     25.6200E-03    -53.2520E-03     105.768E-03    -53.1174E-03     25.4904E-03
             827     3.41383E-03     91.0539E-03    -60.4973E+06    -158.082E+06    -44.2823E+06    -3.37178E+06    -53.3195E-03     106.515E-03    -53.1956E-03     33.7214E-03    -53.3479E-03     105.896E-03    -53.1001E-03     33.5416E-03
             828     4.26732E-03     91.0918E-03    -55.4383E+06    -147.419E+06    -35.1606E+06    -4.41933E+06    -53.4142E-03     106.614E-03    -53.1994E-03     41.5642E-03    -53.4585E-03     106.040E-03    -53.0811E-03     41.3270E-03
             829     5.12096E-03     91.1371E-03    -50.2465E+06    -135.568E+06    -27.2273E+06    -5.18322E+06    -53.5251E-03     106.718E-03    -53.1926E-03     49.0827E-03    -53.5894E-03     106.201E-03    -53.0593E-03     48.7858E-03
             830     5.97454E-03     91.1900E-03    -45.3223E+06    -127.064E+06    -20.2494E+06    -5.53240E+06    -53.6726E-03     106.858E-03    -53.1857E-03     56.2161E-03    -53.7577E-03     106.390E-03    -53.0370E-03     55.8575E-03
             831     6.82823E-03     91.2496E-03    -40.8514E+06    -121.420E+06    -15.1144E+06    -6.17108E+06    -53.8320E-03     107.007E-03    -53.1754E-03     62.9366E-03    -53.9405E-03     106.584E-03    -53.0157E-03     62.5048E-03
             832     7.68186E-03     91.3157E-03    -36.9376E+06    -112.277E+06    -11.8237E+06    -7.10957E+06    -53.9716E-03     107.123E-03    -53.1514E-03     69.3205E-03    -54.1176E-03     106.774E-03    -52.9941E-03     68.8038E-03
             833     8.53566E-03     91.3880E-03    -33.5112E+06    -100.886E+06    -10.4613E+06    -7.31751E+06    -54.1047E-03     107.219E-03    -53.1142E-03     75.3281E-03    -54.3022E-03     106.970E-03    -52.9716E-03     74.7276E-03
             834     9.38936E-03     91.4660E-03    -30.3198E+06    -88.1168E+06    -8.58893E+06    -6.95602E+06    -54.2386E-03     107.317E-03    -53.0781E-03     80.8546E-03    -54.5056E-03     107.188E-03    -52.9493E-03     80.1678E-03
             835     10.2433E-03     91.5491E-03    -27.3578E+06    -73.3114E+06    -6.94667E+06    -6.24186E+06    -54.3420E-03     107.381E-03    -53.0393E-03     85.8918E-03    -54.7004E-03     107.402E-03    -52.9281E-03     85.1139E-03
             836     11.0969E-03     91.6369E-03    -24.7670E+06    -51.4180E+06    -5.71402E+06    -5.15939E+06    -54.3408E-03     107.327E-03    -52.9867E-03     90.7866E-03    -54.8280E-03     107.561E-03    -52.9048E-03     89.9134E-03
             837     11.9512E-03     91.7297E-03    -22.3452E+06    -20.7535E+06    -1.89891E+06    -3.19580E+06    -54.4155E-03     107.348E-03    -52.9325E-03     96.7760E-03    -55.0965E-03     107.882E-03    -52.8795E-03     95.8032E-03
             838     12.8047E-03     91.8289E-03    -19.7114E+06     34.0054E+06     1.62120E+06    -556.311E+03    -54.5048E-03     107.345E-03    -52.8399E-03     105.900E-03    -55.4912E-03     108.377E-03    -52.8526E-03     104.828E-03
             839     13.6596E-03     91.9404E-03    -16.5802E+06     87.2582E+06     27.5066E+06     1.13331E+06    -54.5988E-03     107.454E-03    -52.8549E-03     116.396E-03    -55.9577E-03     108.984E-03    -52.8199E-03     115.272E-03
             840     14.5136E-03     92.0603E-03    -14.5171E+06     112.059E+06     61.7826E+06     761.962E+03    -54.2897E-03     107.243E-03    -52.9536E-03     114.101E-03    -55.8350E-03     108.956E-03    -52.7861E-03     113.037E-03
             841     15.3669E-03     92.1673E-03    -10.3012E+06     127.364E+06     81.2340E+06     79.1372E+03    -53.8723E-03     106.868E-03    -52.9962E-03     106.218E-03    -55.4683E-03     108.644E-03    -52.7597E-03     105.291E-03
             842     16.2212E-03     92.2725E-03    -4.44650E+06     129.308E+06     88.0640E+06     458.048E+03    -53.1020E-03     106.100E-03    -52.9976E-03     80.3116E-03    -54.2768E-03     107.462E-03    -52.7383E-03     79.6589E-03
             843     853.366E-06     92.0433E-03    -70.8475E+06    -176.380E+06    -69.5335E+06    -1.02078E+06    -53.2082E-03     106.367E-03    -53.1591E-03     9.50036E-03    -53.2073E-03     105.691E-03    -53.1483E-03     9.45387E-03
             844     1.70683E-03     92.0566E-03    -68.5682E+06    -171.608E+06    -62.8118E+06    -2.16798E+06    -53.2030E-03     106.392E-03    -53.1895E-03     17.3532E-03    -53.2106E-03     105.730E-03    -53.1553E-03     17.2617E-03
             845     2.56024E-03     92.0781E-03    -64.8311E+06    -164.949E+06    -53.6727E+06    -3.31121E+06    -53.2474E-03     106.450E-03    -53.2023E-03     25.6384E-03    -53.2650E-03     105.807E-03    -53.1374E-03     25.4979E-03
             846     3.41374E-03     92.1079E-03    -60.3200E+06    -155.655E+06    -44.4711E+06    -4.30807E+06    -53.3103E-03     106.517E-03    -53.2069E-03     33.7455E-03    -53.3410E-03     105.910E-03    -53.1161E-03     33.5537E-03
             847     4.26733E-03     92.1456E-03    -55.8117E+06    -144.771E+06    -35.9259E+06    -5.50308E+06    -53.4043E-03     106.608E-03    -53.2036E-03     41.5865E-03    -53.4532E-03     106.049E-03    -53.0924E-03     41.3354E-03
             848     5.12086E-03     92.1910E-03    -51.4035E+06    -133.825E+06    -28.4791E+06    -6.35987E+06    -53.5209E-03     106.715E-03    -53.1946E-03     49.1235E-03    -53.5916E-03     106.211E-03    -53.0684E-03     48.8114E-03
             849     5.97451E-03     92.2437E-03    -46.8800E+06    -125.360E+06    -22.0236E+06    -7.06015E+06    -53.6475E-03     106.831E-03    -53.1832E-03     56.2903E-03    -53.7402E-03     106.376E-03    -53.0436E-03     55.9125E-03
             850     6.82816E-03     92.3034E-03    -42.1140E+06    -119.415E+06    -16.6217E+06    -7.85705E+06    -53.7842E-03     106.953E-03    -53.1687E-03     63.0166E-03    -53.8997E-03     106.543E-03    -53.0176E-03     62.5638E-03
             851     7.68196E-03     92.3694E-03    -37.8085E+06    -110.585E+06    -12.8449E+06    -8.34255E+06    -53.9260E-03     107.068E-03    -53.1420E-03     69.3954E-03    -54.0772E-03     106.730E-03    -52.9911E-03     68.8637E-03
             852     8.53566E-03     92.4417E-03    -34.1498E+06    -99.8534E+06    -11.4381E+06    -8.73914E+06    -54.0652E-03     107.167E-03    -53.1018E-03     75.4117E-03    -54.2658E-03     106.925E-03    -52.9647E-03     74.7935E-03
             853     9.38956E-03     92.5196E-03    -30.6442E+06    -88.0321E+06    -9.83451E+06    -8.66857E+06    -54.1919E-03     107.254E-03    -53.0619E-03     80.9848E-03    -54.4588E-03     107.128E-03    -52.9390E-03     80.2768E-03
             854     10.2433E-03     92.6027E-03    -27.2994E+06    -73.9673E+06    -8.16853E+06    -7.88616E+06    -54.2828E-03     107.303E-03    -53.0197E-03     85.9978E-03    -54.6380E-03     107.322E-03    -52.9137E-03     85.2000E-03
             855     11.0973E-03     92.6905E-03    -24.5660E+06    -52.9296E+06    -6.92765E+06    -6.38725E+06    -54.2930E-03     107.258E-03    -52.9647E-03     90.7604E-03    -54.7753E-03     107.485E-03    -52.8870E-03     89.8720E-03
             856     11.9512E-03     92.7829E-03    -21.9680E+06    -23.3327E+06    -3.27845E+06    -4.51205E+06    -54.3745E-03     107.283E-03    -52.9084E-03     96.9830E-03    -55.0475E-03     107.805E-03    -52.8591E-03     95.9952E-03
             857     12.8054E-03     92.8833E-03    -19.6291E+06     30.4913E+06     342.280E+03    -1.98855E+06    -54.5175E-03     107.335E-03    -52.8176E-03     105.938E-03    -55.4972E-03     108.352E-03    -52.8316E-03     104.848E-03
             858     13.6591E-03     92.9927E-03    -17.6447E+06     84.6490E+06     24.6042E+06     1.01147E+06    -54.6724E-03     107.501E-03    -52.8284E-03     116.408E-03    -56.0284E-03     109.023E-03    -52.8026E-03     115.282E-03
             859     14.5133E-03     93.1152E-03    -13.5581E+06     113.737E+06     61.1957E+06     2.29087E+06    -54.3099E-03     107.243E-03    -52.9327E-03     114.254E-03    -55.8508E-03     108.962E-03    -52.7720E-03     113.213E-03
             860     15.3680E-03     93.2204E-03    -9.90318E+06     128.581E+06     81.8639E+06     1.01860E+06    -53.7539E-03     106.733E-03    -52.9793E-03     106.956E-03    -55.3501E-03     108.513E-03    -52.7421E-03     106.051E-03
             861     16.2218E-03     93.3275E-03    -5.88022E+06     128.553E+06     86.9242E+06    -299.428E+03    -52.8685E-03     105.835E-03    -52.9670E-03     80.9617E-03    -54.0458E-03     107.196E-03    -52.7102E-03     80.3042E-03
             862     853.358E-06     93.0973E-03    -70.1205E+06    -173.780E+06    -68.7510E+06    -1.29291E+06    -53.1808E-03     106.393E-03    -53.2118E-03     9.45914E-03    -53.1812E-03     105.727E-03    -53.2019E-03     9.40921E-03
             863     1.70678E-03     93.1105E-03    -67.9019E+06    -168.613E+06    -62.6914E+06    -2.49436E+06    -53.1998E-03     106.395E-03    -53.1954E-03     17.3962E-03    -53.2086E-03     105.746E-03    -53.1659E-03     17.3006E-03
             864     2.56025E-03     93.1320E-03    -64.5636E+06    -161.958E+06    -54.1963E+06    -3.84444E+06    -53.2512E-03     106.453E-03    -53.2021E-03     25.6600E-03    -53.2711E-03     105.826E-03    -53.1446E-03     25.5127E-03
             865     3.41374E-03     93.1617E-03    -60.4424E+06    -152.822E+06    -45.1538E+06    -5.21262E+06    -53.3054E-03     106.511E-03    -53.2056E-03     33.7575E-03    -53.3398E-03     105.919E-03    -53.1221E-03     33.5540E-03
             866     4.26727E-03     93.1995E-03    -55.8824E+06    -142.038E+06    -36.6398E+06    -6.20568E+06    -53.3829E-03     106.582E-03    -53.1992E-03     41.6125E-03    -53.4350E-03     106.038E-03    -53.0954E-03     41.3526E-03
             867     5.12090E-03     93.2448E-03    -51.2340E+06    -131.408E+06    -29.0980E+06    -7.23525E+06    -53.4880E-03     106.674E-03    -53.1860E-03     49.1653E-03    -53.5604E-03     106.182E-03    -53.0667E-03     48.8424E-03
             868     5.97454E-03     93.2975E-03    -46.7594E+06    -122.897E+06    -22.6071E+06    -8.28973E+06    -53.6049E-03     106.775E-03    -53.1699E-03     56.3392E-03    -53.6995E-03     106.333E-03    -53.0369E-03     55.9462E-03
             869     6.82829E-03     93.3571E-03    -42.8473E+06    -117.286E+06    -17.5247E+06    -9.19180E+06    -53.7397E-03     106.891E-03    -53.1511E-03     63.0797E-03    -53.8604E-03     106.494E-03    -53.0065E-03     62.6104E-03
             870     7.68200E-03     93.4231E-03    -38.8714E+06    -108.702E+06    -13.8179E+06    -10.0252E+06    -53.8733E-03     106.994E-03    -53.1211E-03     69.4779E-03    -54.0309E-03     106.668E-03    -52.9763E-03     68.9254E-03
             871     8.53588E-03     93.4953E-03    -34.6861E+06    -98.2940E+06    -12.2222E+06    -10.6429E+06    -54.0074E-03     107.085E-03    -53.0778E-03     75.5163E-03    -54.2116E-03     106.853E-03    -52.9461E-03     74.8746E-03
             872     9.38965E-03     93.5731E-03    -30.9593E+06    -87.7222E+06    -10.9217E+06    -10.6302E+06    -54.1223E-03     107.156E-03    -53.0335E-03     81.1307E-03    -54.3895E-03     107.033E-03    -52.9160E-03     80.3988E-03
             873     10.2437E-03     93.6564E-03    -27.8515E+06    -74.7330E+06    -9.59874E+06    -9.74245E+06    -54.2074E-03     107.194E-03    -52.9868E-03     86.1868E-03    -54.5618E-03     107.212E-03    -52.8861E-03     85.3673E-03
             874     11.0975E-03     93.7439E-03    -24.8513E+06    -54.8578E+06    -8.37902E+06    -8.09645E+06    -54.2821E-03     107.213E-03    -52.9309E-03     90.9899E-03    -54.7611E-03     107.433E-03    -52.8573E-03     90.0806E-03
             875     11.9516E-03     93.8366E-03    -22.4270E+06    -25.6164E+06    -4.65693E+06    -5.83013E+06    -54.3441E-03     107.219E-03    -52.8754E-03     97.2232E-03    -55.0138E-03     107.732E-03    -52.8290E-03     96.2205E-03
             876     12.8057E-03     93.9363E-03    -20.6489E+06     26.0862E+06    -1.77432E+06    -2.74290E+06    -54.5171E-03     107.302E-03    -52.7845E-03     106.229E-03    -55.4918E-03     108.301E-03    -52.8013E-03     105.132E-03
             877     13.6598E-03     94.0474E-03    -17.8039E+06     81.8200E+06     22.3663E+06     226.618E+03    -54.7339E-03     107.527E-03    -52.7933E-03     116.825E-03    -56.0848E-03     109.041E-03    -52.7743E-03     115.688E-03
             878     14.5139E-03     94.1678E-03    -13.8970E+06     113.239E+06     58.6822E+06     1.67809E+06    -54.2784E-03     107.172E-03    -52.8940E-03     114.640E-03    -55.8150E-03     108.891E-03    -52.7446E-03     113.594E-03
             879     15.3680E-03     94.2748E-03    -8.75215E+06     129.115E+06     81.3590E+06     2.67263E+06    -53.6227E-03     106.566E-03    -52.9433E-03     106.705E-03    -55.2071E-03     108.342E-03    -52.7110E-03     105.827E-03
             880     16.2231E-03     94.3799E-03    -4.08090E+06     130.327E+06     88.4831E+06     452.018E+03    -52.9027E-03     105.841E-03    -52.9382E-03     80.0408E-03    -54.0704E-03     107.200E-03    -52.6789E-03     79.3943E-03
             881     853.402E-06     94.1512E-03    -70.4103E+06    -170.713E+06    -69.0153E+06    -1.53625E+06    -53.1590E-03     106.356E-03    -53.1966E-03     9.44128E-03    -53.1648E-03     105.706E-03    -53.1921E-03     9.38811E-03
             882     1.70682E-03     94.1645E-03    -68.2304E+06    -165.266E+06    -63.3198E+06    -2.80139E+06    -53.2001E-03     106.379E-03    -53.1786E-03     17.4058E-03    -53.2145E-03     105.748E-03    -53.1566E-03     17.3065E-03
             883     2.56026E-03     94.1859E-03    -64.8478E+06    -158.265E+06    -55.0767E+06    -4.50985E+06    -53.2386E-03     106.426E-03    -53.1870E-03     25.6639E-03    -53.2639E-03     105.819E-03    -53.1389E-03     25.5081E-03
             884     3.41374E-03     94.2157E-03    -60.5475E+06    -149.318E+06    -45.8326E+06    -6.18426E+06    -53.2864E-03     106.477E-03    -53.1904E-03     33.7699E-03    -53.3254E-03     105.904E-03    -53.1152E-03     33.5540E-03
             885     4.26732E-03     94.2533E-03    -55.7564E+06    -139.353E+06    -37.1830E+06    -7.44710E+06    -53.3509E-03     106.534E-03    -53.1826E-03     41.6514E-03    -53.4055E-03     106.003E-03    -53.0856E-03     41.3759E-03
             886     5.12095E-03     94.2986E-03    -51.0509E+06    -128.501E+06    -29.4230E+06    -8.35332E+06    -53.4387E-03     106.604E-03    -53.1654E-03     49.2039E-03    -53.5138E-03     106.127E-03    -53.0521E-03     48.8672E-03
             887     5.97466E-03     94.3512E-03    -46.7915E+06    -120.481E+06    -22.8401E+06    -9.13389E+06    -53.5455E-03     106.691E-03    -53.1453E-03     56.3650E-03    -53.6434E-03     106.261E-03    -53.0170E-03     55.9618E-03
             888     6.82841E-03     94.4107E-03    -42.6052E+06    -114.433E+06    -17.7871E+06    -10.1591E+06    -53.6707E-03     106.791E-03    -53.1200E-03     63.1604E-03    -53.7938E-03     106.408E-03    -52.9813E-03     62.6798E-03
             889     7.68226E-03     94.4767E-03    -38.6572E+06    -105.888E+06    -14.1764E+06    -11.6374E+06    -53.7973E-03     106.882E-03    -53.0843E-03     69.6055E-03    -53.9571E-03     106.569E-03    -52.9456E-03     69.0337E-03
             890     8.53610E-03     94.5488E-03    -34.9896E+06    -96.6559E+06    -12.8384E+06    -12.5254E+06    -53.9255E-03     106.963E-03    -53.0371E-03     75.7029E-03    -54.1325E-03     106.739E-03    -52.9104E-03     75.0389E-03
             891     9.39010E-03     94.6267E-03    -31.7303E+06    -87.0621E+06    -11.8531E+06    -12.4569E+06    -54.0383E-03     107.027E-03    -52.9886E-03     81.3071E-03    -54.3086E-03     106.910E-03    -52.8757E-03     80.5538E-03
             892     10.2441E-03     94.7096E-03    -28.6204E+06    -75.3673E+06    -10.8728E+06    -11.6108E+06    -54.1285E-03     107.067E-03    -52.9382E-03     86.3808E-03    -54.4834E-03     107.084E-03    -52.8418E-03     85.5396E-03
             893     11.0982E-03     94.7975E-03    -25.7507E+06    -56.2720E+06    -9.99067E+06    -10.2359E+06    -54.2333E-03     107.113E-03    -52.8797E-03     91.2475E-03    -54.7118E-03     107.329E-03    -52.8107E-03     90.3130E-03
             894     11.9522E-03     94.8898E-03    -22.9667E+06    -29.3635E+06    -6.67831E+06    -7.29311E+06    -54.3652E-03     107.191E-03    -52.8262E-03     97.4326E-03    -55.0295E-03     107.689E-03    -52.7837E-03     96.4114E-03
             895     12.8061E-03     94.9901E-03    -20.7783E+06     21.6302E+06    -3.47122E+06    -3.32926E+06    -54.5207E-03     107.261E-03    -52.7399E-03     106.558E-03    -55.4877E-03     108.241E-03    -52.7584E-03     105.454E-03
             896     13.6603E-03     95.1005E-03    -19.0208E+06     79.4244E+06     20.3306E+06    -420.384E+03    -54.6723E-03     107.418E-03    -52.7454E-03     116.934E-03    -56.0220E-03     108.923E-03    -52.7314E-03     115.792E-03
             897     14.5145E-03     95.2221E-03    -15.6364E+06     111.555E+06     54.8117E+06     1.00803E+06    -54.2635E-03     107.100E-03    -52.8365E-03     114.789E-03    -55.8010E-03     108.819E-03    -52.7015E-03     113.733E-03
             898     15.3687E-03     95.3279E-03    -9.34759E+06     128.568E+06     79.1672E+06     714.106E+03    -53.8093E-03     106.707E-03    -52.8974E-03     107.179E-03    -55.4067E-03     108.498E-03    -52.6744E-03     106.261E-03
             899     16.2222E-03     95.4339E-03    -3.07699E+06     131.901E+06     89.8972E+06     434.340E+03    -53.1946E-03     106.114E-03    -52.9189E-03     80.5897E-03    -54.3753E-03     107.491E-03    -52.6562E-03     79.9307E-03
             900     853.415E-06     95.2052E-03    -70.5166E+06    -167.211E+06    -68.9616E+06    -1.64216E+06    -53.1712E-03     106.303E-03    -53.1318E-03     9.46725E-03    -53.1827E-03     105.671E-03    -53.1319E-03     9.41281E-03
             901     1.70682E-03     95.2184E-03    -68.1974E+06    -161.488E+06    -63.2846E+06    -3.16718E+06    -53.1862E-03     106.341E-03    -53.1546E-03     17.3962E-03    -53.2059E-03     105.729E-03    -53.1380E-03     17.2921E-03
             902     2.56029E-03     95.2399E-03    -64.9662E+06    -153.680E+06    -55.1741E+06    -5.21237E+06    -53.1961E-03     106.357E-03    -53.1612E-03     25.6758E-03    -53.2285E-03     105.773E-03    -53.1200E-03     25.5112E-03
             903     3.41383E-03     95.2695E-03    -60.7864E+06    -145.264E+06    -46.1328E+06    -7.25131E+06    -53.2391E-03     106.399E-03    -53.1595E-03     33.7997E-03    -53.2847E-03     105.847E-03    -53.0914E-03     33.5705E-03
             904     4.26743E-03     95.3071E-03    -56.4115E+06    -136.097E+06    -37.5638E+06    -8.62200E+06    -53.3020E-03     106.452E-03    -53.1495E-03     41.6827E-03    -53.3640E-03     105.939E-03    -53.0582E-03     41.3925E-03
             905     5.12110E-03     95.3523E-03    -51.8962E+06    -125.706E+06    -30.0826E+06    -9.60776E+06    -53.3659E-03     106.493E-03    -53.1275E-03     49.2592E-03    -53.4482E-03     106.032E-03    -53.0204E-03     48.9072E-03
             906     5.97486E-03     95.4049E-03    -47.1781E+06    -117.897E+06     -23.559E+06    -10.4688E+06    -53.4544E-03     106.555E-03    -53.1003E-03     56.4594E-03    -53.5567E-03     106.139E-03    -52.9787E-03     56.0402E-03
             907     6.82872E-03     95.4643E-03    -42.6037E+06    -111.104E+06    -18.2697E+06    -11.6788E+06    -53.5689E-03     106.636E-03    -53.0673E-03     63.3004E-03    -53.6957E-03     106.270E-03    -52.9358E-03     62.8021E-03
             908     7.68264E-03     95.5302E-03    -38.3063E+06    -102.482E+06    -14.2763E+06    -13.0997E+06    -53.6963E-03     106.723E-03    -53.0265E-03     69.7635E-03    -53.8588E-03     106.427E-03    -52.8938E-03     69.1750E-03
             909     8.53665E-03     95.6022E-03    -34.8341E+06    -94.8875E+06    -12.9588E+06    -13.8202E+06    -53.8320E-03     106.809E-03    -52.9769E-03     75.8539E-03    -54.0400E-03     106.594E-03    -52.8536E-03     75.1754E-03
             910     9.39065E-03     95.6800E-03    -31.9131E+06    -85.9852E+06    -12.2239E+06    -13.7959E+06    -53.9607E-03     106.886E-03    -52.9256E-03     81.4815E-03    -54.2323E-03     106.775E-03    -52.8158E-03     80.7133E-03
             911     10.2447E-03     95.7630E-03    -29.1150E+06    -75.2743E+06    -11.8051E+06    -13.6041E+06    -54.0814E-03     106.955E-03    -52.8735E-03     86.5653E-03    -54.4372E-03     106.974E-03    -52.7812E-03     85.7004E-03
             912     11.0988E-03     95.8507E-03    -26.4188E+06    -57.8711E+06    -11.4439E+06    -12.0002E+06    -54.1972E-03     107.013E-03    -52.8158E-03     91.4955E-03    -54.6742E-03     107.224E-03    -52.7508E-03     90.5406E-03
             913     11.9528E-03     95.9435E-03    -23.9726E+06    -33.0937E+06    -8.76870E+06    -9.45774E+06    -54.3548E-03     107.119E-03    -52.7644E-03     97.6630E-03    -55.0158E-03     107.603E-03    -52.7254E-03     96.6152E-03
             914     12.8070E-03     96.0432E-03    -21.3011E+06     15.3767E+06    -6.06005E+06    -4.61753E+06    -54.5884E-03     107.271E-03    -52.6830E-03     106.808E-03    -55.5461E-03     108.226E-03    -52.7047E-03     105.687E-03
             915     13.6609E-03     96.1546E-03    -18.9848E+06     76.3080E+06     17.1220E+06     79.4867E+03    -54.6895E-03     107.374E-03    -52.6849E-03     117.017E-03    -56.0293E-03     108.868E-03    -52.6824E-03     115.882E-03
             916     14.5153E-03     96.2748E-03    -15.2232E+06     112.950E+06     51.7639E+06    -282.881E+03    -54.2884E-03     107.062E-03    -52.7733E-03     114.837E-03    -55.8221E-03     108.792E-03    -52.6562E-03     113.763E-03
             917     15.3697E-03     96.3821E-03    -10.1852E+06     129.236E+06     77.8090E+06    -1.21680E+06    -53.8794E-03     106.730E-03    -52.8505E-03     107.222E-03    -55.4773E-03     108.525E-03    -52.6340E-03     106.279E-03
             918     16.2241E-03     96.4881E-03    -5.02927E+06     131.150E+06     89.2876E+06     469.632E+03    -53.2733E-03     106.159E-03    -52.8855E-03     80.5980E-03    -54.4567E-03     107.531E-03    -52.6220E-03     79.9403E-03
             919     853.468E-06     96.2592E-03    -69.7745E+06    -162.989E+06    -68.7305E+06    -2.07673E+06    -53.1500E-03     106.236E-03    -53.0864E-03     9.50471E-03    -53.1643E-03     105.624E-03    -53.0925E-03     9.44471E-03
             920     1.70687E-03     96.2724E-03    -67.4645E+06    -157.204E+06    -62.6460E+06    -3.90624E+06    -53.1328E-03     106.250E-03    -53.1173E-03     17.4077E-03    -53.1560E-03     105.657E-03    -53.1048E-03     17.2943E-03
             921     2.56040E-03     96.2937E-03    -63.9037E+06    -148.616E+06    -54.2521E+06    -5.89145E+06    -53.1379E-03     106.255E-03    -53.1170E-03     25.6857E-03    -53.1736E-03     105.694E-03    -53.0801E-03     25.5127E-03
             922     3.41398E-03     96.3233E-03    -60.0956E+06    -140.867E+06    -45.0229E+06    -7.74576E+06    -53.1713E-03     106.284E-03    -53.1130E-03     33.8280E-03    -53.2214E-03     105.751E-03    -53.0467E-03     33.5930E-03
             923     4.26762E-03     96.3608E-03    -55.9910E+06    -132.400E+06    -36.8773E+06    -9.25160E+06    -53.2172E-03     106.314E-03    -53.0967E-03     41.7244E-03    -53.2833E-03     105.818E-03    -53.0079E-03     41.4269E-03
             924     5.12138E-03     96.4059E-03    -51.6081E+06    -122.054E+06    -30.0949E+06    -10.8405E+06    -53.2602E-03     106.325E-03    -53.0645E-03     49.3341E-03    -53.3461E-03     105.881E-03    -52.9632E-03     48.9675E-03
             925     5.97526E-03     96.4583E-03    -46.9402E+06    -114.919E+06    -23.8948E+06    -12.1699E+06    -53.3402E-03     106.369E-03    -53.0292E-03     56.5814E-03    -53.4448E-03     105.969E-03    -52.9140E-03     56.1422E-03
             926     6.82921E-03     96.5177E-03    -42.3637E+06    -107.378E+06    -18.4922E+06    -13.3771E+06    -53.4552E-03     106.445E-03    -52.9895E-03     63.4517E-03    -53.5855E-03     106.097E-03    -52.8648E-03     62.9337E-03
             927     7.68323E-03     96.5835E-03    -38.4082E+06    -99.4245E+06    -14.4980E+06    -14.5577E+06    -53.5826E-03     106.528E-03    -52.9453E-03     69.9372E-03    -53.7491E-03     106.247E-03    -52.8179E-03     69.3325E-03
             928     8.53726E-03     96.6555E-03    -34.9169E+06    -93.0231E+06    -13.0792E+06    -14.9888E+06    -53.7215E-03     106.615E-03    -52.8938E-03     76.0570E-03    -53.9319E-03     106.409E-03    -52.7737E-03     75.3664E-03
             929     9.39138E-03     96.7332E-03    -31.7081E+06    -84.3777E+06    -12.3653E+06    -15.2774E+06    -53.8700E-03     106.710E-03    -52.8397E-03     81.7697E-03    -54.1420E-03     106.605E-03    -52.7332E-03     80.9856E-03
             930     10.2455E-03     96.8162E-03    -28.9558E+06    -74.5083E+06    -12.0053E+06    -15.0214E+06    -54.0472E-03     106.836E-03    -52.7890E-03     86.9249E-03    -54.4026E-03     106.859E-03    -52.6990E-03     86.0443E-03
             931     11.0996E-03     96.9039E-03    -26.5684E+06     -59.751E+06    -12.5321E+06    -13.7334E+06    -54.1938E-03     106.928E-03    -52.7346E-03     91.8702E-03    -54.6672E-03     107.132E-03    -52.6721E-03     90.8949E-03
             932     11.9538E-03     96.9967E-03    -24.3394E+06    -35.9361E+06    -10.1942E+06    -10.9110E+06    -54.3876E-03     107.076E-03    -52.6881E-03     98.0883E-03    -55.0443E-03     107.548E-03    -52.6517E-03     97.0236E-03
             933     12.8075E-03     97.0968E-03    -22.2421E+06     8.28300E+06    -8.82295E+06    -6.75054E+06    -54.6250E-03     107.237E-03    -52.6123E-03     107.224E-03    -55.5729E-03     108.161E-03    -52.6362E-03     106.078E-03
             934     13.6618E-03     97.2079E-03    -17.9902E+06     71.5685E+06     13.3841E+06    -2.07282E+06    -54.8144E-03     107.425E-03    -52.6104E-03     117.346E-03    -56.1377E-03     108.899E-03    -52.6211E-03     116.181E-03
             935     14.5160E-03     97.3283E-03    -13.7602E+06     115.344E+06     50.8144E+06     7.41294E+03    -54.4768E-03     107.189E-03    -52.7126E-03     115.196E-03    -56.0083E-03     108.934E-03    -52.6058E-03     114.122E-03
             936     15.3694E-03     97.4361E-03    -10.9795E+06     129.586E+06     77.6770E+06    -959.935E+03    -53.9882E-03     106.798E-03    -52.8099E-03     107.612E-03    -55.5887E-03     108.594E-03    -52.5935E-03     106.672E-03
             937     16.2236E-03     97.5410E-03    -6.06124E+06     130.136E+06     88.8263E+06    -254.887E+03    -53.1933E-03     106.041E-03    -52.8479E-03     80.8419E-03    -54.3779E-03     107.409E-03    -52.5836E-03     80.1766E-03
             938     853.409E-06     97.3130E-03    -68.8169E+06    -157.697E+06    -67.3044E+06    -2.55932E+06    -53.0883E-03     106.117E-03    -53.0284E-03     9.51259E-03    -53.1075E-03     105.527E-03    -53.0365E-03     9.44654E-03
             939     1.70701E-03     97.3262E-03    -66.3465E+06    -152.147E+06    -61.6101E+06    -4.67032E+06    -53.0426E-03     106.094E-03    -53.0510E-03     17.4415E-03    -53.0691E-03     105.523E-03    -53.0422E-03     17.3186E-03
             940     2.56055E-03     97.3475E-03    -63.0667E+06    -143.736E+06    -53.4159E+06    -6.56862E+06    -53.0532E-03     106.096E-03    -53.0425E-03     25.7237E-03    -53.0930E-03     105.556E-03    -53.0097E-03     25.5426E-03
             941     3.41420E-03     97.3770E-03    -59.1053E+06    -136.400E+06    -44.1718E+06    -8.16722E+06    -53.0649E-03     106.098E-03    -53.0335E-03     33.8910E-03    -53.1177E-03     105.585E-03    -52.9709E-03     33.6515E-03
             942     4.26797E-03     97.4144E-03    -54.6766E+06    -127.905E+06    -35.9287E+06    -10.0555E+06    -53.0889E-03     106.098E-03    -53.0091E-03     41.8127E-03    -53.1561E-03     105.621E-03    -52.9240E-03     41.5063E-03
             943     5.12184E-03     97.4593E-03    -50.1979E+06    -117.785E+06    -29.3133E+06    -11.8206E+06    -53.1331E-03     106.102E-03    -52.9686E-03     49.4396E-03    -53.2190E-03     105.676E-03    -52.8716E-03     49.0622E-03
             944     5.97581E-03     97.5116E-03    -46.1685E+06    -111.241E+06    -23.4452E+06    -13.2110E+06    -53.2060E-03     106.134E-03    -52.9275E-03     56.7311E-03    -53.3123E-03     105.749E-03    -52.8165E-03     56.2809E-03
             945     6.82988E-03     97.5708E-03    -42.4768E+06    -103.508E+06    -18.6989E+06    -14.6699E+06    -53.3045E-03     106.184E-03    -52.8796E-03     63.6882E-03    -53.4400E-03     105.856E-03    -52.7614E-03     63.1568E-03
             946     7.68399E-03     97.6367E-03    -38.7110E+06    -96.3477E+06    -14.7207E+06    -15.8645E+06    -53.4271E-03     106.258E-03    -52.8307E-03     70.2473E-03    -53.5985E-03     105.992E-03    -52.7085E-03     69.6297E-03
             947     8.53823E-03     97.7084E-03    -35.0762E+06    -90.9507E+06    -13.2352E+06    -16.4851E+06    -53.5809E-03     106.357E-03    -52.7761E-03     76.4441E-03    -53.7939E-03     106.161E-03    -52.6595E-03     75.7385E-03
             948     9.39248E-03     97.7862E-03    -31.9684E+06    -82.1972E+06    -12.4627E+06    -16.7965E+06    -53.7566E-03     106.476E-03    -52.7197E-03     82.2446E-03    -54.0321E-03     106.383E-03    -52.6165E-03     81.4455E-03
             949     10.2467E-03     97.8692E-03    -29.0095E+06    -73.9509E+06    -12.1381E+06    -16.6496E+06    -53.9636E-03     106.634E-03    -52.6706E-03     87.5267E-03    -54.3190E-03     106.659E-03    -52.5820E-03     86.6299E-03
             950     11.1008E-03     97.9572E-03    -26.1980E+06    -60.5221E+06    -12.9271E+06    -15.4727E+06    -54.1804E-03     106.799E-03    -52.6188E-03     92.5473E-03    -54.6499E-03     106.998E-03    -52.5577E-03     91.5535E-03
             951     11.9548E-03     98.0498E-03    -23.5326E+06    -39.9881E+06    -11.2830E+06    -12.5776E+06    -54.3858E-03     106.963E-03    -52.5774E-03     98.9413E-03    -55.0307E-03     107.415E-03    -52.5417E-03     97.8600E-03
             952     12.8090E-03     98.1504E-03    -21.3117E+06     2.81326E+06    -9.69571E+06    -7.89336E+06    -54.6712E-03     107.180E-03    -52.5093E-03     108.142E-03    -55.6054E-03     108.077E-03    -52.5309E-03     106.986E-03
             953     13.6630E-03     98.2610E-03    -20.0200E+06     67.7652E+06     11.2791E+06    -4.35269E+06    -54.9829E-03     107.495E-03    -52.5122E-03     118.405E-03    -56.3115E-03     108.960E-03    -52.5250E-03     117.212E-03
             954     14.5166E-03     98.3829E-03    -15.9439E+06     113.279E+06     45.7811E+06    -1.74945E+06    -54.5999E-03     107.208E-03    -52.6083E-03     116.141E-03    -56.1345E-03     108.956E-03    -52.5206E-03     115.045E-03
             955     15.3716E-03     98.4888E-03    -9.79433E+06     129.946E+06     75.4983E+06     280.310E+03    -54.0606E-03     106.779E-03    -52.7180E-03     108.836E-03    -55.6556E-03     108.581E-03    -52.5148E-03     107.914E-03
             956     16.2249E-03     98.5967E-03    -5.04994E+06     129.985E+06      89.766E+06    -432.704E+03    -53.1645E-03     105.939E-03    -52.7744E-03     81.7226E-03    -54.3497E-03     107.307E-03    -52.5068E-03     81.0542E-03
             957     853.603E-06     98.3667E-03    -67.1827E+06    -151.701E+06    -65.8509E+06    -2.73800E+06    -52.9651E-03     105.881E-03    -52.9155E-03     9.53962E-03    -52.9869E-03     105.317E-03    -52.9274E-03     9.47142E-03
             958     1.70714E-03     98.3798E-03    -64.9942E+06    -146.199E+06    -60.1161E+06    -5.21224E+06    -52.9323E-03     105.867E-03    -52.9346E-03     17.4982E-03    -52.9627E-03     105.322E-03    -52.9289E-03     17.3689E-03
             959     2.56086E-03     98.4011E-03    -61.7784E+06    -138.961E+06    -52.5533E+06    -7.15923E+06    -52.9141E-03     105.837E-03    -52.9225E-03     25.7950E-03    -52.9555E-03     105.318E-03    -52.8942E-03     25.6073E-03
             960     3.41461E-03     98.4304E-03    -57.8016E+06    -131.510E+06    -43.7480E+06    -8.98457E+06    -52.9090E-03     105.812E-03    -52.9032E-03     33.9855E-03    -52.9627E-03     105.321E-03    -52.8474E-03     33.7371E-03
             961     4.26852E-03     98.4676E-03    -53.3501E+06    -122.691E+06    -35.1036E+06    -11.0998E+06    -52.9200E-03     105.792E-03    -52.8724E-03     41.9580E-03    -52.9890E-03     105.338E-03    -52.7926E-03     41.6403E-03
             962     5.12251E-03     98.5125E-03    -48.9342E+06    -113.718E+06    -28.0682E+06    -12.7296E+06    -52.9573E-03     105.786E-03    -52.8284E-03     49.6399E-03    -53.0442E-03     105.377E-03    -52.7329E-03     49.2536E-03
             963     5.97664E-03     98.5646E-03    -44.8347E+06    -107.401E+06    -22.3077E+06    -13.7931E+06    -53.0225E-03     105.803E-03    -52.7803E-03     57.0080E-03    -53.1288E-03     105.433E-03    -52.6711E-03     56.5539E-03
             964     6.83087E-03     98.6238E-03    -41.1993E+06    -99.0016E+06    -17.6605E+06    -15.3266E+06    -53.0950E-03     105.819E-03    -52.7235E-03     64.0576E-03    -53.2313E-03     105.508E-03    -52.6085E-03     63.5225E-03
             965     7.68525E-03     98.6894E-03    -37.8412E+06    -92.9914E+06    -14.0034E+06    -16.8689E+06    -53.2148E-03     105.882E-03    -52.6673E-03     70.7287E-03    -53.3866E-03     105.630E-03    -52.5476E-03     70.1039E-03
             966     8.53960E-03     98.7613E-03    -34.8044E+06    -88.3690E+06    -12.5938E+06    -17.6110E+06    -53.3923E-03     106.001E-03    -52.6082E-03     77.0399E-03    -53.6074E-03     105.815E-03    -52.4926E-03     76.3262E-03
             967     9.39396E-03     98.8389E-03    -31.8331E+06    -79.7622E+06    -11.8347E+06    -18.2055E+06    -53.5834E-03     106.132E-03    -52.5486E-03     82.9978E-03    -53.8612E-03     106.048E-03    -52.4460E-03     82.1877E-03
             968     10.2484E-03     98.9221E-03    -28.9420E+06    -72.8181E+06    -11.5998E+06    -18.4383E+06    -53.8060E-03     106.304E-03    -52.4985E-03     88.4520E-03    -54.1622E-03     106.333E-03    -52.4089E-03     87.5399E-03
             969     11.1027E-03     99.0100E-03    -26.3822E+06    -61.4453E+06    -13.0172E+06    -17.2877E+06    -54.0537E-03     106.499E-03    -52.4455E-03     93.6740E-03    -54.5214E-03     106.693E-03    -52.3833E-03     92.6652E-03
             970     11.9570E-03     99.1031E-03    -23.7891E+06    -43.1393E+06    -11.7874E+06    -14.9151E+06    -54.3428E-03     106.750E-03    -52.4074E-03     100.085E-03    -54.9834E-03     107.187E-03    -52.3693E-03     98.9806E-03
             971     12.8111E-03     99.2032E-03    -20.5612E+06    -3.91106E+06    -10.5553E+06    -10.1196E+06    -54.7600E-03     107.109E-03    -52.3492E-03     109.417E-03    -55.6807E-03     107.974E-03    -52.3665E-03     108.236E-03
             972     13.6649E-03     99.3154E-03    -16.5557E+06     65.2473E+06     11.5889E+06    -4.85109E+06    -55.0869E-03     107.445E-03    -52.3585E-03     119.652E-03    -56.3978E-03     108.896E-03    -52.3711E-03     118.455E-03
             973     14.5194E-03     99.4358E-03    -13.3163E+06     111.268E+06     45.0274E+06    -3.01706E+06    -54.8332E-03     107.297E-03    -52.4636E-03     117.152E-03    -56.3547E-03     109.035E-03    -52.3805E-03     116.036E-03
             974     15.3724E-03     99.5435E-03    -8.95129E+06     126.190E+06     74.1093E+06    -821.243E+03    -54.2194E-03     106.810E-03    -52.5909E-03     109.276E-03    -55.8044E-03     108.597E-03    -52.3903E-03     108.337E-03
             975     16.2277E-03     99.6493E-03    -4.05831E+06     130.818E+06      90.993E+06     268.381E+03    -53.4445E-03     106.115E-03    -52.6707E-03     81.6226E-03    -54.6282E-03     107.485E-03    -52.3995E-03     80.9584E-03
             976     853.715E-06     99.4202E-03    -64.2862E+06    -145.273E+06    -63.1861E+06    -3.10041E+06    -52.7637E-03     105.529E-03    -52.7656E-03     9.56076E-03    -52.7842E-03     104.989E-03    -52.7777E-03     9.48841E-03
             977     1.70748E-03     99.4332E-03    -62.4110E+06    -139.740E+06    -58.0050E+06    -5.47213E+06    -52.7503E-03     105.505E-03    -52.7544E-03     17.5571E-03    -52.7801E-03     104.985E-03    -52.7513E-03     17.4253E-03
             978     2.56125E-03     99.4543E-03    -59.4377E+06    -133.507E+06    -50.6095E+06    -7.91094E+06    -52.7226E-03     105.462E-03    -52.7398E-03     25.8997E-03    -52.7630E-03     104.965E-03    -52.7131E-03     25.7039E-03
             979     3.41525E-03     99.4835E-03    -55.2957E+06    -126.015E+06    -41.9884E+06    -10.0968E+06    -52.6975E-03     105.411E-03    -52.7135E-03     34.1302E-03    -52.7490E-03     104.941E-03    -52.6606E-03     33.8698E-03
             980     4.26930E-03     99.5207E-03    -50.8287E+06    -117.384E+06    -33.3193E+06    -12.0819E+06    -52.6847E-03     105.359E-03    -52.6747E-03     42.1693E-03    -52.7510E-03     104.925E-03    -52.5974E-03     41.8422E-03
             981     5.12355E-03     99.5653E-03    -46.6007E+06    -109.706E+06    -25.9455E+06    -13.4800E+06    -52.6979E-03     105.322E-03    -52.6245E-03     49.9496E-03    -52.7814E-03     104.926E-03    -52.5276E-03     49.5578E-03
             982     5.97790E-03     99.6173E-03    -42.4216E+06    -103.531E+06    -20.2815E+06    -14.7175E+06    -52.7450E-03     105.310E-03    -52.5650E-03     57.4368E-03    -52.8468E-03     104.953E-03    -52.4548E-03     56.9761E-03
             983     6.83237E-03     99.6762E-03    -38.3386E+06    -94.5442E+06    -15.6687E+06    -16.0301E+06    -52.8149E-03     105.311E-03    -52.4961E-03     64.6164E-03    -52.9450E-03     105.015E-03    -52.3818E-03     64.0789E-03
             984     7.68695E-03     99.7418E-03    -35.2137E+06    -89.5505E+06    -11.9152E+06    -16.9654E+06    -52.9362E-03     105.369E-03    -52.4331E-03     71.4364E-03    -53.1013E-03     105.126E-03    -52.3118E-03     70.8182E-03
             985     8.54161E-03     99.8136E-03    -32.6349E+06    -85.0514E+06    -10.5727E+06    -18.0475E+06    -53.1086E-03     105.475E-03    -52.3664E-03     77.9275E-03    -53.3187E-03     105.298E-03    -52.2487E-03     77.2174E-03
             986     9.39631E-03     99.8913E-03    -30.1417E+06    -76.7241E+06    -10.0769E+06    -19.1998E+06    -53.3214E-03     105.621E-03    -52.2998E-03     84.0754E-03    -53.5959E-03     105.546E-03    -52.1953E-03     83.2624E-03
             987     10.2509E-03     99.9745E-03    -27.9470E+06    -71.4013E+06    -10.0998E+06    -19.3938E+06    -53.5804E-03     105.828E-03    -52.2478E-03     89.6830E-03    -53.9341E-03     105.858E-03    -52.1542E-03     88.7691E-03
             988     11.1055E-03     100.063E-03    -25.9280E+06    -61.5145E+06    -12.2077E+06    -18.7691E+06    -53.8914E-03     106.085E-03    -52.1941E-03     95.0077E-03    -54.3563E-03     106.275E-03    -52.1283E-03     93.9903E-03
             989     11.9599E-03     100.156E-03    -23.7587E+06    -45.2937E+06    -11.8109E+06    -16.9789E+06    -54.3252E-03     106.487E-03    -52.1619E-03     101.497E-03    -54.9622E-03     106.913E-03    -52.1208E-03     100.374E-03
             990     12.8139E-03     100.257E-03    -21.3240E+06    -9.93768E+06    -12.0575E+06    -13.2468E+06    -54.8696E-03     106.987E-03    -52.1169E-03     110.920E-03    -55.7845E-03     107.825E-03    -52.1319E-03     109.704E-03
             991     13.6682E-03     100.368E-03    -18.1355E+06     59.2587E+06     6.66292E+06    -8.00427E+06    -55.3159E-03     107.446E-03    -52.1299E-03     120.960E-03    -56.6221E-03     108.879E-03    -52.1562E-03     119.722E-03
             992     14.5216E-03     100.490E-03    -14.0491E+06     109.391E+06     38.0117E+06    -3.11642E+06    -55.1452E-03     107.386E-03    -52.2412E-03     118.214E-03    -56.6630E-03     109.132E-03    -52.1894E-03     117.094E-03
             993     15.3758E-03     100.597E-03    -10.2260E+06     124.308E+06     69.1955E+06    -1.68637E+06    -54.6891E-03     107.098E-03    -52.4091E-03     109.990E-03    -56.2793E-03     108.893E-03    -52.2285E-03     109.027E-03
             994     16.2284E-03     100.703E-03    -4.95703E+06     129.510E+06     90.2816E+06    -507.014E+03    -53.9649E-03     106.506E-03    -52.5415E-03     82.6968E-03    -55.1607E-03     107.882E-03    -52.2707E-03     82.0050E-03
             995     853.884E-06     100.473E-03    -61.4651E+06    -138.393E+06    -60.0273E+06    -3.14164E+06    -52.4943E-03     105.020E-03    -52.5255E-03     9.63090E-03    -52.5152E-03     104.506E-03    -52.5359E-03     9.55872E-03
             996     1.70788E-03     100.486E-03    -59.3351E+06    -133.005E+06    -55.0254E+06    -5.85696E+06    -52.4703E-03     104.965E-03    -52.4942E-03     17.6651E-03    -52.4988E-03     104.470E-03    -52.4904E-03     17.5299E-03
             997     2.56199E-03     100.507E-03    -56.2245E+06    -127.049E+06    -47.4015E+06    -8.53345E+06    -52.4403E-03     104.913E-03    -52.4727E-03     26.0604E-03    -52.4784E-03     104.438E-03    -52.4440E-03     25.8588E-03
             998     3.41611E-03     100.536E-03    -52.5144E+06    -120.023E+06    -39.3479E+06    -11.0561E+06    -52.3938E-03     104.832E-03    -52.4379E-03     34.3776E-03    -52.4436E-03     104.383E-03    -52.3844E-03     34.1080E-03
             999     4.27050E-03     100.573E-03    -48.4441E+06    -112.163E+06    -31.5156E+06    -13.0250E+06    -52.3471E-03     104.733E-03    -52.3864E-03     42.5156E-03    -52.4111E-03     104.319E-03    -52.3111E-03     42.1807E-03
            1000     5.12500E-03     100.618E-03    -44.2073E+06    -105.574E+06    -24.2558E+06    -14.3786E+06    -52.3307E-03     104.655E-03    -52.3241E-03     50.4160E-03    -52.4098E-03     104.273E-03    -52.2282E-03     50.0187E-03
            1001     5.97971E-03     100.669E-03    -39.9409E+06    -98.8120E+06    -18.3103E+06    -15.9066E+06    -52.3431E-03     104.593E-03    -52.2503E-03     58.0446E-03    -52.4409E-03     104.252E-03    -52.1407E-03     57.5763E-03
            1002     6.83458E-03     100.728E-03    -36.2047E+06    -91.3175E+06    -14.0806E+06    -16.8626E+06    -52.4041E-03     104.571E-03    -52.1674E-03     65.4194E-03    -52.5289E-03     104.284E-03    -52.0529E-03     64.8805E-03
            1003     7.68952E-03     100.794E-03    -32.7523E+06    -86.2049E+06    -10.2027E+06    -17.3076E+06    -52.5287E-03     104.620E-03    -52.0912E-03     72.4580E-03    -52.6868E-03     104.385E-03    -51.9697E-03     71.8465E-03
            1004     8.54455E-03     100.865E-03    -29.6292E+06    -81.1246E+06    -8.19231E+06    -18.4554E+06    -52.7154E-03     104.731E-03    -52.0153E-03     79.1663E-03    -52.9171E-03     104.563E-03    -51.8957E-03     78.4635E-03
            1005     9.39958E-03     100.943E-03    -27.4340E+06    -73.8639E+06    -7.82311E+06    -19.1271E+06    -52.9714E-03     104.914E-03    -51.9424E-03     85.5163E-03    -53.2370E-03     104.843E-03    -51.8347E-03     84.7181E-03
            1006     10.2546E-03     101.026E-03    -25.8055E+06    -69.1937E+06    -7.89852E+06    -19.6324E+06    -53.3122E-03     105.202E-03    -51.8897E-03     91.3011E-03    -53.6590E-03     105.234E-03    -51.7915E-03     90.3979E-03
            1007     11.1094E-03     101.115E-03    -24.0420E+06    -60.7873E+06    -10.3603E+06    -19.5757E+06    -53.7586E-03     105.601E-03    -51.8422E-03     96.8534E-03    -54.2162E-03     105.787E-03    -51.7710E-03     95.8383E-03
            1008     11.9638E-03     101.208E-03    -22.5494E+06    -46.8252E+06    -10.5213E+06    -18.0047E+06    -54.3461E-03     106.172E-03    -51.8254E-03     103.492E-03    -54.9765E-03     106.586E-03    -51.7774E-03     102.366E-03
            1009     12.8183E-03     101.310E-03    -21.4850E+06    -14.4701E+06    -11.7116E+06    -14.5861E+06    -55.1049E-03     106.911E-03    -51.8057E-03     112.866E-03    -56.0168E-03     107.729E-03    -51.8121E-03     111.638E-03
            1010     13.6716E-03     101.422E-03    -19.9273E+06     53.6890E+06     5.60798E+06    -10.0922E+06    -55.7245E-03     107.573E-03    -51.8483E-03     122.814E-03    -57.0365E-03     108.988E-03    -51.8693E-03     121.548E-03
            1011     14.5255E-03     101.544E-03    -16.2371E+06     104.613E+06     30.9707E+06    -5.86635E+06    -55.5837E-03     107.549E-03    -51.9649E-03     119.709E-03    -57.1023E-03     109.291E-03    -51.9382E-03     118.549E-03
            1012     15.3784E-03     101.652E-03    -10.2281E+06     123.343E+06     63.3516E+06    -2.43410E+06    -55.2152E-03     107.381E-03    -52.1659E-03     111.293E-03    -56.7998E-03     109.184E-03    -52.0131E-03     110.314E-03
            1013     16.2322E-03     101.758E-03    -4.98184E+06     128.770E+06     89.9317E+06    -494.142E+03    -54.6616E-03     107.027E-03    -52.3654E-03     83.7080E-03    -55.8593E-03     108.403E-03    -52.0952E-03     83.0036E-03
            1014     854.269E-06     101.526E-03    -58.8356E+06    -130.896E+06    -57.8852E+06    -3.49672E+06    -52.1719E-03     104.273E-03    -52.1016E-03     9.71586E-03    -52.1937E-03     103.790E-03    -52.1159E-03     9.64004E-03
            1015     1.70852E-03     101.538E-03    -56.6474E+06    -125.736E+06    -52.2287E+06    -6.47731E+06    -52.0815E-03     104.201E-03    -52.1192E-03     17.7983E-03    -52.1110E-03     103.734E-03    -52.1159E-03     17.6571E-03
            1016     2.56289E-03     101.559E-03    -53.3640E+06    -120.198E+06    -44.7591E+06    -9.17261E+06    -52.0060E-03     104.091E-03    -52.0851E-03     26.3023E-03    -52.0433E-03     103.642E-03    -52.0573E-03     26.0956E-03
            1017     3.41750E-03     101.588E-03    -49.7335E+06    -113.578E+06    -36.8194E+06    -11.6840E+06    -51.9367E-03     103.971E-03    -52.0342E-03     34.7464E-03    -51.9851E-03     103.546E-03    -51.9815E-03     34.4734E-03
            1018     4.27220E-03     101.625E-03    -45.9173E+06    -106.844E+06    -29.4994E+06    -13.7017E+06    -51.8715E-03     103.839E-03    -51.9673E-03     43.0337E-03    -51.9327E-03     103.443E-03    -51.8933E-03     42.6965E-03
            1019     5.12717E-03     101.669E-03    -41.8852E+06    -100.692E+06    -22.9095E+06    -15.4922E+06    -51.8173E-03     103.704E-03    -51.8872E-03     51.1123E-03    -51.8926E-03     103.340E-03    -51.7950E-03     50.7088E-03
            1020     5.98232E-03     101.721E-03    -37.9663E+06    -94.0981E+06    -17.0320E+06    -16.9868E+06    -51.7974E-03     103.594E-03    -51.7967E-03     58.9383E-03    -51.8923E-03     103.270E-03    -51.6903E-03     58.4664E-03
            1021     6.83765E-03     101.779E-03    -34.1583E+06    -88.4814E+06    -12.5864E+06    -17.6384E+06    -51.8302E-03     103.530E-03    -51.6994E-03     66.5324E-03    -51.9487E-03     103.249E-03    -51.5845E-03     65.9962E-03
            1022     7.69319E-03     101.844E-03    -30.6831E+06    -82.6361E+06    -9.01557E+06    -18.3660E+06    -51.9450E-03     103.548E-03    -51.6029E-03     73.8541E-03    -52.0965E-03     103.323E-03    -51.4837E-03     73.2443E-03
            1023     8.54874E-03     101.916E-03    -27.6999E+06    -77.8991E+06    -6.32397E+06    -18.9463E+06    -52.1815E-03     103.699E-03    -51.5173E-03     80.8585E-03    -52.3775E-03     103.538E-03    -51.3958E-03     80.1665E-03
            1024     9.40428E-03     101.994E-03    -25.3762E+06    -71.6812E+06    -5.73987E+06    -19.0087E+06    -52.5196E-03     103.960E-03    -51.4399E-03     87.4791E-03    -52.7774E-03     103.889E-03    -51.3279E-03     86.7006E-03
            1025     10.2597E-03     102.078E-03    -23.4873E+06    -65.8533E+06    -5.02979E+06    -19.5882E+06    -52.9960E-03     104.387E-03    -51.3908E-03     93.5561E-03    -53.3370E-03     104.425E-03    -51.2864E-03     92.6716E-03
            1026     11.1148E-03     102.166E-03    -22.4055E+06    -60.1851E+06    -7.74931E+06    -19.4530E+06    -53.6311E-03     104.991E-03    -51.3595E-03     99.2917E-03    -54.0830E-03     105.172E-03    -51.2785E-03     98.2944E-03
            1027     11.9696E-03     102.261E-03    -21.4235E+06    -46.9651E+06    -8.07175E+06    -18.3595E+06    -54.4529E-03     105.821E-03    -51.3684E-03     106.105E-03    -55.0812E-03     106.230E-03    -51.3096E-03     104.987E-03
            1028     12.8233E-03     102.363E-03    -19.1528E+06    -18.3593E+06    -9.22290E+06    -16.0346E+06    -55.4504E-03     106.839E-03    -51.3883E-03     115.555E-03    -56.3527E-03     107.635E-03    -51.3800E-03     114.315E-03
            1029     13.6772E-03     102.476E-03    -15.8198E+06     48.8011E+06     9.38724E+06    -11.2336E+06    -56.2253E-03     107.704E-03    -51.4788E-03     125.359E-03    -57.5216E-03     109.090E-03    -51.4797E-03     124.081E-03
            1030     14.5301E-03     102.599E-03    -12.6338E+06     100.456E+06     34.3299E+06    -6.63267E+06    -56.2043E-03     107.843E-03    -51.6390E-03     121.885E-03    -57.7119E-03     109.563E-03    -51.5947E-03     120.711E-03
            1031     15.3832E-03     102.706E-03    -9.51753E+06     119.020E+06     61.6405E+06    -3.30764E+06    -56.0698E-03     107.941E-03    -51.8713E-03     113.400E-03    -57.6558E-03     109.737E-03    -51.7219E-03     112.392E-03
            1032     16.2354E-03     102.813E-03    -5.21163E+06     127.665E+06     89.0206E+06    -887.521E+03    -55.8403E-03     107.975E-03    -52.1350E-03     85.2185E-03    -57.0500E-03     109.362E-03    -51.8675E-03     84.4822E-03
            1033     854.607E-06     102.577E-03    -55.0307E+06    -122.463E+06    -54.2875E+06    -4.08033E+06    -51.6578E-03     103.222E-03    -51.5643E-03     9.78845E-03    -51.6779E-03     102.770E-03    -51.5784E-03     9.70682E-03
            1034     1.70937E-03     102.590E-03    -53.3729E+06    -117.958E+06    -49.8267E+06    -7.00566E+06    -51.5087E-03     103.087E-03    -51.5785E-03     18.0193E-03    -51.5365E-03     102.651E-03    -51.5792E-03     17.8742E-03
            1035     2.56430E-03     102.610E-03    -50.7961E+06    -112.974E+06    -42.9350E+06    -9.90878E+06    -51.3999E-03     102.924E-03    -51.5243E-03     26.6794E-03    -51.4372E-03     102.505E-03    -51.5016E-03     26.4678E-03
            1036     3.41938E-03     102.639E-03    -47.2935E+06    -107.019E+06    -35.1064E+06    -12.4018E+06    -51.2917E-03     102.747E-03    -51.4549E-03     35.2768E-03    -51.3392E-03     102.348E-03    -51.4067E-03     35.0010E-03
            1037     4.27471E-03     102.675E-03    -43.2742E+06    -101.033E+06    -27.5973E+06    -14.5668E+06    -51.1888E-03     102.558E-03    -51.3695E-03     43.7474E-03    -51.2469E-03     102.184E-03    -51.2982E-03     43.4076E-03
            1038     5.13024E-03     102.719E-03    -39.3027E+06    -95.3250E+06    -21.1651E+06    -16.3952E+06    -51.1004E-03     102.369E-03    -51.2682E-03     52.0628E-03    -51.1715E-03     102.023E-03    -51.1788E-03     51.6588E-03
            1039     5.98605E-03     102.771E-03    -35.6023E+06    -89.6554E+06    -15.6626E+06    -17.7509E+06    -51.0535E-03     102.210E-03    -51.1565E-03     60.1693E-03    -51.1427E-03     101.900E-03    -51.0532E-03     59.7016E-03
            1040     6.84208E-03     102.829E-03    -32.0183E+06    -85.1423E+06    -11.1038E+06    -18.7028E+06    -51.0734E-03     102.115E-03    -51.0418E-03     68.0471E-03    -51.1851E-03     101.843E-03    -50.9274E-03     67.5139E-03
            1041     7.69826E-03     102.894E-03    -28.4662E+06      -78.96E+06    -7.26074E+06    -19.4100E+06    -51.1884E-03     102.116E-03    -50.9280E-03     75.7074E-03    -51.3328E-03     101.900E-03    -50.8085E-03     75.1038E-03
            1042     8.55458E-03     102.966E-03    -25.3515E+06    -75.8836E+06    -4.40540E+06    -19.4927E+06    -51.4771E-03     102.308E-03    -50.8314E-03     83.0715E-03    -51.6623E-03     102.147E-03    -50.7066E-03     82.3947E-03
            1043     9.41072E-03     103.044E-03    -22.8565E+06    -69.3842E+06    -3.31266E+06    -19.2350E+06    -51.9553E-03     102.706E-03    -50.7509E-03     90.0408E-03    -52.2025E-03     102.635E-03    -50.6337E-03     89.2825E-03
            1044     10.2667E-03     103.128E-03    -21.2373E+06    -63.1851E+06    -2.02712E+06    -19.0919E+06    -52.6234E-03     103.336E-03    -50.7122E-03     96.4612E-03    -52.9569E-03     103.375E-03    -50.5999E-03     95.6058E-03
            1045     11.1221E-03     103.217E-03    -19.9366E+06    -58.9482E+06    -4.42381E+06    -19.0486E+06    -53.5190E-03     104.225E-03    -50.7063E-03     102.499E-03    -53.9624E-03     104.402E-03    -50.6140E-03     101.527E-03
            1046     11.9767E-03     103.312E-03    -18.1835E+06    -45.9539E+06    -4.47422E+06    -18.9041E+06    -54.5877E-03     105.338E-03    -50.7508E-03     109.625E-03    -55.2065E-03     105.743E-03    -50.6801E-03     108.516E-03
            1047     12.8311E-03     103.416E-03    -16.6908E+06    -20.4627E+06    -5.35837E+06    -17.3413E+06    -55.8354E-03     106.658E-03    -50.8228E-03     119.213E-03    -56.7321E-03     107.439E-03    -50.7957E-03     117.966E-03
            1048     13.6840E-03     103.530E-03    -15.2557E+06     42.2647E+06     12.1616E+06    -12.5844E+06    -56.8349E-03     107.805E-03    -50.9706E-03     128.762E-03    -58.1316E-03     109.163E-03    -50.9489E-03     127.468E-03
            1049     14.5371E-03     103.654E-03    -12.9825E+06     95.1458E+06     32.0779E+06    -6.31098E+06    -57.2949E-03     108.469E-03    -51.1742E-03     124.738E-03    -58.8066E-03     110.180E-03    -51.1329E-03     123.555E-03
            1050     15.3892E-03     103.761E-03    -10.2128E+06     116.944E+06     56.6652E+06    -2.91956E+06    -57.6179E-03     109.097E-03    -51.4789E-03     115.345E-03    -59.2127E-03     110.906E-03    -51.3504E-03     114.311E-03
            1051     16.2404E-03     103.871E-03    -5.32084E+06     125.433E+06     87.8980E+06    -1.62870E+06    -57.4578E-03     109.317E-03    -51.8594E-03     86.5447E-03    -58.6755E-03     110.706E-03    -51.5941E-03     85.7633E-03
            1052     855.290E-06     103.628E-03    -51.7061E+06    -113.438E+06     -50.934E+06    -4.11986E+06    -50.8121E-03     101.678E-03    -50.8664E-03     9.92735E-03    -50.8335E-03     101.261E-03    -50.8816E-03     9.84718E-03
            1053     1.71069E-03     103.640E-03    -50.2067E+06    -109.749E+06    -46.9445E+06    -7.36765E+06    -50.7062E-03     101.505E-03    -50.7986E-03     18.3653E-03    -50.7341E-03     101.101E-03    -50.8014E-03     18.2193E-03
            1054     2.56627E-03     103.660E-03    -47.7360E+06    -105.178E+06    -40.8044E+06    -10.4790E+06    -50.5830E-03     101.312E-03    -50.7290E-03     27.2055E-03    -50.6189E-03     100.923E-03    -50.7113E-03     26.9925E-03
            1055     3.42206E-03     103.689E-03    -44.6846E+06    -100.198E+06    -33.6681E+06    -13.2113E+06    -50.4217E-03     101.065E-03    -50.6429E-03     35.9999E-03    -50.4673E-03     100.693E-03    -50.6012E-03     35.7220E-03
            1056     4.27815E-03     103.725E-03    -41.1196E+06    -94.8770E+06    -26.3292E+06    -15.3953E+06    -50.2539E-03     100.790E-03    -50.5360E-03     44.7104E-03    -50.3106E-03     100.440E-03    -50.4704E-03     44.3714E-03
            1057     5.13455E-03     103.768E-03    -37.3919E+06    -89.8704E+06    -19.7000E+06    -17.2281E+06    -50.1239E-03     100.536E-03    -50.4117E-03     53.3045E-03    -50.1932E-03     100.210E-03    -50.3257E-03     52.9043E-03
            1058     5.99123E-03     103.819E-03    -33.8096E+06    -85.2497E+06    -14.3468E+06    -18.4972E+06    -50.0502E-03     100.326E-03    -50.2761E-03     61.7405E-03    -50.1356E-03     100.030E-03    -50.1752E-03     61.2811E-03
            1059     6.84813E-03     103.877E-03    -30.5652E+06    -80.8868E+06    -9.79930E+06    -19.6522E+06    -50.0726E-03     100.212E-03    -50.1397E-03     69.9995E-03    -50.1809E-03     99.9532E-03    -50.0271E-03     69.4755E-03
            1060     7.70524E-03     103.942E-03    -27.5634E+06    -76.0043E+06    -6.33003E+06    -20.2375E+06    -50.2361E-03     100.246E-03    -50.0100E-03     78.0754E-03    -50.3764E-03     100.037E-03    -49.8915E-03     77.4856E-03
            1061     8.56236E-03     104.014E-03    -24.8034E+06    -73.6306E+06    -3.50879E+06    -20.2620E+06    -50.6043E-03     100.510E-03    -49.9053E-03     85.8937E-03    -50.7852E-03     100.351E-03    -49.7801E-03     85.2343E-03
            1062     9.41941E-03     104.092E-03    -22.1094E+06    -67.7259E+06    -2.13491E+06    -19.9049E+06    -51.2495E-03     101.077E-03    -49.8273E-03     93.3658E-03    -51.4905E-03     101.005E-03    -49.7077E-03     92.6280E-03
            1063     10.2759E-03     104.177E-03    -19.6603E+06    -61.7831E+06    -231.437E+03    -19.0925E+06    -52.1626E-03     101.968E-03    -49.8055E-03     100.222E-03    -52.4870E-03     102.004E-03    -49.6885E-03     99.3954E-03
            1064     11.1318E-03     104.267E-03    -17.8832E+06    -56.7134E+06    -1.28475E+06    -19.0056E+06    -53.3386E-03     103.173E-03    -49.8342E-03     106.734E-03    -53.7755E-03     103.349E-03    -49.7325E-03     105.789E-03
            1065     11.9870E-03     104.364E-03    -17.4837E+06    -45.0451E+06    -1.29705E+06    -18.5576E+06    -54.7794E-03     104.709E-03    -49.9295E-03     114.068E-03    -55.4006E-03     105.112E-03    -49.8453E-03     112.983E-03
            1066     12.8407E-03     104.468E-03    -17.7014E+06    -21.3261E+06    -1.15616E+06    -16.9864E+06    -56.3860E-03     106.462E-03    -50.0755E-03     123.550E-03    -57.2979E-03     107.238E-03    -50.0247E-03     122.319E-03
            1067     13.6940E-03     104.585E-03    -16.5362E+06     35.9123E+06     15.3203E+06    -12.8419E+06    -57.9001E-03     108.210E-03    -50.3096E-03     132.470E-03    -59.2128E-03     109.547E-03    -50.2611E-03     131.165E-03
            1068     14.5460E-03     104.708E-03    -13.7142E+06     88.7516E+06     30.2968E+06    -7.06031E+06    -59.0108E-03     109.607E-03    -50.5963E-03     128.124E-03    -60.5388E-03     111.314E-03    -50.5536E-03     126.899E-03
            1069     15.3953E-03     104.821E-03    -9.66895E+06     115.732E+06     53.4734E+06    -3.70503E+06    -59.8138E-03     110.829E-03    -51.0148E-03     117.966E-03    -61.4286E-03     112.665E-03    -50.9012E-03     116.868E-03
            1070     16.2450E-03     104.927E-03    -4.79653E+06     123.481E+06     86.6463E+06    -1.91092E+06    -59.9754E-03     111.523E-03    -51.5474E-03     88.0687E-03    -61.2096E-03     112.927E-03    -51.2863E-03     87.2259E-03
            1071     856.164E-06     104.676E-03    -48.9874E+06    -104.000E+06    -48.2727E+06    -4.60139E+06    -49.7371E-03     99.5092E-03    -49.7721E-03     10.1630E-03    -49.7623E-03     99.1315E-03    -49.7917E-03     10.0792E-03
            1072     1.71253E-03     104.688E-03    -47.4139E+06    -101.174E+06    -44.2271E+06    -7.71790E+06    -49.6367E-03     99.3536E-03    -49.7169E-03     18.7723E-03    -49.6667E-03     98.9843E-03    -49.7226E-03     18.6267E-03
            1073     2.56900E-03     104.708E-03    -45.0498E+06    -96.9871E+06    -38.7573E+06    -10.9015E+06    -49.4652E-03     99.1053E-03    -49.6401E-03     27.8401E-03    -49.5019E-03     98.7500E-03    -49.6279E-03     27.6294E-03
            1074     3.42579E-03     104.736E-03    -42.1903E+06    -93.0607E+06    -32.1320E+06    -13.7012E+06    -49.2527E-03     98.7890E-03    -49.5364E-03     36.8914E-03    -49.2972E-03     98.4465E-03    -49.5009E-03     36.6180E-03
            1075     4.28289E-03     104.772E-03    -39.2233E+06    -88.5686E+06    -25.3851E+06    -15.9625E+06    -49.0310E-03     98.4371E-03    -49.4061E-03     45.9074E-03    -49.0868E-03     98.1127E-03    -49.3477E-03     45.5753E-03
            1076     5.14037E-03     104.815E-03    -36.1246E+06    -84.3063E+06    -19.0034E+06    -17.7268E+06    -48.8443E-03     98.1011E-03    -49.2568E-03     54.8519E-03    -48.9135E-03     97.7977E-03    -49.1772E-03     54.4634E-03
            1077     5.99816E-03     104.865E-03    -33.1627E+06    -80.6251E+06    -13.7910E+06    -19.0704E+06    -48.7413E-03     97.8374E-03    -49.0961E-03     63.6922E-03    -48.8269E-03     97.5588E-03    -49.0000E-03     63.2477E-03
            1078     6.85629E-03     104.923E-03    -30.3237E+06    -76.5412E+06    -9.55820E+06    -20.0509E+06    -48.7808E-03     97.7167E-03    -48.9359E-03     72.4338E-03    -48.8890E-03     97.4731E-03    -48.8288E-03     71.9310E-03
            1079     7.71450E-03     104.988E-03    -27.9984E+06    -73.4560E+06    -6.40271E+06    -20.3262E+06    -49.0328E-03     97.8259E-03    -48.7931E-03     81.0227E-03    -49.1721E-03     97.6235E-03    -48.6780E-03     80.4617E-03
            1080     8.57274E-03     105.060E-03    -25.9289E+06    -70.3030E+06    -3.53896E+06    -20.6215E+06    -49.5577E-03     98.2434E-03    -48.6856E-03     89.4079E-03    -49.7413E-03     98.0954E-03    -48.5638E-03     88.7765E-03
            1081     9.43064E-03     105.139E-03    -23.7244E+06    -66.4093E+06    -2.27462E+06    -20.8065E+06    -50.4141E-03     99.0360E-03    -48.6219E-03     97.4540E-03    -50.6567E-03     98.9651E-03    -48.5026E-03     96.7387E-03
            1082     10.2881E-03     105.224E-03    -21.2375E+06    -60.6928E+06    -72.2916E+03    -20.3227E+06    -51.6390E-03     100.269E-03    -48.6295E-03     104.781E-03    -51.9658E-03     100.305E-03    -48.5111E-03     103.972E-03
            1083     11.1446E-03     105.316E-03    -19.5255E+06    -56.0482E+06     376.641E+03    -18.7104E+06    -53.2402E-03     101.956E-03    -48.7155E-03     111.516E-03    -53.6843E-03     102.130E-03    -48.6041E-03     110.603E-03
            1084     11.9997E-03     105.414E-03    -19.0670E+06    -44.3540E+06     1.09985E+06    -17.0527E+06    -55.1660E-03     104.053E-03    -48.8869E-03     118.936E-03    -55.8003E-03     104.459E-03    -48.7895E-03     117.889E-03
            1085     12.8534E-03     105.521E-03    -18.6618E+06    -21.3061E+06     2.67148E+06    -16.0473E+06    -57.3824E-03     106.521E-03    -49.1382E-03     128.146E-03    -58.3145E-03     107.303E-03    -49.0669E-03     126.928E-03
            1086     13.7055E-03     105.639E-03    -17.3546E+06     31.0018E+06     18.4961E+06    -12.8532E+06    -59.6308E-03     109.134E-03    -49.5032E-03     136.711E-03    -60.9701E-03     110.468E-03    -49.4305E-03     135.379E-03
            1087     14.5552E-03     105.767E-03    -14.2099E+06     84.5375E+06     32.0780E+06    -8.68238E+06    -61.1305E-03     111.058E-03    -49.9279E-03     131.759E-03    -62.6892E-03     112.774E-03    -49.8695E-03     130.469E-03
            1088     15.4051E-03     105.878E-03    -9.68195E+06     112.441E+06     53.2873E+06    -5.09116E+06    -62.4154E-03     112.907E-03    -50.4913E-03     121.179E-03    -64.0640E-03     114.766E-03    -50.3738E-03     119.994E-03
            1089     16.2508E-03     105.990E-03    -4.79812E+06     120.769E+06     84.6983E+06    -2.06797E+06    -63.5066E-03     114.700E-03    -51.1938E-03     90.4928E-03    -64.7673E-03     116.127E-03    -50.9385E-03     89.5630E-03
            1090     857.488E-06     105.722E-03    -45.5617E+06    -94.0915E+06    -45.0640E+06    -4.78604E+06    -48.3705E-03     96.6734E-03    -48.3029E-03     10.4138E-03    -48.3976E-03     96.3355E-03    -48.3258E-03     10.3308E-03
            1091     1.71487E-03     105.734E-03    -44.4387E+06    -92.2604E+06    -41.9352E+06    -8.10192E+06    -48.2094E-03     96.5021E-03    -48.2927E-03     19.2408E-03    -48.2404E-03     96.1692E-03    -48.3041E-03     19.0964E-03
            1092     2.57265E-03     105.754E-03    -42.7535E+06     -88.851E+06    -37.3115E+06    -11.1715E+06    -47.9780E-03     96.1790E-03    -48.2010E-03     28.5788E-03    -48.0163E-03     95.8581E-03    -48.1967E-03     28.3739E-03
            1093     3.43070E-03     105.781E-03    -40.7249E+06    -85.7944E+06    -31.4766E+06    -13.8243E+06    -47.7098E-03     95.7830E-03    -48.0731E-03     37.9514E-03    -47.7570E-03     95.4721E-03    -48.0471E-03     37.6895E-03
            1094     4.28916E-03     105.816E-03    -38.4494E+06    -82.1837E+06    -25.4834E+06    -16.0522E+06    -47.4403E-03     95.3562E-03    -47.9159E-03     47.3487E-03    -47.4989E-03     95.0601E-03    -47.8684E-03     47.0325E-03
            1095     5.14800E-03     105.859E-03    -36.2516E+06    -79.1114E+06    -19.8493E+06    -17.5274E+06    -47.2126E-03     94.9521E-03    -47.7395E-03     56.7202E-03    -47.2850E-03     94.6722E-03    -47.6715E-03     56.3559E-03
            1096     6.00730E-03     105.909E-03    -34.1626E+06    -75.7134E+06    -14.9091E+06    -18.7453E+06    -47.1014E-03     94.6558E-03    -47.5544E-03     66.0453E-03    -47.1923E-03     94.3996E-03    -47.4696E-03     65.6312E-03
            1097     6.86681E-03     105.966E-03    -32.6473E+06    -72.9741E+06    -11.0584E+06    -19.3637E+06    -47.1908E-03     94.5685E-03    -47.3777E-03     75.3129E-03    -47.3067E-03     94.3413E-03    -47.2798E-03     74.8496E-03
            1098     7.72653E-03     106.031E-03    -31.4262E+06    -70.3808E+06    -7.90185E+06    -19.5633E+06    -47.5755E-03     94.8054E-03    -47.2299E-03     84.4929E-03    -47.7258E-03     94.6170E-03    -47.1218E-03     83.9762E-03
            1099     8.58601E-03     106.103E-03    -30.2505E+06    -66.8829E+06    -5.12825E+06    -20.1420E+06    -48.3484E-03     95.4811E-03    -47.1326E-03     93.4850E-03    -48.5469E-03     95.3493E-03    -47.0174E-03     92.8964E-03
            1100     9.44509E-03     106.183E-03    -29.2243E+06    -63.8203E+06    -3.38020E+06    -20.7457E+06    -49.5640E-03     96.6704E-03    -47.1064E-03     102.047E-03    -49.8271E-03     96.6129E-03    -46.9884E-03     101.369E-03
            1101     10.3032E-03     106.270E-03    -28.1595E+06    -59.0112E+06    -1.73870E+06    -20.9562E+06    -51.2383E-03     98.4102E-03    -47.1719E-03     109.785E-03    -51.5923E-03     98.4597E-03    -47.0542E-03     109.000E-03
            1102     11.1600E-03     106.364E-03    -26.0715E+06    -57.3751E+06    -1.31788E+06    -19.7045E+06    -53.3985E-03     100.744E-03    -47.3457E-03     116.790E-03    -53.8680E-03     100.921E-03    -47.2313E-03     115.889E-03
            1103     12.0149E-03     106.464E-03    -23.0198E+06    -44.2524E+06     831.290E+03    -17.5296E+06    -55.9522E-03     103.582E-03    -47.6299E-03     124.242E-03    -56.6102E-03     103.999E-03    -47.5282E-03     123.200E-03
            1104     12.8681E-03     106.574E-03    -20.7587E+06    -21.2028E+06     4.70135E+06    -15.7434E+06    -58.9258E-03     106.956E-03    -48.0304E-03     133.310E-03    -59.8894E-03     107.758E-03    -47.9461E-03     132.084E-03
            1105     13.7185E-03     106.695E-03    -18.0900E+06     29.1267E+06     21.0695E+06    -13.8122E+06    -61.8120E-03     110.377E-03    -48.5646E-03     141.411E-03    -63.1899E-03     111.733E-03    -48.4753E-03     140.026E-03
            1106     14.5677E-03     106.825E-03    -14.0704E+06     80.7203E+06     34.7489E+06    -10.4647E+06    -63.9778E-03     113.155E-03    -49.1774E-03     135.563E-03    -65.5751E-03     114.889E-03    -49.1003E-03     134.181E-03
            1107     15.4125E-03     106.940E-03    -9.86421E+06     107.269E+06     54.4670E+06    -6.07186E+06    -65.8203E-03     115.759E-03    -49.9386E-03     123.921E-03    -67.5048E-03     117.632E-03    -49.8075E-03     122.629E-03
            1108     16.2579E-03     107.054E-03    -5.01990E+06     117.723E+06     83.1756E+06    -2.66132E+06    -67.6247E-03     118.467E-03    -50.8425E-03     92.6939E-03    -68.9096E-03     119.911E-03    -50.5900E-03     91.6570E-03
            1109     858.852E-06     106.764E-03    -43.3028E+06    -84.0898E+06    -42.9807E+06    -4.58464E+06    -46.5232E-03     93.0524E-03    -46.5292E-03     10.7205E-03    -46.5565E-03     92.7579E-03    -46.5593E-03     10.6438E-03
            1110     1.71802E-03     106.776E-03    -42.6721E+06    -83.1068E+06    -40.7411E+06    -8.09436E+06    -46.3411E-03     92.8074E-03    -46.4663E-03     19.8016E-03    -46.3779E-03     92.5155E-03    -46.4877E-03     19.6642E-03
            1111     2.57731E-03     106.795E-03    -41.6996E+06    -80.9813E+06    -37.2541E+06    -11.1002E+06    -46.0721E-03     92.4206E-03    -46.3484E-03     29.4350E-03    -46.1157E-03     92.1363E-03    -46.3568E-03     29.2418E-03
            1112     3.43706E-03     106.822E-03    -40.3594E+06    -78.6760E+06    -32.5219E+06    -13.5716E+06    -45.7476E-03     91.9404E-03    -46.1928E-03     39.1738E-03    -45.8000E-03     91.6642E-03    -46.1828E-03     38.9301E-03
            1113     4.29722E-03     106.857E-03    -39.0976E+06    -76.6355E+06    -27.3471E+06    -15.1031E+06    -45.4346E-03     91.4433E-03    -46.0087E-03     48.9744E-03    -45.4987E-03     91.1755E-03    -45.9777E-03     48.6900E-03
            1114     5.15789E-03     106.899E-03    -38.2005E+06    -74.1660E+06    -22.3806E+06    -16.1756E+06    -45.2012E-03     91.0093E-03    -45.8081E-03     58.8144E-03    -45.2823E-03     90.7560E-03    -45.7570E-03     58.4918E-03
            1115     6.01886E-03     106.948E-03    -37.8616E+06    -71.6524E+06    -17.9031E+06    -16.8089E+06    -45.1394E-03     90.7479E-03    -45.6085E-03     68.6730E-03    -45.2440E-03     90.5153E-03    -45.5392E-03     68.3128E-03
            1116     6.88018E-03     107.006E-03    -37.7234E+06    -69.6213E+06    -13.8550E+06    -17.1283E+06    -45.3668E-03     90.7997E-03    -45.4329E-03     78.4999E-03    -45.5009E-03     90.5925E-03    -45.3465E-03     78.0984E-03
            1117     7.74141E-03     107.071E-03    -37.3382E+06    -66.8187E+06    -10.2941E+06    -17.8235E+06    -45.9932E-03     91.2968E-03    -45.3036E-03     88.2498E-03    -46.1653E-03     91.1287E-03    -45.2040E-03     87.7913E-03
            1118     8.60239E-03     107.144E-03    -36.8408E+06    -63.7576E+06    -7.02303E+06    -18.3973E+06    -47.1271E-03     92.3762E-03    -45.2492E-03     97.7857E-03    -47.3501E-03     92.2623E-03    -45.1384E-03     97.2562E-03
            1119     9.46241E-03     107.225E-03    -36.3820E+06    -60.3241E+06    -4.77181E+06    -19.1601E+06    -48.8408E-03     94.1333E-03    -45.2925E-03     106.849E-03    -49.1334E-03     94.0963E-03    -45.1761E-03     106.226E-03
            1120     10.3211E-03     107.314E-03    -35.2939E+06    -55.7834E+06    -3.30978E+06    -20.5067E+06    -51.1054E-03     96.5599E-03    -45.4545E-03     115.024E-03    -51.4911E-03     96.6319E-03    -45.3389E-03     114.274E-03
            1121     11.1780E-03     107.410E-03    -32.9212E+06    -56.5637E+06    -3.02256E+06    -21.6213E+06    -53.9044E-03     99.6605E-03    -45.7562E-03     122.322E-03    -54.4059E-03     99.8534E-03    -45.6415E-03     121.414E-03
            1122     12.0327E-03     107.514E-03    -29.0489E+06    -45.2354E+06    -842.678E+03    -20.7130E+06    -57.2313E-03     103.428E-03    -46.1962E-03     129.931E-03    -57.9255E-03     103.861E-03    -46.0927E-03     128.848E-03
            1123     12.8843E-03     107.627E-03    -23.7714E+06    -22.1706E+06     5.39886E+06    -18.4914E+06    -60.9462E-03     107.732E-03    -46.7854E-03     138.935E-03    -61.9502E-03     108.557E-03    -46.6918E-03     137.646E-03
            1124     13.7336E-03     107.753E-03    -18.5259E+06      28.517E+06     23.0289E+06    -16.0868E+06    -64.5589E-03     112.084E-03    -47.5250E-03     146.327E-03    -65.9841E-03     113.478E-03    -47.4243E-03     144.850E-03
            1125     14.5790E-03     107.886E-03    -13.8087E+06     75.7194E+06     36.7140E+06    -12.2572E+06    -67.5317E-03     115.901E-03    -48.3689E-03     139.903E-03    -69.1802E-03     117.663E-03    -48.2751E-03     138.399E-03
            1126     15.4228E-03     108.006E-03    -9.15875E+06     101.356E+06     55.2585E+06    -7.27220E+06    -70.2388E-03     119.613E-03    -49.3743E-03     127.489E-03    -71.9761E-03     121.518E-03    -49.2316E-03     126.041E-03
            1127     16.2615E-03     108.122E-03    -4.86016E+06     114.529E+06     81.6661E+06    -3.04229E+06    -72.3381E-03     122.859E-03    -50.5207E-03     96.0264E-03    -73.6664E-03     124.340E-03    -50.2714E-03     94.8503E-03
            1128     860.910E-06     107.803E-03    -41.2766E+06    -74.2891E+06    -40.9647E+06    -4.39516E+06    -44.2529E-03     88.5086E-03    -44.2558E-03     11.0709E-03    -44.2930E-03     88.2571E-03    -44.2930E-03     11.0007E-03
            1129     1.72186E-03     107.814E-03    -41.3724E+06    -74.5448E+06    -39.9210E+06    -7.49575E+06    -44.0122E-03     88.1913E-03    -44.1791E-03     20.4024E-03    -44.0557E-03     87.9385E-03    -44.2106E-03     20.2803E-03
            1130     2.58326E-03     107.833E-03    -41.4698E+06    -73.4308E+06    -38.3186E+06    -10.2048E+06    -43.7116E-03     87.7446E-03    -44.0330E-03     30.3521E-03    -43.7624E-03     87.4980E-03    -44.0580E-03     30.1821E-03
            1131     3.44500E-03     107.859E-03    -41.9031E+06     -72.659E+06    -35.6884E+06    -12.0432E+06    -43.3617E-03     87.2146E-03    -43.8529E-03     40.4519E-03    -43.4238E-03     86.9730E-03    -43.8653E-03     40.2439E-03
            1132     4.30728E-03     107.893E-03    -42.5244E+06    -72.2064E+06    -31.7650E+06    -12.9024E+06    -43.0389E-03     86.6909E-03    -43.6520E-03     50.6625E-03    -43.1167E-03     86.4530E-03    -43.6445E-03     50.4271E-03
            1133     5.16997E-03     107.935E-03    -43.3222E+06    -70.3418E+06    -26.9760E+06    -13.1016E+06    -42.8534E-03     86.2984E-03    -43.4450E-03     60.9719E-03    -42.9539E-03     86.0731E-03    -43.4151E-03     60.7142E-03
            1134     6.03310E-03     107.984E-03    -44.1977E+06    -68.4602E+06    -21.7804E+06    -13.1466E+06    -42.9469E-03     86.2045E-03    -43.2576E-03     71.3499E-03    -43.0752E-03     85.9956E-03    -43.2032E-03     71.0662E-03
            1135     6.89622E-03     108.041E-03    -44.5053E+06    -65.8756E+06    -16.8079E+06    -14.0203E+06    -43.4548E-03     86.5698E-03    -43.1149E-03     81.7254E-03    -43.6154E-03     86.3868E-03    -43.0389E-03     81.3963E-03
            1136     7.75915E-03     108.107E-03     -44.002E+06    -63.2422E+06    -12.1915E+06    -15.2710E+06    -44.4788E-03     87.5258E-03    -43.0470E-03     91.9846E-03    -44.6770E-03     87.3783E-03    -42.9525E-03     91.5924E-03
            1137     8.62126E-03     108.181E-03    -42.5270E+06    -60.1105E+06    -8.09389E+06    -16.6400E+06    -46.1010E-03     89.1807E-03    -43.0797E-03     102.035E-03    -46.3465E-03     89.0851E-03    -42.9713E-03     101.561E-03
            1138     9.48222E-03     108.264E-03    -39.3524E+06    -55.9621E+06    -4.59012E+06    -18.6894E+06    -48.3757E-03     91.6115E-03    -43.2358E-03     111.598E-03    -48.6815E-03     91.5922E-03    -43.1205E-03     111.010E-03
            1139     10.3413E-03     108.356E-03    -35.6288E+06    -51.9450E+06    -1.95761E+06    -20.2924E+06    -51.2924E-03     94.8307E-03    -43.5382E-03     120.201E-03    -51.6826E-03     94.9158E-03    -43.4210E-03     119.476E-03
            1140     11.1980E-03     108.455E-03    -32.4425E+06    -52.2871E+06    -988.767E+03    -22.4594E+06    -54.8309E-03     98.8375E-03    -44.0065E-03     127.894E-03    -55.3420E-03     99.0509E-03    -43.8886E-03     126.985E-03
            1141     12.0515E-03     108.563E-03    -28.2223E+06    -44.3334E+06     300.858E+03    -24.2946E+06    -58.9081E-03     103.545E-03    -44.6366E-03     135.892E-03    -59.6159E-03     103.995E-03    -44.5299E-03     134.753E-03
            1142     12.9022E-03     108.682E-03    -23.1970E+06    -24.5858E+06     5.67781E+06    -22.6077E+06    -63.4109E-03     108.850E-03    -45.4388E-03     144.939E-03    -64.4425E-03     109.696E-03    -45.3412E-03     143.555E-03
            1143     13.7487E-03     108.812E-03    -18.0964E+06     27.1980E+06     24.1755E+06    -18.9794E+06    -67.8955E-03     114.313E-03    -46.4172E-03     151.978E-03    -69.3768E-03     115.757E-03    -46.3095E-03     150.377E-03
            1144     14.5925E-03     108.951E-03    -12.9041E+06     69.9605E+06     37.6885E+06    -14.2808E+06    -71.5953E-03     119.118E-03    -47.5225E-03     144.873E-03    -73.3059E-03     120.922E-03    -47.4167E-03     143.218E-03
            1145     15.4310E-03     109.075E-03    -8.82456E+06     94.4754E+06      53.658E+06    -8.21990E+06    -74.9797E-03     123.766E-03    -48.7864E-03     132.317E-03    -76.7843E-03     125.720E-03    -48.6423E-03     130.692E-03
            1146     16.2674E-03     109.198E-03    -5.10198E+06     110.519E+06     79.4242E+06    -3.27776E+06    -77.3770E-03     127.573E-03    -50.1958E-03     100.061E-03    -78.7548E-03     129.095E-03    -49.9515E-03     98.7293E-03
            1147     863.157E-06     108.836E-03    -41.6085E+06    -65.8598E+06    -41.1748E+06    -3.55060E+06    -41.5272E-03     82.9496E-03    -41.4225E-03     11.3451E-03    -41.5808E-03     82.7407E-03    -41.4725E-03     11.2900E-03
            1148     1.72669E-03     108.847E-03    -42.6165E+06    -67.1413E+06    -41.8890E+06    -6.02377E+06    -41.2265E-03     82.6190E-03    -41.3925E-03     20.9689E-03    -41.2835E-03     82.4072E-03    -41.4428E-03     20.8737E-03
            1149     2.59042E-03     108.865E-03    -44.4723E+06    -67.4461E+06    -42.4106E+06    -7.87323E+06    -40.9094E-03     82.1457E-03    -41.2363E-03     31.2160E-03    -40.9767E-03     81.9378E-03    -41.2860E-03     31.0879E-03
            1150     3.45466E-03     108.891E-03    -46.8671E+06    -68.4834E+06    -41.1783E+06    -8.57069E+06    -40.5799E-03     81.6324E-03    -41.0525E-03     41.6567E-03    -40.6626E-03     81.4243E-03    -41.0911E-03     41.5095E-03
            1151     4.31927E-03     108.924E-03    -49.3830E+06    -69.0279E+06    -37.7065E+06    -8.73429E+06    -40.3420E-03     81.2039E-03    -40.8619E-03     52.2720E-03    -40.4464E-03     80.9966E-03    -40.8787E-03     52.1104E-03
            1152     5.18437E-03     108.965E-03    -51.1922E+06    -67.9246E+06    -32.0984E+06    -8.75774E+06    -40.3403E-03     81.0282E-03    -40.6879E-03     63.0055E-03    -40.4709E-03     80.8284E-03    -40.6757E-03     62.8276E-03
            1153     6.04954E-03     109.014E-03    -51.4338E+06    -65.2852E+06    -25.3319E+06    -9.41433E+06    -40.7302E-03     81.2868E-03    -40.5566E-03     73.8331E-03    -40.8873E-03     81.1025E-03    -40.5140E-03     73.6241E-03
            1154     6.91460E-03     109.072E-03    -50.3208E+06    -61.6021E+06    -18.5889E+06    -11.0765E+06    -41.6397E-03     82.1362E-03    -40.4964E-03     84.6983E-03    -41.8247E-03     81.9773E-03    -40.4271E-03     84.4356E-03
            1155     7.77890E-03     109.139E-03    -48.1533E+06    -59.1451E+06    -12.9396E+06    -13.2954E+06    -43.1660E-03     83.7028E-03    -40.5368E-03     95.4809E-03    -43.3808E-03     83.5739E-03    -40.4459E-03     95.1433E-03
            1156     8.64211E-03     109.215E-03    -44.7359E+06    -54.7114E+06    -7.97406E+06    -16.3471E+06    -45.3487E-03     86.0494E-03    -40.7008E-03     106.108E-03    -45.6045E-03     85.9752E-03    -40.5964E-03     105.665E-03
            1157     9.50352E-03     109.300E-03    -40.6442E+06    -50.2382E+06    -3.79311E+06    -20.0139E+06    -48.2080E-03     89.2203E-03    -41.0123E-03     116.260E-03    -48.5226E-03     89.2234E-03    -40.8995E-03     115.680E-03
            1158     10.3627E-03     109.396E-03    -35.9828E+06    -49.0900E+06    -1.40438E+06    -22.0444E+06    -51.7534E-03     93.2424E-03    -41.4890E-03     125.457E-03    -52.1473E-03     93.3386E-03    -41.3727E-03     124.728E-03
            1159     11.2190E-03     109.500E-03    -31.0860E+06    -46.1304E+06     868.164E+03    -24.2121E+06    -55.9836E-03     98.1306E-03    -42.1470E-03     133.829E-03    -56.5039E-03     98.3748E-03    -42.0307E-03     132.904E-03
            1160     12.0718E-03     109.613E-03    -26.7149E+06    -39.9665E+06     1.86381E+06    -27.4988E+06    -60.8699E-03     103.859E-03    -42.9889E-03     142.346E-03    -61.5975E-03     104.345E-03    -42.8829E-03     141.149E-03
            1161     12.9204E-03     109.737E-03    -21.9074E+06    -27.7891E+06     5.31446E+06    -26.3610E+06    -66.2604E-03     110.287E-03    -44.0269E-03     151.607E-03    -67.3212E-03     111.157E-03    -43.9282E-03     150.122E-03
            1162     13.7652E-03     109.874E-03    -17.4611E+06     24.0045E+06     23.8498E+06    -21.0320E+06    -71.5202E-03     116.781E-03    -45.2604E-03     158.456E-03    -73.0617E-03     118.277E-03    -45.1506E-03     156.728E-03
            1163     14.6047E-03     110.018E-03    -14.2336E+06     63.5530E+06     36.5655E+06    -15.8085E+06    -75.9517E-03     122.590E-03    -46.6383E-03     151.027E-03    -77.7428E-03     124.451E-03    -46.5270E-03     149.207E-03
            1164     15.4411E-03     110.149E-03    -9.90082E+06     86.9236E+06     50.1550E+06    -9.71571E+06    -79.9268E-03     128.097E-03    -48.1698E-03     138.246E-03    -81.8129E-03     130.112E-03    -48.0307E-03     136.418E-03
            1165     16.2726E-03     110.277E-03    -4.63147E+06     105.715E+06     76.8693E+06    -3.97620E+06    -82.7885E-03     132.647E-03    -49.8584E-03     104.394E-03    -84.2150E-03     134.210E-03    -49.6206E-03     102.880E-03
            1166     866.157E-06     109.863E-03    -47.7500E+06    -60.1066E+06    -47.4599E+06    -1.89181E+06    -38.2277E-03     76.4345E-03    -38.2068E-03     11.5031E-03    -38.3112E-03     76.2720E-03    -38.2877E-03     11.4732E-03
            1167     1.73226E-03     109.874E-03    -50.2951E+06    -62.2639E+06    -49.5905E+06    -3.15126E+06    -38.0023E-03     76.1408E-03    -38.1385E-03     21.3892E-03    -38.0932E-03     75.9749E-03    -38.2232E-03     21.3383E-03
            1168     2.59884E-03     109.892E-03    -53.7699E+06    -64.1954E+06    -50.5930E+06    -3.57100E+06    -37.7373E-03     75.7402E-03    -38.0029E-03     31.8915E-03    -37.8426E-03     75.5725E-03    -38.0848E-03     31.8297E-03
            1169     3.46573E-03     109.917E-03    -57.1279E+06    -66.3175E+06    -48.8414E+06    -3.60084E+06    -37.5294E-03     75.3846E-03    -37.8552E-03     42.6302E-03    -37.6530E-03     75.2108E-03    -37.9205E-03     42.5614E-03
            1170     4.33306E-03     109.949E-03    -59.1216E+06    -66.8827E+06    -43.8069E+06    -3.90552E+06    -37.5331E-03     75.2576E-03    -37.7245E-03     53.5682E-03    -37.6768E-03     75.0803E-03    -37.7609E-03     53.4863E-03
            1171     5.20039E-03     109.990E-03    -59.1005E+06    -65.4105E+06    -36.2525E+06    -4.98727E+06    -37.8785E-03     75.5168E-03    -37.6383E-03     64.6646E-03    -38.0412E-03     75.3420E-03    -37.6390E-03     64.5553E-03
            1172     6.06763E-03     110.040E-03    -57.1461E+06    -61.2818E+06    -27.7855E+06    -7.16770E+06    -38.6758E-03     76.2940E-03    -37.6182E-03     75.9176E-03    -38.8573E-03     76.1352E-03    -37.5854E-03     75.7597E-03
            1173     6.93423E-03     110.099E-03    -53.6565E+06    -57.1105E+06    -19.8187E+06    -9.83308E+06    -40.0419E-03     77.7319E-03    -37.6900E-03     87.2831E-03    -40.2408E-03     77.5947E-03    -37.6285E-03     87.0601E-03
            1174     7.79989E-03     110.167E-03    -49.2256E+06    -53.3462E+06    -13.1183E+06    -13.2286E+06    -42.0726E-03     79.9516E-03    -37.8790E-03     98.6713E-03    -42.2927E-03     79.8454E-03    -37.7958E-03     98.3589E-03
            1175     8.66385E-03     110.246E-03    -44.3879E+06    -48.0413E+06    -7.33733E+06    -17.3418E+06    -44.7914E-03     82.9996E-03    -38.2082E-03     109.974E-03    -45.0481E-03     82.9494E-03    -38.1109E-03     109.543E-03
            1176     9.52577E-03     110.335E-03    -39.9042E+06    -43.9853E+06    -3.05745E+06    -20.8814E+06    -48.2176E-03     86.9159E-03    -38.6982E-03     120.892E-03    -48.5322E-03     86.9417E-03    -38.5919E-03     120.322E-03
            1177     10.3849E-03     110.434E-03    -35.5527E+06    -44.3318E+06    -913.086E+03    -24.5617E+06    -52.3754E-03     91.7419E-03    -39.3665E-03     130.917E-03    -52.7723E-03     91.8582E-03    -39.2553E-03     130.170E-03
            1178     11.2407E-03     110.543E-03    -30.4321E+06    -40.5795E+06     1.76736E+06    -27.4459E+06    -57.2523E-03     97.4795E-03    -40.2272E-03     140.125E-03    -57.7835E-03     97.7541E-03    -40.1154E-03     139.163E-03
            1179     12.0924E-03     110.663E-03    -25.8801E+06    -34.1092E+06     4.04895E+06    -29.7040E+06    -62.9421E-03     104.234E-03    -41.2922E-03     149.465E-03    -63.6969E-03     104.765E-03    -41.1850E-03     148.222E-03
            1180     12.9395E-03     110.794E-03    -22.3204E+06    -30.2210E+06     4.99187E+06    -29.6304E+06    -69.2518E-03     111.822E-03    -42.5701E-03     159.319E-03    -70.3544E-03     112.725E-03    -42.4690E-03     157.734E-03
            1181     13.7812E-03     110.938E-03    -17.9543E+06     17.2067E+06     21.2722E+06    -23.4150E+06    -75.2780E-03     119.334E-03    -44.0558E-03     166.150E-03    -76.8839E-03     120.877E-03    -43.9484E-03     164.280E-03
            1182     14.6192E-03     111.090E-03    -13.6142E+06     58.0896E+06     35.7060E+06    -16.2772E+06    -80.5138E-03     126.225E-03    -45.7113E-03     158.446E-03    -82.3898E-03     128.157E-03    -45.5972E-03     156.458E-03
            1183     15.4506E-03     111.226E-03    -10.2659E+06     80.2082E+06     48.7820E+06    -11.3311E+06    -85.3732E-03     132.908E-03    -47.5353E-03     144.955E-03    -87.3556E-03     134.999E-03    -47.3928E-03     142.890E-03
            1184     16.2783E-03     111.362E-03    -5.55944E+06     98.7297E+06     74.7490E+06    -5.70226E+06    -88.7279E-03     138.253E-03    -49.5251E-03     109.555E-03    -90.2209E-03     139.861E-03    -49.2865E-03     107.813E-03
            1185     869.103E-06     110.883E-03    -62.1896E+06    -59.6404E+06    -60.7695E+06     1.77835E+06    -34.5689E-03     69.2128E-03    -34.6439E-03     11.6274E-03    -34.7058E-03     69.0926E-03    -34.7711E-03     11.6481E-03
            1186     1.73858E-03     110.894E-03    -66.0481E+06    -61.2335E+06    -62.4430E+06     2.00690E+06    -34.4673E-03     69.0197E-03    -34.5524E-03     21.5564E-03    -34.6192E-03     68.8998E-03    -34.6801E-03     21.5779E-03
            1187     2.60811E-03     110.911E-03    -69.2457E+06    -63.3804E+06    -61.5304E+06     1.76142E+06    -34.3748E-03     68.8509E-03    -34.4761E-03     32.2137E-03    -34.5416E-03     68.7243E-03    -34.5914E-03     32.2293E-03
            1188     3.47793E-03     110.936E-03    -70.0923E+06    -64.6401E+06    -56.9871E+06     536.948E+03    -34.4583E-03     68.8767E-03    -34.4184E-03     43.1709E-03    -34.6353E-03     68.7398E-03    -34.5079E-03     43.1666E-03
            1189     4.34765E-03     110.968E-03    -68.1800E+06    -64.4016E+06    -49.3417E+06    -1.54455E+06    -34.8343E-03     69.2395E-03    -34.4052E-03     54.3780E-03    -35.0157E-03     69.0927E-03    -34.4597E-03     54.3399E-03
            1190     5.21725E-03     111.010E-03    -64.1204E+06    -61.7918E+06    -39.7437E+06    -4.14258E+06    -35.5999E-03     70.0571E-03    -34.4572E-03     65.8202E-03    -35.7837E-03     69.9086E-03    -34.4734E-03     65.7371E-03
            1191     6.08622E-03     111.060E-03    -59.0919E+06    -56.6501E+06    -29.7143E+06    -7.06975E+06    -36.8460E-03     71.4387E-03    -34.5926E-03     77.5085E-03    -37.0358E-03     71.3033E-03    -34.5734E-03     77.3691E-03
            1192     6.95435E-03     111.121E-03    -53.8012E+06    -51.6018E+06    -20.9621E+06    -10.6245E+06    -38.6650E-03     73.4958E-03    -34.8307E-03     89.4218E-03    -38.8645E-03     73.3815E-03    -34.7827E-03     89.2076E-03
            1193     7.82100E-03     111.191E-03    -48.0532E+06    -46.3775E+06    -13.5273E+06    -14.9613E+06    -41.1285E-03     76.3206E-03    -35.1920E-03     101.504E-03    -41.3448E-03     76.2407E-03    -35.1227E-03     101.190E-03
            1194     8.68581E-03     111.273E-03    -42.3837E+06    -41.3139E+06    -7.18103E+06    -19.0506E+06    -44.3018E-03     80.0007E-03    -35.6989E-03     113.612E-03    -44.5504E-03     79.9731E-03    -35.6135E-03     113.181E-03
            1195     9.54807E-03     111.366E-03    -37.0072E+06    -37.8710E+06    -2.15699E+06    -22.4132E+06    -48.2479E-03     84.6203E-03    -36.3724E-03     125.456E-03    -48.5510E-03     84.6641E-03    -36.2746E-03     124.888E-03
            1196     10.4073E-03     111.471E-03    -32.2106E+06    -36.9266E+06     1.32164E+06    -26.1783E+06    -52.9945E-03     90.2271E-03    -37.2326E-03     136.502E-03    -53.3849E-03     90.3687E-03    -37.1258E-03     135.751E-03
            1197     11.2625E-03     111.586E-03    -28.1170E+06    -34.9172E+06     3.51064E+06    -30.0856E+06    -58.5536E-03     96.8473E-03    -38.2937E-03     146.804E-03    -59.0877E-03     97.1482E-03    -38.1847E-03     145.814E-03
            1198     12.1135E-03     111.712E-03    -23.5930E+06    -29.5950E+06     6.49025E+06    -32.1324E+06    -64.9651E-03     104.540E-03    -39.5750E-03     157.277E-03    -65.7352E-03     105.104E-03    -39.4654E-03     155.989E-03
            1199     12.9590E-03     111.852E-03    -19.0863E+06    -30.9322E+06     6.56665E+06    -31.7222E+06    -72.1048E-03     113.185E-03    -41.0799E-03     167.880E-03    -73.2325E-03     114.117E-03    -40.9746E-03     166.216E-03
            1200     13.7992E-03     112.004E-03    -14.4380E+06     8.81208E+06     19.4674E+06    -26.3619E+06    -79.1655E-03     121.974E-03    -42.8081E-03     174.827E-03    -80.8170E-03     123.550E-03    -42.7026E-03     172.801E-03
            1201     14.6329E-03     112.164E-03    -9.77784E+06     49.6996E+06     34.9769E+06    -17.1832E+06    -85.3765E-03     130.122E-03    -44.7454E-03     167.014E-03    -87.3309E-03     132.119E-03    -44.6284E-03     164.827E-03
            1202     15.4614E-03     112.310E-03    -6.43213E+06     75.2514E+06     51.8179E+06    -9.81332E+06    -91.1691E-03     138.054E-03    -46.8848E-03     153.133E-03    -93.2520E-03     140.233E-03    -46.7255E-03     150.841E-03
            1203     16.2835E-03     112.452E-03    -3.77797E+06     92.7819E+06     75.8222E+06    -5.65854E+06    -95.1248E-03     144.311E-03    -49.1864E-03     115.799E-03    -96.6875E-03     145.971E-03    -48.9363E-03     113.824E-03
            1204     872.626E-06     111.895E-03    -91.2105E+06    -64.8791E+06    -89.9441E+06     3.67003E+06    -30.8429E-03     61.6687E-03    -30.8258E-03     11.6028E-03    -31.0749E-03     61.6066E-03    -31.0492E-03     11.6502E-03
            1205     1.74504E-03     111.906E-03    -88.4562E+06    -63.1901E+06    -83.4343E+06     4.69181E+06    -30.9143E-03     61.7614E-03    -30.8471E-03     21.4534E-03    -31.1445E-03     61.6942E-03    -31.0443E-03     21.5137E-03
            1206     2.61768E-03     111.923E-03    -84.5062E+06    -62.8696E+06    -74.6933E+06     3.50853E+06    -31.1379E-03     62.0335E-03    -30.8956E-03     32.1347E-03    -31.3616E-03     61.9497E-03    -31.0554E-03     32.1787E-03
            1207     3.49005E-03     111.948E-03    -79.6441E+06    -62.0047E+06    -65.2949E+06     908.166E+03    -31.6028E-03     62.5855E-03    -30.9827E-03     43.1808E-03    -31.8177E-03     62.4862E-03    -31.1038E-03     43.1887E-03
            1208     4.36220E-03     111.981E-03    -73.8166E+06    -59.8332E+06    -55.0330E+06    -3.02777E+06    -32.3736E-03     63.5004E-03    -31.1268E-03     54.5914E-03    -32.5792E-03     63.3905E-03    -31.2082E-03     54.5433E-03
            1209     5.23369E-03     112.024E-03    -66.5962E+06    -56.9685E+06    -44.1854E+06    -7.21614E+06    -33.5475E-03     64.8919E-03    -31.3444E-03     66.3645E-03    -33.7408E-03     64.7743E-03    -31.3862E-03     66.2526E-03
            1210     6.10439E-03     112.076E-03    -58.4923E+06    -52.0073E+06    -33.0123E+06    -10.3680E+06    -35.2063E-03     66.8585E-03    -31.6523E-03     78.4976E-03    -35.3905E-03     66.7459E-03    -31.6571E-03     78.3286E-03
            1211     6.97372E-03     112.138E-03    -50.3567E+06    -45.0799E+06    -22.3608E+06    -13.8362E+06    -37.4100E-03     69.4754E-03    -32.0654E-03     91.0069E-03    -37.5938E-03     69.3851E-03    -32.0388E-03     90.7668E-03
            1212     7.84145E-03     112.212E-03    -43.2422E+06    -39.5940E+06    -13.6555E+06    -17.7088E+06    -40.2371E-03     72.8372E-03    -32.6001E-03     103.841E-03    -40.4316E-03     72.7772E-03    -32.5483E-03     103.510E-03
            1213     8.70701E-03     112.297E-03    -37.6159E+06    -35.0334E+06    -6.32381E+06    -20.8495E+06    -43.7978E-03     77.0765E-03    -33.2787E-03     116.852E-03    -44.0244E-03     77.0637E-03    -33.2050E-03     116.418E-03
            1214     9.56984E-03     112.395E-03    -33.2240E+06    -31.7642E+06    -350.976E+03    -23.9178E+06    -48.1818E-03     82.3057E-03    -34.1239E-03     129.741E-03    -48.4687E-03     82.3633E-03    -34.0315E-03     129.175E-03
            1215     10.4291E-03     112.505E-03    -28.9950E+06    -29.0480E+06     4.27239E+06    -27.8641E+06    -53.4419E-03     88.5983E-03    -35.1565E-03     142.005E-03    -53.8242E-03     88.7629E-03    -35.0510E-03     141.253E-03
            1216     11.2844E-03     112.627E-03    -24.8763E+06    -28.3626E+06     7.04265E+06    -31.3043E+06    -59.6489E-03     96.0477E-03    -36.3988E-03     153.641E-03    -60.1791E-03     96.3694E-03    -36.2864E-03     152.647E-03
            1217     12.1343E-03     112.761E-03    -22.4273E+06    -25.3233E+06      8.9416E+06    -33.3502E+06    -66.7954E-03     104.665E-03    -37.8700E-03     165.462E-03    -67.5782E-03     105.254E-03    -37.7561E-03     164.153E-03
            1218     12.9788E-03     112.910E-03    -19.8584E+06    -29.0732E+06     8.22570E+06    -34.7444E+06    -74.8519E-03     114.437E-03    -39.5851E-03     177.095E-03    -76.0186E-03     115.408E-03    -39.4730E-03     175.349E-03
            1219     13.8166E-03     113.072E-03    -15.5362E+06    -954.181E+03     15.4132E+06    -30.2579E+06    -83.0667E-03     124.606E-03    -41.5397E-03     184.383E-03    -84.7758E-03     126.214E-03    -41.4387E-03     182.188E-03
            1220     14.6483E-03     113.243E-03    -11.0463E+06     37.0922E+06     30.3778E+06    -19.3925E+06    -90.2923E-03     134.042E-03    -43.7497E-03     176.501E-03    -92.3426E-03     136.099E-03    -43.6356E-03     174.084E-03
            1221     15.4722E-03     113.398E-03    -7.09137E+06     68.1642E+06     49.1064E+06    -9.88499E+06    -97.1889E-03     143.380E-03    -46.1912E-03     162.477E-03    -99.3985E-03     145.667E-03    -46.0342E-03     159.905E-03
            1222     16.2903E-03     113.551E-03    -3.02525E+06     86.7936E+06     73.9227E+06    -4.97014E+06    -101.874E-03     150.693E-03    -48.8192E-03     122.348E-03    -103.520E-03     152.424E-03    -48.5710E-03     120.108E-03
            1223     875.582E-06     112.900E-03    -119.902E+06    -68.2143E+06    -120.079E+06    -199.645E+03    -27.4347E-03     54.7081E-03    -27.2734E-03     11.2594E-03    -27.7614E-03     54.7146E-03    -27.6010E-03     11.2579E-03
            1224     1.75128E-03     112.911E-03    -112.098E+06    -63.6751E+06    -110.627E+06    -1.12386E+06    -27.6922E-03     55.1051E-03    -27.4129E-03     20.9167E-03    -28.0001E-03     55.1091E-03    -27.7112E-03     20.9038E-03
            1225     2.62643E-03     112.928E-03    -101.701E+06    -60.2278E+06    -97.2113E+06    -3.24137E+06    -28.2421E-03     55.8243E-03    -27.5822E-03     31.5124E-03    -28.5224E-03     55.8110E-03    -27.8334E-03     31.4722E-03
            1226     3.50124E-03     112.954E-03    -89.9014E+06    -57.9733E+06    -81.1047E+06    -6.21007E+06    -29.0650E-03     56.8918E-03    -27.8268E-03     42.5791E-03    -29.3131E-03     56.8497E-03    -28.0179E-03     42.4992E-03
            1227     4.37533E-03     112.989E-03    -77.7979E+06    -53.1224E+06    -64.8861E+06    -10.1480E+06    -30.2020E-03     58.3389E-03    -28.1368E-03     54.1112E-03    -30.4213E-03     58.2812E-03    -28.2714E-03     53.9766E-03
            1228     5.24865E-03     113.033E-03    -66.4970E+06    -50.9364E+06    -50.4648E+06    -14.3799E+06    -31.7332E-03     60.2559E-03    -28.5227E-03     66.1447E-03    -31.9233E-03     60.1751E-03    -28.6047E-03     65.9475E-03
            1229     6.12073E-03     113.087E-03    -55.9409E+06    -47.2041E+06    -37.2414E+06    -17.3597E+06    -33.7040E-03     62.6973E-03    -28.9933E-03     78.6870E-03    -33.8727E-03     62.6076E-03    -29.0299E-03     78.4373E-03
            1230     6.99141E-03     113.152E-03    -46.7977E+06    -39.4258E+06    -25.3484E+06    -19.4115E+06    -36.1763E-03     65.7338E-03    -29.5575E-03     91.7519E-03    -36.3409E-03     65.6657E-03    -29.5592E-03     91.4526E-03
            1231     7.86019E-03     113.229E-03    -39.7091E+06    -34.1164E+06    -14.7674E+06    -21.2202E+06    -39.3050E-03     69.5481E-03    -30.2431E-03     105.337E-03    -39.4808E-03     69.5047E-03    -30.2099E-03     104.977E-03
            1232     8.72657E-03     113.318E-03    -33.8175E+06    -29.6357E+06    -5.28420E+06    -23.2444E+06    -43.1888E-03     74.2586E-03    -31.0699E-03     119.284E-03    -43.3960E-03     74.2561E-03    -31.0043E-03     118.840E-03
            1233     9.58994E-03     113.421E-03    -28.4839E+06    -26.1715E+06     2.47179E+06    -25.2741E+06    -47.9267E-03     79.9840E-03    -32.0573E-03     133.312E-03    -48.1899E-03     80.0463E-03    -31.9657E-03     132.752E-03
            1234     10.4497E-03     113.537E-03    -25.1504E+06    -21.2601E+06     8.33413E+06    -27.8485E+06    -53.6162E-03     86.8452E-03    -33.2290E-03     146.916E-03    -53.9826E-03     87.0233E-03    -33.1200E-03     146.191E-03
            1235     11.3048E-03     113.667E-03    -23.7512E+06    -22.3173E+06     10.5522E+06    -31.0856E+06    -60.3815E-03     94.9971E-03    -34.6156E-03     160.055E-03    -60.9069E-03     95.3294E-03    -34.4960E-03     159.088E-03
            1236     12.1548E-03     113.810E-03    -22.0163E+06    -20.7970E+06     12.0871E+06    -32.6893E+06    -68.3077E-03     104.551E-03    -36.2432E-03     173.370E-03    -69.0927E-03     105.150E-03    -36.1207E-03     172.080E-03
            1237     12.9982E-03     113.969E-03    -20.4147E+06    -22.8164E+06     12.2547E+06    -35.3784E+06    -77.3281E-03     115.468E-03    -38.1396E-03     186.537E-03    -78.5213E-03     116.474E-03    -38.0156E-03     184.760E-03
            1238     13.8344E-03     114.143E-03    -17.9151E+06    -10.3573E+06     13.5433E+06    -33.8717E+06    -86.7782E-03     127.079E-03    -40.3012E-03     194.926E-03    -88.5340E-03     128.698E-03    -40.1925E-03     192.582E-03
            1239     14.6625E-03     114.324E-03    -13.1897E+06     21.4948E+06     26.0248E+06    -22.6131E+06    -95.3937E-03     138.159E-03    -42.7654E-03     187.023E-03    -97.5464E-03     140.269E-03    -42.6474E-03     184.340E-03
            1240     15.4835E-03     114.492E-03    -8.66759E+06     61.1085E+06     47.4084E+06    -12.5201E+06    -103.254E-03     148.758E-03    -45.5046E-03     172.711E-03    -105.608E-03     151.164E-03    -45.3436E-03     169.804E-03
            1241     16.2955E-03     114.656E-03    -4.43309E+06     79.1685E+06     72.7805E+06    -5.43786E+06    -108.640E-03     157.095E-03    -48.4549E-03     130.407E-03    -110.384E-03     158.895E-03    -48.1994E-03     127.881E-03
            1242     878.125E-06     113.898E-03    -114.529E+06    -62.9924E+06    -114.351E+06    -4.91763E+06    -24.8659E-03     49.5623E-03    -24.6964E-03     10.5493E-03    -25.1814E-03     49.5791E-03    -25.0107E-03     10.4867E-03
            1243     1.75581E-03     113.909E-03    -110.264E+06    -57.9243E+06    -109.217E+06    -8.82334E+06    -25.2572E-03     50.1128E-03    -24.8556E-03     19.8110E-03    -25.5662E-03     50.1411E-03    -25.1578E-03     19.6986E-03
            1244     2.63331E-03     113.928E-03    -103.506E+06    -53.5552E+06    -100.282E+06    -12.8077E+06    -25.9610E-03     51.0360E-03    -25.0750E-03     30.0084E-03    -26.2553E-03     51.0633E-03    -25.3487E-03     29.8447E-03
            1245     3.51005E-03     113.955E-03    -94.5193E+06    -50.7676E+06    -88.4113E+06    -16.9631E+06    -26.9646E-03     52.3465E-03    -25.3819E-03     40.8853E-03    -27.2353E-03     52.3576E-03    -25.6133E-03     40.6672E-03
            1246     4.38598E-03     113.991E-03    -84.3398E+06    -45.2307E+06    -75.7390E+06    -20.8779E+06    -28.3126E-03     54.0777E-03    -25.7651E-03     52.4619E-03    -28.5597E-03     54.0842E-03    -25.9559E-03     52.1907E-03
            1247     5.26073E-03     114.037E-03    -73.6516E+06    -43.3568E+06    -61.9104E+06    -24.6214E+06    -30.0757E-03     56.3213E-03    -26.2456E-03     64.7347E-03    -30.2945E-03     56.3041E-03    -26.3855E-03     64.4093E-03
            1248     6.13417E-03     114.094E-03    -62.5589E+06    -41.6584E+06     -47.365E+06    -27.5667E+06    -32.2721E-03     59.0971E-03    -26.8251E-03     77.6297E-03    -32.4645E-03     59.0569E-03    -26.9108E-03     77.2549E-03
            1249     7.00598E-03     114.161E-03    -51.2122E+06    -35.8522E+06    -32.4783E+06    -28.1940E+06    -34.9730E-03     62.4772E-03    -27.5042E-03     91.1398E-03    -35.1499E-03     62.4392E-03    -27.5404E-03     90.7373E-03
            1250     7.87580E-03     114.242E-03    -40.7599E+06    -30.9557E+06    -17.8327E+06    -27.4152E+06    -38.3035E-03     66.6066E-03    -28.3031E-03     105.351E-03    -38.4771E-03     66.5775E-03    -28.2882E-03     104.927E-03
            1251     8.74304E-03     114.336E-03    -33.0144E+06    -26.1516E+06    -5.41431E+06    -26.7527E+06    -42.3947E-03     71.6278E-03    -29.2332E-03     120.184E-03    -42.5910E-03     71.6301E-03    -29.1745E-03     119.716E-03
            1252     9.60724E-03     114.444E-03    -28.1804E+06    -21.6663E+06     4.01072E+06    -27.0993E+06    -47.4007E-03     77.7177E-03    -30.3170E-03     135.366E-03    -47.6541E-03     77.7830E-03    -30.2247E-03     134.811E-03
            1253     10.4675E-03     114.567E-03    -24.2960E+06    -16.1403E+06     11.1107E+06    -27.8045E+06    -53.4276E-03     85.0102E-03    -31.5826E-03     150.342E-03    -53.7782E-03     85.1857E-03    -31.4684E-03     149.652E-03
            1254     11.3232E-03     114.705E-03    -20.9656E+06    -15.6004E+06     15.8115E+06    -29.7486E+06    -60.7201E-03     93.7921E-03    -33.0720E-03     165.130E-03    -61.2212E-03     94.1187E-03    -32.9399E-03     164.218E-03
            1255     12.1729E-03     114.857E-03    -18.4193E+06    -17.1693E+06     17.8062E+06    -31.7420E+06    -69.3551E-03     104.170E-03    -34.8153E-03     180.194E-03    -70.1043E-03     104.743E-03    -34.6747E-03     178.950E-03
            1256     13.0159E-03     115.027E-03    -17.0607E+06    -15.2763E+06     19.2768E+06    -32.9787E+06    -79.1314E-03     115.972E-03    -36.8401E-03     195.172E-03    -80.2982E-03     116.970E-03    -36.6968E-03     193.443E-03
            1257     13.8512E-03     115.213E-03    -17.1939E+06    -13.4016E+06     17.4710E+06    -33.1168E+06    -89.7711E-03     128.930E-03    -39.1591E-03     205.650E-03    -91.5236E-03     130.526E-03    -39.0274E-03     203.272E-03
            1258     14.6776E-03     115.410E-03    -15.9851E+06     6.10616E+06     22.8387E+06    -26.2227E+06    -100.134E-03     141.952E-03    -41.8189E-03     199.562E-03    -102.381E-03     144.103E-03    -41.6904E-03     196.620E-03
            1259     15.4931E-03     115.590E-03    -10.7665E+06     52.5851E+06     47.8487E+06    -15.8617E+06    -109.320E-03     154.156E-03    -44.8362E-03     184.418E-03    -111.851E-03     156.701E-03    -44.6576E-03     181.132E-03
            1260     16.3034E-03     115.767E-03    -5.10677E+06     69.3747E+06     74.4336E+06    -6.78767E+06    -115.437E-03     163.539E-03    -48.1026E-03     139.729E-03    -117.296E-03     165.414E-03    -47.8236E-03     136.876E-03
            1261     879.276E-06     114.893E-03    -83.9285E+06    -51.4050E+06    -82.2731E+06      -6.492E+06    -23.5156E-03     47.0080E-03    -23.4924E-03     9.50392E-03    -23.7413E-03     46.9921E-03    -23.7076E-03     9.42004E-03
            1262     1.75850E-03     114.904E-03    -81.8215E+06    -47.2939E+06    -77.3714E+06    -11.2484E+06    -24.0012E-03     47.5988E-03    -23.5977E-03     17.9843E-03    -24.2296E-03     47.5932E-03    -23.7973E-03     17.8388E-03
            1263     2.63702E-03     114.924E-03    -79.4864E+06    -43.2596E+06    -71.8196E+06    -16.0395E+06    -24.7101E-03     48.5355E-03    -23.8254E-03     27.3870E-03    -24.9409E-03     48.5387E-03    -24.0065E-03     27.1791E-03
            1264     3.51504E-03     114.952E-03    -76.8904E+06    -39.8906E+06    -66.7103E+06    -21.1790E+06    -25.6916E-03     49.8151E-03    -24.1235E-03     37.5844E-03    -25.9220E-03     49.8243E-03    -24.2877E-03     37.3092E-03
            1265     4.39222E-03     114.990E-03    -73.6178E+06    -35.5084E+06    -60.8792E+06    -26.1238E+06    -26.9975E-03     51.4939E-03    -24.4964E-03     48.7262E-03    -27.2272E-03     51.5127E-03    -24.6426E-03     48.3850E-03
            1266     5.26835E-03     115.038E-03    -69.3324E+06    -33.6210E+06    -53.6089E+06    -30.6540E+06    -28.7293E-03     53.6919E-03    -24.9626E-03     60.8715E-03    -28.9527E-03     53.7053E-03    -25.0813E-03     60.4676E-03
            1267     6.14294E-03     115.097E-03    -64.0222E+06    -33.7346E+06    -45.2523E+06    -34.7462E+06    -30.9735E-03     56.5079E-03    -25.5344E-03     73.9493E-03    -31.1867E-03     56.5053E-03    -25.6189E-03     73.4841E-03
            1268     7.01573E-03     115.168E-03    -57.1415E+06    -31.8320E+06    -35.6356E+06    -36.9022E+06    -33.7776E-03     59.9974E-03    -26.2198E-03     87.9279E-03    -33.9819E-03     59.9893E-03    -26.2690E-03     87.4196E-03
            1269     7.88631E-03     115.252E-03    -48.1436E+06     -28.962E+06    -23.8452E+06    -36.6083E+06    -37.2060E-03     64.2419E-03    -27.0359E-03     102.765E-03    -37.4033E-03     64.2348E-03    -27.0434E-03     102.234E-03
            1270     8.75451E-03     115.351E-03    -37.5761E+06    -25.9174E+06    -9.67399E+06    -33.9989E+06    -41.4207E-03     69.4223E-03    -28.0016E-03     118.412E-03    -41.6204E-03     69.4250E-03    -27.9579E-03     117.871E-03
            1271     9.61944E-03     115.464E-03    -27.9716E+06    -20.2361E+06     4.38793E+06    -30.6166E+06    -46.5785E-03     75.7073E-03    -29.1288E-03     134.611E-03    -46.8111E-03     75.7566E-03    -29.0370E-03     134.042E-03
            1272     10.4805E-03     115.594E-03    -22.0867E+06    -13.7562E+06     14.8364E+06    -28.6130E+06    -52.8517E-03     83.2898E-03    -30.4381E-03     150.929E-03    -53.1667E-03     83.4353E-03    -30.3119E-03     150.272E-03
            1273     11.3367E-03     115.740E-03    -19.5873E+06    -10.0043E+06     21.7090E+06    -28.3887E+06    -60.4902E-03     92.4623E-03    -31.9721E-03     167.512E-03    -60.9530E-03     92.7582E-03    -31.8206E-03     166.674E-03
            1274     12.1869E-03     115.903E-03    -18.4760E+06    -11.6770E+06     24.2498E+06    -30.5557E+06    -69.5579E-03     103.323E-03    -33.7647E-03     184.549E-03    -70.2580E-03     103.847E-03    -33.5998E-03     183.389E-03
            1275     13.0301E-03     116.084E-03    -17.0331E+06    -12.0903E+06     25.1493E+06    -31.2553E+06    -79.8770E-03     115.719E-03    -35.8420E-03     201.716E-03    -80.9693E-03     116.637E-03    -35.6740E-03     200.087E-03
            1276     13.8653E-03     116.284E-03    -15.1973E+06    -10.8046E+06     25.1892E+06    -30.5455E+06    -91.3051E-03     129.536E-03    -38.2311E-03     215.330E-03    -92.9774E-03     131.046E-03    -38.0675E-03     213.038E-03
            1277     14.6908E-03     116.496E-03    -12.2999E+06    -4.49946E+06     26.5810E+06    -26.8353E+06    -103.452E-03     144.445E-03    -40.9930E-03     212.936E-03    -105.705E-03     146.566E-03    -40.8357E-03     209.873E-03
            1278     15.5057E-03     116.695E-03    -9.16278E+06     39.0710E+06     48.5214E+06    -16.0573E+06    -114.838E-03     159.038E-03    -44.1992E-03     197.322E-03    -117.538E-03     161.707E-03    -44.0000E-03     193.672E-03
            1279     16.3076E-03     116.883E-03    -5.44228E+06     60.4873E+06     75.2806E+06    -8.05347E+06    -122.248E-03     169.994E-03    -47.7463E-03     150.483E-03    -124.268E-03     171.995E-03    -47.4497E-03     147.239E-03
            1280     879.286E-06     115.886E-03    -53.5988E+06    -38.8005E+06    -51.7874E+06    -6.07386E+06    -23.7602E-03     47.5066E-03    -23.7464E-03     8.22183E-03    -23.8969E-03     47.4656E-03    -23.8713E-03     8.14164E-03
            1281     1.75817E-03     115.898E-03    -52.2742E+06    -35.7655E+06    -47.2113E+06    -10.6090E+06    -24.2272E-03     48.0796E-03    -23.8524E-03     15.4429E-03    -24.3687E-03     48.0454E-03    -23.9608E-03     15.3025E-03
            1282     2.63688E-03     115.919E-03    -49.8296E+06    -31.9865E+06    -41.0131E+06    -15.2197E+06    -24.8803E-03     48.9605E-03    -24.0801E-03     23.5578E-03    -25.0247E-03     48.9332E-03    -24.1666E-03     23.3558E-03
            1283     3.51486E-03     115.948E-03    -46.9770E+06    -28.3255E+06    -33.6643E+06    -19.9010E+06    -25.7674E-03     50.1454E-03    -24.3780E-03     32.4531E-03    -25.9143E-03     50.1225E-03    -24.4371E-03     32.1883E-03
            1284     4.39212E-03     115.987E-03    -44.8779E+06    -24.8733E+06    -27.0119E+06    -24.2315E+06    -26.8826E-03     51.6178E-03    -24.7352E-03     42.3508E-03    -27.0350E-03     51.6008E-03    -24.7691E-03     42.0270E-03
            1285     5.26849E-03     116.036E-03    -44.1697E+06    -22.8918E+06    -23.0095E+06    -28.3777E+06    -28.3077E-03     53.4539E-03    -25.1462E-03     53.4688E-03    -28.4672E-03     53.4420E-03    -25.1640E-03     53.0875E-03
            1286     6.14376E-03     116.098E-03    -44.4310E+06    -23.3862E+06    -20.8411E+06    -32.7663E+06    -30.2056E-03     55.8356E-03    -25.6300E-03     65.9659E-03    -30.3724E-03     55.8221E-03    -25.6358E-03     65.5217E-03
            1287     7.01734E-03     116.172E-03    -44.5747E+06    -23.8243E+06    -18.7614E+06    -36.9748E+06    -32.7228E-03     58.9355E-03    -26.2127E-03     79.8808E-03    -32.8991E-03     58.9235E-03    -26.2073E-03     79.3716E-03
            1288     7.88894E-03     116.260E-03    -43.1952E+06    -23.9873E+06    -15.2402E+06    -39.9225E+06    -35.9972E-03     62.9217E-03    -26.9245E-03     95.1527E-03    -36.1836E-03     62.9140E-03    -26.9033E-03     94.5865E-03
            1289     8.75768E-03     116.363E-03    -38.9278E+06    -24.8835E+06    -9.00613E+06     -40.693E+06    -40.1511E-03     67.9466E-03    -27.7955E-03     111.664E-03    -40.3460E-03     67.9415E-03    -27.7480E-03     111.055E-03
            1290     9.62342E-03     116.482E-03    -31.4053E+06    -22.2602E+06     1.19199E+06    -37.8620E+06    -45.3118E-03     74.1621E-03    -28.8503E-03     128.994E-03    -45.5274E-03     74.1843E-03    -28.7665E-03     128.366E-03
            1291     10.4852E-03     116.618E-03    -22.8176E+06    -15.8698E+06     14.6900E+06    -32.0578E+06    -51.6914E-03     81.8109E-03    -30.1195E-03     146.736E-03    -51.9625E-03     81.9028E-03    -29.9900E-03     146.088E-03
            1292     11.3422E-03     116.772E-03    -16.6273E+06    -8.37675E+06     26.2347E+06    -27.4392E+06    -59.4325E-03     91.0534E-03    -31.6209E-03     165.029E-03    -59.8195E-03     91.2767E-03    -31.4535E-03     164.282E-03
            1293     12.1933E-03     116.945E-03    -14.1409E+06    -5.79319E+06     32.9861E+06    -26.4832E+06    -68.5992E-03     101.981E-03    -33.3819E-03     184.025E-03    -69.1916E-03     102.409E-03    -33.1880E-03     183.030E-03
            1294     13.0374E-03     117.138E-03    -13.3617E+06    -8.46604E+06     35.7531E+06    -28.5269E+06    -79.1572E-03     114.585E-03    -35.4282E-03     203.405E-03    -80.0941E-03     115.343E-03    -35.2177E-03     201.962E-03
            1295     13.8740E-03     117.351E-03    -9.42900E+06    -5.71512E+06     37.9607E+06    -31.5407E+06    -90.9313E-03     128.710E-03    -37.7791E-03     220.126E-03    -92.3995E-03     130.018E-03    -37.5674E-03     217.999E-03
            1296     14.7013E-03     117.581E-03    -3.83003E+06    -16.0240E+06     35.0958E+06    -27.2199E+06    -103.834E-03     144.332E-03    -40.4989E-03     223.663E-03    -105.894E-03     146.225E-03    -40.2947E-03     220.722E-03
            1297     15.5135E-03     117.803E-03    -430.985E+03     20.7653E+06     45.1798E+06    -13.1078E+06    -117.703E-03     161.381E-03    -43.6774E-03     212.137E-03    -120.446E-03     164.070E-03    -43.4810E-03     208.306E-03
            1298     16.3163E-03     118.006E-03     869.405E+03     55.3575E+06     74.9459E+06    -4.48592E+06    -128.313E-03     175.708E-03    -47.3947E-03     163.152E-03    -130.504E-03     177.886E-03    -47.1015E-03     159.534E-03
            1299     877.563E-06     116.881E-03    -26.0513E+06    -27.1492E+06    -24.8718E+06    -5.25901E+06    -25.8731E-03     51.5768E-03    -25.7037E-03     6.60171E-03    -25.9284E-03     51.5150E-03    -25.7509E-03     6.52970E-03
            1300     1.75496E-03     116.894E-03    -24.7874E+06    -24.8363E+06    -20.5755E+06    -9.74633E+06    -26.2874E-03     52.1903E-03    -25.9029E-03     12.2387E-03    -26.3467E-03     52.1323E-03    -25.9338E-03     12.1050E-03
            1301     2.63175E-03     116.915E-03    -22.8830E+06    -21.4597E+06    -13.8893E+06    -13.9910E+06    -26.9005E-03     53.0529E-03    -26.1524E-03     18.6000E-03    -26.9657E-03     53.0001E-03    -26.1576E-03     18.4072E-03
            1302     3.50809E-03     116.945E-03    -21.4759E+06    -18.7381E+06    -7.18834E+06    -17.3363E+06    -27.6758E-03     54.1333E-03    -26.4575E-03     25.5894E-03    -27.7491E-03     54.0838E-03    -26.4352E-03     25.3484E-03
            1303     4.38373E-03     116.985E-03    -20.5530E+06    -15.7859E+06    -1.69533E+06    -20.1573E+06    -28.5796E-03     55.3824E-03    -26.8028E-03     33.4762E-03    -28.6625E-03     55.3404E-03    -26.7586E-03     33.1934E-03
            1304     5.25867E-03     117.036E-03    -19.8559E+06    -13.5522E+06     2.58529E+06    -23.0976E+06    -29.6172E-03     56.7981E-03    -27.1809E-03     42.5696E-03    -29.7088E-03     56.7628E-03    -27.1195E-03     42.2433E-03
            1305     6.13278E-03     117.099E-03    -19.7312E+06    -13.5232E+06     5.94699E+06    -26.3322E+06    -30.9039E-03     58.5006E-03    -27.5967E-03     53.1767E-03    -31.0034E-03     58.4641E-03    -27.5188E-03     52.8022E-03
            1306     7.00603E-03     117.175E-03    -20.8527E+06    -14.1450E+06     8.12871E+06    -29.7788E+06    -32.6645E-03     60.7296E-03    -28.0651E-03     65.5522E-03    -32.7770E-03     60.6938E-03    -27.9737E-03     65.1251E-03
            1307     7.87762E-03     117.266E-03    -23.6649E+06    -15.6269E+06     8.44910E+06    -33.0717E+06    -35.1529E-03     63.7677E-03    -28.6148E-03     79.9458E-03    -35.2858E-03     63.7364E-03    -28.5156E-03     79.4641E-03
            1308     8.74723E-03     117.372E-03    -27.5830E+06    -18.0678E+06     7.27039E+06    -36.4195E+06    -38.6178E-03     67.9029E-03    -29.2851E-03     96.4331E-03    -38.7789E-03     67.8810E-03    -29.1826E-03     95.8878E-03
            1309     9.61370E-03     117.496E-03    -29.9285E+06    -20.4758E+06     7.52393E+06    -38.6910E+06    -43.2870E-03     73.4132E-03    -30.1262E-03     114.662E-03    -43.4813E-03     73.4072E-03    -30.0155E-03     114.052E-03
            1310     10.4764E-03     117.639E-03    -27.4745E+06    -19.8157E+06     13.1151E+06    -37.1198E+06    -49.3686E-03     80.5594E-03    -31.1908E-03     134.082E-03    -49.6048E-03     80.5905E-03    -31.0566E-03     133.427E-03
            1311     11.3343E-03     117.801E-03    -20.8161E+06    -12.2650E+06     25.8346E+06    -31.5684E+06    -56.9967E-03     89.5216E-03    -32.5249E-03     154.271E-03    -57.3119E-03     89.6456E-03    -32.3478E-03     153.570E-03
            1312     12.1865E-03     117.983E-03    -13.5019E+06    -5.00179E+06     40.9349E+06    -26.6900E+06    -66.1633E-03     100.319E-03    -34.1554E-03     174.989E-03    -66.6255E-03     100.598E-03    -33.9239E-03     174.144E-03
            1313     13.0324E-03     118.187E-03    -7.94613E+06    -3.49796E+06     49.1845E+06    -25.6425E+06    -76.5674E-03     112.632E-03    -36.0649E-03     195.946E-03    -77.2821E-03     113.166E-03    -35.8024E-03     194.766E-03
            1314     13.8701E-03     118.414E-03    -9.44553E+06     1.07091E+06     49.5560E+06    -27.5404E+06    -87.7613E-03     126.002E-03    -38.2403E-03     215.785E-03    -88.9289E-03     126.998E-03    -37.9803E-03     214.034E-03
            1315     14.6991E-03     118.659E-03    -12.6768E+06    -20.6132E+06     42.2991E+06    -30.0540E+06    -99.4854E-03     140.216E-03    -40.7304E-03     226.093E-03    -101.202E-03     141.695E-03    -40.4706E-03     223.561E-03
            1316     15.5209E-03     118.904E-03    -6.66163E+06    -2.55147E+06     39.8725E+06    -20.8927E+06    -114.912E-03     158.523E-03    -43.6112E-03     225.220E-03    -117.491E-03     160.960E-03    -43.3985E-03     221.520E-03
            1317     16.3199E-03     119.138E-03     -453.88E+03     41.9523E+06     69.9111E+06    -2.41645E+06    -130.545E-03     177.756E-03    -47.2107E-03     178.651E-03    -132.842E-03     180.005E-03    -46.9213E-03     174.850E-03
            1318     874.184E-06     117.883E-03    -2.05485E+06    -16.7467E+06    -511.682E+03    -4.60052E+06    -30.0368E-03     59.8313E-03    -29.7945E-03     4.57585E-03    -30.0234E-03     59.7507E-03    -29.7698E-03     4.50930E-03
            1319     1.74786E-03     117.896E-03    -1.33622E+06    -14.8432E+06     3.36774E+06    -8.33174E+06    -30.4635E-03     60.5244E-03    -30.0609E-03     8.36586E-03    -30.4556E-03     60.4469E-03    -30.0206E-03     8.24471E-03
            1320     2.62117E-03     117.918E-03    -894.815E+03    -12.9090E+06     8.49050E+06    -11.3490E+06    -31.1249E-03     61.4786E-03    -30.3537E-03     12.5651E-03    -31.1262E-03     61.4037E-03    -30.2912E-03     12.3975E-03
            1321     3.49372E-03     117.949E-03    -110.657E+03    -11.0962E+06     13.6575E+06    -13.7809E+06    -31.8416E-03     62.5419E-03    -30.7002E-03     17.1570E-03    -31.8508E-03     62.4690E-03    -30.6157E-03     16.9498E-03
            1322     4.36562E-03     117.989E-03     964.916E+03    -8.62156E+06     18.6677E+06    -16.0657E+06    -32.5738E-03     63.6488E-03    -31.0750E-03     22.5050E-03    -32.5907E-03     63.5817E-03    -30.9706E-03     22.2597E-03
            1323     5.23679E-03     118.041E-03     1.52215E+06    -6.74210E+06     23.6529E+06    -17.8547E+06    -33.3303E-03     64.8006E-03    -31.4703E-03     28.8783E-03    -33.3574E-03     64.7379E-03    -31.3445E-03     28.6011E-03
            1324     6.10736E-03     118.104E-03     689.738E+03    -6.32898E+06     27.3518E+06    -19.4115E+06    -34.1261E-03     66.0039E-03    -31.8778E-03     36.5543E-03    -34.1672E-03     65.9430E-03    -31.7329E-03     36.2481E-03
            1325     6.97717E-03     118.181E-03    -1.57181E+06    -6.90680E+06     29.0188E+06    -20.9288E+06    -35.0602E-03     67.3553E-03    -32.2951E-03     45.8627E-03    -35.1191E-03     67.2973E-03    -32.1377E-03     45.5280E-03
            1326     7.84648E-03     118.273E-03    -4.69383E+06    -8.09040E+06     29.9516E+06    -22.5574E+06    -36.3693E-03     69.1117E-03    -32.7424E-03     57.1791E-03    -36.4498E-03     69.0575E-03    -32.5741E-03     56.8134E-03
            1327     8.71458E-03     118.382E-03    -8.31557E+06    -9.44644E+06     30.6850E+06    -24.7076E+06    -38.3712E-03     71.6230E-03    -33.2518E-03     70.9402E-03    -38.4776E-03     71.5754E-03    -33.0726E-03     70.5342E-03
            1328     9.58103E-03     118.509E-03    -13.3458E+06    -12.6131E+06     29.5658E+06    -27.6873E+06    -41.4234E-03     75.2840E-03    -33.8607E-03     87.3469E-03    -41.5619E-03     75.2435E-03    -33.6752E-03     86.8832E-03
            1329     10.4447E-03     118.656E-03    -19.1640E+06    -15.8539E+06     27.6074E+06    -30.9848E+06    -45.9365E-03     80.5587E-03    -34.6222E-03     106.393E-03    -46.1192E-03     80.5369E-03    -34.4334E-03     105.853E-03
            1330     11.3041E-03     118.825E-03    -21.3476E+06    -14.3969E+06     31.4141E+06    -32.1467E+06    -52.3678E-03     87.9850E-03    -35.6172E-03     127.744E-03    -52.6121E-03     88.0122E-03    -35.4083E-03     127.124E-03
            1331     12.1579E-03     119.016E-03    -17.6780E+06    -7.12639E+06     42.6560E+06    -30.5046E+06    -60.7964E-03     97.7041E-03    -36.9077E-03     150.607E-03    -61.1331E-03     97.8310E-03    -36.6585E-03     149.882E-03
            1332     13.0043E-03     119.231E-03    -12.8289E+06    -4.04815E+06     51.1130E+06    -26.7685E+06    -70.4950E-03     108.982E-03    -38.4872E-03     173.896E-03    -70.9827E-03     109.264E-03    -38.2072E-03     172.990E-03
            1333     13.8451E-03     119.467E-03    -10.5944E+06     383.740E+03     59.2331E+06    -19.0367E+06    -80.7000E-03     121.047E-03    -40.3469E-03     196.087E-03    -81.4777E-03     121.619E-03    -40.0360E-03     194.897E-03
            1334     14.6808E-03     119.726E-03    -14.0057E+06    -4.78843E+06     61.4429E+06    -20.9165E+06    -89.6200E-03     132.045E-03    -42.4251E-03     210.069E-03    -90.8030E-03     132.987E-03    -42.0906E-03     208.342E-03
            1335     15.5064E-03     119.987E-03    -20.2112E+06    -16.8614E+06     43.8171E+06    -27.0598E+06    -102.316E-03     146.998E-03    -44.6815E-03     225.434E-03    -104.312E-03     148.742E-03    -44.4087E-03     222.567E-03
            1336     16.3213E-03     120.263E-03    -14.4380E+06     12.4515E+06     55.0634E+06    -12.6160E+06    -121.314E-03     168.884E-03    -47.5703E-03     197.436E-03    -123.440E-03     170.854E-03    -47.2921E-03     193.937E-03
            1337     868.485E-06     118.894E-03     19.4695E+06    -8.34047E+06     20.7153E+06    -3.09425E+06    -36.5042E-03     72.9570E-03    -36.4528E-03     2.33609E-03    -36.4274E-03     72.8549E-03    -36.3654E-03     2.28607E-03
            1338     1.73676E-03     118.908E-03     18.6880E+06    -7.19300E+06     23.6489E+06    -5.74170E+06    -37.2051E-03     73.8922E-03    -36.6870E-03     3.68161E-03    -37.1390E-03     73.7927E-03    -36.5854E-03     3.58808E-03
            1339     2.60412E-03     118.931E-03     18.9561E+06    -6.45462E+06     27.5183E+06    -7.88836E+06    -37.8178E-03     74.8742E-03    -37.0564E-03     5.13353E-03    -37.7577E-03     74.7731E-03    -36.9369E-03     5.00181E-03
            1340     3.47072E-03     118.963E-03     19.2633E+06    -4.95840E+06     31.7779E+06    -9.87792E+06    -38.4438E-03     75.8948E-03    -37.4510E-03     7.11079E-03    -38.3916E-03     75.7957E-03    -37.3129E-03     6.94238E-03
            1341     4.33656E-03     119.004E-03     18.8968E+06    -3.34843E+06     36.2168E+06    -11.2897E+06    -39.1211E-03     76.9967E-03    -37.8756E-03     9.69935E-03    -39.0812E-03     76.9012E-03    -37.7171E-03     9.50116E-03
            1342     5.20170E-03     119.056E-03     17.6742E+06    -2.62885E+06     40.1493E+06    -11.7015E+06    -39.8142E-03     78.1460E-03    -38.3319E-03     12.9446E-03    -39.7895E-03     78.0522E-03    -38.1529E-03     12.7290E-03
            1343     6.06590E-03     119.120E-03     15.9997E+06    -2.03063E+06     43.4462E+06    -11.8053E+06    -40.4639E-03     79.2768E-03    -38.8129E-03     17.0098E-03    -40.4564E-03     79.1863E-03    -38.6159E-03     16.7803E-03
            1344     6.92942E-03     119.197E-03     14.2472E+06    -2.39539E+06      46.624E+06    -12.2663E+06    -41.0412E-03     80.3559E-03    -39.3147E-03     22.1601E-03    -41.0505E-03     80.2650E-03    -39.0988E-03     21.9118E-03
            1345     7.79199E-03     119.288E-03     12.3579E+06    -3.31118E+06     49.5132E+06    -12.8669E+06    -41.5851E-03     81.4175E-03    -39.8325E-03     28.6956E-03    -41.6118E-03     81.3252E-03    -39.5980E-03     28.4264E-03
            1346     8.65394E-03     119.397E-03      9.7022E+06    -4.12896E+06     51.6053E+06    -13.5783E+06    -42.1815E-03     82.5477E-03    -40.3662E-03     37.0184E-03    -42.2298E-03     82.4582E-03    -40.1163E-03     36.7268E-03
            1347     9.51506E-03     119.524E-03     6.60233E+06    -5.70314E+06     53.0666E+06    -14.3761E+06    -43.0688E-03     83.9983E-03    -40.9295E-03     47.6345E-03    -43.1408E-03     83.9119E-03    -40.6655E-03     47.3181E-03
            1348     10.3752E-03     119.672E-03     3.54053E+06    -7.11526E+06     53.8707E+06    -16.6693E+06    -44.6936E-03     86.2421E-03    -41.5484E-03     61.1069E-03    -44.7916E-03     86.1640E-03    -41.2739E-03     60.7425E-03
            1349     11.2337E-03     119.844E-03     46.3092E+03    -8.20685E+06     53.4218E+06    -20.5158E+06    -47.5785E-03     89.8428E-03    -42.2644E-03     78.1604E-03    -47.7095E-03     89.7848E-03    -41.9854E-03     77.7185E-03
            1350     12.0888E-03     120.041E-03    -5.01631E+06    -5.43956E+06     54.4983E+06    -21.9545E+06    -52.0492E-03     95.1813E-03    -43.1321E-03     98.9189E-03    -52.2414E-03     95.1763E-03    -42.8445E-03     98.4116E-03
            1351     12.9399E-03     120.263E-03    -9.11336E+06    -4.01576E+06     58.7579E+06    -20.6617E+06    -58.6303E-03     102.841E-03    -44.2111E-03     122.106E-03    -58.9131E-03     102.908E-03    -43.8983E-03     121.517E-03
            1352     13.7843E-03     120.509E-03    -6.60567E+06    -7.92281E+06     64.6469E+06    -16.6330E+06    -65.7808E-03     111.269E-03    -45.4886E-03     145.839E-03    -66.1674E-03     111.422E-03    -45.1443E-03     145.133E-03
            1353     14.6206E-03     120.777E-03    -1.52508E+06     4.09436E+06     73.0016E+06    -9.53516E+06    -71.5243E-03     118.380E-03    -46.8558E-03     163.896E-03    -72.0827E-03     118.742E-03    -46.4945E-03     163.051E-03
            1354     15.4620E-03     121.044E-03    -2.32734E+06    -6.96123E+06     63.5081E+06    -10.3770E+06    -77.6227E-03     125.822E-03    -48.1994E-03     188.072E-03    -78.6068E-03     126.596E-03    -47.8684E-03     186.710E-03
            1355     16.2977E-03     121.348E-03    -4.54650E+06    -4.54810E+06     47.3358E+06    -14.4384E+06    -84.9858E-03     134.520E-03    -49.5346E-03     194.038E-03    -86.2202E-03     135.601E-03    -49.2847E-03     192.060E-03
            1356     860.947E-06     119.922E-03     35.6305E+06    -2.80463E+06     36.2594E+06    -1.80497E+06    -46.1258E-03     92.4535E-03    -46.3277E-03    -1.46530E-03    -46.0017E-03     92.3297E-03    -46.1940E-03    -1.49930E-03
            1357     1.72037E-03     119.937E-03     35.0518E+06    -2.38030E+06     38.3822E+06    -3.03748E+06    -46.5091E-03     92.8966E-03    -46.3875E-03    -2.59245E-03    -46.3911E-03     92.7732E-03    -46.2430E-03    -2.65121E-03
            1358     2.57939E-03     119.961E-03     34.4367E+06    -2.12771E+06     41.7883E+06    -4.15197E+06    -47.0320E-03     93.6956E-03    -46.6635E-03    -3.58222E-03    -46.9225E-03     93.5696E-03    -46.5014E-03    -3.66464E-03
            1359     3.43799E-03     119.993E-03     33.2610E+06    -1.23556E+06     45.6192E+06    -4.87900E+06    -47.7226E-03     94.7720E-03    -47.0494E-03    -4.35233E-03    -47.6262E-03     94.6465E-03    -46.8677E-03    -4.45401E-03
            1360     4.29564E-03     120.035E-03     31.6515E+06    -560.916E+03     49.5140E+06    -4.98974E+06    -48.5808E-03     96.1198E-03    -47.5390E-03    -5.05592E-03    -48.4997E-03     95.9943E-03    -47.3365E-03    -5.16983E-03
            1361     5.15195E-03     120.088E-03     30.0983E+06    -550.974E+03     53.4826E+06    -4.77191E+06    -49.4936E-03     97.6194E-03    -48.1258E-03    -5.63195E-03    -49.4269E-03     97.4905E-03    -47.9013E-03    -5.75490E-03
            1362     6.00700E-03     120.152E-03     29.0420E+06    -50.3876E+03     58.4661E+06    -4.47917E+06    -50.3787E-03     99.1780E-03    -48.7994E-03    -5.99571E-03    -50.3265E-03     99.0459E-03    -48.5491E-03    -6.12785E-03
            1363     6.86043E-03     120.229E-03     28.0051E+06    -62.7935E+03     63.6288E+06    -4.18871E+06    -51.1505E-03     100.697E-03    -49.5462E-03    -6.06181E-03    -51.1127E-03     100.559E-03    -49.2686E-03    -6.20417E-03
            1364     7.71249E-03     120.320E-03     26.6882E+06    -645.109E+03     67.6809E+06    -4.07779E+06    -51.6483E-03     101.995E-03    -50.3467E-03    -5.67871E-03    -51.6244E-03     101.850E-03    -50.0461E-03    -5.83454E-03
            1365     8.56295E-03     120.427E-03     25.5190E+06    -1.38633E+06     70.9623E+06    -3.99360E+06    -51.7121E-03     102.895E-03    -51.1830E-03    -4.66547E-03    -51.7006E-03     102.744E-03    -50.8631E-03    -4.83581E-03
            1366     9.41217E-03     120.552E-03     24.7151E+06    -2.13894E+06     73.7679E+06    -4.31681E+06    -51.2475E-03     103.285E-03    -52.0373E-03    -2.61100E-03    -51.2469E-03     103.129E-03    -51.7012E-03    -2.80136E-03
            1367     10.2603E-03     120.698E-03     23.2569E+06    -2.34698E+06     75.5433E+06    -5.00390E+06    -50.2007E-03     103.091E-03    -52.8906E-03     1.20223E-03    -50.2147E-03     102.937E-03    -52.5432E-03     987.346E-06
            1368     11.1071E-03     120.866E-03     19.5971E+06    -1.56340E+06     76.8043E+06    -5.95723E+06    -48.5470E-03     102.273E-03    -53.7259E-03     7.91318E-03    -48.5889E-03     102.132E-03    -53.3680E-03     7.67236E-03
            1369     11.9543E-03     121.060E-03     14.8667E+06    -2.11548E+06     77.6025E+06    -5.83859E+06    -46.7953E-03     101.330E-03    -54.5347E-03     18.1212E-03    -46.8704E-03     101.202E-03    -54.1652E-03     17.8696E-03
            1370     12.8015E-03     121.281E-03     11.6249E+06    -763.303E+03     78.6233E+06    -5.53328E+06    -45.1952E-03     100.496E-03    -55.3003E-03     33.0389E-03    -45.3031E-03     100.397E-03    -54.9230E-03     32.7767E-03
            1371     13.6462E-03     121.531E-03     7.54296E+06    -4.69581E+06     76.5679E+06    -7.06826E+06    -42.8885E-03     98.8336E-03    -55.9451E-03     51.4608E-03    -43.0250E-03     98.7490E-03    -55.5664E-03     51.1699E-03
            1372     14.4995E-03     121.796E-03     7.47835E+06    -4.21868E+06     73.6670E+06    -5.28632E+06    -42.5716E-03     99.0098E-03    -56.4382E-03     69.0508E-03    -42.7354E-03     98.9700E-03    -56.0746E-03     68.7493E-03
            1373     15.3418E-03     122.078E-03     12.5886E+06    -2.07536E+06     70.2443E+06    -761.094E+03    -39.9348E-03     96.6547E-03    -56.7199E-03     86.3931E-03    -40.1684E-03     96.7278E-03    -56.3839E-03     86.0646E-03
            1374     16.1984E-03     122.361E-03     8.90095E+06     1.52963E+06     43.9237E+06    -3.82730E+06    -23.0220E-03     79.2107E-03    -56.1887E-03     95.4962E-03    -23.3159E-03     79.4180E-03    -55.9842E-03     95.0985E-03
            1375     16.2207E-03     60.6608E-03    -4.56939E+06     121.578E+06     85.9227E+06     95.5073E+03    -52.9511E-03     105.952E-03    -53.0013E-03     80.0907E-03    -54.1078E-03     107.275E-03    -52.7413E-03     79.4375E-03
            1376     15.3681E-03     60.5551E-03    -9.58271E+06     119.233E+06     80.0697E+06     646.576E+03    -53.6662E-03     106.682E-03    -53.0157E-03     106.461E-03    -55.2403E-03     108.413E-03    -52.7743E-03     105.554E-03
            1377     14.5128E-03     60.4489E-03    -13.2609E+06     108.124E+06     63.7934E+06     1.14019E+06    -54.2538E-03     107.245E-03    -52.9915E-03     114.136E-03    -55.7859E-03     108.929E-03    -52.8101E-03     113.082E-03
            1378     13.6587E-03     60.3286E-03    -15.9598E+06     93.3646E+06     33.8962E+06     1.63960E+06    -54.8135E-03     107.710E-03    -52.8963E-03     116.149E-03    -56.1878E-03     109.261E-03    -52.8390E-03     115.025E-03
            1379     12.8050E-03     60.2172E-03    -18.3062E+06     46.8403E+06     10.3409E+06     854.726E+03    -54.6860E-03     107.554E-03    -52.8677E-03     105.547E-03    -55.6966E-03     108.636E-03    -52.8573E-03     104.489E-03
            1380     11.9510E-03     60.1178E-03    -20.8369E+06    -10.4003E+06     5.86366E+06    -90.8898E+03    -54.5255E-03     107.471E-03    -52.9459E-03     96.2860E-03    -55.2244E-03     108.042E-03    -52.8713E-03     95.3505E-03
            1381     11.0974E-03     60.0255E-03    -23.3328E+06    -43.7961E+06     1.98049E+06    -103.055E+03    -54.4413E-03     107.433E-03    -52.9920E-03     90.2749E-03    -54.9433E-03     107.691E-03    -52.8848E-03     89.4645E-03
            1382     10.2434E-03     59.9379E-03    -26.0942E+06    -68.7426E+06     268.552E+03    -126.584E+03    -54.3884E-03     107.425E-03    -53.0368E-03     85.6023E-03    -54.7575E-03     107.457E-03    -52.8980E-03     84.9024E-03
            1383     9.38985E-03     59.8547E-03    -28.7938E+06    -86.0044E+06    -1.11053E+06    -69.5418E+03    -54.2941E-03     107.365E-03    -53.0713E-03     80.6699E-03    -54.5677E-03     107.235E-03    -52.9104E-03     80.0709E-03
            1384     8.53602E-03     59.7768E-03    -31.6638E+06    -101.070E+06    -2.91441E+06    -55.0902E+03    -54.1667E-03     107.267E-03    -53.1001E-03     75.2047E-03    -54.3658E-03     107.003E-03    -52.9222E-03     74.6970E-03
            1385     7.68242E-03     59.7044E-03    -34.8132E+06    -115.514E+06    -4.52915E+06    -92.5226E+03    -54.0207E-03     107.149E-03    -53.1285E-03     69.2507E-03    -54.1622E-03     106.770E-03    -52.9332E-03     68.8242E-03
            1386     6.82870E-03     59.6383E-03    -38.3971E+06    -125.476E+06    -7.98901E+06    -76.8352E+03    -53.8410E-03     106.983E-03    -53.1422E-03     62.9252E-03    -53.9417E-03     106.525E-03    -52.9445E-03     62.5724E-03
            1387     5.97508E-03     59.5785E-03    -42.4324E+06    -133.439E+06    -12.9517E+06    -72.2625E+03    -53.6657E-03     106.813E-03    -53.1477E-03     56.2300E-03    -53.7375E-03     106.298E-03    -52.9574E-03     55.9426E-03
            1388     5.12136E-03     59.5258E-03    -46.6972E+06    -142.563E+06    -20.6943E+06    -54.9615E+03    -53.5149E-03     106.657E-03    -53.1418E-03     49.0879E-03    -53.5606E-03     106.091E-03    -52.9708E-03     48.8577E-03
            1389     4.26782E-03     59.4803E-03    -50.8962E+06    -149.848E+06    -30.3400E+06    -87.0749E+03    -53.3774E-03     106.501E-03    -53.1231E-03     41.5679E-03    -53.4024E-03     105.901E-03    -52.9837E-03     41.3873E-03
            1390     3.41413E-03     59.4426E-03    -54.8951E+06    -160.026E+06    -39.3155E+06    -101.735E+03    -53.2633E-03     106.374E-03    -53.1109E-03     33.7273E-03    -53.2680E-03     105.730E-03    -52.9958E-03     33.5904E-03
            1391     2.56065E-03     59.4128E-03    -58.6390E+06    -169.947E+06    -48.0165E+06    -37.6129E+03    -53.1772E-03     106.275E-03    -53.0977E-03     25.6345E-03    -53.1648E-03     105.590E-03    -53.0063E-03     25.5370E-03
            1392     1.70700E-03     59.3913E-03    -61.7525E+06    -175.506E+06    -56.3275E+06     20.8552E+03    -53.1209E-03     106.195E-03    -53.0738E-03     17.3887E-03    -53.0981E-03     105.493E-03    -53.0114E-03     17.3262E-03
            1393     853.596E-06     59.3780E-03    -63.5860E+06    -179.223E+06    -62.1700E+06     22.3130E+03    -53.0483E-03     106.124E-03    -53.0761E-03     9.51372E-03    -53.0176E-03     105.412E-03    -53.0349E-03     9.48074E-03
            1394     16.2226E-03     59.6074E-03    -4.24933E+06     121.821E+06     85.9812E+06     207.082E+03    -52.8588E-03     105.869E-03    -53.0100E-03     80.6539E-03    -54.0142E-03     107.192E-03    -52.7506E-03     80.0058E-03
            1395     15.3663E-03     59.5018E-03    -9.29448E+06     118.957E+06     80.1065E+06     243.092E+03    -53.6208E-03     106.651E-03    -53.0304E-03     106.671E-03    -55.1930E-03     108.380E-03    -52.7889E-03     105.760E-03
            1396     14.5124E-03     59.3954E-03    -14.1507E+06     107.130E+06     62.8827E+06     151.882E+03    -54.5116E-03     107.510E-03    -52.9987E-03     114.053E-03    -56.0488E-03     109.195E-03    -52.8191E-03     112.977E-03
            1397     13.6590E-03     59.2739E-03    -17.4227E+06      93.228E+06     33.2950E+06     156.645E+03    -54.9747E-03     107.865E-03    -52.8908E-03     115.788E-03    -56.3562E-03     109.419E-03    -52.8342E-03     114.640E-03
            1398     12.8052E-03     59.1639E-03    -18.8593E+06     47.5963E+06     10.6284E+06     660.900E+03    -54.6108E-03     107.470E-03    -52.8594E-03     105.311E-03    -55.6249E-03     108.555E-03    -52.8479E-03     104.252E-03
            1399     11.9511E-03     59.0638E-03    -20.8882E+06    -9.99841E+06     6.14143E+06     876.260E+03    -54.4349E-03     107.377E-03    -52.9418E-03     96.1689E-03    -55.1344E-03     107.949E-03    -52.8663E-03     95.2475E-03
            1400     11.0972E-03     58.9719E-03    -23.6711E+06    -43.6107E+06     2.30457E+06     594.422E+03    -54.4304E-03     107.422E-03    -52.9917E-03     90.1242E-03    -54.9353E-03     107.681E-03    -52.8826E-03     89.3217E-03
            1401     10.2437E-03     58.8840E-03    -26.1214E+06    -68.4023E+06     727.713E+03     343.433E+03    -54.3992E-03     107.435E-03    -53.0356E-03     85.5245E-03    -54.7698E-03     107.468E-03    -52.8949E-03     84.8299E-03
            1402     9.38979E-03     58.8011E-03    -28.7521E+06    -86.0353E+06    -796.494E+03     144.494E+03    -54.3035E-03     107.372E-03    -53.0683E-03     80.6202E-03    -54.5774E-03     107.240E-03    -52.9058E-03     80.0235E-03
            1403     8.53617E-03     58.7230E-03    -31.5674E+06    -100.893E+06    -2.50975E+06     35.1952E+03    -54.1696E-03     107.266E-03    -53.0959E-03     75.1875E-03    -54.3692E-03     107.002E-03    -52.9164E-03     74.6809E-03
            1404     7.68241E-03     58.6508E-03    -34.7644E+06    -115.535E+06    -4.33704E+06    -87.4738E+03    -54.0077E-03     107.131E-03    -53.1235E-03     69.2463E-03    -54.1491E-03     106.752E-03    -52.9272E-03     68.8200E-03
            1405     6.82879E-03     58.5846E-03    -38.3666E+06    -125.507E+06    -7.88128E+06    -90.9298E+03    -53.8357E-03     106.973E-03    -53.1372E-03     62.9413E-03    -53.9363E-03     106.515E-03    -52.9390E-03     62.5884E-03
            1406     5.97505E-03     58.5249E-03    -42.3436E+06    -133.457E+06    -12.8505E+06    -65.2529E+03    -53.6622E-03     106.805E-03    -53.1425E-03     56.2426E-03    -53.7337E-03     106.289E-03    -52.9518E-03     55.9554E-03
            1407     5.12146E-03     58.4721E-03    -46.5674E+06    -142.575E+06    -20.6748E+06    -83.9087E+03    -53.5075E-03     106.644E-03    -53.1363E-03     49.0933E-03    -53.5526E-03     106.077E-03    -52.9654E-03     48.8629E-03
            1408     4.26776E-03     58.4266E-03    -50.7863E+06    -149.876E+06    -30.4544E+06    -59.0044E+03    -53.3652E-03     106.483E-03    -53.1181E-03     41.5701E-03    -53.3895E-03     105.884E-03    -52.9794E-03     41.3901E-03
            1409     3.41424E-03     58.3889E-03    -54.8891E+06    -160.082E+06    -39.4136E+06    -3.36444E+03    -53.2498E-03     106.358E-03    -53.1085E-03     33.7248E-03    -53.2541E-03     105.714E-03    -52.9939E-03     33.5893E-03
            1410     2.56055E-03     58.3592E-03    -58.6568E+06    -169.973E+06    -48.0529E+06    -12.5581E+03    -53.1676E-03     106.266E-03    -53.0989E-03     25.6301E-03    -53.1551E-03     105.582E-03    -53.0076E-03     25.5330E-03
            1411     1.70710E-03     58.3376E-03    -61.6891E+06    -175.555E+06    -56.4809E+06    -73.8792E+03    -53.1151E-03     106.194E-03    -53.0793E-03     17.4011E-03    -53.0918E-03     105.493E-03    -53.0177E-03     17.3373E-03
            1412     853.502E-06     58.3243E-03    -63.5295E+06    -179.234E+06    -62.2733E+06    -141.397E+03    -53.0349E-03     106.143E-03    -53.1083E-03     9.45707E-03    -53.0037E-03     105.431E-03    -53.0677E-03     9.42177E-03
            1413     16.2198E-03     58.5536E-03    -4.09499E+06     122.057E+06     86.1319E+06     563.664E+03    -53.0092E-03     106.030E-03    -53.0211E-03     79.9911E-03    -54.1621E-03     107.352E-03    -52.7615E-03     79.3452E-03
            1414     15.3672E-03     58.4486E-03    -9.20539E+06     119.245E+06     80.5266E+06     214.499E+03    -53.9235E-03     106.953E-03    -53.0293E-03     106.237E-03    -55.4988E-03     108.685E-03    -52.7863E-03     105.315E-03
            1415     14.5133E-03     58.3407E-03    -14.6190E+06     107.068E+06     63.0665E+06    -424.555E+03    -54.6089E-03     107.593E-03    -52.9845E-03     113.822E-03    -56.1517E-03     109.282E-03    -52.8032E-03     112.734E-03
            1416     13.6592E-03     58.2204E-03    -18.1772E+06     92.8304E+06     32.8025E+06    -479.849E+03    -54.8043E-03     107.679E-03    -52.8746E-03     115.621E-03    -56.1880E-03     109.233E-03    -52.8188E-03     114.468E-03
            1417     12.8051E-03     58.1098E-03    -21.1190E+06     46.6900E+06     9.55216E+06     61.0841E+03    -54.5358E-03     107.385E-03    -52.8494E-03     105.226E-03    -55.5583E-03     108.471E-03    -52.8387E-03     104.160E-03
            1418     11.9514E-03     58.0105E-03    -22.7702E+06    -9.67316E+06     6.02593E+06     681.501E+03    -54.4138E-03     107.350E-03    -52.9363E-03     96.2713E-03    -55.1235E-03     107.927E-03    -52.8591E-03     95.3475E-03
            1419     11.0975E-03     57.9179E-03    -24.1737E+06    -43.3332E+06     2.44469E+06     644.888E+03    -54.4043E-03     107.391E-03    -52.9866E-03     90.2201E-03    -54.9126E-03     107.652E-03    -52.8765E-03     89.4185E-03
            1420     10.2436E-03     57.8305E-03    -26.1979E+06    -68.1160E+06     958.680E+03     435.379E+03    -54.3976E-03     107.429E-03    -53.0310E-03     85.5271E-03    -54.7694E-03     107.463E-03    -52.8895E-03     84.8336E-03
            1421     9.38994E-03     57.7472E-03    -28.5677E+06    -85.7776E+06    -643.276E+03     257.361E+03    -54.2985E-03     107.361E-03    -53.0628E-03     80.6297E-03    -54.5719E-03     107.231E-03    -52.9002E-03     80.0346E-03
            1422     8.53617E-03     57.6694E-03    -31.3304E+06    -100.825E+06    -2.42956E+06     125.020E+03    -54.1535E-03     107.244E-03    -53.0908E-03     75.1959E-03    -54.3519E-03     106.981E-03    -52.9114E-03     74.6908E-03
            1423     7.68249E-03     57.5970E-03    -34.5481E+06    -115.312E+06    -4.16392E+06     18.1431E+03    -53.9939E-03     107.114E-03    -53.1200E-03     69.2698E-03    -54.1347E-03     106.735E-03    -52.9235E-03     68.8454E-03
            1424     6.82874E-03     57.5309E-03    -38.2037E+06    -125.593E+06    -7.79929E+06    -78.1488E+03    -53.8322E-03     106.967E-03    -53.1345E-03     62.9534E-03    -53.9319E-03     106.508E-03    -52.9360E-03     62.6010E-03
            1425     5.97513E-03     57.4711E-03    -42.2103E+06    -133.462E+06    -12.9021E+06    -44.5150E+03    -53.6632E-03     106.802E-03    -53.1390E-03     56.2520E-03    -53.7339E-03     106.287E-03    -52.9488E-03     55.9653E-03
            1426     5.12143E-03     57.4184E-03    -46.5482E+06    -142.642E+06    -20.7811E+06     31.2697E+03    -53.5037E-03     106.636E-03    -53.1327E-03     49.1041E-03    -53.5484E-03     106.070E-03    -52.9623E-03     48.8754E-03
            1427     4.26784E-03     57.3729E-03    -50.9099E+06    -149.876E+06    -30.3945E+06     55.0535E+03    -53.3551E-03     106.471E-03    -53.1162E-03     41.5717E-03    -53.3800E-03     105.872E-03    -52.9771E-03     41.3933E-03
            1428     3.41413E-03     57.3352E-03    -54.9578E+06    -160.067E+06    -39.3458E+06    -20.0632E+03    -53.2442E-03     106.352E-03    -53.1078E-03     33.7270E-03    -53.2491E-03     105.708E-03    -52.9928E-03     33.5915E-03
            1429     2.56065E-03     57.3055E-03    -58.6303E+06    -169.947E+06    -48.0219E+06    -52.7264E+03    -53.1661E-03     106.265E-03    -53.0986E-03     25.6352E-03    -53.1536E-03     105.580E-03    -53.0073E-03     25.5377E-03
            1430     1.70700E-03     57.2839E-03    -61.7190E+06    -175.518E+06    -56.3817E+06    -72.7400E+03    -53.1056E-03     106.188E-03    -53.0826E-03     17.3941E-03    -53.0826E-03     105.487E-03    -53.0205E-03     17.3304E-03
            1431     853.493E-06     57.2707E-03    -63.8155E+06    -179.477E+06    -62.4476E+06    -71.1993E+03    -53.1097E-03     106.154E-03    -53.0440E-03     9.39897E-03    -53.0793E-03     105.441E-03    -53.0034E-03     9.36452E-03
            1432     16.2226E-03     57.5008E-03    -4.87833E+06     121.211E+06     85.4477E+06     165.394E+03    -53.3103E-03     106.316E-03    -53.0054E-03     79.4113E-03    -54.4631E-03     107.634E-03    -52.7468E-03     78.7566E-03
            1433     15.3672E-03     57.3938E-03    -8.74488E+06     119.794E+06     81.9004E+06     366.122E+03    -53.9255E-03     106.936E-03    -53.0107E-03     106.367E-03    -55.5026E-03     108.670E-03    -52.7623E-03     105.449E-03
            1434     14.5134E-03     57.2873E-03    -13.2526E+06     108.083E+06     64.4866E+06     140.445E+03    -54.4160E-03     107.385E-03    -52.9692E-03     114.039E-03    -55.9553E-03     109.074E-03    -52.7843E-03     112.963E-03
            1435     13.6593E-03     57.1663E-03    -18.0683E+06     92.4227E+06     32.1142E+06    -1.76511E+03    -54.6842E-03     107.546E-03    -52.8620E-03     115.686E-03    -56.0642E-03     109.097E-03    -52.8092E-03     114.543E-03
            1436     12.8053E-03     57.0564E-03    -20.6337E+06     46.3807E+06     9.21927E+06     2.51136E+03    -54.4662E-03     107.310E-03    -52.8440E-03     105.277E-03    -55.4847E-03     108.393E-03    -52.8352E-03     104.213E-03
            1437     11.9512E-03     56.9566E-03    -22.4840E+06    -10.1462E+06     5.55384E+06    -37.9205E+03    -54.4267E-03     107.360E-03    -52.9330E-03     96.4132E-03    -55.1339E-03     107.935E-03    -52.8579E-03     95.4800E-03
            1438     11.0974E-03     56.8644E-03    -24.3114E+06    -43.2919E+06     2.05561E+06     246.727E+03    -54.4271E-03     107.410E-03    -52.9827E-03     90.3217E-03    -54.9354E-03     107.672E-03    -52.8744E-03     89.5152E-03
            1439     10.2437E-03     56.7765E-03    -26.2360E+06    -67.9409E+06     719.384E+03     367.146E+03    -54.3849E-03     107.412E-03    -53.0272E-03     85.5771E-03    -54.7565E-03     107.447E-03    -52.8871E-03     84.8834E-03
            1440     9.38993E-03     56.6937E-03    -28.6358E+06    -85.5564E+06    -807.894E+03     294.339E+03    -54.2857E-03     107.346E-03    -53.0605E-03     80.6889E-03    -54.5595E-03     107.217E-03    -52.8989E-03     80.0948E-03
            1441     8.53620E-03     56.6156E-03    -31.3665E+06    -100.794E+06    -2.68164E+06     248.229E+03    -54.1494E-03     107.239E-03    -53.0893E-03     75.2404E-03    -54.3476E-03     106.975E-03    -52.9110E-03     74.7372E-03
            1442     7.68245E-03     56.5434E-03    -34.6430E+06    -115.087E+06    -4.23544E+06     214.282E+03    -53.9991E-03     107.118E-03    -53.1192E-03     69.2979E-03    -54.1405E-03     106.740E-03    -52.9232E-03     68.8762E-03
            1443     6.82881E-03     56.4772E-03    -38.3952E+06    -125.446E+06    -7.95277E+06    -2.20828E+03    -53.8320E-03     106.965E-03    -53.1332E-03     62.9722E-03    -53.9326E-03     106.507E-03    -52.9354E-03     62.6211E-03
            1444     5.97508E-03     56.4175E-03    -42.4967E+06    -133.735E+06    -13.1088E+06     26.9012E+03    -53.6591E-03     106.798E-03    -53.1384E-03     56.2635E-03    -53.7306E-03     106.281E-03    -52.9484E-03     55.9779E-03
            1445     5.12147E-03     56.3647E-03    -46.8561E+06    -142.567E+06    -20.7663E+06     130.565E+03    -53.5054E-03     106.638E-03    -53.1326E-03     49.1065E-03    -53.5517E-03     106.072E-03    -52.9618E-03     48.8792E-03
            1446     4.26778E-03     56.3193E-03    -51.0303E+06    -149.805E+06    -30.2174E+06    -2.42157E+03    -53.3638E-03     106.479E-03    -53.1153E-03     41.5586E-03    -53.3896E-03     105.880E-03    -52.9751E-03     41.3795E-03
            1447     3.41424E-03     56.2815E-03    -54.9301E+06    -160.025E+06    -39.2944E+06    -41.7735E+03    -53.2492E-03     106.353E-03    -53.1037E-03     33.7021E-03    -53.2540E-03     105.708E-03    -52.9884E-03     33.5662E-03
            1448     2.56056E-03     56.2518E-03    -58.6501E+06    -169.966E+06    -48.0266E+06    -61.4885E+03    -53.1655E-03     106.258E-03    -53.0920E-03     25.6055E-03    -53.1531E-03     105.573E-03    -53.0006E-03     25.5079E-03
            1449     1.70709E-03     56.2303E-03    -61.8097E+06    -175.592E+06    -56.4336E+06    -36.0154E+03    -53.1114E-03     106.182E-03    -53.0702E-03     17.3684E-03    -53.0887E-03     105.480E-03    -53.0081E-03     17.3052E-03
            1450     853.554E-06     56.2169E-03    -63.9696E+06    -179.558E+06    -62.4370E+06    -10.1986E+03    -53.1026E-03     106.119E-03    -53.0167E-03     9.43012E-03    -53.0729E-03     105.406E-03    -52.9758E-03     9.39656E-03
            1451     16.2208E-03     56.4457E-03    -4.76375E+06     121.466E+06     85.9301E+06    -275.855E+03    -53.2637E-03     106.271E-03    -53.0078E-03     80.3747E-03    -54.4267E-03     107.600E-03    -52.7474E-03     79.7119E-03
            1452     15.3681E-03     56.3411E-03    -9.34599E+06     119.314E+06     80.9716E+06    -432.257E+03    -54.0426E-03     107.050E-03    -53.0079E-03     107.042E-03    -55.6297E-03     108.793E-03    -52.7625E-03     106.107E-03
            1453     14.5133E-03     56.2331E-03    -13.5335E+06     107.829E+06     63.8894E+06     440.459E+03    -54.3958E-03     107.361E-03    -52.9657E-03     114.235E-03    -55.9333E-03     109.048E-03    -52.7830E-03     113.165E-03
            1454     13.6593E-03     56.1129E-03    -17.0406E+06     92.9717E+06     32.4844E+06     655.996E+03    -54.6112E-03     107.475E-03    -52.8640E-03     115.780E-03    -55.9851E-03     109.024E-03    -52.8117E-03     114.649E-03
            1455     12.8051E-03     56.0027E-03    -20.0343E+06     46.4039E+06     8.80494E+06     107.236E+03    -54.4861E-03     107.332E-03    -52.8461E-03     105.459E-03    -55.5019E-03     108.416E-03    -52.8403E-03     104.395E-03
            1456     11.9512E-03     55.9031E-03    -22.2942E+06    -10.4013E+06     5.32083E+06     88.4512E+03    -54.4839E-03     107.419E-03    -52.9353E-03     96.5166E-03    -55.1894E-03     107.993E-03    -52.8613E-03     95.5845E-03
            1457     11.0975E-03     55.8105E-03    -24.3497E+06    -43.4690E+06     1.89074E+06     105.335E+03    -54.4392E-03     107.423E-03    -52.9836E-03     90.3255E-03    -54.9469E-03     107.684E-03    -52.8758E-03     89.5174E-03
            1458     10.2436E-03     55.7231E-03    -26.4600E+06    -68.0155E+06     606.777E+03     204.956E+03    -54.3657E-03     107.395E-03    -53.0291E-03     85.6214E-03    -54.7378E-03     107.430E-03    -52.8890E-03     84.9265E-03
            1459     9.38985E-03     55.6398E-03    -28.7371E+06    -85.4561E+06    -748.079E+03     269.064E+03    -54.2808E-03     107.345E-03    -53.0641E-03     80.7136E-03    -54.5551E-03     107.216E-03    -52.9022E-03     80.1196E-03
            1460     8.53614E-03     55.5620E-03    -31.3749E+06    -100.774E+06    -2.66915E+06     225.190E+03    -54.1686E-03     107.261E-03    -53.0922E-03     75.2405E-03    -54.3668E-03     106.998E-03    -52.9139E-03     74.7371E-03
            1461     7.68246E-03     55.4896E-03    -34.2530E+06    -114.968E+06    -4.18398E+06     204.202E+03    -54.0183E-03     107.138E-03    -53.1199E-03     69.2869E-03    -54.1579E-03     106.760E-03    -52.9244E-03     68.8652E-03
            1462     6.82875E-03     55.4235E-03    -37.8021E+06    -125.407E+06    -7.49166E+06     305.908E+03    -53.8450E-03     106.979E-03    -53.1341E-03     62.9335E-03    -53.9434E-03     106.520E-03    -52.9349E-03     62.5862E-03
            1463     5.97511E-03     55.3638E-03    -42.2166E+06    -133.764E+06    -12.5806E+06     341.070E+03    -53.6681E-03     106.807E-03    -53.1385E-03     56.2121E-03    -53.7388E-03     106.289E-03    -52.9462E-03     55.9305E-03
            1464     5.12142E-03     55.3110E-03    -46.6837E+06    -142.243E+06    -20.4785E+06     77.3030E+03    -53.5081E-03     106.638E-03    -53.1297E-03     49.0549E-03    -53.5544E-03     106.073E-03    -52.9582E-03     48.8268E-03
            1465     4.26785E-03     55.2656E-03    -50.8871E+06    -149.819E+06    -30.3160E+06    -65.1702E+03    -53.3696E-03     106.479E-03    -53.1092E-03     41.5259E-03    -53.3945E-03     105.879E-03    -52.9697E-03     41.3459E-03
            1466     3.41420E-03     55.2279E-03    -54.9222E+06    -160.048E+06    -39.3234E+06    -14.4318E+03    -53.2585E-03     106.353E-03    -53.0947E-03     33.6810E-03    -53.2632E-03     105.709E-03    -52.9796E-03     33.5455E-03
            1467     2.56071E-03     55.1982E-03    -58.6892E+06    -169.968E+06    -47.9884E+06     13.7806E+03    -53.1694E-03     106.247E-03    -53.0780E-03     25.5913E-03    -53.1572E-03     105.563E-03    -52.9864E-03     25.4946E-03
            1468     1.70708E-03     55.1765E-03    -61.8474E+06    -175.659E+06    -56.5189E+06        -892.197    -53.0964E-03     106.148E-03    -53.0518E-03     17.3642E-03    -53.0737E-03     105.446E-03    -52.9900E-03     17.3014E-03
            1469     853.548E-06     55.1634E-03    -63.9604E+06    -179.580E+06    -62.5030E+06    -19.6479E+03    -53.0376E-03     106.081E-03    -53.0436E-03     9.39405E-03    -53.0077E-03     105.368E-03    -53.0030E-03     9.36066E-03
            1470     16.2212E-03     55.3925E-03    -4.33740E+06     121.872E+06     86.4204E+06    -224.097E+03    -53.0373E-03     106.054E-03    -53.0166E-03     80.2236E-03    -54.1980E-03     107.381E-03    -52.7549E-03     79.5636E-03
            1471     15.3663E-03     55.2857E-03    -9.57912E+06     119.086E+06     80.2478E+06    -253.565E+03    -54.0766E-03     107.093E-03    -53.0168E-03     106.396E-03    -55.6577E-03     108.831E-03    -52.7744E-03     105.461E-03
            1472     14.5135E-03     55.1799E-03    -14.6701E+06     106.887E+06     62.6585E+06    -210.615E+03    -54.3469E-03     107.321E-03    -52.9746E-03     114.052E-03    -55.8834E-03     109.004E-03    -52.7950E-03     112.976E-03
            1473     13.6590E-03     55.0591E-03    -18.0117E+06     92.6486E+06     32.6152E+06     84.5309E+03    -54.6159E-03     107.497E-03    -52.8808E-03     116.100E-03    -55.9956E-03     109.047E-03    -52.8259E-03     114.961E-03
            1474     12.8050E-03     54.9492E-03    -20.2959E+06     46.7362E+06     9.45473E+06     465.421E+03    -54.6286E-03     107.488E-03    -52.8599E-03     105.503E-03    -55.6477E-03     108.574E-03    -52.8510E-03     104.441E-03
            1475     11.9512E-03     54.8491E-03    -22.3645E+06    -10.0462E+06     5.57675E+06     319.242E+03    -54.5222E-03     107.463E-03    -52.9411E-03     96.4731E-03    -55.2285E-03     108.038E-03    -52.8663E-03     95.5439E-03
            1476     11.0973E-03     54.7569E-03    -24.4207E+06    -43.5627E+06     1.86957E+06     141.252E+03    -54.4276E-03     107.416E-03    -52.9880E-03     90.3579E-03    -54.9352E-03     107.676E-03    -52.8801E-03     89.5510E-03
            1477     10.2436E-03     54.6692E-03    -26.5158E+06    -68.1019E+06     533.722E+03     125.122E+03    -54.4003E-03     107.433E-03    -53.0326E-03     85.6074E-03    -54.7725E-03     107.468E-03    -52.8927E-03     84.9111E-03
            1478     9.38986E-03     54.5862E-03    -28.8979E+06    -85.4678E+06    -835.942E+03     156.638E+03    -54.3038E-03     107.369E-03    -53.0651E-03     80.6565E-03    -54.5787E-03     107.240E-03    -52.9035E-03     80.0608E-03
            1479     8.53612E-03     54.5081E-03    -31.5857E+06    -100.601E+06    -2.70108E+06     116.082E+03    -54.1814E-03     107.273E-03    -53.0914E-03     75.1776E-03    -54.3808E-03     107.011E-03    -52.9132E-03     74.6726E-03
            1480     7.68246E-03     54.4359E-03    -34.8181E+06    -115.066E+06    -4.47391E+06     86.3402E+03    -54.0334E-03     107.150E-03    -53.1164E-03     69.2057E-03    -54.1753E-03     106.773E-03    -52.9215E-03     68.7821E-03
            1481     6.82882E-03     54.3698E-03    -38.3472E+06    -125.736E+06    -7.73935E+06     367.977E+03    -53.8562E-03     106.985E-03    -53.1286E-03     62.8647E-03    -53.9564E-03     106.525E-03    -52.9294E-03     62.5180E-03
            1482     5.97516E-03     54.3101E-03    -42.1517E+06    -133.339E+06    -12.3538E+06     390.599E+03    -53.6726E-03     106.804E-03    -53.1310E-03     56.1577E-03    -53.7439E-03     106.288E-03    -52.9383E-03     55.8767E-03
            1483     5.12155E-03     54.2573E-03    -46.4173E+06    -141.985E+06    -20.3714E+06     157.441E+03    -53.5035E-03     106.624E-03    -53.1201E-03     49.0222E-03    -53.5490E-03     106.059E-03    -52.9488E-03     48.7952E-03
            1484     4.26786E-03     54.2119E-03    -50.8246E+06    -149.799E+06    -30.3148E+06     81.6758E+03    -53.3582E-03     106.458E-03    -53.0995E-03     41.5059E-03    -53.3829E-03     105.858E-03    -52.9601E-03     41.3280E-03
            1485     3.41428E-03     54.1742E-03    -54.9575E+06    -160.058E+06    -39.3108E+06     29.5453E+03    -53.2463E-03     106.332E-03    -53.0857E-03     33.6751E-03    -53.2512E-03     105.688E-03    -52.9705E-03     33.5402E-03
            1486     2.56066E-03     54.1445E-03    -58.6630E+06    -169.976E+06    -48.0109E+06    -1.30331E+03    -53.1618E-03     106.231E-03    -53.0690E-03     25.6119E-03    -53.1494E-03     105.546E-03    -52.9775E-03     25.5150E-03
            1487     1.70715E-03     54.1230E-03    -61.8515E+06    -175.631E+06    -56.4514E+06     16.8984E+03    -53.0851E-03     106.129E-03    -53.0438E-03     17.3678E-03    -53.0625E-03     105.427E-03    -52.9817E-03     17.3052E-03
            1488     853.547E-06     54.1097E-03    -63.9933E+06    -179.619E+06    -62.5462E+06     42.1728E+03    -53.0090E-03     106.066E-03    -53.0570E-03     9.40733E-03    -52.9791E-03     105.353E-03    -53.0165E-03     9.37507E-03
            1489     16.2212E-03     54.3382E-03    -4.67760E+06     121.535E+06     85.9963E+06    -247.534E+03    -52.9707E-03     105.975E-03    -53.0045E-03     80.8114E-03    -54.1309E-03     107.301E-03    -52.7439E-03     80.1533E-03
            1490     15.3683E-03     54.2321E-03    -9.61064E+06     118.915E+06     80.6173E+06     138.290E+03    -53.6856E-03     106.706E-03    -53.0209E-03     106.299E-03    -55.2574E-03     108.433E-03    -52.7763E-03     105.385E-03
            1491     14.5127E-03     54.1263E-03    -14.1886E+06     107.221E+06     62.8681E+06     35.0224E+03    -54.2712E-03     107.261E-03    -52.9900E-03     114.030E-03    -55.8052E-03     108.943E-03    -52.8106E-03     112.960E-03
            1492     13.6586E-03     54.0056E-03    -18.4574E+06     91.9815E+06     31.5959E+06    -316.554E+03    -54.8255E-03     107.715E-03    -52.8892E-03     115.974E-03    -56.2060E-03     109.265E-03    -52.8378E-03     114.824E-03
            1493     12.8049E-03     53.8948E-03    -20.7566E+06     46.6912E+06     9.20331E+06     45.3785E+03    -54.6600E-03     107.524E-03    -52.8635E-03     105.307E-03    -55.6795E-03     108.608E-03    -52.8551E-03     104.239E-03
            1494     11.9512E-03     53.7957E-03    -22.3986E+06    -9.73645E+06     5.48159E+06     320.819E+03    -54.5286E-03     107.471E-03    -52.9426E-03     96.2946E-03    -55.2352E-03     108.048E-03    -52.8686E-03     95.3652E-03
            1495     11.0973E-03     53.7031E-03    -24.5190E+06    -43.4585E+06     1.67428E+06     180.010E+03    -54.4558E-03     107.443E-03    -52.9876E-03     90.2360E-03    -54.9635E-03     107.705E-03    -52.8807E-03     89.4292E-03
            1496     10.2436E-03     53.6155E-03    -26.6975E+06    -68.0849E+06     264.563E+03     131.693E+03    -54.4257E-03     107.455E-03    -53.0293E-03     85.4892E-03    -54.7984E-03     107.491E-03    -52.8906E-03     84.7923E-03
            1497     9.38989E-03     53.5324E-03    -29.1466E+06    -85.5466E+06    -1.07361E+06     141.720E+03    -54.3362E-03     107.395E-03    -53.0589E-03     80.5543E-03    -54.6121E-03     107.267E-03    -52.8980E-03     79.9577E-03
            1498     8.53623E-03     53.4545E-03    -32.0030E+06    -100.421E+06    -2.82227E+06     160.679E+03    -54.1853E-03     107.268E-03    -53.0827E-03     75.0990E-03    -54.3868E-03     107.008E-03    -52.9048E-03     74.5945E-03
            1499     7.68254E-03     53.3821E-03    -35.2877E+06    -115.260E+06    -4.58434E+06     223.913E+03    -54.0211E-03     107.129E-03    -53.1075E-03     69.1409E-03    -54.1648E-03     106.751E-03    -52.9121E-03     68.7191E-03
            1500     6.82889E-03     53.3161E-03    -39.0006E+06    -125.685E+06    -8.20452E+06     112.253E+03    -53.8450E-03     106.963E-03    -53.1176E-03     62.8424E-03    -53.9478E-03     106.505E-03    -52.9198E-03     62.4926E-03
            1501     5.97523E-03     53.2564E-03    -42.7803E+06    -133.192E+06    -12.8696E+06    -46.9467E+03    -53.6592E-03     106.779E-03    -53.1196E-03     56.1568E-03    -53.7331E-03     106.265E-03    -52.9288E-03     55.8703E-03
            1502     5.12154E-03     53.2037E-03    -46.7566E+06    -142.016E+06    -20.3474E+06     84.7981E+03    -53.4940E-03     106.605E-03    -53.1111E-03     49.0190E-03    -53.5412E-03     106.041E-03    -52.9391E-03     48.7912E-03
            1503     4.26794E-03     53.1583E-03    -50.8915E+06    -149.691E+06    -30.1156E+06     140.107E+03    -53.3463E-03     106.437E-03    -53.0907E-03     41.5085E-03    -53.3717E-03     105.838E-03    -52.9505E-03     41.3314E-03
            1504     3.41428E-03     53.1206E-03    -54.8870E+06    -160.006E+06    -39.2697E+06     61.4876E+03    -53.2289E-03     106.306E-03    -53.0774E-03     33.6660E-03    -53.2335E-03     105.662E-03    -52.9622E-03     33.5316E-03
            1505     2.56069E-03     53.0909E-03    -58.7054E+06    -169.996E+06    -48.0093E+06     69.3990E+03    -53.1389E-03     106.204E-03    -53.0649E-03     25.5909E-03    -53.1267E-03     105.519E-03    -52.9734E-03     25.4950E-03
            1506     1.70708E-03     53.0693E-03    -61.8338E+06    -175.622E+06    -56.4442E+06     46.6269E+03    -53.0754E-03     106.121E-03    -53.0456E-03     17.3566E-03    -53.0527E-03     105.419E-03    -52.9835E-03     17.2944E-03
            1507     853.564E-06     53.0562E-03    -63.7888E+06    -179.464E+06    -62.3951E+06     31.6585E+03    -53.0146E-03     106.076E-03    -53.0616E-03     9.42166E-03    -52.9842E-03     105.363E-03    -53.0208E-03     9.38921E-03
            1508     16.2219E-03     53.2837E-03    -4.54518E+06     121.676E+06     86.1454E+06     30.8779E+03    -52.8689E-03     105.878E-03    -53.0091E-03     81.3848E-03    -54.0294E-03     107.205E-03    -52.7482E-03     80.7337E-03
            1509     15.3662E-03     53.1795E-03    -9.76950E+06     118.773E+06     80.0784E+06    -255.441E+03    -53.7065E-03     106.733E-03    -53.0262E-03     106.524E-03    -55.2796E-03     108.461E-03    -52.7839E-03     105.603E-03
            1510     14.5126E-03     53.0722E-03    -14.3267E+06     107.157E+06     62.6541E+06    -249.206E+03    -54.5315E-03     107.520E-03    -52.9885E-03     113.722E-03    -56.0676E-03     109.204E-03    -52.8098E-03     112.639E-03
            1511     13.6592E-03     52.9513E-03    -17.6777E+06     92.4141E+06     31.8001E+06     122.443E+03    -54.8175E-03     107.696E-03    -52.8783E-03     115.446E-03    -56.1917E-03     109.243E-03    -52.8277E-03     114.303E-03
            1512     12.8050E-03     52.8414E-03    -20.5160E+06     46.2069E+06     8.54944E+06     86.9891E+03    -54.5743E-03     107.426E-03    -52.8519E-03     105.131E-03    -55.5900E-03     108.508E-03    -52.8464E-03     104.066E-03
            1513     11.9510E-03     52.7415E-03    -22.8325E+06    -10.0372E+06     5.20679E+06     93.6451E+03    -54.5229E-03     107.458E-03    -52.9355E-03     96.1144E-03    -55.2310E-03     108.035E-03    -52.8618E-03     95.1809E-03
            1514     11.0976E-03     52.6495E-03    -24.7132E+06    -43.1278E+06     1.85132E+06     210.733E+03    -54.4751E-03     107.455E-03    -52.9797E-03     90.1099E-03    -54.9848E-03     107.718E-03    -52.8720E-03     89.3025E-03
            1515     10.2437E-03     52.5616E-03    -26.8878E+06    -68.1192E+06     341.627E+03     159.805E+03    -54.4171E-03     107.437E-03    -53.0198E-03     85.4512E-03    -54.7909E-03     107.472E-03    -52.8804E-03     84.7546E-03
            1516     9.39003E-03     52.4787E-03    -29.2778E+06    -85.5020E+06    -965.978E+03     148.287E+03    -54.3263E-03     107.375E-03    -53.0490E-03     80.5068E-03    -54.6030E-03     107.247E-03    -52.8874E-03     79.9103E-03
            1517     8.53635E-03     52.4007E-03    -31.9346E+06    -100.458E+06    -2.58469E+06     185.016E+03    -54.1772E-03     107.250E-03    -53.0730E-03     75.0857E-03    -54.3787E-03     106.989E-03    -52.8939E-03     74.5816E-03
            1518     7.68265E-03     52.3285E-03    -34.9470E+06    -115.262E+06    -4.29195E+06     164.001E+03    -54.0024E-03     107.100E-03    -53.0980E-03     69.1522E-03    -54.1447E-03     106.722E-03    -52.9016E-03     68.7301E-03
            1519     6.82895E-03     52.2624E-03    -38.3980E+06    -125.340E+06    -7.85677E+06     15.2782E+03    -53.8279E-03     106.937E-03    -53.1086E-03     62.8403E-03    -53.9286E-03     106.479E-03    -52.9105E-03     62.4896E-03
            1520     5.97526E-03     52.2028E-03    -42.4618E+06    -133.170E+06    -12.7926E+06    -167.239E+03    -53.6530E-03     106.764E-03    -53.1106E-03     56.1401E-03    -53.7254E-03     106.250E-03    -52.9199E-03     55.8522E-03
            1521     5.12162E-03     52.1500E-03    -46.7917E+06    -142.282E+06    -20.4191E+06    -138.702E+03    -53.4887E-03     106.591E-03    -53.1018E-03     48.9913E-03    -53.5356E-03     106.025E-03    -52.9298E-03     48.7608E-03
            1522     4.26794E-03     52.1047E-03    -50.9006E+06    -149.682E+06    -30.0913E+06     26.5758E+03    -53.3374E-03     106.418E-03    -53.0809E-03     41.4793E-03    -53.3629E-03     105.819E-03    -52.9405E-03     41.3009E-03
            1523     3.41433E-03     52.0670E-03    -54.9285E+06    -159.976E+06    -39.1887E+06     88.1745E+03    -53.2193E-03     106.287E-03    -53.0675E-03     33.6403E-03    -53.2243E-03     105.643E-03    -52.9519E-03     33.5063E-03
            1524     2.56072E-03     52.0373E-03    -58.7257E+06    -169.954E+06    -47.9212E+06     71.0453E+03    -53.1235E-03     106.179E-03    -53.0557E-03     25.5580E-03    -53.1116E-03     105.494E-03    -52.9637E-03     25.4622E-03
            1525     1.70712E-03     52.0158E-03    -61.7448E+06    -175.543E+06    -56.3551E+06     44.9005E+03    -53.0568E-03     106.097E-03    -53.0402E-03     17.3377E-03    -53.0339E-03     105.395E-03    -52.9779E-03     17.2756E-03
            1526     853.516E-06     52.0025E-03    -63.7568E+06    -179.439E+06     -62.355E+06     41.6843E+03    -53.0514E-03     106.072E-03    -53.0201E-03     9.39869E-03    -53.0209E-03     105.359E-03    -52.9793E-03     9.36612E-03
            1527     16.2208E-03     52.2319E-03     -4.3348E+06     121.817E+06     86.3546E+06     358.511E+03    -53.1143E-03     106.114E-03    -52.9995E-03     79.8124E-03    -54.2653E-03     107.431E-03    -52.7381E-03     79.1646E-03
            1528     15.3672E-03     52.1247E-03    -9.37663E+06     119.210E+06     80.4200E+06    -213.837E+03    -53.7661E-03     106.772E-03    -53.0056E-03     105.978E-03    -55.3380E-03     108.500E-03    -52.7628E-03     105.054E-03
            1529     14.5139E-03     52.0182E-03    -14.5857E+06     106.939E+06     62.7197E+06    -590.687E+03    -54.4231E-03     107.390E-03    -52.9673E-03     113.419E-03    -55.9599E-03     109.073E-03    -52.7876E-03     112.334E-03
            1530     13.6592E-03     51.8980E-03    -18.6269E+06     92.2836E+06     32.0440E+06    -14.6851E+03    -54.6707E-03     107.536E-03    -52.8652E-03     115.669E-03    -56.0504E-03     109.084E-03    -52.8118E-03     114.528E-03
            1531     12.8052E-03     51.7875E-03    -21.1540E+06     46.3533E+06     8.86875E+06     144.153E+03    -54.5887E-03     107.430E-03    -52.8418E-03     105.211E-03    -55.6095E-03     108.515E-03    -52.8339E-03     104.145E-03
            1532     11.9516E-03     51.6880E-03    -22.6913E+06    -10.1729E+06     5.60527E+06    -41.8936E+03    -54.4841E-03     107.409E-03    -52.9251E-03     96.1328E-03    -55.1916E-03     107.984E-03    -52.8494E-03     95.1984E-03
            1533     11.0975E-03     51.5956E-03    -24.6917E+06    -43.2801E+06     2.13136E+06     118.313E+03    -54.4468E-03     107.417E-03    -52.9706E-03     90.1584E-03    -54.9566E-03     107.680E-03    -52.8614E-03     89.3503E-03
            1534     10.2439E-03     51.5080E-03    -26.7831E+06    -67.9026E+06     668.376E+03     140.666E+03    -54.4098E-03     107.421E-03    -53.0111E-03     85.4903E-03    -54.7838E-03     107.457E-03    -52.8705E-03     84.7939E-03
            1535     9.39010E-03     51.4249E-03    -29.1387E+06    -85.5758E+06    -866.446E+03     76.7361E+03    -54.2963E-03     107.337E-03    -53.0406E-03     80.5727E-03    -54.5721E-03     107.208E-03    -52.8786E-03     79.9762E-03
            1536     8.53638E-03     51.3470E-03    -31.7686E+06    -100.515E+06    -2.57089E+06     89.5805E+03    -54.1708E-03     107.236E-03    -53.0652E-03     75.0986E-03    -54.3713E-03     106.974E-03    -52.8863E-03     74.5935E-03
            1537     7.68269E-03     51.2748E-03    -34.8448E+06    -115.065E+06    -4.21853E+06    -19.5771E+03    -54.0085E-03     107.098E-03    -53.0894E-03     69.1375E-03    -54.1506E-03     106.720E-03    -52.8932E-03     68.7130E-03
            1538     6.82901E-03     51.2088E-03    -38.3529E+06    -125.204E+06    -7.81340E+06    -133.594E+03    -53.8242E-03     106.923E-03    -53.0988E-03     62.8138E-03    -53.9249E-03     106.466E-03    -52.9007E-03     62.4612E-03
            1539     5.97533E-03     51.1491E-03    -42.2504E+06    -133.166E+06    -12.8015E+06    -122.002E+03    -53.6442E-03     106.744E-03    -53.1000E-03     56.1116E-03    -53.7155E-03     106.230E-03    -52.9096E-03     55.8243E-03
            1540     5.12166E-03     51.0964E-03    -46.5895E+06    -142.454E+06    -20.6255E+06    -59.1473E+03    -53.4851E-03     106.575E-03    -53.0899E-03     48.9655E-03    -53.5303E-03     106.009E-03    -52.9189E-03     48.7360E-03
            1541     4.26803E-03     51.0511E-03    -51.0197E+06    -149.788E+06    -30.1572E+06    -4.07055E+03    -53.3316E-03     106.400E-03    -53.0687E-03     41.4531E-03    -53.3574E-03     105.801E-03    -52.9284E-03     41.2744E-03
            1542     3.41438E-03     51.0134E-03    -55.0203E+06    -159.949E+06    -39.0792E+06     6.06778E+03    -53.2047E-03     106.260E-03    -53.0553E-03     33.6215E-03    -53.2103E-03     105.616E-03    -52.9390E-03     33.4866E-03
            1543     2.56074E-03     50.9837E-03    -58.6065E+06    -169.900E+06    -47.8979E+06    -42.4116E+03    -53.1192E-03     106.160E-03    -53.0412E-03     25.5458E-03    -53.1067E-03     105.476E-03    -52.9493E-03     25.4485E-03
            1544     1.70715E-03     50.9622E-03    -61.7372E+06    -175.536E+06    -56.3216E+06    -31.4594E+03    -53.0620E-03     106.079E-03    -53.0173E-03     17.3263E-03    -53.0391E-03     105.377E-03    -52.9548E-03     17.2632E-03
            1545     853.581E-06     50.9489E-03    -63.8387E+06    -179.466E+06    -62.3510E+06     19.1870E+03    -53.0312E-03     106.011E-03    -52.9797E-03     9.38010E-03    -53.0011E-03     105.298E-03    -52.9387E-03     9.34735E-03
            1546     16.2235E-03     51.1790E-03    -4.74304E+06     121.479E+06     85.9575E+06    -61.9077E+03    -53.4285E-03     106.413E-03    -52.9846E-03     79.9755E-03    -54.5882E-03     107.738E-03    -52.7241E-03     79.3150E-03
            1547     15.3684E-03     51.0711E-03    -8.85866E+06     119.735E+06     81.2361E+06     366.564E+03    -53.7160E-03     106.705E-03    -52.9887E-03     107.215E-03    -55.2959E-03     108.443E-03    -52.7433E-03     106.303E-03
            1548     14.5131E-03     50.9649E-03    -14.1640E+06     107.218E+06     63.2034E+06     460.457E+03    -54.1805E-03     107.140E-03    -52.9599E-03     114.067E-03    -55.7160E-03     108.823E-03    -52.7789E-03     113.004E-03
            1549     13.6592E-03     50.8442E-03    -18.6929E+06     92.1512E+06     31.7646E+06    -126.238E+03    -54.7361E-03     107.598E-03    -52.8619E-03     115.953E-03    -56.1179E-03     109.148E-03    -52.8096E-03     114.808E-03
            1550     12.8054E-03     50.7336E-03    -20.7578E+06     46.3385E+06     9.06729E+06    -476.761E+03    -54.5939E-03     107.432E-03    -52.8384E-03     105.362E-03    -55.6134E-03     108.516E-03    -52.8302E-03     104.289E-03
            1551     11.9513E-03     50.6344E-03    -22.6006E+06    -10.4816E+06     5.50909E+06    -60.9610E+03    -54.5045E-03     107.425E-03    -52.9207E-03     96.3148E-03    -55.2111E-03     107.998E-03    -52.8452E-03     95.3806E-03
            1552     11.0977E-03     50.5418E-03    -24.4861E+06    -43.2690E+06     2.07467E+06     67.0987E+03    -54.4609E-03     107.426E-03    -52.9648E-03     90.2619E-03    -54.9693E-03     107.688E-03    -52.8562E-03     89.4536E-03
            1553     10.2439E-03     50.4543E-03    -26.5253E+06    -67.9914E+06     614.170E+03    -22.7544E+03    -54.4071E-03     107.412E-03    -53.0048E-03     85.4961E-03    -54.7794E-03     107.447E-03    -52.8647E-03     84.7978E-03
            1554     9.39013E-03     50.3712E-03    -28.8191E+06    -85.5019E+06    -857.209E+03     9.87091E+03    -54.3119E-03     107.345E-03    -53.0332E-03     80.5432E-03    -54.5861E-03     107.216E-03    -52.8718E-03     79.9457E-03
            1555     8.53644E-03     50.2933E-03    -31.4864E+06    -100.618E+06    -2.70816E+06     16.8823E+03    -54.1717E-03     107.228E-03    -53.0559E-03     75.0395E-03    -54.3703E-03     106.965E-03    -52.8779E-03     74.5336E-03
            1556     7.68277E-03     50.2212E-03    -34.6296E+06    -114.857E+06    -4.18517E+06     39.8169E+03    -54.0109E-03     107.090E-03    -53.0794E-03     69.0810E-03    -54.1523E-03     106.713E-03    -52.8836E-03     68.6573E-03
            1557     6.82911E-03     50.1551E-03    -38.3760E+06    -125.051E+06    -7.83553E+06    -145.296E+03    -53.8231E-03     106.911E-03    -53.0875E-03     62.7790E-03    -53.9241E-03     106.454E-03    -52.8897E-03     62.4263E-03
            1558     5.97540E-03     50.0955E-03    -42.5383E+06    -133.441E+06    -13.0792E+06    -111.637E+03    -53.6347E-03     106.722E-03    -53.0874E-03     56.0906E-03    -53.7066E-03     106.207E-03    -52.8976E-03     55.8037E-03
            1559     5.12173E-03     50.0428E-03    -46.8703E+06    -142.438E+06    -20.6232E+06     6.82032E+03    -53.4717E-03     106.550E-03    -53.0779E-03     48.9390E-03    -53.5184E-03     105.984E-03    -52.9065E-03     48.7105E-03
            1560     4.26806E-03     49.9975E-03    -50.9722E+06    -149.734E+06    -30.1007E+06    -112.018E+03    -53.3201E-03     106.376E-03    -53.0562E-03     41.4294E-03    -53.3458E-03     105.777E-03    -52.9157E-03     41.2493E-03
            1561     3.41442E-03     49.9598E-03    -54.8883E+06    -160.014E+06    -39.2454E+06    -137.420E+03    -53.1978E-03     106.239E-03    -53.0409E-03     33.6072E-03    -53.2024E-03     105.594E-03    -52.9255E-03     33.4704E-03
            1562     2.56079E-03     49.9302E-03    -58.6551E+06    -169.969E+06    -47.9686E+06    -49.0574E+03    -53.1135E-03     106.138E-03    -53.0250E-03     25.5436E-03    -53.1011E-03     105.454E-03    -52.9333E-03     25.4463E-03
            1563     1.70720E-03     49.9086E-03    -61.7596E+06    -175.595E+06    -56.4196E+06    -27.8184E+03    -53.0516E-03     106.048E-03    -52.9967E-03     17.3390E-03    -53.0286E-03     105.346E-03    -52.9346E-03     17.2760E-03
            1564     853.654E-06     49.8954E-03    -63.7617E+06    -179.426E+06    -62.3382E+06    -50.8688E+03    -52.9782E-03     105.966E-03    -52.9878E-03     9.37811E-03    -52.9478E-03     105.253E-03    -52.9469E-03     9.34447E-03
            1565     16.2199E-03     50.1231E-03    -4.38649E+06     121.842E+06     86.3480E+06    -181.648E+03    -53.0976E-03     106.108E-03    -53.0105E-03     80.4265E-03    -54.2605E-03     107.438E-03    -52.7490E-03     79.7674E-03
            1566     15.3671E-03     50.0183E-03    -9.64571E+06     119.043E+06     80.2611E+06     106.133E+03    -53.9927E-03     107.006E-03    -53.0136E-03     107.348E-03    -55.5797E-03     108.749E-03    -52.7709E-03     106.422E-03
            1567     14.5133E-03     49.9111E-03    -14.0599E+06     107.400E+06     63.1377E+06     468.964E+03    -54.4959E-03     107.467E-03    -52.9713E-03     114.287E-03    -56.0340E-03     109.154E-03    -52.7910E-03     113.215E-03
            1568     13.6593E-03     49.7901E-03    -17.0766E+06     92.7631E+06     32.4420E+06    -48.1365E+03    -54.7879E-03     107.652E-03    -52.8640E-03     115.848E-03    -56.1634E-03     109.202E-03    -52.8116E-03     114.703E-03
            1569     12.8051E-03     49.6802E-03    -19.9907E+06     45.6966E+06     8.65219E+06    -107.977E+03    -54.5948E-03     107.431E-03    -52.8367E-03     105.298E-03    -55.6080E-03     108.511E-03    -52.8307E-03     104.230E-03
            1570     11.9514E-03     49.5803E-03    -22.4262E+06    -10.5166E+06     5.44954E+06    -90.1304E+03    -54.5398E-03     107.459E-03    -52.9193E-03     96.2156E-03    -55.2451E-03     108.032E-03    -52.8443E-03     95.2801E-03
            1571     11.0976E-03     49.4882E-03    -24.2548E+06    -43.2867E+06     2.10494E+06    -223.785E+03    -54.4923E-03     107.453E-03    -52.9608E-03     90.1765E-03    -54.9996E-03     107.715E-03    -52.8524E-03     89.3637E-03
            1572     10.2439E-03     49.4005E-03    -26.2071E+06    -68.2409E+06     612.795E+03    -82.1470E+03    -54.4435E-03     107.441E-03    -52.9976E-03     85.4320E-03    -54.8139E-03     107.474E-03    -52.8576E-03     84.7323E-03
            1573     9.39029E-03     49.3175E-03    -28.5913E+06    -85.3691E+06    -700.374E+03    -6.01823E+03    -54.3241E-03     107.347E-03    -53.0234E-03     80.4525E-03    -54.5975E-03     107.218E-03    -52.8616E-03     79.8546E-03
            1574     8.53658E-03     49.2397E-03    -31.2967E+06    -100.653E+06    -2.57865E+06    -2.58414E+03    -54.1622E-03     107.207E-03    -53.0449E-03     75.0095E-03    -54.3598E-03     106.944E-03    -52.8665E-03     74.5036E-03
            1575     7.68286E-03     49.1674E-03    -34.2963E+06    -114.787E+06    -4.11375E+06    -19.2336E+03    -53.9955E-03     107.063E-03    -53.0679E-03     69.0643E-03    -54.1353E-03     106.686E-03    -52.8723E-03     68.6402E-03
            1576     6.82915E-03     49.1015E-03    -37.8401E+06    -125.093E+06    -7.40037E+06     139.786E+03    -53.8243E-03     106.902E-03    -53.0772E-03     62.7417E-03    -53.9231E-03     106.443E-03    -52.8780E-03     62.3928E-03
            1577     5.97548E-03     49.0419E-03    -42.1677E+06    -133.470E+06    -12.4981E+06     210.486E+03    -53.6358E-03     106.712E-03    -53.0762E-03     56.0422E-03    -53.7066E-03     106.196E-03    -52.8841E-03     55.7595E-03
            1578     5.12180E-03     48.9893E-03    -46.5742E+06    -142.160E+06    -20.5220E+06    -102.557E+03    -53.4539E-03     106.517E-03    -53.0632E-03     48.9087E-03    -53.4995E-03     105.952E-03    -52.8922E-03     48.6790E-03
            1579     4.26813E-03     48.9439E-03    -50.7821E+06    -149.845E+06    -30.3739E+06    -190.160E+03    -53.3025E-03     106.344E-03    -53.0413E-03     41.4032E-03    -53.3266E-03     105.744E-03    -52.9022E-03     41.2222E-03
            1580     3.41446E-03     48.9063E-03    -54.8893E+06    -160.108E+06    -39.3976E+06    -53.6537E+03    -53.1906E-03     106.217E-03    -53.0265E-03     33.5934E-03    -53.1948E-03     105.572E-03    -52.9117E-03     33.4579E-03
            1581     2.56084E-03     48.8766E-03    -58.6789E+06    -170.012E+06    -48.0227E+06    -45.9017E+03    -53.0991E-03     106.109E-03    -53.0102E-03     25.5386E-03    -53.0867E-03     105.424E-03    -52.9187E-03     25.4415E-03
            1582     1.70721E-03     48.8551E-03    -61.8081E+06    -175.633E+06    -56.4483E+06    -37.4684E+03    -53.0153E-03     106.004E-03    -52.9891E-03     17.3305E-03    -52.9925E-03     105.302E-03    -52.9271E-03     17.2674E-03
            1583     853.536E-06     48.8419E-03    -63.7987E+06    -179.508E+06    -62.4270E+06    -67.3953E+03    -52.9832E-03     105.965E-03    -52.9816E-03     9.35259E-03    -52.9527E-03     105.252E-03    -52.9410E-03     9.31853E-03
            1584     16.2220E-03     49.0702E-03    -4.54410E+06     121.696E+06     86.1848E+06     217.758E+03    -52.9982E-03     106.023E-03    -53.0245E-03     80.2730E-03    -54.1592E-03     107.350E-03    -52.7635E-03     79.6179E-03
            1585     15.3666E-03     48.9636E-03    -9.58386E+06     119.103E+06     80.4768E+06    -85.8974E+03    -54.1835E-03     107.208E-03    -53.0247E-03     106.152E-03    -55.7628E-03     108.943E-03    -52.7811E-03     105.219E-03
            1586     14.5132E-03     48.8569E-03    -13.8784E+06     107.543E+06     62.9469E+06    -452.431E+03    -54.5441E-03     107.515E-03    -52.9710E-03     113.702E-03    -56.0781E-03     109.199E-03    -52.7921E-03     112.618E-03
            1587     13.6592E-03     48.7367E-03    -17.9264E+06     92.1577E+06     31.9106E+06     100.926E+03    -54.7896E-03     107.652E-03    -52.8620E-03     115.785E-03    -56.1675E-03     109.201E-03    -52.8101E-03     114.641E-03
            1588     12.8054E-03     48.6261E-03    -20.6141E+06     46.2014E+06     9.07383E+06     137.505E+03    -54.6668E-03     107.501E-03    -52.8343E-03     105.182E-03    -55.6847E-03     108.584E-03    -52.8260E-03     104.115E-03
            1589     11.9516E-03     48.5267E-03    -21.9861E+06    -10.2212E+06     5.77200E+06    -491.916E+03    -54.5504E-03     107.462E-03    -52.9115E-03     96.1139E-03    -55.2542E-03     108.035E-03    -52.8359E-03     95.1730E-03
            1590     11.0977E-03     48.4344E-03    -23.8347E+06    -43.8484E+06     2.21273E+06    -244.290E+03    -54.5047E-03     107.456E-03    -52.9514E-03     90.0625E-03    -55.0091E-03     107.714E-03    -52.8421E-03     89.2491E-03
            1591     10.2441E-03     48.3467E-03    -26.1319E+06    -68.1844E+06     684.122E+03     15.7029E+03    -54.4330E-03     107.419E-03    -52.9864E-03     85.3479E-03    -54.8028E-03     107.452E-03    -52.8462E-03     84.6498E-03
            1592     9.39036E-03     48.2639E-03    -28.6382E+06    -85.6161E+06    -746.535E+03     38.8137E+03    -54.3008E-03     107.313E-03    -53.0125E-03     80.4458E-03    -54.5738E-03     107.183E-03    -52.8506E-03     79.8491E-03
            1593     8.53665E-03     48.1860E-03    -31.4030E+06    -100.372E+06    -2.46718E+06     12.8615E+03    -54.1574E-03     107.192E-03    -53.0344E-03     75.0018E-03    -54.3560E-03     106.930E-03    -52.8557E-03     74.4965E-03
            1594     7.68293E-03     48.1139E-03    -34.6391E+06    -114.829E+06    -4.23211E+06    -131.895E+03    -53.9964E-03     107.052E-03    -53.0559E-03     69.0406E-03    -54.1374E-03     106.675E-03    -52.8603E-03     68.6154E-03
            1595     6.82926E-03     48.0478E-03    -38.2134E+06    -125.592E+06    -7.61622E+06     123.376E+03    -53.8185E-03     106.882E-03    -53.0640E-03     62.6992E-03    -53.9181E-03     106.423E-03    -52.8645E-03     62.3504E-03
            1596     5.97559E-03     47.9884E-03     -41.933E+06    -133.124E+06    -12.3731E+06     231.458E+03    -53.6219E-03     106.684E-03    -53.0619E-03     56.0022E-03    -53.6921E-03     106.168E-03    -52.8699E-03     55.7200E-03
            1597     5.12188E-03     47.9357E-03    -46.2396E+06    -141.944E+06    -20.4855E+06     129.321E+03    -53.4399E-03     106.488E-03    -53.0485E-03     48.8859E-03    -53.4842E-03     105.924E-03    -52.8780E-03     48.6594E-03
            1598     4.26818E-03     47.8904E-03    -50.8472E+06    -149.916E+06    -30.4219E+06     96.8711E+03    -53.2895E-03     106.316E-03    -53.0270E-03     41.3941E-03    -53.3138E-03     105.716E-03    -52.8880E-03     41.2170E-03
            1599     3.41451E-03     47.8527E-03    -54.9824E+06    -160.086E+06    -39.2899E+06    -2.62116E+03    -53.1746E-03     106.187E-03    -53.0128E-03     33.5776E-03    -53.1795E-03     105.543E-03    -52.8974E-03     33.4428E-03
            1600     2.56087E-03     47.8231E-03    -58.6839E+06    -170.028E+06    -48.0357E+06    -40.8510E+03    -53.0785E-03     106.076E-03    -52.9971E-03     25.5123E-03    -53.0660E-03     105.390E-03    -52.9056E-03     25.4153E-03
            1601     1.70722E-03     47.8016E-03    -61.8117E+06    -175.660E+06    -56.4601E+06    -65.2678E+03    -53.0050E-03     105.982E-03    -52.9767E-03     17.2976E-03    -52.9821E-03     105.280E-03    -52.9147E-03     17.2342E-03
            1602     853.622E-06     47.7885E-03    -64.0056E+06    -179.618E+06    -62.4302E+06    -17.5377E+03    -53.0218E-03     105.938E-03    -52.9166E-03     9.36182E-03    -52.9922E-03     105.225E-03    -52.8755E-03     9.32857E-03
            1603     16.2200E-03     48.0155E-03    -4.76568E+06     121.550E+06     85.7922E+06    -3.43396E+03    -53.2371E-03     106.238E-03    -53.0013E-03     80.4810E-03    -54.3978E-03     107.565E-03    -52.7417E-03     79.8185E-03
            1604     15.3683E-03     47.9092E-03    -9.04627E+06     119.549E+06     81.1694E+06    -178.837E+03    -53.9413E-03     106.945E-03    -53.0040E-03     105.896E-03    -55.5124E-03     108.673E-03    -52.7584E-03     104.969E-03
            1605     14.5135E-03     47.8039E-03    -14.0301E+06     107.085E+06     63.4101E+06     121.975E+03    -54.3544E-03     107.317E-03    -52.9626E-03     113.594E-03    -55.8865E-03     108.996E-03    -52.7804E-03     112.523E-03
            1606     13.6592E-03     47.6824E-03    -18.2964E+06     92.3901E+06     32.2718E+06    -38.1705E+03    -54.8032E-03     107.660E-03    -52.8567E-03     115.770E-03    -56.1832E-03     109.209E-03    -52.8028E-03     114.624E-03
            1607     12.8055E-03     47.5724E-03    -19.7816E+06     46.9706E+06     9.79711E+06    -900.847E+03    -54.6779E-03     107.505E-03    -52.8267E-03     105.104E-03    -55.6934E-03     108.588E-03    -52.8172E-03     104.024E-03
            1608     11.9516E-03     47.4729E-03    -21.4187E+06    -10.9588E+06     5.65126E+06    -366.901E+03    -54.5765E-03     107.477E-03    -52.9003E-03     96.1052E-03    -55.2762E-03     108.045E-03    -52.8251E-03     95.1658E-03
            1609     11.0980E-03     47.3806E-03    -23.9379E+06    -43.9990E+06     1.96397E+06     228.706E+03    -54.4802E-03     107.419E-03    -52.9391E-03     90.0915E-03    -54.9842E-03     107.676E-03    -52.8308E-03     89.2852E-03
            1610     10.2442E-03     47.2931E-03    -26.4031E+06    -68.0818E+06     456.121E+03     156.556E+03    -54.3992E-03     107.375E-03    -52.9758E-03     85.3877E-03    -54.7697E-03     107.409E-03    -52.8365E-03     84.6928E-03
            1611     9.39045E-03     47.2101E-03    -28.8531E+06    -85.6919E+06    -1.09054E+06     92.9067E+03    -54.3073E-03     107.309E-03    -53.0019E-03     80.4346E-03    -54.5804E-03     107.179E-03    -52.8412E-03     79.8391E-03
            1612     8.53673E-03     47.1324E-03    -31.6698E+06    -100.378E+06    -2.83850E+06     87.6728E+03    -54.1722E-03     107.194E-03    -53.0214E-03     74.9428E-03    -54.3713E-03     106.932E-03    -52.8441E-03     74.4386E-03
            1613     7.68306E-03     47.0602E-03    -35.0756E+06    -114.799E+06    -4.56078E+06     207.534E+03    -53.9988E-03     107.039E-03    -53.0406E-03     68.9751E-03    -54.1415E-03     106.663E-03    -52.8461E-03     68.5545E-03
            1614     6.82938E-03     46.9943E-03    -38.9141E+06    -125.536E+06    -8.41643E+06    -65.8905E+03    -53.7961E-03     106.842E-03    -53.0457E-03     62.6561E-03    -53.8979E-03     106.384E-03    -52.8494E-03     62.3054E-03
            1615     5.97563E-03     46.9347E-03    -42.8910E+06    -133.308E+06    -13.3702E+06    -117.588E+03    -53.5987E-03     106.643E-03    -53.0439E-03     55.9674E-03    -53.6719E-03     106.129E-03    -52.8553E-03     55.6811E-03
            1616     5.12194E-03     46.8822E-03    -46.9942E+06    -142.003E+06    -20.4917E+06     184.272E+03    -53.4317E-03     106.466E-03    -53.0343E-03     48.8326E-03    -53.4796E-03     105.902E-03    -52.8627E-03     48.6071E-03
            1617     4.26824E-03     46.8369E-03    -50.9879E+06    -149.638E+06    -29.9170E+06     118.753E+03    -53.2790E-03     106.291E-03    -53.0120E-03     41.3470E-03    -53.3051E-03     105.692E-03    -52.8707E-03     41.1704E-03
            1618     3.41458E-03     46.7993E-03    -54.9519E+06    -160.039E+06    -39.2127E+06    -7.77991E+03    -53.1574E-03     106.152E-03    -52.9945E-03     33.5329E-03    -53.1623E-03     105.507E-03    -52.8788E-03     33.3983E-03
            1619     2.56090E-03     46.7697E-03    -58.7208E+06    -170.040E+06    -47.9993E+06    -22.8826E+03    -53.0630E-03     106.041E-03    -52.9777E-03     25.4557E-03    -53.0508E-03     105.356E-03    -52.8860E-03     25.3591E-03
            1620     1.70725E-03     46.7482E-03    -61.8875E+06    -175.728E+06    -56.5135E+06     9.31389E+03    -52.9933E-03     105.946E-03    -52.9530E-03     17.2730E-03    -52.9706E-03     105.244E-03    -52.8910E-03     17.2108E-03
            1621     853.635E-06     46.7350E-03    -63.9263E+06    -179.657E+06    -62.5693E+06    -92.0019E+03    -52.9775E-03     105.885E-03    -52.9073E-03     9.40603E-03    -52.9473E-03     105.172E-03    -52.8670E-03     9.37175E-03
            1622     16.2238E-03     46.9617E-03    -4.31391E+06     121.952E+06     86.2095E+06    -240.000E+03    -53.2660E-03     106.243E-03    -52.9771E-03     80.3054E-03    -54.4201E-03     107.565E-03    -52.7167E-03     79.6452E-03
            1623     15.3671E-03     46.8561E-03    -9.60613E+06     118.988E+06     79.6873E+06    -33.2889E+03    -53.5397E-03     106.523E-03    -52.9831E-03     106.272E-03    -55.1087E-03     108.249E-03    -52.7432E-03     105.357E-03
            1624     14.5134E-03     46.7497E-03    -14.1052E+06     107.182E+06     63.5934E+06    -195.397E+03    -54.4593E-03     107.416E-03    -52.9569E-03     114.004E-03    -55.9960E-03     109.099E-03    -52.7739E-03     112.925E-03
            1625     13.6597E-03     46.6289E-03    -16.2773E+06     93.6985E+06     33.7592E+06    -1.10222E+06    -54.8549E-03     107.703E-03    -52.8481E-03     115.672E-03    -56.2274E-03     109.252E-03    -52.7916E-03     114.513E-03
            1626     12.8055E-03     46.5185E-03    -18.9669E+06     45.8335E+06     8.80281E+06    -404.320E+03    -54.5933E-03     107.405E-03    -52.8119E-03     105.107E-03    -55.5995E-03     108.481E-03    -52.8068E-03     104.036E-03
            1627     11.9519E-03     46.4191E-03    -22.2671E+06    -11.6936E+06     4.80806E+06     609.804E+03    -54.5359E-03     107.428E-03    -52.8921E-03     96.1392E-03    -55.2372E-03     107.995E-03    -52.8188E-03     95.2137E-03
            1628     11.0979E-03     46.3270E-03    -24.8334E+06    -43.5818E+06     1.34013E+06     409.543E+03    -54.4818E-03     107.413E-03    -52.9313E-03     90.1240E-03    -54.9894E-03     107.674E-03    -52.8254E-03     89.3210E-03
            1629     10.2442E-03     46.2394E-03    -26.8565E+06    -68.0726E+06     67.6948E+03     129.262E+03    -54.4424E-03     107.409E-03    -52.9664E-03     85.3344E-03    -54.8144E-03     107.444E-03    -52.8284E-03     84.6389E-03
            1630     9.39053E-03     46.1565E-03    -29.1480E+06    -85.4711E+06    -1.34622E+06     70.5616E+03    -54.3426E-03     107.330E-03    -52.9879E-03     80.3402E-03    -54.6169E-03     107.202E-03    -52.8284E-03     79.7442E-03
            1631     8.53689E-03     46.0786E-03    -31.7307E+06    -100.651E+06    -3.15374E+06     110.709E+03    -54.1835E-03     107.187E-03    -53.0035E-03     74.8314E-03    -54.3819E-03     106.925E-03    -52.8273E-03     74.3276E-03
            1632     7.68320E-03     46.0066E-03    -34.5059E+06    -114.773E+06    -4.55419E+06     189.887E+03    -53.9819E-03     107.003E-03    -53.0212E-03     68.8747E-03    -54.1215E-03     106.626E-03    -52.8276E-03     68.4543E-03
            1633     6.82946E-03     45.9407E-03    -37.9736E+06    -125.251E+06    -7.83050E+06     273.466E+03    -53.7820E-03     106.810E-03    -53.0279E-03     62.5580E-03    -53.8801E-03     106.351E-03    -52.8304E-03     62.2120E-03
            1634     5.97577E-03     45.8813E-03    -42.4305E+06    -133.338E+06    -12.9515E+06     153.381E+03    -53.5933E-03     106.618E-03    -53.0250E-03     55.8757E-03    -53.6645E-03     106.103E-03    -52.8349E-03     55.5932E-03
            1635     5.12205E-03     45.8286E-03    -46.8742E+06    -141.936E+06    -20.4446E+06    -162.384E+03    -53.4236E-03     106.435E-03    -53.0114E-03     48.7532E-03    -53.4710E-03     105.871E-03    -52.8398E-03     48.5235E-03
            1636     4.26838E-03     45.7835E-03    -50.9923E+06    -149.682E+06    -29.9663E+06    -146.639E+03    -53.2669E-03     106.253E-03    -52.9860E-03     41.2677E-03    -53.2928E-03     105.653E-03    -52.8449E-03     41.0879E-03
            1637     3.41465E-03     45.7458E-03    -54.9607E+06    -160.039E+06    -39.2003E+06    -1.51507E+03    -53.1359E-03     106.102E-03    -52.9662E-03     33.4643E-03    -53.1408E-03     105.457E-03    -52.8505E-03     33.3300E-03
            1638     2.56100E-03     45.7162E-03    -58.7572E+06    -170.052E+06    -47.9945E+06     23.4145E+03    -53.0392E-03     105.986E-03    -52.9471E-03     25.4056E-03    -53.0271E-03     105.301E-03    -52.8553E-03     25.3098E-03
            1639     1.70733E-03     45.6948E-03    -61.8994E+06    -175.728E+06    -56.5037E+06     4.60116E+03    -52.9545E-03     105.878E-03    -52.9232E-03     17.2398E-03    -52.9319E-03     105.175E-03    -52.8611E-03     17.1777E-03
            1640     853.645E-06     45.6816E-03    -63.8878E+06    -179.646E+06    -62.5773E+06      -6.708E+03    -52.8957E-03     105.829E-03    -52.9336E-03     9.40038E-03    -52.8652E-03     105.116E-03    -52.8934E-03     9.36730E-03
            1641     16.2211E-03     45.9081E-03    -4.62772E+06     121.616E+06     86.0077E+06    -8.61236E+03    -53.1398E-03     106.135E-03    -52.9953E-03     80.9530E-03    -54.3015E-03     107.463E-03    -52.7349E-03     80.2943E-03
            1642     15.3681E-03     45.8038E-03    -9.81154E+06     118.848E+06     79.5061E+06     358.312E+03    -54.0346E-03     107.028E-03    -52.9930E-03     107.011E-03    -55.6126E-03     108.762E-03    -52.7536E-03     106.089E-03
            1643     14.5134E-03     45.6949E-03    -14.8415E+06     109.433E+06     60.0352E+06    -1.01385E+06    -54.5670E-03     107.498E-03    -52.9314E-03     113.992E-03    -56.1053E-03     109.198E-03    -52.7683E-03     112.900E-03
            1644     13.6597E-03     45.5753E-03    -19.3889E+06     92.8463E+06     28.2902E+06    -1.40701E+06    -54.7662E-03     107.586E-03    -52.8197E-03     115.579E-03    -56.1427E-03     109.141E-03    -52.7847E-03     114.419E-03
            1645     12.8058E-03     45.4648E-03    -22.6308E+06     43.4551E+06     6.36743E+06     437.626E+03    -54.5902E-03     107.394E-03    -52.8038E-03     105.323E-03    -55.6082E-03     108.467E-03    -52.8022E-03     104.264E-03
            1646     11.9516E-03     45.3655E-03    -24.2465E+06    -10.9696E+06     4.08553E+06     535.019E+03    -54.5581E-03     107.442E-03    -52.8842E-03     96.0940E-03    -55.2691E-03     108.016E-03    -52.8127E-03     95.1671E-03
            1647     11.0981E-03     45.2731E-03    -25.3894E+06    -43.2156E+06     1.25780E+06    -195.587E+03    -54.5466E-03     107.467E-03    -52.9202E-03     89.8979E-03    -55.0571E-03     107.730E-03    -52.8144E-03     89.0858E-03
            1648     10.2444E-03     45.1857E-03    -27.0835E+06    -68.1021E+06    -26.3433E+03    -152.652E+03    -54.4792E-03     107.428E-03    -52.9492E-03     85.1350E-03    -54.8519E-03     107.463E-03    -52.8113E-03     84.4351E-03
            1649     9.39076E-03     45.1027E-03    -29.2795E+06    -85.5263E+06    -1.32943E+06    -56.8830E+03    -54.3443E-03     107.311E-03    -52.9671E-03     80.1916E-03    -54.6190E-03     107.182E-03    -52.8073E-03     79.5940E-03
            1650     8.53710E-03     45.0251E-03    -31.8199E+06    -100.562E+06    -3.12194E+06    -88.5208E+03    -54.1594E-03     107.140E-03    -52.9809E-03     74.7179E-03    -54.3580E-03     106.878E-03    -52.8046E-03     74.2122E-03
            1651     7.68338E-03     44.9530E-03    -34.9276E+06    -115.053E+06    -4.79025E+06    -36.4474E+03    -53.9666E-03     106.964E-03    -52.9975E-03     68.7871E-03    -54.1073E-03     106.586E-03    -52.8039E-03     68.3643E-03
            1652     6.82968E-03     44.8872E-03    -38.4822E+06    -125.524E+06    -7.99895E+06     297.067E+03    -53.7808E-03     106.783E-03    -53.0020E-03     62.4751E-03    -53.8806E-03     106.324E-03    -52.8042E-03     62.1298E-03
            1653     5.97594E-03     44.8277E-03    -42.1395E+06    -132.738E+06    -12.5997E+06     260.652E+03    -53.5906E-03     106.586E-03    -52.9953E-03     55.7745E-03    -53.6616E-03     106.073E-03    -52.8047E-03     55.4937E-03
            1654     5.12224E-03     44.7753E-03    -46.4133E+06    -141.713E+06    -20.6185E+06    -62.2831E+03    -53.4085E-03     106.384E-03    -52.9756E-03     48.6531E-03    -53.4534E-03     105.821E-03    -52.8059E-03     48.4251E-03
            1655     4.26849E-03     44.7300E-03    -50.9130E+06    -149.949E+06    -30.3813E+06    -114.250E+03    -53.2462E-03     106.193E-03    -52.9469E-03     41.1724E-03    -53.2706E-03     105.593E-03    -52.8076E-03     40.9934E-03
            1656     3.41483E-03     44.6925E-03    -55.0542E+06    -160.129E+06    -39.2848E+06    -11.2360E+03    -53.1052E-03     106.031E-03    -52.9256E-03     33.3786E-03    -53.1102E-03     105.386E-03    -52.8100E-03     33.2444E-03
            1657     2.56107E-03     44.6629E-03    -58.7531E+06    -170.054E+06    -48.0256E+06     4.70941E+03    -52.9920E-03     105.898E-03    -52.9060E-03     25.3525E-03    -52.9798E-03     105.213E-03    -52.8144E-03     25.2567E-03
            1658     1.70738E-03     44.6415E-03    -61.8563E+06    -175.674E+06    -56.4391E+06    -35.1371E+03    -52.9205E-03     105.802E-03    -52.8813E-03     17.1885E-03    -52.8977E-03     105.100E-03    -52.8191E-03     17.1259E-03
            1659     853.655E-06     44.6284E-03    -64.0325E+06    -179.653E+06    -62.4715E+06     89.1133E+03    -52.8826E-03     105.741E-03    -52.8581E-03     9.35595E-03    -52.8530E-03     105.027E-03    -52.8171E-03     9.32434E-03
            1660     16.2204E-03     44.8543E-03    -4.71208E+06     121.417E+06     85.8506E+06     261.197E+03    -53.2265E-03     106.229E-03    -53.0026E-03     79.6462E-03    -54.3813E-03     107.549E-03    -52.7426E-03     78.9896E-03
            1661     15.3667E-03     44.7477E-03     -9.2572E+06     119.406E+06     80.6225E+06    -351.557E+03    -54.2169E-03     107.212E-03    -52.9947E-03     106.029E-03    -55.7919E-03     108.944E-03    -52.7513E-03     105.092E-03
            1662     14.5142E-03     44.6421E-03    -13.9360E+06     110.099E+06      60.935E+06     203.679E+03    -54.4785E-03     107.405E-03    -52.9267E-03     113.695E-03    -56.0121E-03     109.104E-03    -52.7615E-03     112.621E-03
            1663     13.6595E-03     44.5212E-03    -19.8306E+06     92.0158E+06     28.0300E+06     1.17605E+06    -54.7153E-03     107.532E-03    -52.8171E-03     115.655E-03    -56.0933E-03     109.085E-03    -52.7816E-03     114.529E-03
            1664     12.8054E-03     44.4114E-03    -23.2307E+06     43.6711E+06     6.91452E+06    -251.590E+03    -54.7484E-03     107.548E-03    -52.7995E-03     105.081E-03    -55.7721E-03     108.624E-03    -52.7946E-03     104.007E-03
            1665     11.9521E-03     44.3114E-03    -23.7514E+06    -10.4564E+06     4.85935E+06    -1.20039E+06    -54.6481E-03     107.517E-03    -52.8685E-03     95.8620E-03    -55.3585E-03     108.091E-03    -52.7946E-03     94.9105E-03
            1666     11.0984E-03     44.2195E-03    -24.7120E+06    -43.6269E+06     1.63806E+06    -635.131E+03    -54.5468E-03     107.445E-03    -52.8982E-03     89.7496E-03    -55.0535E-03     107.704E-03    -52.7909E-03     88.9319E-03
            1667     10.2447E-03     44.1318E-03    -26.8124E+06    -68.2530E+06     56.6173E+03    -274.783E+03    -54.4648E-03     107.389E-03    -52.9244E-03     85.0750E-03    -54.8356E-03     107.422E-03    -52.7863E-03     84.3743E-03
            1668     9.39106E-03     44.0492E-03    -29.2102E+06    -85.6920E+06    -1.37403E+06    -150.431E+03    -54.3195E-03     107.261E-03    -52.9414E-03     80.1231E-03    -54.5930E-03     107.130E-03    -52.7816E-03     79.5253E-03
            1669     8.53730E-03     43.9714E-03    -32.0489E+06    -100.538E+06    -3.20516E+06    -46.2996E+03    -54.1446E-03     107.099E-03    -52.9542E-03     74.6392E-03    -54.3438E-03     106.837E-03    -52.7780E-03     74.1350E-03
            1670     7.68358E-03     43.8996E-03    -35.4013E+06    -115.326E+06    -5.10652E+06     124.649E+03    -53.9749E-03     106.942E-03    -52.9672E-03     68.6788E-03    -54.1168E-03     106.564E-03    -52.7742E-03     68.2586E-03
            1671     6.82987E-03     43.8337E-03    -38.9400E+06    -125.433E+06    -8.63394E+06    -24.9071E+03    -53.7871E-03     106.751E-03    -52.9644E-03     62.3652E-03    -53.8882E-03     106.294E-03    -52.7692E-03     62.0162E-03
            1672     5.97620E-03     43.7743E-03     -42.724E+06    -132.594E+06    -13.2764E+06    -178.714E+03    -53.5805E-03     106.532E-03    -52.9520E-03     55.6570E-03    -53.6534E-03     106.022E-03    -52.7642E-03     55.3711E-03
            1673     5.12246E-03     43.7218E-03    -46.7401E+06    -141.765E+06    -20.6769E+06     33.2962E+03    -53.3879E-03     106.318E-03    -52.9302E-03     48.5298E-03    -53.4341E-03     105.755E-03    -52.7603E-03     48.3035E-03
            1674     4.26876E-03     43.6767E-03    -50.9506E+06    -149.914E+06    -30.3217E+06     89.6559E+03    -53.2092E-03     106.107E-03    -52.8977E-03     41.0640E-03    -53.2337E-03     105.506E-03    -52.7580E-03     40.8881E-03
            1675     3.41496E-03     43.6392E-03    -55.0097E+06    -160.165E+06    -39.3768E+06    -29.7109E+03    -53.0636E-03     105.936E-03    -52.8725E-03     33.2818E-03    -53.0682E-03     105.291E-03    -52.7574E-03     33.1477E-03
            1676     2.56127E-03     43.6097E-03    -58.7523E+06    -170.075E+06    -48.0632E+06    -29.4377E+03    -52.9457E-03     105.795E-03    -52.8498E-03     25.2621E-03    -52.9334E-03     105.110E-03    -52.7583E-03     25.1661E-03
            1677     1.70745E-03     43.5883E-03    -61.8724E+06    -175.672E+06    -56.4574E+06     19.1471E+03    -52.8644E-03     105.687E-03    -52.8226E-03     17.1525E-03    -52.8417E-03     104.985E-03    -52.7604E-03     17.0908E-03
            1678     853.828E-06     43.5750E-03    -63.9622E+06    -179.642E+06    -62.5565E+06     15.4991E+03    -52.8237E-03     105.622E-03    -52.7980E-03     9.36547E-03    -52.7936E-03     104.909E-03    -52.7576E-03     9.33300E-03
            1679     16.2237E-03     43.8015E-03    -4.41077E+06     121.790E+06     86.1118E+06    -70.2617E+03    -53.5085E-03     106.489E-03    -52.9805E-03     80.0363E-03    -54.6649E-03     107.812E-03    -52.7201E-03     79.3723E-03
            1680     15.3688E-03     43.6940E-03    -8.75818E+06     119.845E+06     80.8639E+06    -197.572E+03    -53.7614E-03     106.739E-03    -52.9775E-03     106.435E-03    -55.3343E-03     108.472E-03    -52.7343E-03     105.512E-03
            1681     14.5133E-03     43.5882E-03    -13.6614E+06     107.326E+06     63.8573E+06     966.264E+03    -54.4053E-03     107.348E-03    -52.9431E-03     113.728E-03    -55.9371E-03     109.027E-03    -52.7596E-03     112.666E-03
            1682     13.6597E-03     43.4678E-03    -16.4430E+06     93.2829E+06     34.3376E+06     1.57349E+06    -55.0257E-03     107.858E-03    -52.8324E-03     115.589E-03    -56.3999E-03     109.405E-03    -52.7721E-03     114.460E-03
            1683     12.8063E-03     43.3569E-03    -17.7135E+06     46.8855E+06     10.7781E+06    -200.059E+03    -54.8086E-03     107.593E-03    -52.7840E-03     104.828E-03    -55.8139E-03     108.670E-03    -52.7724E-03     103.754E-03
            1684     11.9524E-03     43.2579E-03    -20.5902E+06    -11.5647E+06     5.42287E+06    -799.070E+03    -54.6154E-03     107.460E-03    -52.8446E-03     95.8569E-03    -55.3079E-03     108.023E-03    -52.7708E-03     94.9127E-03
            1685     11.0986E-03     43.1656E-03    -23.9571E+06    -44.2511E+06     1.41955E+06    -64.8277E+03    -54.5300E-03     107.404E-03    -52.8742E-03     89.8248E-03    -55.0310E-03     107.659E-03    -52.7682E-03     89.0160E-03
            1686     10.2449E-03     43.0783E-03    -26.5604E+06    -68.2898E+06    -37.0736E+03     14.1822E+03    -54.4640E-03     107.364E-03    -52.9002E-03     85.0651E-03    -54.8327E-03     107.396E-03    -52.7628E-03     84.3692E-03
            1687     9.39120E-03     42.9954E-03    -29.2316E+06    -85.7652E+06    -1.58361E+06     15.4139E+03    -54.3405E-03     107.254E-03    -52.9139E-03     80.0320E-03    -54.6130E-03     107.123E-03    -52.7550E-03     79.4370E-03
            1688     8.53757E-03     42.9180E-03    -32.0958E+06    -100.711E+06    -3.33052E+06     146.915E+03    -54.1849E-03     107.106E-03    -52.9211E-03     74.4922E-03    -54.3835E-03     106.843E-03    -52.7452E-03     73.9906E-03
            1689     7.68389E-03     42.8460E-03    -35.1176E+06    -115.229E+06    -5.08215E+06     94.4583E+03    -54.0030E-03     106.929E-03    -52.9260E-03     68.5039E-03    -54.1432E-03     106.550E-03    -52.7334E-03     68.0836E-03
            1690     6.83025E-03     42.7803E-03    -38.5510E+06    -125.073E+06    -8.64090E+06    -104.783E+03    -53.7838E-03     106.699E-03    -52.9152E-03     62.1747E-03    -53.8830E-03     106.242E-03    -52.7211E-03     61.8253E-03
            1691     5.97648E-03     42.7209E-03    -42.5913E+06    -132.722E+06    -13.5584E+06    -214.227E+03    -53.5565E-03     106.454E-03    -52.8971E-03     55.4965E-03    -53.6279E-03     105.942E-03    -52.7107E-03     55.2108E-03
            1692     5.12278E-03     42.6685E-03    -46.9333E+06    -142.083E+06    -20.8267E+06    -124.309E+03    -53.3556E-03     106.227E-03    -52.8718E-03     48.3864E-03    -53.4020E-03     105.663E-03    -52.7019E-03     48.1586E-03
            1693     4.26897E-03     42.6234E-03    -51.0131E+06    -149.819E+06    -30.1549E+06         873.766    -53.1623E-03     105.998E-03    -52.8356E-03     40.9279E-03    -53.1874E-03     105.397E-03    -52.6951E-03     40.7514E-03
            1694     3.41524E-03     42.5860E-03    -54.9677E+06    -160.123E+06    -39.3497E+06     17.2358E+03    -53.0037E-03     105.810E-03    -52.8067E-03     33.1804E-03    -53.0080E-03     105.165E-03    -52.6916E-03     33.0474E-03
            1695     2.56139E-03     42.5565E-03    -58.7371E+06    -170.061E+06    -48.0621E+06     21.6792E+03    -52.8890E-03     105.670E-03    -52.7808E-03     25.1935E-03    -52.8765E-03     104.985E-03    -52.6894E-03     25.0985E-03
            1696     1.70767E-03     42.5352E-03    -61.8936E+06    -175.728E+06    -56.5820E+06    -6.05763E+03    -52.7876E-03     105.540E-03    -52.7528E-03     17.1161E-03    -52.7647E-03     104.838E-03    -52.6911E-03     17.0542E-03
            1697     853.679E-06     42.5220E-03    -63.8809E+06    -179.569E+06    -62.5327E+06     60.8485E+03    -52.7367E-03     105.487E-03    -52.7501E-03     9.32335E-03    -52.7063E-03     104.774E-03    -52.7098E-03     9.29166E-03
            1698     16.2203E-03     42.7455E-03    -4.25818E+06     121.897E+06      86.179E+06    -451.555E+03    -53.2504E-03     106.239E-03    -52.9889E-03     80.0929E-03    -54.4070E-03     107.564E-03    -52.7286E-03     79.4257E-03
            1699     15.3673E-03     42.6414E-03    -9.58338E+06     118.984E+06     79.8292E+06     175.031E+03    -53.9759E-03     106.961E-03    -52.9851E-03     106.836E-03    -55.5549E-03     108.697E-03    -52.7446E-03     105.909E-03
            1700     14.5136E-03     42.5344E-03    -14.1271E+06     106.969E+06     63.1624E+06    -47.7362E+03    -54.7505E-03     107.686E-03    -52.9358E-03     113.887E-03    -56.2861E-03     109.368E-03    -52.7546E-03     112.803E-03
            1701     13.6602E-03     42.4129E-03    -15.8625E+06     93.6078E+06     34.5091E+06    -1.07707E+06    -55.0503E-03     107.865E-03    -52.8151E-03     115.425E-03    -56.4204E-03     109.411E-03    -52.7553E-03     114.263E-03
            1702     12.8063E-03     42.3036E-03    -17.9340E+06     46.7059E+06     10.4854E+06     588.416E+03    -54.7375E-03     107.504E-03    -52.7670E-03     105.011E-03    -55.7419E-03     108.581E-03    -52.7563E-03     103.951E-03
            1703     11.9524E-03     42.2039E-03    -21.4245E+06    -11.3284E+06     5.00354E+06     1.59691E+06    -54.6407E-03     107.469E-03    -52.8280E-03     95.9104E-03    -55.3365E-03     108.034E-03    -52.7555E-03     94.9978E-03
            1704     11.0988E-03     42.1121E-03    -24.4274E+06    -43.9791E+06     1.16622E+06     574.092E+03    -54.5826E-03     107.436E-03    -52.8535E-03     89.7350E-03    -55.0855E-03     107.693E-03    -52.7485E-03     88.9341E-03
            1705     10.2451E-03     42.0245E-03    -26.7925E+06    -68.2178E+06    -136.394E+03     332.722E+03    -54.5211E-03     107.394E-03    -52.8734E-03     84.8918E-03    -54.8903E-03     107.427E-03    -52.7363E-03     84.1998E-03
            1706     9.39158E-03     41.9419E-03    -29.3340E+06    -85.6281E+06    -1.66032E+06     261.917E+03    -54.4048E-03     107.283E-03    -52.8781E-03     79.8141E-03    -54.6774E-03     107.152E-03    -52.7197E-03     79.2220E-03
            1707     8.53793E-03     41.8643E-03    -32.0579E+06    -100.736E+06    -3.40720E+06     91.1272E+03    -54.2377E-03     107.113E-03    -52.8751E-03     74.2716E-03    -54.4354E-03     106.849E-03    -52.6996E-03     73.7693E-03
            1708     7.68435E-03     41.7926E-03    -35.1066E+06    -115.043E+06    -5.05738E+06    -1.80162E+03    -54.0189E-03     106.889E-03    -52.8704E-03     68.2828E-03    -54.1590E-03     106.511E-03    -52.6780E-03     67.8616E-03
            1709     6.83064E-03     41.7269E-03    -38.6759E+06    -124.908E+06    -8.66347E+06    -104.430E+03    -53.7689E-03     106.621E-03    -52.8517E-03     61.9609E-03    -53.8686E-03     106.165E-03    -52.6579E-03     61.6122E-03
            1710     5.97694E-03     41.6677E-03    -42.6087E+06    -132.749E+06    -13.5686E+06    -142.522E+03    -53.5212E-03     106.349E-03    -52.8274E-03     55.2927E-03    -53.5923E-03     105.837E-03    -52.6410E-03     55.0087E-03
            1711     5.12311E-03     41.6153E-03    -46.7514E+06    -142.206E+06    -21.0456E+06    -167.025E+03    -53.2994E-03     106.096E-03    -52.7963E-03     48.2024E-03    -53.3441E-03     105.531E-03    -52.6275E-03     47.9748E-03
            1712     4.26937E-03     41.5704E-03    -51.0118E+06    -149.991E+06    -30.4032E+06    -91.6083E+03    -53.0965E-03     105.853E-03    -52.7569E-03     40.7687E-03    -53.1208E-03     105.252E-03    -52.6175E-03     40.5917E-03
            1713     3.41545E-03     41.5330E-03      -55.05E+06    -160.111E+06    -39.2946E+06     29.2616E+03    -52.9239E-03     105.652E-03    -52.7276E-03     33.0633E-03    -52.9286E-03     105.006E-03    -52.6121E-03     32.9311E-03
            1714     2.56164E-03     41.5036E-03    -58.7402E+06    -170.045E+06    -48.0669E+06     22.0754E+03    -52.8029E-03     105.505E-03    -52.7021E-03     25.1213E-03    -52.7904E-03     104.820E-03    -52.6107E-03     25.0268E-03
            1715     1.70769E-03     41.4823E-03    -61.8608E+06    -175.649E+06    -56.4605E+06        -997.275    -52.7344E-03     105.402E-03    -52.6672E-03     17.0366E-03    -52.7116E-03     104.699E-03    -52.6051E-03     16.9750E-03
            1716     853.975E-06     41.4692E-03    -64.1465E+06    -179.678E+06    -62.5250E+06     96.6467E+03    -52.6942E-03     105.297E-03    -52.6028E-03     9.24873E-03    -52.6650E-03     104.584E-03    -52.5619E-03     9.21767E-03
            1717     16.2229E-03     41.6935E-03    -4.37516E+06     121.688E+06     85.9485E+06     162.436E+03    -53.2512E-03     106.249E-03    -52.9977E-03     79.5931E-03    -54.4044E-03     107.569E-03    -52.7381E-03     78.9332E-03
            1718     15.3672E-03     41.5868E-03    -10.1613E+06     118.432E+06     79.6259E+06     6.60501E+03    -54.3459E-03     107.330E-03    -52.9837E-03     106.158E-03    -55.9233E-03     109.060E-03    -52.7425E-03     105.223E-03
            1719     14.5144E-03     41.4794E-03    -14.9761E+06     109.422E+06     61.9856E+06    -1.15124E+06    -54.7532E-03     107.666E-03    -52.9129E-03     113.540E-03    -56.2921E-03     109.360E-03    -52.7399E-03     112.441E-03
            1720     13.6602E-03     41.3599E-03    -19.8708E+06     92.1985E+06     29.7248E+06    -1.14840E+06    -54.8616E-03     107.650E-03    -52.7887E-03     115.562E-03    -56.2412E-03     109.200E-03    -52.7449E-03     114.403E-03
            1721     12.8061E-03     41.2493E-03    -23.6433E+06     43.5425E+06     6.64066E+06     429.497E+03    -54.8137E-03     107.566E-03    -52.7522E-03     104.920E-03    -55.8358E-03     108.639E-03    -52.7479E-03     103.856E-03
            1722     11.9527E-03     41.1503E-03    -24.3774E+06    -9.99855E+06     4.52154E+06     926.737E+03    -54.7535E-03     107.564E-03    -52.8102E-03     95.6425E-03    -55.4649E-03     108.140E-03    -52.7378E-03     94.7186E-03
            1723     11.0990E-03     41.0581E-03    -25.1316E+06    -43.3829E+06     1.16759E+06     562.274E+03    -54.6833E-03     107.508E-03    -52.8246E-03     89.4961E-03    -55.1901E-03     107.768E-03    -52.7195E-03     88.6935E-03
            1724     10.2456E-03     40.9709E-03    -27.1075E+06    -68.0309E+06    -184.109E+03     351.929E+03    -54.6048E-03     107.438E-03    -52.8329E-03     84.6153E-03    -54.9752E-03     107.471E-03    -52.6959E-03     83.9227E-03
            1725     9.39199E-03     40.8882E-03    -29.3374E+06    -85.4518E+06    -1.60266E+06     200.668E+03    -54.4566E-03     107.283E-03    -52.8268E-03     79.5559E-03    -54.7289E-03     107.153E-03    -52.6684E-03     78.9632E-03
            1726     8.53851E-03     40.8108E-03    -31.9561E+06    -100.535E+06    -3.31118E+06     86.8648E+03    -54.2561E-03     107.070E-03    -52.8142E-03     74.0137E-03    -54.4531E-03     106.807E-03    -52.6386E-03     73.5120E-03
            1727     7.68485E-03     40.7391E-03    -35.0149E+06    -114.929E+06    -4.85515E+06    -97.7694E+03    -54.0119E-03     106.814E-03    -52.8017E-03     68.0369E-03    -54.1513E-03     106.435E-03    -52.6086E-03     67.6155E-03
            1728     6.83122E-03     40.6736E-03    -38.4182E+06    -124.899E+06    -8.39454E+06    -118.812E+03    -53.7524E-03     106.527E-03    -52.7751E-03     61.7317E-03    -53.8506E-03     106.070E-03    -52.5802E-03     61.3839E-03
            1729     5.97742E-03     40.6145E-03    -42.3381E+06    -132.742E+06    -13.5447E+06    -128.611E+03    -53.4809E-03     106.223E-03    -52.7417E-03     55.0730E-03    -53.5502E-03     105.710E-03    -52.5556E-03     54.7903E-03
            1730     5.12366E-03     40.5623E-03    -46.6934E+06    -142.346E+06    -21.1030E+06    -27.9257E+03    -53.2274E-03     105.933E-03    -52.7052E-03     48.0122E-03    -53.2712E-03     105.366E-03    -52.5366E-03     47.7876E-03
            1731     4.26969E-03     40.5174E-03    -51.0186E+06    -150.011E+06    -30.4324E+06     17.3954E+03    -53.0126E-03     105.675E-03    -52.6625E-03     40.5999E-03    -53.0367E-03     105.074E-03    -52.5232E-03     40.4253E-03
            1732     3.41585E-03     40.4802E-03    -55.0585E+06    -160.166E+06    -39.3736E+06    -68.9798E+03    -52.8409E-03     105.470E-03    -52.6295E-03     32.8976E-03    -52.8453E-03     104.825E-03    -52.5143E-03     32.7648E-03
            1733     2.56182E-03     40.4508E-03    -58.7964E+06    -170.043E+06    -48.0403E+06    -25.7424E+03    -52.7127E-03     105.313E-03    -52.5998E-03     24.9956E-03    -52.7005E-03     104.627E-03    -52.5082E-03     24.9009E-03
            1734     1.70796E-03     40.4295E-03    -61.9805E+06    -175.696E+06    -56.4808E+06     25.0195E+03    -52.6295E-03     105.192E-03    -52.5620E-03     16.9652E-03    -52.6072E-03     104.489E-03    -52.4998E-03     16.9043E-03
            1735     853.973E-06     40.4164E-03    -64.0956E+06    -179.607E+06    -62.4414E+06    -15.6686E+03    -52.6069E-03     105.085E-03    -52.4786E-03     9.19599E-03    -52.5777E-03     104.373E-03    -52.4374E-03     9.16349E-03
            1736     16.2198E-03     40.6387E-03    -5.21252E+06     121.386E+06     85.7181E+06     270.459E+03    -53.5634E-03     106.558E-03    -52.9946E-03     80.1664E-03    -54.7254E-03     107.884E-03    -52.7345E-03     79.4998E-03
            1737     15.3689E-03     40.5319E-03    -9.77441E+06     119.263E+06     81.2915E+06     139.024E+03    -54.3739E-03     107.352E-03    -52.9781E-03     106.478E-03    -55.9537E-03     109.085E-03    -52.7304E-03     105.544E-03
            1738     14.5140E-03     40.4265E-03    -14.7914E+06     109.462E+06     62.4702E+06     367.538E+03    -54.6209E-03     107.527E-03    -52.9060E-03     113.603E-03    -56.1570E-03     109.218E-03    -52.7309E-03     112.527E-03
            1739     13.6599E-03     40.3056E-03    -20.5922E+06     92.1193E+06     29.0420E+06     753.981E+03    -55.0634E-03     107.838E-03    -52.7741E-03     115.296E-03    -56.4449E-03     109.389E-03    -52.7326E-03     114.156E-03
            1740     12.8067E-03     40.1955E-03    -22.8104E+06     43.8007E+06     6.93583E+06    -514.173E+03    -54.9311E-03     107.658E-03    -52.7273E-03     104.551E-03    -55.9483E-03     108.730E-03    -52.7230E-03     103.472E-03
            1741     11.9530E-03     40.0963E-03    -23.9455E+06    -10.7486E+06     4.21016E+06    -776.239E+03    -54.8362E-03     107.611E-03    -52.7744E-03     95.3747E-03    -55.5430E-03     108.182E-03    -52.7031E-03     94.4273E-03
            1742     11.0997E-03     40.0043E-03    -25.4259E+06    -43.2836E+06     1.12755E+06    -7.45172E+03    -54.7753E-03     107.555E-03    -52.7796E-03     89.1930E-03    -55.2827E-03     107.815E-03    -52.6743E-03     88.3820E-03
            1743     10.2461E-03     39.9171E-03    -27.0619E+06    -67.9065E+06    -130.044E+03     32.4332E+03    -54.6597E-03     107.436E-03    -52.7768E-03     84.3490E-03    -55.0290E-03     107.469E-03    -52.6398E-03     83.6525E-03
            1744     9.39273E-03     39.8346E-03    -29.2339E+06    -85.4290E+06    -1.50490E+06     68.1865E+03    -54.4824E-03     107.244E-03    -52.7612E-03     79.3051E-03    -54.7533E-03     107.112E-03    -52.6025E-03     78.7115E-03
            1745     8.53911E-03     39.7573E-03    -31.8258E+06    -100.378E+06    -3.24894E+06     52.9003E+03    -54.2483E-03     106.988E-03    -52.7398E-03     73.7626E-03    -54.4440E-03     106.724E-03    -52.5644E-03     73.2619E-03
            1746     7.68552E-03     39.6858E-03    -34.9794E+06    -114.720E+06    -4.82910E+06    -29.8302E+03    -53.9967E-03     106.716E-03    -52.7193E-03     67.7879E-03    -54.1355E-03     106.337E-03    -52.5264E-03     67.3689E-03
            1747     6.83179E-03     39.6204E-03    -38.6978E+06    -124.923E+06    -8.61097E+06    -194.395E+03    -53.7178E-03     106.402E-03    -52.6839E-03     61.4850E-03    -53.8164E-03     105.944E-03    -52.4897E-03     61.1376E-03
            1748     5.97806E-03     39.5615E-03    -42.7020E+06    -132.973E+06    -13.7925E+06    -25.5246E+03    -53.4279E-03     106.071E-03    -52.6430E-03     54.8379E-03    -53.4978E-03     105.557E-03    -52.4572E-03     54.5578E-03
            1749     5.12412E-03     39.5095E-03    -46.9434E+06    -142.319E+06    -21.1135E+06     61.7880E+03    -53.1675E-03     105.766E-03    -52.5988E-03     47.7864E-03    -53.2122E-03     105.200E-03    -52.4299E-03     47.5639E-03
            1750     4.27026E-03     39.4647E-03    -51.0450E+06    -149.942E+06    -30.3296E+06    -59.2029E+03    -52.9291E-03     105.477E-03    -52.5482E-03     40.3845E-03    -52.9534E-03     104.876E-03    -52.4084E-03     40.2097E-03
            1751     3.41618E-03     39.4275E-03    -55.0528E+06    -160.179E+06    -39.4003E+06    -31.0261E+03    -52.7467E-03     105.254E-03    -52.5070E-03     32.7185E-03    -52.7509E-03     104.608E-03    -52.3919E-03     32.5868E-03
            1752     2.56226E-03     39.3983E-03    -58.8674E+06    -170.105E+06    -48.1012E+06    -38.2233E+03    -52.6034E-03     105.073E-03    -52.4697E-03     24.8621E-03    -52.5913E-03     104.388E-03    -52.3782E-03     24.7677E-03
            1753     1.70813E-03     39.3770E-03    -61.9233E+06    -175.693E+06    -56.5695E+06    -60.1596E+03    -52.4696E-03     104.906E-03    -52.4362E-03     16.8697E-03    -52.4469E-03     104.204E-03    -52.3745E-03     16.8082E-03
            1754     854.028E-06     39.3640E-03    -63.9770E+06    -179.591E+06    -62.5421E+06    -161.496E+03    -52.4594E-03     104.852E-03    -52.3922E-03     9.15221E-03    -52.4294E-03     104.139E-03    -52.3517E-03     9.11771E-03
            1755     16.2232E-03     39.5833E-03    -4.34069E+06     122.170E+06     86.8920E+06     397.395E+03    -53.5155E-03     106.503E-03    -52.9875E-03     79.8887E-03    -54.6700E-03     107.824E-03    -52.7239E-03     79.2285E-03
            1756     15.3671E-03     39.4785E-03    -9.31410E+06     119.683E+06     81.3074E+06    -87.9493E+03    -54.1628E-03     107.135E-03    -52.9724E-03     106.165E-03    -55.7394E-03     108.868E-03    -52.7259E-03     105.227E-03
            1757     14.5139E-03     39.3720E-03    -13.9556E+06     107.183E+06     63.7263E+06     689.592E+03    -54.9908E-03     107.894E-03    -52.9033E-03     113.184E-03    -56.5221E-03     109.572E-03    -52.7199E-03     112.101E-03
            1758     13.6611E-03     39.2514E-03    -16.1082E+06     93.2506E+06     33.4101E+06     1.20837E+06    -55.2378E-03     107.996E-03    -52.7582E-03     114.887E-03    -56.6026E-03     109.538E-03    -52.7030E-03     113.749E-03
            1759     12.8070E-03     39.1417E-03    -19.1509E+06     45.9153E+06     9.04928E+06     360.361E+03    -55.0017E-03     107.691E-03    -52.6898E-03     104.439E-03    -56.0058E-03     108.764E-03    -52.6834E-03     103.371E-03
            1760     11.9537E-03     39.0422E-03    -22.4196E+06    -11.3293E+06     4.73388E+06    -398.343E+03    -54.9312E-03     107.659E-03    -52.7275E-03     95.2098E-03    -55.6289E-03     108.223E-03    -52.6549E-03     94.2668E-03
            1761     11.1003E-03     38.9505E-03    -24.7553E+06    -43.6696E+06     1.25888E+06    -421.049E+03    -54.8302E-03     107.552E-03    -52.7220E-03     88.9710E-03    -55.3323E-03     107.808E-03    -52.6165E-03     88.1553E-03
            1762     10.2469E-03     38.8634E-03    -26.7569E+06    -68.1112E+06    -72.0534E+03    -173.000E+03    -54.7040E-03     107.414E-03    -52.7096E-03     84.1138E-03    -55.0701E-03     107.443E-03    -52.5724E-03     83.4159E-03
            1763     9.39336E-03     38.7810E-03    -28.9614E+06    -85.4518E+06    -1.45512E+06    -68.3998E+03    -54.4972E-03     107.181E-03    -52.6842E-03     79.0331E-03    -54.7654E-03     107.048E-03    -52.5256E-03     78.4393E-03
            1764     8.53987E-03     38.7039E-03    -31.4781E+06    -100.384E+06    -3.20036E+06    -32.0392E+03    -54.2553E-03     106.908E-03    -52.6529E-03     73.4726E-03    -54.4482E-03     106.642E-03    -52.4777E-03     72.9722E-03
            1765     7.68621E-03     38.6325E-03    -34.3697E+06    -114.560E+06    -4.64189E+06    -23.4646E+03    -53.9836E-03     106.606E-03    -52.6222E-03     67.4688E-03    -54.1189E-03     106.226E-03    -52.4294E-03     67.0513E-03
            1766     6.83255E-03     38.5674E-03    -37.9245E+06    -125.092E+06    -7.98691E+06     153.883E+03    -53.6787E-03     106.258E-03    -52.5794E-03     61.1316E-03    -53.7734E-03     105.797E-03    -52.3829E-03     60.7900E-03
            1767     5.97865E-03     38.5087E-03    -42.2609E+06    -133.066E+06    -13.2087E+06     267.421E+03    -53.3710E-03     105.900E-03    -52.5290E-03     54.5054E-03    -53.4389E-03     105.384E-03    -52.3408E-03     54.2303E-03
            1768     5.12484E-03     38.4568E-03    -46.6969E+06    -141.975E+06    -20.9601E+06     75.8400E+03    -53.0915E-03     105.564E-03    -52.4727E-03     47.5009E-03    -53.1354E-03     104.999E-03    -52.3040E-03     47.2797E-03
            1769     4.27079E-03     38.4122E-03    -51.0726E+06    -149.990E+06    -30.3974E+06    -24.0620E+03    -52.8378E-03     105.250E-03    -52.4124E-03     40.1567E-03    -52.8617E-03     104.648E-03    -52.2728E-03     39.9833E-03
            1770     3.41677E-03     38.3752E-03    -55.1374E+06    -160.176E+06    -39.3698E+06    -32.6647E+03    -52.6275E-03     104.991E-03    -52.3632E-03     32.5475E-03    -52.6320E-03     104.345E-03    -52.2478E-03     32.4168E-03
            1771     2.56256E-03     38.3459E-03    -58.8113E+06    -170.103E+06    -48.1533E+06    -57.4240E+03    -52.4575E-03     104.778E-03    -52.3210E-03     24.7134E-03    -52.4449E-03     104.093E-03    -52.2298E-03     24.6196E-03
            1772     1.70843E-03     38.3249E-03    -61.9435E+06    -175.718E+06    -56.5911E+06    -52.6567E+03    -52.3366E-03     104.618E-03    -52.2814E-03     16.7623E-03    -52.3139E-03     103.916E-03    -52.2197E-03     16.7013E-03
            1773     854.200E-06     38.3118E-03    -64.1075E+06    -179.724E+06    -62.7149E+06    -34.9901E+03    -52.2590E-03     104.530E-03    -52.2708E-03     9.13160E-03    -52.2292E-03     103.817E-03    -52.2308E-03     9.09929E-03
            1774     16.2215E-03     38.5314E-03    -3.95861E+06     121.517E+06     86.1585E+06     264.282E+03    -53.7107E-03     106.692E-03    -52.9814E-03     80.3035E-03    -54.8667E-03     108.016E-03    -52.7211E-03     79.6314E-03
            1775     15.3683E-03     38.4240E-03    -8.44866E+06     120.100E+06     81.1738E+06     494.050E+03    -54.5726E-03     107.523E-03    -52.9503E-03     106.009E-03    -56.1438E-03     109.255E-03    -52.7063E-03     105.069E-03
            1776     14.5151E-03     38.3170E-03    -13.5911E+06     107.267E+06     63.2861E+06    -136.918E+03    -54.9246E-03     107.794E-03    -52.8697E-03     112.861E-03    -56.4476E-03     109.466E-03    -52.6891E-03     111.772E-03
            1777     13.6609E-03     38.1979E-03    -17.4879E+06     92.2644E+06     32.3723E+06     277.336E+03    -55.2779E-03     108.002E-03    -52.7242E-03     114.959E-03    -56.6446E-03     109.540E-03    -52.6707E-03     113.809E-03
            1778     12.8077E-03     38.0872E-03    -19.5956E+06     46.7089E+06     9.36111E+06     1.12322E+06    -55.1777E-03     107.827E-03    -52.6489E-03     104.358E-03    -56.1845E-03     108.903E-03    -52.6414E-03     103.297E-03
            1779     11.9544E-03     37.9884E-03    -21.4616E+06    -10.2703E+06     5.29313E+06     513.801E+03    -55.0315E-03     107.704E-03    -52.6722E-03     94.9976E-03    -55.7245E-03     108.269E-03    -52.5998E-03     94.0668E-03
            1780     11.1010E-03     37.8965E-03    -23.9227E+06    -43.7860E+06     1.38859E+06    -57.0986E+03    -54.9132E-03     107.568E-03    -52.6547E-03     88.7106E-03    -55.4093E-03     107.820E-03    -52.5496E-03     87.9004E-03
            1781     10.2476E-03     37.8097E-03    -26.3449E+06    -68.2076E+06    -73.3456E+03    -73.1076E+03    -54.7557E-03     107.386E-03    -52.6302E-03     83.7463E-03    -55.1181E-03     107.413E-03    -52.4935E-03     83.0506E-03
            1782     9.39425E-03     37.7275E-03    -28.8261E+06    -85.5062E+06    -1.49593E+06    -78.4865E+03    -54.5296E-03     107.122E-03    -52.5927E-03     78.6573E-03    -54.7956E-03     106.987E-03    -52.4344E-03     78.0647E-03
            1783     8.54071E-03     37.6506E-03    -31.5772E+06    -100.369E+06    -3.29761E+06    -84.7848E+03    -54.2653E-03     106.814E-03    -52.5486E-03     73.0746E-03    -54.4575E-03     106.547E-03    -52.3738E-03     72.5749E-03
            1784     7.68716E-03     37.5794E-03    -34.8535E+06    -114.691E+06    -4.80858E+06     8.01932E+03    -53.9538E-03     106.460E-03    -52.5062E-03     67.0714E-03    -54.0901E-03     106.079E-03    -52.3134E-03     66.6559E-03
            1785     6.83339E-03     37.5145E-03    -38.5526E+06    -125.429E+06    -8.18938E+06     254.656E+03    -53.6280E-03     106.080E-03    -52.4523E-03     60.7601E-03    -53.7244E-03     105.618E-03    -52.2555E-03     60.4215E-03
            1786     5.97962E-03     37.4560E-03    -42.3590E+06    -132.864E+06    -13.0487E+06     379.477E+03    -53.2957E-03     105.687E-03    -52.3913E-03     54.1594E-03    -53.3640E-03     105.171E-03    -52.2024E-03     53.8874E-03
            1787     5.12553E-03     37.4044E-03     -46.656E+06    -141.688E+06    -20.6708E+06     280.176E+03    -52.9832E-03     105.309E-03    -52.3260E-03     47.1899E-03    -53.0272E-03     104.745E-03    -52.1563E-03     46.9731E-03
            1788     4.27148E-03     37.3599E-03    -50.9785E+06    -149.846E+06    -30.2731E+06     62.7600E+03    -52.7171E-03     104.974E-03    -52.2569E-03     39.8920E-03    -52.7406E-03     104.372E-03    -52.1171E-03     39.7211E-03
            1789     3.41727E-03     37.3231E-03    -55.0166E+06    -160.175E+06    -39.4750E+06    -36.0114E+03    -52.4841E-03     104.684E-03    -52.1998E-03     32.3197E-03    -52.4876E-03     104.038E-03    -52.0852E-03     32.1900E-03
            1790     2.56305E-03     37.2941E-03    -58.8203E+06    -170.119E+06    -48.1992E+06         168.418    -52.2985E-03     104.452E-03    -52.1536E-03     24.5498E-03    -52.2857E-03     103.766E-03    -52.0626E-03     24.4576E-03
            1791     1.70868E-03     37.2730E-03    -62.0265E+06    -175.775E+06    -56.6323E+06     41.5697E+03    -52.1852E-03     104.291E-03    -52.1063E-03     16.6785E-03    -52.1627E-03     103.589E-03    -52.0446E-03     16.6193E-03
            1792     854.425E-06     37.2601E-03    -64.0796E+06    -179.697E+06    -62.6889E+06     29.9429E+03    -52.0683E-03     104.167E-03    -52.0986E-03     9.04581E-03    -52.0384E-03     103.454E-03    -52.0586E-03     9.01474E-03
            1793     16.2207E-03     37.4741E-03    -4.97525E+06     121.035E+06     85.1650E+06    -479.181E+03    -53.9062E-03     106.883E-03    -52.9767E-03     80.6403E-03    -55.0680E-03     108.210E-03    -52.7191E-03     79.9479E-03
            1794     15.3695E-03     37.3693E-03    -9.32520E+06     119.644E+06     80.6823E+06    -39.0375E+03    -54.8481E-03     107.782E-03    -52.9338E-03     105.663E-03    -56.4167E-03     109.508E-03    -52.6904E-03     104.710E-03
            1795     14.5148E-03     37.2641E-03    -13.1099E+06     107.905E+06     63.5461E+06     732.877E+03    -54.9901E-03     107.833E-03    -52.8428E-03     113.161E-03    -56.5090E-03     109.504E-03    -52.6625E-03     112.082E-03
            1796     13.6615E-03     37.1428E-03    -17.8055E+06     91.6965E+06     31.7607E+06     585.791E+03    -55.4869E-03     108.173E-03    -52.6860E-03     114.775E-03    -56.8517E-03     109.708E-03    -52.6343E-03     113.624E-03
            1797     12.8084E-03     37.0334E-03    -20.4534E+06     46.3434E+06     8.90065E+06     317.637E+03    -55.3358E-03     107.932E-03    -52.5960E-03     103.862E-03    -56.3433E-03     109.005E-03    -52.5891E-03     102.787E-03
            1798     11.9550E-03     36.9342E-03    -22.0786E+06    -9.58166E+06     5.27878E+06     626.410E+03    -55.1431E-03     107.748E-03    -52.6045E-03     94.6043E-03    -55.8380E-03     108.315E-03    -52.5322E-03     93.6743E-03
            1799     11.1019E-03     36.8427E-03    -23.9865E+06    -43.3144E+06     1.62148E+06     381.375E+03    -54.9932E-03     107.567E-03    -52.5735E-03     88.2554E-03    -55.4889E-03     107.819E-03    -52.4678E-03     87.4509E-03
            1800     10.2486E-03     36.7560E-03    -26.2891E+06    -68.1569E+06     40.6161E+03     142.710E+03    -54.8087E-03     107.344E-03    -52.5349E-03     83.3161E-03    -55.1693E-03     107.369E-03    -52.3977E-03     82.6241E-03
            1801     9.39526E-03     36.6741E-03    -28.8519E+06    -85.3780E+06    -1.36449E+06     111.921E+03    -54.5675E-03     107.050E-03    -52.4829E-03     78.2126E-03    -54.8326E-03     106.914E-03    -52.3241E-03     77.6237E-03
            1802     8.54184E-03     36.5974E-03    -31.7238E+06    -100.383E+06    -3.21316E+06     70.4455E+03    -54.2499E-03     106.675E-03    -52.4251E-03     72.6302E-03    -54.4414E-03     106.407E-03    -52.2496E-03     72.1347E-03
            1803     7.68816E-03     36.5266E-03    -34.9510E+06    -114.934E+06    -4.81451E+06     228.872E+03    -53.9059E-03     106.276E-03    -52.3704E-03     66.6447E-03    -54.0412E-03     105.893E-03    -52.1771E-03     66.2344E-03
            1804     6.83444E-03     36.4618E-03    -38.5848E+06    -125.449E+06    -8.20324E+06     265.203E+03    -53.5555E-03     105.860E-03    -52.3049E-03     60.3700E-03    -53.6510E-03     105.397E-03    -52.1080E-03     60.0337E-03
            1805     5.98044E-03     36.4036E-03    -42.6689E+06    -132.854E+06    -12.9467E+06     218.118E+03    -53.2000E-03     105.434E-03    -52.2339E-03     53.7824E-03    -53.2694E-03     104.918E-03    -52.0441E-03     53.5102E-03
            1806     5.12646E-03     36.3522E-03    -46.7266E+06    -141.408E+06    -20.4727E+06     161.388E+03    -52.8708E-03     105.028E-03    -52.1575E-03     46.8487E-03    -52.9154E-03     104.464E-03    -51.9871E-03     46.6320E-03
            1807     4.27224E-03     36.3080E-03    -50.8191E+06    -149.738E+06    -30.2593E+06     114.238E+03    -52.5674E-03     104.646E-03    -52.0783E-03     39.5849E-03    -52.5899E-03     104.044E-03    -51.9388E-03     39.4163E-03
            1808     3.41793E-03     36.2714E-03    -54.9733E+06    -160.125E+06    -39.4727E+06     140.890E+03    -52.3149E-03     104.331E-03    -52.0156E-03     32.0570E-03    -52.3181E-03     103.685E-03    -51.9011E-03     31.9308E-03
            1809     2.56348E-03     36.2425E-03    -58.8149E+06    -170.085E+06    -48.1733E+06     108.515E+03    -52.1229E-03     104.087E-03    -51.9644E-03     24.3663E-03    -52.1101E-03     103.402E-03    -51.8734E-03     24.2763E-03
            1810     1.70906E-03     36.2215E-03    -61.9882E+06    -175.729E+06    -56.6254E+06     97.7207E+03    -51.9771E-03     103.896E-03    -51.9193E-03     16.5776E-03    -51.9544E-03     103.194E-03    -51.8578E-03     16.5197E-03
            1811     854.483E-06     36.2086E-03    -64.0416E+06    -179.662E+06    -62.6693E+06     2.91804E+03    -51.9388E-03     103.803E-03    -51.8644E-03     8.96996E-03    -51.9088E-03     103.090E-03    -51.8243E-03     8.93878E-03
            1812     16.2233E-03     36.4198E-03    -4.49904E+06     122.054E+06     86.2642E+06    -141.815E+03    -53.9555E-03     106.906E-03    -52.9507E-03     80.3725E-03    -55.1068E-03     108.225E-03    -52.6898E-03     79.6902E-03
            1813     15.3676E-03     36.3146E-03    -9.86078E+06     119.019E+06     80.0530E+06    -478.413E+03    -54.5209E-03     107.429E-03    -52.9083E-03     104.974E-03    -56.0799E-03     109.144E-03    -52.6664E-03     104.020E-03
            1814     14.5156E-03     36.2093E-03    -15.2174E+06     106.406E+06     62.4736E+06    -9.30346E+03    -55.4355E-03     108.246E-03    -52.8107E-03     112.494E-03    -56.9615E-03     109.915E-03    -52.6306E-03     111.391E-03
            1815     13.6624E-03     36.0885E-03    -17.9476E+06     92.0319E+06     32.5473E+06     453.724E+03    -55.6784E-03     108.312E-03    -52.6338E-03     114.397E-03    -57.0441E-03     109.846E-03    -52.5785E-03     113.240E-03
            1816     12.8091E-03     35.9790E-03    -20.3473E+06     46.5305E+06     8.98874E+06     420.759E+03    -55.4317E-03     107.957E-03    -52.5256E-03     103.464E-03    -56.4355E-03     109.028E-03    -52.5186E-03     102.390E-03
            1817     11.9563E-03     35.8801E-03    -22.3951E+06    -9.45580E+06     5.44252E+06     275.852E+03    -55.2488E-03     107.770E-03    -52.5214E-03     94.1969E-03    -55.9436E-03     108.336E-03    -52.4480E-03     93.2617E-03
            1818     11.1030E-03     35.7888E-03    -24.3134E+06    -43.1454E+06     1.74495E+06     434.586E+03    -55.0529E-03     107.529E-03    -52.4758E-03     87.8681E-03    -55.5484E-03     107.780E-03    -52.3692E-03     87.0654E-03
            1819     10.2498E-03     35.7024E-03    -26.4709E+06    -67.8977E+06     242.517E+03     352.243E+03    -54.8671E-03     107.290E-03    -52.4224E-03     82.8778E-03    -55.2274E-03     107.314E-03    -52.2844E-03     82.1899E-03
            1820     9.39653E-03     35.6207E-03    -28.8887E+06    -85.3291E+06    -1.14979E+06     224.126E+03    -54.5701E-03     106.926E-03    -52.3559E-03     77.7584E-03    -54.8338E-03     106.788E-03    -52.1960E-03     77.1732E-03
            1821     8.54302E-03     35.5444E-03    -31.6385E+06    -100.295E+06    -2.94927E+06     258.695E+03    -54.2254E-03     106.510E-03    -52.2846E-03     72.1837E-03    -54.4155E-03     106.240E-03    -52.1081E-03     71.6931E-03
            1822     7.68940E-03     35.4738E-03    -34.7161E+06    -114.997E+06    -4.55108E+06     158.798E+03    -53.8576E-03     106.074E-03    -52.2165E-03     66.1990E-03    -53.9907E-03     105.689E-03    -52.0222E-03     65.7901E-03
            1823     6.83556E-03     35.4094E-03    -38.1240E+06    -125.467E+06    -7.82638E+06     271.412E+03    -53.4712E-03     105.610E-03    -52.1385E-03     59.9225E-03    -53.5640E-03     105.144E-03    -51.9404E-03     59.5886E-03
            1824     5.98162E-03     35.3515E-03    -41.9544E+06    -132.604E+06    -12.6313E+06     193.851E+03    -53.0908E-03     105.146E-03    -52.0548E-03     53.3660E-03    -53.1567E-03     104.628E-03    -51.8648E-03     53.0958E-03
            1825     5.12740E-03     35.3004E-03    -46.3832E+06    -141.479E+06    -20.4485E+06     176.091E+03    -52.7329E-03     104.700E-03    -51.9673E-03     46.4653E-03    -52.7751E-03     104.135E-03    -51.7971E-03     46.2507E-03
            1826     4.27311E-03     35.2565E-03    -50.9131E+06    -149.667E+06    -30.1644E+06     328.832E+03    -52.4003E-03     104.280E-03    -51.8800E-03     39.2609E-03    -52.4232E-03     103.679E-03    -51.7399E-03     39.0967E-03
            1827     3.41861E-03     35.2200E-03    -55.0529E+06    -159.978E+06    -39.2487E+06     219.007E+03    -52.1383E-03     103.948E-03    -51.8093E-03     31.7954E-03    -52.1422E-03     103.302E-03    -51.6937E-03     31.6714E-03
            1828     2.56408E-03     35.1913E-03    -58.8052E+06    -169.979E+06    -48.0563E+06     147.903E+03    -51.9290E-03     103.678E-03    -51.7486E-03     24.1236E-03    -51.9163E-03     102.992E-03    -51.6572E-03     24.0350E-03
            1829     1.70937E-03     35.1705E-03    -61.9400E+06    -175.630E+06    -56.5452E+06     102.752E+03    -51.7546E-03     103.454E-03    -51.6990E-03     16.3876E-03    -51.7319E-03     102.752E-03    -51.6373E-03     16.3305E-03
            1830     854.683E-06     35.1577E-03    -64.0074E+06    -179.575E+06    -62.6251E+06     140.899E+03    -51.7103E-03     103.362E-03    -51.6517E-03     8.98315E-03    -51.6803E-03     102.649E-03    -51.6116E-03     8.95430E-03
            1831     16.2228E-03     35.3671E-03    -4.30878E+06     121.672E+06     86.0366E+06     92.0192E+03    -54.3338E-03     107.253E-03    -52.9193E-03     79.4455E-03    -55.4796E-03     108.566E-03    -52.6593E-03     78.7589E-03
            1832     15.3702E-03     35.2603E-03    -9.17286E+06     119.165E+06     80.6779E+06     576.766E+03    -54.6231E-03     107.488E-03    -52.8654E-03     105.423E-03    -56.1802E-03     109.202E-03    -52.6215E-03     104.482E-03
            1833     14.5163E-03     35.1540E-03    -15.0581E+06     106.301E+06     62.2217E+06     5.20774E+03    -55.4932E-03     108.251E-03    -52.7580E-03     112.455E-03    -57.0163E-03     109.918E-03    -52.5792E-03     111.350E-03
            1834     13.6634E-03     35.0346E-03    -19.1620E+06     91.8784E+06     31.7838E+06    -546.826E+03    -55.8811E-03     108.450E-03    -52.5685E-03     114.162E-03    -57.2493E-03     109.984E-03    -52.5150E-03     112.988E-03
            1835     12.8103E-03     34.9244E-03    -20.7953E+06     46.8048E+06     9.25483E+06    -27.3977E+03    -55.5470E-03     107.995E-03    -52.4480E-03     103.280E-03    -56.5500E-03     109.063E-03    -52.4394E-03     102.201E-03
            1836     11.9572E-03     34.8262E-03    -22.3950E+06    -9.81301E+06     5.25930E+06     353.564E+03    -55.3585E-03     107.786E-03    -52.4273E-03     93.8785E-03    -56.0502E-03     108.348E-03    -52.3544E-03     92.9443E-03
            1837     11.1042E-03     34.7349E-03    -24.5296E+06    -42.9191E+06     1.76379E+06     389.107E+03    -55.1682E-03     107.533E-03    -52.3651E-03     87.4709E-03    -55.6626E-03     107.783E-03    -52.2585E-03     86.6686E-03
            1838     10.2512E-03     34.6488E-03    -26.5563E+06    -67.6593E+06     309.498E+03     299.025E+03    -54.9054E-03     107.200E-03    -52.2947E-03     82.4100E-03    -55.2641E-03     107.223E-03    -52.1565E-03     81.7236E-03
            1839     9.39782E-03     34.5675E-03    -28.9180E+06    -85.3517E+06    -1.19263E+06     315.793E+03    -54.5696E-03     106.782E-03    -52.2128E-03     77.2591E-03    -54.8314E-03     106.642E-03    -52.0531E-03     76.6777E-03
            1840     8.54437E-03     34.4915E-03    -31.6694E+06    -100.236E+06    -3.12122E+06     344.819E+03    -54.1963E-03     106.322E-03    -52.1261E-03     71.6884E-03    -54.3845E-03     106.051E-03    -51.9504E-03     71.2018E-03
            1841     7.69070E-03     34.4213E-03    -35.0377E+06    -114.888E+06    -4.80711E+06     365.529E+03    -53.8044E-03     105.847E-03    -52.0429E-03     65.6988E-03    -53.9375E-03     105.462E-03    -51.8495E-03     65.2954E-03
            1842     6.83687E-03     34.3573E-03    -38.8323E+06    -125.222E+06    -8.51831E+06     43.6106E+03    -53.3864E-03     105.334E-03    -51.9478E-03     59.4398E-03    -53.4809E-03     104.871E-03    -51.7525E-03     59.1057E-03
            1843     5.98274E-03     34.2997E-03    -42.7385E+06    -132.688E+06    -13.4232E+06     30.4457E+03    -52.9643E-03     104.814E-03    -51.8501E-03     52.8967E-03    -53.0319E-03     104.298E-03    -51.6628E-03     52.6270E-03
            1844     5.12852E-03     34.2489E-03    -46.8895E+06    -141.664E+06    -20.5471E+06     333.880E+03    -52.5685E-03     104.323E-03    -51.7540E-03     45.9990E-03    -52.6121E-03     103.756E-03    -51.5834E-03     45.7887E-03
            1845     4.27401E-03     34.2053E-03    -51.0078E+06    -149.442E+06    -29.8571E+06     276.854E+03    -52.2204E-03     103.877E-03    -51.6569E-03     38.8491E-03    -52.2441E-03     103.276E-03    -51.5155E-03     38.6859E-03
            1846     3.41943E-03     34.1691E-03    -54.9564E+06    -159.812E+06    -39.1213E+06     194.964E+03    -51.9366E-03     103.511E-03    -51.5748E-03     31.4647E-03    -51.9401E-03     102.866E-03    -51.4589E-03     31.3419E-03
            1847     2.56468E-03     34.1406E-03    -58.7443E+06    -169.861E+06    -47.9808E+06     158.081E+03    -51.7151E-03     103.218E-03    -51.5033E-03     23.8721E-03    -51.7023E-03     102.533E-03    -51.4117E-03     23.7848E-03
            1848     1.70990E-03     34.1200E-03    -61.8993E+06    -175.501E+06    -56.4352E+06     114.337E+03    -51.5396E-03     102.975E-03    -51.4353E-03     16.1918E-03    -51.5170E-03     102.273E-03    -51.3733E-03     16.1355E-03
            1849     854.952E-06     34.1072E-03    -63.9539E+06    -179.391E+06    -62.4665E+06     203.229E+03    -51.3979E-03     102.808E-03    -51.4103E-03     8.90061E-03    -51.3681E-03     102.096E-03    -51.3698E-03     8.87302E-03
            1850     16.2233E-03     34.3112E-03    -4.72840E+06     121.144E+06     85.5097E+06     7.06667E+03    -54.5758E-03     107.504E-03    -52.9282E-03     79.9672E-03    -55.7287E-03     108.822E-03    -52.6695E-03     79.2674E-03
            1851     15.3699E-03     34.2062E-03    -9.61577E+06     118.814E+06     80.2859E+06     442.229E+03    -55.4143E-03     108.262E-03    -52.8480E-03     106.339E-03    -56.9826E-03     109.985E-03    -52.6049E-03     105.373E-03
            1852     14.5167E-03     34.0995E-03    -13.4039E+06     107.548E+06     63.7016E+06     453.615E+03    -55.8081E-03     108.522E-03    -52.7134E-03     112.698E-03    -57.3254E-03     110.188E-03    -52.5314E-03     111.591E-03
            1853     13.6641E-03     33.9791E-03    -17.1333E+06     92.2741E+06     32.5983E+06     17.4440E+03    -56.0508E-03     108.554E-03    -52.5033E-03     113.681E-03    -57.4050E-03     110.081E-03    -52.4493E-03     112.511E-03
            1854     12.8113E-03     33.8707E-03    -20.6728E+06     45.9588E+06     8.60783E+06    -14.9530E+03    -55.7555E-03     108.117E-03    -52.3620E-03     102.915E-03    -56.7538E-03     109.181E-03    -52.3556E-03     101.833E-03
            1855     11.9584E-03     33.7717E-03    -23.0028E+06    -9.91409E+06     4.84726E+06     224.986E+03    -55.5260E-03     107.848E-03    -52.3217E-03     93.3943E-03    -56.2169E-03     108.408E-03    -52.2497E-03     92.4576E-03
            1856     11.1057E-03     33.6812E-03    -24.5031E+06    -42.7742E+06     1.65857E+06     95.1586E+03    -55.2443E-03     107.485E-03    -52.2405E-03     86.8990E-03    -55.7358E-03     107.733E-03    -52.1347E-03     86.0941E-03
            1857     10.2525E-03     33.5953E-03    -26.3708E+06    -67.8848E+06     136.592E+03     207.131E+03    -54.9452E-03     107.098E-03    -52.1531E-03     81.9134E-03    -55.2998E-03     107.118E-03    -52.0158E-03     81.2283E-03
            1858     9.39937E-03     33.5145E-03    -28.7228E+06    -85.1657E+06    -1.16309E+06     385.644E+03    -54.5928E-03     106.647E-03    -52.0541E-03     76.6847E-03    -54.8517E-03     106.505E-03    -51.8948E-03     76.1067E-03
            1859     8.54587E-03     33.4389E-03    -31.4050E+06    -100.221E+06    -3.13091E+06     455.031E+03    -54.1805E-03     106.130E-03    -51.9491E-03     71.1097E-03    -54.3655E-03     105.856E-03    -51.7739E-03     70.6275E-03
            1860     7.69219E-03     33.3690E-03    -34.2450E+06    -114.698E+06    -4.72460E+06     416.000E+03    -53.7534E-03     105.601E-03    -51.8474E-03     65.0912E-03    -53.8813E-03     105.214E-03    -51.6551E-03     64.6915E-03
            1861     6.83827E-03     33.3055E-03    -37.7256E+06    -124.899E+06    -7.89256E+06     426.539E+03    -53.3047E-03     105.041E-03    -51.7364E-03     58.8143E-03    -53.3937E-03     104.576E-03    -51.5400E-03     58.4879E-03
            1862     5.98419E-03     33.2482E-03    -42.2384E+06    -132.796E+06    -12.9580E+06     361.382E+03    -52.8336E-03     104.456E-03    -51.6221E-03     52.2875E-03    -52.8982E-03     103.937E-03    -51.4331E-03     52.0247E-03
            1863     5.12973E-03     33.1979E-03    -46.7463E+06    -141.499E+06    -20.5080E+06     123.835E+03    -52.3982E-03     103.907E-03    -51.5085E-03     45.4575E-03    -52.4407E-03     103.340E-03    -51.3381E-03     45.2470E-03
            1864     4.27518E-03     33.1546E-03    -50.8847E+06    -149.395E+06    -30.0091E+06     91.0802E+03    -52.0168E-03     103.414E-03    -51.3968E-03     38.3808E-03    -52.0392E-03     102.812E-03    -51.2565E-03     38.2174E-03
            1865     3.42035E-03     33.1187E-03    -54.9071E+06    -159.742E+06    -39.2009E+06     185.099E+03    -51.6938E-03     102.998E-03    -51.3045E-03     31.0699E-03    -51.6968E-03     102.353E-03    -51.1893E-03     30.9487E-03
            1866     2.56538E-03     33.0904E-03    -58.6482E+06    -169.716E+06    -47.9520E+06     175.798E+03    -51.4498E-03     102.677E-03    -51.2268E-03     23.5889E-03    -51.4365E-03     101.992E-03    -51.1355E-03     23.5031E-03
            1867     1.71033E-03     33.0699E-03    -61.8540E+06    -175.373E+06    -56.4018E+06     152.349E+03    -51.2794E-03     102.429E-03    -51.1498E-03     16.0041E-03    -51.2567E-03     101.728E-03    -51.0879E-03     15.9491E-03
            1868     855.257E-06     33.0574E-03    -63.8623E+06    -179.236E+06    -62.3980E+06     89.1652E+03    -51.1625E-03     102.223E-03    -51.0608E-03     8.76173E-03    -51.1326E-03     101.512E-03    -51.0203E-03     8.73277E-03
            1869     16.2207E-03     33.2552E-03    -4.58855E+06     121.262E+06     85.8183E+06     346.578E+03    -54.8615E-03     107.796E-03    -52.9345E-03     79.3347E-03    -56.0094E-03     109.109E-03    -52.6746E-03     78.6282E-03
            1870     15.3694E-03     33.1502E-03    -9.39562E+06     119.067E+06     80.3119E+06    -542.544E+03    -56.0043E-03     108.829E-03    -52.8246E-03     104.637E-03    -57.5644E-03     110.545E-03    -52.5821E-03     103.636E-03
            1871     14.5181E-03     33.0440E-03    -13.6826E+06     107.400E+06     63.0456E+06    -498.851E+03    -56.1311E-03     108.787E-03    -52.6557E-03     111.760E-03    -57.6429E-03     110.449E-03    -52.4764E-03     110.631E-03
            1872     13.6652E-03     32.9249E-03    -17.8018E+06     91.6415E+06     31.7636E+06     725.665E+03    -56.2059E-03     108.632E-03    -52.4257E-03     113.369E-03    -57.5567E-03     110.152E-03    -52.3740E-03     112.205E-03
            1873     12.8124E-03     32.8156E-03    -20.5674E+06     46.3683E+06     8.55869E+06     652.061E+03    -56.0315E-03     108.296E-03    -52.2648E-03     102.350E-03    -57.0261E-03     109.358E-03    -52.2594E-03     101.272E-03
            1874     11.9602E-03     32.7176E-03    -22.1032E+06    -9.44931E+06     5.23501E+06    -256.446E+03    -55.6573E-03     107.860E-03    -52.2024E-03     92.7890E-03    -56.3406E-03     108.416E-03    -52.1304E-03     91.8469E-03
            1875     11.1071E-03     32.6274E-03    -23.9318E+06    -43.3603E+06     1.59098E+06     21.7683E+03    -55.3088E-03     107.411E-03    -52.1026E-03     86.3595E-03    -55.7928E-03     107.652E-03    -51.9971E-03     85.5562E-03
            1876     10.2542E-03     32.5419E-03    -26.2499E+06    -67.8682E+06     112.091E+03     395.160E+03    -55.0087E-03     107.005E-03    -51.9966E-03     81.2867E-03    -55.3596E-03     107.022E-03    -51.8596E-03     80.6066E-03
            1877     9.40093E-03     32.4615E-03    -28.7330E+06    -85.2830E+06    -1.23363E+06     395.634E+03    -54.6272E-03     106.504E-03    -51.8768E-03     76.0339E-03    -54.8831E-03     106.359E-03    -51.7177E-03     75.4592E-03
            1878     8.54757E-03     32.3864E-03    -31.3695E+06    -99.9850E+06    -2.96519E+06     404.726E+03    -54.1948E-03     105.944E-03    -51.7497E-03     70.3903E-03    -54.3781E-03     105.670E-03    -51.5740E-03     69.9102E-03
            1879     7.69391E-03     32.3171E-03    -34.5885E+06    -114.577E+06    -4.84788E+06     326.387E+03    -53.6973E-03     105.322E-03    -51.6245E-03     64.3754E-03    -53.8249E-03     104.934E-03    -51.4325E-03     63.9780E-03
            1880     6.83999E-03     32.2539E-03    -38.2162E+06    -125.137E+06    -8.16596E+06     563.940E+03    -53.1852E-03     104.679E-03    -51.4937E-03     58.1241E-03    -53.2744E-03     104.212E-03    -51.2976E-03     57.8029E-03
            1881     5.98570E-03     32.1972E-03    -41.9022E+06    -132.267E+06    -12.7293E+06     568.554E+03    -52.6774E-03     104.039E-03    -51.3618E-03     51.6483E-03    -52.7403E-03     103.521E-03    -51.1729E-03     51.3911E-03
            1882     5.13123E-03     32.1472E-03    -46.1575E+06    -141.240E+06    -20.5293E+06     306.116E+03    -52.2045E-03     103.435E-03    -51.2305E-03     44.8959E-03    -52.2436E-03     102.868E-03    -51.0614E-03     44.6904E-03
            1883     4.27639E-03     32.1044E-03    -50.7166E+06    -149.426E+06    -30.3369E+06     234.890E+03    -51.7801E-03     102.884E-03    -51.1042E-03     37.8992E-03    -51.8007E-03     102.282E-03    -50.9657E-03     37.7398E-03
            1884     3.42140E-03     32.0688E-03    -54.8661E+06    -159.676E+06    -39.3057E+06     211.107E+03    -51.4316E-03     102.432E-03    -51.0008E-03     30.6728E-03    -51.4340E-03     101.787E-03    -50.8863E-03     30.5537E-03
            1885     2.56623E-03     32.0409E-03    -58.6309E+06    -169.622E+06    -47.9996E+06     210.391E+03    -51.1532E-03     102.067E-03    -50.9142E-03     23.2685E-03    -51.1398E-03     101.383E-03    -50.8232E-03     23.1845E-03
            1886     1.71087E-03     32.0205E-03    -61.6809E+06    -175.172E+06    -56.3906E+06     133.494E+03    -50.9543E-03     101.791E-03    -50.8365E-03     15.7714E-03    -50.9309E-03     101.090E-03    -50.7750E-03     15.7171E-03
            1887     855.452E-06     32.0081E-03    -63.7759E+06    -179.040E+06    -62.3072E+06     11.8003E+03    -50.8490E-03     101.602E-03    -50.7531E-03     8.57827E-03    -50.8190E-03     100.891E-03    -50.7125E-03     8.54868E-03
            1888     16.2246E-03     32.2000E-03    -4.55244E+06     121.285E+06     85.5677E+06    -81.2881E+03    -55.3540E-03     108.240E-03    -52.8859E-03     78.7991E-03    -56.4940E-03     109.546E-03    -52.6273E-03     78.0779E-03
            1889     15.3720E-03     32.0936E-03    -8.68029E+06     119.550E+06     80.8215E+06     19.6200E+03    -55.7695E-03     108.538E-03    -52.7688E-03     104.510E-03    -57.3152E-03     110.243E-03    -52.5254E-03     103.524E-03
            1890     14.5187E-03     31.9896E-03    -14.2275E+06     106.382E+06     62.4890E+06     372.324E+03    -56.3403E-03     108.936E-03    -52.5958E-03     111.611E-03    -57.8453E-03     110.587E-03    -52.4170E-03     110.489E-03
            1891     13.6660E-03     31.8698E-03    -18.5173E+06     91.7680E+06     32.0625E+06     131.150E+03    -56.6478E-03     108.991E-03    -52.3437E-03     112.993E-03    -57.9977E-03     110.508E-03    -52.2896E-03     111.814E-03
            1892     12.8142E-03     31.7607E-03    -19.4427E+06     47.3121E+06     9.86775E+06    -398.677E+03    -56.1527E-03     108.311E-03    -52.1584E-03     101.750E-03    -57.1377E-03     109.366E-03    -52.1494E-03     100.661E-03
            1893     11.9614E-03     31.6637E-03    -21.0456E+06    -9.98831E+06     5.40033E+06     197.698E+03    -55.7736E-03     107.848E-03    -52.0746E-03     92.2509E-03    -56.4465E-03     108.395E-03    -52.0026E-03     91.3166E-03
            1894     11.1089E-03     31.5735E-03    -23.9050E+06    -43.3687E+06     1.54159E+06     656.418E+03    -55.4791E-03     107.431E-03    -51.9520E-03     85.7502E-03    -55.9593E-03     107.668E-03    -51.8468E-03     84.9562E-03
            1895     10.2559E-03     31.4888E-03    -26.4205E+06    -67.6557E+06     46.0358E+03     574.596E+03    -55.1111E-03     106.931E-03    -51.8197E-03     80.5317E-03    -55.4596E-03     106.945E-03    -51.6830E-03     79.8564E-03
            1896     9.40288E-03     31.4087E-03    -28.8906E+06    -85.1966E+06    -1.50173E+06     480.773E+03    -54.6839E-03     106.357E-03    -51.6730E-03     75.2479E-03    -54.9374E-03     106.210E-03    -51.5151E-03     74.6773E-03
            1897     8.54953E-03     31.3341E-03    -31.7326E+06    -100.007E+06    -3.31338E+06     436.874E+03    -54.1798E-03     105.700E-03    -51.5205E-03     69.5503E-03    -54.3619E-03     105.424E-03    -51.3460E-03     69.0741E-03
            1898     7.69589E-03     31.2653E-03    -35.0072E+06    -114.561E+06    -5.07722E+06     664.180E+03    -53.6144E-03     104.987E-03    -51.3728E-03     63.5827E-03    -53.7417E-03     104.598E-03    -51.1813E-03     63.1934E-03
            1899     6.84181E-03     31.2028E-03    -38.6555E+06    -124.926E+06    -8.89028E+06     412.975E+03    -53.0395E-03     104.258E-03    -51.2190E-03     57.3894E-03    -53.1285E-03     103.793E-03    -51.0262E-03     57.0702E-03
            1900     5.98747E-03     31.1466E-03    -42.5111E+06    -132.106E+06    -13.5235E+06     208.530E+03    -52.4849E-03     103.554E-03    -51.0693E-03     50.9608E-03    -52.5487E-03     103.037E-03    -50.8838E-03     50.7026E-03
            1901     5.13274E-03     31.0972E-03    -46.5322E+06    -141.222E+06    -20.7321E+06     433.702E+03    -51.9773E-03     102.902E-03    -50.9246E-03     44.2614E-03    -52.0171E-03     102.335E-03    -50.7560E-03     44.0604E-03
            1902     4.27779E-03     31.0548E-03    -50.6417E+06    -149.170E+06    -30.1912E+06     465.220E+03    -51.5193E-03     102.303E-03    -50.7839E-03     37.3449E-03    -51.5394E-03     101.702E-03    -50.6452E-03     37.1910E-03
            1903     3.42252E-03     31.0196E-03    -54.7438E+06    -159.511E+06    -39.3227E+06     335.866E+03    -51.1376E-03     101.804E-03    -50.6669E-03     30.2209E-03    -51.1392E-03     101.159E-03    -50.5528E-03     30.1054E-03
            1904     2.56709E-03     30.9919E-03    -58.4902E+06    -169.451E+06    -48.0026E+06     246.686E+03    -50.8360E-03     101.405E-03    -50.5693E-03     22.9238E-03    -50.8219E-03     100.721E-03    -50.4788E-03     22.8418E-03
            1905     1.71151E-03     30.9719E-03    -61.6079E+06    -174.988E+06    -56.3422E+06     129.835E+03    -50.5987E-03     101.087E-03    -50.4879E-03     15.5472E-03    -50.5752E-03     100.387E-03    -50.4266E-03     15.4937E-03
            1906     855.790E-06     30.9595E-03    -63.6084E+06    -178.808E+06    -62.3072E+06     84.4369E+03    -50.4571E-03     100.907E-03    -50.4498E-03     8.41044E-03    -50.4266E-03     100.197E-03    -50.4098E-03     8.38246E-03
            1907     16.2238E-03     31.1436E-03    -4.26286E+06     121.460E+06     85.5950E+06    -372.353E+03    -55.4892E-03     108.353E-03    -52.8636E-03     79.7046E-03    -56.6293E-03     109.661E-03    -52.6056E-03     78.9704E-03
            1908     15.3708E-03     31.0394E-03    -9.61558E+06     118.553E+06     79.7598E+06     282.839E+03    -56.1590E-03     108.890E-03    -52.7307E-03     105.065E-03    -57.7046E-03     110.591E-03    -52.4898E-03     104.068E-03
            1909     14.5189E-03     30.9331E-03    -13.7991E+06     106.635E+06     63.8759E+06     218.769E+03    -56.8510E-03     109.389E-03    -52.5376E-03     111.062E-03    -58.3497E-03     111.032E-03    -52.3528E-03     109.927E-03
            1910     13.6682E-03     30.8141E-03    -15.7793E+06     92.7428E+06     33.8945E+06    -745.373E+03    -56.8777E-03     109.132E-03    -52.2544E-03     112.169E-03    -58.2094E-03     110.639E-03    -52.1966E-03     110.976E-03
            1911     12.8153E-03     30.7065E-03    -19.0525E+06     46.2125E+06     8.77769E+06     165.608E+03    -56.3226E-03     108.362E-03    -52.0399E-03     101.305E-03    -57.2971E-03     109.408E-03    -52.0354E-03     100.223E-03
            1912     11.9631E-03     30.6091E-03    -22.7141E+06    -10.2641E+06     4.39577E+06     1.17232E+06    -56.0255E-03     107.959E-03    -51.9333E-03     91.5609E-03    -56.7003E-03     108.504E-03    -51.8635E-03     90.6381E-03
            1913     11.1106E-03     30.5198E-03    -24.8765E+06    -42.7338E+06     1.07846E+06     788.729E+03    -55.6686E-03     107.449E-03    -51.7804E-03     84.8901E-03    -56.1498E-03     107.687E-03    -51.6770E-03     84.0985E-03
            1914     10.2580E-03     30.4355E-03    -26.7424E+06    -67.5446E+06    -340.400E+03     544.704E+03    -55.2529E-03     106.870E-03    -51.6171E-03     79.6533E-03    -55.5991E-03     106.883E-03    -51.4821E-03     78.9794E-03
            1915     9.40508E-03     30.3561E-03    -29.0592E+06    -84.9685E+06    -1.70520E+06     572.557E+03    -54.7210E-03     106.162E-03    -51.4414E-03     74.3514E-03    -54.9723E-03     106.014E-03    -51.2846E-03     73.7854E-03
            1916     8.55175E-03     30.2821E-03    -31.7415E+06    -100.087E+06    -3.60733E+06     597.564E+03    -54.1234E-03     105.387E-03    -51.2634E-03     68.6726E-03    -54.3022E-03     105.108E-03    -51.0903E-03     68.2028E-03
            1917     7.69798E-03     30.2141E-03    -34.6779E+06    -114.611E+06    -5.15556E+06     642.124E+03    -53.5092E-03     104.603E-03    -51.0937E-03     62.7011E-03    -53.6326E-03     104.211E-03    -50.9030E-03     62.3157E-03
            1918     6.84392E-03     30.1521E-03    -38.0730E+06    -124.286E+06    -8.69320E+06     576.178E+03    -52.8787E-03     103.797E-03    -50.9186E-03     56.5608E-03    -52.9643E-03     103.332E-03    -50.7266E-03     56.2478E-03
            1919     5.98936E-03     30.0966E-03    -42.2015E+06    -132.018E+06    -13.7622E+06     315.462E+03    -52.2776E-03     103.026E-03    -50.7485E-03     50.2022E-03    -52.3383E-03     102.508E-03    -50.5647E-03     49.9491E-03
            1920     5.13452E-03     30.0477E-03    -46.5245E+06    -141.406E+06    -20.9152E+06     300.995E+03    -51.7303E-03     102.317E-03    -50.5866E-03     43.5556E-03    -51.7686E-03     101.749E-03    -50.4187E-03     43.3562E-03
            1921     4.27929E-03     30.0058E-03    -50.6615E+06    -148.976E+06    -30.1442E+06     468.943E+03    -51.2322E-03     101.662E-03    -50.4297E-03     36.7218E-03    -51.2522E-03     101.061E-03    -50.2910E-03     36.5708E-03
            1922     3.42381E-03     29.9710E-03    -54.6161E+06    -159.238E+06    -39.2324E+06     451.026E+03    -50.8081E-03     101.107E-03    -50.2987E-03     29.6985E-03    -50.8092E-03     100.462E-03    -50.1847E-03     29.5867E-03
            1923     2.56806E-03     29.9438E-03    -58.3818E+06    -169.229E+06    -47.9784E+06     326.382E+03    -50.4671E-03     100.660E-03    -50.1929E-03     22.5251E-03    -50.4526E-03     99.9767E-03    -50.1028E-03     22.4457E-03
            1924     1.71213E-03     29.9239E-03    -61.5074E+06    -174.709E+06    -56.1946E+06     214.259E+03    -50.2200E-03     100.330E-03    -50.1095E-03     15.2789E-03    -50.1965E-03     99.6305E-03    -50.0480E-03     15.2276E-03
            1925     856.041E-06     29.9119E-03    -63.6783E+06    -178.617E+06    -62.1603E+06     246.138E+03    -50.1029E-03     100.148E-03    -50.0447E-03     8.30692E-03    -50.0732E-03     99.4384E-03    -50.0042E-03     8.28175E-03
            1926     16.2229E-03     30.0873E-03    -4.54703E+06      121.08E+06     85.5379E+06     259.594E+03    -56.0159E-03     108.879E-03    -52.8627E-03     79.0893E-03    -57.1547E-03     110.183E-03    -52.6040E-03     78.3423E-03
            1927     15.3723E-03     29.9827E-03    -9.92437E+06     118.231E+06     79.3073E+06    -266.612E+03    -57.0941E-03     109.778E-03    -52.6838E-03     103.699E-03    -58.6337E-03     111.472E-03    -52.4443E-03     102.667E-03
            1928     14.5217E-03     29.8766E-03    -14.2055E+06     108.164E+06     60.9744E+06    -1.07115E+06    -56.9926E-03     109.432E-03    -52.4392E-03     110.368E-03    -58.4831E-03     111.079E-03    -52.2705E-03     109.211E-03
            1929     13.6685E-03     29.7595E-03    -19.3052E+06     91.5298E+06     28.6712E+06    -45.8176E+03    -57.0044E-03     109.142E-03    -52.1374E-03     111.677E-03    -58.3375E-03     110.648E-03    -52.0988E-03     110.491E-03
            1930     12.8169E-03     29.6512E-03    -23.2483E+06     45.0341E+06     6.32543E+06     1.10736E+06    -56.7576E-03     108.667E-03    -51.9091E-03     100.432E-03    -57.7426E-03     109.711E-03    -51.9090E-03     99.3546E-03
            1931     11.9651E-03     29.5549E-03    -24.2560E+06    -9.13278E+06     4.07324E+06     497.720E+03    -56.2981E-03     108.066E-03    -51.7678E-03     90.5334E-03    -56.9767E-03     108.614E-03    -51.6990E-03     89.6001E-03
            1932     11.1129E-03     29.4660E-03    -25.1947E+06    -42.7500E+06     856.614E+03     118.381E+03    -55.8321E-03     107.414E-03    -51.5822E-03     83.9032E-03    -56.3098E-03     107.648E-03    -51.4794E-03     83.1045E-03
            1933     10.2604E-03     29.3823E-03    -26.8509E+06    -67.4631E+06    -469.462E+03     343.687E+03    -55.3276E-03     106.717E-03    -51.3892E-03     78.6638E-03    -55.6702E-03     106.726E-03    -51.2548E-03     77.9905E-03
            1934     9.40751E-03     29.3037E-03    -28.9913E+06    -85.1287E+06    -1.83847E+06     512.611E+03    -54.7180E-03     105.904E-03    -51.1863E-03     73.3844E-03    -54.9648E-03     105.751E-03    -51.0300E-03     72.8222E-03
            1935     8.55412E-03     29.2305E-03    -31.5717E+06    -99.9182E+06    -3.66308E+06     645.954E+03    -54.0628E-03     105.045E-03    -50.9824E-03     67.7342E-03    -54.2378E-03     104.764E-03    -50.8101E-03     67.2700E-03
            1936     7.70041E-03     29.1631E-03    -34.6453E+06    -114.547E+06    -5.37372E+06     594.172E+03    -53.3861E-03     104.174E-03    -50.7879E-03     61.7693E-03    -53.5066E-03     103.781E-03    -50.5985E-03     61.3881E-03
            1937     6.84612E-03     29.1020E-03    -38.2113E+06    -124.115E+06    -8.94314E+06     660.542E+03    -52.7035E-03     103.293E-03    -50.5899E-03     55.6729E-03    -52.7877E-03     102.827E-03    -50.3992E-03     55.3655E-03
            1938     5.99148E-03     29.0470E-03    -42.0897E+06    -131.575E+06    -14.0023E+06     622.268E+03    -52.0539E-03     102.451E-03    -50.3974E-03     49.3769E-03    -52.1129E-03     101.934E-03    -50.2156E-03     49.1320E-03
            1939     5.13640E-03     28.9989E-03    -46.3728E+06    -141.412E+06    -21.3319E+06     450.938E+03    -51.4627E-03     101.678E-03    -50.2149E-03     42.8023E-03    -51.4986E-03     101.109E-03    -50.0493E-03     42.6084E-03
            1940     4.28098E-03     28.9575E-03    -50.6142E+06    -148.940E+06    -30.4090E+06     440.989E+03    -50.9164E-03     100.957E-03    -50.0406E-03     36.0512E-03    -50.9350E-03     100.355E-03    -49.9033E-03     35.9028E-03
            1941     3.42519E-03     28.9233E-03    -54.5743E+06    -159.046E+06    -39.2757E+06     492.975E+03    -50.4474E-03     100.343E-03    -49.8956E-03     29.1399E-03    -50.4480E-03     99.6992E-03    -49.7823E-03     29.0310E-03
            1942     2.56914E-03     28.8963E-03    -58.2163E+06    -168.842E+06    -47.8077E+06     438.506E+03    -50.0766E-03     99.8560E-03    -49.7794E-03     22.0842E-03    -50.0618E-03     99.1738E-03    -49.6892E-03     22.0080E-03
            1943     1.71283E-03     28.8770E-03    -61.4092E+06    -174.422E+06    -56.1674E+06     363.078E+03    -49.8217E-03     99.5049E-03    -49.6832E-03     14.9690E-03    -49.7981E-03     98.8070E-03    -49.6221E-03     14.9209E-03
            1944     856.515E-06     28.8648E-03    -63.5193E+06    -178.293E+06    -62.0448E+06     167.196E+03    -49.6673E-03     99.2797E-03    -49.6124E-03     8.13301E-03    -49.6374E-03     98.5717E-03    -49.5720E-03     8.10750E-03
            1945     16.2242E-03     29.0297E-03    -4.63731E+06     120.923E+06     85.4989E+06    -40.0149E+03    -56.7661E-03     109.589E-03    -52.8227E-03     78.8203E-03    -57.8990E-03     110.887E-03    -52.5638E-03     78.0554E-03
            1946     15.3739E-03     28.9244E-03    -8.97836E+06     118.974E+06     80.1640E+06     -43.056E+03    -57.0936E-03     109.716E-03    -52.6224E-03     103.226E-03    -58.6184E-03     111.399E-03    -52.3810E-03     102.196E-03
            1947     14.5213E-03     28.8222E-03    -14.8628E+06     107.160E+06     60.1366E+06     1.20014E+06    -57.3488E-03     109.708E-03    -52.3591E-03     110.034E-03    -58.8313E-03     111.344E-03    -52.1923E-03     108.897E-03
            1948     13.6704E-03     28.7030E-03    -20.9260E+06     91.5785E+06     28.4417E+06     1.65255E+06    -57.6411E-03     109.663E-03    -52.0222E-03     110.763E-03    -58.9747E-03     111.165E-03    -51.9824E-03     109.584E-03
            1949     12.8192E-03     28.5961E-03    -22.5362E+06     46.7699E+06     7.82191E+06    -366.031E+03    -57.0645E-03     108.818E-03    -51.7539E-03     99.1364E-03    -58.0419E-03     109.859E-03    -51.7499E-03     98.0368E-03
            1950     11.9674E-03     28.5003E-03    -23.0114E+06    -9.34387E+06     4.39140E+06      -954.5E+03    -56.4848E-03     108.061E-03    -51.5763E-03     89.5886E-03    -57.1507E-03     108.599E-03    -51.5075E-03     88.6379E-03
            1951     11.1154E-03     28.4122E-03    -24.3579E+06    -43.1461E+06     832.128E+03    -208.582E+03    -55.9597E-03     107.320E-03    -51.3605E-03     82.9242E-03    -56.4272E-03     107.546E-03    -51.2584E-03     82.1242E-03
            1952     10.2630E-03     28.3293E-03    -26.3590E+06    -67.8662E+06    -649.346E+03     268.000E+03    -55.3510E-03     106.491E-03    -51.1397E-03     77.6991E-03    -55.6853E-03     106.492E-03    -51.0064E-03     77.0302E-03
            1953     9.41005E-03     28.2516E-03    -28.7909E+06    -85.2251E+06    -2.15944E+06     633.668E+03    -54.7097E-03     105.619E-03    -50.9097E-03     72.3827E-03    -54.9509E-03     105.462E-03    -50.7552E-03     71.8271E-03
            1954     8.55679E-03     28.1791E-03    -31.5306E+06    -99.8241E+06    -4.01234E+06     726.515E+03    -53.9983E-03     104.677E-03    -50.6784E-03     66.7135E-03    -54.1694E-03     104.393E-03    -50.5080E-03     66.2557E-03
            1955     7.70285E-03     28.1127E-03    -34.6869E+06    -114.418E+06    -5.71969E+06     828.408E+03    -53.2608E-03     103.718E-03    -50.4574E-03     60.7631E-03    -53.3785E-03     103.323E-03    -50.2698E-03     60.3903E-03
            1956     6.84860E-03     28.0523E-03    -38.2806E+06    -123.998E+06    -9.32936E+06     793.462E+03    -52.5278E-03     102.761E-03    -50.2332E-03     54.6892E-03    -52.6099E-03     102.294E-03    -50.0445E-03     54.3884E-03
            1957     5.99374E-03     27.9983E-03    -42.2368E+06    -131.278E+06    -14.3461E+06     747.496E+03    -51.8088E-03     101.825E-03    -50.0165E-03     48.4604E-03    -51.8670E-03     101.309E-03    -49.8367E-03     48.2214E-03
            1958     5.13847E-03     27.9506E-03    -46.3646E+06    -141.110E+06    -21.6601E+06     650.889E+03    -51.1557E-03     100.969E-03    -49.8133E-03     41.9819E-03    -51.1904E-03     100.401E-03    -49.6498E-03     41.7944E-03
            1959     4.28277E-03     27.9100E-03    -50.5210E+06    -148.843E+06    -30.6561E+06     539.750E+03    -50.5716E-03     100.193E-03    -49.6218E-03     35.3369E-03    -50.5889E-03     99.5918E-03    -49.4860E-03     35.1929E-03
            1960     3.42669E-03     27.8763E-03    -54.4448E+06    -158.832E+06    -39.3860E+06     523.444E+03    -50.0702E-03     99.5306E-03    -49.4604E-03     28.5289E-03    -50.0699E-03     98.8874E-03    -49.3481E-03     28.4229E-03
            1961     2.57027E-03     27.8499E-03    -58.1023E+06    -168.600E+06    -47.8944E+06     550.317E+03    -49.6718E-03     98.9992E-03    -49.3273E-03     21.6131E-03    -49.6565E-03     98.3179E-03    -49.2381E-03     21.5402E-03
            1962     1.71371E-03     27.8306E-03    -61.1633E+06    -173.981E+06    -56.0527E+06     485.234E+03    -49.3721E-03     98.5910E-03    -49.2190E-03     14.6761E-03    -49.3479E-03     97.8947E-03    -49.1583E-03     14.6309E-03
            1963     856.869E-06     27.8189E-03    -63.1451E+06    -177.740E+06    -61.9469E+06     225.540E+03    -49.1701E-03     98.3434E-03    -49.1733E-03     7.98984E-03    -49.1392E-03     97.6374E-03    -49.1338E-03     7.96559E-03
            1964     16.2262E-03     27.9720E-03    -4.22436E+06     121.690E+06     85.9247E+06    -102.399E+03    -57.1063E-03     109.907E-03    -52.8004E-03     79.4165E-03    -58.2357E-03     111.204E-03    -52.5411E-03     78.6390E-03
            1965     15.3733E-03     27.8691E-03    -9.61495E+06     118.170E+06     79.4938E+06     559.381E+03    -57.6304E-03     110.204E-03    -52.5732E-03     102.980E-03    -59.1487E-03     111.877E-03    -52.3331E-03     101.936E-03
            1966     14.5231E-03     27.7646E-03    -14.7385E+06     105.042E+06     62.9974E+06     1.60191E+06    -58.2521E-03     110.533E-03    -52.2808E-03     108.795E-03    -59.7256E-03     112.144E-03    -52.0968E-03     107.641E-03
            1967     13.6729E-03     27.6467E-03    -15.5026E+06     93.6792E+06     34.7800E+06     934.635E+03    -58.0545E-03     109.952E-03    -51.8974E-03     109.543E-03    -59.3607E-03     111.435E-03    -51.8369E-03     108.351E-03
            1968     12.8214E-03     27.5411E-03    -17.1345E+06     48.6620E+06     9.96506E+06    -158.481E+03    -57.2538E-03     108.831E-03    -51.5770E-03     98.3688E-03    -58.2009E-03     109.861E-03    -51.5729E-03     97.2739E-03
            1969     11.9699E-03     27.4457E-03    -20.5110E+06    -10.1222E+06     4.52435E+06    -208.544E+03    -56.6926E-03     108.062E-03    -51.3695E-03     88.7091E-03    -57.3380E-03     108.586E-03    -51.3025E-03     87.7703E-03
            1970     11.1180E-03     27.3586E-03    -23.5079E+06    -43.6879E+06     453.104E+03     324.694E+03    -56.0526E-03     107.176E-03    -51.1238E-03     81.9103E-03    -56.5081E-03     107.392E-03    -51.0241E-03     81.1222E-03
            1971     10.2656E-03     27.2767E-03    -26.2297E+06    -68.2370E+06    -1.19169E+06     757.351E+03    -55.4144E-03     106.289E-03    -50.8741E-03     76.6613E-03    -55.7417E-03     106.284E-03    -50.7431E-03     76.0038E-03
            1972     9.41288E-03     27.1996E-03    -28.9119E+06    -85.1900E+06    -2.59016E+06     900.160E+03    -54.7062E-03     105.321E-03    -50.6144E-03     71.3075E-03    -54.9433E-03     105.160E-03    -50.4619E-03     70.7608E-03
            1973     8.55947E-03     27.1283E-03    -31.6586E+06    -99.7289E+06    -4.39119E+06     932.771E+03    -53.9452E-03     104.298E-03    -50.3529E-03     65.5733E-03    -54.1131E-03     104.012E-03    -50.1844E-03     65.1235E-03
            1974     7.70568E-03     27.0626E-03    -34.7243E+06    -114.322E+06    -5.96382E+06     954.866E+03    -53.1389E-03     103.241E-03    -50.1021E-03     59.6314E-03    -53.2539E-03     102.844E-03    -49.9159E-03     59.2655E-03
            1975     6.85119E-03     27.0033E-03    -38.1986E+06    -123.744E+06    -9.44334E+06     1.01117E+06    -52.3256E-03     102.176E-03    -49.8502E-03     53.6195E-03    -52.4054E-03     101.708E-03    -49.6626E-03     53.3266E-03
            1976     5.99623E-03     26.9500E-03    -42.0842E+06    -130.954E+06    -14.4518E+06     876.950E+03    -51.5392E-03     101.148E-03    -49.6087E-03     47.4747E-03    -51.5953E-03     100.632E-03    -49.4301E-03     47.2420E-03
            1977     5.14068E-03     26.9033E-03    -46.2074E+06    -140.826E+06    -21.7476E+06     764.824E+03    -50.8197E-03     100.205E-03    -49.3849E-03     41.1092E-03    -50.8528E-03     99.6369E-03    -49.2225E-03     40.9273E-03
            1978     4.28466E-03     26.8632E-03    -50.3318E+06    -148.574E+06    -30.7614E+06     715.456E+03    -50.1928E-03     99.3690E-03    -49.1762E-03     34.5809E-03    -50.2086E-03     98.7679E-03    -49.0416E-03     34.4425E-03
            1979     3.42828E-03     26.8303E-03    -54.3192E+06    -158.615E+06    -39.5151E+06     658.413E+03    -49.6676E-03     98.6661E-03    -48.9985E-03     27.9001E-03    -49.6664E-03     98.0235E-03    -48.8873E-03     27.7984E-03
            1980     2.57157E-03     26.8043E-03    -57.9664E+06    -168.333E+06    -47.9488E+06     625.111E+03    -49.2279E-03     98.0792E-03    -48.8512E-03     21.1447E-03    -49.2119E-03     97.3988E-03    -48.7628E-03     21.0747E-03
            1981     1.71448E-03     26.7856E-03    -60.9141E+06    -173.468E+06    -55.8314E+06     523.057E+03    -48.8937E-03     97.6295E-03    -48.7358E-03     14.3467E-03    -48.8693E-03     96.9349E-03    -48.6751E-03     14.3031E-03
            1982     857.261E-06     26.7739E-03    -62.9360E+06    -177.001E+06    -61.5088E+06     456.479E+03    -48.7076E-03     97.3726E-03    -48.6650E-03     7.80528E-03    -48.6774E-03     96.6693E-03    -48.6246E-03     7.78470E-03
            1983     16.2228E-03     26.9137E-03    -4.95123E+06     120.790E+06     84.7265E+06     548.246E+03    -57.7542E-03     110.523E-03    -52.7684E-03     77.4309E-03    -58.8702E-03     111.804E-03    -52.5128E-03     76.6420E-03
            1984     15.3750E-03     26.8109E-03    -9.80667E+06     117.907E+06     79.3896E+06     682.361E+03    -58.5813E-03     111.076E-03    -52.4951E-03     101.548E-03    -60.0859E-03     112.734E-03    -52.2549E-03     100.482E-03
            1985     14.5256E-03     26.7064E-03    -12.9786E+06     106.438E+06     63.8178E+06    -822.542E+03    -58.5972E-03     110.754E-03    -52.1568E-03     107.780E-03    -60.0505E-03     112.354E-03    -51.9733E-03     106.588E-03
            1986     13.6746E-03     26.5913E-03    -15.7593E+06     92.9066E+06     33.7312E+06    -1.06259E+06    -58.1811E-03     109.927E-03    -51.7457E-03     108.863E-03    -59.4730E-03     111.395E-03    -51.6889E-03     107.648E-03
            1987     12.8235E-03     26.4852E-03    -18.3703E+06     47.8933E+06     9.14812E+06     819.919E+03    -57.6038E-03     109.004E-03    -51.3999E-03     97.5653E-03    -58.5460E-03     110.024E-03    -51.3969E-03     96.4811E-03
            1988     11.9725E-03     26.3914E-03    -20.9252E+06    -9.73455E+06     4.14261E+06     1.65051E+06    -56.9275E-03     108.083E-03    -51.1553E-03     87.5393E-03    -57.5669E-03     108.601E-03    -51.0901E-03     86.6264E-03
            1989     11.1207E-03     26.3050E-03    -24.1265E+06    -43.7712E+06    -109.811E+03     1.47473E+06    -56.2005E-03     107.076E-03    -50.8751E-03     80.7636E-03    -56.6514E-03     107.286E-03    -50.7772E-03     79.9949E-03
            1990     10.2686E-03     26.2240E-03    -26.7884E+06    -67.9965E+06    -1.63568E+06     1.28890E+06    -55.4965E-03     106.088E-03    -50.5914E-03     75.4283E-03    -55.8212E-03     106.081E-03    -50.4621E-03     74.7821E-03
            1991     9.41574E-03     26.1481E-03    -29.2479E+06     -84.964E+06    -2.89960E+06     1.08866E+06    -54.7116E-03     105.010E-03    -50.2983E-03     70.0605E-03    -54.9458E-03     104.847E-03    -50.1472E-03     69.5217E-03
            1992     8.56253E-03     26.0776E-03    -31.9195E+06    -99.5231E+06    -4.64765E+06     1.03650E+06    -53.8605E-03     103.866E-03    -50.0052E-03     64.3330E-03    -54.0260E-03     103.578E-03    -49.8379E-03     63.8903E-03
            1993     7.70856E-03     26.0133E-03    -34.9318E+06    -114.123E+06    -6.14619E+06     1.02447E+06    -52.9761E-03     102.702E-03    -49.7257E-03     58.4675E-03    -53.0892E-03     102.304E-03    -49.5403E-03     58.1082E-03
            1994     6.85403E-03     25.9548E-03    -38.2911E+06    -123.550E+06    -9.69417E+06     980.614E+03    -52.0929E-03     101.540E-03    -49.4470E-03     52.5579E-03    -52.1709E-03     101.071E-03    -49.2608E-03     52.2699E-03
            1995     5.99879E-03     25.9026E-03    -41.9588E+06    -130.649E+06    -14.5562E+06     1.00296E+06    -51.2480E-03     100.430E-03    -49.1821E-03     46.4823E-03    -51.3022E-03     99.9137E-03    -49.0046E-03     46.2560E-03
            1996     5.14301E-03     25.8567E-03    -46.0948E+06    -140.539E+06    -21.7802E+06     973.584E+03    -50.4822E-03     99.4188E-03    -48.9367E-03     40.2140E-03    -50.5139E-03     98.8512E-03    -48.7749E-03     40.0389E-03
            1997     4.28672E-03     25.8175E-03    -50.2620E+06    -148.267E+06    -30.8538E+06     906.658E+03    -49.7914E-03     98.5003E-03    -48.7089E-03     33.7952E-03    -49.8063E-03     97.9000E-03    -48.5753E-03     33.6627E-03
            1998     3.42992E-03     25.7851E-03    -54.1511E+06    -158.293E+06    -39.5275E+06     852.838E+03    -49.2159E-03     97.7350E-03    -48.5191E-03     27.2590E-03    -49.2138E-03     97.0933E-03    -48.4087E-03     27.1625E-03
            1999     2.57278E-03     25.7598E-03    -57.7832E+06    -167.848E+06    -47.6670E+06     709.168E+03    -48.7637E-03     97.1272E-03    -48.3635E-03     20.6337E-03    -48.7477E-03     96.4484E-03    -48.2747E-03     20.5666E-03
            2000     1.71538E-03     25.7414E-03    -60.8476E+06    -172.915E+06    -55.5318E+06     498.158E+03    -48.4219E-03     96.6567E-03    -48.2348E-03     14.0035E-03    -48.3983E-03     95.9643E-03    -48.1735E-03     13.9608E-03
            2001     857.793E-06     25.7300E-03    -62.7319E+06    -176.375E+06    -61.2240E+06     227.216E+03    -48.2119E-03     96.3518E-03    -48.1399E-03     7.64840E-03    -48.1820E-03     95.6509E-03    -48.0993E-03     7.62539E-03
            2002     16.2286E-03     25.8568E-03    -5.00485E+06     120.129E+06     84.3947E+06     215.980E+03    -58.8298E-03     111.544E-03    -52.7137E-03     77.4205E-03    -59.9422E-03     112.820E-03    -52.4587E-03     76.6000E-03
            2003     15.3772E-03     25.7509E-03    -8.95051E+06     118.686E+06     80.0683E+06     89.6262E+03    -58.8788E-03     111.281E-03    -52.4023E-03     101.467E-03    -60.3702E-03     112.930E-03    -52.1611E-03     100.384E-03
            2004     14.5267E-03     25.6503E-03    -13.4281E+06     108.188E+06     62.1098E+06    -276.813E+03    -58.7223E-03     110.757E-03    -52.0346E-03     107.184E-03    -60.1615E-03     112.352E-03    -51.8615E-03     105.999E-03
            2005     13.6763E-03     25.5342E-03    -19.5435E+06     91.8755E+06     29.0967E+06    -622.258E+03    -58.7490E-03     110.336E-03    -51.5867E-03     108.004E-03    -60.0416E-03     111.801E-03    -51.5461E-03     106.782E-03
            2006     12.8262E-03     25.4297E-03    -22.7219E+06     45.6327E+06     6.01977E+06     315.928E+03    -58.0008E-03     109.206E-03    -51.2052E-03     96.1362E-03    -58.9463E-03     110.215E-03    -51.2084E-03     95.0416E-03
            2007     11.9750E-03     25.3366E-03    -24.2452E+06    -9.93324E+06     2.63576E+06     1.83875E+06    -57.1310E-03     108.055E-03    -50.9243E-03     86.1287E-03    -57.7751E-03     108.570E-03    -50.8615E-03     85.2214E-03
            2008     11.1238E-03     25.2516E-03    -25.7080E+06    -42.7728E+06    -542.978E+03     1.81546E+06    -56.3519E-03     106.961E-03    -50.6089E-03     79.4039E-03    -56.8047E-03     107.172E-03    -50.5123E-03     78.6433E-03
            2009     10.2716E-03     25.1716E-03    -27.4804E+06    -67.4626E+06    -1.96034E+06     1.23080E+06    -55.5574E-03     105.847E-03    -50.2897E-03     74.1601E-03    -55.8802E-03     105.839E-03    -50.1618E-03     73.5186E-03
            2010     9.41909E-03     25.0968E-03    -29.5517E+06    -84.6797E+06    -3.11357E+06     1.12029E+06    -54.6761E-03     104.640E-03    -49.9642E-03     68.7780E-03    -54.9073E-03     104.475E-03    -49.8142E-03     68.2456E-03
            2011     8.56564E-03     25.0276E-03    -32.0420E+06    -99.2247E+06    -4.88481E+06     1.02535E+06    -53.7126E-03     103.355E-03    -49.6425E-03     63.1385E-03    -53.8750E-03     103.066E-03    -49.4766E-03     62.7026E-03
            2012     7.71159E-03     24.9643E-03    -34.8982E+06    -113.972E+06    -6.29429E+06     986.353E+03    -52.7758E-03     102.115E-03    -49.3387E-03     57.3298E-03    -52.8859E-03     101.714E-03    -49.1543E-03     56.9763E-03
            2013     6.85681E-03     24.9070E-03    -38.2568E+06    -123.303E+06    -9.81666E+06     1.00546E+06    -51.8463E-03     100.882E-03    -49.0358E-03     51.4645E-03    -51.9221E-03     100.413E-03    -48.8506E-03     51.1824E-03
            2014     6.00142E-03     24.8558E-03    -42.0626E+06    -130.556E+06    -14.8453E+06     1.00333E+06    -50.9497E-03     99.6967E-03    -48.7470E-03     45.4802E-03    -51.0025E-03     99.1797E-03    -48.5709E-03     45.2588E-03
            2015     5.14538E-03     24.8109E-03    -46.0243E+06    -140.329E+06    -21.9484E+06     1.18852E+06    -50.1316E-03     98.6117E-03    -48.4801E-03     39.3091E-03    -50.1619E-03     98.0441E-03    -48.3196E-03     39.1410E-03
            2016     4.28876E-03     24.7726E-03    -50.1813E+06    -147.898E+06    -30.9826E+06     1.24611E+06    -49.3843E-03     97.6183E-03    -48.2340E-03     33.0114E-03    -49.3984E-03     97.0191E-03    -48.1017E-03     32.8868E-03
            2017     3.43163E-03     24.7410E-03    -54.2436E+06    -157.717E+06    -39.3297E+06     1.04432E+06    -48.7579E-03     96.7907E-03    -48.0328E-03     26.6213E-03    -48.7569E-03     96.1513E-03    -47.9221E-03     26.5300E-03
            2018     2.57409E-03     24.7161E-03    -57.8674E+06    -167.166E+06    -47.2674E+06     654.525E+03    -48.2802E-03     96.1502E-03    -47.8701E-03     20.1448E-03    -48.2659E-03     95.4741E-03    -47.7801E-03     20.0790E-03
            2019     1.71626E-03     24.6983E-03    -60.8157E+06    -172.330E+06    -55.2062E+06     252.894E+03    -47.9313E-03     95.6656E-03    -47.7343E-03     13.6790E-03    -47.9087E-03     94.9754E-03    -47.6723E-03     13.6345E-03
            2020     858.146E-06     24.6871E-03    -62.6838E+06    -176.066E+06    -61.1751E+06    -28.5373E+03    -47.7066E-03     95.3407E-03    -47.6341E-03     7.43597E-03    -47.6769E-03     94.6412E-03    -47.5938E-03     7.41023E-03
            2021     16.2243E-03     24.7945E-03    -3.76603E+06     121.032E+06     86.0589E+06     143.320E+03    -59.4230E-03     112.122E-03    -52.6988E-03     77.4467E-03    -60.5267E-03     113.392E-03    -52.4386E-03     76.6060E-03
            2022     15.3777E-03     24.6934E-03    -9.44271E+06     117.901E+06     78.8682E+06     324.036E+03    -59.5492E-03     111.890E-03    -52.3411E-03     100.705E-03    -61.0282E-03     113.526E-03    -52.1040E-03     99.5979E-03
            2023     14.5278E-03     24.5924E-03    -16.0778E+06     108.094E+06     59.1041E+06     1.08859E+06    -59.5553E-03     111.472E-03    -51.9165E-03     106.160E-03    -60.9921E-03     113.064E-03    -51.7544E-03     104.969E-03
            2024     13.6789E-03     24.4767E-03    -20.2566E+06     92.9795E+06     27.3359E+06     833.869E+03    -59.3172E-03     110.733E-03    -51.4159E-03     106.421E-03    -60.5981E-03     112.193E-03    -51.3846E-03     105.208E-03
            2025     12.8287E-03     24.3741E-03    -23.4105E+06     44.2696E+06     4.02930E+06     640.280E+03    -58.3020E-03     109.295E-03    -50.9928E-03     94.7178E-03    -59.2336E-03     110.289E-03    -51.0029E-03     93.6283E-03
            2026     11.9784E-03     24.2820E-03    -25.2610E+06    -10.0353E+06     1.92794E+06     902.188E+03    -57.3567E-03     108.036E-03    -50.6794E-03     84.8230E-03    -57.9959E-03     108.544E-03    -50.6186E-03     83.9066E-03
            2027     11.1268E-03     24.1983E-03    -26.3033E+06    -42.1848E+06    -896.361E+03     915.223E+03    -56.4477E-03     106.777E-03    -50.3293E-03     78.1460E-03    -56.8966E-03     106.985E-03    -50.2344E-03     77.3794E-03
            2028     10.2750E-03     24.1194E-03    -27.6263E+06    -67.0766E+06    -2.18839E+06     900.593E+03    -55.5629E-03     105.542E-03    -49.9791E-03     72.9398E-03    -55.8809E-03     105.530E-03    -49.8527E-03     72.3007E-03
            2029     9.42218E-03     24.0459E-03    -29.5758E+06    -84.6480E+06    -3.38976E+06     902.517E+03    -54.5732E-03     104.200E-03    -49.6264E-03     67.5714E-03    -54.7994E-03     104.030E-03    -49.4778E-03     67.0436E-03
            2030     8.56879E-03     23.9781E-03    -31.9138E+06    -98.9188E+06    -5.01743E+06     986.991E+03    -53.5715E-03     102.851E-03    -49.2796E-03     61.9678E-03    -53.7298E-03     102.560E-03    -49.1150E-03     61.5381E-03
            2031     7.71456E-03     23.9159E-03    -34.8844E+06     -113.89E+06    -6.53942E+06     1.00556E+06    -52.5777E-03     101.528E-03    -48.9507E-03     56.1746E-03    -52.6846E-03     101.126E-03    -48.7676E-03     55.8275E-03
            2032     6.85970E-03     23.8599E-03    -38.3037E+06    -123.172E+06    -9.92936E+06     1.12907E+06    -51.5874E-03     100.212E-03    -48.6248E-03     50.3380E-03    -51.6612E-03     99.7417E-03    -48.4403E-03     50.0631E-03
            2033     6.00403E-03     23.8098E-03    -42.1529E+06    -130.257E+06    -15.0116E+06     1.14296E+06    -50.6334E-03     98.9478E-03    -48.3143E-03     44.4641E-03    -50.6852E-03     98.4311E-03    -48.1394E-03     44.2495E-03
            2034     5.14773E-03     23.7660E-03    -46.2038E+06    -140.438E+06    -22.3840E+06     1.21388E+06    -49.7610E-03     97.7897E-03    -48.0287E-03     38.3998E-03    -49.7903E-03     97.2214E-03    -47.8700E-03     38.2361E-03
            2035     4.29076E-03     23.7286E-03    -50.0886E+06    -147.593E+06    -31.2881E+06     1.53542E+06    -48.9792E-03     96.7461E-03    -47.7669E-03     32.2265E-03    -48.9922E-03     96.1480E-03    -47.6367E-03     32.1090E-03
            2036     3.43329E-03     23.6978E-03    -53.9699E+06    -156.659E+06    -39.0824E+06     1.29882E+06    -48.3211E-03     95.8745E-03    -47.5534E-03     25.9864E-03    -48.3202E-03     95.2392E-03    -47.4434E-03     25.9011E-03
            2037     2.57535E-03     23.6736E-03    -57.7098E+06    -166.176E+06    -46.9946E+06     472.263E+03    -47.8082E-03     95.1890E-03    -47.3808E-03     19.6682E-03    -47.7947E-03     94.5169E-03    -47.2911E-03     19.6020E-03
            2038     1.71706E-03     23.6561E-03    -60.7611E+06    -172.060E+06    -55.4664E+06     51.8011E+03    -47.4387E-03     94.6775E-03    -47.2388E-03     13.3072E-03    -47.4157E-03     93.9889E-03    -47.1785E-03     13.2613E-03
            2039     858.654E-06     23.6454E-03    -62.8013E+06    -175.910E+06    -61.4217E+06    -55.1000E+03    -47.2215E-03     94.3486E-03    -47.1271E-03     7.22890E-03    -47.1922E-03     93.6504E-03    -47.0881E-03     7.20356E-03
            2040     16.2285E-03     23.7335E-03    -4.24131E+06     120.099E+06     85.4792E+06     466.729E+03    -59.9636E-03     112.626E-03    -52.6621E-03     75.2001E-03    -61.0415E-03     113.867E-03    -52.4027E-03     74.3523E-03
            2041     15.3778E-03     23.6346E-03    -9.19288E+06     117.751E+06     79.2769E+06     1.32031E+06    -60.2389E-03     112.505E-03    -52.2663E-03     98.5100E-03    -61.6876E-03     114.109E-03    -52.0273E-03     97.4023E-03
            2042     14.5306E-03     23.5322E-03    -13.7114E+06     107.637E+06     60.9541E+06     1.48752E+06    -60.3021E-03     112.097E-03    -51.7954E-03     104.744E-03    -61.7119E-03     113.664E-03    -51.6268E-03     103.542E-03
            2043     13.6814E-03     23.4204E-03    -17.5171E+06     92.8327E+06     29.5402E+06     2.22586E+06    -59.6825E-03     110.932E-03    -51.2500E-03     105.030E-03    -60.9356E-03     112.367E-03    -51.2115E-03     103.833E-03
            2044     12.8314E-03     23.3174E-03    -20.8851E+06     45.7532E+06     5.76438E+06     2.01617E+06    -58.5694E-03     109.356E-03    -50.7870E-03     93.4054E-03    -59.4797E-03     110.338E-03    -50.7942E-03     92.3372E-03
            2045     11.9810E-03     23.2277E-03    -23.2182E+06    -9.42495E+06     2.34499E+06     711.111E+03    -57.5431E-03     107.978E-03    -50.4349E-03     83.4794E-03    -58.1639E-03     108.476E-03    -50.3758E-03     82.5652E-03
            2046     11.1300E-03     23.1449E-03    -25.0941E+06    -42.1269E+06    -841.565E+03     471.761E+03    -56.5474E-03     106.600E-03    -50.0523E-03     76.9381E-03    -56.9832E-03     106.799E-03    -49.9590E-03     76.1718E-03
            2047     10.2780E-03     23.0677E-03    -27.0553E+06    -67.0713E+06    -2.34445E+06     689.087E+03    -55.5253E-03     105.199E-03    -49.6735E-03     71.6746E-03    -55.8343E-03     105.181E-03    -49.5487E-03     71.0399E-03
            2048     9.42534E-03     22.9955E-03    -29.2055E+06    -84.6353E+06    -3.68781E+06     832.014E+03    -54.4789E-03     103.774E-03    -49.2953E-03     66.3309E-03    -54.6981E-03     103.600E-03    -49.1486E-03     65.8094E-03
            2049     8.57180E-03     22.9289E-03    -31.8127E+06    -98.9404E+06    -5.40039E+06     1.04364E+06    -53.4305E-03     102.354E-03    -48.9237E-03     60.7413E-03    -53.5841E-03     102.059E-03    -48.7611E-03     60.3187E-03
            2050     7.71757E-03     22.8681E-03    -34.8727E+06    -113.727E+06    -6.79186E+06     1.24752E+06    -52.3695E-03     100.941E-03    -48.5716E-03     55.0092E-03    -52.4733E-03     100.537E-03    -48.3901E-03     54.6714E-03
            2051     6.86243E-03     22.8134E-03    -38.4399E+06    -123.104E+06    -10.2349E+06     1.30040E+06    -51.3142E-03     99.5394E-03    -48.2251E-03     49.2555E-03    -51.3862E-03     99.0676E-03    -48.0421E-03     48.9884E-03
            2052     6.00658E-03     22.7645E-03    -42.3505E+06    -129.956E+06    -15.1521E+06     1.39386E+06    -50.3042E-03     98.2021E-03    -47.8978E-03     43.4649E-03    -50.3556E-03     97.6857E-03    -47.7238E-03     43.2584E-03
            2053     5.14994E-03     22.7219E-03    -46.5637E+06    -140.316E+06    -22.7014E+06     1.43718E+06    -49.3922E-03     96.9895E-03    -47.5973E-03     37.5109E-03    -49.4219E-03     96.4216E-03    -47.4398E-03     37.3543E-03
            2054     4.29271E-03     22.6855E-03    -50.7002E+06    -147.642E+06    -31.8000E+06     1.63446E+06    -48.5861E-03     95.9080E-03    -47.3220E-03     31.4620E-03    -48.6005E-03     95.3106E-03    -47.1934E-03     31.3491E-03
            2055     3.43486E-03     22.6555E-03    -54.4871E+06    -155.187E+06    -40.5729E+06     1.52164E+06    -47.9038E-03     94.9923E-03    -47.0885E-03     25.3470E-03    -47.9050E-03     94.3668E-03    -46.9874E-03     25.2672E-03
            2056     2.57658E-03     22.6320E-03    -57.9998E+06    -164.891E+06    -48.9430E+06     617.060E+03    -47.3632E-03     94.2660E-03    -46.9028E-03     19.1845E-03    -47.3499E-03     93.6034E-03    -46.8243E-03     19.1222E-03
            2057     1.71798E-03     22.6150E-03    -60.8960E+06    -172.128E+06    -56.4059E+06     166.403E+03    -46.9651E-03     93.7284E-03    -46.7633E-03     12.9948E-03    -46.9413E-03     93.0409E-03    -46.7074E-03     12.9516E-03
            2058     858.983E-06     22.6046E-03    -62.9830E+06    -175.633E+06    -61.7215E+06     199.505E+03    -46.7546E-03     93.4037E-03    -46.6491E-03     7.06877E-03    -46.7262E-03     92.7075E-03    -46.6117E-03     7.04745E-03
            2059     16.2271E-03     22.6745E-03    -4.98135E+06     119.282E+06     84.3367E+06     168.369E+03    -60.9633E-03     113.590E-03    -52.6262E-03     75.7510E-03    -62.0410E-03     114.828E-03    -52.3703E-03     74.8677E-03
            2060     15.3811E-03     22.5731E-03    -9.05061E+06     117.736E+06     79.8041E+06     487.441E+03    -61.2122E-03     113.393E-03    -52.1811E-03     98.3902E-03    -62.6510E-03     114.987E-03    -51.9397E-03     97.2432E-03
            2061     14.5319E-03     22.4743E-03    -12.4497E+06     106.155E+06     63.0579E+06     1.54380E+06    -60.7199E-03     112.392E-03    -51.6721E-03     103.395E-03    -62.1020E-03     113.924E-03    -51.4926E-03     102.192E-03
            2062     13.6832E-03     22.3616E-03    -16.2915E+06     91.5239E+06     32.1747E+06     3.18031E+06    -60.0409E-03     111.134E-03    -51.0934E-03     103.546E-03    -61.2705E-03     112.538E-03    -51.0416E-03     102.363E-03
            2063     12.8343E-03     22.2620E-03    -18.7082E+06     48.3468E+06     8.37902E+06     2.98913E+06    -58.8419E-03     109.429E-03    -50.5870E-03     91.8156E-03    -59.7357E-03     110.404E-03    -50.5881E-03     90.7614E-03
            2064     11.9839E-03     22.1727E-03    -21.2852E+06    -7.94180E+06     3.05564E+06     1.73195E+06    -57.6707E-03     107.865E-03    -50.1947E-03     82.0258E-03    -58.2747E-03     108.357E-03    -50.1370E-03     81.1304E-03
            2065     11.1330E-03     22.0920E-03    -23.8873E+06    -41.9259E+06    -637.442E+03     973.769E+03    -56.5774E-03     106.362E-03    -49.7845E-03     75.4783E-03    -57.0004E-03     106.553E-03    -49.6923E-03     74.7245E-03
            2066     10.2811E-03     22.0160E-03    -26.2199E+06    -67.0306E+06    -2.31920E+06     919.123E+03    -55.4839E-03     104.864E-03    -49.3803E-03     70.3667E-03    -55.7830E-03     104.839E-03    -49.2567E-03     69.7421E-03
            2067     9.42835E-03     21.9455E-03    -28.7621E+06    -84.6898E+06    -3.90482E+06     1.15612E+06    -54.3870E-03     103.365E-03    -48.9777E-03     65.0715E-03    -54.5991E-03     103.185E-03    -48.8327E-03     64.5608E-03
            2068     8.57480E-03     21.8803E-03    -31.5299E+06    -98.9771E+06    -5.83046E+06     1.32995E+06    -53.2574E-03     101.841E-03    -48.5835E-03     59.5512E-03    -53.4051E-03     101.542E-03    -48.4234E-03     59.1393E-03
            2069     7.72028E-03     21.8210E-03    -34.6444E+06    -113.804E+06    -7.10055E+06     1.60953E+06    -52.1381E-03     100.352E-03    -48.2138E-03     53.8605E-03    -52.2373E-03     99.9448E-03    -48.0340E-03     53.5337E-03
            2070     6.86504E-03     21.7676E-03    -38.3365E+06    -122.816E+06    -10.5339E+06     1.79237E+06    -51.0341E-03     98.8853E-03    -47.8512E-03     48.1825E-03    -51.1033E-03     98.4130E-03    -47.6702E-03     47.9275E-03
            2071     6.00888E-03     21.7200E-03    -42.5284E+06    -129.761E+06    -15.5044E+06     1.78354E+06    -49.9913E-03     97.5015E-03    -47.5101E-03     42.4756E-03    -50.0418E-03     96.9853E-03    -47.3378E-03     42.2791E-03
            2072     5.15204E-03     21.6785E-03    -46.8738E+06    -139.963E+06    -22.7914E+06     1.87170E+06    -49.0518E-03     96.2494E-03    -47.1976E-03     36.6123E-03    -49.0823E-03     95.6827E-03    -47.0407E-03     36.4654E-03
            2073     4.29444E-03     21.6432E-03    -51.1185E+06    -147.477E+06    -32.1736E+06     1.93606E+06    -48.2184E-03     95.1275E-03    -46.9091E-03     30.6779E-03    -48.2339E-03     94.5312E-03    -46.7820E-03     30.5722E-03
            2074     3.43634E-03     21.6141E-03    -54.9262E+06    -153.862E+06    -42.0501E+06     1.73486E+06    -47.5071E-03     94.1653E-03    -46.6582E-03     24.7018E-03    -47.5097E-03     93.5487E-03    -46.5657E-03     24.6274E-03
            2075     2.57769E-03     21.5913E-03    -58.1150E+06    -163.493E+06    -50.5161E+06     1.11589E+06    -46.9415E-03     93.4067E-03    -46.4652E-03     18.6896E-03    -46.9283E-03     92.7532E-03    -46.3964E-03     18.6356E-03
            2076     1.71859E-03     21.5749E-03    -60.9541E+06    -171.859E+06    -56.8381E+06     628.499E+03    -46.5463E-03     92.8729E-03    -46.3266E-03     12.6546E-03    -46.5223E-03     92.1873E-03    -46.2732E-03     12.6186E-03
            2077     859.410E-06     21.5648E-03    -62.9938E+06    -175.010E+06    -61.6671E+06     409.017E+03    -46.3351E-03     92.5239E-03    -46.1888E-03     6.83416E-03    -46.3077E-03     91.8308E-03    -46.1520E-03     6.81627E-03
            2078     16.2270E-03     21.6102E-03    -4.16248E+06     119.869E+06     84.8746E+06     437.571E+03    -62.0420E-03     114.637E-03    -52.5954E-03     73.6135E-03    -63.0985E-03     115.859E-03    -52.3388E-03     72.7102E-03
            2079     15.3804E-03     21.5115E-03    -9.39677E+06     117.029E+06     78.6666E+06    -198.624E+03    -61.9311E-03     114.021E-03    -52.0894E-03     95.9300E-03    -63.3460E-03     115.589E-03    -51.8522E-03     94.7481E-03
            2080     14.5344E-03     21.4147E-03    -14.6902E+06     104.140E+06     61.7054E+06     696.827E+03    -61.2062E-03     112.744E-03    -51.5379E-03     101.460E-03    -62.5727E-03     114.249E-03    -51.3591E-03     100.236E-03
            2081     13.6862E-03     21.3039E-03    -17.6586E+06     90.4711E+06     32.7893E+06     2.19578E+06    -60.3019E-03     111.232E-03    -50.9300E-03     102.032E-03    -61.5185E-03     112.612E-03    -50.8716E-03     100.837E-03
            2082     12.8366E-03     21.2054E-03    -19.4338E+06     49.2582E+06     8.74689E+06     2.94879E+06    -59.0392E-03     109.427E-03    -50.3874E-03     90.1933E-03    -59.9240E-03     110.392E-03    -50.3869E-03     89.1423E-03
            2083     11.9869E-03     21.1183E-03    -21.0692E+06    -5.93615E+06     3.52329E+06     2.46279E+06    -57.7477E-03     107.712E-03    -49.9641E-03     80.5069E-03    -58.3438E-03     108.202E-03    -49.9073E-03     79.6273E-03
            2084     11.1358E-03     21.0391E-03    -23.2025E+06    -41.5687E+06    -572.634E+03     1.77480E+06    -56.5213E-03     106.053E-03    -49.5315E-03     74.1448E-03    -56.9334E-03     106.237E-03    -49.4404E-03     73.4098E-03
            2085     10.2839E-03     20.9649E-03    -25.6715E+06    -66.6841E+06    -2.30680E+06     1.66998E+06    -55.4215E-03     104.529E-03    -49.1079E-03     69.1416E-03    -55.7125E-03     104.499E-03    -48.9855E-03     68.5340E-03
            2086     9.43115E-03     20.8957E-03    -28.2694E+06    -84.7090E+06    -4.05260E+06     1.58440E+06    -54.2780E-03     102.963E-03    -48.6850E-03     63.8745E-03    -54.4826E-03     102.778E-03    -48.5415E-03     63.3767E-03
            2087     8.57741E-03     20.8322E-03    -31.0126E+06    -99.0732E+06    -6.15332E+06     1.91594E+06    -53.1032E-03     101.374E-03    -48.2709E-03     58.3328E-03    -53.2439E-03     101.071E-03    -48.1131E-03     57.9355E-03
            2088     7.72287E-03     20.7743E-03    -34.3831E+06    -113.862E+06    -7.61580E+06     2.28021E+06    -51.9223E-03     99.8057E-03    -47.8834E-03     52.6422E-03    -52.0162E-03     99.3955E-03    -47.7065E-03     52.3308E-03
            2089     6.86732E-03     20.7224E-03    -38.2097E+06    -122.425E+06    -10.7960E+06     2.42735E+06    -50.7770E-03     98.2838E-03    -47.5068E-03     46.9962E-03    -50.8434E-03     97.8112E-03    -47.3278E-03     46.7554E-03
            2090     6.01101E-03     20.6761E-03    -42.2185E+06    -129.184E+06    -15.5302E+06     2.28608E+06    -49.7052E-03     96.8579E-03    -47.1527E-03     41.3640E-03    -49.7531E-03     96.3423E-03    -46.9818E-03     41.1792E-03
            2091     5.15388E-03     20.6359E-03    -46.3689E+06    -139.803E+06    -22.9933E+06     2.30218E+06    -48.7445E-03     95.5710E-03    -46.8265E-03     35.5994E-03    -48.7711E-03     95.0034E-03    -46.6715E-03     35.4623E-03
            2092     4.29611E-03     20.6017E-03    -50.4674E+06    -146.795E+06    -32.4218E+06     2.40293E+06    -47.8809E-03     94.4058E-03    -46.5248E-03     29.7932E-03    -47.8929E-03     93.8115E-03    -46.4009E-03     29.6971E-03
            2093     3.43763E-03     20.5736E-03    -54.1898E+06    -152.745E+06    -41.6753E+06     2.11102E+06    -47.1412E-03     93.4080E-03    -46.2668E-03     23.9446E-03    -47.1418E-03     92.7948E-03    -46.1751E-03     23.8778E-03
            2094     2.57866E-03     20.5515E-03    -57.5862E+06    -162.222E+06    -49.6852E+06     1.78023E+06    -46.5738E-03     92.6392E-03    -46.0653E-03     18.0765E-03    -46.5607E-03     91.9898E-03    -45.9950E-03     18.0330E-03
            2095     1.71940E-03     20.5356E-03    -60.4789E+06    -170.766E+06    -56.2338E+06     1.24003E+06    -46.1619E-03     92.0723E-03    -45.9104E-03     12.2137E-03    -46.1379E-03     91.3905E-03    -45.8563E-03     12.1869E-03
            2096     859.788E-06     20.5257E-03    -62.2488E+06    -173.823E+06    -61.2835E+06     539.214E+03    -45.8734E-03     91.6718E-03    -45.7984E-03     6.60246E-03    -45.8445E-03     90.9829E-03    -45.7626E-03     6.58697E-03
            2097     16.2309E-03     20.5482E-03    -4.46498E+06     119.125E+06     84.0780E+06     417.200E+03    -63.0849E-03     115.622E-03    -52.5376E-03     72.5279E-03    -64.1219E-03     116.823E-03    -52.2834E-03     71.6042E-03
            2098     15.3841E-03     20.4498E-03    -8.77405E+06     117.066E+06     79.2074E+06     1.22208E+06    -62.2754E-03     114.269E-03    -51.9934E-03     94.6281E-03    -63.6568E-03     115.805E-03    -51.7544E-03     93.4644E-03
            2099     14.5361E-03     20.3545E-03    -14.1154E+06     104.093E+06     61.5391E+06     1.12474E+06    -61.5336E-03     112.944E-03    -51.4107E-03     100.015E-03    -62.8711E-03     114.423E-03    -51.2335E-03     98.7981E-03
            2100     13.6879E-03     20.2462E-03    -18.3664E+06     89.4179E+06     31.7069E+06     1.05518E+06    -60.6595E-03     111.429E-03    -50.7691E-03     100.620E-03    -61.8567E-03     112.786E-03    -50.7136E-03     99.4119E-03
            2101     12.8394E-03     20.1488E-03    -20.1605E+06     48.6883E+06     8.15895E+06     1.90454E+06    -59.1285E-03     109.328E-03    -50.1993E-03     88.6341E-03    -59.9983E-03     110.275E-03    -50.1999E-03     87.5793E-03
            2102     11.9894E-03     20.0641E-03    -21.3905E+06    -5.18697E+06     2.99203E+06     2.55247E+06    -57.7163E-03     107.471E-03    -49.7545E-03     79.0520E-03    -58.3031E-03     107.955E-03    -49.7010E-03     78.1830E-03
            2103     11.1383E-03     19.9865E-03    -23.4372E+06    -40.6917E+06    -901.171E+03     2.43982E+06    -56.5078E-03     105.813E-03    -49.3048E-03     72.9025E-03    -56.9139E-03     105.994E-03    -49.2163E-03     72.1844E-03
            2104     10.2864E-03     19.9139E-03    -25.5734E+06    -66.3731E+06    -2.73940E+06     2.17475E+06    -55.3795E-03     104.241E-03    -48.8612E-03     67.8454E-03    -55.6635E-03     104.206E-03    -48.7416E-03     67.2518E-03
            2105     9.43352E-03     19.8464E-03    -28.0131E+06    -84.4195E+06    -4.27616E+06     2.26537E+06    -54.2181E-03     102.636E-03    -48.4180E-03     62.4861E-03    -54.4161E-03     102.447E-03    -48.2764E-03     62.0043E-03
            2106     8.57988E-03     19.7844E-03    -30.8918E+06    -99.3235E+06    -6.59754E+06     2.48099E+06    -52.9914E-03     100.973E-03    -47.9820E-03     56.8616E-03    -53.1258E-03     100.665E-03    -47.8262E-03     56.4788E-03
            2107     7.72513E-03     19.7282E-03    -33.8345E+06    -113.865E+06    -7.89787E+06     2.95329E+06    -51.7659E-03     99.3392E-03    -47.5733E-03     51.1880E-03    -51.8528E-03     98.9248E-03    -47.3986E-03     50.8922E-03
            2108     6.86957E-03     19.6777E-03    -37.2196E+06    -121.712E+06    -10.8605E+06     2.99180E+06    -50.5820E-03     97.7577E-03    -47.1757E-03     45.5593E-03    -50.6414E-03     97.2844E-03    -46.9995E-03     45.3322E-03
            2109     6.01304E-03     19.6330E-03    -41.1342E+06    -128.674E+06    -15.7404E+06     2.90734E+06    -49.4618E-03     96.2635E-03    -46.8017E-03     39.9664E-03    -49.5024E-03     95.7470E-03    -46.6342E-03     39.7953E-03
            2110     5.15572E-03     19.5939E-03    -45.5354E+06    -139.442E+06    -23.5002E+06     3.09122E+06    -48.4503E-03     94.9085E-03    -46.4582E-03     34.3024E-03    -48.4709E-03     94.3406E-03    -46.3075E-03     34.1804E-03
            2111     4.29762E-03     19.5609E-03    -49.8741E+06    -145.871E+06    -32.4123E+06     3.01287E+06    -47.5545E-03     93.6989E-03    -46.1444E-03     28.6434E-03    -47.5638E-03     93.1073E-03    -46.0226E-03     28.5591E-03
            2112     3.43894E-03     19.5337E-03    -53.8342E+06    -151.518E+06    -41.0562E+06     2.71759E+06    -46.8006E-03     92.6750E-03    -45.8744E-03     22.9721E-03    -46.8014E-03     92.0659E-03    -45.7819E-03     22.9161E-03
            2113     2.57973E-03     19.5125E-03    -57.1463E+06    -160.752E+06    -48.7843E+06     2.17056E+06    -46.1991E-03     91.8578E-03    -45.6587E-03     17.3221E-03    -46.1868E-03     91.2134E-03    -45.5866E-03     17.2859E-03
            2114     1.72007E-03     19.4970E-03    -59.6608E+06    -169.084E+06    -55.2242E+06     1.48996E+06    -45.7388E-03     91.2367E-03    -45.4979E-03     11.7077E-03    -45.7145E-03     90.5605E-03    -45.4424E-03     11.6856E-03
            2115     860.102E-06     19.4878E-03    -61.3044E+06    -172.281E+06    -60.3579E+06     904.752E+03    -45.4354E-03     90.8480E-03    -45.4125E-03     6.30873E-03    -45.4053E-03     90.1640E-03    -45.3756E-03     6.29857E-03
            2116     16.2277E-03     19.4821E-03    -4.66483E+06     118.512E+06     83.5308E+06     311.392E+03    -63.7779E-03     116.297E-03    -52.5191E-03     71.4000E-03    -64.7965E-03     117.478E-03    -52.2666E-03     70.4578E-03
            2117     15.3836E-03     19.3879E-03    -9.20602E+06     116.294E+06     78.9644E+06     936.454E+03    -63.0303E-03     114.964E-03    -51.9341E-03     93.2616E-03    -64.3892E-03     116.475E-03    -51.6946E-03     92.0751E-03
            2118     14.5373E-03     19.2946E-03    -13.4448E+06     104.234E+06     62.3773E+06     1.62674E+06    -62.0937E-03     113.403E-03    -51.3092E-03     98.4715E-03    -63.4071E-03     114.858E-03    -51.1289E-03     97.2525E-03
            2119     13.6903E-03     19.1871E-03    -17.1806E+06     89.4041E+06     31.4695E+06     1.61625E+06    -60.8692E-03     111.496E-03    -50.6273E-03     98.6411E-03    -62.0369E-03     112.829E-03    -50.5746E-03     97.4458E-03
            2120     12.8414E-03     19.0930E-03    -20.4990E+06     47.8603E+06     6.37816E+06     1.78528E+06    -59.1217E-03     109.155E-03    -50.0331E-03     87.1015E-03    -59.9724E-03     110.084E-03    -50.0409E-03     86.0560E-03
            2121     11.9913E-03     19.0097E-03    -22.6934E+06    -5.16265E+06     1.66341E+06     2.41612E+06    -57.7521E-03     107.327E-03    -49.5744E-03     77.6504E-03    -58.3319E-03     107.803E-03    -49.5257E-03     76.7881E-03
            2122     11.1405E-03     18.9340E-03    -24.1165E+06    -39.8177E+06    -1.52407E+06     2.43624E+06    -56.5961E-03     105.700E-03    -49.1039E-03     71.4612E-03    -56.9975E-03     105.879E-03    -49.0188E-03     70.7490E-03
            2123     10.2886E-03     18.8631E-03    -26.0013E+06    -66.3763E+06    -3.58285E+06     2.51820E+06    -55.4723E-03     104.104E-03    -48.6320E-03     66.2927E-03    -55.7499E-03     104.064E-03    -48.5160E-03     65.7099E-03
            2124     9.43601E-03     18.7971E-03    -28.3965E+06    -84.3859E+06    -5.12610E+06     2.99627E+06    -54.2419E-03     102.400E-03    -48.1583E-03     60.7513E-03    -54.4339E-03     102.207E-03    -48.0204E-03     60.2866E-03
            2125     8.58221E-03     18.7370E-03    -31.2528E+06    -99.0818E+06    -7.35546E+06     3.19744E+06    -52.9611E-03     100.653E-03    -47.6921E-03     55.0247E-03    -53.0909E-03     100.342E-03    -47.5399E-03     54.6590E-03
            2126     7.72755E-03     18.6824E-03    -34.2351E+06    -113.536E+06    -9.12460E+06     3.00218E+06    -51.6898E-03     98.9394E-03    -47.2496E-03     49.3035E-03    -51.7729E-03     98.5244E-03    -47.0810E-03     49.0159E-03
            2127     6.87183E-03     18.6336E-03    -37.0603E+06    -121.382E+06    -12.3543E+06     3.19192E+06    -50.4459E-03     97.2639E-03    -46.8179E-03     43.6876E-03    -50.4991E-03     96.7905E-03    -46.6500E-03     43.4703E-03
            2128     6.01525E-03     18.5902E-03    -40.7942E+06    -128.619E+06    -16.8284E+06     3.91910E+06    -49.2672E-03     95.6818E-03    -46.4146E-03     38.1177E-03    -49.3019E-03     95.1639E-03    -46.2531E-03     37.9660E-03
            2129     5.15774E-03     18.5527E-03    -45.2032E+06    -138.497E+06    -23.6344E+06     4.14533E+06    -48.1825E-03     94.2267E-03    -46.0443E-03     32.5446E-03    -48.2006E-03     93.6613E-03    -45.8961E-03     32.4418E-03
            2130     4.29944E-03     18.5208E-03    -49.4216E+06    -144.553E+06    -31.9933E+06     3.73648E+06    -47.2175E-03     92.9230E-03    -45.7055E-03     27.0492E-03    -47.2257E-03     92.3354E-03    -45.5842E-03     26.9790E-03
            2131     3.44043E-03     18.4946E-03    -53.0381E+06    -149.896E+06    -40.3340E+06     3.09293E+06    -46.4023E-03     91.8161E-03    -45.4138E-03     21.6294E-03    -46.4017E-03     91.2120E-03    -45.3212E-03     21.5821E-03
            2132     2.58088E-03     18.4741E-03    -56.0591E+06    -158.971E+06    -48.0113E+06     2.33640E+06    -45.7419E-03     90.9255E-03    -45.1835E-03     16.2496E-03    -45.7274E-03     90.2868E-03    -45.1118E-03     16.2184E-03
            2133     1.72082E-03     18.4596E-03    -58.6712E+06    -167.252E+06    -54.3326E+06     1.63295E+06    -45.2557E-03     90.2748E-03    -45.0191E-03     10.9595E-03    -45.2301E-03     89.6048E-03    -44.9632E-03     10.9411E-03
            2134     860.464E-06     18.4504E-03    -60.5543E+06    -170.407E+06    -59.0769E+06     848.846E+03    -44.9968E-03     89.8899E-03    -44.8931E-03     5.90537E-03    -44.9674E-03     89.2122E-03    -44.8536E-03     5.89544E-03
            2135     16.2309E-03     18.4170E-03    -4.45929E+06     118.252E+06     83.5484E+06     492.118E+03    -64.4102E-03     116.928E-03    -52.5175E-03     69.2018E-03    -65.4020E-03     118.081E-03    -52.2647E-03     68.2507E-03
            2136     15.3847E-03     18.3253E-03    -9.30399E+06     115.825E+06     78.8020E+06     559.795E+03    -63.6958E-03     115.588E-03    -51.8919E-03     90.8867E-03    -65.0252E-03     117.067E-03    -51.6524E-03     89.6801E-03
            2137     14.5393E-03     18.2324E-03    -14.1060E+06     103.370E+06     61.7139E+06     1.04790E+06    -62.5574E-03     113.783E-03    -51.2257E-03     96.6116E-03    -63.8478E-03     115.212E-03    -51.0466E-03     95.3794E-03
            2138     13.6918E-03     18.1295E-03    -17.5084E+06     88.7157E+06     31.0294E+06     2.27100E+06    -60.9894E-03     111.506E-03    -50.5166E-03     96.8150E-03    -62.1334E-03     112.813E-03    -50.4647E-03     95.6353E-03
            2139     12.8427E-03     18.0365E-03    -20.1929E+06     48.2176E+06     6.15372E+06     2.84770E+06    -59.2536E-03     109.155E-03    -49.9009E-03     85.3761E-03    -60.0849E-03     110.068E-03    -49.9108E-03     84.3521E-03
            2140     11.9933E-03     17.9556E-03    -22.1595E+06    -4.54846E+06     1.25950E+06     2.21134E+06    -57.9517E-03     107.367E-03    -49.4155E-03     75.9646E-03    -58.5163E-03     107.833E-03    -49.3704E-03     75.1050E-03
            2141     11.1423E-03     17.8815E-03    -24.0442E+06    -39.9865E+06    -2.24571E+06     2.50279E+06    -56.8753E-03     105.786E-03    -48.9105E-03     69.7119E-03    -57.2647E-03     105.954E-03    -48.8289E-03     69.0053E-03
            2142     10.2910E-03     17.8121E-03    -26.1225E+06    -66.2034E+06    -4.20934E+06     3.00503E+06    -55.7457E-03     104.141E-03    -48.3951E-03     64.2008E-03    -56.0138E-03     104.093E-03    -48.2823E-03     63.6300E-03
            2143     9.43837E-03     17.7483E-03    -28.2721E+06    -84.8713E+06    -6.01063E+06     3.37053E+06    -54.4468E-03     102.319E-03    -47.8720E-03     58.3803E-03    -54.6276E-03     102.115E-03    -47.7380E-03     57.9280E-03
            2144     8.58490E-03     17.6897E-03    -30.4290E+06    -98.4670E+06    -8.01959E+06     3.78110E+06    -53.0956E-03     100.448E-03    -47.3526E-03     52.4431E-03    -53.2138E-03     100.132E-03    -47.2058E-03     52.0933E-03
            2145     7.73031E-03     17.6371E-03    -33.3559E+06    -112.676E+06    -9.60407E+06     3.63280E+06    -51.7342E-03     98.5906E-03    -46.8565E-03     46.5688E-03    -51.8072E-03     98.1732E-03    -46.6927E-03     46.2982E-03
            2146     6.87469E-03     17.5899E-03    -37.3542E+06    -121.754E+06    -13.3587E+06     3.95451E+06    -50.3754E-03     96.7465E-03    -46.3711E-03     40.9207E-03    -50.4231E-03     96.2682E-03    -46.2072E-03     40.7219E-03
            2147     6.01799E-03     17.5482E-03    -41.1520E+06    -128.339E+06    -17.3864E+06     4.45596E+06    -49.0783E-03     94.9946E-03    -45.9163E-03     35.4179E-03    -49.1106E-03     94.4757E-03    -45.7575E-03     35.2814E-03
            2148     5.16039E-03     17.5121E-03    -44.5049E+06    -137.501E+06    -23.4742E+06     4.64675E+06    -47.8925E-03     93.3889E-03    -45.4964E-03     30.0286E-03    -47.9060E-03     92.8244E-03    -45.3499E-03     29.9397E-03
            2149     4.30186E-03     17.4816E-03    -48.0747E+06    -142.676E+06    -31.4726E+06     4.35155E+06    -46.8135E-03     91.9241E-03    -45.1106E-03     24.8111E-03    -46.8165E-03     91.3412E-03    -44.9914E-03     24.7553E-03
            2150     3.44253E-03     17.4565E-03    -51.7277E+06    -147.908E+06    -39.6796E+06     3.48074E+06    -45.8772E-03     90.6592E-03    -44.7820E-03     19.7103E-03    -45.8726E-03     90.0610E-03    -44.6909E-03     19.6735E-03
            2151     2.58246E-03     17.4370E-03    -54.9527E+06    -157.038E+06    -47.3831E+06     2.71571E+06    -45.1393E-03     89.6646E-03    -44.5253E-03     14.7076E-03    -45.1223E-03     89.0324E-03    -44.4548E-03     14.6855E-03
            2152     1.72195E-03     17.4230E-03    -57.5800E+06    -165.193E+06    -53.5774E+06     1.89840E+06    -44.6134E-03     88.9533E-03    -44.3399E-03     9.90314E-03    -44.5861E-03     88.2905E-03    -44.2848E-03     9.89102E-03
            2153     861.075E-06     17.4144E-03    -59.4132E+06    -168.282E+06     -58.483E+06     885.221E+03    -44.2986E-03     88.5102E-03    -44.2116E-03     5.39184E-03    -44.2674E-03     87.8406E-03    -44.1738E-03     5.38388E-03
            2154     16.2278E-03     17.3509E-03    -4.74650E+06     117.495E+06     83.0038E+06     523.447E+03    -64.9454E-03     117.466E-03    -52.5202E-03     68.0785E-03    -65.9184E-03     118.598E-03    -52.2687E-03     67.1147E-03
            2155     15.3854E-03     17.2608E-03    -9.96188E+06     114.664E+06     78.1078E+06     463.693E+03    -64.2790E-03     116.141E-03    -51.8625E-03     89.2090E-03    -65.5804E-03     117.588E-03    -51.6237E-03     87.9883E-03
            2156     14.5393E-03     17.1718E-03    -14.1789E+06     102.574E+06     61.3069E+06     1.41095E+06    -62.8082E-03     113.975E-03    -51.1665E-03     94.2602E-03    -64.0629E-03     115.366E-03    -50.9882E-03     93.0377E-03
            2157     13.6924E-03     17.0702E-03    -18.3979E+06     87.6630E+06     30.8460E+06     2.17429E+06    -61.2532E-03     111.688E-03    -50.4349E-03     94.5087E-03    -62.3709E-03     112.962E-03    -50.3811E-03     93.3329E-03
            2158     12.8447E-03     16.9805E-03    -20.1067E+06     48.7714E+06     6.50061E+06     2.53250E+06    -59.6743E-03     109.458E-03    -49.7841E-03     83.3434E-03    -60.4873E-03     110.354E-03    -49.7932E-03     82.3159E-03
            2159     11.9947E-03     16.9011E-03    -21.8448E+06    -4.19112E+06     468.154E+03     2.90030E+06    -58.5126E-03     107.757E-03    -49.2444E-03     73.8105E-03    -59.0595E-03     108.210E-03    -49.2043E-03     72.9600E-03
            2160     11.1448E-03     16.8286E-03    -24.1054E+06    -40.1087E+06    -2.89363E+06     2.99360E+06    -57.4674E-03     106.146E-03    -48.6784E-03     66.9997E-03    -57.8420E-03     106.301E-03    -48.5998E-03     66.3013E-03
            2161     10.2936E-03     16.7611E-03    -26.0279E+06    -66.2879E+06    -4.72372E+06     3.22626E+06    -56.2841E-03     104.374E-03    -48.0898E-03     61.0165E-03    -56.5377E-03     104.314E-03    -47.9796E-03     60.4540E-03
            2162     9.44182E-03     16.6991E-03    -27.8616E+06    -84.7228E+06    -6.17413E+06     3.46832E+06    -54.9433E-03     102.427E-03    -47.4841E-03     54.7156E-03    -55.1101E-03     102.213E-03    -47.3518E-03     54.2722E-03
            2163     8.58868E-03     16.6427E-03    -29.7687E+06    -98.3200E+06    -8.40519E+06     3.63514E+06    -53.4499E-03     100.322E-03    -46.8721E-03     48.4720E-03    -53.5538E-03     99.9956E-03    -46.7284E-03     48.1310E-03
            2164     7.73441E-03     16.5919E-03    -32.2858E+06    -112.911E+06    -9.07817E+06     4.84398E+06    -51.9065E-03     98.1939E-03    -46.2875E-03     42.3769E-03    -51.9657E-03     97.7641E-03    -46.1223E-03     42.1340E-03
            2165     6.87895E-03     16.5468E-03    -35.8807E+06    -121.039E+06    -12.0380E+06     5.38741E+06    -50.3309E-03     96.0447E-03    -45.7137E-03     36.7156E-03    -50.3672E-03     95.5588E-03    -45.5464E-03     36.5479E-03
            2166     6.02228E-03     16.5069E-03    -39.7532E+06    -127.393E+06    -17.3419E+06     4.92597E+06    -48.8057E-03     93.9754E-03    -45.1697E-03     31.4428E-03    -48.8270E-03     93.4538E-03    -45.0141E-03     31.3247E-03
            2167     5.16439E-03     16.4725E-03    -43.5209E+06    -136.598E+06    -23.7735E+06     4.83310E+06    -47.4183E-03     92.0952E-03    -44.6770E-03     26.4113E-03    -47.4240E-03     91.5305E-03    -44.5347E-03     26.3359E-03
            2168     4.30548E-03     16.4435E-03    -46.9946E+06    -140.845E+06    -30.9934E+06     4.66751E+06    -46.1693E-03     90.4024E-03    -44.2331E-03     21.6781E-03    -46.1678E-03     89.8239E-03    -44.1157E-03     21.6358E-03
            2169     3.44560E-03     16.4198E-03    -50.2659E+06    -145.821E+06    -39.3094E+06     4.24137E+06    -45.1071E-03     88.9600E-03    -43.8529E-03     17.1330E-03    -45.0973E-03     88.3681E-03    -43.7651E-03     17.1134E-03
            2170     2.58496E-03     16.4014E-03    -53.4133E+06    -154.741E+06    -47.0394E+06     3.49952E+06    -44.2770E-03     87.8301E-03    -43.5531E-03     12.7416E-03    -44.2553E-03     87.2058E-03    -43.4865E-03     12.7353E-03
            2171     1.72363E-03     16.3882E-03    -56.1344E+06    -162.651E+06    -52.9385E+06     2.55805E+06    -43.6808E-03     87.0094E-03    -43.3286E-03     8.52066E-03    -43.6506E-03     86.3559E-03    -43.2760E-03     8.52090E-03
            2172     861.913E-06     16.3800E-03    -58.1675E+06    -165.609E+06    -57.4661E+06     1.51714E+06    -43.2571E-03     86.4490E-03    -43.1919E-03     4.56126E-03    -43.2249E-03     85.7894E-03    -43.1547E-03     4.56364E-03
            2173     16.2301E-03     16.2846E-03    -3.71627E+06     117.938E+06     84.3119E+06     1.22920E+06    -65.7464E-03     118.268E-03    -52.5220E-03     65.6334E-03    -66.6873E-03     119.370E-03    -52.2661E-03     64.6690E-03
            2174     15.3849E-03     16.1956E-03    -9.37884E+06     114.508E+06     77.7133E+06     1.31624E+06    -64.6094E-03     116.430E-03    -51.8209E-03     85.4746E-03    -65.8611E-03     117.830E-03    -51.5848E-03     84.2609E-03
            2175     14.5408E-03     16.1103E-03    -14.5275E+06     101.372E+06     60.7120E+06     1.23856E+06    -62.9633E-03     114.067E-03    -51.1032E-03     90.9385E-03    -64.1748E-03     115.410E-03    -50.9256E-03     89.7202E-03
            2176     13.6941E-03     16.0112E-03    -17.8583E+06     87.3799E+06     31.2928E+06     2.00142E+06    -61.7501E-03     112.093E-03    -50.3430E-03     92.0209E-03    -62.8339E-03     113.333E-03    -50.2874E-03     90.8416E-03
            2177     12.8454E-03     15.9237E-03    -21.2419E+06     48.3023E+06     4.88446E+06     2.76495E+06    -60.6929E-03     110.314E-03    -49.6207E-03     80.2092E-03    -61.4832E-03     111.186E-03    -49.6355E-03     79.1736E-03
            2178     11.9977E-03     15.8456E-03    -23.3813E+06    -3.95028E+06     -679.32E+03     3.12298E+06    -59.6289E-03     108.616E-03    -48.9867E-03     69.9930E-03    -60.1589E-03     109.051E-03    -48.9504E-03     69.1397E-03
            2179     11.1483E-03     15.7754E-03    -24.7889E+06    -39.9217E+06    -3.52258E+06     3.16634E+06    -58.4907E-03     106.801E-03    -48.3101E-03     62.5278E-03    -58.8463E-03     106.937E-03    -48.2339E-03     61.8335E-03
            2180     10.2983E-03     15.7097E-03    -26.4118E+06    -66.3404E+06    -5.30244E+06     3.35103E+06    -57.2246E-03     104.822E-03    -47.5972E-03     55.8976E-03    -57.4590E-03     104.742E-03    -47.4892E-03     55.3449E-03
            2181     9.44716E-03     15.6498E-03    -28.3428E+06    -84.1252E+06    -6.38615E+06     3.46333E+06    -55.6916E-03     102.549E-03    -46.8572E-03     49.0337E-03    -55.8432E-03     102.320E-03    -46.7261E-03     48.6039E-03
            2182     8.59491E-03     15.5957E-03    -30.9023E+06    -98.7771E+06    -9.01682E+06     4.06743E+06    -53.9336E-03     100.040E-03    -46.1060E-03     42.5090E-03    -54.0265E-03     99.6985E-03    -45.9630E-03     42.1903E-03
            2183     7.74117E-03     15.5473E-03    -33.5407E+06    -113.501E+06    -10.5298E+06     4.88724E+06    -52.0328E-03     97.4155E-03    -45.3827E-03     36.4816E-03    -52.0833E-03     96.9747E-03    -45.2221E-03     36.2580E-03
            2184     6.88590E-03     15.5045E-03    -35.5312E+06    -120.057E+06    -12.4328E+06     5.43681E+06    -50.1067E-03     94.7945E-03    -44.6879E-03     31.1137E-03    -50.1331E-03     94.3048E-03    -44.5244E-03     30.9648E-03
            2185     6.02900E-03     15.4670E-03    -38.3443E+06    -126.404E+06    -17.7384E+06     5.87653E+06    -48.2727E-03     92.3092E-03    -44.0365E-03     26.3293E-03    -48.2816E-03     91.7848E-03    -43.8863E-03     26.2399E-03
            2186     5.17069E-03     15.4347E-03    -42.1704E+06    -135.037E+06    -24.1022E+06     5.68993E+06    -46.5980E-03     90.0540E-03    -43.4560E-03     21.8995E-03    -46.5944E-03     89.4913E-03    -43.3196E-03     21.8493E-03
            2187     4.31099E-03     15.4075E-03    -46.0023E+06    -139.115E+06    -30.9544E+06     5.09880E+06    -45.1256E-03     88.0727E-03    -42.9470E-03     17.8615E-03    -45.1190E-03     87.4985E-03    -42.8334E-03     17.8363E-03
            2188     3.45018E-03     15.3853E-03    -49.2253E+06    -144.000E+06    -39.5465E+06     4.83042E+06    -43.9273E-03     86.4406E-03    -42.5133E-03     14.0489E-03    -43.9130E-03     85.8549E-03    -42.4308E-03     14.0457E-03
            2189     2.58843E-03     15.3681E-03    -51.9249E+06    -152.149E+06    -46.6380E+06     4.56111E+06    -43.0093E-03     85.1798E-03    -42.1705E-03     10.4132E-03    -42.9837E-03     84.5648E-03    -42.1078E-03     10.4270E-03
            2190     1.72611E-03     15.3557E-03    -54.3769E+06    -159.304E+06    -51.5081E+06     3.54648E+06    -42.3322E-03     84.2411E-03    -41.9089E-03     6.93369E-03    -42.2998E-03     83.5993E-03    -41.8566E-03     6.95097E-03
            2191     863.292E-06     15.3482E-03    -56.1026E+06    -161.755E+06    -55.2259E+06     1.97952E+06    -41.8684E-03     83.5722E-03    -41.7038E-03     3.61266E-03    -41.8346E-03     82.9253E-03    -41.6640E-03     3.62359E-03
            2192     16.2292E-03     15.2165E-03    -4.34490E+06     116.330E+06     83.1200E+06     736.238E+03    -66.6362E-03     119.147E-03    -52.5109E-03     64.0584E-03    -67.5479E-03     120.215E-03    -52.2576E-03     63.0739E-03
            2193     15.3878E-03     15.1310E-03    -7.74654E+06     115.137E+06     79.6567E+06     2.97842E+06    -65.0119E-03     116.792E-03    -51.7805E-03     82.9224E-03    -66.2101E-03     118.141E-03    -51.5379E-03     81.7364E-03
            2194     14.5415E-03     15.0490E-03    -14.4677E+06     102.496E+06     59.9894E+06     2.79264E+06    -63.6802E-03     114.691E-03    -51.0109E-03     88.3546E-03    -64.8523E-03     116.002E-03    -50.8386E-03     87.1487E-03
            2195     13.6947E-03     14.9518E-03    -20.1472E+06     86.6020E+06     28.4945E+06     2.02485E+06    -63.3212E-03     113.483E-03    -50.1621E-03     88.4408E-03    -64.3750E-03     114.691E-03    -50.1160E-03     87.2342E-03
            2196     12.8497E-03     14.8646E-03    -22.0152E+06     47.8754E+06     4.45618E+06     2.76590E+06    -62.4077E-03     111.726E-03    -49.3179E-03     75.2230E-03    -63.1634E-03     112.560E-03    -49.3331E-03     74.1685E-03
            2197     12.0026E-03     14.7898E-03    -23.1358E+06    -3.29945E+06    -1.07852E+06     3.01633E+06    -61.2896E-03     109.816E-03    -48.5265E-03     64.3481E-03    -61.7857E-03     110.222E-03    -48.4936E-03     63.4858E-03
            2198     11.1551E-03     14.7208E-03    -24.5936E+06    -39.7737E+06    -3.82839E+06     3.04806E+06    -60.0713E-03     107.749E-03    -47.6776E-03     56.1748E-03    -60.3959E-03     107.856E-03    -47.6034E-03     55.4817E-03
            2199     10.3065E-03     14.6579E-03    -26.0285E+06    -65.9591E+06    -5.40829E+06     3.36524E+06    -58.4931E-03     105.271E-03    -46.7781E-03     48.7975E-03    -58.6995E-03     105.167E-03    -46.6717E-03     48.2577E-03
            2200     9.45672E-03     14.6004E-03    -28.0222E+06    -84.2044E+06    -6.66001E+06     3.93986E+06    -56.5061E-03     102.358E-03    -45.8519E-03     41.6457E-03    -56.6335E-03     102.107E-03    -45.7225E-03     41.2422E-03
            2201     8.60516E-03     14.5493E-03    -30.3657E+06    -99.0781E+06     -9.2468E+06     4.76069E+06    -54.2583E-03     99.1843E-03    -44.9260E-03     35.1401E-03    -54.3307E-03     98.8243E-03    -44.7845E-03     34.8532E-03
            2202     7.75165E-03     14.5038E-03    -32.7525E+06    -112.623E+06    -11.2305E+06     4.78746E+06    -51.8769E-03     95.9178E-03    -44.0409E-03     29.5107E-03    -51.9111E-03     95.4687E-03    -43.8863E-03     29.3089E-03
            2203     6.89609E-03     14.4641E-03    -35.5095E+06    -120.141E+06    -13.7455E+06     4.93380E+06    -49.5297E-03     92.7379E-03    -43.2083E-03     24.6969E-03    -49.5450E-03     92.2406E-03    -43.0513E-03     24.5630E-03
            2204     6.03865E-03     14.4292E-03    -38.2088E+06    -126.250E+06    -18.0434E+06     6.12416E+06    -47.3311E-03     89.7756E-03    -42.4444E-03     20.5270E-03    -47.3330E-03     89.2460E-03    -42.2962E-03     20.4591E-03
            2205     5.17939E-03     14.3994E-03    -41.1214E+06    -132.971E+06    -24.0658E+06     6.59598E+06    -45.3468E-03     87.1128E-03    -41.7660E-03     16.8248E-03    -45.3370E-03     86.5547E-03    -41.6339E-03     16.8018E-03
            2206     4.31856E-03     14.3743E-03    -44.2789E+06    -136.794E+06    -31.0087E+06     5.79532E+06    -43.6477E-03     84.8274E-03    -41.1797E-03     13.5784E-03    -43.6331E-03     84.2598E-03    -41.0722E-03     13.5746E-03
            2207     3.45642E-03     14.3538E-03    -47.2126E+06    -142.469E+06    -37.8567E+06     5.29875E+06    -42.2768E-03     82.9742E-03    -40.6974E-03     10.5855E-03    -42.2556E-03     82.3892E-03    -40.6116E-03     10.5979E-03
            2208     2.59329E-03     14.3379E-03    -49.8212E+06    -149.585E+06    -43.5190E+06     5.26724E+06    -41.2177E-03     81.5388E-03    -40.3211E-03     7.79415E-03    -41.1891E-03     80.9282E-03    -40.2496E-03     7.82394E-03
            2209     1.72930E-03     14.3265E-03    -51.9218E+06    -154.748E+06    -48.6208E+06     4.09471E+06    -40.4451E-03     80.4881E-03    -40.0430E-03     5.18000E-03    -40.4109E-03     79.8609E-03    -39.9865E-03     5.20894E-03
            2210     864.751E-06     14.3198E-03    -53.4359E+06    -157.338E+06    -52.5809E+06     2.25373E+06    -40.0127E-03     79.8396E-03    -39.8269E-03     2.67849E-03    -39.9758E-03     79.2070E-03    -39.7842E-03     2.69548E-03
            2211     16.2294E-03     14.1459E-03    -4.66018E+06     114.787E+06     81.7946E+06     622.382E+03    -67.3609E-03     119.875E-03    -52.5137E-03     61.2579E-03    -68.2320E-03     120.900E-03    -52.2644E-03     60.2672E-03
            2212     15.3859E-03     14.0665E-03    -9.57705E+06     112.561E+06     78.3750E+06     1.87061E+06    -66.1799E-03     117.910E-03    -51.7300E-03     79.4018E-03    -67.3376E-03     119.206E-03    -51.4875E-03     78.1730E-03
            2213     14.5426E-03     13.9861E-03    -13.0087E+06     102.945E+06     62.7799E+06     3.89498E+06    -66.1566E-03     117.010E-03    -50.8536E-03     84.4074E-03    -67.2907E-03     118.282E-03    -50.6702E-03     83.1530E-03
            2214     13.7006E-03     13.8889E-03    -16.7692E+06     88.0720E+06     31.0408E+06     3.99888E+06    -65.7961E-03     115.621E-03    -49.8246E-03     83.0307E-03    -66.7925E-03     116.780E-03    -49.7728E-03     81.8031E-03
            2215     12.8559E-03     13.8054E-03    -20.5806E+06     48.2307E+06     3.94630E+06     2.89412E+06    -64.6951E-03     113.471E-03    -48.7764E-03     69.3282E-03    -65.3994E-03     114.263E-03    -48.7967E-03     68.2500E-03
            2216     12.0115E-03     13.7316E-03    -22.2656E+06    -2.59339E+06    -1.35783E+06     2.79528E+06    -63.5909E-03     111.362E-03    -47.7711E-03     57.4623E-03    -64.0449E-03     111.732E-03    -47.7419E-03     56.5851E-03
            2217     11.1661E-03     13.6657E-03    -23.1433E+06    -39.3682E+06    -3.59592E+06     2.87613E+06    -61.9609E-03     108.651E-03    -46.6905E-03     48.5095E-03    -62.2462E-03     108.726E-03    -46.6179E-03     47.8184E-03
            2218     10.3193E-03     13.6053E-03    -24.6433E+06    -66.1388E+06    -5.35672E+06     3.53165E+06    -59.7525E-03     105.314E-03    -45.5619E-03     40.7938E-03    -59.9246E-03     105.180E-03    -45.4570E-03     40.2732E-03
            2219     9.47049E-03     13.5516E-03    -26.6103E+06    -84.4094E+06    -6.47532E+06     4.47161E+06    -57.0973E-03     101.523E-03    -44.4256E-03     33.7140E-03    -57.1968E-03     101.248E-03    -44.2970E-03     33.3410E-03
            2220     8.61927E-03     13.5040E-03    -28.5205E+06    -98.7816E+06    -8.71525E+06     4.84675E+06    -54.2354E-03     97.5489E-03    -43.3135E-03     27.5166E-03    -54.2843E-03     97.1715E-03    -43.1725E-03     27.2563E-03
            2221     7.76564E-03     13.4625E-03    -30.7797E+06    -111.715E+06    -10.1198E+06     5.26176E+06    -51.3579E-03     93.6243E-03    -42.2664E-03     22.3406E-03    -51.3741E-03     93.1642E-03    -42.1104E-03     22.1689E-03
            2222     6.90961E-03     13.4261E-03    -33.6793E+06    -119.663E+06    -12.8555E+06     5.44258E+06    -48.5804E-03     89.8700E-03    -41.2896E-03     18.1457E-03    -48.5808E-03     89.3635E-03    -41.1316E-03     18.0398E-03
            2223     6.05125E-03     13.3945E-03    -36.6837E+06    -126.640E+06    -16.9222E+06     5.92974E+06    -45.9983E-03     86.4036E-03    -40.4053E-03     14.6475E-03    -45.9884E-03     85.8629E-03    -40.2531E-03     14.5953E-03
            2224     5.19077E-03     13.3676E-03    -39.1743E+06    -131.203E+06    -22.0629E+06     6.51738E+06    -43.7013E-03     83.3256E-03    -39.6243E-03     11.7343E-03    -43.6839E-03     82.7672E-03    -39.4876E-03     11.7252E-03
            2225     4.32845E-03     13.3449E-03    -41.5565E+06    -134.148E+06    -28.1806E+06     6.06850E+06    -41.7572E-03     80.7121E-03    -38.9549E-03     9.30779E-03    -41.7349E-03     80.1475E-03    -38.8410E-03     9.31936E-03
            2226     3.46459E-03     13.3264E-03    -44.3072E+06    -141.108E+06    -34.0624E+06     5.83875E+06    -40.1720E-03     78.5861E-03    -38.4141E-03     7.16112E-03    -40.1426E-03     77.9969E-03    -38.3156E-03     7.18954E-03
            2227     2.59946E-03     13.3121E-03    -47.0536E+06    -146.452E+06    -39.9053E+06     5.52114E+06    -38.9456E-03     76.9405E-03    -37.9949E-03     5.21661E-03    -38.9123E-03     76.3355E-03    -37.9138E-03     5.25619E-03
            2228     1.73343E-03     13.3019E-03    -49.2217E+06    -150.002E+06    -45.6772E+06     4.19683E+06    -38.0921E-03     75.7900E-03    -37.6978E-03     3.39893E-03    -38.0554E-03     75.1779E-03    -37.6373E-03     3.43351E-03
            2229     866.832E-06     13.2956E-03    -50.4990E+06    -152.509E+06    -49.7178E+06     2.41508E+06    -37.6631E-03     75.1436E-03    -37.4805E-03     1.71049E-03    -37.6227E-03     74.5265E-03    -37.4347E-03     1.73185E-03
            2230     16.2302E-03     13.0783E-03    -4.63464E+06     114.140E+06     81.6438E+06     1.21693E+06    -69.2880E-03     121.784E-03    -52.4959E-03     57.4038E-03    -70.1241E-03     122.772E-03    -52.2464E-03     56.3839E-03
            2231     15.3882E-03     13.0003E-03    -9.25716E+06     112.228E+06     78.4337E+06     1.14629E+06    -68.9296E-03     120.506E-03    -51.5761E-03     75.0612E-03    -70.0429E-03     121.757E-03    -51.3332E-03     73.7515E-03
            2232     14.5488E-03     12.9177E-03    -12.8032E+06     100.291E+06     63.7641E+06     1.65632E+06    -69.0758E-03     119.601E-03    -50.5248E-03     79.6008E-03    -70.1607E-03     120.811E-03    -50.3329E-03     78.2487E-03
            2233     13.7074E-03     12.8261E-03    -14.3676E+06     87.2624E+06     35.5937E+06     4.44705E+06    -68.8487E-03     118.140E-03    -49.2910E-03     77.6042E-03    -69.7892E-03     119.236E-03    -49.2187E-03     76.3263E-03
            2234     12.8663E-03     12.7426E-03    -16.8035E+06     51.2626E+06     8.06702E+06     5.16366E+06    -67.8541E-03     115.832E-03    -47.9783E-03     62.6661E-03    -68.5047E-03     116.583E-03    -47.9879E-03     61.5787E-03
            2235     12.0248E-03     12.6722E-03    -19.5592E+06    -827.645E+03    -176.620E+03     3.16964E+06    -66.1460E-03     112.834E-03    -46.6880E-03     49.6883E-03    -66.5509E-03     113.168E-03    -46.6593E-03     48.8056E-03
            2236     11.1815E-03     12.6093E-03    -21.6371E+06    -39.3396E+06    -3.14553E+06     3.04641E+06    -63.6855E-03     109.033E-03    -45.3471E-03     40.4161E-03    -63.9319E-03     109.072E-03    -45.2744E-03     39.7376E-03
            2237     10.3360E-03     12.5534E-03    -23.5343E+06    -66.4793E+06    -5.07331E+06     4.05716E+06    -60.6487E-03     104.633E-03    -43.9843E-03     32.7490E-03    -60.7905E-03     104.471E-03    -43.8791E-03     32.2572E-03
            2238     9.48780E-03     12.5040E-03    -25.4121E+06    -84.1359E+06    -5.64624E+06     4.59897E+06    -57.2649E-03     99.9101E-03    -42.6452E-03     26.0186E-03    -57.3419E-03     99.6151E-03    -42.5146E-03     25.6736E-03
            2239     8.63667E-03     12.4610E-03    -27.5070E+06    -98.3448E+06    -7.66305E+06     5.07541E+06    -53.8041E-03     95.1617E-03    -41.3575E-03     20.3881E-03    -53.8374E-03     94.7708E-03    -41.2134E-03     20.1568E-03
            2240     7.78258E-03     12.4237E-03    -29.9228E+06    -111.334E+06     -8.8329E+06     5.55926E+06    -50.4414E-03     90.6003E-03    -40.1589E-03     15.9073E-03    -50.4471E-03     90.1304E-03    -39.9982E-03     15.7627E-03
            2241     6.92566E-03     12.3915E-03    -32.4167E+06    -118.585E+06    -10.7567E+06     5.80214E+06    -47.2494E-03     86.3017E-03    -39.0523E-03     12.4631E-03    -47.2425E-03     85.7900E-03    -38.8871E-03     12.3812E-03
            2242     6.06604E-03     12.3637E-03    -35.0700E+06    -126.279E+06    -14.9391E+06     5.86225E+06    -44.3252E-03     82.3801E-03    -38.0549E-03     9.75878E-03    -44.3070E-03     81.8324E-03    -37.8957E-03     9.72126E-03
            2243     5.20401E-03     12.3401E-03    -37.6758E+06    -129.846E+06    -20.4635E+06     5.90447E+06    -41.7428E-03     78.9180E-03    -37.1752E-03     7.68435E-03    -41.7200E-03     78.3597E-03    -37.0346E-03     7.67930E-03
            2244     4.33985E-03     12.3202E-03    -40.3105E+06    -132.361E+06    -26.0458E+06     6.04307E+06    -39.5486E-03     75.9788E-03    -36.4302E-03     6.03141E-03    -39.5245E-03     75.4170E-03    -36.3101E-03     6.05173E-03
            2245     3.47394E-03     12.3040E-03    -43.1336E+06    -139.243E+06    -31.9949E+06     6.07990E+06    -37.7748E-03     73.6038E-03    -35.8289E-03     4.59450E-03    -37.7446E-03     73.0184E-03    -35.7244E-03     4.63265E-03
            2246     2.60662E-03     12.2914E-03    -45.4841E+06    -142.845E+06    -38.2900E+06     5.28413E+06    -36.4194E-03     71.7782E-03    -35.3588E-03     3.33517E-03    -36.3855E-03     71.1863E-03    -35.2772E-03     3.37632E-03
            2247     1.73830E-03     12.2823E-03    -47.0160E+06    -145.656E+06    -43.3691E+06     3.84997E+06    -35.4814E-03     70.5091E-03    -35.0276E-03     2.15288E-03    -35.4432E-03     69.9120E-03    -34.9651E-03     2.18590E-03
            2248     869.317E-06     12.2768E-03    -47.8606E+06    -147.562E+06    -46.8675E+06     2.27145E+06    -34.9658E-03     69.7713E-03    -34.8055E-03     1.18177E-03    -34.9235E-03     69.1709E-03    -34.7565E-03     1.20271E-03
            2249     16.2286E-03     12.0056E-03    -4.40497E+06     113.284E+06     81.2186E+06     967.666E+03    -72.3323E-03     124.750E-03    -52.4177E-03     54.6118E-03    -73.1443E-03     125.713E-03    -52.1695E-03     53.5163E-03
            2250     15.3943E-03     11.9279E-03    -8.75412E+06     111.912E+06     78.8993E+06     791.791E+03    -72.6135E-03     123.922E-03    -51.3082E-03     71.6984E-03    -73.6900E-03     125.136E-03    -51.0633E-03     70.2830E-03
            2251     14.5550E-03     11.8512E-03    -13.1704E+06     98.9926E+06     63.3999E+06     1.54055E+06    -72.6853E-03     122.707E-03    -50.0222E-03     75.6423E-03    -73.7266E-03     123.870E-03    -49.8296E-03     74.2031E-03
            2252     13.7176E-03     11.7573E-03    -17.8658E+06     84.0289E+06     35.0489E+06     2.56607E+06    -72.8511E-03     121.369E-03    -48.5180E-03     71.5267E-03    -73.7559E-03     122.408E-03    -48.4387E-03     70.1469E-03
            2253     12.8810E-03     11.6781E-03    -18.5684E+06     52.9134E+06     9.95991E+06     3.97845E+06    -71.1845E-03     118.085E-03    -46.9007E-03     54.9905E-03    -71.8029E-03     118.798E-03    -46.9007E-03     53.8508E-03
            2254     12.0417E-03     11.6109E-03    -18.9991E+06     2.07393E+06     834.535E+03     4.44597E+06    -68.2878E-03     113.605E-03    -45.3171E-03     41.9094E-03    -68.6577E-03     113.913E-03    -45.2884E-03     41.0453E-03
            2255     11.2003E-03     11.5532E-03    -21.2551E+06    -39.0683E+06    -2.41769E+06     4.00923E+06    -64.8448E-03     108.582E-03    -43.7370E-03     32.8277E-03    -65.0625E-03     108.593E-03    -43.6617E-03     32.1806E-03
            2256     10.3555E-03     11.5023E-03    -23.3474E+06    -66.1446E+06    -4.46176E+06     4.25640E+06    -60.9663E-03     103.136E-03    -42.1698E-03     25.6619E-03    -61.0882E-03     102.954E-03    -42.0624E-03     25.1997E-03
            2257     9.50742E-03     11.4584E-03    -25.0591E+06    -83.8550E+06    -4.89191E+06     4.71782E+06    -56.8739E-03     97.5370E-03    -40.6632E-03     19.6227E-03    -56.9367E-03     97.2280E-03    -40.5297E-03     19.3068E-03
            2258     8.65572E-03     11.4206E-03    -27.0950E+06    -98.1606E+06    -6.30363E+06     5.35292E+06    -52.8492E-03     92.0922E-03    -39.2430E-03     14.9001E-03    -52.8738E-03     91.6908E-03    -39.0929E-03     14.6971E-03
            2259     7.80067E-03     11.3884E-03    -29.4995E+06    -110.463E+06    -7.01647E+06     5.71493E+06    -49.0565E-03     86.9939E-03    -37.9374E-03     11.3471E-03    -49.0587E-03     86.5198E-03    -37.7695E-03     11.2246E-03
            2260     6.94240E-03     11.3608E-03    -32.2439E+06    -117.775E+06    -9.40674E+06     5.68208E+06    -45.5427E-03     82.2853E-03    -36.7426E-03     8.75657E-03    -45.5350E-03     81.7724E-03    -36.5721E-03     8.68859E-03
            2261     6.08118E-03     11.3373E-03    -34.9629E+06    -124.958E+06    -13.8304E+06     5.56693E+06    -42.3819E-03     78.0556E-03    -35.6737E-03     6.86209E-03    -42.3651E-03     77.5111E-03    -35.5109E-03     6.83224E-03
            2262     5.21732E-03     11.3173E-03    -37.6779E+06    -128.809E+06    -18.8863E+06     5.39814E+06    -39.6127E-03     74.3527E-03    -34.7400E-03     5.50925E-03    -39.5929E-03     73.7965E-03    -34.5930E-03     5.50598E-03
            2263     4.35118E-03     11.3005E-03    -40.4412E+06    -131.454E+06    -24.7390E+06     5.82143E+06    -37.2760E-03     71.2235E-03    -33.9475E-03     4.43983E-03    -37.2554E-03     70.6641E-03    -33.8220E-03     4.46302E-03
            2264     3.48313E-03     11.2868E-03    -42.8512E+06    -136.473E+06    -30.9490E+06     5.50406E+06    -35.3993E-03     68.7013E-03    -33.3020E-03     3.46691E-03    -35.3730E-03     68.1278E-03    -33.1967E-03     3.50145E-03
            2265     2.61364E-03     11.2761E-03    -44.5123E+06    -139.467E+06    -36.6324E+06     4.22184E+06    -33.9543E-03     66.7530E-03    -32.7988E-03     2.61037E-03    -33.9227E-03     66.1742E-03    -32.7152E-03     2.64025E-03
            2266     1.74302E-03     11.2683E-03    -45.5694E+06    -141.880E+06    -41.4517E+06     2.86919E+06    -32.9423E-03     65.3819E-03    -32.4396E-03     1.75272E-03    -32.9050E-03     64.7989E-03    -32.3751E-03     1.77452E-03
            2267     871.676E-06     11.2636E-03    -46.3738E+06    -143.671E+06    -44.9089E+06     1.57513E+06    -32.3651E-03     64.5686E-03    -32.2035E-03     997.714E-06    -32.3238E-03     63.9828E-03    -32.1525E-03     1.01027E-03
            2268     16.2339E-03     10.9276E-03    -3.18967E+06     113.724E+06     82.5412E+06     1.16443E+06    -76.0513E-03     128.315E-03    -52.2640E-03     51.6954E-03    -76.8308E-03     129.248E-03    -52.0115E-03     50.5297E-03
            2269     15.3971E-03     10.8549E-03    -8.11032E+06     111.509E+06     79.1165E+06     1.62131E+06    -76.5438E-03     127.472E-03    -50.9281E-03     67.1471E-03    -77.5757E-03     128.642E-03    -50.6825E-03     65.6355E-03
            2270     14.5647E-03     10.7772E-03    -13.8299E+06     97.5859E+06     63.7580E+06     1.77077E+06    -77.6732E-03     127.031E-03    -49.3573E-03     70.8862E-03    -78.6801E-03     128.150E-03    -49.1600E-03     69.3273E-03
            2271     13.7328E-03     10.6860E-03    -16.7605E+06     83.9914E+06     36.2184E+06     1.99766E+06    -76.9986E-03     124.519E-03    -47.5208E-03     64.9021E-03    -77.8521E-03     125.508E-03    -47.4372E-03     63.4432E-03
            2272     12.8982E-03     10.6108E-03    -19.3940E+06     52.2072E+06     8.80770E+06     2.32717E+06    -73.7069E-03     119.308E-03    -45.6011E-03     47.6564E-03    -74.2805E-03     119.974E-03    -45.6046E-03     46.4853E-03
            2273     12.0613E-03     10.5497E-03    -20.6558E+06     3.06553E+06     1.01091E+06     3.88062E+06    -69.6019E-03     113.390E-03    -43.7879E-03     35.0482E-03    -69.9485E-03     113.672E-03    -43.7574E-03     34.1949E-03
            2274     11.2202E-03     10.4977E-03    -21.6604E+06    -37.7842E+06    -1.46710E+06     4.78129E+06    -65.1433E-03     107.170E-03    -42.0263E-03     26.7492E-03    -65.3432E-03     107.164E-03    -41.9475E-03     26.1428E-03
            2275     10.3756E-03     10.4532E-03    -23.5959E+06    -65.2974E+06    -3.59787E+06     4.58877E+06    -60.4744E-03     100.798E-03    -40.3232E-03     20.4374E-03    -60.5849E-03     100.604E-03    -40.2123E-03     20.0114E-03
            2276     9.52672E-03     10.4155E-03    -25.7542E+06    -83.5928E+06    -3.99886E+06     4.74548E+06    -55.7490E-03     94.4736E-03    -38.7246E-03     15.5056E-03    -55.8080E-03     94.1566E-03    -38.5861E-03     15.2186E-03
            2277     8.67389E-03     10.3838E-03    -27.7209E+06    -97.9170E+06    -5.03544E+06     5.20138E+06    -51.2867E-03     88.5360E-03    -37.2493E-03     11.9417E-03    -51.3119E-03     88.1301E-03    -37.0923E-03     11.7594E-03
            2278     7.81727E-03     10.3569E-03    -29.7700E+06    -109.501E+06     -5.1588E+06     5.40774E+06    -47.2038E-03     83.1210E-03    -35.9172E-03     9.42345E-03    -47.2091E-03     82.6471E-03    -35.7410E-03     9.31387E-03
            2279     6.95724E-03     10.3344E-03    -32.2366E+06    -117.027E+06    -8.33517E+06     5.50814E+06    -43.5438E-03     78.2552E-03    -34.7114E-03     7.69349E-03    -43.5378E-03     77.7436E-03    -34.5367E-03     7.63502E-03
            2280     6.09418E-03     10.3151E-03    -35.1292E+06    -123.295E+06    -13.3439E+06     5.25473E+06    -40.3359E-03     73.9791E-03    -33.6432E-03     6.51408E-03    -40.3229E-03     73.4424E-03    -33.4802E-03     6.48811E-03
            2281     5.22844E-03     10.2991E-03    -38.1855E+06    -127.845E+06    -16.7281E+06     4.91082E+06    -37.5787E-03     70.3058E-03    -32.7271E-03     5.64544E-03    -37.5661E-03     69.7523E-03    -32.5700E-03     5.64104E-03
            2282     4.36042E-03     10.2854E-03    -40.7923E+06    -130.241E+06    -22.0804E+06     4.59288E+06    -35.2643E-03     67.2063E-03    -31.9420E-03     4.87587E-03    -35.2512E-03     66.6500E-03    -31.8044E-03     4.88642E-03
            2283     3.49060E-03     10.2743E-03    -42.5215E+06    -133.703E+06    -29.0527E+06     3.79156E+06    -33.3975E-03     64.6891E-03    -31.2916E-03     4.05545E-03    -33.3764E-03     64.1265E-03    -31.1813E-03     4.06986E-03
            2284     2.61923E-03     10.2656E-03    -43.8623E+06    -136.678E+06    -35.0084E+06     2.55637E+06    -31.9581E-03     62.7433E-03    -30.7852E-03     3.18954E-03    -31.9297E-03     62.1754E-03    -30.6985E-03     3.19903E-03
            2285     1.74676E-03     10.2592E-03    -45.0644E+06    -139.282E+06    -40.1551E+06     1.42671E+06    -30.9495E-03     61.3654E-03    -30.4159E-03     2.22417E-03    -30.9153E-03     60.7930E-03    -30.3494E-03     2.22791E-03
            2286     873.597E-06     10.2553E-03    -45.9196E+06    -141.362E+06    -44.3010E+06     701.539E+03    -30.3856E-03     60.5019E-03    -30.1163E-03     1.22645E-03    -30.3462E-03     59.9262E-03    -30.0662E-03     1.22789E-03
            2287     16.2360E-03     9.84769E-03    -4.62078E+06     111.479E+06     80.6666E+06    -95.0425E+03    -80.4986E-03     132.544E-03    -52.0455E-03     50.0988E-03    -81.2619E-03     133.453E-03    -51.7971E-03     48.8152E-03
            2288     15.4072E-03     9.77761E-03    -7.36713E+06     111.344E+06     80.7953E+06     2.40421E+06    -82.0124E-03     132.450E-03    -50.4376E-03     64.2888E-03    -83.0124E-03     133.585E-03    -50.1844E-03     62.6550E-03
            2289     14.5774E-03     9.69749E-03    -11.5519E+06     98.6693E+06     66.1025E+06     2.37360E+06    -82.4022E-03     130.942E-03    -48.5401E-03     66.4296E-03    -83.3652E-03     132.024E-03    -48.3359E-03     64.7789E-03
            2290     13.7486E-03     9.61183E-03    -15.5121E+06     83.9704E+06     36.9880E+06     1.50078E+06    -80.0771E-03     126.481E-03    -46.4041E-03     58.7229E-03    -80.8763E-03     127.417E-03    -46.3184E-03     57.2269E-03
            2291     12.9168E-03     9.54279E-03    -17.4097E+06     52.2379E+06     10.1419E+06     2.79608E+06    -75.2160E-03     119.474E-03    -44.2584E-03     41.4140E-03    -75.7395E-03     120.094E-03    -44.2582E-03     40.2682E-03
            2292     12.0800E-03     9.48905E-03    -19.7635E+06     2.45976E+06     1.43500E+06     4.01466E+06    -69.7934E-03     112.081E-03    -42.2880E-03     29.8239E-03    -70.1075E-03     112.331E-03    -42.2557E-03     29.0108E-03
            2293     11.2391E-03     9.44411E-03    -22.3268E+06    -36.8284E+06    -307.996E+03     5.01324E+06    -64.3690E-03     104.809E-03    -40.4400E-03     22.7225E-03    -64.5580E-03     104.790E-03    -40.3558E-03     22.1609E-03
            2294     10.3933E-03     9.40682E-03    -24.3610E+06    -63.8966E+06    -2.00916E+06     5.09108E+06    -58.9365E-03     97.6433E-03    -38.7068E-03     17.6906E-03    -59.0456E-03     97.4457E-03    -38.5888E-03     17.3085E-03
            2295     9.54287E-03     9.37612E-03    -26.4163E+06    -82.8721E+06    -2.08791E+06     4.63235E+06    -53.7872E-03     90.9153E-03    -37.1280E-03     14.1925E-03    -53.8490E-03     90.5956E-03    -36.9800E-03     13.9333E-03
            2296     8.68814E-03     9.35063E-03    -28.4079E+06    -97.2574E+06    -3.04042E+06     4.47763E+06    -49.1171E-03     84.8236E-03    -35.7065E-03     11.9475E-03    -49.1481E-03     84.4177E-03    -35.5395E-03     11.7770E-03
            2297     7.82950E-03     9.32948E-03    -30.3640E+06    -108.858E+06    -2.92942E+06     4.48480E+06    -45.0012E-03     79.4550E-03    -34.4538E-03     10.4953E-03    -45.0138E-03     78.9821E-03    -34.2666E-03     10.3884E-03
            2298     6.96747E-03     9.31174E-03    -32.5883E+06    -116.504E+06    -5.11582E+06     4.69437E+06    -41.4490E-03     74.7940E-03    -33.3451E-03     9.49828E-03    -41.4509E-03     74.2817E-03    -33.1545E-03     9.43868E-03
            2299     6.10249E-03     9.29694E-03    -35.3599E+06    -122.082E+06    -10.4552E+06     4.97495E+06    -38.4404E-03     70.8094E-03    -32.3690E-03     8.77593E-03    -38.4353E-03     70.2759E-03    -32.1930E-03     8.75216E-03
            2300     5.23511E-03     9.28430E-03    -38.4303E+06    -125.726E+06    -14.9696E+06     4.05765E+06    -35.9181E-03     67.4526E-03    -31.5345E-03     8.12698E-03    -35.9130E-03     66.9083E-03    -31.3713E-03     8.11508E-03
            2301     4.36573E-03     9.27382E-03    -40.8469E+06    -128.376E+06    -20.4243E+06     2.32611E+06    -33.8245E-03     64.6495E-03    -30.8250E-03     7.34593E-03    -33.8173E-03     64.1008E-03    -30.6818E-03     7.32934E-03
            2302     3.49455E-03     9.26509E-03    -42.4428E+06    -131.861E+06    -27.3235E+06     1.22408E+06    -32.1406E-03     62.3766E-03    -30.2360E-03     6.31351E-03    -32.1246E-03     61.8211E-03    -30.1199E-03     6.29611E-03
            2303     2.62211E-03     9.25832E-03    -43.7350E+06    -135.038E+06    -33.6549E+06     503.027E+03    -30.8516E-03     60.6226E-03    -29.7710E-03     5.03444E-03    -30.8271E-03     60.0610E-03    -29.6800E-03     5.01823E-03
            2304     1.74868E-03     9.25329E-03    -45.1108E+06    -138.219E+06    -39.7898E+06     31.1806E+03    -29.9211E-03     59.3454E-03    -29.4243E-03     3.56213E-03    -29.8892E-03     58.7780E-03    -29.3574E-03     3.54834E-03
            2305     874.561E-06     9.25020E-03    -46.2769E+06    -140.729E+06    -44.5568E+06    -50.0951E+03    -29.3793E-03     58.5367E-03    -29.1574E-03     1.99176E-03    -29.3421E-03     57.9652E-03    -29.1090E-03     1.98371E-03
            2306     16.2389E-03     8.76290E-03    -4.59412E+06     110.585E+06     80.3883E+06    -209.103E+03    -85.9524E-03     137.724E-03    -51.7712E-03     47.9951E-03    -86.7032E-03     138.618E-03    -51.5230E-03     46.5852E-03
            2307     15.4143E-03     8.68990E-03    -8.86391E+06     109.518E+06     79.7488E+06    -455.376E+03    -87.2552E-03     137.111E-03    -49.8557E-03     60.7839E-03    -88.2402E-03     138.223E-03    -49.6029E-03     58.9637E-03
            2308     14.5915E-03     8.61697E-03    -10.6628E+06     98.7734E+06     68.2424E+06     1.34498E+06    -86.0267E-03     133.704E-03    -47.6776E-03     62.1412E-03    -86.9523E-03     134.746E-03    -47.4641E-03     60.4081E-03
            2309     13.7644E-03     8.53444E-03    -14.3576E+06     83.9304E+06     38.5368E+06     2.93261E+06    -81.6522E-03     126.977E-03    -45.3246E-03     52.9470E-03    -82.3979E-03     127.859E-03    -45.2328E-03     51.4847E-03
            2310     12.9332E-03     8.47580E-03    -19.1646E+06     51.2774E+06     8.59497E+06     3.83964E+06    -75.1421E-03     118.191E-03    -43.0486E-03     36.3306E-03    -75.6335E-03     118.773E-03    -43.0522E-03     35.2490E-03
            2311     12.0962E-03     8.42976E-03    -22.3628E+06     2.59220E+06     658.694E+03     5.31394E+06    -68.5716E-03     109.617E-03    -41.0451E-03     26.8609E-03    -68.8760E-03     109.850E-03    -41.0132E-03     26.1248E-03
            2312     11.2537E-03     8.39343E-03    -24.7696E+06    -35.7903E+06     669.651E+03     5.38051E+06    -62.2378E-03     101.481E-03    -39.2429E-03     21.4105E-03    -62.4307E-03     101.458E-03    -39.1517E-03     20.9074E-03
            2313     10.4057E-03     8.36399E-03    -26.6426E+06    -62.2175E+06    -128.199E+03     4.61643E+06    -56.3058E-03     93.9225E-03    -37.6167E-03     18.2151E-03    -56.4267E-03     93.7290E-03    -37.4885E-03     17.8702E-03
            2314     9.55282E-03     8.34037E-03    -28.1035E+06    -81.5282E+06     521.483E+03     3.82284E+06    -51.0498E-03     87.2408E-03    -36.1910E-03     16.2634E-03    -51.1248E-03     86.9257E-03    -36.0294E-03     16.0245E-03
            2315     8.69553E-03     8.32123E-03    -29.7841E+06    -96.6545E+06     154.659E+03     3.31900E+06    -46.5274E-03     81.4774E-03    -34.9500E-03     15.2382E-03    -46.5717E-03     81.0729E-03    -34.7659E-03     15.0734E-03
            2316     7.83460E-03     8.30536E-03    -31.8803E+06    -108.086E+06    -600.662E+03     3.13410E+06    -42.7254E-03     76.6078E-03    -33.8824E-03     14.5987E-03    -42.7515E-03     76.1391E-03    -33.6825E-03     14.4877E-03
            2317     6.97058E-03     8.29224E-03    -34.2877E+06    -116.534E+06    -2.80583E+06     3.21374E+06    -39.5907E-03     72.5552E-03    -32.9644E-03     14.0370E-03    -39.6059E-03     72.0433E-03    -32.7598E-03     13.9667E-03
            2318     6.10413E-03     8.28112E-03    -36.3409E+06    -120.988E+06    -6.51763E+06     3.12190E+06    -37.0268E-03     69.2008E-03    -32.1740E-03     13.4129E-03    -37.0350E-03     68.6696E-03    -31.9785E-03     13.3706E-03
            2319     5.23558E-03     8.27174E-03    -37.7364E+06    -122.836E+06    -11.4769E+06     1.66227E+06    -34.9405E-03     66.4383E-03    -31.4978E-03     12.5901E-03    -34.9420E-03     65.9032E-03    -31.3224E-03     12.5507E-03
            2320     4.36533E-03     8.26370E-03    -39.4506E+06    -126.657E+06    -18.6127E+06    -36.6612E+03    -33.2685E-03     64.1947E-03    -30.9262E-03     11.3704E-03    -33.2600E-03     63.6505E-03    -30.7784E-03     11.3257E-03
            2321     3.49389E-03     8.25722E-03    -41.6395E+06    -130.945E+06    -26.1418E+06    -1.11275E+06    -31.9362E-03     62.3931E-03    -30.4570E-03     9.77391E-03    -31.9195E-03     61.8395E-03    -30.3374E-03     9.72809E-03
            2322     2.62134E-03     8.25192E-03    -43.6628E+06    -135.010E+06    -33.2549E+06    -1.50831E+06    -30.9116E-03     60.9993E-03    -30.0877E-03     7.80137E-03    -30.8875E-03     60.4373E-03    -29.9949E-03     7.76056E-03
            2323     1.74802E-03     8.24822E-03    -45.3485E+06    -138.803E+06    -39.9725E+06    -1.14955E+06    -30.1812E-03     59.9975E-03    -29.8163E-03     5.50026E-03    -30.1495E-03     59.4278E-03    -29.7491E-03     5.47216E-03
            2324     874.081E-06     8.24584E-03    -46.4996E+06    -141.521E+06    -44.8675E+06    -750.158E+03    -29.7536E-03     59.3882E-03    -29.6346E-03     3.04047E-03    -29.7160E-03     58.8135E-03    -29.5863E-03     3.02391E-03
            2325     16.2478E-03     7.67003E-03    -3.79903E+06     111.727E+06     82.6871E+06     358.627E+03    -91.5017E-03     142.987E-03    -51.4858E-03     48.1180E-03    -92.2539E-03     143.883E-03    -51.2289E-03     46.5905E-03
            2326     15.4267E-03     7.60227E-03    -8.71722E+06     109.400E+06     79.2648E+06    -391.754E+03    -91.0960E-03     140.389E-03    -49.2928E-03     59.2211E-03    -92.0611E-03     141.482E-03    -49.0425E-03     57.3090E-03
            2327     14.6030E-03     7.53023E-03    -15.6408E+06     95.8758E+06     62.1837E+06    -196.251E+03    -87.9304E-03     134.835E-03    -46.9042E-03     59.0528E-03    -88.8281E-03     135.838E-03    -46.7096E-03     57.2983E-03
            2328     13.7784E-03     7.45917E-03    -19.1895E+06     80.9639E+06     34.6321E+06     3.31680E+06    -81.3929E-03     125.860E-03    -44.4676E-03     49.0148E-03    -82.1040E-03     126.692E-03    -44.3840E-03     47.6311E-03
            2329     12.9452E-03     7.41005E-03    -22.7828E+06     50.2936E+06     8.55355E+06     6.87190E+06    -73.1713E-03     115.398E-03    -42.2269E-03     34.0858E-03    -73.6459E-03     115.947E-03    -42.2240E-03     33.1406E-03
            2330     12.1060E-03     7.37375E-03    -27.1615E+06     4.67213E+06     1.90789E+06     6.54812E+06    -65.5250E-03     105.875E-03    -40.3497E-03     27.0865E-03    -65.8417E-03     106.107E-03    -40.3076E-03     26.4523E-03
            2331     11.2604E-03     7.34658E-03    -29.4438E+06    -33.5403E+06     2.84509E+06     4.51188E+06    -58.6879E-03     97.4407E-03    -38.7528E-03     24.0156E-03    -58.9040E-03     97.4260E-03    -38.6473E-03     23.5687E-03
            2332     10.4093E-03     7.32506E-03    -30.4303E+06    -60.3759E+06     2.79135E+06     2.88785E+06    -52.8088E-03     90.1907E-03    -37.3819E-03     22.6942E-03    -52.9542E-03     90.0064E-03    -37.2363E-03     22.3744E-03
            2333     9.55317E-03     7.30833E-03    -31.5021E+06    -80.4059E+06     4.10288E+06     1.80233E+06    -47.9217E-03     84.1594E-03    -36.2377E-03     22.1230E-03    -48.0214E-03     83.8506E-03    -36.0549E-03     21.8899E-03
            2334     8.69331E-03     7.29469E-03    -32.8241E+06    -96.0840E+06     4.52930E+06     1.26691E+06    -44.0079E-03     79.2918E-03    -35.2838E-03     21.8373E-03    -44.0762E-03     78.8898E-03    -35.0743E-03     21.6663E-03
            2335     7.83029E-03     7.28356E-03    -34.4418E+06    -107.759E+06     1.89124E+06     1.00848E+06    -40.8901E-03     75.3694E-03    -34.4794E-03     21.4511E-03    -40.9346E-03     74.9040E-03    -34.2637E-03     21.3256E-03
            2336     6.96488E-03     7.27402E-03    -35.8117E+06    -115.924E+06    -1.63805E+06     448.811E+03    -38.4446E-03     72.2526E-03    -33.8080E-03     20.7642E-03    -38.4711E-03     71.7454E-03    -33.5962E-03     20.6667E-03
            2337     6.09753E-03     7.26599E-03    -36.4130E+06    -119.404E+06    -3.90065E+06    -1.09119E+06    -36.5368E-03     69.7903E-03    -33.2534E-03     19.7137E-03    -36.5523E-03     69.2639E-03    -33.0470E-03     19.6227E-03
            2338     5.22876E-03     7.25889E-03    -37.0332E+06    -121.549E+06    -9.05114E+06    -2.19504E+06    -35.0462E-03     67.8277E-03    -32.7815E-03     18.1789E-03    -35.0500E-03     67.2947E-03    -32.5968E-03     18.0939E-03
            2339     4.35890E-03     7.25290E-03    -38.3646E+06    -126.126E+06    -17.0602E+06    -2.61584E+06    -33.8835E-03     66.2686E-03    -32.3850E-03     16.1200E-03    -33.8728E-03     65.7232E-03    -32.2318E-03     16.0452E-03
            2340     3.48805E-03     7.24783E-03    -40.2829E+06    -131.125E+06    -25.3697E+06    -2.82145E+06    -32.9880E-03     65.0523E-03    -32.0643E-03     13.6152E-03    -32.9656E-03     64.4946E-03    -31.9426E-03     13.5498E-03
            2341     2.61658E-03     7.24386E-03    -42.7121E+06    -136.276E+06    -33.5918E+06    -2.58460E+06    -32.3131E-03     64.1284E-03    -31.8154E-03     10.6849E-03    -32.2820E-03     63.5590E-03    -31.7238E-03     10.6320E-03
            2342     1.74458E-03     7.24088E-03    -44.9609E+06    -140.543E+06    -40.3389E+06    -1.95588E+06    -31.8534E-03     63.4916E-03    -31.6381E-03     7.43524E-03    -31.8169E-03     62.9130E-03    -31.5708E-03     7.39800E-03
            2343     872.451E-06     7.23903E-03    -46.5022E+06    -143.432E+06    -44.9161E+06    -1.08317E+06    -31.5858E-03     63.1119E-03    -31.5262E-03     4.10557E-03    -31.5455E-03     62.5275E-03    -31.4753E-03     4.08545E-03
            2344     16.2472E-03     6.57125E-03    -4.19087E+06     110.479E+06     82.0328E+06     97.8440E+03    -94.6453E-03     145.973E-03    -51.3275E-03     50.5292E-03    -95.3984E-03     146.865E-03    -51.0714E-03     48.9319E-03
            2345     15.4307E-03     6.50914E-03    -9.97801E+06     107.729E+06     78.6052E+06     2.17803E+06    -93.6937E-03     142.674E-03    -48.9800E-03     60.1298E-03    -94.6418E-03     143.742E-03    -48.7287E-03     58.2352E-03
            2346     14.6116E-03     6.44436E-03    -17.0394E+06     95.8050E+06     59.6314E+06     3.66326E+06    -88.0489E-03     134.541E-03    -46.4916E-03     57.8251E-03    -88.9088E-03     135.509E-03    -46.3077E-03     56.1911E-03
            2347     13.7832E-03     6.38506E-03    -25.6134E+06     76.0023E+06     30.1971E+06     5.11147E+06    -78.8347E-03     122.949E-03    -44.1143E-03     47.0296E-03    -79.5131E-03     123.721E-03    -44.0364E-03     45.8101E-03
            2348     12.9488E-03     6.34756E-03    -30.5367E+06     49.0764E+06     10.3328E+06     7.99095E+06    -68.9317E-03     111.034E-03    -42.1022E-03     35.2956E-03    -69.4154E-03     111.555E-03    -42.0774E-03     34.5055E-03
            2349     12.1053E-03     6.32275E-03    -32.1327E+06     10.0062E+06     7.36341E+06     6.41187E+06    -60.6541E-03     101.193E-03    -40.5394E-03     31.8431E-03    -60.9990E-03     101.440E-03    -40.4705E-03     31.3146E-03
            2350     11.2553E-03     6.30368E-03    -33.1092E+06    -30.2986E+06     8.30096E+06     1.86665E+06    -54.1942E-03     93.5026E-03    -39.3084E-03     31.1935E-03    -54.4371E-03     93.4975E-03    -39.1749E-03     30.7866E-03
            2351     10.4003E-03     6.28993E-03    -33.4788E+06    -58.8708E+06     8.12053E+06    -492.523E+03    -49.1154E-03     87.4292E-03    -38.3139E-03     31.1954E-03    -49.2851E-03     87.2484E-03    -38.1394E-03     30.8801E-03
            2352     9.54130E-03     6.27859E-03    -33.7330E+06    -79.8840E+06     9.60356E+06    -1.49092E+06    -45.2231E-03     82.7554E-03    -37.5323E-03     31.2566E-03    -45.3432E-03     82.4449E-03    -37.3195E-03     31.0118E-03
            2353     8.67931E-03     6.26955E-03    -34.5303E+06    -95.6800E+06     10.6234E+06    -2.24701E+06    -42.3351E-03     79.2488E-03    -36.9137E-03     30.8498E-03    -42.4219E-03     78.8428E-03    -36.6718E-03     30.6532E-03
            2354     7.81522E-03     6.26166E-03    -35.0284E+06    -107.562E+06     7.98467E+06    -3.14848E+06    -40.2076E-03     76.6115E-03    -36.4038E-03     29.8919E-03    -40.2645E-03     76.1390E-03    -36.1572E-03     29.7256E-03
            2355     6.94951E-03     6.25492E-03    -34.6843E+06    -114.555E+06     3.02143E+06    -4.63548E+06    -38.6306E-03     74.6079E-03    -35.9773E-03     28.3197E-03    -38.6604E-03     74.0988E-03    -35.7458E-03     28.1655E-03
            2356     6.08265E-03     6.24873E-03    -34.6228E+06    -118.667E+06    -2.23990E+06    -5.96425E+06    -37.4496E-03     73.0761E-03    -35.6265E-03     26.1976E-03    -37.4595E-03     72.5479E-03    -35.4154E-03     26.0502E-03
            2357     5.21497E-03     6.24328E-03    -35.4795E+06    -122.585E+06    -9.21379E+06    -6.10190E+06    -36.5576E-03     71.8907E-03    -35.3332E-03     23.5220E-03    -36.5518E-03     71.3500E-03    -35.1500E-03     23.3914E-03
            2358     4.34657E-03     6.23848E-03    -36.8956E+06    -127.549E+06    -17.1617E+06    -5.32607E+06    -35.8790E-03     70.9703E-03    -35.0913E-03     20.3627E-03    -35.8588E-03     70.4153E-03    -34.9387E-03     20.2565E-03
            2359     3.47777E-03     6.23439E-03    -38.9468E+06    -133.134E+06    -25.7656E+06    -4.08531E+06    -35.3675E-03     70.2626E-03    -34.8950E-03     16.8062E-03    -35.3350E-03     69.6930E-03    -34.7743E-03     16.7272E-03
            2360     2.60861E-03     6.23110E-03    -41.3397E+06    -138.367E+06    -33.6659E+06    -2.76406E+06    -34.9952E-03     69.7395E-03    -34.7443E-03     12.9559E-03    -34.9543E-03     69.1574E-03    -34.6521E-03     12.9027E-03
            2361     1.73926E-03     6.22864E-03    -43.7157E+06    -142.646E+06    -40.1183E+06    -1.78164E+06    -34.7398E-03     69.3785E-03    -34.6387E-03     8.92523E-03    -34.6944E-03     68.7869E-03    -34.5691E-03     8.89147E-03
            2362     869.578E-06     6.22707E-03    -45.5731E+06    -145.673E+06    -44.5985E+06    -907.406E+03    -34.5708E-03     69.1755E-03    -34.6048E-03     4.91153E-03    -34.5233E-03     68.5778E-03    -34.5504E-03     4.89435E-03
            2363     16.2492E-03     5.47274E-03    -4.30880E+06     109.194E+06     80.8124E+06     1.93076E+06    -96.2076E-03     147.575E-03    -51.3677E-03     51.1474E-03    -96.9369E-03     148.443E-03    -51.1157E-03     49.5960E-03
            2364     15.4308E-03     5.41216E-03    -11.7766E+06     104.820E+06     77.0387E+06     3.39419E+06    -92.7893E-03     141.800E-03    -49.0107E-03     58.7397E-03    -93.6933E-03     142.812E-03    -48.7604E-03     56.9699E-03
            2365     14.6090E-03     5.35900E-03    -17.7251E+06     92.8460E+06     63.1534E+06     6.96881E+06    -84.7068E-03     131.376E-03    -46.6689E-03     55.5517E-03    -85.5095E-03     132.265E-03    -46.4621E-03     54.1364E-03
            2366     13.7805E-03     5.31443E-03    -24.3231E+06     73.8037E+06     39.2733E+06     10.8977E+06    -72.8415E-03     117.448E-03    -44.6067E-03     47.7519E-03    -73.4655E-03     118.137E-03    -44.4821E-03     46.8238E-03
            2367     12.9385E-03     5.29174E-03    -31.1151E+06     51.9382E+06     20.2805E+06     8.83918E+06    -62.2792E-03     105.309E-03    -43.0298E-03     41.6922E-03    -62.7562E-03     105.803E-03    -42.9585E-03     41.0833E-03
            2368     12.0893E-03     5.27601E-03    -33.5951E+06     16.7819E+06     16.5630E+06     2.47305E+06    -55.0263E-03     96.9671E-03    -41.9408E-03     41.7191E-03    -55.3903E-03     97.2249E-03    -41.8336E-03     41.2499E-03
            2369     11.2349E-03     5.26492E-03    -33.1263E+06    -27.4521E+06     16.3355E+06    -2.25281E+06    -49.9947E-03     91.1642E-03    -41.1695E-03     42.2425E-03    -50.2471E-03     91.1551E-03    -40.9999E-03     41.8541E-03
            2370     10.3766E-03     5.25617E-03    -33.4289E+06    -57.9560E+06     15.3957E+06    -4.62642E+06    -46.4977E-03     87.0864E-03    -40.5888E-03     42.2570E-03    -46.6751E-03     86.8952E-03    -40.3793E-03     41.9337E-03
            2371     9.51586E-03     5.24915E-03    -33.8459E+06    -79.6137E+06     16.4006E+06    -6.32406E+06    -44.1085E-03     84.2670E-03    -40.1585E-03     41.5195E-03    -44.2365E-03     83.9447E-03    -39.9120E-03     41.2412E-03
            2372     8.65344E-03     5.24266E-03    -33.3583E+06    -95.5337E+06      15.827E+06    -7.74137E+06    -42.4727E-03     82.2924E-03    -39.8197E-03     39.8535E-03    -42.5591E-03     81.8749E-03    -39.5537E-03     39.6052E-03
            2373     7.78991E-03     5.23699E-03    -32.5045E+06    -106.935E+06     12.5576E+06    -9.42217E+06    -41.3673E-03     80.9037E-03    -39.5364E-03     37.4428E-03    -41.4173E-03     80.4215E-03    -39.2714E-03     37.2087E-03
            2374     6.92570E-03     5.23153E-03    -32.0087E+06    -114.653E+06     5.89773E+06    -10.6140E+06    -40.5852E-03     79.8691E-03    -39.2839E-03     34.4323E-03    -40.6041E-03     79.3494E-03    -39.0418E-03     34.2103E-03
            2375     6.06098E-03     5.22665E-03    -32.1165E+06    -120.253E+06    -3.23454E+06    -10.4246E+06    -39.9861E-03     79.0427E-03    -39.0566E-03     30.9723E-03    -39.9787E-03     78.5027E-03    -38.8519E-03     30.7743E-03
            2376     5.19575E-03     5.22200E-03    -32.9981E+06    -125.686E+06    -11.6254E+06    -9.12359E+06    -39.5198E-03     78.3863E-03    -38.8665E-03     27.1283E-03    -39.4930E-03     77.8287E-03    -38.6945E-03     26.9638E-03
            2377     4.33033E-03     5.21793E-03    -34.8642E+06    -131.307E+06    -19.7371E+06    -6.87371E+06    -39.1561E-03     77.8626E-03    -38.7065E-03     22.9689E-03    -39.1161E-03     77.2886E-03    -38.5642E-03     22.8463E-03
            2378     3.46455E-03     5.21439E-03    -37.2871E+06    -136.646E+06     -27.281E+06    -4.43587E+06    -38.8555E-03     77.4298E-03    -38.5744E-03     18.6182E-03    -38.8072E-03     76.8419E-03    -38.4586E-03     18.5371E-03
            2379     2.59857E-03     5.21153E-03    -39.7252E+06    -141.061E+06    -33.6281E+06    -2.53292E+06    -38.6213E-03     77.0933E-03    -38.4721E-03     14.1553E-03    -38.5684E-03     76.4949E-03    -38.3781E-03     14.1066E-03
            2380     1.73239E-03     5.20934E-03    -41.8497E+06    -144.646E+06    -38.8891E+06    -1.15136E+06    -38.4580E-03     76.8568E-03    -38.3988E-03     9.63325E-03    -38.4023E-03     76.2505E-03    -38.3229E-03     9.60853E-03
            2381     866.285E-06     5.20796E-03    -43.3166E+06    -147.172E+06    -42.7088E+06    -352.014E+03    -38.3541E-03     76.7222E-03    -38.3681E-03     5.26168E-03    -38.2960E-03     76.1109E-03    -38.3054E-03     5.25213E-03
            2382     16.2456E-03     4.37280E-03    -5.35511E+06     106.691E+06     78.6575E+06     3.51806E+06    -95.9606E-03     147.750E-03    -51.7897E-03     54.9984E-03    -96.6781E-03     148.601E-03    -51.5433E-03     53.5478E-03
            2383     15.4259E-03     4.31990E-03    -10.7827E+06     102.091E+06     76.5053E+06     6.28400E+06    -87.7447E-03     137.352E-03    -49.6069E-03     62.7460E-03    -88.5910E-03     138.303E-03    -49.3567E-03     61.2554E-03
            2384     14.5994E-03     4.27754E-03    -18.1401E+06     87.7096E+06     64.5172E+06     9.52343E+06    -75.8420E-03     123.549E-03    -47.7074E-03     58.6937E-03    -76.5610E-03     124.332E-03    -47.4857E-03     57.6330E-03
            2385     13.7586E-03     4.25361E-03    -23.0397E+06     72.8394E+06     47.9454E+06     11.8814E+06    -63.7108E-03     109.980E-03    -46.2692E-03     55.4822E-03    -64.2786E-03     110.588E-03    -46.1016E-03     54.8332E-03
            2386     12.9096E-03     4.24116E-03    -24.1716E+06     61.2610E+06     34.2093E+06     8.02397E+06    -55.5355E-03     100.834E-03    -45.2988E-03     53.9220E-03    -55.9814E-03     101.314E-03    -45.1815E-03     53.4682E-03
            2387     12.0554E-03     4.23307E-03    -26.3458E+06     23.5319E+06     26.4404E+06    -432.008E+03    -50.8945E-03     95.6033E-03    -44.7088E-03     54.3209E-03    -51.2274E-03     95.8504E-03    -44.5726E-03     53.9139E-03
            2388     11.1979E-03     4.22651E-03    -29.4659E+06    -26.2986E+06     22.0729E+06    -5.80198E+06    -48.1592E-03     92.5015E-03    -44.3423E-03     53.6641E-03    -48.3892E-03     92.4695E-03    -44.1511E-03     53.2936E-03
            2389     10.3389E-03     4.22107E-03    -30.9512E+06    -56.5597E+06     19.4581E+06    -8.70632E+06    -46.5607E-03     90.6278E-03    -44.0670E-03     51.7193E-03    -46.7232E-03     90.4225E-03    -43.8428E-03     51.3846E-03
            2390     9.47899E-03     4.21567E-03    -31.0595E+06    -78.7470E+06     18.5368E+06    -12.0584E+06    -45.5987E-03     89.4513E-03    -43.8526E-03     48.8399E-03    -45.7093E-03     89.1173E-03    -43.6007E-03     48.5152E-03
            2391     8.61863E-03     4.21082E-03    -30.1112E+06    -95.4461E+06     14.9971E+06    -14.7265E+06    -44.9873E-03     88.6412E-03    -43.6539E-03     45.2760E-03    -45.0506E-03     88.2140E-03    -43.3968E-03     44.9567E-03
            2392     7.75788E-03     4.20585E-03    -28.7983E+06    -107.907E+06     7.34548E+06    -15.8257E+06    -44.5522E-03     88.0029E-03    -43.4508E-03     41.2273E-03    -44.5705E-03     87.5132E-03    -43.2158E-03     40.9242E-03
            2393     6.89684E-03     4.20133E-03    -28.2593E+06    -117.184E+06    -413.130E+03    -15.4299E+06    -44.1888E-03     87.4477E-03    -43.2589E-03     36.8988E-03    -44.1733E-03     86.9156E-03    -43.0500E-03     36.6245E-03
            2394     6.03550E-03     4.19696E-03    -28.8721E+06    -124.816E+06    -8.17469E+06    -13.5402E+06    -43.8606E-03     86.9391E-03    -43.0785E-03     32.4336E-03    -43.8213E-03     86.3764E-03    -42.8965E-03     32.2023E-03
            2395     5.17399E-03     4.19299E-03    -30.5979E+06    -131.077E+06    -16.5104E+06    -10.1976E+06    -43.5358E-03     86.4435E-03    -42.9076E-03     27.8740E-03    -43.4809E-03     85.8609E-03    -42.7558E-03     27.7004E-03
            2396     4.31208E-03     4.18932E-03    -33.0502E+06    -136.552E+06    -23.6015E+06    -6.73455E+06    -43.2279E-03     85.9863E-03    -42.7584E-03     23.2580E-03    -43.1649E-03     85.3882E-03    -42.6304E-03     23.1405E-03
            2397     3.45005E-03     4.18629E-03    -35.4820E+06    -140.629E+06    -28.9529E+06    -3.91996E+06    -42.9613E-03     85.5932E-03    -42.6320E-03     18.6319E-03    -42.8953E-03     84.9846E-03    -42.5214E-03     18.5597E-03
            2398     2.58776E-03     4.18374E-03    -37.6154E+06    -143.832E+06    -33.4909E+06    -1.94250E+06    -42.7337E-03     85.2577E-03    -42.5240E-03     14.0185E-03    -42.6663E-03     84.6418E-03    -42.4283E-03     13.9789E-03
            2399     1.72535E-03     4.18184E-03    -39.2481E+06    -146.294E+06    -37.1441E+06    -738.378E+03    -42.5464E-03     84.9826E-03    -42.4363E-03     9.43958E-03    -42.4777E-03     84.3616E-03    -42.3530E-03     9.42102E-03
            2400     862.642E-06     4.18059E-03    -40.1304E+06    -147.837E+06    -39.5758E+06    -135.963E+03    -42.3859E-03     84.7830E-03    -42.3970E-03     5.16766E-03    -42.3154E-03     84.1591E-03    -42.3224E-03     5.16121E-03
            2401     16.2269E-03     3.27283E-03    -6.21705E+06     102.705E+06     75.8347E+06     4.31101E+06    -89.5621E-03     142.599E-03    -53.0373E-03     64.5978E-03    -90.2692E-03     143.433E-03    -52.7980E-03     63.3518E-03
            2402     15.4031E-03     3.23131E-03    -9.96191E+06     96.9069E+06     74.9459E+06     8.48572E+06    -78.0469E-03     129.396E-03    -51.3495E-03     74.0929E-03    -78.8278E-03     130.273E-03    -51.1008E-03     72.9610E-03
            2403     14.5640E-03     3.21120E-03    -14.1392E+06     85.6964E+06     67.2448E+06     11.3055E+06    -65.3574E-03     115.475E-03    -50.1172E-03     70.3965E-03    -65.9749E-03     116.154E-03    -49.8847E-03     69.6930E-03
            2404     13.7149E-03     3.19917E-03    -17.6137E+06     76.6128E+06     53.5474E+06     8.42915E+06    -56.6704E-03     106.004E-03    -49.3337E-03     68.0980E-03    -57.1616E-03     106.551E-03    -49.1515E-03     67.6254E-03
            2405     12.8611E-03     3.19325E-03    -18.6556E+06     68.0477E+06     35.6475E+06     3.85606E+06    -52.6551E-03     101.488E-03    -48.8333E-03     65.4639E-03    -53.0430E-03     101.948E-03    -48.7267E-03     65.0878E-03
            2406     12.0054E-03     3.18849E-03    -20.4483E+06     28.2787E+06     21.0093E+06    -464.400E+03    -51.0703E-03     99.6044E-03    -48.5341E-03     62.5911E-03    -51.3411E-03     99.8409E-03    -48.4404E-03     62.2683E-03
            2407     11.1495E-03     3.18398E-03    -23.3675E+06    -23.1751E+06     13.9395E+06    -6.81200E+06    -50.3959E-03     98.7401E-03    -48.3441E-03     58.5708E-03    -50.5651E-03     98.7020E-03    -48.2070E-03     58.2434E-03
            2408     10.2934E-03     3.17926E-03    -24.6327E+06    -54.0076E+06      8.4449E+06    -12.7273E+06    -49.9983E-03     98.1467E-03    -48.1485E-03     53.8936E-03    -50.1001E-03     97.9431E-03    -47.9922E-03     53.5463E-03
            2409     9.43727E-03     3.17493E-03    -24.0777E+06    -77.2014E+06     4.05535E+06    -16.9890E+06    -49.7066E-03     97.6565E-03    -47.9499E-03     49.0034E-03    -49.7515E-03     97.3283E-03    -47.7828E-03     48.6435E-03
            2410     8.58085E-03     3.17036E-03    -23.8364E+06    -96.2079E+06    -538.999E+03    -19.5237E+06    -49.4204E-03     97.1651E-03    -47.7447E-03     44.0660E-03    -49.4202E-03     96.7387E-03    -47.5733E-03     43.7058E-03
            2411     7.72430E-03     3.16624E-03    -24.1785E+06    -111.600E+06    -7.65227E+06    -19.5361E+06    -49.0967E-03     96.6187E-03    -47.5220E-03     39.1605E-03    -49.0590E-03     96.1195E-03    -47.3634E-03     38.8250E-03
            2412     6.86736E-03     3.16219E-03    -25.2274E+06    -122.540E+06    -14.0591E+06    -17.1679E+06    -48.7168E-03     96.0167E-03    -47.3000E-03     34.3575E-03    -48.6546E-03     95.4692E-03    -47.1560E-03     34.0721E-03
            2413     6.01015E-03     3.15851E-03    -27.3538E+06    -131.546E+06    -18.9011E+06    -13.5443E+06    -48.2967E-03     95.3885E-03    -47.0918E-03     29.7085E-03    -48.2219E-03     94.8030E-03    -46.9559E-03     29.4853E-03
            2414     5.15247E-03     3.15509E-03    -29.8431E+06    -138.158E+06    -23.4302E+06    -9.31095E+06    -47.8587E-03     94.7535E-03    -46.8949E-03     25.2144E-03    -47.7780E-03     94.1430E-03    -46.7684E-03     25.0582E-03
            2415     4.29450E-03     3.15212E-03    -32.0760E+06    -141.763E+06    -27.4974E+06    -5.49749E+06    -47.4268E-03     94.1409E-03    -46.7142E-03     20.8453E-03    -47.3446E-03     93.5201E-03    -46.5996E-03     20.7479E-03
            2416     3.43606E-03     3.14948E-03    -34.0438E+06    -144.305E+06    -30.7832E+06    -2.99857E+06    -47.0465E-03     93.6045E-03    -46.5580E-03     16.6172E-03    -46.9647E-03     92.9777E-03    -46.4533E-03     16.5598E-03
            2417     2.57741E-03     3.14741E-03    -35.5218E+06    -146.134E+06    -33.3488E+06    -1.34535E+06    -46.7384E-03     93.1639E-03    -46.4255E-03     12.4816E-03    -46.6569E-03     92.5331E-03    -46.3288E-03     12.4515E-03
            2418     1.71843E-03     3.14586E-03    -36.4059E+06    -147.417E+06    -35.3756E+06    -460.918E+03    -46.4846E-03     92.8002E-03    -46.3155E-03     8.40403E-03    -46.4025E-03     92.1669E-03    -46.2259E-03     8.39021E-03
            2419     859.399E-06     3.14494E-03    -36.7739E+06    -148.173E+06    -36.7430E+06    -166.863E+03    -46.2494E-03     92.5262E-03    -46.2768E-03     4.55478E-03    -46.1655E-03     91.8918E-03    -46.1924E-03     4.54854E-03
            2420     16.1893E-03     2.17945E-03    -4.34569E+06     99.4186E+06     75.7670E+06     4.81442E+06    -77.2209E-03     132.794E-03    -55.5727E-03     81.1719E-03    -77.8842E-03     133.579E-03    -55.3317E-03     80.2291E-03
            2421     15.3494E-03     2.15698E-03    -8.13251E+06     92.2325E+06     74.8139E+06     7.56454E+06    -68.6744E-03     123.250E-03    -54.5756E-03     85.5529E-03    -69.3333E-03     123.993E-03    -54.3235E-03     84.7508E-03
            2422     14.5035E-03     2.14956E-03    -9.26166E+06     87.1649E+06     71.4873E+06     7.56167E+06    -61.2306E-03     115.117E-03    -53.8866E-03     77.7083E-03    -61.7261E-03     115.682E-03    -53.6421E-03     77.2040E-03
            2423     13.6533E-03     2.14452E-03    -8.75396E+06     82.1075E+06     53.6940E+06     4.54528E+06    -57.5731E-03     110.947E-03    -53.3738E-03     71.7585E-03    -57.9508E-03     111.427E-03    -53.2117E-03     71.3935E-03
            2424     12.8020E-03     2.14016E-03    -10.6469E+06     68.9086E+06     21.2666E+06     3.11043E+06    -56.4975E-03     109.409E-03    -52.9110E-03     64.1947E-03    -56.7688E-03     109.823E-03    -52.8892E-03     63.9211E-03
            2425     11.9514E-03     2.13594E-03    -13.2766E+06     31.6658E+06    -1.55270E+06     404.318E+03    -56.2076E-03     108.758E-03    -52.5501E-03     57.1794E-03    -56.3744E-03     108.992E-03    -52.5845E-03     56.9477E-03
            2426     11.1010E-03     2.13180E-03    -14.4728E+06    -16.0830E+06    -11.7004E+06    -6.81105E+06    -55.9456E-03     108.203E-03    -52.2575E-03     50.8613E-03    -56.0152E-03     108.196E-03    -52.2717E-03     50.5932E-03
            2427     10.2502E-03     2.12806E-03    -14.9970E+06    -50.3878E+06    -19.7846E+06    -13.9960E+06    -55.5357E-03     107.482E-03    -51.9468E-03     45.1395E-03    -55.5341E-03     107.304E-03    -51.9509E-03     44.8212E-03
            2428     9.39901E-03     2.12416E-03    -16.0236E+06    -76.7941E+06    -25.6035E+06    -17.6033E+06    -55.0103E-03     106.645E-03    -51.6342E-03     39.8973E-03    -54.9590E-03     106.336E-03    -51.6277E-03     39.5644E-03
            2429     8.54738E-03     2.12069E-03    -17.9830E+06    -98.3859E+06    -28.6216E+06    -18.4831E+06    -54.3885E-03     105.722E-03    -51.3337E-03     35.0955E-03    -54.3058E-03     105.308E-03    -51.3081E-03     34.7756E-03
            2430     7.69499E-03     2.11725E-03    -21.0369E+06    -116.711E+06    -29.6478E+06    -17.4966E+06    -53.7261E-03     104.775E-03    -51.0487E-03     30.6878E-03    -53.6270E-03     104.272E-03    -50.9972E-03     30.3994E-03
            2431     6.84215E-03     2.11422E-03    -24.3027E+06    -129.613E+06    -30.4091E+06    -14.5836E+06    -53.0432E-03     103.813E-03    -50.7702E-03     26.6020E-03    -52.9381E-03     103.249E-03    -50.6991E-03     26.3657E-03
            2432     5.98856E-03     2.11142E-03    -27.1412E+06    -138.720E+06    -30.7665E+06    -10.6283E+06    -52.3489E-03     102.855E-03    -50.5057E-03     22.7882E-03    -52.2425E-03     102.248E-03    -50.4190E-03     22.6145E-03
            2433     5.13443E-03     2.10894E-03    -29.7015E+06    -144.741E+06    -30.6662E+06    -6.86378E+06    -51.6777E-03     101.941E-03    -50.2629E-03     19.2038E-03    -51.5743E-03     101.306E-03    -50.1633E-03     19.0879E-03
            2434     4.27965E-03     2.10670E-03    -31.6884E+06    -146.164E+06    -31.3599E+06    -3.88308E+06    -51.0566E-03     101.095E-03    -50.0384E-03     15.8073E-03    -50.9592E-03     100.456E-03    -49.9373E-03     15.7372E-03
            2435     3.42442E-03     2.10489E-03    -32.8951E+06    -147.049E+06    -32.3198E+06    -1.97979E+06    -50.5139E-03     100.359E-03    -49.8455E-03     12.5639E-03    -50.4193E-03     99.7190E-03    -49.7462E-03     12.5240E-03
            2436     2.56864E-03     2.10327E-03    -33.6597E+06    -147.768E+06    -33.3245E+06    -945.648E+03    -50.0714E-03     99.7624E-03    -49.6910E-03     9.40702E-03    -49.9778E-03     99.1207E-03    -49.5946E-03     9.38510E-03
            2437     1.71267E-03     2.10222E-03    -34.0545E+06    -148.152E+06    -33.9274E+06    -331.959E+03    -49.7550E-03     99.3332E-03    -49.5782E-03     6.31854E-03    -49.6617E-03     98.6908E-03    -49.4836E-03     6.30820E-03
            2438     856.286E-06     2.10157E-03    -34.3290E+06    -148.432E+06    -34.4107E+06    -84.2974E+03    -49.5542E-03     99.0610E-03    -49.5068E-03     3.39560E-03    -49.4607E-03     98.4185E-03    -49.4138E-03     3.39135E-03
            2439     16.1183E-03     1.09857E-03    -747.256E+03     98.9892E+06     80.6536E+06     4.14215E+06    -76.9278E-03     136.138E-03    -59.2099E-03     84.7857E-03    -77.4678E-03     136.788E-03    -58.9491E-03     84.0759E-03
            2440     15.2784E-03     1.08320E-03    -3.30113E+06     93.5626E+06     79.4540E+06     3.71361E+06    -70.4331E-03     128.781E-03    -58.3484E-03     69.3248E-03    -70.8802E-03     129.317E-03    -58.0820E-03     68.8350E-03
            2441     14.4371E-03     1.08220E-03    -4.90620E+06     89.3105E+06     69.8312E+06     1.76085E+06    -66.6285E-03     124.272E-03    -57.6432E-03     55.8122E-03    -66.9716E-03     124.710E-03    -57.4165E-03     55.4966E-03
            2442     13.5950E-03     1.07787E-03    -5.96297E+06     82.6575E+06     42.9713E+06     1.69715E+06    -64.9957E-03     121.943E-03    -56.9473E-03     47.7645E-03    -65.2597E-03     122.353E-03    -56.8437E-03     47.5429E-03
            2443     12.7536E-03     1.07483E-03    -6.27013E+06     67.4996E+06     6.83395E+06     2.88284E+06    -63.8150E-03     120.063E-03    -56.2480E-03     40.2606E-03    -63.9857E-03     120.430E-03    -56.3027E-03     40.1177E-03
            2444     11.9102E-03     1.07195E-03    -5.44696E+06     35.7942E+06    -22.1169E+06     1.14004E+06    -62.7045E-03     118.330E-03    -55.6258E-03     34.4874E-03    -62.7716E-03     118.568E-03    -55.7804E-03     34.3679E-03
            2445     11.0653E-03     1.06941E-03    -5.56806E+06    -8.20005E+06    -39.6420E+06    -4.61692E+06    -61.6140E-03     116.711E-03    -55.0975E-03     29.7365E-03    -61.5854E-03     116.748E-03    -55.2757E-03     29.5763E-03
            2446     10.2194E-03     1.06692E-03    -7.50389E+06    -47.5827E+06    -48.5802E+06    -9.52276E+06    -60.5092E-03     115.135E-03    -54.6261E-03     25.7988E-03    -60.4158E-03     114.987E-03    -54.7891E-03     25.5996E-03
            2447     9.37249E-03     1.06476E-03    -11.0593E+06    -77.5716E+06    -52.5183E+06    -11.2228E+06    -59.3667E-03     113.556E-03    -54.1898E-03     22.4295E-03    -59.2391E-03     113.266E-03    -54.3238E-03     22.2266E-03
            2448     8.52430E-03     1.06266E-03    -15.5234E+06    -101.360E+06    -52.3889E+06    -11.0556E+06    -58.2301E-03     112.022E-03    -53.7919E-03     19.4834E-03    -58.0886E-03     111.617E-03    -53.8844E-03     19.2962E-03
            2449     7.67522E-03     1.06081E-03    -20.0210E+06    -120.790E+06    -49.1410E+06    -10.0100E+06    -57.1341E-03     110.567E-03    -53.4326E-03     16.8777E-03    -56.9904E-03     110.065E-03    -53.4742E-03     16.7144E-03
            2450     6.82501E-03     1.05905E-03    -23.9962E+06    -135.188E+06    -44.3215E+06    -8.50080E+06    -56.1042E-03     109.209E-03    -53.1049E-03     14.5291E-03    -55.9657E-03     108.634E-03    -53.0956E-03     14.3932E-03
            2451     5.97407E-03     1.05758E-03    -27.1592E+06    -144.768E+06    -39.1927E+06    -5.88022E+06    -55.1579E-03     107.962E-03    -52.8038E-03     12.3928E-03    -55.0282E-03     107.335E-03    -52.7504E-03     12.2970E-03
            2452     5.12226E-03     1.05623E-03    -29.6090E+06    -148.926E+06    -35.9134E+06    -3.38197E+06    -54.2913E-03     106.812E-03    -52.5202E-03     10.4154E-03    -54.1721E-03     106.162E-03    -52.4409E-03     10.3569E-03
            2453     4.26976E-03     1.05512E-03    -31.1825E+06    -148.977E+06    -34.2613E+06    -2.03792E+06    -53.5223E-03     105.783E-03    -52.2603E-03     8.55580E-03    -53.4131E-03     105.133E-03    -52.1704E-03     8.51854E-03
            2454     3.41658E-03     1.05406E-03    -31.9647E+06    -148.822E+06    -33.3244E+06    -1.10488E+06    -52.8655E-03     104.903E-03    -52.0376E-03     6.77236E-03    -52.7616E-03     104.254E-03    -51.9420E-03     6.75027E-03
            2455     2.56297E-03     1.05333E-03    -32.3127E+06    -148.676E+06    -32.9475E+06    -461.796E+03    -52.3239E-03     104.183E-03    -51.8593E-03     5.03597E-03    -52.2223E-03     103.534E-03    -51.7616E-03     5.02463E-03
            2456     1.70877E-03     1.05266E-03    -32.5864E+06    -148.602E+06    -32.7913E+06    -249.976E+03    -51.9339E-03     103.667E-03    -51.7328E-03     3.34161E-03    -51.8339E-03     103.018E-03    -51.6340E-03     3.33492E-03
            2457     854.556E-06     1.05233E-03    -32.8169E+06    -148.638E+06    -32.8065E+06    -93.0393E+03    -51.7381E-03     103.365E-03    -51.6274E-03     1.74766E-03    -51.6386E-03     102.718E-03    -51.5283E-03     1.74470E-03


