********************************************************************************
Field Output Report, written Tue May 28 22:38:37 2024

Source 1
---------

   ODB: G:/Abaqus_calc_2019/1740/Vel_10/odb/zeides_2a_40_red_500_cal_75_vel_10_fric_050.odb
   Step: Step-1
   Frame: Increment   8227514: Step Time =   0.9829

Loc 1 : Nodal values from source 1

Output sorted by column "Nodal Label".

Field Output reported at nodes for region: DIE_2A_40_D0_36-1.Region_1
   Computation algorithm: EXTRAPOLATE_COMPUTE_AVERAGE
   Averaged at nodes
   Averaging regions: ODB_REGIONS

      Node Label     COORD.COOR1     COORD.COOR2
                          @Loc 1          @Loc 1
-------------------------------------------------
               1     22.9485E-03     111.614E-03


Field Output reported at nodes for region: DIE_2A_40_D0_36-1.Region_2
   Computation algorithm: EXTRAPOLATE_COMPUTE_AVERAGE
   Averaged at nodes
   Averaging regions: ODB_REGIONS

      Node Label     COORD.COOR1     COORD.COOR2
                          @Loc 1          @Loc 1
-------------------------------------------------
               1     22.9485E-03     111.614E-03


Field Output reported at nodes for part: WIRE-1
   Computation algorithm: EXTRAPOLATE_COMPUTE_AVERAGE
   Averaged at nodes
   Averaging regions: ODB_REGIONS

      Node Label     COORD.COOR1     COORD.COOR2           S.S11           S.S22           S.S33           S.S12         PE.PE11         PE.PE22         PE.PE33         PE.PE12         LE.LE11         LE.LE22         LE.LE33         LE.LE12
                          @Loc 1          @Loc 1          @Loc 1          @Loc 1          @Loc 1          @Loc 1          @Loc 1          @Loc 1          @Loc 1          @Loc 1          @Loc 1          @Loc 1          @Loc 1          @Loc 1
-------------------------------------------------------------------------------------------------------------------------------------------------------------------------------------------------------------------------------------------------
               1    -95.7675E-09     60.5202E-03    -48.3389E+06    -165.810E+06    -48.4973E+06     183.216E+03    -55.3331E-03     110.594E-03    -55.2613E-03     5.74095E-03    -55.2643E-03     109.906E-03    -55.1933E-03     5.72423E-03
               2     17.0369E-03     62.8415E-03    -3.25936E+06     160.212E+06     108.697E+06     422.104E+03    -55.7722E-03     111.054E-03    -55.2816E-03     148.858E-03    -62.5061E-03     118.030E-03    -54.9657E-03     157.006E-03
               3     16.3068E-03     124.644E-03    -14.3874E+06    -13.0459E+06    -15.0468E+06    -23.3757E+06     45.0920E-03     44.6893E-03    -89.7814E-03     2.33224E-03     45.1968E-03     44.8027E-03    -89.8168E-03     2.03066E-03
               4     718.673E-09     121.183E-03     44.3030E+06    -4.51891E+06     41.8650E+06    -2.86627E+06    -57.4498E-03     115.207E-03    -57.7575E-03    -4.42251E-03    -57.2935E-03     115.048E-03    -57.6059E-03    -4.47095E-03
               5     86.2102E-09     457.967E-18    -27.0769E+06    -140.332E+06    -27.0471E+06     116.216E+03    -50.1415E-03     100.171E-03    -50.0299E-03     514.217E-06    -50.0338E-03     99.5485E-03    -49.9224E-03     514.796E-06
               6     16.7552E-03     457.967E-18     16.3428E+06     127.647E+06     105.241E+06     5.17575E+06    -161.532E-03     227.489E-03    -65.9577E-03     213.027E-03    -163.992E-03     230.221E-03    -65.6402E-03     207.633E-03
               7     851.695E-06     60.5261E-03    -47.8808E+06    -164.848E+06    -46.9257E+06     91.1593E+03    -55.3479E-03     110.634E-03    -55.2863E-03     9.71649E-03    -55.2815E-03     109.949E-03    -55.2125E-03     9.68508E-03
               8     1.70324E-03     60.5398E-03    -46.6876E+06    -162.509E+06    -43.2183E+06    -62.1661E+03    -55.3790E-03     110.696E-03    -55.3174E-03     17.9255E-03    -55.3186E-03     110.019E-03    -55.2302E-03     17.8626E-03
               9     2.55495E-03     60.5621E-03    -44.8539E+06    -158.821E+06    -37.4142E+06     108.654E+03    -55.4326E-03     110.763E-03    -55.3303E-03     26.4852E-03    -55.3821E-03     110.098E-03    -55.2220E-03     26.3910E-03
              10     3.40667E-03     60.5930E-03    -41.9986E+06    -154.680E+06    -31.0292E+06     549.957E+03    -55.5567E-03     110.897E-03    -55.3404E-03     34.9991E-03    -55.5157E-03     110.248E-03    -55.2103E-03     34.8721E-03
              11     4.25829E-03     60.6325E-03    -38.0962E+06    -149.261E+06    -23.4519E+06     383.615E+03    -55.7120E-03     111.067E-03    -55.3551E-03     43.3945E-03    -55.6825E-03     110.440E-03    -55.2007E-03     43.2208E-03
              12     5.11008E-03     60.6803E-03    -34.8360E+06    -142.611E+06    -17.0575E+06    -26.8797E+03    -55.8804E-03     111.243E-03    -55.3627E-03     51.6510E-03    -55.8706E-03     110.653E-03    -55.1906E-03     51.4199E-03
              13     5.96185E-03     60.7363E-03    -32.4336E+06    -139.946E+06    -12.4003E+06    -62.5637E+03    -56.1031E-03     111.472E-03    -55.3691E-03     59.6364E-03    -56.1155E-03     110.909E-03    -55.1812E-03     59.3429E-03
              14     6.81347E-03     60.8001E-03    -29.5787E+06    -133.888E+06    -8.33933E+06     577.278E+03    -56.3512E-03     111.721E-03    -55.3695E-03     67.5575E-03    -56.3960E-03     111.209E-03    -55.1742E-03     67.2001E-03
              15     7.66526E-03     60.8719E-03    -27.1071E+06    -122.683E+06    -7.47878E+06     1.24974E+06    -56.5858E-03     111.933E-03    -55.3473E-03     75.3435E-03    -56.6790E-03     111.516E-03    -55.1675E-03     74.9103E-03
              16     8.51698E-03     60.9515E-03    -25.6134E+06    -111.949E+06    -7.41799E+06     707.589E+03    -56.8212E-03     112.143E-03    -55.3220E-03     82.9690E-03    -56.9813E-03     111.836E-03    -55.1596E-03     82.4286E-03
              17     9.36887E-03     61.0383E-03    -24.4380E+06    -98.8351E+06    -7.48798E+06     517.823E+03    -57.0791E-03     112.371E-03    -55.2919E-03     90.8617E-03    -57.3332E-03     112.209E-03    -55.1506E-03     90.2004E-03
              18     10.2205E-03     61.1339E-03    -23.1948E+06    -81.3401E+06    -7.60850E+06     499.322E+03    -57.2942E-03     112.548E-03    -55.2535E-03     98.5165E-03    -57.6785E-03     112.583E-03    -55.1399E-03     97.7150E-03
              19     11.0729E-03     61.2362E-03    -21.6420E+06    -57.0576E+06    -6.84074E+06     79.4181E+03    -57.7483E-03     112.964E-03    -55.2162E-03     106.468E-03    -58.3231E-03     113.280E-03    -55.1363E-03     105.487E-03
              20     11.9235E-03     61.3482E-03    -20.1650E+06    -26.8667E+06    -7.78855E+06    -205.034E+03    -58.0197E-03     113.186E-03    -55.1662E-03     117.278E-03    -58.8852E-03     113.907E-03    -55.1369E-03     116.085E-03
              21     12.7755E-03     61.4728E-03    -19.6863E+06     22.7132E+06    -12.8544E+06    -272.267E+03    -58.2504E-03     113.299E-03    -55.0484E-03     135.775E-03    -59.6749E-03     114.771E-03    -55.1171E-03     134.297E-03
              22     13.6292E-03     61.6213E-03    -18.7445E+06     72.8885E+06     1.77002E+06    -94.9611E+03    -61.6099E-03     116.631E-03    -55.0211E-03     184.310E-03    -64.5790E-03     119.787E-03    -55.0907E-03     182.308E-03
              23     14.4794E-03     61.8449E-03    -16.6336E+06     110.994E+06     45.5584E+06     298.656E+03    -69.7584E-03     124.919E-03    -55.1611E-03     283.538E-03    -78.2366E-03     133.601E-03    -55.0701E-03     280.685E-03
              24     15.3354E-03     62.1994E-03    -12.4214E+06     152.084E+06     93.6637E+06     861.561E+03    -77.8189E-03     133.108E-03    -55.2888E-03     396.117E-03    -99.7795E-03     155.292E-03    -55.0230E-03     395.120E-03
              25     16.1844E-03     62.6697E-03    -6.26757E+06     166.075E+06     112.370E+06     715.090E+03    -68.2663E-03     123.574E-03    -55.3072E-03     297.404E-03    -87.1810E-03     142.730E-03    -54.9771E-03     302.156E-03
              26     17.0388E-03     63.8906E-03    -1.59399E+06     162.510E+06     110.585E+06    -366.734E+03    -52.5386E-03     107.880E-03    -55.3413E-03     152.200E-03    -59.4516E-03     115.044E-03    -55.0217E-03     160.909E-03
              27     17.0358E-03     64.9476E-03    -3.91765E+06     162.089E+06     109.556E+06     19.8667E+03    -54.3591E-03     109.682E-03    -55.3233E-03     148.830E-03    -61.1450E-03     116.712E-03    -55.0049E-03     157.337E-03
              28     17.0376E-03     66.0071E-03    -2.47827E+06     162.587E+06     109.673E+06     334.665E+03    -54.6861E-03     110.001E-03    -55.3153E-03     149.753E-03    -61.4598E-03     117.025E-03    -54.9991E-03     158.059E-03
              29     17.0370E-03     67.0672E-03    -1.65608E+06     163.357E+06     110.191E+06    -170.691E+03    -52.7584E-03     108.085E-03    -55.3270E-03     150.609E-03    -59.5691E-03     115.151E-03    -55.0105E-03     159.149E-03
              30     17.0390E-03     68.1193E-03    -2.06000E+06     163.444E+06     110.494E+06    -599.966E+03    -53.6794E-03     108.960E-03    -55.2807E-03     149.467E-03    -60.4432E-03     115.977E-03    -54.9622E-03     158.024E-03
              31     17.0371E-03     69.1767E-03    -1.49319E+06     163.623E+06     111.242E+06    -402.201E+03    -56.2259E-03     111.453E-03    -55.2275E-03     145.609E-03    -62.7721E-03     118.253E-03    -54.9063E-03     153.673E-03
              32     17.0380E-03     70.2423E-03    -2.02939E+06     162.187E+06     110.381E+06    -27.1794E+03    -55.3031E-03     110.566E-03    -55.2626E-03     144.698E-03    -61.8155E-03     117.327E-03    -54.9429E-03     152.791E-03
              33     17.0372E-03     71.2928E-03    -3.27839E+06     161.373E+06     109.127E+06     121.334E+03    -55.5289E-03     110.789E-03    -55.2598E-03     148.560E-03    -62.2415E-03     117.746E-03    -54.9434E-03     156.832E-03
              34     17.0378E-03     72.3667E-03    -4.18880E+06     162.313E+06     109.488E+06    -47.8543E+03    -56.0117E-03     111.289E-03    -55.2771E-03     153.705E-03    -63.0301E-03     118.551E-03    -54.9590E-03     162.093E-03
              35     17.0358E-03     73.4235E-03    -2.79709E+06     163.258E+06     110.710E+06     691.404E+03    -52.2924E-03     107.661E-03    -55.3686E-03     154.788E-03    -59.3516E-03     114.969E-03    -55.0477E-03     163.578E-03
              36     17.0397E-03     74.4668E-03    -1.52027E+06     163.025E+06     110.753E+06     477.912E+03    -52.0207E-03     107.358E-03    -55.3371E-03     148.485E-03    -58.7326E-03     114.322E-03    -55.0175E-03     157.139E-03
              37     17.0360E-03     75.5261E-03    -3.77928E+06     162.498E+06     109.418E+06    -127.057E+03    -56.8889E-03     112.127E-03    -55.2381E-03     146.265E-03    -63.5258E-03     119.010E-03    -54.9211E-03     154.365E-03
              38     17.0374E-03     76.5980E-03    -3.72707E+06     164.790E+06     110.011E+06     295.277E+03    -56.6221E-03     111.881E-03    -55.2584E-03     151.720E-03    -63.5086E-03     119.020E-03    -54.9419E-03     159.918E-03
              39     17.0378E-03     77.6542E-03    -1.79967E+06     166.760E+06     111.234E+06    -147.346E+03    -52.9897E-03     108.316E-03    -55.3268E-03     155.218E-03    -60.0316E-03     115.621E-03    -55.0098E-03     163.903E-03
              40     17.0376E-03     78.7077E-03    -2.75618E+06     165.730E+06     110.616E+06    -169.430E+03    -53.3055E-03     108.643E-03    -55.3377E-03     151.451E-03    -60.2227E-03     115.818E-03    -55.0209E-03     160.126E-03
              41     17.0360E-03     79.7620E-03    -4.23996E+06     163.844E+06     109.288E+06    -11.1155E+03    -55.3626E-03     110.660E-03    -55.2978E-03     148.821E-03    -62.1394E-03     117.687E-03    -54.9828E-03     157.170E-03
              42     17.0382E-03     80.8262E-03    -3.94644E+06     164.076E+06     109.642E+06     139.627E+03    -56.8617E-03     112.118E-03    -55.2562E-03     150.713E-03    -63.7063E-03     119.213E-03    -54.9402E-03     158.953E-03
              43     17.0358E-03     81.8896E-03    -3.46826E+06     166.591E+06     111.187E+06     957.434E+03    -55.8030E-03     111.106E-03    -55.3027E-03     152.921E-03    -62.7694E-03     118.329E-03    -54.9833E-03     161.323E-03
              44     17.0375E-03     82.9482E-03    -1.81534E+06     168.083E+06     111.763E+06     805.935E+03    -52.1230E-03     107.492E-03    -55.3685E-03     154.117E-03    -59.0950E-03     114.730E-03    -55.0508E-03     162.811E-03
              45     17.0385E-03     83.9957E-03    -2.92710E+06     166.770E+06     110.354E+06    -513.724E+03    -53.5446E-03     108.867E-03    -55.3225E-03     151.593E-03    -60.4414E-03     116.026E-03    -55.0083E-03     160.225E-03
              46     17.0350E-03     85.0591E-03    -3.45836E+06     167.794E+06     110.571E+06     1.34089E+06    -56.1365E-03     111.394E-03    -55.2575E-03     150.402E-03    -62.9667E-03     118.487E-03    -54.9429E-03     158.722E-03
              47     17.0408E-03     86.1212E-03    -2.03836E+06     171.552E+06     112.693E+06     657.197E+03    -54.0236E-03     109.292E-03    -55.2686E-03     151.755E-03    -60.8760E-03     116.420E-03    -54.9509E-03     160.177E-03
              48     17.0358E-03     87.1734E-03    -1.75477E+06     172.381E+06     113.036E+06    -249.570E+03    -53.9369E-03     109.223E-03    -55.2858E-03     150.176E-03    -60.7705E-03     116.334E-03    -54.9680E-03     158.695E-03
              49     17.0388E-03     88.2331E-03    -3.15227E+06     171.317E+06     111.871E+06     84.7574E+03    -54.9836E-03     110.252E-03    -55.2686E-03     149.304E-03    -61.7705E-03     117.312E-03    -54.9531E-03     157.677E-03
              50     17.0370E-03     89.2925E-03    -2.69276E+06     171.707E+06     112.218E+06      -1.096E+03    -54.7259E-03     109.977E-03    -55.2508E-03     150.063E-03    -61.5269E-03     117.052E-03    -54.9348E-03     158.432E-03
              51     17.0394E-03     90.3510E-03    -1.96654E+06     173.004E+06     112.990E+06     949.855E+03    -54.2066E-03     109.456E-03    -55.2491E-03     149.579E-03    -60.9970E-03     116.526E-03    -54.9321E-03     158.030E-03
              52     17.0375E-03     91.4073E-03    -4.53613E+06     173.609E+06     112.398E+06     435.353E+03    -54.5217E-03     109.766E-03    -55.2438E-03     149.175E-03    -61.3232E-03     116.841E-03    -54.9270E-03     157.580E-03
              53     17.0386E-03     92.4675E-03    -3.33734E+06     174.640E+06     113.106E+06     107.753E+03    -55.1750E-03     110.381E-03    -55.2059E-03     151.868E-03    -62.0806E-03     117.567E-03    -54.8888E-03     160.244E-03
              54     17.0399E-03     93.5298E-03    -2.29609E+06     175.286E+06     113.889E+06    -97.2820E+03    -53.4863E-03     108.676E-03    -55.1894E-03     153.849E-03    -60.4743E-03     115.948E-03    -54.8708E-03     162.402E-03
              55     17.0405E-03     94.5838E-03    -2.26818E+06     175.276E+06     114.478E+06     648.285E+03    -52.5169E-03     107.661E-03    -55.1440E-03     155.093E-03    -59.5447E-03     114.971E-03    -54.8225E-03     163.816E-03
              56     17.0430E-03     95.6369E-03    -2.78511E+06     175.925E+06     115.466E+06     213.762E+03    -54.6201E-03     109.629E-03    -55.0092E-03     154.398E-03    -61.6159E-03     116.905E-03    -54.6829E-03     162.886E-03
              57     17.0430E-03     96.7036E-03    -2.53748E+06     176.559E+06     116.357E+06     268.601E+03    -54.8954E-03     109.808E-03    -54.9127E-03     154.653E-03    -61.9052E-03     117.098E-03    -54.5832E-03     163.074E-03
              58     17.0467E-03     97.7553E-03    -2.88410E+06     176.853E+06     116.453E+06     647.709E+03    -52.9634E-03     107.803E-03    -54.8396E-03     153.376E-03    -59.8996E-03     115.019E-03    -54.5096E-03     161.991E-03
              59     17.0474E-03     98.8093E-03    -3.30007E+06     177.003E+06     116.679E+06     1.02707E+06    -53.1506E-03     107.834E-03    -54.6832E-03     149.248E-03    -59.8813E-03     114.843E-03    -54.3516E-03     157.764E-03
              60     17.0521E-03     99.8639E-03    -4.91506E+06     177.508E+06     117.165E+06     1.39079E+06    -54.8709E-03     109.324E-03    -54.4528E-03     146.380E-03    -61.4422E-03     116.168E-03    -54.1172E-03     154.599E-03
              61     17.0544E-03     100.924E-03    -2.97001E+06     178.476E+06     118.290E+06     1.26707E+06    -54.8775E-03     109.066E-03    -54.1882E-03     147.400E-03    -61.4577E-03     115.926E-03    -53.8512E-03     155.562E-03
              62     17.0629E-03     101.985E-03    -4.95811E+06     176.853E+06     116.697E+06    -1.11300E+06    -55.7328E-03     109.591E-03    -53.8585E-03     154.238E-03    -62.6443E-03     116.775E-03    -53.5243E-03     162.576E-03
              63     17.0644E-03     103.049E-03    -2.36451E+06     175.254E+06     117.743E+06     301.601E+03    -56.7683E-03     110.285E-03    -53.5162E-03     157.659E-03    -63.8546E-03     117.643E-03    -53.1782E-03     166.075E-03
              64     17.0744E-03     104.107E-03    -1.44314E+06     173.438E+06     118.807E+06    -41.3122E+03    -56.2280E-03     109.391E-03    -53.1633E-03     156.411E-03    -63.2529E-03     116.682E-03    -52.8186E-03     164.854E-03
              65     17.0777E-03     105.157E-03    -1.38906E+06     169.953E+06     119.781E+06    -640.556E+03    -61.3110E-03     114.031E-03    -52.7199E-03     150.845E-03    -68.1309E-03     121.102E-03    -52.3654E-03     158.852E-03
              66     17.0823E-03     106.231E-03    -4.87425E+06     167.697E+06     120.061E+06    -187.062E+03    -67.6468E-03     119.969E-03    -52.3219E-03     147.216E-03    -74.3703E-03     126.922E-03    -51.9577E-03     154.584E-03
              67     17.0859E-03     107.302E-03    -1.36026E+06     165.345E+06     120.947E+06    -573.271E+03    -70.5356E-03     122.570E-03    -52.0347E-03     147.252E-03    -77.2723E-03     129.538E-03    -51.6677E-03     154.368E-03
              68     17.0885E-03     108.375E-03    -5.08280E+06     159.880E+06     117.634E+06    -2.14618E+06    -75.7926E-03     127.531E-03    -51.7387E-03     146.128E-03    -82.4998E-03     134.447E-03    -51.3750E-03     152.773E-03
              69     17.0903E-03     109.457E-03     633.767E+03     154.795E+06     116.726E+06    -219.556E+03    -82.9683E-03     134.378E-03    -51.4096E-03     144.072E-03    -89.5052E-03     141.128E-03    -51.0513E-03     149.893E-03
              70     17.0937E-03     110.545E-03    -6.00815E+06     148.173E+06     114.841E+06    -3.12878E+06    -91.2495E-03     142.327E-03    -51.0774E-03     143.914E-03    -97.7756E-03     149.025E-03    -50.7093E-03     148.778E-03
              71     17.0942E-03     111.647E-03    -1.22746E+06     140.642E+06     116.117E+06    -1.87283E+06    -102.447E-03     153.143E-03    -50.6954E-03     152.202E-03    -109.361E-03     160.218E-03    -50.3170E-03     156.088E-03
              72     17.0983E-03     112.773E-03    -8.87166E+06     131.315E+06     111.850E+06    -5.16423E+06    -112.724E-03     163.042E-03    -50.3173E-03     167.769E-03    -120.448E-03     170.882E-03    -49.9356E-03     170.593E-03
              73     17.0997E-03     113.902E-03    -101.258E+03     121.661E+06     113.156E+06    -3.17577E+06    -120.577E-03     170.568E-03    -49.9919E-03     186.621E-03    -129.251E-03     179.352E-03    -49.6023E-03     188.573E-03
              74     17.1044E-03     115.040E-03    -5.92858E+06     107.359E+06     111.037E+06    -5.00117E+06    -130.098E-03     179.783E-03    -49.6852E-03     203.971E-03    -139.849E-03     189.578E-03    -49.2771E-03     204.546E-03
              75     17.1018E-03     116.187E-03     3.19315E+06     101.533E+06     117.206E+06     855.459E+03    -140.213E-03     189.647E-03    -49.4339E-03     220.822E-03    -150.927E-03     200.400E-03    -48.9997E-03     219.509E-03
              76     17.1068E-03     117.347E-03    -2.40588E+06     90.4202E+06     117.971E+06       -904.E+03    -156.457E-03     205.678E-03    -49.2207E-03     247.837E-03    -168.714E-03     217.923E-03    -48.7585E-03     243.753E-03
              77     17.0943E-03     118.545E-03     3.68338E+06     85.3647E+06     121.164E+06     11.6370E+06    -166.514E-03     215.651E-03    -49.1377E-03     282.523E-03    -181.318E-03     230.440E-03    -48.6609E-03     275.105E-03
              78     17.1100E-03     119.724E-03    -15.9311E+06     36.1329E+06     91.6963E+06    -2.43944E+06    -158.329E-03     207.542E-03    -49.2134E-03     337.129E-03    -177.008E-03     226.047E-03    -48.7842E-03     327.076E-03
              79     17.1053E-03     120.905E-03    -34.1975E+06    -4.03169E+06     44.0405E+06    -38.6648E+06    -137.984E-03     187.612E-03    -49.6278E-03     413.026E-03    -157.751E-03     207.142E-03    -49.3522E-03     403.575E-03
              80     17.1168E-03     122.028E-03     16.4831E+06    -3.98784E+06     22.6386E+06    -27.1824E+06    -62.9487E-03     115.235E-03    -52.2866E-03     433.043E-03    -74.3333E-03     126.679E-03    -52.1915E-03     429.758E-03
              81     17.0463E-03     122.862E-03     13.7994E+06     -19.147E+03     50.6939E+06     13.4755E+06     23.3144E-03     38.1969E-03    -61.5113E-03     259.363E-03     20.9493E-03     40.3748E-03    -61.2778E-03     260.213E-03
              82     16.6439E-03     123.693E-03     13.4522E+06     6.23447E+06     46.6470E+06     17.7215E+06     46.7225E-03     32.3889E-03    -79.1113E-03     53.1211E-03     46.7071E-03     32.3178E-03    -78.9067E-03     53.3478E-03
              83     15.3878E-03     124.232E-03    -16.3945E+06    -3.89984E+06     3.84985E+06     9.57235E+06     40.9687E-03     49.8942E-03    -90.8629E-03     10.5365E-03     40.9266E-03     49.9330E-03    -90.8142E-03     10.6598E-03
              84     14.5620E-03     123.824E-03    -14.3462E+06     36.0335E+06     65.3525E+06    -2.04583E+06     12.0561E-03     79.9235E-03    -91.9796E-03     8.56900E-03     11.7966E-03     79.9908E-03    -91.6843E-03     8.52187E-03
              85     13.7636E-03     123.406E-03    -20.3578E+06    -13.2964E+06     81.9244E+06    -13.7382E+06    -29.2168E-03     119.725E-03    -90.5086E-03    -36.0951E-03    -29.4451E-03     119.511E-03    -90.0502E-03    -36.4072E-03
              86     13.0061E-03     123.031E-03    -11.8055E+06    -9.93927E+06     69.7637E+06    -12.4054E+06    -52.8079E-03     139.615E-03    -86.8067E-03    -84.6523E-03    -52.9854E-03     139.349E-03    -86.4263E-03    -85.1000E-03
              87     12.2663E-03     122.707E-03     788.418E+03    -8.49786E+06     68.2785E+06    -15.4939E+06    -64.7609E-03     147.418E-03    -82.6576E-03    -100.661E-03    -64.8530E-03     147.126E-03    -82.3050E-03    -101.231E-03
              88     11.4990E-03     122.444E-03     6.13195E+06    -13.5295E+06     76.1474E+06    -4.20675E+06    -72.5464E-03     151.428E-03    -78.8813E-03    -99.1822E-03    -72.5982E-03     151.110E-03    -78.4898E-03    -99.6223E-03
              89     10.7316E-03     122.215E-03     20.2000E+06     505.418E+03     83.8507E+06    -9.99652E+06    -76.1978E-03     151.672E-03    -75.4742E-03    -87.7553E-03    -76.2177E-03     151.416E-03    -75.0850E-03    -88.2255E-03
              90     9.94422E-03     122.027E-03     25.2170E+06    -11.5754E+06     82.9076E+06    -1.51712E+06    -77.1555E-03     149.660E-03    -72.5047E-03    -73.8357E-03    -77.1326E-03     149.371E-03    -72.1099E-03    -74.1306E-03
              91     9.14773E-03     121.865E-03     28.7297E+06     5.15725E+06     85.1714E+06    -2.46418E+06    -76.9261E-03     146.785E-03    -69.8589E-03    -62.5206E-03    -76.9156E-03     146.591E-03    -69.4822E-03    -62.7761E-03
              92     8.34099E-03     121.729E-03     31.9970E+06    -4.52416E+06     77.9041E+06    -1.80326E+06    -75.4346E-03     142.895E-03    -67.4601E-03    -52.5079E-03    -75.3847E-03     142.673E-03    -67.1105E-03    -52.7138E-03
              93     7.52767E-03     121.613E-03     34.9545E+06     694.829E+03     74.5787E+06    -1.22837E+06    -73.1051E-03     138.403E-03    -65.2981E-03    -43.5857E-03    -73.0448E-03     138.217E-03    -64.9768E-03    -43.7491E-03
              94     6.70713E-03     121.515E-03     36.3606E+06    -733.392E+03     69.1000E+06    -253.788E+03    -70.1703E-03     133.553E-03    -63.3824E-03    -35.6508E-03    -70.0936E-03     133.373E-03    -63.0886E-03    -35.7705E-03
              95     5.88058E-03     121.431E-03     37.4763E+06     1.61907E+06     67.5136E+06    -1.21233E+06    -67.0734E-03     128.817E-03    -61.7434E-03    -29.0065E-03    -66.9925E-03     128.655E-03    -61.4626E-03    -29.1139E-03
              96     5.04867E-03     121.363E-03     38.5446E+06    -1.48375E+06     61.9661E+06    -1.04236E+06    -64.2915E-03     124.643E-03    -60.3513E-03    -23.5176E-03    -64.1930E-03     124.476E-03    -60.0953E-03    -23.6034E-03
              97     4.21283E-03     121.306E-03     39.5316E+06     1.48520E+06     56.0423E+06    -1.31370E+06    -61.8659E-03     121.062E-03    -59.1956E-03    -18.7551E-03    -61.7585E-03     120.919E-03    -58.9749E-03    -18.8281E-03
              98     3.37378E-03     121.261E-03      40.602E+06    -915.044E+03     51.6520E+06    -1.45084E+06    -59.8108E-03     118.118E-03    -58.3074E-03    -14.5565E-03    -59.6882E-03     117.970E-03    -58.1067E-03    -14.6174E-03
              99     2.53173E-03     121.226E-03     41.8215E+06     637.520E+03     48.8701E+06    -1.76771E+06    -58.2479E-03     115.937E-03    -57.6887E-03    -11.0761E-03    -58.1174E-03     115.800E-03    -57.5059E-03    -11.1297E-03
             100     1.68807E-03     121.201E-03     43.0595E+06    -969.303E+03     45.3164E+06    -1.89314E+06    -57.1191E-03     114.530E-03    -57.4110E-03    -8.11760E-03    -56.9751E-03     114.389E-03    -57.2454E-03    -8.16302E-03
             101     842.543E-06     121.185E-03     43.9688E+06    -823.758E+03     43.4394E+06    -2.09701E+06    -57.0336E-03     114.600E-03    -57.5660E-03    -5.57806E-03    -56.8845E-03     114.459E-03    -57.4114E-03    -5.61886E-03
             102    -945.613E-09     120.114E-03     35.2556E+06    -3.80360E+06     35.3212E+06    -795.584E+03    -50.6950E-03     101.783E-03    -51.0884E-03    -1.84080E-03    -50.5718E-03     101.655E-03    -50.9574E-03    -1.85981E-03
             103     570.259E-09     119.081E-03     15.6605E+06    -9.45727E+06     15.7276E+06    -1.46711E+06    -39.6001E-03     79.3754E-03    -39.7754E-03     1.02954E-03    -39.5339E-03     79.2797E-03    -39.7057E-03     1.00443E-03
             104    -461.001E-09     118.063E-03    -8.33158E+06    -17.8956E+06    -8.42059E+06    -2.09075E+06    -32.0290E-03     64.0382E-03    -32.0092E-03     1.91391E-03    -32.0341E-03     63.9717E-03    -32.0133E-03     1.88176E-03
             105     399.723E-09     117.059E-03    -35.3881E+06    -26.6523E+06    -33.6476E+06    -3.29470E+06    -26.7326E-03     53.4901E-03    -26.7574E-03     3.01108E-03    -26.8227E-03     53.4566E-03    -26.8357E-03     2.96543E-03
             106    -358.830E-09     116.063E-03    -60.1784E+06    -38.8218E+06    -60.5060E+06    -3.80090E+06    -23.4925E-03     46.9269E-03    -23.4344E-03     4.01626E-03    -23.6495E-03     46.9078E-03    -23.5934E-03     3.96563E-03
             107     411.330E-09     115.072E-03    -93.0434E+06    -53.5388E+06    -91.8924E+06    -4.56971E+06    -21.9229E-03     43.7457E-03    -21.8228E-03     4.74296E-03    -22.1771E-03     43.7464E-03    -22.0697E-03     4.68349E-03
             108    -284.485E-09     114.082E-03    -123.983E+06    -69.5065E+06    -124.621E+06    -4.67474E+06    -21.7810E-03     43.4537E-03    -21.6727E-03     5.15064E-03    -22.1193E-03     43.4668E-03    -22.0152E-03     5.09059E-03
             109     329.272E-09     113.092E-03    -119.686E+06    -72.1172E+06    -122.170E+06     2.47396E+06    -22.9504E-03     45.8721E-03    -22.9217E-03     5.53163E-03    -23.2671E-03     45.8623E-03    -23.2544E-03     5.56438E-03
             110    -364.672E-09     112.097E-03    -78.2054E+06    -49.3583E+06    -80.0932E+06     10.8989E+06    -25.4246E-03     50.8263E-03    -25.4017E-03     5.96390E-03    -25.6281E-03     50.8088E-03    -25.6172E-03     6.10575E-03
             111     404.831E-09     111.096E-03    -48.6552E+06    -16.9696E+06    -44.7338E+06     8.05339E+06    -28.8433E-03     57.5747E-03    -28.7314E-03     6.43294E-03    -28.9975E-03     57.6249E-03    -28.8599E-03     6.53781E-03
             112    -219.745E-09     110.088E-03    -32.9744E+06    -4.99519E+06    -31.7364E+06    -779.024E+03    -32.5876E-03     65.0380E-03    -32.4503E-03     6.69774E-03    -32.6997E-03     65.1065E-03    -32.5540E-03     6.68774E-03
             113     272.901E-09     109.072E-03    -20.8362E+06    -9.31978E+06    -21.2821E+06    -1.88622E+06    -36.3021E-03     72.4976E-03    -36.1955E-03     6.78778E-03    -36.3623E-03     72.5117E-03    -36.2582E-03     6.76244E-03
             114    -162.175E-09     108.049E-03    -12.1728E+06    -16.7098E+06    -11.6483E+06    -2.38521E+06    -39.8645E-03     79.6333E-03    -39.7689E-03     6.79299E-03    -39.8846E-03     79.5841E-03    -39.7852E-03     6.75971E-03
             115     206.125E-09     107.018E-03    -10.3690E+06    -27.3819E+06    -10.2844E+06    -3.47283E+06    -43.0927E-03     86.0834E-03    -42.9908E-03     6.78871E-03    -43.0903E-03     85.9764E-03    -42.9874E-03     6.73943E-03
             116    -91.1547E-09     105.981E-03    -13.1281E+06    -41.9239E+06    -12.8513E+06    -4.54773E+06    -45.8478E-03     91.6547E-03    -45.8069E-03     6.72167E-03    -45.8343E-03     91.4829E-03    -45.7914E-03     6.65601E-03
             117     31.6258E-09     104.939E-03    -14.5189E+06    -56.4277E+06    -15.7312E+06    -3.43063E+06    -48.2143E-03     96.3527E-03    -48.1384E-03     6.58551E-03    -48.1826E-03     96.1147E-03    -48.1142E-03     6.53201E-03
             118     126.327E-09     103.893E-03    -18.9244E+06    -67.4590E+06    -18.5789E+06    -2.57624E+06    -50.1142E-03     100.129E-03    -50.0146E-03     6.49587E-03    -50.0844E-03     99.8463E-03    -49.9823E-03     6.45157E-03
             119    -128.114E-09     102.843E-03    -21.7142E+06    -77.9525E+06    -22.0221E+06    -2.90741E+06    -51.5564E-03     103.039E-03    -51.4825E-03     6.37345E-03    -51.5202E-03     102.713E-03    -51.4481E-03     6.32283E-03
             120     234.790E-09     101.791E-03    -25.9580E+06    -89.2177E+06    -25.7365E+06    -3.13793E+06    -52.6529E-03     105.270E-03    -52.6168E-03     6.22536E-03    -52.6163E-03     104.899E-03    -52.5785E-03     6.16948E-03
             121    -294.597E-09     100.737E-03    -28.8746E+06    -100.311E+06    -29.4918E+06    -3.07155E+06    -53.4301E-03     106.982E-03    -53.5519E-03     6.00856E-03    -53.3865E-03     106.566E-03    -53.5121E-03     5.95202E-03
             122     123.635E-09     99.6814E-03    -33.5322E+06    -110.663E+06    -33.4997E+06    -2.76188E+06    -54.1201E-03     108.283E-03    -54.1632E-03     5.91238E-03    -54.0790E-03     107.828E-03    -54.1216E-03     5.85899E-03
             123    -41.6162E-09     98.6246E-03    -37.7699E+06    -120.194E+06    -38.0287E+06    -2.34356E+06    -54.6757E-03     109.171E-03    -54.4955E-03     5.92012E-03    -54.6354E-03     108.681E-03    -54.4566E-03     5.87189E-03
             124     247.928E-09     97.5671E-03    -41.9717E+06    -127.761E+06    -41.8763E+06    -1.80016E+06    -54.9924E-03     109.788E-03    -54.7957E-03     5.91535E-03    -54.9566E-03     109.271E-03    -54.7590E-03     5.87369E-03
             125    -133.873E-09     96.5092E-03    -45.4825E+06    -134.003E+06    -45.8036E+06    -1.50531E+06    -55.1102E-03     110.217E-03    -55.1071E-03     5.90326E-03    -55.0772E-03     109.680E-03    -55.0759E-03     5.86460E-03
             126     5.71206E-09     95.4505E-03    -49.4150E+06    -139.363E+06    -49.4175E+06    -1.25538E+06    -55.2147E-03     110.425E-03    -55.2099E-03     5.97269E-03    -55.1883E-03     109.872E-03    -55.1833E-03     5.93743E-03
             127     114.209E-09     94.3920E-03    -51.6427E+06    -144.394E+06    -51.8192E+06    -1.24422E+06    -55.3283E-03     110.533E-03    -55.2050E-03     6.00710E-03    -55.3023E-03     109.962E-03    -55.1798E-03     5.97163E-03
             128    -42.5082E-09     93.3339E-03    -52.9663E+06    -148.628E+06    -52.8162E+06    -1.06995E+06    -55.3201E-03     110.642E-03    -55.3215E-03     5.81902E-03    -55.2932E-03     110.053E-03    -55.2933E-03     5.78565E-03
             129    -45.4191E-09     92.2750E-03    -52.7924E+06    -152.232E+06    -52.8904E+06    -1.06183E+06    -55.3797E-03     110.720E-03    -55.3399E-03     5.72567E-03    -55.3465E-03     110.112E-03    -55.3071E-03     5.69259E-03
             130     185.066E-09     91.2165E-03    -53.8785E+06    -155.441E+06    -53.8192E+06    -765.159E+03    -55.4714E-03     110.747E-03    -55.2753E-03     5.80527E-03    -55.4377E-03     110.126E-03    -55.2409E-03     5.77570E-03
             131    -5.53354E-09     90.1577E-03    -55.0712E+06    -157.323E+06    -55.2669E+06    -293.761E+03    -55.4926E-03     110.790E-03    -55.2978E-03     5.83277E-03    -55.4600E-03     110.164E-03    -55.2661E-03     5.80927E-03
             132     140.117E-09     89.0990E-03    -54.8688E+06    -157.438E+06    -54.8552E+06     162.959E+03    -55.4603E-03     110.794E-03    -55.3334E-03     5.91663E-03    -55.4271E-03     110.166E-03    -55.2998E-03     5.89941E-03
             133    -74.5358E-09     88.0400E-03    -54.0708E+06    -158.351E+06    -53.9334E+06    -603.979E+03    -55.3791E-03     110.713E-03    -55.3341E-03     5.96494E-03    -55.3419E-03     110.079E-03    -55.2957E-03     5.93793E-03
             134     70.8373E-09     86.9819E-03    -52.6778E+06    -162.235E+06    -52.8027E+06    -1.22067E+06    -55.3661E-03     110.711E-03    -55.3447E-03     5.80053E-03    -55.3179E-03     110.053E-03    -55.2971E-03     5.76480E-03
             135    -47.4639E-09     85.9233E-03    -51.7273E+06    -165.504E+06    -51.6094E+06    -1.04465E+06    -55.4074E-03     110.760E-03    -55.3527E-03     5.70279E-03    -55.3515E-03     110.083E-03    -55.2957E-03     5.66918E-03
             136     103.841E-09     84.8645E-03    -52.2810E+06    -168.008E+06    -52.6883E+06    -423.514E+03    -55.4065E-03     110.756E-03    -55.3498E-03     5.84865E-03    -55.3481E-03     110.069E-03    -55.2938E-03     5.82379E-03
             137    -83.8399E-09     83.8059E-03    -52.2640E+06    -169.074E+06    -52.1735E+06     112.456E+03    -55.3631E-03     110.729E-03    -55.3655E-03     5.85745E-03    -55.3039E-03     110.035E-03    -55.3055E-03     5.83994E-03
             138     44.9559E-09     82.7474E-03    -51.7470E+06    -169.180E+06    -51.7823E+06    -25.4331E+03    -55.3417E-03     110.669E-03    -55.3274E-03     5.80218E-03    -55.2803E-03     109.974E-03    -55.2659E-03     5.78266E-03
             139     2.51680E-09     81.6889E-03    -50.9292E+06    -168.960E+06    -51.1795E+06     141.736E+03    -55.3550E-03     110.651E-03    -55.2960E-03     5.78622E-03    -55.2907E-03     109.955E-03    -55.2331E-03     5.76875E-03
             140     32.3749E-09     80.6306E-03    -50.6841E+06    -168.500E+06    -50.3998E+06    -18.9294E+03    -55.3783E-03     110.672E-03    -55.2939E-03     5.76404E-03    -55.3146E-03     109.977E-03    -55.2281E-03     5.74447E-03
             141     64.2592E-09     79.5718E-03    -50.4937E+06    -168.453E+06    -50.6055E+06    -6.86736E+03    -55.4071E-03     110.664E-03    -55.2567E-03     5.82868E-03    -55.3422E-03     109.969E-03    -55.1923E-03     5.80915E-03
             142     78.4096E-09     78.5135E-03    -50.6143E+06    -168.356E+06    -50.4789E+06    -9.68497E+03    -55.3667E-03     110.640E-03    -55.2730E-03     5.95687E-03    -55.3028E-03     109.945E-03    -55.2079E-03     5.93733E-03
             143    -76.3034E-09     77.4547E-03    -50.5092E+06    -168.418E+06    -50.6869E+06     14.1145E+03    -55.3711E-03     110.602E-03    -55.2305E-03     5.93211E-03    -55.3063E-03     109.907E-03    -55.1665E-03     5.91274E-03
             144     295.607E-09     76.3967E-03    -50.2740E+06    -168.015E+06    -50.0557E+06     279.186E+03    -55.3611E-03     110.532E-03    -55.1713E-03     5.91695E-03    -55.2965E-03     109.838E-03    -55.1051E-03     5.90095E-03
             145    -205.337E-09     75.3381E-03    -49.5678E+06    -167.366E+06    -49.4786E+06    -139.847E+03    -55.2409E-03     110.496E-03    -55.2556E-03     5.89760E-03    -55.1746E-03     109.804E-03    -55.1884E-03     5.87602E-03
             146     75.1381E-09     74.2801E-03    -49.2967E+06    -167.359E+06    -49.6925E+06     60.6122E+03    -55.2668E-03     110.513E-03    -55.2457E-03     5.84113E-03    -55.1989E-03     109.820E-03    -55.1800E-03     5.82250E-03
             147     71.0150E-09     73.2213E-03    -49.0666E+06    -166.753E+06    -48.9123E+06     362.549E+03    -55.3482E-03     110.530E-03    -55.1821E-03     5.85909E-03    -55.2811E-03     109.839E-03    -55.1137E-03     5.84471E-03
             148     51.6198E-09     72.1635E-03    -48.6525E+06    -166.303E+06    -48.6670E+06     10.9350E+03    -55.3239E-03     110.540E-03    -55.2161E-03     5.76626E-03    -55.2558E-03     109.850E-03    -55.1477E-03     5.74725E-03
             149    -5.93120E-09     71.1047E-03    -48.6981E+06    -166.333E+06    -48.7133E+06    -101.438E+03    -55.2926E-03     110.570E-03    -55.2775E-03     5.72870E-03    -55.2246E-03     109.880E-03    -55.2093E-03     5.70775E-03
             150    -29.1852E-09     70.0467E-03    -48.4224E+06    -166.031E+06    -48.3672E+06    -29.9743E+03    -55.3032E-03     110.610E-03    -55.3067E-03     5.76883E-03    -55.2347E-03     109.921E-03    -55.2375E-03     5.74885E-03
             151     43.7429E-09     68.9876E-03    -48.7208E+06    -166.237E+06    -48.7660E+06    -189.556E+03    -55.3386E-03     110.639E-03    -55.3001E-03     5.83866E-03    -55.2708E-03     109.950E-03    -55.2323E-03     5.81677E-03
             152    -8.89541E-09     67.9298E-03    -48.7826E+06    -166.229E+06    -48.8922E+06     186.604E+03    -55.3869E-03     110.693E-03    -55.3061E-03     5.86952E-03    -55.3191E-03     110.004E-03    -55.2388E-03     5.85245E-03
             153     94.5790E-09     66.8704E-03    -48.4762E+06    -165.742E+06    -48.3204E+06     132.804E+03    -55.4158E-03     110.701E-03    -55.2856E-03     5.90614E-03    -55.3480E-03     110.014E-03    -55.2166E-03     5.88858E-03
             154     27.0957E-09     65.8126E-03    -48.3048E+06    -165.756E+06    -48.4182E+06    -80.8325E+03    -55.3368E-03     110.618E-03    -55.2816E-03     5.87990E-03    -55.2680E-03     109.930E-03    -55.2133E-03     5.85946E-03
             155    -72.0175E-09     64.7538E-03    -48.3420E+06    -165.734E+06    -48.3240E+06     71.8665E+03    -55.3059E-03     110.568E-03    -55.2619E-03     5.79104E-03    -55.2375E-03     109.880E-03    -55.1931E-03     5.77256E-03
             156     176.619E-09     63.6958E-03    -48.4025E+06    -165.573E+06    -48.4031E+06    -230.671E+03    -55.3490E-03     110.579E-03    -55.2301E-03     5.79252E-03    -55.2811E-03     109.892E-03    -55.1619E-03     5.76966E-03
             157    -94.0557E-09     62.6371E-03    -48.6120E+06    -165.752E+06    -48.6830E+06    -56.7599E+03    -55.3324E-03     110.626E-03    -55.2940E-03     5.82198E-03    -55.2648E-03     109.939E-03    -55.2266E-03     5.80144E-03
             158     60.5207E-09     61.5787E-03    -48.5365E+06    -165.838E+06    -48.5325E+06     15.1476E+03    -55.2963E-03     110.624E-03    -55.3277E-03     5.79935E-03    -55.2285E-03     109.936E-03    -55.2595E-03     5.78031E-03
             159     236.371E-09     59.4619E-03    -48.2121E+06    -165.528E+06    -48.0920E+06     31.0438E+03    -55.3723E-03     110.621E-03    -55.2483E-03     5.80105E-03    -55.3039E-03     109.933E-03    -55.1789E-03     5.78226E-03
             160    -179.972E-09     58.4032E-03    -48.0301E+06    -165.519E+06    -48.2419E+06     56.1262E+03    -55.3047E-03     110.619E-03    -55.3146E-03     5.90889E-03    -55.2352E-03     109.932E-03    -55.2462E-03     5.89036E-03
             161     88.3214E-09     57.3448E-03    -48.0651E+06    -165.327E+06    -47.8326E+06     48.2220E+03    -55.2672E-03     110.541E-03    -55.2733E-03     5.75945E-03    -55.1987E-03     109.854E-03    -55.2031E-03     5.74108E-03
             162    -19.7672E-09     56.2868E-03    -48.0159E+06    -165.329E+06    -48.1152E+06    -88.7039E+03    -55.2854E-03     110.500E-03    -55.2144E-03     5.64027E-03    -55.2163E-03     109.813E-03    -55.1456E-03     5.62005E-03
             163     56.4941E-09     55.2283E-03    -47.9495E+06    -165.130E+06    -47.9966E+06     5.46058E+03    -55.3204E-03     110.567E-03    -55.2470E-03     5.69507E-03    -55.2514E-03     109.881E-03    -55.1780E-03     5.67577E-03
             164     16.3426E-09     54.1697E-03    -47.7352E+06    -164.991E+06    -47.7507E+06     94.6522E+03    -55.3302E-03     110.582E-03    -55.2515E-03     5.90662E-03    -55.2607E-03     109.896E-03    -55.1818E-03     5.88834E-03
             165     28.5490E-09     53.1111E-03    -47.2310E+06    -164.414E+06    -47.0701E+06     124.523E+03    -55.3025E-03     110.510E-03    -55.2077E-03     5.97081E-03    -55.2323E-03     109.826E-03    -55.1362E-03     5.95294E-03
             166     73.3580E-09     52.0531E-03    -47.4164E+06    -164.481E+06    -47.3278E+06    -223.661E+03    -55.2658E-03     110.408E-03    -55.1420E-03     5.89691E-03    -55.1960E-03     109.723E-03    -55.0714E-03     5.87445E-03
             167     20.6041E-09     50.9948E-03    -47.7278E+06    -164.997E+06    -47.9977E+06    -86.8231E+03    -55.2129E-03     110.330E-03    -55.1174E-03     5.77832E-03    -55.1430E-03     109.645E-03    -55.0489E-03     5.75756E-03
             168     29.9266E-09     49.9370E-03    -48.1285E+06    -165.187E+06    -48.1715E+06     54.6508E+03    -55.1549E-03     110.309E-03    -55.1537E-03     5.76085E-03    -55.0865E-03     109.623E-03    -55.0853E-03     5.74218E-03
             169    -94.1209E-09     48.8784E-03    -47.6692E+06    -164.650E+06    -47.6815E+06     22.6370E+03    -55.1521E-03     110.304E-03    -55.1522E-03     5.76690E-03    -55.0829E-03     109.620E-03    -55.0827E-03     5.74799E-03
             170     142.763E-09     47.8208E-03    -47.6976E+06    -164.729E+06    -47.6229E+06    -22.0802E+03    -55.1752E-03     110.239E-03    -55.0634E-03     5.77942E-03    -55.1060E-03     109.554E-03    -54.9935E-03     5.75978E-03
             171    -15.4730E-09     46.7621E-03    -47.7273E+06    -164.677E+06    -47.7525E+06     107.526E+03    -55.1199E-03     110.101E-03    -54.9814E-03     5.82788E-03    -55.0508E-03     109.417E-03    -54.9122E-03     5.81005E-03
             172     108.236E-09     45.7051E-03    -48.1570E+06    -164.902E+06    -47.9913E+06    -74.9656E+03    -55.0540E-03     109.991E-03    -54.9371E-03     5.79147E-03    -54.9864E-03     109.307E-03    -54.8682E-03     5.77126E-03
             173    -15.4396E-09     44.6465E-03    -47.7669E+06    -164.728E+06    -47.8886E+06     80.2307E+03    -54.9913E-03     109.869E-03    -54.8774E-03     5.77775E-03    -54.9221E-03     109.184E-03    -54.8087E-03     5.75980E-03
             174     100.012E-09     43.5896E-03    -47.3809E+06    -164.386E+06    -47.2757E+06     331.016E+03    -54.8826E-03     109.655E-03    -54.7723E-03     5.82896E-03    -54.8129E-03     108.971E-03    -54.7016E-03     5.81493E-03
             175    -11.0956E-09     42.5316E-03    -47.0153E+06    -163.960E+06    -47.0335E+06     126.362E+03    -54.7119E-03     109.395E-03    -54.6833E-03     5.71474E-03    -54.6413E-03     108.712E-03    -54.6126E-03     5.69829E-03
             176    -44.3563E-09     41.4758E-03    -47.1093E+06    -163.843E+06    -47.1532E+06    -96.7529E+03    -54.5739E-03     109.184E-03    -54.6099E-03     5.52392E-03    -54.5038E-03     108.502E-03    -54.5398E-03     5.50443E-03
             177     24.0574E-09     40.4177E-03    -46.9906E+06    -163.686E+06    -47.1191E+06    -193.691E+03    -54.5098E-03     109.000E-03    -54.4898E-03     5.48187E-03    -54.4393E-03     108.318E-03    -54.4199E-03     5.46078E-03
             178     15.1953E-09     39.3623E-03    -47.3900E+06    -163.988E+06    -47.4570E+06    -3.34519E+03    -54.3787E-03     108.691E-03    -54.3126E-03     5.45842E-03    -54.3093E-03     108.009E-03    -54.2434E-03     5.43999E-03
             179     43.8015E-09     38.3048E-03    -47.3889E+06    -163.880E+06    -47.3554E+06     94.4363E+03    -54.2355E-03     108.346E-03    -54.1105E-03     5.54305E-03    -54.1663E-03     107.665E-03    -54.0410E-03     5.52602E-03
             180     96.4430E-09     37.2501E-03    -47.3849E+06    -163.622E+06    -47.2765E+06    -100.999E+03    -54.0527E-03     107.974E-03    -53.9215E-03     5.51319E-03    -53.9841E-03     107.294E-03    -53.8519E-03     5.49343E-03
             181    -25.6637E-09     36.1936E-03    -47.5381E+06    -163.686E+06    -47.5794E+06    -39.8952E+03    -53.7833E-03     107.518E-03    -53.7346E-03     5.46113E-03    -53.7149E-03     106.838E-03    -53.6662E-03     5.44261E-03
             182     23.8465E-09     35.1397E-03    -47.6286E+06    -163.649E+06    -47.6730E+06     50.9651E+03    -53.5104E-03     106.998E-03    -53.4871E-03     5.35540E-03    -53.4424E-03     106.318E-03    -53.4191E-03     5.33835E-03
             183     4.14804E-09     34.0844E-03    -47.6463E+06    -163.665E+06    -47.7048E+06     111.473E+03    -53.2325E-03     106.401E-03    -53.1686E-03     5.32185E-03    -53.1644E-03     105.722E-03    -53.1007E-03     5.30598E-03
             184     63.2859E-09     33.0316E-03    -47.2605E+06    -163.095E+06    -47.2426E+06    -2.80761E+03    -52.9158E-03     105.753E-03    -52.8371E-03     5.21349E-03    -52.8473E-03     105.075E-03    -52.7683E-03     5.19623E-03
             185    -8.64336E-09     31.9781E-03    -47.6999E+06    -163.050E+06    -47.5875E+06    -12.5710E+03    -52.5638E-03     105.030E-03    -52.4665E-03     5.09163E-03    -52.4970E-03     104.354E-03    -52.3988E-03     5.07429E-03
             186     109.533E-09     30.9264E-03    -47.9034E+06    -162.906E+06    -47.8940E+06    -132.827E+03    -52.1662E-03     104.221E-03    -52.0552E-03     5.10233E-03    -52.1003E-03     103.546E-03    -51.9890E-03     5.08404E-03
             187    -32.5411E-09     29.8746E-03    -48.2581E+06    -163.004E+06    -48.4006E+06     162.302E+03    -51.6936E-03     103.285E-03    -51.5911E-03     5.03848E-03    -51.6286E-03     102.610E-03    -51.5267E-03     5.02445E-03
             188     117.736E-09     28.8250E-03    -48.1509E+06    -162.453E+06    -48.0079E+06     269.665E+03    -51.1620E-03     102.256E-03    -51.0938E-03     4.91302E-03    -51.0978E-03     101.584E-03    -51.0285E-03     4.90097E-03
             189    -95.7864E-09     27.7756E-03    -47.9486E+06    -161.980E+06    -48.0925E+06     69.2951E+03    -50.6163E-03     101.196E-03    -50.5794E-03     4.75586E-03    -50.5516E-03     100.526E-03    -50.5154E-03     4.74146E-03
             190     125.212E-09     26.7280E-03    -48.3397E+06    -161.823E+06    -48.3347E+06     47.2020E+03    -50.0618E-03     100.046E-03    -49.9840E-03     4.60513E-03    -49.9989E-03     99.3774E-03    -49.9209E-03     4.59087E-03
             191    -30.8860E-09     25.6811E-03    -48.5343E+06    -161.596E+06    -48.6172E+06     84.8496E+03    -49.4142E-03     98.7523E-03    -49.3381E-03     4.48490E-03    -49.3522E-03     98.0857E-03    -49.2765E-03     4.47171E-03
             192     57.0214E-09     24.6361E-03    -48.6032E+06    -160.976E+06    -48.5524E+06     191.319E+03    -48.7593E-03     97.3979E-03    -48.6386E-03     4.30466E-03    -48.6986E-03     96.7343E-03    -48.5775E-03     4.29319E-03
             193     116.002E-09     23.5922E-03    -49.1229E+06    -160.730E+06    -48.8645E+06    -68.2094E+03    -48.1031E-03     96.0397E-03    -47.9366E-03     4.18809E-03    -48.0449E-03     95.3786E-03    -47.8766E-03     4.17379E-03
             194    -8.43431E-09     22.5499E-03    -49.0449E+06    -160.305E+06    -49.1865E+06     63.8823E+03    -47.3051E-03     94.5858E-03    -47.2807E-03     4.01970E-03    -47.2467E-03     93.9271E-03    -47.2230E-03     4.00775E-03
             195    -66.0168E-09     21.5091E-03    -49.2749E+06    -159.791E+06    -49.3813E+06     374.222E+03    -46.4586E-03     92.9405E-03    -46.4820E-03     3.81875E-03    -46.4017E-03     92.2851E-03    -46.4257E-03     3.81175E-03
             196     92.6391E-09     20.4700E-03    -48.6972E+06    -158.284E+06    -48.7218E+06     649.430E+03    -45.6455E-03     91.2285E-03    -45.5830E-03     3.68251E-03    -45.5889E-03     90.5788E-03    -45.5265E-03     3.67993E-03
             197    -18.0245E-09     19.4332E-03    -47.9184E+06    -156.470E+06    -47.9115E+06     610.913E+03    -44.7641E-03     89.4223E-03    -44.6582E-03     3.34671E-03    -44.7074E-03     88.7793E-03    -44.6014E-03     3.34422E-03
             198     121.004E-09     18.3977E-03    -46.8829E+06    -154.251E+06    -46.9525E+06     569.237E+03    -43.7810E-03     87.4064E-03    -43.6254E-03     3.00859E-03    -43.7236E-03     86.7715E-03    -43.5685E-03     3.00621E-03
             199     39.4939E-09     17.3652E-03    -45.9022E+06    -151.836E+06    -45.9935E+06     701.016E+03    -42.7211E-03     85.2405E-03    -42.5194E-03     2.71160E-03    -42.6638E-03     84.6149E-03    -42.4626E-03     2.71172E-03
             200     144.010E-09     16.3340E-03    -44.2740E+06    -148.646E+06    -44.3450E+06     797.947E+03    -41.4972E-03     82.8051E-03    -41.3079E-03     2.41099E-03    -41.4387E-03     82.1906E-03    -41.2499E-03     2.41321E-03
             201    -3.51026E-09     15.3064E-03    -42.4590E+06    -145.329E+06    -42.5606E+06     1.09327E+06    -40.0173E-03     79.8818E-03    -39.8645E-03     2.04689E-03    -39.9572E-03     79.2786E-03    -39.8050E-03     2.05384E-03
             202     125.034E-09     14.2812E-03    -39.8745E+06    -141.029E+06    -40.0607E+06     1.33208E+06    -38.2583E-03     76.4120E-03    -38.1538E-03     1.64489E-03    -38.1951E-03     75.8229E-03    -38.0918E-03     1.65592E-03
             203    -67.6535E-09     13.2608E-03    -37.3130E+06    -136.487E+06    -37.2564E+06     1.30076E+06    -36.2806E-03     72.4626E-03    -36.1820E-03     1.19884E-03    -36.2154E-03     71.8884E-03    -36.1163E-03     1.21015E-03
             204     183.226E-09     12.2437E-03    -34.5469E+06    -132.170E+06    -34.4750E+06     1.13920E+06    -34.2514E-03     68.3268E-03    -34.0753E-03     932.765E-06    -34.1826E-03     67.7661E-03    -34.0060E-03     942.523E-06
             205     9.64809E-09     11.2316E-03    -31.9145E+06    -128.172E+06    -31.8431E+06     923.398E+03    -32.3086E-03     64.4759E-03    -32.1673E-03     876.356E-06    -32.2362E-03     63.9277E-03    -32.0944E-03     883.607E-06
             206     45.3961E-09     10.2223E-03    -30.2740E+06    -125.196E+06    -30.0178E+06     789.869E+03    -30.7568E-03     61.3844E-03    -30.6276E-03     958.723E-06    -30.6831E-03     60.8461E-03    -30.5522E-03     964.483E-06
             207     128.365E-09     9.21625E-03    -30.0138E+06    -123.818E+06    -29.4581E+06     12.8442E+03    -29.7960E-03     59.4586E-03    -29.6626E-03     1.17965E-03    -29.7238E-03     58.9261E-03    -29.5869E-03     1.17551E-03
             208    -63.3867E-09     8.21118E-03    -31.2716E+06    -125.104E+06    -30.9113E+06    -511.098E+03    -29.6764E-03     59.3152E-03    -29.6388E-03     1.51818E-03    -29.6065E-03     58.7801E-03    -29.5667E-03     1.50746E-03
             209     67.1138E-09     7.20528E-03    -32.2640E+06    -127.367E+06    -32.0193E+06    -827.625E+03    -30.7197E-03     61.4533E-03    -30.7336E-03     1.99434E-03    -30.6500E-03     60.9099E-03    -30.6622E-03     1.97978E-03
             210    -92.9318E-09     6.19576E-03    -33.0877E+06    -130.410E+06    -32.9064E+06    -823.504E+03    -32.9050E-03     65.8230E-03    -32.9180E-03     2.43083E-03    -32.8339E-03     65.2666E-03    -32.8455E-03     2.41655E-03
             211     98.4730E-09     5.18114E-03    -33.1595E+06    -133.461E+06    -32.9639E+06    -825.047E+03    -36.0190E-03     72.0547E-03    -36.0357E-03     2.68434E-03    -35.9439E-03     71.4831E-03    -35.9589E-03     2.67021E-03
             212    -128.954E-09     4.15898E-03    -31.8741E+06    -135.919E+06    -32.0614E+06    -613.151E+03    -39.6729E-03     79.4043E-03    -39.7314E-03     2.70821E-03    -39.5892E-03     78.8171E-03    -39.6484E-03     2.69689E-03
             213     58.7871E-09     3.12916E-03    -29.9820E+06    -137.706E+06    -30.0632E+06    -433.481E+03    -43.4738E-03     86.9912E-03    -43.5174E-03     2.50690E-03    -43.3808E-03     86.3895E-03    -43.4246E-03     2.49802E-03
             214    -62.2760E-09     2.09147E-03    -28.6191E+06    -139.490E+06    -28.9367E+06    -476.162E+03    -46.8602E-03     93.7522E-03    -46.8920E-03     1.97150E-03    -46.7592E-03     93.1382E-03    -46.7929E-03     1.96254E-03
             215     9.21608E-09     1.04753E-03    -27.5643E+06    -140.379E+06    -28.0212E+06     14.8423E+03    -49.2478E-03     98.4679E-03    -49.2201E-03     1.06428E-03    -49.1412E-03     97.8467E-03    -49.1167E-03     1.06284E-03
             216     855.759E-06     457.967E-18    -27.0815E+06    -140.398E+06    -27.1813E+06     105.142E+03    -50.1162E-03     100.174E-03    -50.0581E-03     927.182E-06    -50.0084E-03     99.5511E-03    -49.9512E-03     927.015E-06
             217     1.71145E-03     457.967E-18    -26.7947E+06    -140.449E+06    -27.5575E+06    -441.624E+03    -50.1141E-03     100.204E-03    -50.0897E-03     1.74129E-03    -50.0045E-03     99.5803E-03    -49.9850E-03     1.73268E-03
             218     2.56727E-03     457.967E-18    -26.1018E+06    -140.354E+06    -28.0040E+06    -830.325E+03    -50.2020E-03     100.308E-03    -50.1056E-03     2.54919E-03    -50.0884E-03     99.6842E-03    -50.0042E-03     2.53408E-03
             219     3.42283E-03     457.967E-18    -25.1628E+06    -140.169E+06    -28.5383E+06    -1.17293E+06    -50.3805E-03     100.523E-03    -50.1428E-03     3.39942E-03    -50.2617E-03     99.9003E-03    -50.0457E-03     3.37846E-03
             220     4.27829E-03     457.967E-18    -23.7962E+06    -139.720E+06    -29.0833E+06    -1.56860E+06    -50.6795E-03     100.888E-03    -50.2087E-03     4.25284E-03    -50.5539E-03     100.266E-03    -50.1170E-03     4.22499E-03
             221     5.13344E-03     457.967E-18    -21.8596E+06    -139.402E+06    -30.8169E+06    -2.25606E+06    -51.1483E-03     101.455E-03    -50.3064E-03     5.09584E-03    -51.0110E-03     100.834E-03    -50.2266E-03     5.05720E-03
             222     5.98812E-03     457.967E-18    -18.8943E+06    -139.462E+06    -35.6209E+06    -3.63818E+06    -51.8205E-03     102.256E-03    -50.4354E-03     6.04582E-03    -51.6613E-03     101.638E-03    -50.3839E-03     5.98714E-03
             223     6.84201E-03     457.967E-18    -14.5462E+06    -133.788E+06    -42.6457E+06    -5.26383E+06    -52.7075E-03     103.306E-03    -50.5981E-03     7.10080E-03    -52.5248E-03     102.720E-03    -50.5963E-03     7.01797E-03
             224     7.69524E-03     457.967E-18    -9.33809E+06    -119.286E+06    -48.3412E+06    -5.83853E+06    -53.8432E-03     104.660E-03    -50.8164E-03     8.29094E-03    -53.6475E-03     104.147E-03    -50.8716E-03     8.19675E-03
             225     8.54699E-03     457.967E-18    -4.23845E+06    -97.8373E+06    -52.5266E+06    -6.03137E+06    -55.2109E-03     106.312E-03    -51.1015E-03     9.63054E-03    -55.0149E-03     105.906E-03    -51.2162E-03     9.52912E-03
             226     9.39774E-03     457.967E-18     590.643E+03    -68.6557E+06    -53.2023E+06    -6.04434E+06    -56.8768E-03     108.346E-03    -51.4691E-03     11.2513E-03    -56.6984E-03     108.080E-03    -51.6364E-03     11.1432E-03
             227     10.2465E-03     457.967E-18     4.05177E+06    -30.3364E+06    -45.9856E+06    -3.45814E+06    -58.9822E-03     110.936E-03    -51.9541E-03     13.5434E-03    -58.8531E-03     110.847E-03    -52.1459E-03     13.4596E-03
             228     11.0926E-03     457.967E-18     4.58316E+06     11.2255E+06    -30.4156E+06    -1.15073E+06    -61.6584E-03     114.249E-03    -52.5901E-03     17.1627E-03    -61.6109E-03     114.345E-03    -52.7651E-03     17.0933E-03
             229     11.9355E-03     457.967E-18     3.43997E+06     40.5427E+06    -7.31118E+06    -482.864E+03    -64.9727E-03     118.387E-03    -53.4140E-03     18.4681E-03    -65.0083E-03     118.600E-03    -53.5143E-03     18.3817E-03
             230     12.7810E-03     457.967E-18     3.04271E+06     58.1976E+06     23.8921E+06     1.07161E+06    -69.8150E-03     124.283E-03    -54.4676E-03     23.3957E-03    -69.9259E-03     124.541E-03    -54.4369E-03     23.3149E-03
             231     13.6062E-03     457.967E-18     2.48424E+06     71.3401E+06     57.7712E+06     3.21205E+06    -79.6047E-03     135.482E-03    -55.8769E-03     38.9357E-03    -79.7995E-03     135.771E-03    -55.6951E-03     38.8012E-03
             232     14.4310E-03     457.967E-18     217.274E+03     80.1031E+06     78.8075E+06     2.92367E+06    -96.1519E-03     153.993E-03    -57.8415E-03     61.9902E-03    -96.4203E-03     154.315E-03    -57.5639E-03     61.7610E-03
             233     15.2198E-03     457.967E-18    -1.43563E+06     90.0685E+06     84.5786E+06     3.68749E+06    -112.602E-03     173.055E-03    -60.4528E-03     106.226E-03    -113.025E-03     173.519E-03    -60.1585E-03     105.646E-03
             234     15.9803E-03     457.967E-18     7.34961E+06     111.977E+06     95.2140E+06     5.40898E+06    -140.396E-03     204.334E-03    -63.9376E-03     175.046E-03    -141.901E-03     205.995E-03    -63.6345E-03     171.896E-03
             235     16.8789E-03     1.25456E-03     893.816E+03     126.500E+06     93.1361E+06     6.24795E+06    -172.244E-03     235.212E-03    -62.9681E-03     210.712E-03    -175.981E-03     239.183E-03    -62.6871E-03     203.527E-03
             236     16.9395E-03     2.51276E-03    -10.6868E+06     127.562E+06     81.7946E+06     8.46918E+06    -175.076E-03     233.799E-03    -58.7224E-03     203.409E-03    -180.447E-03     239.361E-03    -58.4829E-03     194.833E-03
             237     16.9739E-03     3.69424E-03    -1.79972E+06     136.931E+06     88.2723E+06     8.81139E+06    -157.117E-03     213.946E-03    -56.8288E-03     188.178E-03    -162.773E-03     219.815E-03    -56.5834E-03     181.209E-03
             238     16.9964E-03     4.83984E-03     492.361E+03     144.033E+06     94.4509E+06     4.42336E+06    -147.051E-03     202.732E-03    -55.6815E-03     164.061E-03    -152.400E-03     208.313E-03    -55.4188E-03     158.540E-03
             239     17.0065E-03     5.99662E-03    -2.09876E+06     145.098E+06     97.2877E+06     398.320E+03    -146.308E-03     201.270E-03    -54.9624E-03     143.513E-03    -151.344E-03     206.533E-03    -54.6833E-03     138.523E-03
             240     17.0115E-03     7.16304E-03    -1.93828E+06     147.715E+06     100.399E+06         563.516    -138.168E-03     192.964E-03    -54.7960E-03     139.309E-03    -143.321E-03     198.346E-03    -54.5054E-03     135.409E-03
             241     17.0154E-03     8.30522E-03    -3.21956E+06     148.797E+06     100.156E+06    -130.673E+03    -124.295E-03     179.224E-03    -54.9294E-03     143.785E-03    -129.756E-03     184.912E-03    -54.6397E-03     141.516E-03
             242     17.0158E-03     9.43240E-03    -4.22249E+06     148.207E+06     99.4963E+06     696.454E+03    -112.464E-03     167.611E-03    -55.1468E-03     143.209E-03    -118.017E-03     173.386E-03    -54.8581E-03     142.442E-03
             243     17.0153E-03     10.5428E-03    -3.08929E+06     148.636E+06     99.7356E+06     1.62240E+06    -102.306E-03     157.615E-03    -55.3098E-03     138.363E-03    -107.751E-03     163.285E-03    -55.0222E-03     138.857E-03
             244     17.0209E-03     11.6361E-03    -2.29442E+06     149.459E+06     100.282E+06     706.915E+03    -97.1250E-03     152.409E-03    -55.2835E-03     134.727E-03    -102.423E-03     157.938E-03    -54.9955E-03     135.978E-03
             245     17.0202E-03     12.7519E-03    -1.50534E+06     150.865E+06     102.046E+06     1.34495E+06    -93.4722E-03     148.729E-03    -55.2570E-03     135.909E-03    -98.8750E-03     154.368E-03    -54.9633E-03     137.811E-03
             246     17.0242E-03     13.8472E-03    -1.38665E+06     152.254E+06     102.529E+06     1.56198E+06    -87.0955E-03     142.394E-03    -55.2990E-03     141.281E-03    -92.8057E-03     148.343E-03    -55.0051E-03     144.099E-03
             247     17.0249E-03     14.9366E-03    -3.28298E+06     152.108E+06     101.834E+06     429.403E+03    -83.2234E-03     138.525E-03    -55.3015E-03     140.789E-03    -89.0249E-03     144.559E-03    -55.0081E-03     144.268E-03
             248     17.0255E-03     16.0251E-03    -3.02960E+06     152.917E+06     102.526E+06     385.082E+03    -79.5628E-03     134.862E-03    -55.2996E-03     137.675E-03    -85.3319E-03     140.866E-03    -55.0043E-03     141.760E-03
             249     17.0295E-03     17.1020E-03    -1.98281E+06     153.555E+06     103.202E+06     11.6298E+03    -77.7132E-03     132.955E-03    -55.2418E-03     136.828E-03    -83.4566E-03     138.937E-03    -54.9456E-03     141.248E-03
             250     17.0278E-03     18.1912E-03    -3.29534E+06     153.391E+06     103.298E+06    -4.40497E+03    -77.2786E-03     132.467E-03    -55.1886E-03     134.756E-03    -82.9864E-03     138.409E-03    -54.8898E-03     139.334E-03
             251     17.0315E-03     19.2699E-03    -1.49723E+06     154.010E+06     104.513E+06    -369.567E+03    -74.0897E-03     129.278E-03    -55.1887E-03     135.365E-03    -79.8635E-03     135.290E-03    -54.8872E-03     140.396E-03
             252     17.0313E-03     20.3484E-03    -2.39639E+06     153.870E+06     104.396E+06    -334.856E+03    -72.6166E-03     127.792E-03    -55.1755E-03     136.847E-03    -78.4877E-03     133.899E-03    -54.8731E-03     142.186E-03
             253     17.0314E-03     21.4308E-03    -3.55830E+06     154.080E+06     104.207E+06     775.488E+03    -70.4623E-03     125.659E-03    -55.1965E-03     137.278E-03    -76.3981E-03     131.827E-03    -54.8937E-03     142.982E-03
             254     17.0336E-03     22.4975E-03    -3.14793E+06     155.073E+06     104.728E+06     1.19058E+06    -68.9370E-03     124.152E-03    -55.2147E-03     135.560E-03    -74.8536E-03     130.304E-03    -54.9114E-03     141.532E-03
             255     17.0303E-03     23.5745E-03    -3.33515E+06     156.353E+06     105.539E+06     949.874E+03    -67.6692E-03     122.892E-03    -55.2230E-03     135.291E-03    -73.5591E-03     129.020E-03    -54.9172E-03     141.375E-03
             256     17.0365E-03     24.6484E-03    -692.343E+03     156.528E+06     106.924E+06    -273.080E+03    -64.2191E-03     119.455E-03    -55.2355E-03     139.328E-03    -70.2465E-03     125.725E-03    -54.9268E-03     145.814E-03
             257     17.0330E-03     25.7130E-03    -1.13663E+06     156.170E+06     107.097E+06     101.567E+03    -64.2710E-03     119.496E-03    -55.2253E-03     140.091E-03    -70.4275E-03     125.893E-03    -54.9146E-03     146.756E-03
             258     17.0344E-03     26.7874E-03    -2.30271E+06     157.793E+06     107.542E+06     814.928E+03    -63.1640E-03     118.407E-03    -55.2429E-03     141.485E-03    -69.3923E-03     124.876E-03    -54.9307E-03     148.314E-03
             259     17.0359E-03     27.8519E-03    -2.22490E+06     158.315E+06     107.306E+06     65.6351E+03    -60.6976E-03     115.949E-03    -55.2514E-03     142.398E-03    -66.9805E-03     122.475E-03    -54.9412E-03     149.576E-03
             260     17.0350E-03     28.9131E-03    -2.00966E+06     158.535E+06     107.340E+06     606.132E+03    -60.7600E-03     115.992E-03    -55.2320E-03     136.483E-03    -66.8098E-03     122.286E-03    -54.9222E-03     143.586E-03
             261     17.0360E-03     29.9756E-03    -3.44411E+06     157.898E+06     106.671E+06     173.542E+03    -61.3689E-03     116.585E-03    -55.2163E-03     134.160E-03    -67.3038E-03     122.759E-03    -54.9069E-03     141.115E-03
             262     17.0348E-03     31.0476E-03    -3.75996E+06     157.062E+06     106.409E+06    -243.537E+03    -61.2583E-03     116.474E-03    -55.2161E-03     139.069E-03    -67.4300E-03     122.882E-03    -54.9063E-03     146.217E-03
             263     17.0368E-03     32.1164E-03    -1.90953E+06     158.006E+06     107.776E+06     134.287E+03    -58.1279E-03     113.406E-03    -55.2781E-03     143.703E-03    -64.5215E-03     120.041E-03    -54.9655E-03     151.283E-03
             264     17.0357E-03     33.1747E-03    -3.14431E+06     157.207E+06     107.244E+06     219.026E+03    -56.4095E-03     111.738E-03    -55.3287E-03     145.472E-03    -62.9277E-03     118.492E-03    -55.0159E-03     153.354E-03
             265     17.0355E-03     34.2341E-03    -3.34867E+06     157.409E+06     107.101E+06     645.824E+03    -57.5158E-03     112.797E-03    -55.2810E-03     146.158E-03    -64.0841E-03     119.601E-03    -54.9689E-03     154.029E-03
             266     17.0382E-03     35.3002E-03    -2.21929E+06     159.592E+06     108.347E+06    -96.9291E+03    -58.0423E-03     113.276E-03    -55.2334E-03     149.552E-03    -64.7752E-03     120.253E-03    -54.9198E-03     157.451E-03
             267     17.0356E-03     36.3667E-03    -1.77238E+06     161.423E+06     109.498E+06    -218.949E+03    -55.1212E-03     110.418E-03    -55.2968E-03     150.333E-03    -61.9159E-03     117.462E-03    -54.9808E-03     158.548E-03
             268     17.0390E-03     37.4148E-03    -3.59155E+06     159.406E+06     107.510E+06    -1.15176E+06    -54.8510E-03     110.153E-03    -55.3017E-03     148.127E-03    -61.5469E-03     117.091E-03    -54.9901E-03     156.429E-03
             269     17.0345E-03     38.4743E-03    -4.77577E+06     157.611E+06     106.247E+06     565.628E+03    -58.0918E-03     113.349E-03    -55.2575E-03     144.734E-03    -64.6219E-03     120.115E-03    -54.9479E-03     152.649E-03
             270     17.0372E-03     39.5483E-03    -4.31460E+06     157.996E+06     106.703E+06     1.56180E+06    -55.9305E-03     111.245E-03    -55.3148E-03     148.660E-03    -62.6092E-03     118.161E-03    -55.0041E-03     156.752E-03
             271     17.0365E-03     40.5942E-03    -2.87551E+06     157.483E+06     107.436E+06    -1.04803E+06    -54.7521E-03     110.054E-03    -55.3024E-03     151.512E-03    -61.5523E-03     117.092E-03    -54.9894E-03     159.792E-03
             272     17.0384E-03     41.6634E-03    -579.508E+03     156.960E+06     108.751E+06    -889.543E+03    -55.6554E-03     110.923E-03    -55.2671E-03     150.415E-03    -62.4623E-03     117.969E-03    -54.9501E-03     158.678E-03
             273     17.0363E-03     42.7191E-03    -2.85201E+06     157.155E+06     108.238E+06     221.757E+03    -55.0684E-03     110.376E-03    -55.3073E-03     150.997E-03    -61.9390E-03     117.480E-03    -54.9899E-03     159.418E-03
             274     17.0370E-03     43.7762E-03    -2.23117E+06     158.975E+06     108.856E+06     833.662E+03    -54.2907E-03     109.606E-03    -55.3156E-03     148.557E-03    -60.9799E-03     116.536E-03    -54.9986E-03     156.941E-03
             275     17.0384E-03     44.8326E-03    -2.13632E+06     159.090E+06     108.620E+06     229.743E+03    -54.1573E-03     109.454E-03    -55.2968E-03     147.022E-03    -60.7467E-03     116.286E-03    -54.9813E-03     155.307E-03
             276     17.0362E-03     45.8923E-03    -2.36926E+06     159.201E+06     108.777E+06     507.832E+03    -54.3561E-03     109.653E-03    -55.2970E-03     144.979E-03    -60.8892E-03     116.428E-03    -54.9805E-03     153.223E-03
             277     17.0387E-03     46.9458E-03    -4.12023E+06     157.382E+06     107.270E+06    -1.00154E+06    -56.0964E-03     111.364E-03    -55.2681E-03     145.060E-03    -62.6655E-03     118.167E-03    -54.9540E-03     153.175E-03
             278     17.0347E-03     48.0145E-03    -3.56014E+06     156.905E+06     107.554E+06    -346.146E+03    -57.0363E-03     112.298E-03    -55.2618E-03     147.826E-03    -63.7213E-03     119.216E-03    -54.9463E-03     155.897E-03
             279     17.0393E-03     49.0759E-03    -7.13594E+03     160.263E+06     110.257E+06     1.42701E+06    -52.9648E-03     108.298E-03    -55.3330E-03     150.246E-03    -59.7109E-03     115.293E-03    -55.0141E-03     158.706E-03
             280     17.0367E-03     50.1247E-03    -3.26711E+06     159.804E+06     108.138E+06    -336.367E+03    -52.9916E-03     108.326E-03    -55.3343E-03     150.538E-03    -59.8089E-03     115.385E-03    -55.0206E-03     159.089E-03
             281     17.0367E-03     51.1873E-03    -4.34671E+06     159.561E+06     107.432E+06    -93.6324E+03    -55.6080E-03     110.883E-03    -55.2748E-03     149.340E-03    -62.3934E-03     117.908E-03    -54.9627E-03     157.643E-03
             282     17.0386E-03     52.2458E-03    -2.37550E+06     161.524E+06     109.213E+06     452.982E+03    -54.1118E-03     109.395E-03    -55.2836E-03     147.258E-03    -60.7741E-03     116.306E-03    -54.9683E-03     155.626E-03
             283     17.0370E-03     53.2999E-03    -2.59321E+06     161.564E+06     109.147E+06    -129.371E+03    -54.4862E-03     109.773E-03    -55.2871E-03     145.611E-03    -61.0725E-03     116.607E-03    -54.9719E-03     153.917E-03
             284     17.0373E-03     54.3594E-03    -5.31229E+06     159.836E+06     107.571E+06    -425.918E+03    -58.2326E-03     113.484E-03    -55.2516E-03     147.407E-03    -64.9347E-03     120.423E-03    -54.9378E-03     155.412E-03
             285     17.0342E-03     55.4334E-03    -4.77798E+06     160.785E+06     108.600E+06     822.580E+03    -56.2218E-03     111.550E-03    -55.3277E-03     153.157E-03    -63.1785E-03     118.746E-03    -55.0109E-03     161.476E-03
             286     17.0391E-03     56.4882E-03    -139.972E+03     163.018E+06     111.127E+06     1.07401E+06    -49.7015E-03     105.117E-03    -55.4155E-03     155.012E-03    -56.6513E-03     112.324E-03    -55.0960E-03     163.952E-03
             287     17.0381E-03     57.5260E-03    -614.448E+03     162.330E+06     110.533E+06    -949.801E+03    -52.5571E-03     107.863E-03    -55.3057E-03     147.928E-03    -59.2331E-03     114.793E-03    -54.9876E-03     156.482E-03
             288     17.0369E-03     58.5939E-03    -3.20060E+06     160.967E+06     109.038E+06    -1.18219E+06    -57.7836E-03     112.994E-03    -55.2100E-03     145.178E-03    -64.3717E-03     119.826E-03    -54.8936E-03     153.120E-03
             289     17.0374E-03     59.6620E-03    -2.47257E+06     161.225E+06     109.220E+06     144.460E+03    -53.9702E-03     109.283E-03    -55.3132E-03     146.026E-03    -60.5723E-03     116.133E-03    -54.9973E-03     154.362E-03
             290     17.0374E-03     60.7031E-03    -2.53352E+06     160.495E+06     108.709E+06     692.124E+03    -53.0317E-03     108.382E-03    -55.3501E-03     142.242E-03    -59.4371E-03     115.033E-03    -55.0356E-03     150.609E-03
             291     17.0357E-03     61.7642E-03    -5.15802E+06     158.359E+06     106.934E+06     666.815E+03    -57.9053E-03     113.161E-03    -55.2553E-03     142.061E-03    -64.2930E-03     119.783E-03    -54.9428E-03     149.853E-03
             292     851.605E-06     61.5845E-03    -48.0869E+06    -164.965E+06    -47.1786E+06     70.6067E+03    -55.3105E-03     110.628E-03    -55.3173E-03     9.73848E-03    -55.2447E-03     109.943E-03    -55.2443E-03     9.70665E-03
             293     1.70330E-03     61.5983E-03    -46.8372E+06    -162.589E+06    -43.3754E+06     178.087E+03    -55.3603E-03     110.672E-03    -55.3113E-03     17.9222E-03    -55.3002E-03     109.994E-03    -55.2245E-03     17.8623E-03
             294     2.55495E-03     61.6205E-03    -44.8599E+06    -159.110E+06    -37.9134E+06     237.687E+03    -55.4485E-03     110.771E-03    -55.3227E-03     26.4750E-03    -55.3969E-03     110.106E-03    -55.2166E-03     26.3823E-03
             295     3.40661E-03     61.6515E-03    -41.9703E+06    -154.469E+06    -30.9603E+06    -251.744E+03    -55.5596E-03     110.898E-03    -55.3389E-03     35.0132E-03    -55.5188E-03     110.250E-03    -55.2088E-03     34.8759E-03
             296     4.25835E-03     61.6909E-03    -38.7037E+06    -149.094E+06    -22.6968E+06    -518.705E+03    -55.7011E-03     111.059E-03    -55.3581E-03     43.3964E-03    -55.6759E-03     110.433E-03    -55.1993E-03     43.2110E-03
             297     5.11004E-03     61.7387E-03    -35.3657E+06    -142.981E+06    -16.9532E+06     82.5150E+03    -55.8765E-03     111.239E-03    -55.3627E-03     51.6235E-03    -55.8689E-03     110.648E-03    -55.1888E-03     51.3937E-03
             298     5.96171E-03     61.7947E-03    -32.5008E+06    -140.180E+06    -12.6678E+06     535.612E+03    -56.1013E-03     111.468E-03    -55.3664E-03     59.6336E-03    -56.1134E-03     110.904E-03    -55.1794E-03     59.3478E-03
             299     6.81359E-03     61.8585E-03    -30.4923E+06    -134.802E+06    -8.99054E+06     745.592E+03    -56.3461E-03     111.713E-03    -55.3670E-03     67.5444E-03    -56.3932E-03     111.200E-03    -55.1723E-03     67.1892E-03
             300     7.66522E-03     61.9305E-03    -28.0822E+06    -123.091E+06    -7.69122E+06     913.195E+03    -56.5914E-03     111.939E-03    -55.3472E-03     75.2858E-03    -56.6886E-03     111.521E-03    -55.1664E-03     74.8480E-03
             301     8.51712E-03     62.0097E-03    -25.7001E+06    -111.590E+06    -6.55329E+06     1.14560E+06    -56.8771E-03     112.206E-03    -55.3285E-03     82.8586E-03    -57.0397E-03     111.900E-03    -55.1622E-03     82.3226E-03
             302     9.36866E-03     62.0972E-03    -24.1048E+06    -98.6776E+06    -6.61784E+06     954.878E+03    -57.1905E-03     112.497E-03    -55.3061E-03     90.7101E-03    -57.4448E-03     112.334E-03    -55.1611E-03     90.0523E-03
             303     10.2206E-03     62.1921E-03    -22.6713E+06    -80.5735E+06    -7.25938E+06     348.419E+03    -57.5003E-03     112.777E-03    -55.2767E-03     98.3876E-03    -57.8849E-03     112.816E-03    -55.1633E-03     97.5796E-03
             304     11.0716E-03     62.2951E-03    -21.3917E+06    -56.8983E+06    -6.64972E+06    -15.4975E+03    -57.6973E-03     112.941E-03    -55.2437E-03     106.948E-03    -58.2719E-03     113.257E-03    -55.1634E-03     105.968E-03
             305     11.9236E-03     62.4076E-03    -20.9702E+06    -27.0759E+06    -8.27645E+06     25.1493E+03    -57.9568E-03     113.141E-03    -55.1841E-03     117.823E-03    -58.8246E-03     113.862E-03    -55.1558E-03     116.637E-03
             306     12.7760E-03     62.5298E-03    -20.5977E+06     23.8428E+06    -12.4652E+06     24.6655E+03    -58.7277E-03     113.808E-03    -55.0800E-03     135.946E-03    -60.1742E-03     115.302E-03    -55.1470E-03     134.451E-03
             307     13.6269E-03     62.6802E-03    -19.9432E+06     72.0872E+06     1.48820E+06    -213.345E+03    -61.6480E-03     116.716E-03    -55.0679E-03     184.223E-03    -64.6161E-03     119.865E-03    -55.1361E-03     182.222E-03
             308     14.4803E-03     62.9034E-03    -17.4531E+06     109.677E+06     44.7005E+06     736.018E+03    -69.7019E-03     124.909E-03    -55.2073E-03     282.187E-03    -78.1087E-03     133.514E-03    -55.1175E-03     279.366E-03
             309     15.3294E-03     63.2551E-03    -12.0586E+06     151.401E+06      93.292E+06     1.28150E+06    -79.1554E-03     134.522E-03    -55.3666E-03     396.241E-03    -101.049E-03     156.640E-03    -55.1022E-03     394.908E-03
             310     16.1811E-03     63.7309E-03    -5.29323E+06     166.240E+06     112.618E+06     227.522E+03    -67.7273E-03     123.117E-03    -55.3894E-03     300.316E-03    -86.7169E-03     142.351E-03    -55.0597E-03     305.002E-03
             311     851.626E-06     62.6430E-03    -48.1631E+06    -164.997E+06    -47.4382E+06    -74.6179E+03    -55.3219E-03     110.620E-03    -55.2981E-03     9.72415E-03    -55.2561E-03     109.935E-03    -55.2262E-03     9.69013E-03
             312     1.70332E-03     62.6566E-03    -46.7637E+06    -162.830E+06    -43.9303E+06    -6.79858E+03    -55.3580E-03     110.663E-03    -55.3054E-03     17.9082E-03    -55.2964E-03     109.985E-03    -55.2211E-03     17.8460E-03
             313     2.55498E-03     62.6791E-03    -44.2872E+06    -158.743E+06    -37.6186E+06    -257.580E+03    -55.4576E-03     110.779E-03    -55.3209E-03     26.4809E-03    -55.4042E-03     110.113E-03    -55.2146E-03     26.3818E-03
             314     3.40663E-03     62.7099E-03    -41.6490E+06    -154.015E+06    -30.3950E+06    -377.912E+03    -55.5636E-03     110.904E-03    -55.3407E-03     34.9914E-03    -55.5227E-03     110.257E-03    -55.2090E-03     34.8522E-03
             315     4.25834E-03     62.7494E-03    -39.1442E+06    -149.334E+06    -22.8665E+06    -133.414E+03    -55.6993E-03     111.058E-03    -55.3588E-03     43.3924E-03    -55.6758E-03     110.432E-03    -55.1999E-03     43.2120E-03
             316     5.11003E-03     62.7972E-03    -36.6556E+06    -143.881E+06    -17.4887E+06     238.227E+03    -55.8852E-03     111.250E-03    -55.3647E-03     51.5975E-03    -55.8820E-03     110.657E-03    -55.1904E-03     51.3695E-03
             317     5.96191E-03     62.8531E-03    -34.0958E+06    -140.851E+06    -12.8027E+06     956.711E+03    -56.1131E-03     111.486E-03    -55.3727E-03     59.6045E-03    -56.1320E-03     110.921E-03    -55.1831E-03     59.3239E-03
             318     6.81341E-03     62.9172E-03    -30.8028E+06    -134.410E+06    -8.25136E+06     717.659E+03    -56.3560E-03     111.732E-03    -55.3761E-03     67.4703E-03    -56.4064E-03     111.220E-03    -55.1778E-03     67.1143E-03
             319     7.66532E-03     62.9888E-03    -27.6934E+06    -123.476E+06    -7.55502E+06     333.053E+03    -56.6332E-03     111.989E-03    -55.3558E-03     75.2438E-03    -56.7281E-03     111.569E-03    -55.1744E-03     74.7980E-03
             320     8.51675E-03     63.0686E-03    -25.2587E+06    -112.443E+06    -6.79989E+06     893.296E+03    -56.9494E-03     112.290E-03    -55.3405E-03     82.8727E-03    -57.1083E-03     111.980E-03    -55.1748E-03     82.3328E-03
             321     9.36861E-03     63.1554E-03    -23.1166E+06    -97.8933E+06    -6.15423E+06     960.494E+03    -57.2569E-03     112.580E-03    -55.3232E-03     90.7524E-03    -57.5082E-03     112.420E-03    -55.1785E-03     90.0939E-03
             322     10.2199E-03     63.2512E-03    -21.6198E+06    -80.0718E+06    -6.79432E+06     641.223E+03    -57.4885E-03     112.783E-03    -55.2940E-03     98.7012E-03    -57.8692E-03     112.822E-03    -55.1805E-03     97.8984E-03
             323     11.0719E-03     63.3537E-03    -21.4006E+06    -57.5880E+06    -7.03624E+06     497.240E+03    -57.5079E-03     112.758E-03    -55.2504E-03     106.872E-03    -58.0807E-03     113.071E-03    -55.1711E-03     105.901E-03
             324     11.9247E-03     63.4649E-03    -20.5433E+06    -26.2054E+06    -7.64843E+06     636.567E+03    -57.8991E-03     113.082E-03    -55.1834E-03     117.828E-03    -58.7632E-03     113.803E-03    -55.1539E-03     116.654E-03
             325     12.7752E-03     63.5907E-03    -20.1219E+06     24.0205E+06    -12.1228E+06     674.611E+03    -59.0516E-03     114.137E-03    -55.0856E-03     136.622E-03    -60.5059E-03     115.641E-03    -55.1519E-03     135.125E-03
             326     13.6268E-03     63.7384E-03    -20.1038E+06     71.0116E+06     1.45967E+06     746.751E+03    -61.8583E-03     116.946E-03    -55.0879E-03     184.748E-03    -64.8258E-03     120.090E-03    -55.1544E-03     182.756E-03
             327     14.4782E-03     63.9610E-03    -17.1677E+06     109.005E+06     43.8879E+06     470.797E+03    -69.7322E-03     124.948E-03    -55.2160E-03     284.317E-03    -78.1607E-03     133.575E-03    -55.1298E-03     281.471E-03
             328     15.3320E-03     64.3170E-03    -11.0814E+06     151.963E+06     93.1619E+06     358.013E+03    -78.7198E-03     134.063E-03    -55.3433E-03     399.185E-03    -100.857E-03     156.430E-03    -55.0818E-03     397.931E-03
             329     16.1866E-03     64.7887E-03    -5.55235E+06     167.143E+06     113.456E+06     401.284E+03    -68.1499E-03     123.513E-03    -55.3629E-03     299.619E-03    -87.2842E-03     142.892E-03    -55.0299E-03     304.327E-03
             330     851.668E-06     63.7013E-03    -47.9597E+06    -164.841E+06    -47.1755E+06    -199.841E+03    -55.3511E-03     110.616E-03    -55.2654E-03     9.70244E-03    -55.2848E-03     109.932E-03    -55.1927E-03     9.66676E-03
             331     1.70326E-03     63.7151E-03    -46.6134E+06    -162.463E+06    -43.3390E+06    -428.524E+03    -55.3808E-03     110.691E-03    -55.3104E-03     17.9178E-03    -55.3199E-03     110.014E-03    -55.2239E-03     17.8501E-03
             332     2.55494E-03     63.7374E-03    -44.5235E+06    -158.298E+06    -36.6519E+06    -637.335E+03    -55.4514E-03     110.783E-03    -55.3319E-03     26.4738E-03    -55.4012E-03     110.119E-03    -55.2211E-03     26.3697E-03
             333     3.40663E-03     63.7685E-03    -41.6786E+06    -154.383E+06    -30.5961E+06    -352.119E+03    -55.5694E-03     110.915E-03    -55.3453E-03     34.9470E-03    -55.5278E-03     110.266E-03    -55.2140E-03     34.8078E-03
             334     4.25829E-03     63.8077E-03    -38.5110E+06    -149.695E+06    -23.5217E+06     124.116E+03    -55.7234E-03     111.085E-03    -55.3617E-03     43.3500E-03    -55.6952E-03     110.457E-03    -55.2064E-03     43.1725E-03
             335     5.11009E-03     63.8557E-03    -35.5078E+06    -145.228E+06    -16.1547E+06     1.12627E+06    -55.9217E-03     111.303E-03    -55.3815E-03     51.5327E-03    -55.9129E-03     110.700E-03    -55.2002E-03     51.3155E-03
             336     5.96155E-03     63.9116E-03    -32.4830E+06    -140.646E+06    -12.6076E+06     1.02342E+06    -56.1333E-03     111.516E-03    -55.3830E-03     59.5426E-03    -56.1448E-03     110.950E-03    -55.1950E-03     59.2624E-03
             337     6.81351E-03     63.9756E-03    -29.4258E+06    -133.340E+06    -9.81984E+06    -71.7542E+03    -56.3815E-03     111.759E-03    -55.3771E-03     67.5067E-03    -56.4243E-03     111.252E-03    -55.1901E-03     67.1405E-03
             338     7.66494E-03     64.0475E-03    -26.9922E+06    -124.599E+06    -8.38305E+06     308.257E+03    -56.6510E-03     112.016E-03    -55.3648E-03     75.2881E-03    -56.7395E-03     111.590E-03    -55.1869E-03     74.8422E-03
             339     8.51693E-03     64.1270E-03    -25.2380E+06    -112.875E+06    -7.73301E+06     683.908E+03    -56.9323E-03     112.279E-03    -55.3468E-03     83.0750E-03    -57.0888E-03     111.968E-03    -55.1852E-03     82.5337E-03
             340     9.36824E-03     64.2144E-03    -23.7581E+06    -98.0344E+06    -6.87798E+06     736.865E+03    -57.1887E-03     112.514E-03    -55.3253E-03     91.0137E-03    -57.4417E-03     112.355E-03    -55.1831E-03     90.3544E-03
             341     10.2203E-03     64.3095E-03    -22.6885E+06    -80.3095E+06    -7.21784E+06     943.329E+03    -57.3746E-03     112.664E-03    -55.2898E-03     98.8674E-03    -57.7592E-03     112.704E-03    -55.1765E-03     98.0711E-03
             342     11.0722E-03     64.4123E-03    -21.1548E+06    -56.7577E+06    -6.45244E+06     931.590E+03    -57.6727E-03     112.922E-03    -55.2496E-03     106.798E-03    -58.2470E-03     113.239E-03    -55.1689E-03     105.830E-03
             343     11.9228E-03     64.5235E-03    -20.5147E+06    -26.2275E+06    -7.55241E+06     1.03502E+06    -57.9887E-03     113.180E-03    -55.1911E-03     117.919E-03    -58.8548E-03     113.902E-03    -55.1610E-03     116.746E-03
             344     12.7763E-03     64.6489E-03    -20.6233E+06     22.7892E+06    -12.4283E+06     1.10223E+06    -58.5191E-03     113.597E-03    -55.0778E-03     137.060E-03    -59.9656E-03     115.087E-03    -55.1431E-03     135.587E-03
             345     13.6279E-03     64.7986E-03    -19.0403E+06     71.0614E+06    -127.427E+03     1.26131E+06    -61.3881E-03     116.424E-03    -55.0362E-03     185.060E-03    -64.3431E-03     119.564E-03    -55.1123E-03     183.092E-03
             346     14.4804E-03     65.0190E-03    -16.3162E+06     110.563E+06     43.7291E+06     131.155E+03    -69.8212E-03     124.980E-03    -55.1584E-03     284.665E-03    -78.2829E-03     133.649E-03    -55.0764E-03     281.789E-03
             347     15.3337E-03     65.3745E-03    -12.5359E+06     151.819E+06     93.7519E+06    -834.193E+03    -78.6016E-03     133.912E-03    -55.3106E-03     397.261E-03    -100.756E-03     156.289E-03    -55.0438E-03     396.072E-03
             348     16.1835E-03     65.8478E-03    -6.36150E+06     166.079E+06     112.216E+06    -105.208E+03    -68.0443E-03     123.388E-03    -55.3435E-03     297.966E-03    -87.1548E-03     142.740E-03    -55.0140E-03     302.669E-03
             349     851.646E-06     64.7599E-03    -47.8266E+06    -164.610E+06    -46.5611E+06    -53.2917E+03    -55.3345E-03     110.618E-03    -55.2833E-03     9.73583E-03    -55.2687E-03     109.933E-03    -55.2081E-03     9.70222E-03
             350     1.70331E-03     64.7735E-03    -46.5937E+06    -161.974E+06    -42.2705E+06    -151.709E+03    -55.3967E-03     110.715E-03    -55.3182E-03     17.9341E-03    -55.3380E-03     110.038E-03    -55.2272E-03     17.8698E-03
             351     2.55491E-03     64.7960E-03    -44.7368E+06    -158.180E+06    -36.0881E+06    -118.926E+03    -55.4685E-03     110.812E-03    -55.3435E-03     26.4674E-03    -55.4204E-03     110.148E-03    -55.2297E-03     26.3699E-03
             352     3.40657E-03     64.8268E-03    -42.4955E+06    -154.557E+06    -30.1798E+06    -169.441E+03    -55.5822E-03     110.942E-03    -55.3600E-03     34.9355E-03    -55.5452E-03     110.293E-03    -55.2252E-03     34.7985E-03
             353     4.25828E-03     64.8663E-03    -40.0003E+06    -150.671E+06    -24.1345E+06     299.841E+03    -55.7437E-03     111.119E-03    -55.3754E-03     43.3447E-03    -55.7207E-03     110.489E-03    -55.2196E-03     43.1694E-03
             354     5.10981E-03     64.9141E-03    -36.2748E+06    -145.810E+06    -17.7533E+06     308.636E+03    -55.9112E-03     111.299E-03    -55.3879E-03     51.5972E-03    -55.9030E-03     110.696E-03    -55.2126E-03     51.3701E-03
             355     5.96173E-03     64.9702E-03    -31.8305E+06    -139.803E+06    -13.0542E+06    -88.1515E+03    -56.1347E-03     111.523E-03    -55.3880E-03     59.6618E-03    -56.1434E-03     110.960E-03    -55.2044E-03     59.3679E-03
             356     6.81321E-03     65.0340E-03    -29.2519E+06    -133.512E+06    -10.4354E+06     388.219E+03    -56.3887E-03     111.771E-03    -55.3819E-03     67.6192E-03    -56.4294E-03     111.264E-03    -55.1981E-03     67.2595E-03
             357     7.66515E-03     65.1062E-03    -27.8686E+06    -125.346E+06    -9.13793E+06     643.764E+03    -56.6176E-03     111.986E-03    -55.3686E-03     75.3869E-03    -56.7083E-03     111.559E-03    -55.1921E-03     74.9460E-03
             358     8.51659E-03     65.1854E-03    -26.1955E+06    -112.969E+06    -7.86556E+06     755.522E+03    -56.8217E-03     112.167E-03    -55.3450E-03     83.2350E-03    -56.9822E-03     111.856E-03    -55.1826E-03     82.6968E-03
             359     9.36877E-03     65.2732E-03    -24.6860E+06    -98.5360E+06    -7.28526E+06     880.796E+03    -57.0911E-03     112.404E-03    -55.3131E-03     91.1339E-03    -57.3467E-03     112.243E-03    -55.1708E-03     90.4790E-03
             360     10.2203E-03     65.3678E-03    -23.1843E+06    -80.4856E+06    -7.22129E+06     987.308E+03    -57.3937E-03     112.670E-03    -55.2759E-03     98.8881E-03    -57.7808E-03     112.710E-03    -55.1617E-03     98.0920E-03
             361     11.0719E-03     65.4713E-03    -22.1481E+06    -56.6311E+06    -6.83941E+06     994.347E+03    -57.6890E-03     112.925E-03    -55.2360E-03     107.202E-03    -58.2676E-03     113.244E-03    -55.1559E-03     106.236E-03
             362     11.9245E-03     65.5823E-03    -21.4166E+06    -26.4522E+06    -8.05833E+06     1.11798E+06    -58.0081E-03     113.186E-03    -55.1783E-03     118.195E-03    -58.8824E-03     113.914E-03    -55.1492E-03     117.020E-03
             363     12.7750E-03     65.7071E-03    -19.7181E+06     22.6836E+06    -12.1654E+06     1.25422E+06    -58.2868E-03     113.347E-03    -55.0600E-03     136.904E-03    -59.7259E-03     114.832E-03    -55.1251E-03     135.441E-03
             364     13.6287E-03     65.8558E-03    -17.9790E+06     72.0262E+06     2.31433E+06     291.326E+03    -61.1644E-03     116.181E-03    -55.0170E-03     184.320E-03    -64.1112E-03     119.313E-03    -55.0838E-03     182.347E-03
             365     14.4816E-03     66.0777E-03    -16.0504E+06     112.273E+06     46.6092E+06    -65.9916E+03    -70.4434E-03     125.604E-03    -55.1611E-03     283.609E-03    -78.9230E-03     134.290E-03    -55.0675E-03     280.671E-03
             366     15.3301E-03     66.4352E-03    -12.5154E+06     151.337E+06     93.4328E+06     391.958E+03    -79.2168E-03     134.562E-03    -55.3452E-03     395.592E-03    -101.175E-03     156.742E-03    -55.0794E-03     394.379E-03
             367     16.1851E-03     66.9031E-03    -6.04026E+06     165.236E+06     111.553E+06     123.780E+03    -67.1064E-03     122.482E-03    -55.3751E-03     297.070E-03    -86.0260E-03     141.643E-03    -55.0482E-03     301.912E-03
             368     851.669E-06     65.8181E-03    -47.8480E+06    -164.745E+06    -46.7233E+06     129.995E+03    -55.3492E-03     110.650E-03    -55.3010E-03     9.77861E-03    -55.2831E-03     109.965E-03    -55.2263E-03     9.74752E-03
             369     1.70325E-03     65.8322E-03    -46.5727E+06    -162.253E+06    -42.6110E+06     481.635E+03    -55.3942E-03     110.723E-03    -55.3292E-03     17.9122E-03    -55.3345E-03     110.046E-03    -55.2395E-03     17.8562E-03
             370     2.55491E-03     65.8543E-03    -44.6956E+06    -158.372E+06    -36.3388E+06     667.058E+03    -55.4757E-03     110.826E-03    -55.3506E-03     26.4540E-03    -55.4267E-03     110.162E-03    -55.2378E-03     26.3667E-03
             371     3.40655E-03     65.8855E-03    -42.4338E+06    -154.577E+06    -30.1851E+06     779.805E+03    -55.6005E-03     110.969E-03    -55.3688E-03     34.9683E-03    -55.5631E-03     110.320E-03    -55.2340E-03     34.8438E-03
             372     4.25813E-03     65.9247E-03    -39.5615E+06    -150.889E+06    -24.5586E+06     409.873E+03    -55.7254E-03     111.105E-03    -55.3799E-03     43.3950E-03    -55.6992E-03     110.474E-03    -55.2265E-03     43.2214E-03
             373     5.10999E-03     65.9728E-03    -36.3015E+06    -144.299E+06    -19.2511E+06    -881.439E+03    -55.8868E-03     111.267E-03    -55.3798E-03     51.6863E-03    -55.8786E-03     110.673E-03    -55.2142E-03     51.4444E-03
             374     5.96158E-03     66.0284E-03    -33.6727E+06    -140.874E+06    -13.7667E+06    -744.713E+03    -56.1304E-03     111.518E-03    -55.3879E-03     59.7640E-03    -56.1456E-03     110.954E-03    -55.2036E-03     59.4621E-03
             375     6.81343E-03     66.0929E-03    -31.0920E+06    -135.080E+06    -9.05474E+06     908.280E+03    -56.3559E-03     111.747E-03    -55.3915E-03     67.6611E-03    -56.4054E-03     111.233E-03    -55.1958E-03     67.3085E-03
             376     7.66497E-03     66.1642E-03    -28.6847E+06    -124.721E+06    -8.28450E+06     1.09152E+06    -56.5480E-03     111.914E-03    -55.3661E-03     75.4518E-03    -56.6449E-03     111.490E-03    -55.1851E-03     75.0174E-03
             377     8.51704E-03     66.2443E-03    -26.6798E+06    -113.312E+06    -7.76850E+06     707.505E+03    -56.7751E-03     112.110E-03    -55.3348E-03     83.2308E-03    -56.9375E-03     111.798E-03    -55.1706E-03     82.6926E-03
             378     9.36870E-03     66.3309E-03    -24.6972E+06    -98.5959E+06    -7.04233E+06     845.207E+03    -57.0357E-03     112.335E-03    -55.2990E-03     91.1686E-03    -57.2912E-03     112.173E-03    -55.1554E-03     90.5147E-03
             379     10.2205E-03     66.4273E-03    -23.1309E+06    -81.0447E+06    -7.21969E+06     959.976E+03    -57.3548E-03     112.613E-03    -55.2581E-03     99.0463E-03    -57.7404E-03     112.650E-03    -55.1431E-03     98.2516E-03
             380     11.0726E-03     66.5288E-03    -21.9356E+06    -56.5982E+06    -6.47862E+06     1.10567E+06    -57.7255E-03     112.945E-03    -55.2196E-03     107.217E-03    -58.3042E-03     113.264E-03    -55.1381E-03     106.251E-03
             381     11.9237E-03     66.6418E-03    -20.3202E+06    -26.6472E+06    -7.39728E+06     914.882E+03    -57.8862E-03     113.048E-03    -55.1620E-03     117.627E-03    -58.7528E-03     113.770E-03    -55.1309E-03     116.453E-03
             382     12.7770E-03     66.7650E-03    -19.2268E+06     22.9589E+06    -12.4134E+06     198.459E+03    -58.3670E-03     113.408E-03    -55.0414E-03     136.280E-03    -59.8020E-03     114.893E-03    -55.1088E-03     134.801E-03
             383     13.6282E-03     66.9139E-03    -18.6292E+06     73.0855E+06     4.43372E+06     165.760E+03    -61.7084E-03     116.739E-03    -55.0304E-03     184.870E-03    -64.6745E-03     119.885E-03    -55.0871E-03     182.876E-03
             384     14.4784E-03     67.1370E-03    -16.6741E+06     112.130E+06     48.2195E+06     1.01467E+06    -70.3157E-03     125.492E-03    -55.1767E-03     285.453E-03    -78.8301E-03     134.206E-03    -55.0740E-03     282.570E-03
             385     15.3325E-03     67.4950E-03    -12.1504E+06     151.327E+06     92.7678E+06     1.21394E+06    -78.8545E-03     134.164E-03    -55.3093E-03     398.633E-03    -100.851E-03     156.385E-03    -55.0472E-03     397.393E-03
             386     16.1809E-03     67.9612E-03    -5.49644E+06     165.750E+06     112.139E+06     192.201E+03    -67.6519E-03     122.975E-03    -55.3230E-03     298.347E-03    -86.5661E-03     142.133E-03    -54.9947E-03     303.110E-03
             387     851.559E-06     66.8770E-03    -48.0719E+06    -165.145E+06    -47.3292E+06     204.418E+03    -55.3852E-03     110.698E-03    -55.3129E-03     9.77651E-03    -55.3188E-03     110.012E-03    -55.2404E-03     9.74645E-03
             388     1.70323E-03     66.8904E-03    -46.7367E+06    -162.980E+06    -43.8339E+06     447.194E+03    -55.3826E-03     110.724E-03    -55.3416E-03     17.9211E-03    -55.3209E-03     110.045E-03    -55.2567E-03     17.8648E-03
             389     2.55488E-03     66.9130E-03    -44.4444E+06    -158.995E+06    -37.5999E+06     806.107E+03    -55.4644E-03     110.815E-03    -55.3507E-03     26.4867E-03    -55.4114E-03     110.149E-03    -55.2437E-03     26.4013E-03
             390     3.40653E-03     66.9437E-03    -41.4389E+06    -154.721E+06    -31.1259E+06     821.014E+03    -55.5767E-03     110.938E-03    -55.3613E-03     35.0143E-03    -55.5326E-03     110.288E-03    -55.2325E-03     34.8907E-03
             391     4.25827E-03     66.9834E-03    -38.0726E+06    -149.572E+06    -23.1456E+06    -46.7220E+03    -55.7145E-03     111.091E-03    -55.3768E-03     43.4119E-03    -55.6849E-03     110.463E-03    -55.2204E-03     43.2325E-03
             392     5.10993E-03     67.0308E-03    -35.6132E+06    -143.799E+06    -17.4283E+06    -125.776E+03    -55.9042E-03     111.286E-03    -55.3821E-03     51.6933E-03    -55.8960E-03     110.692E-03    -55.2091E-03     51.4608E-03
             393     5.96171E-03     67.0874E-03    -34.0792E+06    -142.077E+06    -13.8685E+06     531.283E+03    -56.1122E-03     111.498E-03    -55.3855E-03     59.7535E-03    -56.1276E-03     110.928E-03    -55.1994E-03     59.4680E-03
             394     6.81333E-03     67.1508E-03    -31.7092E+06    -136.100E+06    -9.23076E+06     549.965E+03    -56.2853E-03     111.669E-03    -55.3840E-03     67.6593E-03    -56.3361E-03     111.151E-03    -55.1868E-03     67.3026E-03
             395     7.66530E-03     67.2233E-03    -28.5093E+06    -124.613E+06    -7.60499E+06     765.038E+03    -56.5272E-03     111.883E-03    -55.3559E-03     75.4605E-03    -56.6242E-03     111.459E-03    -55.1719E-03     75.0222E-03
             396     8.51697E-03     67.3020E-03    -26.0025E+06    -112.983E+06    -7.25958E+06     712.021E+03    -56.8007E-03     112.125E-03    -55.3242E-03     83.1773E-03    -56.9612E-03     111.813E-03    -55.1589E-03     82.6386E-03
             397     9.36879E-03     67.3903E-03    -24.1079E+06    -99.1328E+06    -6.88673E+06     507.518E+03    -57.0052E-03     112.294E-03    -55.2891E-03     91.0463E-03    -57.2570E-03     112.129E-03    -55.1448E-03     90.3882E-03
             398     10.2210E-03     67.4843E-03    -22.3822E+06    -81.2954E+06    -6.89856E+06     805.324E+03    -57.3544E-03     112.602E-03    -55.2479E-03     99.0372E-03    -57.7360E-03     112.636E-03    -55.1321E-03     98.2410E-03
             399     11.0723E-03     67.5891E-03    -20.6182E+06    -56.9304E+06     -5.9143E+06     1.08661E+06    -57.6227E-03     112.829E-03    -55.2064E-03     107.277E-03    -58.1940E-03     113.142E-03    -55.1235E-03     106.315E-03
             400     11.9243E-03     67.6994E-03    -19.8856E+06    -26.4121E+06    -7.01138E+06     737.935E+03    -57.7709E-03     112.912E-03    -55.1409E-03     117.775E-03    -58.6351E-03     113.632E-03    -55.1088E-03     116.603E-03
             401     12.7757E-03     67.8231E-03    -19.9784E+06     24.4273E+06    -11.8463E+06     351.003E+03    -58.6053E-03     113.630E-03    -55.0250E-03     136.742E-03    -60.0535E-03     115.129E-03    -55.0907E-03     135.256E-03
             402     13.6282E-03     67.9729E-03    -19.9331E+06      72.029E+06     1.43066E+06     1.08779E+06    -61.6841E-03     116.690E-03    -55.0058E-03     185.521E-03    -64.6450E-03     119.832E-03    -55.0741E-03     183.545E-03
             403     14.4817E-03     68.1964E-03    -17.5014E+06     110.499E+06     44.5724E+06     1.49868E+06    -69.3828E-03     124.502E-03    -55.1187E-03     285.740E-03    -77.8536E-03     133.173E-03    -55.0307E-03     282.947E-03
             404     15.3338E-03     68.5523E-03    -12.4819E+06     152.222E+06     93.0289E+06     403.522E+03    -77.7776E-03     132.993E-03    -55.2154E-03     398.607E-03    -99.8875E-03     155.329E-03    -54.9529E-03     397.529E-03
             405     16.1925E-03     69.0250E-03    -5.78466E+06     166.440E+06     112.755E+06    -399.635E+03    -68.5379E-03     123.777E-03    -55.2387E-03     296.468E-03    -87.4854E-03     142.967E-03    -54.9078E-03     301.079E-03
             406     851.615E-06     67.9351E-03    -48.3350E+06    -165.384E+06    -47.5571E+06     85.2504E+03    -55.3719E-03     110.695E-03    -55.3231E-03     9.77282E-03    -55.3061E-03     110.009E-03    -55.2510E-03     9.74109E-03
             407     1.70322E-03     67.9492E-03    -46.9124E+06    -163.204E+06    -44.1608E+06    -87.6391E+03    -55.3810E-03     110.720E-03    -55.3393E-03     17.9476E-03    -55.3193E-03     110.041E-03    -55.2554E-03     17.8845E-03
             408     2.55489E-03     67.9712E-03    -44.3571E+06    -159.377E+06    -38.3333E+06    -174.921E+03    -55.4455E-03     110.789E-03    -55.3432E-03     26.5325E-03    -55.3904E-03     110.122E-03    -55.2394E-03     26.4346E-03
             409     3.40659E-03     68.0025E-03    -41.1710E+06    -154.821E+06    -31.3821E+06    -126.172E+03    -55.5560E-03     110.907E-03    -55.3510E-03     35.0192E-03    -55.5101E-03     110.256E-03    -55.2237E-03     34.8833E-03
             410     4.25831E-03     68.0415E-03    -38.3441E+06    -149.031E+06    -22.2281E+06     160.611E+03    -55.7225E-03     111.095E-03    -55.3725E-03     43.4203E-03    -55.6963E-03     110.468E-03    -55.2119E-03     43.2434E-03
             411     5.10996E-03     68.0898E-03    -35.7799E+06    -145.382E+06    -15.8685E+06     1.14461E+06    -55.9068E-03     111.293E-03    -55.3867E-03     51.6734E-03    -55.8995E-03     110.689E-03    -55.2033E-03     51.4569E-03
             412     5.96166E-03     68.1453E-03    -33.1607E+06    -142.126E+06    -14.2465E+06     1.59839E+06    -56.0675E-03     111.442E-03    -55.3743E-03     59.7299E-03    -56.0777E-03     110.871E-03    -55.1914E-03     59.4583E-03
             413     6.81352E-03     68.2098E-03      -30.75E+06    -135.100E+06    -10.8544E+06     535.200E+03    -56.2700E-03     111.632E-03    -55.3616E-03     67.6348E-03    -56.3150E-03     111.119E-03    -55.1754E-03     67.2781E-03
             414     7.66534E-03     68.2809E-03    -28.2722E+06    -125.197E+06    -8.14333E+06         909.694    -56.5520E-03     111.895E-03    -55.3435E-03     75.4803E-03    -56.6462E-03     111.469E-03    -55.1617E-03     75.0320E-03
             415     8.51702E-03     68.3615E-03    -25.6044E+06    -112.757E+06    -7.30977E+06     211.516E+03    -56.7932E-03     112.108E-03    -55.3147E-03     83.1128E-03    -56.9518E-03     111.797E-03    -55.1506E-03     82.5676E-03
             416     9.36903E-03     68.4474E-03    -23.5768E+06    -99.3348E+06    -6.99021E+06     361.641E+03    -57.0884E-03     112.372E-03    -55.2839E-03     90.9946E-03    -57.3378E-03     112.206E-03    -55.1406E-03     90.3326E-03
             417     10.2204E-03     68.5441E-03    -22.2243E+06    -82.0941E+06    -7.24433E+06     732.357E+03    -57.2459E-03     112.488E-03    -55.2422E-03     99.1197E-03    -57.6244E-03     112.517E-03    -55.1272E-03     98.3251E-03
             418     11.0726E-03     68.6464E-03    -21.3323E+06    -57.8130E+06    -6.77733E+06     900.547E+03    -57.2491E-03     112.430E-03    -55.1812E-03     107.368E-03    -57.8181E-03     112.738E-03    -55.1003E-03     106.413E-03
             419     11.9252E-03     68.7580E-03    -20.1659E+06    -25.5233E+06    -6.84245E+06     941.286E+03    -57.8296E-03     112.936E-03    -55.1069E-03     117.937E-03    -58.6966E-03     113.661E-03    -55.0748E-03     116.767E-03
             420     12.7775E-03     68.8820E-03    -19.7951E+06     23.9179E+06    -11.7076E+06     1.73353E+06    -58.8173E-03     113.820E-03    -55.0031E-03     136.722E-03    -60.2660E-03     115.318E-03    -55.0676E-03     135.247E-03
             421     13.6285E-03     69.0318E-03    -19.8364E+06     71.2002E+06     466.142E+03     1.88412E+06    -61.4998E-03     116.484E-03    -54.9840E-03     184.833E-03    -64.4536E-03     119.619E-03    -55.0561E-03     182.873E-03
             422     14.4802E-03     69.2529E-03    -17.5174E+06     110.804E+06     43.8103E+06     459.531E+03    -69.0500E-03     124.144E-03    -55.0939E-03     283.636E-03    -77.4628E-03     132.761E-03    -55.0101E-03     280.846E-03
             423     15.3353E-03     69.6092E-03    -12.4820E+06     153.526E+06     93.6400E+06    -246.941E+03    -78.1774E-03     133.396E-03    -55.2182E-03     396.807E-03    -100.362E-03     155.809E-03    -54.9545E-03     395.691E-03
             424     16.1818E-03     70.0791E-03    -5.64165E+06     167.365E+06     113.361E+06    -57.4385E+03    -68.6404E-03     123.911E-03    -55.2703E-03     295.712E-03    -87.6982E-03     143.214E-03    -54.9380E-03     300.301E-03
             425     851.624E-06     68.9940E-03    -48.1584E+06    -165.301E+06    -47.3559E+06    -151.085E+03    -55.3433E-03     110.653E-03    -55.3097E-03     9.75013E-03    -55.2770E-03     109.966E-03    -55.2370E-03     9.71541E-03
             426     1.70327E-03     69.0074E-03    -46.8451E+06    -162.832E+06    -43.3982E+06    -316.155E+03    -55.3745E-03     110.699E-03    -55.3243E-03     17.9454E-03    -55.3141E-03     110.020E-03    -55.2372E-03     17.8793E-03
             427     2.55492E-03     69.0299E-03    -44.9246E+06    -158.954E+06    -37.1066E+06    -713.142E+03    -55.4427E-03     110.780E-03    -55.3371E-03     26.5252E-03    -55.3929E-03     110.114E-03    -55.2270E-03     26.4202E-03
             428     3.40664E-03     69.0606E-03    -42.3300E+06    -155.072E+06    -30.9889E+06    -653.050E+03    -55.5620E-03     110.910E-03    -55.3476E-03     35.0139E-03    -55.5221E-03     110.259E-03    -55.2163E-03     34.8710E-03
             429     4.25826E-03     69.1003E-03    -39.4166E+06    -150.515E+06    -23.9520E+06     569.969E+03    -55.7067E-03     111.068E-03    -55.3616E-03     43.4364E-03    -55.6813E-03     110.438E-03    -55.2060E-03     43.2649E-03
             430     5.11004E-03     69.1479E-03    -36.2300E+06    -146.578E+06    -17.4607E+06     1.47199E+06    -55.8671E-03     111.239E-03    -55.3715E-03     51.6713E-03    -55.8580E-03     110.631E-03    -55.1938E-03     51.4593E-03
             431     5.96177E-03     69.2041E-03    -32.6417E+06    -141.553E+06    -13.8113E+06     946.676E+03    -56.0497E-03     111.412E-03    -55.3624E-03     59.6839E-03    -56.0587E-03     110.843E-03    -55.1789E-03     59.4038E-03
             432     6.81365E-03     69.2676E-03    -29.1581E+06    -134.024E+06    -10.4984E+06     390.114E+03    -56.3124E-03     111.662E-03    -55.3494E-03     67.6749E-03    -56.3517E-03     111.152E-03    -55.1653E-03     67.3159E-03
             433     7.66522E-03     69.3401E-03    -26.8926E+06    -125.172E+06    -8.60441E+06     102.849E+03    -56.5496E-03     111.881E-03    -55.3318E-03     75.4594E-03    -56.6362E-03     111.453E-03    -55.1544E-03     75.0125E-03
             434     8.51726E-03     69.4190E-03    -25.6210E+06    -113.264E+06    -7.81451E+06     157.542E+03    -56.7844E-03     112.090E-03    -55.3053E-03     83.1373E-03    -56.9417E-03     111.777E-03    -55.1430E-03     82.5918E-03
             435     9.36878E-03     69.5069E-03    -24.5385E+06    -99.7276E+06    -7.60642E+06     655.101E+03    -57.0429E-03     112.316E-03    -55.2730E-03     91.1876E-03    -57.2956E-03     112.150E-03    -55.1309E-03     90.5306E-03
             436     10.2209E-03     69.6018E-03    -23.5912E+06    -82.7884E+06    -8.13842E+06     710.548E+03    -57.0683E-03     112.291E-03    -55.2229E-03     98.9910E-03    -57.4504E-03     112.319E-03    -55.1094E-03     98.1992E-03
             437     11.0734E-03     69.7044E-03    -22.1812E+06    -57.6713E+06    -7.33252E+06     705.964E+03    -57.3533E-03     112.514E-03    -55.1607E-03     107.179E-03    -57.9256E-03     112.824E-03    -55.0816E-03     106.220E-03
             438     11.9251E-03     69.8163E-03    -21.0095E+06    -25.9535E+06    -7.63757E+06     995.628E+03    -58.0246E-03     113.124E-03    -55.0989E-03     117.768E-03    -58.8946E-03     113.849E-03    -55.0690E-03     116.594E-03
             439     12.7760E-03     69.9412E-03    -20.0175E+06     22.2854E+06    -12.6120E+06     1.53094E+06    -58.7313E-03     113.733E-03    -55.0016E-03     136.127E-03    -60.1718E-03     115.218E-03    -55.0679E-03     134.653E-03
             440     13.6287E-03     70.0896E-03    -18.4610E+06     71.7444E+06     1.62913E+06     1.87471E+06    -61.4490E-03     116.435E-03    -54.9863E-03     184.174E-03    -64.4071E-03     119.578E-03    -55.0554E-03     182.214E-03
             441     14.4814E-03     70.3121E-03    -16.2187E+06     112.925E+06     46.5279E+06     1.28636E+06    -69.7054E-03     124.830E-03    -55.1243E-03     282.785E-03    -78.1040E-03     133.437E-03    -55.0319E-03     279.947E-03
             442     15.3319E-03     70.6645E-03    -11.9035E+06     154.584E+06     94.9613E+06     183.261E+03    -78.4244E-03     133.688E-03    -55.2637E-03     398.030E-03    -100.680E-03     156.175E-03    -54.9958E-03     396.956E-03
             443     16.1878E-03     71.1454E-03    -6.15911E+06     167.069E+06     112.688E+06    -153.158E+03    -68.3757E-03     123.663E-03    -55.2877E-03     299.473E-03    -87.6327E-03     143.165E-03    -54.9576E-03     304.237E-03
             444     851.642E-06     70.0521E-03    -48.0429E+06    -165.117E+06    -46.8247E+06    -70.1818E+03    -55.3129E-03     110.618E-03    -55.3055E-03     9.71361E-03    -55.2471E-03     109.932E-03    -55.2306E-03     9.67982E-03
             445     1.70331E-03     70.0661E-03    -46.8104E+06    -162.622E+06    -42.7699E+06    -32.5502E+03    -55.3628E-03     110.673E-03    -55.3105E-03     17.9257E-03    -55.3034E-03     109.994E-03    -55.2207E-03     17.8631E-03
             446     2.55498E-03     70.0882E-03    -45.0182E+06    -158.590E+06    -36.2900E+06     100.441E+03    -55.4453E-03     110.774E-03    -55.3286E-03     26.5041E-03    -55.3976E-03     110.109E-03    -55.2148E-03     26.4096E-03
             447     3.40658E-03     70.1193E-03    -43.1499E+06    -155.200E+06    -30.6332E+06     91.7637E+03    -55.5531E-03     110.895E-03    -55.3419E-03     35.0332E-03    -55.5177E-03     110.244E-03    -55.2074E-03     34.9001E-03
             448     4.25836E-03     70.1585E-03    -40.2840E+06    -151.908E+06    -25.4782E+06     107.120E+03    -55.6818E-03     111.029E-03    -55.3474E-03     43.4501E-03    -55.6565E-03     110.395E-03    -55.1961E-03     43.2728E-03
             449     5.11007E-03     70.2066E-03    -35.7847E+06    -146.543E+06    -18.3870E+06    -62.9778E+03    -55.8368E-03     111.190E-03    -55.3531E-03     51.6782E-03    -55.8241E-03     110.583E-03    -55.1807E-03     51.4468E-03
             450     5.96192E-03     70.2622E-03    -31.3624E+06    -141.174E+06    -11.3050E+06    -171.700E+03    -56.0753E-03     111.436E-03    -55.3603E-03     59.6967E-03    -56.0822E-03     110.863E-03    -55.1666E-03     59.4020E-03
             451     6.81353E-03     70.3264E-03    -28.7217E+06    -134.541E+06    -8.65142E+06     370.371E+03    -56.3100E-03     111.659E-03    -55.3495E-03     67.7024E-03    -56.3491E-03     111.144E-03    -55.1560E-03     67.3433E-03
             452     7.66551E-03     70.3981E-03    -27.1572E+06    -125.117E+06    -8.86186E+06     844.264E+03    -56.5220E-03     111.843E-03    -55.3209E-03     75.4429E-03    -56.6096E-03     111.416E-03    -55.1445E-03     75.0060E-03
             453     8.51712E-03     70.4777E-03    -26.0773E+06    -113.791E+06    -7.56388E+06     1.17431E+06    -56.7448E-03     112.041E-03    -55.2957E-03     83.2181E-03    -56.9040E-03     111.725E-03    -55.1307E-03     82.6861E-03
             454     9.36921E-03     70.5650E-03    -25.0574E+06    -100.078E+06    -7.45531E+06     1.14860E+06    -56.8897E-03     112.145E-03    -55.2555E-03     91.0932E-03    -57.1439E-03     111.977E-03    -55.1113E-03     90.4452E-03
             455     10.2213E-03     70.6599E-03    -23.5168E+06    -81.9741E+06    -7.85814E+06     652.029E+03    -57.2304E-03     112.436E-03    -55.2058E-03     98.7308E-03    -57.6146E-03     112.469E-03    -55.0922E-03     97.9343E-03
             456     11.0728E-03     70.7625E-03    -22.4803E+06    -57.8438E+06    -7.48004E+06     642.004E+03    -57.7610E-03     112.928E-03    -55.1672E-03     107.129E-03    -58.3375E-03     113.241E-03    -55.0882E-03     106.159E-03
             457     11.9244E-03     70.8755E-03    -21.6234E+06    -27.0948E+06    -8.43872E+06     783.938E+03    -58.0745E-03     113.195E-03    -55.1209E-03     117.699E-03    -58.9469E-03     113.919E-03    -55.0925E-03     116.519E-03
             458     12.7771E-03     70.9993E-03    -20.7322E+06     22.3444E+06    -12.8313E+06     731.752E+03    -58.5394E-03     113.559E-03    -55.0195E-03     135.981E-03    -59.9795E-03     115.042E-03    -55.0860E-03     134.504E-03
             459     13.6283E-03     71.1485E-03    -19.0251E+06     71.5515E+06     1.17525E+06     850.668E+03    -61.4186E-03     116.414E-03    -54.9959E-03     183.961E-03    -64.3715E-03     119.550E-03    -55.0662E-03     181.989E-03
             460     14.4803E-03     71.3691E-03    -15.8203E+06     112.921E+06     45.5306E+06     1.57159E+06    -70.0735E-03     125.209E-03    -55.1354E-03     283.488E-03    -78.5009E-03     133.849E-03    -55.0485E-03     280.614E-03
             461     15.3323E-03     71.7266E-03    -10.8842E+06     155.437E+06     95.1759E+06     1.57244E+06    -78.1785E-03     133.462E-03    -55.2835E-03     396.360E-03    -100.125E-03     155.646E-03    -55.0172E-03     395.335E-03
             462     16.1866E-03     72.1931E-03    -5.94442E+06     167.925E+06     113.605E+06     457.183E+03    -68.0661E-03     123.374E-03    -55.3083E-03     299.547E-03    -87.1342E-03     142.688E-03    -54.9752E-03     304.446E-03
             463     851.649E-06     71.1108E-03    -48.1402E+06    -165.336E+06    -47.1312E+06     99.2170E+03    -55.3072E-03     110.591E-03    -55.2836E-03     9.70440E-03    -55.2412E-03     109.904E-03    -55.2097E-03     9.67280E-03
             464     1.70332E-03     71.1243E-03    -46.8401E+06    -162.924E+06    -43.1815E+06     392.977E+03    -55.3550E-03     110.651E-03    -55.2964E-03     17.9391E-03    -55.2947E-03     109.972E-03    -55.2081E-03     17.8821E-03
             465     2.55495E-03     71.1468E-03    -44.8683E+06    -159.182E+06    -37.2136E+06     772.461E+03    -55.4296E-03     110.742E-03    -55.3120E-03     26.5026E-03    -55.3790E-03     110.074E-03    -55.2022E-03     26.4169E-03
             466     3.40674E-03     71.1775E-03    -42.2704E+06    -155.164E+06    -30.9095E+06     970.123E+03    -55.5389E-03     110.864E-03    -55.3249E-03     35.0222E-03    -55.4987E-03     110.212E-03    -55.1932E-03     34.9005E-03
             467     4.25837E-03     71.2171E-03    -39.5551E+06    -150.821E+06    -24.3529E+06    -139.255E+03    -55.6663E-03     111.002E-03    -55.3355E-03     43.4171E-03    -55.6405E-03     110.371E-03    -55.1812E-03     43.2367E-03
             468     5.11020E-03     71.2646E-03    -36.6678E+06    -145.730E+06    -17.6887E+06    -1.47484E+06    -55.8347E-03     111.178E-03    -55.3433E-03     51.6929E-03    -55.8286E-03     110.576E-03    -55.1673E-03     51.4436E-03
             469     5.96190E-03     71.3209E-03    -33.8084E+06    -142.617E+06    -12.5305E+06    -650.556E+03    -56.0758E-03     111.425E-03    -55.3491E-03     59.7593E-03    -56.0910E-03     110.850E-03    -55.1560E-03     59.4588E-03
             470     6.81374E-03     71.3846E-03    -31.2476E+06    -135.762E+06    -9.01358E+06     902.973E+03    -56.2790E-03     111.622E-03    -55.3432E-03     67.6153E-03    -56.3284E-03     111.105E-03    -55.1461E-03     67.2630E-03
             471     7.66546E-03     71.4565E-03    -29.0311E+06    -125.330E+06    -8.52498E+06     1.25429E+06    -56.4835E-03     111.798E-03    -55.3143E-03     75.4277E-03    -56.5806E-03     111.372E-03    -55.1331E-03     74.9963E-03
             472     8.51744E-03     71.5360E-03    -26.6569E+06    -114.302E+06    -7.78604E+06     1.28345E+06    -56.6969E-03     111.979E-03    -55.2825E-03     83.0949E-03    -56.8577E-03     111.662E-03    -55.1171E-03     82.5648E-03
             473     9.36930E-03     71.6231E-03    -24.2911E+06    -99.5819E+06    -6.90794E+06     1.13190E+06    -56.9818E-03     112.228E-03    -55.2466E-03     90.8064E-03    -57.2341E-03     112.061E-03    -55.1016E-03     90.1557E-03
             474     10.2212E-03     71.7181E-03    -22.9510E+06    -81.5526E+06    -7.52506E+06     903.083E+03    -57.4614E-03     112.672E-03    -55.2108E-03     98.7777E-03    -57.8454E-03     112.707E-03    -55.0969E-03     97.9796E-03
             475     11.0727E-03     71.8220E-03    -22.0828E+06    -57.7465E+06    -6.95939E+06     943.217E+03    -57.8240E-03     113.008E-03    -55.1845E-03     107.326E-03    -58.4016E-03     113.323E-03    -55.1036E-03     106.358E-03
             476     11.9243E-03     71.9335E-03    -21.3373E+06    -27.3372E+06    -8.07463E+06     850.965E+03    -58.0395E-03     113.177E-03    -55.1372E-03     117.919E-03    -58.9117E-03     113.899E-03    -55.1070E-03     116.741E-03
             477     12.7755E-03     72.0580E-03    -20.4981E+06     22.3817E+06    -12.5368E+06     706.872E+03    -58.5358E-03     113.568E-03    -55.0324E-03     135.970E-03    -59.9769E-03     115.052E-03    -55.0978E-03     134.492E-03
             478     13.6286E-03     72.2061E-03    -19.9350E+06     71.3867E+06     781.367E+03     401.930E+03    -61.5496E-03     116.560E-03    -55.0101E-03     184.050E-03    -64.5057E-03     119.696E-03    -55.0808E-03     182.063E-03
             479     14.4805E-03     72.4290E-03    -17.5486E+06     111.309E+06     43.7306E+06     220.491E+03    -70.0302E-03     125.178E-03    -55.1481E-03     283.570E-03    -78.4795E-03     133.834E-03    -55.0654E-03     280.689E-03
             480     15.3331E-03     72.7841E-03    -11.4764E+06     155.120E+06     94.1531E+06     888.013E+03    -79.4541E-03     134.793E-03    -55.3387E-03     394.432E-03    -101.261E-03     156.837E-03    -55.0762E-03     393.030E-03
             481     16.1824E-03     73.2521E-03    -5.30640E+06     169.120E+06     114.181E+06     1.07502E+06    -67.6678E-03     123.072E-03    -55.4039E-03     298.316E-03    -86.5959E-03     142.250E-03    -55.0705E-03     303.034E-03
             482     851.683E-06     72.1689E-03    -48.2984E+06    -165.667E+06    -47.6334E+06     88.3164E+03    -55.3218E-03     110.567E-03    -55.2455E-03     9.71567E-03    -55.2553E-03     109.880E-03    -55.1734E-03     9.68410E-03
             483     1.70333E-03     72.1829E-03    -47.0793E+06    -163.560E+06    -44.2049E+06     363.710E+03    -55.3441E-03     110.625E-03    -55.2813E-03     17.9257E-03    -55.2827E-03     109.944E-03    -55.1969E-03     17.8684E-03
             484     2.55507E-03     72.2050E-03    -44.7954E+06    -159.759E+06    -38.1710E+06     500.971E+03    -55.4180E-03     110.714E-03    -55.2962E-03     26.4873E-03    -55.3648E-03     110.045E-03    -55.1904E-03     26.3982E-03
             485     3.40668E-03     72.2361E-03    -41.6181E+06    -155.322E+06    -31.5655E+06     424.725E+03    -55.5235E-03     110.832E-03    -55.3080E-03     34.9948E-03    -55.4789E-03     110.179E-03    -55.1803E-03     34.8661E-03
             486     4.25851E-03     72.2753E-03    -38.4010E+06    -149.336E+06    -22.6483E+06     203.094E+03    -55.6642E-03     110.992E-03    -55.3275E-03     43.3780E-03    -55.6372E-03     110.364E-03    -55.1686E-03     43.2019E-03
             487     5.11021E-03     72.3232E-03    -36.3418E+06    -145.003E+06    -15.7010E+06    -25.9941E+03    -55.8622E-03     111.206E-03    -55.3434E-03     51.6333E-03    -55.8584E-03     110.604E-03    -55.1589E-03     51.4021E-03
             488     5.96201E-03     72.3791E-03    -34.6616E+06    -144.137E+06    -13.1290E+06     147.483E+03    -56.0631E-03     111.407E-03    -55.3443E-03     59.6717E-03    -56.0795E-03     110.827E-03    -55.1507E-03     59.3814E-03
             489     6.81369E-03     72.4432E-03    -31.7900E+06    -136.822E+06    -9.70709E+06     588.176E+03    -56.2682E-03     111.605E-03    -55.3364E-03     67.5329E-03    -56.3178E-03     111.084E-03    -55.1404E-03     67.1763E-03
             490     7.66562E-03     72.5147E-03    -28.4910E+06    -125.559E+06    -8.09741E+06     972.638E+03    -56.4919E-03     111.803E-03    -55.3112E-03     75.3049E-03    -56.5867E-03     111.374E-03    -55.1283E-03     74.8692E-03
             491     8.51739E-03     72.5944E-03    -26.1142E+06    -114.368E+06    -8.02304E+06     898.975E+03    -56.7570E-03     112.037E-03    -55.2801E-03     82.8929E-03    -56.9147E-03     111.719E-03    -55.1165E-03     82.3567E-03
             492     9.36931E-03     72.6812E-03    -24.4766E+06    -99.6531E+06    -7.29347E+06     884.216E+03    -57.1610E-03     112.417E-03    -55.2556E-03     90.7912E-03    -57.4145E-03     112.251E-03    -55.1121E-03     90.1338E-03
             493     10.2207E-03     72.7771E-03    -23.0754E+06    -81.7143E+06    -7.39793E+06     1.15278E+06    -57.4881E-03     112.718E-03    -55.2302E-03     98.8762E-03    -57.8731E-03     112.753E-03    -55.1152E-03     98.0806E-03
             494     11.0726E-03     72.8801E-03    -21.9263E+06    -58.0574E+06    -6.99794E+06     1.23350E+06    -57.5876E-03     112.781E-03    -55.1937E-03     107.278E-03    -58.1622E-03     113.092E-03    -55.1127E-03     106.319E-03
             495     11.9245E-03     72.9926E-03    -20.9585E+06    -27.1631E+06    -7.69907E+06     1.23566E+06    -57.8592E-03     112.990E-03    -55.1310E-03     118.166E-03    -58.7270E-03     113.710E-03    -55.0997E-03     117.000E-03
             496     12.7770E-03     73.1164E-03    -20.6566E+06     22.1454E+06    -12.7352E+06     941.665E+03    -58.6645E-03     113.686E-03    -55.0215E-03     136.439E-03    -60.1126E-03     115.176E-03    -55.0873E-03     134.957E-03
             497     13.6278E-03     73.2648E-03    -19.9214E+06     71.8604E+06     854.831E+03     551.668E+03    -61.7834E-03     116.792E-03    -55.0086E-03     184.638E-03    -64.7536E-03     119.944E-03    -55.0797E-03     182.641E-03
             498     14.4798E-03     73.4872E-03    -17.1679E+06     112.152E+06     45.4592E+06     343.212E+03    -70.4589E-03     125.628E-03    -55.1692E-03     284.211E-03    -78.9295E-03     134.304E-03    -55.0796E-03     281.292E-03
             499     15.3306E-03     73.8430E-03    -13.0261E+06     154.523E+06     94.2753E+06    -47.8644E+03    -79.6533E-03     135.010E-03    -55.3565E-03     397.889E-03    -101.808E-03     157.394E-03    -55.0903E-03     396.493E-03
             500     16.1796E-03     74.3156E-03    -6.13650E+06     168.663E+06     113.121E+06     71.1616E+03    -67.3804E-03     122.768E-03    -55.3875E-03     298.399E-03    -86.4664E-03     142.103E-03    -55.0576E-03     303.091E-03
             501     851.660E-06     73.2276E-03    -48.6613E+06    -165.949E+06    -47.5993E+06     254.780E+03    -55.3294E-03     110.556E-03    -55.2269E-03     9.73880E-03    -55.2643E-03     109.868E-03    -55.1537E-03     9.70940E-03
             502     1.70335E-03     73.2410E-03    -47.3233E+06    -163.765E+06    -44.2232E+06     35.8561E+03    -55.3365E-03     110.613E-03    -55.2763E-03     17.9003E-03    -55.2760E-03     109.931E-03    -55.1914E-03     17.8387E-03
             503     2.55500E-03     73.2635E-03    -45.1053E+06    -159.817E+06    -38.1646E+06    -84.9062E+03    -55.4072E-03     110.698E-03    -55.2905E-03     26.4835E-03    -55.3555E-03     110.029E-03    -55.1842E-03     26.3868E-03
             504     3.40680E-03     73.2943E-03    -42.3592E+06    -155.206E+06    -31.0119E+06    -253.040E+03    -55.5232E-03     110.829E-03    -55.3063E-03     34.9560E-03    -55.4832E-03     110.178E-03    -55.1749E-03     34.8184E-03
             505     4.25848E-03     73.3338E-03    -39.1111E+06    -149.782E+06    -22.5766E+06     117.328E+03    -55.6876E-03     111.016E-03    -55.3284E-03     43.3327E-03    -55.6637E-03     110.387E-03    -55.1674E-03     43.1551E-03
             506     5.11023E-03     73.3815E-03    -35.5756E+06    -145.701E+06    -16.1028E+06     1.22514E+06    -55.8782E-03     111.222E-03    -55.3438E-03     51.5505E-03    -55.8691E-03     110.616E-03    -55.1615E-03     51.3348E-03
             507     5.96186E-03     73.4375E-03    -32.5226E+06    -143.647E+06    -12.8830E+06     1.03627E+06    -56.0578E-03     111.402E-03    -55.3441E-03     59.5597E-03    -56.0647E-03     110.821E-03    -55.1531E-03     59.2804E-03
             508     6.81382E-03     73.5013E-03    -30.0186E+06    -137.053E+06    -10.2409E+06     266.872E+03    -56.2838E-03     111.617E-03    -55.3332E-03     67.5195E-03    -56.3233E-03     111.093E-03    -55.1421E-03     67.1589E-03
             509     7.66545E-03     73.5733E-03    -27.9190E+06    -126.387E+06    -8.88744E+06     699.936E+03    -56.5665E-03     111.880E-03    -55.3133E-03     75.2110E-03    -56.6562E-03     111.448E-03    -55.1340E-03     74.7709E-03
             510     8.51733E-03     73.6524E-03    -26.1492E+06    -114.156E+06    -7.86751E+06     1.10717E+06    -56.8665E-03     112.161E-03    -55.2950E-03     82.8621E-03    -57.0253E-03     111.845E-03    -55.1309E-03     82.3267E-03
             511     9.36885E-03     73.7401E-03    -24.7598E+06    -100.033E+06    -7.57773E+06     1.06464E+06    -57.1649E-03     112.438E-03    -55.2734E-03     90.9325E-03    -57.4189E-03     112.271E-03    -55.1303E-03     90.2777E-03
             512     10.2208E-03     73.8354E-03    -23.5143E+06    -82.1210E+06    -7.69122E+06     1.22779E+06    -57.3787E-03     112.621E-03    -55.2419E-03     99.0060E-03    -57.7643E-03     112.654E-03    -55.1272E-03     98.2139E-03
             513     11.0724E-03     73.9388E-03    -22.2989E+06    -58.3090E+06    -7.30735E+06     1.24032E+06    -57.5032E-03     112.700E-03    -55.1965E-03     107.198E-03    -58.0780E-03     113.010E-03    -55.1161E-03     106.241E-03
             514     11.9247E-03     74.0500E-03    -21.1517E+06    -27.8167E+06    -8.23150E+06     1.27367E+06    -57.7044E-03     112.829E-03    -55.1250E-03     117.886E-03    -58.5678E-03     113.543E-03    -55.0952E-03     116.725E-03
             515     12.7764E-03     74.1754E-03    -20.2172E+06     22.5875E+06    -12.4796E+06     1.07994E+06    -58.4624E-03     113.468E-03    -55.0055E-03     136.484E-03    -59.9034E-03     114.953E-03    -55.0713E-03     135.013E-03
             516     13.6290E-03     74.3236E-03    -19.2250E+06     72.7207E+06     2.09509E+06     921.521E+03    -61.8500E-03     116.842E-03    -54.9915E-03     185.033E-03    -64.8250E-03     120.000E-03    -55.0586E-03     183.036E-03
             517     14.4807E-03     74.5466E-03    -16.9986E+06     112.786E+06     45.5603E+06     984.976E+03    -70.2815E-03     125.420E-03    -55.1381E-03     285.607E-03    -78.7729E-03     134.119E-03    -55.0491E-03     282.713E-03
             518     15.3322E-03     74.9044E-03    -11.8631E+06     155.429E+06     94.7238E+06     455.088E+03    -77.8430E-03     133.102E-03    -55.2590E-03     399.621E-03    -100.055E-03     155.549E-03    -54.9935E-03     398.632E-03
             519     16.1913E-03     75.3745E-03    -6.00939E+06     168.756E+06     113.618E+06    -15.4674E+03    -68.3223E-03     123.588E-03    -55.2655E-03     297.849E-03    -87.4144E-03     142.928E-03    -54.9334E-03     302.641E-03
             520     851.688E-06     74.2857E-03    -48.7564E+06    -166.295E+06    -47.9901E+06     141.929E+03    -55.2825E-03     110.536E-03    -55.2540E-03     9.74572E-03    -55.2169E-03     109.847E-03    -55.1821E-03     9.71476E-03
             521     1.70334E-03     74.2996E-03    -47.5181E+06    -163.675E+06    -43.6663E+06     163.284E+03    -55.3354E-03     110.607E-03    -55.2717E-03     17.9194E-03    -55.2768E-03     109.925E-03    -55.1838E-03     17.8594E-03
             522     2.55508E-03     74.3217E-03    -45.7746E+06    -159.831E+06    -37.4826E+06     121.541E+03    -55.4177E-03     110.710E-03    -55.2923E-03     26.4699E-03    -55.3703E-03     110.041E-03    -55.1816E-03     26.3757E-03
             523     3.40672E-03     74.3528E-03    -43.4870E+06    -155.101E+06    -30.2171E+06     198.412E+03    -55.5417E-03     110.857E-03    -55.3149E-03     34.9455E-03    -55.5087E-03     110.206E-03    -55.1780E-03     34.8137E-03
             524     4.25841E-03     74.3921E-03    -40.8178E+06    -150.454E+06    -23.2061E+06     287.467E+03    -55.6920E-03     111.027E-03    -55.3350E-03     43.3564E-03    -55.6747E-03     110.398E-03    -55.1737E-03     43.1813E-03
             525     5.11009E-03     74.4401E-03    -37.1184E+06    -146.559E+06    -17.8159E+06     191.999E+03    -55.8523E-03     111.196E-03    -55.3432E-03     51.5902E-03    -55.8472E-03     110.590E-03    -55.1660E-03     51.3617E-03
             526     5.96200E-03     74.4958E-03    -32.9854E+06    -143.463E+06    -13.0024E+06     537.038E+03    -56.0745E-03     111.422E-03    -55.3472E-03     59.5703E-03    -56.0838E-03     110.842E-03    -55.1564E-03     59.2845E-03
             527     6.81361E-03     74.5598E-03    -30.5185E+06    -137.161E+06    -10.2503E+06     1.06465E+06    -56.3322E-03     111.673E-03    -55.3412E-03     67.5032E-03    -56.3741E-03     111.150E-03    -55.1493E-03     67.1525E-03
             528     7.66552E-03     74.6316E-03    -28.9417E+06    -126.897E+06    -9.59888E+06     1.03421E+06    -56.6178E-03     111.942E-03    -55.3241E-03     75.2540E-03    -56.7108E-03     111.510E-03    -55.1462E-03     74.8179E-03
             529     8.51699E-03     74.7112E-03    -27.0890E+06    -114.451E+06    -8.33036E+06     1.06816E+06    -56.8916E-03     112.201E-03    -55.3093E-03     82.9734E-03    -57.0542E-03     111.885E-03    -55.1457E-03     82.4371E-03
             530     9.36889E-03     74.7984E-03    -25.2341E+06    -100.060E+06    -7.84845E+06     1.12772E+06    -57.0951E-03     112.379E-03    -55.2842E-03     91.0140E-03    -57.3508E-03     112.213E-03    -55.1418E-03     90.3613E-03
             531     10.2206E-03     74.8940E-03    -23.6116E+06    -82.6044E+06    -8.03002E+06     1.11020E+06    -57.2652E-03     112.509E-03    -55.2440E-03     98.9685E-03    -57.6493E-03     112.539E-03    -55.1301E-03     98.1771E-03
             532     11.0728E-03     74.9970E-03    -22.2107E+06    -58.3840E+06    -7.35047E+06     1.30823E+06    -57.4723E-03     112.665E-03    -55.1932E-03     107.219E-03    -58.0460E-03     112.974E-03    -55.1131E-03     106.263E-03
             533     11.9242E-03     75.1088E-03    -21.2038E+06    -27.7017E+06    -8.33574E+06     1.18463E+06    -57.7128E-03     112.833E-03    -55.1204E-03     117.988E-03    -58.5775E-03     113.549E-03    -55.0912E-03     116.826E-03
             534     12.7769E-03     75.2327E-03    -20.5343E+06     22.8937E+06    -12.6192E+06     1.26205E+06    -58.5079E-03     113.510E-03    -55.0021E-03     136.744E-03    -59.9525E-03     115.000E-03    -55.0686E-03     135.273E-03
             535     13.6289E-03     75.3826E-03    -19.7980E+06     72.8047E+06     1.17352E+06     1.14963E+06    -61.7080E-03     116.691E-03    -54.9828E-03     184.784E-03    -64.6803E-03     119.848E-03    -55.0538E-03     182.797E-03
             536     14.4803E-03     75.6058E-03    -16.8263E+06     113.059E+06     44.8777E+06    -37.9489E+03    -69.4875E-03     124.599E-03    -55.1111E-03     283.924E-03    -77.9253E-03     133.248E-03    -55.0263E-03     281.094E-03
             537     15.3357E-03     75.9604E-03    -11.4811E+06     154.736E+06     94.2232E+06    -38.9736E+03    -77.5504E-03     132.783E-03    -55.2327E-03     394.942E-03    -99.3790E-03     154.847E-03    -54.9693E-03     393.928E-03
             538     16.1856E-03     76.4288E-03    -6.25615E+06     168.436E+06     113.131E+06     487.694E+03    -68.4869E-03     123.756E-03    -55.2690E-03     297.097E-03    -87.3696E-03     142.886E-03    -54.9385E-03     301.857E-03
             539     851.682E-06     75.3442E-03    -49.2150E+06    -166.608E+06    -48.1825E+06     28.6377E+03    -55.2706E-03     110.527E-03    -55.2562E-03     9.77996E-03    -55.2066E-03     109.837E-03    -55.1842E-03     9.74740E-03
             540     1.70341E-03     75.3578E-03    -47.9213E+06    -164.126E+06    -44.1610E+06     441.212E+03    -55.3451E-03     110.614E-03    -55.2692E-03     17.9051E-03    -55.2871E-03     109.932E-03    -55.1826E-03     17.8488E-03
             541     2.55500E-03     75.3803E-03    -45.7607E+06    -160.025E+06    -37.6733E+06     701.952E+03    -55.4350E-03     110.731E-03    -55.2955E-03     26.4424E-03    -55.3870E-03     110.061E-03    -55.1855E-03     26.3557E-03
             542     3.40673E-03     75.4111E-03    -43.1272E+06    -155.527E+06    -30.9458E+06     875.721E+03    -55.5414E-03     110.858E-03    -55.3162E-03     34.9700E-03    -55.5049E-03     110.206E-03    -55.1829E-03     34.8472E-03
             543     4.25843E-03     75.4506E-03    -39.9750E+06    -150.174E+06    -23.3572E+06     644.795E+03    -55.6795E-03     111.014E-03    -55.3345E-03     43.3771E-03    -55.6582E-03     110.385E-03    -55.1756E-03     43.2069E-03
             544     5.11025E-03     75.4982E-03    -37.0969E+06    -146.162E+06    -17.2273E+06     30.0201E+03    -55.8689E-03     111.216E-03    -55.3469E-03     51.5663E-03    -55.8651E-03     110.611E-03    -55.1673E-03     51.3355E-03
             545     5.96188E-03     75.5543E-03    -34.8737E+06    -144.792E+06    -13.6832E+06     399.165E+03    -56.1166E-03     111.471E-03    -55.3544E-03     59.5545E-03    -56.1324E-03     110.889E-03    -55.1623E-03     59.2665E-03
             546     6.81367E-03     75.6181E-03    -32.0297E+06    -137.729E+06    -10.2582E+06     1.23696E+06    -56.3689E-03     111.724E-03    -55.3552E-03     67.4888E-03    -56.4177E-03     111.200E-03    -55.1604E-03     67.1396E-03
             547     7.66521E-03     75.6901E-03    -29.1481E+06    -126.686E+06    -9.05423E+06     1.18968E+06    -56.5976E-03     111.936E-03    -55.3382E-03     75.3255E-03    -56.6928E-03     111.504E-03    -55.1575E-03     74.8916E-03
             548     8.51714E-03     75.7697E-03    -26.8426E+06    -114.703E+06    -8.34376E+06     807.379E+03    -56.8428E-03     112.158E-03    -55.3157E-03     83.0699E-03    -57.0038E-03     111.841E-03    -55.1521E-03     82.5308E-03
             549     9.36877E-03     75.8569E-03    -24.8138E+06    -100.228E+06    -7.61215E+06     827.593E+03    -57.0942E-03     112.382E-03    -55.2882E-03     90.9938E-03    -57.3481E-03     112.215E-03    -55.1450E-03     90.3367E-03
             550     10.2207E-03     75.9523E-03    -23.1730E+06    -82.7801E+06    -7.79474E+06     965.202E+03    -57.2661E-03     112.514E-03    -55.2479E-03     98.8355E-03    -57.6481E-03     112.542E-03    -55.1332E-03     98.0419E-03
             551     11.0724E-03     76.0553E-03    -21.7368E+06    -59.1066E+06    -7.31447E+06     1.18184E+06    -57.3433E-03     112.536E-03    -55.1923E-03     107.028E-03    -57.9122E-03     112.839E-03    -55.1117E-03     106.074E-03
             552     11.9253E-03     76.1670E-03    -20.7017E+06    -27.5695E+06    -7.89935E+06     1.51047E+06    -57.7537E-03     112.871E-03    -55.1177E-03     117.787E-03    -58.6172E-03     113.586E-03    -55.0872E-03     116.627E-03
             553     12.7767E-03     76.2911E-03    -20.4317E+06     22.2479E+06    -12.8188E+06     1.51274E+06    -58.8590E-03     113.870E-03    -55.0111E-03     136.848E-03    -60.3108E-03     115.366E-03    -55.0778E-03     135.367E-03
             554     13.6278E-03     76.4421E-03    -18.8125E+06     73.4207E+06     1.13277E+06     498.015E+03    -61.7148E-03     116.717E-03    -55.0020E-03     184.355E-03    -64.6779E-03     119.871E-03    -55.0755E-03     182.365E-03
             555     14.4811E-03     76.6626E-03    -16.0729E+06     114.877E+06     46.8412E+06    -306.818E+03    -69.9036E-03     125.061E-03    -55.1570E-03     282.499E-03    -78.3299E-03     133.702E-03    -55.0661E-03     279.632E-03
             556     15.3307E-03     77.0180E-03    -13.0993E+06     153.085E+06     94.0249E+06     158.750E+03    -78.8833E-03     134.215E-03    -55.3318E-03     393.869E-03    -100.670E-03     156.226E-03    -55.0646E-03     392.630E-03
             557     16.1831E-03     77.4870E-03    -6.46003E+06     168.102E+06     112.260E+06     200.556E+03    -67.4011E-03     122.767E-03    -55.3663E-03     298.556E-03    -86.3165E-03     141.931E-03    -55.0394E-03     303.378E-03
             558     851.693E-06     76.4024E-03    -49.7374E+06    -167.091E+06    -48.6783E+06     288.040E+03    -55.3425E-03     110.566E-03    -55.2240E-03     9.77632E-03    -55.2796E-03     109.875E-03    -55.1530E-03     9.74715E-03
             559     1.70329E-03     76.4163E-03    -48.2644E+06    -164.667E+06    -45.0014E+06     332.396E+03    -55.3499E-03     110.634E-03    -55.2840E-03     17.9001E-03    -55.2916E-03     109.950E-03    -55.2002E-03     17.8424E-03
             560     2.55503E-03     76.4385E-03    -45.8396E+06    -160.475E+06    -38.5605E+06     489.166E+03    -55.4230E-03     110.725E-03    -55.3022E-03     26.4499E-03    -55.3734E-03     110.055E-03    -55.1958E-03     26.3606E-03
             561     3.40669E-03     76.4696E-03    -42.8775E+06    -156.286E+06    -32.0387E+06     860.706E+03    -55.5427E-03     110.860E-03    -55.3169E-03     34.9434E-03    -55.5023E-03     110.205E-03    -55.1884E-03     34.8202E-03
             562     4.25846E-03     76.5089E-03    -40.2049E+06    -149.657E+06    -25.5160E+06      854.87E+03    -55.6987E-03     111.028E-03    -55.3291E-03     43.3175E-03    -55.6762E-03     110.405E-03    -55.1814E-03     43.1496E-03
             563     5.11009E-03     76.5568E-03    -37.6544E+06    -146.093E+06    -19.3923E+06     835.351E+03    -55.9017E-03     111.248E-03    -55.3461E-03     51.5005E-03    -55.8977E-03     110.648E-03    -55.1766E-03     51.2795E-03
             564     5.96183E-03     76.6126E-03    -34.9111E+06    -145.682E+06    -14.4563E+06     1.03685E+06    -56.1378E-03     111.502E-03    -55.3637E-03     59.5574E-03    -56.1515E-03     110.916E-03    -55.1741E-03     59.2772E-03
             565     6.81344E-03     76.6767E-03    -32.0980E+06    -137.793E+06    -10.3277E+06     694.900E+03    -56.3599E-03     111.726E-03    -55.3661E-03     67.5335E-03    -56.4089E-03     111.202E-03    -55.1714E-03     67.1774E-03
             566     7.66532E-03     76.7485E-03    -28.9711E+06    -126.669E+06    -8.94154E+06     418.156E+03    -56.5659E-03     111.912E-03    -55.3459E-03     75.3247E-03    -56.6605E-03     111.480E-03    -55.1650E-03     74.8807E-03
             567     8.51701E-03     76.8281E-03    -26.2246E+06    -114.732E+06    -8.32361E+06     428.905E+03    -56.8075E-03     112.126E-03    -55.3181E-03     83.0912E-03    -56.9654E-03     111.807E-03    -55.1553E-03     82.5478E-03
             568     9.36890E-03     76.9155E-03    -24.2283E+06    -100.572E+06    -7.63664E+06     529.335E+03    -57.0958E-03     112.384E-03    -55.2887E-03     90.9925E-03    -57.3463E-03     112.214E-03    -55.1459E-03     90.3315E-03
             569     10.2205E-03     77.0107E-03    -22.5561E+06    -83.1870E+06    -7.71557E+06     786.709E+03    -57.2685E-03     112.517E-03    -55.2489E-03     98.7662E-03    -57.6472E-03     112.543E-03    -55.1342E-03     97.9697E-03
             570     11.0727E-03     77.1135E-03    -21.3025E+06    -59.5344E+06    -7.30084E+06     924.455E+03    -57.4728E-03     112.671E-03    -55.1984E-03     106.875E-03    -58.0399E-03     112.973E-03    -55.1177E-03     105.914E-03
             571     11.9243E-03     77.2247E-03    -19.9119E+06    -28.4173E+06    -7.97677E+06     1.38450E+06    -58.0382E-03     113.176E-03    -55.1379E-03     117.719E-03    -58.9000E-03     113.890E-03    -55.1077E-03     116.548E-03
             572     12.7761E-03     77.3507E-03    -18.3926E+06     22.6389E+06    -11.7721E+06     1.05519E+06    -58.8241E-03     113.865E-03    -55.0408E-03     136.759E-03    -60.2669E-03     115.357E-03    -55.1058E-03     135.274E-03
             573     13.6284E-03     77.5002E-03    -17.9536E+06     74.7085E+06     3.96259E+06     525.673E+03    -61.6819E-03     116.719E-03    -55.0372E-03     184.254E-03    -64.6436E-03     119.871E-03    -55.0997E-03     182.267E-03
             574     14.4790E-03     77.7215E-03    -17.2248E+06     114.702E+06     47.0963E+06     1.45010E+06    -70.2541E-03     125.438E-03    -55.1843E-03     284.070E-03    -78.7213E-03     134.115E-03    -55.0902E-03     281.196E-03
             575     15.3313E-03     78.0789E-03    -12.4851E+06     154.061E+06     93.7675E+06     1.02744E+06    -79.0859E-03     134.432E-03    -55.3456E-03     396.981E-03    -101.110E-03     156.687E-03    -55.0820E-03     395.751E-03
             576     16.1829E-03     78.5447E-03    -5.72836E+06     168.792E+06     113.000E+06    -114.695E+03    -67.5550E-03     122.933E-03    -55.3781E-03     298.251E-03    -86.6111E-03     142.240E-03    -55.0495E-03     303.087E-03
             577     851.612E-06     77.4610E-03    -49.9542E+06    -167.454E+06    -49.2250E+06     76.0681E+03    -55.3483E-03     110.613E-03    -55.2649E-03     9.78579E-03    -55.2852E-03     109.921E-03    -55.1958E-03     9.75387E-03
             578     1.70332E-03     77.4746E-03    -48.5284E+06    -164.873E+06    -45.1430E+06     138.837E+03    -55.3501E-03     110.654E-03    -55.3035E-03     17.9043E-03    -55.2926E-03     109.969E-03    -55.2198E-03     17.8440E-03
             579     2.55496E-03     77.4970E-03    -46.4482E+06    -160.915E+06    -38.7873E+06     227.422E+03    -55.4263E-03     110.742E-03    -55.3161E-03     26.4438E-03    -55.3788E-03     110.071E-03    -55.2094E-03     26.3509E-03
             580     3.40671E-03     77.5279E-03    -43.6878E+06    -157.010E+06    -32.5933E+06     469.709E+03    -55.5592E-03     110.889E-03    -55.3294E-03     34.9247E-03    -55.5210E-03     110.232E-03    -55.2013E-03     34.7961E-03
             581     4.25830E-03     77.5674E-03    -40.6313E+06    -150.203E+06    -26.2063E+06     1.08857E+06    -55.7105E-03     111.051E-03    -55.3407E-03     43.3332E-03    -55.6883E-03     110.428E-03    -55.1950E-03     43.1682E-03
             582     5.11006E-03     77.6152E-03    -37.8957E+06    -146.331E+06    -19.8598E+06     1.36340E+06    -55.9068E-03     111.264E-03    -55.3570E-03     51.5628E-03    -55.9030E-03     110.664E-03    -55.1892E-03     51.3488E-03
             583     5.96173E-03     77.6712E-03    -34.8408E+06    -145.315E+06    -14.1253E+06     714.724E+03    -56.1364E-03     111.512E-03    -55.3756E-03     59.6016E-03    -56.1508E-03     110.928E-03    -55.1850E-03     59.3172E-03
             584     6.81352E-03     77.7351E-03    -31.0769E+06    -137.155E+06    -10.0307E+06    -32.8230E+03    -56.3421E-03     111.715E-03    -55.3733E-03     67.5427E-03    -56.3873E-03     111.192E-03    -55.1795E-03     67.1771E-03
             585     7.66516E-03     77.8070E-03    -28.1014E+06    -126.820E+06    -9.44953E+06    -263.957E+03    -56.5687E-03     111.917E-03    -55.3482E-03     75.3030E-03    -56.6581E-03     111.484E-03    -55.1708E-03     74.8499E-03
             586     8.51703E-03     77.8865E-03    -26.0309E+06    -115.094E+06    -8.91443E+06    -8.44256E+03    -56.8059E-03     112.126E-03    -55.3205E-03     83.0755E-03    -56.9615E-03     111.807E-03    -55.1604E-03     82.5262E-03
             587     9.36877E-03     77.9739E-03    -24.1592E+06    -100.909E+06    -8.21801E+06     274.507E+03    -57.0183E-03     112.306E-03    -55.2872E-03     90.9907E-03    -57.2666E-03     112.134E-03    -55.1470E-03     90.3281E-03
             588     10.2208E-03     78.0692E-03    -22.6490E+06    -83.6987E+06    -8.31601E+06     416.201E+03    -57.3194E-03     112.566E-03    -55.2464E-03     98.7086E-03    -57.6972E-03     112.590E-03    -55.1338E-03     97.9061E-03
             589     11.0726E-03     78.1715E-03    -21.2329E+06    -59.4678E+06    -7.52669E+06     628.411E+03    -57.7773E-03     112.987E-03    -55.2101E-03     106.932E-03    -58.3464E-03     113.292E-03    -55.1307E-03     105.959E-03
             590     11.9241E-03     78.2843E-03    -19.7313E+06    -28.8535E+06    -8.26695E+06     396.664E+03    -58.1916E-03     113.356E-03    -55.1648E-03     118.029E-03    -59.0560E-03     114.072E-03    -55.1357E-03     116.839E-03
             591     12.7755E-03     78.4086E-03    -18.8830E+06     22.7103E+06    -12.3285E+06     522.435E+03    -58.5529E-03     113.613E-03    -55.0603E-03     136.920E-03    -59.9948E-03     115.104E-03    -55.1275E-03     135.435E-03
             592     13.6276E-03     78.5588E-03    -19.1138E+06     73.8049E+06     2.67142E+06     2.24245E+06    -61.3507E-03     116.382E-03    -55.0316E-03     185.166E-03    -64.3116E-03     119.530E-03    -55.0975E-03     183.217E-03
             593     14.4806E-03     78.7807E-03    -17.1986E+06     114.612E+06     46.2727E+06     2.61300E+06    -69.7974E-03     124.946E-03    -55.1491E-03     285.056E-03    -78.2836E-03     133.644E-03    -55.0589E-03     282.227E-03
             594     15.3338E-03     79.1371E-03    -11.7130E+06     156.803E+06     94.7011E+06     658.913E+03    -78.4190E-03     133.701E-03    -55.2817E-03     397.448E-03    -100.538E-03     156.060E-03    -55.0186E-03     396.316E-03
             595     16.1860E-03     79.6077E-03    -6.35199E+06     169.068E+06     113.143E+06    -234.769E+03    -68.2755E-03     123.596E-03    -55.3200E-03     297.373E-03    -87.3382E-03     142.908E-03    -54.9902E-03     302.121E-03
             596     851.642E-06     78.5193E-03    -50.1569E+06    -167.492E+06    -49.0274E+06    -35.0682E+03    -55.3487E-03     110.643E-03    -55.2944E-03     9.79445E-03    -55.2869E-03     109.951E-03    -55.2240E-03     9.76112E-03
             597     1.70326E-03     78.5331E-03    -48.7941E+06    -165.125E+06    -45.1695E+06     89.3246E+03    -55.3644E-03     110.684E-03    -55.3191E-03     17.8888E-03    -55.3078E-03     109.999E-03    -55.2348E-03     17.8277E-03
             598     2.55495E-03     78.5553E-03    -46.5978E+06    -161.237E+06    -39.0088E+06     292.307E+03    -55.4467E-03     110.778E-03    -55.3316E-03     26.4495E-03    -55.3991E-03     110.106E-03    -55.2253E-03     26.3574E-03
             599     3.40655E-03     78.5864E-03    -43.8305E+06    -157.112E+06    -32.7107E+06     150.480E+03    -55.5627E-03     110.907E-03    -55.3443E-03     34.9605E-03    -55.5249E-03     110.251E-03    -55.2164E-03     34.8280E-03
             600     4.25833E-03     78.6257E-03    -40.3608E+06    -151.589E+06    -24.9714E+06     475.934E+03    -55.7146E-03     111.076E-03    -55.3610E-03     43.3604E-03    -55.6909E-03     110.443E-03    -55.2075E-03     43.1875E-03
             601     5.11003E-03     78.6737E-03    -36.2208E+06    -146.636E+06    -17.7933E+06     1.08390E+06    -55.9148E-03     111.291E-03    -55.3761E-03     51.5793E-03    -55.9051E-03     110.684E-03    -55.2000E-03     51.3617E-03
             602     5.96170E-03     78.7297E-03    -32.5459E+06    -143.704E+06    -13.0546E+06     278.448E+03    -56.1340E-03     111.518E-03    -55.3840E-03     59.5964E-03    -56.1408E-03     110.937E-03    -55.1937E-03     59.3062E-03
             603     6.81335E-03     78.7936E-03    -29.9939E+06    -136.901E+06    -10.4291E+06    -505.935E+03    -56.3342E-03     111.710E-03    -55.3756E-03     67.5269E-03    -56.3738E-03     111.187E-03    -55.1857E-03     67.1551E-03
             604     7.66524E-03     78.8654E-03    -27.8638E+06    -126.930E+06    -10.1321E+06    -376.470E+03    -56.5729E-03     111.922E-03    -55.3494E-03     75.3382E-03    -56.6600E-03     111.489E-03    -55.1757E-03     74.8836E-03
             605     8.51690E-03     78.9449E-03    -25.9552E+06    -115.325E+06    -9.41974E+06    -264.629E+03    -56.8147E-03     112.138E-03    -55.3229E-03     83.0640E-03    -56.9690E-03     111.818E-03    -55.1652E-03     82.5110E-03
             606     9.36879E-03     79.0322E-03    -24.3271E+06    -101.357E+06    -8.85803E+06    -34.1930E+03    -57.0463E-03     112.337E-03    -55.2912E-03     90.8306E-03    -57.2940E-03     112.165E-03    -55.1533E-03     90.1629E-03
             607     10.2208E-03     79.1272E-03    -22.7819E+06    -83.6953E+06    -8.69203E+06     96.6051E+03    -57.4395E-03     112.696E-03    -55.2568E-03     98.7072E-03    -57.8180E-03     112.722E-03    -55.1459E-03     97.8981E-03
             608     11.0720E-03     79.2310E-03    -21.2713E+06    -59.6251E+06    -7.84992E+06     179.305E+03    -57.7668E-03     112.991E-03    -55.2241E-03     107.104E-03    -58.3364E-03     113.296E-03    -55.1460E-03     106.125E-03
             609     11.9238E-03     79.3423E-03    -20.6774E+06    -28.9175E+06    -8.89641E+06     236.023E+03    -57.8912E-03     113.057E-03    -55.1656E-03     118.358E-03    -58.7584E-03     113.774E-03    -55.1382E-03     117.174E-03
             610     12.7759E-03     79.4679E-03    -20.8748E+06     21.3745E+06    -14.3037E+06     1.11864E+06    -58.4081E-03     113.449E-03    -55.0414E-03     137.233E-03    -59.8563E-03     114.941E-03    -55.1136E-03     135.760E-03
             611     13.6288E-03     79.6158E-03    -19.5127E+06     72.4364E+06     -362.43E+03     2.17561E+06    -61.4969E-03     116.503E-03    -55.0060E-03     184.952E-03    -64.4572E-03     119.652E-03    -55.0845E-03     182.990E-03
             612     14.4811E-03     79.8397E-03    -15.6705E+06     115.447E+06     45.6599E+06     1.87401E+06    -69.4920E-03     124.626E-03    -55.1336E-03     283.673E-03    -77.9495E-03     133.305E-03    -55.0499E-03     280.862E-03
             613     15.3322E-03     80.1950E-03    -10.8660E+06     158.207E+06     96.0180E+06     1.34159E+06    -77.7126E-03     132.966E-03    -55.2538E-03     396.844E-03    -99.6617E-03     155.160E-03    -54.9874E-03     395.838E-03
             614     16.1862E-03     80.6642E-03    -6.24398E+06     169.905E+06     113.673E+06     695.027E+03    -68.7150E-03     123.989E-03    -55.2742E-03     298.837E-03    -87.6667E-03     143.192E-03    -54.9432E-03     303.623E-03
             615     851.598E-06     79.5779E-03    -50.0223E+06    -167.585E+06    -49.1734E+06     39.6936E+03    -55.3761E-03     110.668E-03    -55.2921E-03     9.73150E-03    -55.3132E-03     109.976E-03    -55.2224E-03     9.69912E-03
             616     1.70326E-03     79.5915E-03    -48.7071E+06    -165.330E+06    -45.4669E+06     80.7926E+03    -55.3806E-03     110.711E-03    -55.3308E-03     17.9009E-03    -55.3229E-03     110.026E-03    -55.2478E-03     17.8397E-03
             617     2.55487E-03     79.6139E-03    -46.5201E+06    -161.410E+06    -39.3857E+06     78.0139E+03    -55.4584E-03     110.801E-03    -55.3428E-03     26.4662E-03    -55.4097E-03     110.129E-03    -55.2383E-03     26.3713E-03
             618     3.40662E-03     79.6448E-03    -43.8952E+06    -156.979E+06    -32.7579E+06     127.371E+03    -55.5757E-03     110.932E-03    -55.3566E-03     34.9570E-03    -55.5384E-03     110.277E-03    -55.2291E-03     34.8241E-03
             619     4.25824E-03     79.6843E-03    -41.3130E+06    -152.346E+06    -25.9143E+06     209.219E+03    -55.7264E-03     111.098E-03    -55.3717E-03     43.3596E-03    -55.7050E-03     110.464E-03    -55.2205E-03     43.1831E-03
             620     5.10988E-03     79.7322E-03    -38.0811E+06    -146.310E+06    -20.2995E+06    -318.394E+03    -55.8933E-03     111.270E-03    -55.3766E-03     51.6232E-03    -55.8898E-03     110.671E-03    -55.2108E-03     51.3878E-03
             621     5.96165E-03     79.7881E-03    -34.2610E+06    -142.910E+06    -14.9976E+06    -679.527E+03    -56.0996E-03     111.481E-03    -55.3817E-03     59.6461E-03    -56.1132E-03     110.909E-03    -55.1998E-03     59.3441E-03
             622     6.81343E-03     79.8521E-03    -31.0115E+06    -137.043E+06    -10.9750E+06    -482.703E+03    -56.3389E-03     111.717E-03    -55.3784E-03     67.5319E-03    -56.3826E-03     111.196E-03    -55.1896E-03     67.1602E-03
             623     7.66513E-03     79.9237E-03    -28.6112E+06    -126.759E+06    -10.6430E+06    -617.333E+03    -56.5824E-03     111.935E-03    -55.3524E-03     75.3298E-03    -56.6729E-03     111.505E-03    -55.1803E-03     74.8718E-03
             624     8.51696E-03     80.0035E-03    -26.5190E+06    -115.458E+06    -9.94429E+06    -596.346E+03    -56.8519E-03     112.180E-03    -55.3282E-03     82.9971E-03    -57.0079E-03     111.861E-03    -55.1721E-03     82.4395E-03
             625     9.36872E-03     80.0904E-03    -24.6048E+06    -101.505E+06    -9.23872E+06    -413.066E+03    -57.2006E-03     112.506E-03    -55.3050E-03     90.8068E-03    -57.4499E-03     112.334E-03    -55.1684E-03     90.1309E-03
             626     10.2201E-03     80.1862E-03    -23.1593E+06    -84.0017E+06    -9.22519E+06    -104.583E+03    -57.4195E-03     112.694E-03    -55.2749E-03     98.8301E-03    -57.7992E-03     112.720E-03    -55.1656E-03     98.0180E-03
             627     11.0722E-03     80.2893E-03    -22.3238E+06    -60.2685E+06    -8.75501E+06     87.0895E+03    -57.4792E-03     112.708E-03    -55.2284E-03     107.204E-03    -58.0506E-03     113.011E-03    -55.1524E-03     106.230E-03
             628     11.9243E-03     80.4010E-03    -21.3396E+06    -29.3669E+06    -9.53261E+06     639.284E+03    -57.7058E-03     112.859E-03    -55.1535E-03     118.016E-03    -58.5712E-03     113.572E-03    -55.1277E-03     116.843E-03
             629     12.7770E-03     80.5252E-03    -20.3741E+06     20.6736E+06    -14.1498E+06     1.38949E+06    -58.7753E-03     113.816E-03    -55.0402E-03     136.647E-03    -60.2244E-03     115.307E-03    -55.1114E-03     135.164E-03
             630     13.6279E-03     80.6756E-03    -19.4269E+06     72.0912E+06      56.282E+03     1.07579E+06    -61.8380E-03     116.872E-03    -55.0335E-03     183.949E-03    -64.8023E-03     120.023E-03    -55.1096E-03     181.957E-03
             631     14.4785E-03     80.8976E-03    -16.7064E+06     114.906E+06     44.2467E+06     547.481E+03    -69.1814E-03     124.342E-03    -55.1602E-03     282.735E-03    -77.5968E-03     132.977E-03    -55.0813E-03     279.937E-03
             632     15.3342E-03     81.2511E-03    -11.4276E+06     157.332E+06     94.3013E+06     1.23711E+06    -77.8989E-03     133.180E-03    -55.2806E-03     395.505E-03    -99.6749E-03     155.200E-03    -55.0207E-03     394.368E-03
             633     16.1878E-03     81.7234E-03    -5.81152E+06     171.208E+06     114.458E+06     1.49255E+06    -68.6283E-03     123.947E-03    -55.3185E-03     298.759E-03    -87.5095E-03     143.083E-03    -54.9860E-03     303.472E-03
             634     851.615E-06     80.6362E-03    -50.1822E+06    -167.711E+06    -49.2507E+06     23.1384E+03    -55.3677E-03     110.681E-03    -55.3134E-03     9.70370E-03    -55.3053E-03     109.988E-03    -55.2437E-03     9.67114E-03
             635     1.70323E-03     80.6500E-03    -48.8600E+06    -165.376E+06    -45.6267E+06     30.4340E+03    -55.3925E-03     110.731E-03    -55.3381E-03     17.9111E-03    -55.3353E-03     110.045E-03    -55.2556E-03     17.8492E-03
             636     2.55489E-03     80.6723E-03    -46.8717E+06    -161.359E+06    -39.3811E+06    -36.6525E+03    -55.4784E-03     110.832E-03    -55.3541E-03     26.4630E-03    -55.4315E-03     110.161E-03    -55.2491E-03     26.3665E-03
             637     3.40648E-03     80.7033E-03    -44.1476E+06    -157.203E+06    -33.2041E+06     44.2479E+03    -55.5936E-03     110.962E-03    -55.3683E-03     34.9592E-03    -55.5565E-03     110.306E-03    -55.2424E-03     34.8250E-03
             638     4.25815E-03     80.7427E-03    -40.4893E+06    -151.918E+06    -26.1193E+06    -283.398E+03    -55.7242E-03     111.105E-03    -55.3809E-03     43.3752E-03    -55.6990E-03     110.473E-03    -55.2325E-03     43.1923E-03
             639     5.10996E-03     80.7906E-03    -36.8075E+06    -145.236E+06    -19.6485E+06    -1.00221E+06    -55.8831E-03     111.268E-03    -55.3849E-03     51.6232E-03    -55.8757E-03     110.671E-03    -55.2191E-03     51.3789E-03
             640     5.96166E-03     80.8466E-03    -33.8946E+06    -143.030E+06    -15.1437E+06    -1.26899E+06    -56.0971E-03     111.484E-03    -55.3865E-03     59.6147E-03    -56.1086E-03     110.911E-03    -55.2057E-03     59.3049E-03
             641     6.81339E-03     80.9104E-03    -31.0898E+06    -137.504E+06    -11.4082E+06    -867.395E+03    -56.3566E-03     111.740E-03    -55.3829E-03     67.5200E-03    -56.3995E-03     111.217E-03    -55.1955E-03     67.1430E-03
             642     7.66508E-03     80.9824E-03    -28.7955E+06    -126.431E+06    -10.6840E+06    -527.656E+03    -56.6256E-03     111.986E-03    -55.3608E-03     75.2683E-03    -56.7175E-03     111.558E-03    -55.1891E-03     74.8107E-03
             643     8.51682E-03     81.0617E-03    -27.1670E+06    -115.280E+06    -10.3358E+06    -852.008E+03    -56.9079E-03     112.248E-03    -55.3401E-03     82.9981E-03    -57.0672E-03     111.932E-03    -55.1853E-03     82.4361E-03
             644     9.36837E-03     81.1495E-03    -25.5948E+06    -101.971E+06    -9.91511E+06    -753.031E+03    -57.2066E-03     112.525E-03    -55.3186E-03     90.9809E-03    -57.4594E-03     112.354E-03    -55.1832E-03     90.3008E-03
             645     10.2203E-03     81.2446E-03    -24.1893E+06    -84.5450E+06    -10.0293E+06    -382.127E+03    -57.3746E-03     112.660E-03    -55.2853E-03     98.7549E-03    -57.7578E-03     112.686E-03    -55.1778E-03     97.9392E-03
             646     11.0721E-03     81.3475E-03    -22.7066E+06    -60.5519E+06    -9.24773E+06    -131.667E+03    -57.4206E-03     112.656E-03    -55.2354E-03     106.787E-03    -57.9914E-03     112.958E-03    -55.1609E-03     105.811E-03
             647     11.9243E-03     81.4591E-03     -21.226E+06    -30.4881E+06    -10.0770E+06     425.951E+03    -57.9561E-03     113.124E-03    -55.1682E-03     117.676E-03    -58.8192E-03     113.833E-03    -55.1436E-03     116.493E-03
             648     12.7753E-03     81.5840E-03    -20.3797E+06     19.9169E+06    -14.3198E+06     1.15137E+06    -59.0522E-03     114.125E-03    -55.0724E-03     137.076E-03    -60.5041E-03     115.616E-03    -55.1433E-03     135.583E-03
             649     13.6264E-03     81.7356E-03    -19.7058E+06     72.2370E+06    -185.681E+03     1.28775E+06    -61.4402E-03     116.498E-03    -55.0583E-03     184.073E-03    -64.3979E-03     119.643E-03    -55.1354E-03     182.108E-03
             650     14.4809E-03     81.9539E-03    -17.9314E+06     115.265E+06     44.0630E+06     577.503E+03    -69.6662E-03     124.853E-03    -55.1869E-03     282.460E-03    -78.0886E-03     133.493E-03    -55.1077E-03     279.597E-03
             651     15.3312E-03     82.3097E-03    -13.9249E+06     156.431E+06     92.9248E+06    -203.884E+03    -79.2658E-03     134.629E-03    -55.3629E-03     394.818E-03    -101.218E-03     156.818E-03    -55.1049E-03     393.486E-03
             652     16.1795E-03     82.7791E-03    -6.52208E+06     170.617E+06     113.089E+06     123.647E+03    -67.2825E-03     122.694E-03    -55.4113E-03     298.545E-03    -86.3268E-03     141.993E-03    -55.0838E-03     303.299E-03
             653     851.611E-06     81.6948E-03    -50.5735E+06    -167.951E+06    -49.5906E+06     167.271E+03    -55.3708E-03     110.688E-03    -55.3173E-03     9.71722E-03    -55.3096E-03     109.995E-03    -55.2484E-03     9.68650E-03
             654     1.70323E-03     81.7085E-03    -49.3804E+06    -165.341E+06    -45.5704E+06     138.234E+03    -55.4153E-03     110.763E-03    -55.3478E-03     17.9000E-03    -55.3608E-03     110.078E-03    -55.2643E-03     17.8394E-03
             655     2.55483E-03     81.7309E-03    -47.1501E+06    -161.188E+06    -39.4876E+06    -58.6182E+03    -55.4842E-03     110.850E-03    -55.3658E-03     26.4654E-03    -55.4388E-03     110.180E-03    -55.2612E-03     26.3686E-03
             656     3.40648E-03     81.7618E-03    -44.2048E+06    -157.046E+06    -33.1990E+06    -401.876E+03    -55.5921E-03     110.970E-03    -55.3781E-03     34.9820E-03    -55.5556E-03     110.316E-03    -55.2523E-03     34.8420E-03
             657     4.25819E-03     81.8012E-03    -41.1566E+06    -150.560E+06    -27.0748E+06    -1.23313E+06    -55.7311E-03     111.115E-03    -55.3839E-03     43.3765E-03    -55.7099E-03     110.492E-03    -55.2413E-03     43.1811E-03
             658     5.10979E-03     81.8491E-03    -37.7718E+06    -144.500E+06    -21.5048E+06    -1.92805E+06    -55.8915E-03     111.277E-03    -55.3852E-03     51.5891E-03    -55.8874E-03     110.688E-03    -55.2284E-03     51.3324E-03
             659     5.96157E-03     81.9050E-03    -34.4942E+06    -143.475E+06    -16.3422E+06    -1.42904E+06    -56.1188E-03     111.511E-03    -55.3925E-03     59.6114E-03    -56.1309E-03     110.939E-03    -55.2161E-03     59.2993E-03
             660     6.81326E-03     81.9690E-03    -32.1384E+06    -137.810E+06    -12.6120E+06    -944.164E+03    -56.3699E-03     111.760E-03    -55.3905E-03     67.5164E-03    -56.4158E-03     111.240E-03    -55.2071E-03     67.1383E-03
             661     7.66503E-03     82.0408E-03    -29.5540E+06    -126.300E+06    -11.2963E+06    -1.05415E+06    -56.6540E-03     112.025E-03    -55.3715E-03     75.3161E-03    -56.7491E-03     111.600E-03    -55.2020E-03     74.8514E-03
             662     8.51657E-03     82.1205E-03    -27.0936E+06    -115.105E+06    -10.1822E+06    -878.038E+03    -56.9218E-03     112.276E-03    -55.3543E-03     83.0413E-03    -57.0815E-03     111.960E-03    -55.1990E-03     82.4783E-03
             663     9.36848E-03     82.2077E-03    -25.4545E+06    -102.391E+06    -10.0167E+06    -843.526E+03    -57.1245E-03     112.452E-03    -55.3279E-03     91.0017E-03    -57.3754E-03     112.278E-03    -55.1926E-03     90.3219E-03
             664     10.2201E-03     82.3033E-03    -23.6342E+06    -84.5621E+06    -10.3685E+06    -952.475E+03    -57.4026E-03     112.691E-03    -55.2886E-03     98.7806E-03    -57.7821E-03     112.717E-03    -55.1836E-03     97.9582E-03
             665     11.0718E-03     82.4058E-03    -21.9139E+06    -61.1057E+06    -9.55847E+06    -662.157E+03    -57.6972E-03     112.947E-03    -55.2502E-03     106.675E-03    -58.2649E-03     113.248E-03    -55.1776E-03     105.685E-03
             666     11.9236E-03     82.5173E-03    -20.9851E+06    -31.3564E+06    -10.7500E+06     41.3077E+03    -58.0931E-03     113.288E-03    -55.1951E-03     118.177E-03    -58.9560E-03     113.997E-03    -55.1730E-03     116.985E-03
             667     12.7753E-03     82.6440E-03    -20.2015E+06     18.4994E+06    -15.1431E+06     1.06731E+06    -58.5115E-03     113.593E-03    -55.0819E-03     137.630E-03    -59.9491E-03     115.069E-03    -55.1552E-03     136.160E-03
             668     13.6285E-03     82.7928E-03     -18.933E+06     71.8543E+06    -259.760E+03     1.52412E+06    -61.3875E-03     116.435E-03    -55.0471E-03     184.202E-03    -64.3435E-03     119.579E-03    -55.1251E-03     182.239E-03
             669     14.4792E-03     83.0125E-03    -16.6551E+06     116.666E+06     44.8039E+06     1.65131E+06    -70.4676E-03     125.661E-03    -55.1931E-03     283.492E-03    -78.9391E-03     134.357E-03    -55.1141E-03     280.580E-03
             670     15.3300E-03     83.3713E-03    -11.8401E+06     158.339E+06     94.6287E+06     1.29048E+06    -79.0273E-03     134.393E-03    -55.3654E-03     398.232E-03    -101.139E-03     156.750E-03    -55.1047E-03     397.091E-03
             671     16.1836E-03     83.8398E-03    -5.75623E+06     171.182E+06     113.475E+06     98.2700E+03    -67.3912E-03     122.768E-03    -55.3773E-03     299.823E-03    -86.5211E-03     142.157E-03    -55.0498E-03     304.765E-03
             672     851.634E-06     82.7533E-03    -51.1740E+06    -168.244E+06    -50.2782E+06     77.7390E+03    -55.3690E-03     110.706E-03    -55.3369E-03     9.73650E-03    -55.3093E-03     110.013E-03    -55.2702E-03     9.70474E-03
             673     1.70319E-03     82.7671E-03    -49.5720E+06    -165.416E+06    -45.9929E+06     148.458E+03    -55.4239E-03     110.780E-03    -55.3563E-03     17.9177E-03    -55.3696E-03     110.096E-03    -55.2746E-03     17.8572E-03
             674     2.55479E-03     82.7893E-03    -47.1251E+06    -160.492E+06    -39.1587E+06    -300.300E+03    -55.4869E-03     110.862E-03    -55.3755E-03     26.4686E-03    -55.4429E-03     110.195E-03    -55.2702E-03     26.3685E-03
             675     3.40649E-03     82.8203E-03    -44.1185E+06    -156.453E+06    -32.8014E+06    -839.571E+03    -55.6002E-03     110.988E-03    -55.3875E-03     34.9694E-03    -55.5647E-03     110.335E-03    -55.2607E-03     34.8236E-03
             676     4.25807E-03     82.8598E-03    -41.1078E+06    -148.996E+06    -27.9543E+06    -1.45414E+06    -55.7336E-03     111.119E-03    -55.3852E-03     43.3612E-03    -55.7131E-03     110.505E-03    -55.2493E-03     43.1628E-03
             677     5.10985E-03     82.9075E-03    -38.8568E+06    -143.698E+06    -22.9815E+06    -2.08716E+06    -55.9119E-03     111.299E-03    -55.3872E-03     51.6072E-03    -55.9123E-03     110.718E-03    -55.2374E-03     51.3483E-03
             678     5.96151E-03     82.9635E-03    -36.5420E+06    -144.497E+06    -17.3077E+06    -1.79489E+06    -56.1499E-03     111.554E-03    -55.4042E-03     59.6357E-03    -56.1694E-03     110.981E-03    -55.2282E-03     59.3186E-03
             679     6.81320E-03     83.0276E-03    -33.0179E+06    -137.282E+06    -12.9619E+06    -1.66577E+06    -56.3938E-03     111.798E-03    -55.4040E-03     67.5297E-03    -56.4445E-03     111.282E-03    -55.2219E-03     67.1419E-03
             680     7.66484E-03     83.0993E-03    -29.9046E+06    -126.083E+06    -12.1509E+06    -1.99770E+06    -56.6350E-03     112.016E-03    -55.3811E-03     75.3663E-03    -56.7309E-03     111.593E-03    -55.2157E-03     74.8898E-03
             681     8.51665E-03     83.1792E-03    -27.2411E+06    -115.604E+06    -11.2495E+06    -1.75246E+06    -56.8814E-03     112.240E-03    -55.3591E-03     83.0873E-03    -57.0393E-03     111.924E-03    -55.2082E-03     82.5140E-03
             682     9.36818E-03     83.2662E-03    -24.5115E+06    -101.997E+06    -10.4718E+06    -1.65123E+06    -57.0961E-03     112.425E-03    -55.3286E-03     90.9722E-03    -57.3420E-03     112.252E-03    -55.1975E-03     90.2824E-03
             683     10.2203E-03     83.3618E-03    -22.5841E+06    -84.8083E+06    -10.8855E+06    -1.53127E+06    -57.3752E-03     112.661E-03    -55.2861E-03     99.0129E-03    -57.7474E-03     112.684E-03    -55.1849E-03     98.1854E-03
             684     11.0720E-03     83.4648E-03    -21.3444E+06    -61.9354E+06    -10.1727E+06    -1.00731E+06    -57.8764E-03     113.129E-03    -55.2522E-03     107.159E-03    -58.4415E-03     113.428E-03    -55.1823E-03     106.161E-03
             685     11.9231E-03     83.5763E-03    -20.0560E+06    -31.7685E+06    -10.7336E+06    -254.065E+03    -58.0525E-03     113.255E-03    -55.2028E-03     118.185E-03    -58.9115E-03     113.961E-03    -55.1813E-03     116.989E-03
             686     12.7757E-03     83.7015E-03    -19.2287E+06     17.0443E+06    -15.3344E+06     510.631E+03    -58.1627E-03     113.241E-03    -55.0782E-03     136.901E-03    -59.5838E-03     114.699E-03    -55.1517E-03     135.434E-03
             687     13.6280E-03     83.8505E-03    -18.2283E+06     70.4743E+06    -1.46039E+06     1.40887E+06    -61.3979E-03     116.423E-03    -55.0252E-03     185.052E-03    -64.3483E-03     119.563E-03    -55.1083E-03     183.084E-03
             688     14.4795E-03     84.0743E-03    -14.7734E+06     116.774E+06     43.7042E+06     1.84120E+06    -69.8843E-03     125.027E-03    -55.1428E-03     285.200E-03    -78.3681E-03     133.746E-03    -55.0722E-03     282.368E-03
             689     15.3332E-03     84.4281E-03    -9.14095E+06     159.530E+06     95.1238E+06     1.93767E+06    -77.8430E-03     133.113E-03    -55.2699E-03     397.805E-03    -99.8276E-03     155.355E-03    -55.0123E-03     396.761E-03
             690     16.1893E-03     84.8988E-03    -4.70683E+06     172.708E+06     114.576E+06     1.79844E+06    -68.2250E-03     123.511E-03    -55.2859E-03     298.467E-03    -87.1876E-03     142.738E-03    -54.9566E-03     303.267E-03
             691     851.553E-06     83.8118E-03    -51.6503E+06    -168.092E+06    -50.7184E+06    -156.485E+03    -55.3704E-03     110.733E-03    -55.3626E-03     9.76325E-03    -55.3127E-03     110.042E-03    -55.2976E-03     9.72854E-03
             692     1.70321E-03     83.8256E-03    -50.0187E+06    -165.538E+06    -46.6357E+06    -260.042E+03    -55.4139E-03     110.778E-03    -55.3645E-03     17.9179E-03    -55.3607E-03     110.095E-03    -55.2851E-03     17.8522E-03
             693     2.55483E-03     83.8479E-03    -47.6757E+06    -159.327E+06    -40.7895E+06    -627.970E+03    -55.5010E-03     110.875E-03    -55.3736E-03     26.4691E-03    -55.4591E-03     110.216E-03    -55.2774E-03     26.3647E-03
             694     3.40637E-03     83.8789E-03    -44.5852E+06    -155.191E+06    -34.3049E+06    -1.65645E+06    -55.6093E-03     110.997E-03    -55.3878E-03     34.9750E-03    -55.5758E-03     110.354E-03    -55.2696E-03     34.8185E-03
             695     4.25812E-03     83.9183E-03    -40.9571E+06    -148.067E+06    -26.6737E+06    -2.15536E+06    -55.7421E-03     111.142E-03    -55.3995E-03     43.3483E-03    -55.7241E-03     110.530E-03    -55.2588E-03     43.1406E-03
             696     5.10978E-03     83.9660E-03    -37.5163E+06    -143.799E+06    -20.0086E+06    -1.55760E+06    -55.9454E-03     111.357E-03    -55.4116E-03     51.5678E-03    -55.9433E-03     110.769E-03    -55.2487E-03     51.3152E-03
             697     5.96139E-03     84.0222E-03    -34.8257E+06    -144.126E+06    -16.7189E+06    -1.55733E+06    -56.1783E-03     111.596E-03    -55.4178E-03     59.6064E-03    -56.1907E-03     111.022E-03    -55.2419E-03     59.2919E-03
             698     6.81306E-03     84.0859E-03    -32.5362E+06    -135.920E+06    -14.8324E+06    -2.67349E+06    -56.3920E-03     111.797E-03    -55.4050E-03     67.5974E-03    -56.4396E-03     111.290E-03    -55.2349E-03     67.1968E-03
             699     7.66475E-03     84.1582E-03    -29.8073E+06    -126.072E+06    -13.6177E+06    -2.94915E+06    -56.6052E-03     111.988E-03    -55.3830E-03     75.4159E-03    -56.6984E-03     111.568E-03    -55.2251E-03     74.9276E-03
             700     8.51650E-03     84.2373E-03    -27.1658E+06    -115.402E+06    -12.7135E+06    -3.14866E+06    -56.8135E-03     112.168E-03    -55.3545E-03     83.1669E-03    -56.9689E-03     111.854E-03    -55.2114E-03     82.5769E-03
             701     9.36845E-03     84.3252E-03    -24.7218E+06    -102.021E+06    -11.7307E+06    -3.15503E+06    -57.1046E-03     112.427E-03    -55.3223E-03     91.0378E-03    -57.3496E-03     112.256E-03    -55.1971E-03     90.3291E-03
             702     10.2201E-03     84.4197E-03    -22.7591E+06    -85.5162E+06    -11.7981E+06    -2.43226E+06    -57.4020E-03     112.686E-03    -55.2838E-03     99.0103E-03    -57.7734E-03     112.707E-03    -55.1858E-03     98.1697E-03
             703     11.0720E-03     84.5239E-03    -20.9958E+06    -62.7348E+06    -10.8532E+06    -1.53982E+06    -57.5870E-03     112.827E-03    -55.2397E-03     107.501E-03    -58.1451E-03     113.119E-03    -55.1725E-03     106.506E-03
             704     11.9237E-03     84.6354E-03    -19.7994E+06    -32.8370E+06    -11.3408E+06    -645.423E+03    -57.8843E-03     113.058E-03    -55.1736E-03     118.462E-03    -58.7380E-03     113.758E-03    -55.1540E-03     117.268E-03
             705     12.7754E-03     84.7590E-03    -19.1470E+06     15.9694E+06    -15.8861E+06     422.966E+03    -58.5510E-03     113.608E-03    -55.0567E-03     137.197E-03    -59.9804E-03     115.072E-03    -55.1316E-03     135.712E-03
             706     13.6279E-03     84.9088E-03    -18.1273E+06     69.7459E+06    -3.23125E+06     952.848E+03    -61.1276E-03     116.129E-03    -55.0013E-03     185.348E-03    -64.0647E-03     119.259E-03    -55.0923E-03     183.391E-03
             707     14.4818E-03     85.1320E-03    -16.0445E+06     116.307E+06     42.1425E+06     594.605E+03    -69.2084E-03     124.307E-03    -55.0987E-03     284.217E-03    -77.6503E-03     132.983E-03    -55.0333E-03     281.418E-03
             708     15.3343E-03     85.4867E-03    -12.8061E+06     157.882E+06     93.3515E+06     1.26578E+06    -78.4583E-03     133.706E-03    -55.2475E-03     395.136E-03    -100.350E-03     155.842E-03    -54.9911E-03     393.968E-03
             709     16.1827E-03     85.9546E-03    -6.64013E+06     172.825E+06     113.592E+06     1.35311E+06    -67.8916E-03     123.184E-03    -55.2929E-03     297.432E-03    -86.7938E-03     142.347E-03    -54.9659E-03     302.146E-03
             710     851.584E-06     84.8704E-03    -51.7138E+06    -167.151E+06    -50.9871E+06    -590.827E+03    -55.3974E-03     110.759E-03    -55.3618E-03     9.73934E-03    -55.3410E-03     110.074E-03    -55.2993E-03     9.69871E-03
             711     1.70316E-03     84.8841E-03    -50.0672E+06    -165.211E+06    -47.0779E+06    -855.319E+03    -55.4263E-03     110.803E-03    -55.3765E-03     17.9126E-03    -55.3733E-03     110.122E-03    -55.2997E-03     17.8391E-03
             712     2.55474E-03     84.9065E-03    -47.6243E+06    -157.885E+06    -42.0830E+06    -1.41554E+06    -55.5003E-03     110.877E-03    -55.3770E-03     26.4771E-03    -55.4583E-03     110.228E-03    -55.2894E-03     26.3626E-03
             713     3.40644E-03     84.9374E-03    -45.0015E+06    -153.398E+06    -34.8315E+06    -2.27568E+06    -55.6144E-03     111.007E-03    -55.3930E-03     34.9468E-03    -55.5849E-03     110.375E-03    -55.2795E-03     34.7821E-03
             714     4.25802E-03     84.9768E-03    -42.3332E+06    -147.697E+06    -26.6259E+06    -2.54536E+06    -55.7693E-03     111.183E-03    -55.4133E-03     43.3654E-03    -55.7588E-03     110.575E-03    -55.2709E-03     43.1525E-03
             715     5.10962E-03     85.0247E-03    -39.0464E+06    -144.325E+06    -21.1499E+06    -2.27320E+06    -55.9521E-03     111.375E-03    -55.4230E-03     51.5945E-03    -55.9552E-03     110.789E-03    -55.2628E-03     51.3326E-03
             716     5.96136E-03     85.0805E-03    -35.1825E+06    -143.051E+06    -18.4577E+06    -2.33775E+06    -56.1528E-03     111.572E-03    -55.4192E-03     59.6547E-03    -56.1660E-03     111.006E-03    -55.2531E-03     59.3303E-03
             717     6.81301E-03     85.1447E-03    -31.8526E+06    -133.948E+06    -16.2666E+06    -3.19496E+06    -56.3536E-03     111.753E-03    -55.3995E-03     67.6578E-03    -56.3984E-03     111.256E-03    -55.2404E-03     67.2511E-03
             718     7.66483E-03     85.2163E-03    -29.2296E+06    -125.594E+06    -14.5930E+06    -4.19173E+06    -56.5875E-03     111.965E-03    -55.3777E-03     75.4760E-03    -56.6771E-03     111.548E-03    -55.2262E-03     74.9719E-03
             719     8.51656E-03     85.2962E-03    -26.7306E+06    -114.648E+06    -13.3025E+06    -4.37090E+06    -56.8089E-03     112.158E-03    -55.3495E-03     83.1120E-03    -56.9622E-03     111.848E-03    -55.2110E-03     82.5061E-03
             720     9.36842E-03     85.3830E-03    -24.6915E+06    -102.200E+06    -12.5360E+06    -4.24611E+06    -57.1169E-03     112.435E-03    -55.3183E-03     91.1128E-03    -57.3604E-03     112.265E-03    -55.1969E-03     90.3897E-03
             721     10.2201E-03     85.4792E-03    -22.7726E+06    -86.4296E+06    -12.6676E+06    -3.60202E+06    -57.3328E-03     112.611E-03    -55.2780E-03     99.0655E-03    -57.7014E-03     112.628E-03    -55.1830E-03     98.2112E-03
             722     11.0718E-03     85.5814E-03    -21.3207E+06    -64.2183E+06    -12.2438E+06    -2.52182E+06    -57.2515E-03     112.469E-03    -55.2175E-03     107.381E-03    -57.8037E-03     112.753E-03    -55.1547E-03     106.382E-03
             723     11.9250E-03     85.6936E-03    -20.0027E+06    -34.3746E+06    -12.7164E+06    -1.26709E+06    -57.6558E-03     112.788E-03    -55.1322E-03     118.472E-03    -58.5008E-03     113.477E-03    -55.1169E-03     117.279E-03
             724     12.7770E-03     85.8184E-03    -18.8328E+06     14.2805E+06    -16.8500E+06     110.978E+03    -58.7085E-03     113.725E-03    -55.0164E-03     137.092E-03    -60.1360E-03     115.185E-03    -55.0941E-03     135.599E-03
             725     13.6280E-03     85.9672E-03    -18.5182E+06     69.3862E+06    -2.78023E+06     1.01514E+06    -61.4629E-03     116.451E-03    -54.9883E-03     184.483E-03    -64.4110E-03     119.588E-03    -55.0760E-03     182.511E-03
             726     14.4802E-03     86.1878E-03    -18.0530E+06     116.479E+06     42.1476E+06     1.62135E+06    -69.7277E-03     124.841E-03    -55.1137E-03     283.937E-03    -78.1603E-03     133.501E-03    -55.0456E-03     281.104E-03
             727     15.3318E-03     86.5465E-03    -14.3585E+06     157.450E+06     92.1372E+06     1.26430E+06    -78.7046E-03     133.976E-03    -55.2710E-03     396.429E-03    -100.691E-03     156.203E-03    -55.0178E-03     395.246E-03
             728     16.1858E-03     87.0148E-03    -6.38674E+06     173.725E+06     113.747E+06     220.538E+03    -67.7712E-03     123.085E-03    -55.3139E-03     297.451E-03    -86.7761E-03     142.354E-03    -54.9878E-03     302.227E-03
             729     851.547E-06     85.9289E-03    -51.1834E+06    -165.454E+06    -50.4941E+06    -1.12008E+06    -55.4109E-03     110.778E-03    -55.3669E-03     9.69889E-03    -55.3550E-03     110.099E-03    -55.3053E-03     9.65122E-03
             730     1.70314E-03     85.9427E-03    -49.6174E+06    -164.002E+06    -46.6758E+06    -1.52987E+06    -55.4454E-03     110.833E-03    -55.3879E-03     17.9444E-03    -55.3924E-03     110.157E-03    -55.3115E-03     17.8622E-03
             731     2.55474E-03     85.9650E-03    -47.4572E+06    -156.412E+06    -40.8170E+06    -2.05170E+06    -55.5037E-03     110.897E-03    -55.3935E-03     26.4837E-03    -55.4649E-03     110.253E-03    -55.3020E-03     26.3609E-03
             732     3.40633E-03     85.9960E-03    -44.9505E+06    -152.215E+06    -33.9718E+06    -2.25541E+06    -55.6235E-03     111.031E-03    -55.4071E-03     34.9676E-03    -55.5967E-03     110.402E-03    -55.2911E-03     34.8032E-03
             733     4.25796E-03     86.0354E-03    -41.9633E+06    -146.893E+06    -27.2348E+06    -2.51837E+06    -55.7709E-03     111.190E-03    -55.4190E-03     43.3967E-03    -55.7588E-03     110.586E-03    -55.2813E-03     43.1844E-03
             734     5.10968E-03     86.0833E-03    -38.4489E+06    -143.412E+06    -21.6807E+06    -3.27058E+06    -55.9398E-03     111.365E-03    -55.4255E-03     51.6386E-03    -55.9406E-03     110.783E-03    -55.2702E-03     51.3639E-03
             735     5.96126E-03     86.1392E-03    -34.8740E+06    -142.170E+06    -17.9735E+06    -3.91589E+06    -56.1275E-03     111.551E-03    -55.4234E-03     59.6688E-03    -56.1411E-03     110.988E-03    -55.2566E-03     59.3241E-03
             736     6.81311E-03     86.2031E-03    -31.5832E+06    -132.351E+06    -16.0249E+06    -4.39869E+06    -56.3292E-03     111.727E-03    -55.3980E-03     67.6709E-03    -56.3754E-03     111.238E-03    -55.2405E-03     67.2487E-03
             737     7.66477E-03     86.2751E-03    -28.8682E+06    -123.973E+06    -15.1343E+06    -5.20267E+06    -56.5717E-03     111.942E-03    -55.3700E-03     75.4617E-03    -56.6609E-03     111.532E-03    -55.2241E-03     74.9448E-03
             738     8.51660E-03     86.3544E-03    -26.5400E+06    -114.316E+06    -14.2571E+06    -5.63804E+06    -56.8422E-03     112.185E-03    -55.3427E-03     83.1426E-03    -56.9939E-03     111.878E-03    -55.2098E-03     82.5199E-03
             739     9.36824E-03     86.4418E-03    -24.4868E+06    -102.306E+06    -13.5488E+06    -5.25466E+06    -57.0263E-03     112.335E-03    -55.3092E-03     91.2191E-03    -57.2670E-03     112.165E-03    -55.1931E-03     90.4845E-03
             740     10.2202E-03     86.5373E-03    -22.7434E+06    -87.4896E+06    -13.7258E+06    -4.60657E+06    -57.1057E-03     112.363E-03    -55.2570E-03     99.1081E-03    -57.4691E-03     112.375E-03    -55.1658E-03     98.2466E-03
             741     11.0727E-03     86.6397E-03    -21.1733E+06    -65.3384E+06    -13.1756E+06    -3.52509E+06    -57.4638E-03     112.661E-03    -55.1973E-03     107.155E-03    -58.0136E-03     112.942E-03    -55.1378E-03     106.137E-03
             742     11.9241E-03     86.7511E-03    -19.8618E+06    -36.3257E+06    -13.8525E+06    -2.21941E+06    -57.8240E-03     112.953E-03    -55.1287E-03     117.909E-03    -58.6643E-03     113.634E-03    -55.1165E-03     116.698E-03
             743     12.7762E-03     86.8771E-03    -19.2407E+06     11.6892E+06    -18.5381E+06    -701.207E+03    -58.3289E-03     113.336E-03    -55.0075E-03     136.546E-03    -59.7408E-03     114.775E-03    -55.0892E-03     135.058E-03
             744     13.6290E-03     87.0256E-03    -18.8981E+06     67.9332E+06    -4.69271E+06     1.90177E+06    -61.4758E-03     116.441E-03    -54.9650E-03     184.565E-03    -64.4174E-03     119.570E-03    -55.0596E-03     182.605E-03
             745     14.4802E-03     87.2477E-03    -16.6741E+06     116.376E+06     40.6465E+06     3.40966E+06    -70.0865E-03     125.180E-03    -55.0935E-03     285.073E-03    -78.5439E-03     133.873E-03    -55.0348E-03     282.225E-03
             746     15.3335E-03     87.6040E-03    -12.0229E+06     159.852E+06     92.9224E+06     1.58405E+06    -78.4381E-03     133.690E-03    -55.2523E-03     397.542E-03    -100.539E-03     156.047E-03    -55.0020E-03     396.457E-03
             747     16.1851E-03     88.0738E-03    -6.18492E+06     175.061E+06     114.441E+06    -32.6747E+03    -67.9293E-03     123.224E-03    -55.2946E-03     297.289E-03    -87.0041E-03     142.566E-03    -54.9672E-03     302.107E-03
             748     851.581E-06     86.9875E-03    -52.0068E+06    -163.122E+06    -50.7479E+06    -1.36360E+06    -55.4040E-03     110.768E-03    -55.3644E-03     9.75569E-03    -55.3552E-03     110.103E-03    -55.3062E-03     9.70486E-03
             749     1.70313E-03     87.0014E-03    -50.3858E+06    -162.357E+06    -46.1040E+06    -1.75999E+06    -55.4576E-03     110.851E-03    -55.3937E-03     17.9402E-03    -55.4117E-03     110.184E-03    -55.3158E-03     17.8550E-03
             750     2.55470E-03     87.0236E-03    -48.0711E+06    -154.958E+06    -40.7946E+06    -2.27483E+06    -55.5092E-03     110.910E-03    -55.4009E-03     26.4829E-03    -55.4756E-03     110.274E-03    -55.3104E-03     26.3572E-03
             751     3.40634E-03     87.0546E-03    -45.1105E+06    -151.408E+06    -34.3256E+06    -2.58302E+06    -55.6215E-03     111.034E-03    -55.4121E-03     35.0051E-03    -55.5961E-03     110.410E-03    -55.2987E-03     34.8366E-03
             752     4.25796E-03     87.0940E-03    -41.6329E+06    -145.246E+06    -27.4261E+06    -3.23439E+06    -55.7576E-03     111.178E-03    -55.4199E-03     43.4120E-03    -55.7460E-03     110.582E-03    -55.2861E-03     43.1904E-03
             753     5.10959E-03     87.1418E-03    -38.0580E+06    -141.520E+06    -21.5629E+06    -4.25224E+06    -55.9152E-03     111.339E-03    -55.4238E-03     51.6372E-03    -55.9168E-03     110.766E-03    -55.2712E-03     51.3499E-03
             754     5.96137E-03     87.1977E-03    -34.7291E+06    -140.903E+06    -17.1845E+06    -4.95839E+06    -56.1236E-03     111.548E-03    -55.4243E-03     59.6634E-03    -56.1395E-03     110.990E-03    -55.2555E-03     59.3051E-03
             755     6.81300E-03     87.2616E-03    -31.7259E+06    -130.723E+06    -15.7824E+06    -5.70411E+06    -56.3246E-03     111.721E-03    -55.3961E-03     67.6604E-03    -56.3743E-03     111.240E-03    -55.2395E-03     67.2211E-03
             756     7.66486E-03     87.3336E-03    -28.8762E+06    -122.390E+06    -15.7561E+06    -6.46810E+06    -56.5366E-03     111.899E-03    -55.3620E-03     75.4743E-03    -56.6271E-03     111.498E-03    -55.2214E-03     74.9415E-03
             757     8.51660E-03     87.4129E-03    -26.5416E+06    -113.815E+06    -15.1837E+06    -6.81097E+06    -56.7664E-03     112.096E-03    -55.3293E-03     83.2779E-03    -56.9174E-03     111.792E-03    -55.2017E-03     82.6413E-03
             758     9.36848E-03     87.5004E-03    -24.4453E+06    -102.555E+06    -14.5316E+06    -6.59272E+06    -56.9148E-03     112.203E-03    -55.2886E-03     91.1319E-03    -57.1527E-03     112.033E-03    -55.1771E-03     90.3821E-03
             759     10.2208E-03     87.5949E-03    -22.5735E+06    -87.9251E+06    -14.5161E+06    -5.80852E+06    -57.1800E-03     112.417E-03    -55.2375E-03     98.9055E-03    -57.5412E-03     112.428E-03    -55.1499E-03     98.0264E-03
             760     11.0725E-03     87.6982E-03    -20.8201E+06    -66.7402E+06    -13.9353E+06    -4.54564E+06    -57.6258E-03     112.815E-03    -55.1892E-03     107.313E-03    -58.1714E-03     113.090E-03    -55.1319E-03     106.279E-03
             761     11.9238E-03     87.8106E-03    -19.8326E+06    -38.4513E+06    -14.8941E+06    -2.98634E+06    -57.9003E-03     113.029E-03    -55.1286E-03     118.171E-03    -58.7392E-03     113.704E-03    -55.1185E-03     116.947E-03
             762     12.7762E-03     87.9337E-03    -19.5324E+06     9.10128E+06    -19.7077E+06    -532.779E+03    -58.2738E-03     113.281E-03    -55.0069E-03     136.894E-03    -59.6799E-03     114.707E-03    -55.0903E-03     135.410E-03
             763     13.6286E-03     88.0843E-03    -18.6832E+06     64.8831E+06    -8.24855E+06     1.77397E+06    -61.3077E-03     116.251E-03    -54.9434E-03     184.801E-03    -64.2309E-03     119.362E-03    -55.0516E-03     182.846E-03
             764     14.4820E-03     88.3057E-03    -16.1903E+06     115.635E+06     37.4757E+06     2.48184E+06    -69.9103E-03     124.975E-03    -55.0644E-03     284.110E-03    -78.3560E-03     133.665E-03    -55.0212E-03     281.271E-03
             765     15.3331E-03     88.6635E-03    -11.3642E+06     162.124E+06     93.4934E+06     2.12064E+06    -78.3427E-03     133.582E-03    -55.2396E-03     396.307E-03    -100.333E-03     155.837E-03    -54.9908E-03     395.244E-03
             766     16.1864E-03     89.1316E-03    -5.65626E+06     176.722E+06     115.191E+06     867.126E+03    -67.8063E-03     123.088E-03    -55.2813E-03     297.399E-03    -86.7795E-03     142.334E-03    -54.9534E-03     302.223E-03
             767     851.606E-06     88.0463E-03    -53.4548E+06    -160.625E+06    -51.5456E+06    -976.962E+03    -55.4061E-03     110.768E-03    -55.3619E-03     9.80467E-03    -55.3671E-03     110.119E-03    -55.3093E-03     9.75912E-03
             768     1.70310E-03     88.0599E-03    -51.5446E+06    -160.531E+06    -46.9650E+06    -1.81359E+06    -55.4547E-03     110.850E-03    -55.3953E-03     17.9101E-03    -55.4160E-03     110.195E-03    -55.3226E-03     17.8241E-03
             769     2.55471E-03     88.0823E-03    -48.9311E+06    -153.112E+06    -41.7332E+06    -2.62417E+06    -55.5078E-03     110.908E-03    -55.4007E-03     26.4767E-03    -55.4798E-03     110.284E-03    -55.3164E-03     26.3465E-03
             770     3.40630E-03     88.1132E-03    -45.8596E+06    -150.079E+06    -34.5322E+06    -3.33235E+06    -55.6049E-03     111.019E-03    -55.4141E-03     34.9969E-03    -55.5848E-03     110.403E-03    -55.3026E-03     34.8188E-03
             771     4.25794E-03     88.1526E-03    -42.3385E+06    -143.073E+06    -27.8522E+06    -4.22293E+06    -55.7272E-03     111.142E-03    -55.4153E-03     43.4361E-03    -55.7216E-03     110.559E-03    -55.2857E-03     43.2019E-03
             772     5.10966E-03     88.2004E-03    -38.7516E+06    -139.431E+06    -22.0798E+06    -5.22732E+06    -55.9000E-03     111.316E-03    -55.4159E-03     51.6420E-03    -55.9074E-03     110.755E-03    -55.2679E-03     51.3422E-03
             773     5.96133E-03     88.2562E-03    -35.2038E+06    -139.323E+06    -17.6142E+06    -6.03259E+06    -56.1191E-03     111.536E-03    -55.4169E-03     59.6952E-03    -56.1391E-03     110.987E-03    -55.2519E-03     59.3229E-03
             774     6.81308E-03     88.3202E-03    -31.8933E+06    -128.574E+06    -16.0594E+06    -6.92061E+06    -56.3035E-03     111.691E-03    -55.3877E-03     67.6473E-03    -56.3567E-03     111.221E-03    -55.2353E-03     67.1924E-03
             775     7.66484E-03     88.3918E-03    -29.3076E+06    -120.773E+06    -16.2583E+06    -7.77458E+06    -56.4977E-03     111.849E-03    -55.3512E-03     75.4897E-03    -56.5921E-03     111.458E-03    -55.2149E-03     74.9401E-03
             776     8.51674E-03     88.4715E-03    -26.8993E+06    -112.836E+06    -15.9224E+06    -8.29641E+06    -56.6609E-03     111.973E-03    -55.3124E-03     83.1686E-03    -56.8135E-03     111.676E-03    -55.1894E-03     82.5142E-03
             777     9.36884E-03     88.5583E-03    -24.5234E+06    -102.517E+06    -15.3888E+06    -8.20180E+06    -56.9612E-03     112.232E-03    -55.2709E-03     90.9644E-03    -57.1985E-03     112.063E-03    -55.1636E-03     90.1927E-03
             778     10.2205E-03     88.6535E-03    -22.4733E+06    -88.6864E+06    -15.4934E+06    -7.25476E+06    -57.3130E-03     112.542E-03    -55.2288E-03     98.9450E-03    -57.6721E-03     112.551E-03    -55.1450E-03     98.0443E-03
             779     11.0721E-03     88.7569E-03    -21.2073E+06    -68.6661E+06    -15.3115E+06    -5.75705E+06    -57.3764E-03     112.553E-03    -55.1766E-03     107.494E-03    -57.9177E-03     112.820E-03    -55.1229E-03     106.451E-03
             780     11.9251E-03     88.8682E-03    -19.7423E+06    -40.8064E+06    -16.0505E+06    -3.60489E+06    -57.7174E-03     112.818E-03    -55.1009E-03     118.387E-03    -58.5471E-03     113.480E-03    -55.0933E-03     117.163E-03
             781     12.7767E-03     88.9931E-03    -18.8632E+06     5.55690E+06    -20.1624E+06    -728.109E+03    -58.5771E-03     113.566E-03    -54.9885E-03     136.685E-03    -59.9801E-03     114.980E-03    -55.0700E-03     135.188E-03
             782     13.6289E-03     89.1410E-03    -18.6407E+06     62.5986E+06    -8.70349E+06     1.12976E+06    -61.6980E-03     116.644E-03    -54.9465E-03     185.085E-03    -64.6403E-03     119.768E-03    -55.0537E-03     183.098E-03
             783     14.4795E-03     89.3655E-03    -16.0700E+06     115.665E+06     37.0203E+06     1.79132E+06    -69.9216E-03     124.997E-03    -55.0752E-03     284.290E-03    -78.3613E-03     133.683E-03    -55.0345E-03     281.460E-03
             784     15.3327E-03     89.7198E-03    -11.1456E+06     162.415E+06     93.1546E+06     2.23218E+06    -78.3000E-03     133.548E-03    -55.2483E-03     396.278E-03    -100.265E-03     155.780E-03    -55.0018E-03     395.163E-03
             785     16.1852E-03     90.1901E-03    -5.06935E+06     178.265E+06     115.722E+06     1.61182E+06    -67.6510E-03     122.935E-03    -55.2840E-03     297.496E-03    -86.6153E-03     142.179E-03    -54.9565E-03     302.282E-03
             786     851.484E-06     89.1048E-03    -54.2666E+06    -158.722E+06    -53.1189E+06    -544.545E+03    -55.4264E-03     110.790E-03    -55.3635E-03     9.78239E-03    -55.3919E-03     110.154E-03    -55.3203E-03     9.74247E-03
             787     1.70313E-03     89.1187E-03    -52.7495E+06    -157.837E+06    -48.9733E+06    -1.97844E+06    -55.4278E-03     110.821E-03    -55.3935E-03     17.9125E-03    -55.3961E-03     110.184E-03    -55.3330E-03     17.8243E-03
             788     2.55466E-03     89.1409E-03    -50.3700E+06    -151.074E+06    -42.9092E+06    -3.05660E+06    -55.4935E-03     110.889E-03    -55.3955E-03     26.4843E-03    -55.4739E-03     110.279E-03    -55.3180E-03     26.3484E-03
             789     3.40631E-03     89.1718E-03    -47.2190E+06    -147.745E+06    -35.5569E+06    -4.06914E+06    -55.5874E-03     110.994E-03    -55.4069E-03     35.0003E-03    -55.5761E-03     110.394E-03    -55.3020E-03     34.8126E-03
             790     4.25798E-03     89.2111E-03    -43.6055E+06    -140.581E+06    -28.9262E+06    -5.27290E+06    -55.7024E-03     111.108E-03    -55.4052E-03     43.4164E-03    -55.7052E-03     110.540E-03    -55.2828E-03     43.1687E-03
             791     5.10970E-03     89.2590E-03    -39.9219E+06    -137.183E+06    -23.4198E+06    -6.28342E+06    -55.8862E-03     111.290E-03    -55.4033E-03     51.6358E-03    -55.9008E-03     110.743E-03    -55.2636E-03     51.3224E-03
             792     5.96137E-03     89.3148E-03    -36.3613E+06    -136.902E+06    -19.2714E+06    -7.46246E+06    -56.0852E-03     111.486E-03    -55.4009E-03     59.6804E-03    -56.1120E-03     110.954E-03    -55.2460E-03     59.2901E-03
             793     6.81314E-03     89.3786E-03    -33.0091E+06    -126.524E+06    -17.2888E+06      -8.397E+06    -56.2674E-03     111.639E-03    -55.3716E-03     67.6432E-03    -56.3273E-03     111.183E-03    -55.2267E-03     67.1696E-03
             794     7.66497E-03     89.4503E-03    -29.9767E+06    -118.538E+06    -16.7785E+06    -9.20683E+06    -56.4599E-03     111.795E-03    -55.3355E-03     75.4422E-03    -56.5601E-03     111.417E-03    -55.2041E-03     74.8743E-03
             795     8.51680E-03     89.5297E-03    -27.4308E+06    -111.485E+06    -16.6934E+06    -9.93218E+06    -56.6729E-03     111.970E-03    -55.2970E-03     83.0805E-03    -56.8290E-03     111.681E-03    -55.1791E-03     82.4046E-03
             796     9.36872E-03     89.6165E-03    -25.3848E+06    -102.493E+06    -16.5797E+06    -9.75489E+06    -56.9677E-03     112.226E-03    -55.2578E-03     91.1465E-03    -57.2078E-03     112.060E-03    -55.1552E-03     90.3550E-03
             797     10.2205E-03     89.7125E-03    -23.6151E+06    -89.8501E+06    -17.1358E+06    -8.82668E+06    -57.1851E-03     112.396E-03    -55.2108E-03     99.1377E-03    -57.5452E-03     112.403E-03    -55.1320E-03     98.2199E-03
             798     11.0730E-03     89.8142E-03    -21.6719E+06    -70.2468E+06    -16.7506E+06    -7.38309E+06    -57.3790E-03     112.534E-03    -55.1555E-03     107.280E-03    -57.9187E-03     112.796E-03    -55.1060E-03     106.215E-03
             799     11.9246E-03     89.9267E-03    -19.9615E+06    -44.2879E+06    -17.8532E+06    -4.95218E+06    -57.7429E-03     112.826E-03    -55.0832E-03     118.135E-03    -58.5631E-03     113.470E-03    -55.0793E-03     116.895E-03
             800     12.7770E-03     90.0511E-03    -18.9209E+06     945.175E+03    -22.2801E+06    -2.01500E+06    -58.6665E-03     113.642E-03    -54.9756E-03     136.620E-03    -60.0634E-03     115.040E-03    -55.0609E-03     135.102E-03
             801     13.6283E-03     90.2003E-03    -18.1625E+06     61.2389E+06    -9.33796E+06     1.05807E+06    -61.8212E-03     116.763E-03    -54.9419E-03     185.234E-03    -64.7587E-03     119.881E-03    -55.0511E-03     183.245E-03
             802     14.4815E-03     90.4239E-03    -17.2578E+06     116.011E+06     35.3469E+06     2.27009E+06    -69.7601E-03     124.823E-03    -55.0631E-03     284.480E-03    -78.1909E-03     133.502E-03    -55.0296E-03     281.666E-03
             803     15.3334E-03     90.7789E-03    -13.3772E+06     162.520E+06     91.5433E+06     1.17102E+06    -78.2384E-03     133.468E-03    -55.2301E-03     396.913E-03    -100.313E-03     155.807E-03    -54.9886E-03     395.790E-03
             804     16.1855E-03     91.2488E-03    -7.33373E+06     178.534E+06     115.323E+06     515.448E+03    -67.8794E-03     123.154E-03    -55.2743E-03     297.905E-03    -86.9606E-03     142.508E-03    -54.9459E-03     302.661E-03
             805     851.551E-06     90.1636E-03    -54.4806E+06    -156.894E+06    -53.7625E+06    -866.512E+03    -55.4438E-03     110.786E-03    -55.3423E-03     9.74342E-03    -55.4121E-03     110.160E-03    -55.3046E-03     9.69904E-03
             806     1.70307E-03     90.1772E-03    -52.8641E+06    -154.774E+06    -49.3183E+06    -2.11899E+06    -55.4140E-03     110.801E-03    -55.3875E-03     17.9224E-03    -55.3868E-03     110.180E-03    -55.3330E-03     17.8324E-03
             807     2.55473E-03     90.1996E-03    -50.5500E+06    -148.549E+06    -43.1593E+06    -3.39762E+06    -55.4769E-03     110.864E-03    -55.3871E-03     26.4845E-03    -55.4616E-03     110.267E-03    -55.3142E-03     26.3442E-03
             808     3.40634E-03     90.2304E-03    -47.5414E+06    -144.761E+06    -36.2825E+06    -4.72534E+06    -55.5847E-03     110.980E-03    -55.3951E-03     34.9708E-03    -55.5783E-03     110.396E-03    -55.2977E-03     34.7746E-03
             809     4.25797E-03     90.2698E-03    -44.1768E+06    -137.611E+06    -29.7287E+06    -6.13102E+06    -55.7036E-03     111.099E-03    -55.3954E-03     43.3873E-03    -55.7124E-03     110.549E-03    -55.2804E-03     43.1285E-03
             810     5.10967E-03     90.3174E-03    -40.5471E+06    -134.360E+06    -24.2930E+06    -7.58180E+06    -55.8487E-03     111.241E-03    -55.3921E-03     51.6324E-03    -55.8691E-03     110.711E-03    -55.2600E-03     51.3025E-03
             811     5.96142E-03     90.3734E-03    -36.7255E+06    -133.914E+06    -20.0167E+06    -8.96274E+06    -56.0352E-03     111.420E-03    -55.3850E-03     59.6691E-03    -56.0670E-03     110.904E-03    -55.2376E-03     59.2599E-03
             812     6.81323E-03     90.4369E-03    -33.0983E+06    -124.180E+06    -17.7680E+06    -10.1627E+06    -56.2304E-03     111.584E-03    -55.3536E-03     67.6650E-03    -56.2933E-03     111.140E-03    -55.2144E-03     67.1691E-03
             813     7.66500E-03     90.5089E-03    -29.8932E+06    -116.322E+06    -17.0738E+06    -10.9920E+06    -56.4363E-03     111.753E-03    -55.3168E-03     75.3968E-03    -56.5386E-03     111.386E-03    -55.1902E-03     74.8064E-03
             814     8.51703E-03     90.5877E-03    -27.4534E+06    -110.066E+06    -16.6271E+06    -11.2313E+06    -56.6813E-03     111.964E-03    -55.2822E-03     83.1459E-03    -56.8398E-03     111.682E-03    -55.1660E-03     82.4531E-03
             815     9.36873E-03     90.6753E-03    -25.6569E+06    -102.139E+06    -17.0095E+06    -10.9676E+06    -56.8864E-03     112.127E-03    -55.2405E-03     91.1602E-03    -57.1272E-03     111.963E-03    -55.1403E-03     90.3547E-03
             816     10.2212E-03     90.7697E-03    -23.8775E+06    -89.9439E+06    -17.9403E+06    -10.5559E+06    -57.1753E-03     112.365E-03    -55.1900E-03     99.0367E-03    -57.5352E-03     112.373E-03    -55.1146E-03     98.0967E-03
             817     11.0726E-03     90.8734E-03    -21.8935E+06    -71.8494E+06    -17.9539E+06    -9.24851E+06    -57.5232E-03     112.665E-03    -55.1415E-03     107.155E-03    -58.0601E-03     112.921E-03    -55.0954E-03     106.063E-03
             818     11.9248E-03     90.9843E-03    -20.4411E+06    -47.9649E+06    -19.7072E+06    -6.85547E+06    -57.7846E-03     112.862E-03    -55.0770E-03     118.184E-03    -58.6006E-03     113.492E-03    -55.0763E-03     116.917E-03
             819     12.7767E-03     91.1095E-03    -19.3297E+06    -4.02764E+06    -25.0139E+06    -3.27417E+06    -58.6849E-03     113.651E-03    -54.9666E-03     137.374E-03    -60.0744E-03     115.031E-03    -55.0577E-03     135.839E-03
             820     13.6290E-03     91.2592E-03    -18.8080E+06     57.3196E+06    -13.8172E+06     1.00876E+06    -61.8372E-03     116.760E-03    -54.9231E-03     185.010E-03    -64.7577E-03     119.858E-03    -55.0481E-03     183.023E-03
             821     14.4801E-03     91.4814E-03    -16.9318E+06     116.448E+06     31.7289E+06     2.73394E+06    -69.6499E-03     124.693E-03    -55.0429E-03     283.488E-03    -78.0610E-03     133.365E-03    -55.0285E-03     280.682E-03
             822     15.3334E-03     91.8367E-03    -12.2934E+06     164.190E+06     90.4046E+06     1.66690E+06    -77.6919E-03     132.898E-03    -55.2057E-03     396.472E-03    -99.6838E-03     155.167E-03    -54.9739E-03     395.480E-03
             823     16.1870E-03     92.3074E-03    -6.49057E+06     178.977E+06     115.560E+06     457.449E+03    -67.7417E-03     122.982E-03    -55.2402E-03     299.033E-03    -86.8006E-03     142.318E-03    -54.9125E-03     303.900E-03
             824     851.540E-06     91.2222E-03    -53.1964E+06    -154.398E+06    -52.1833E+06    -1.30816E+06    -55.4357E-03     110.761E-03    -55.3251E-03     9.70996E-03    -55.4034E-03     110.143E-03    -55.2850E-03     9.65994E-03
             825     1.70314E-03     91.2359E-03    -51.6248E+06    -152.017E+06    -47.9848E+06    -2.27382E+06    -55.4236E-03     110.803E-03    -55.3790E-03     17.8913E-03    -55.3962E-03     110.191E-03    -55.3237E-03     17.7994E-03
             826     2.55470E-03     91.2581E-03    -49.3574E+06    -145.242E+06    -42.4335E+06    -3.69234E+06    -55.4743E-03     110.854E-03    -55.3800E-03     26.4651E-03    -55.4589E-03     110.271E-03    -55.3100E-03     26.3211E-03
             827     3.40633E-03     91.2891E-03    -46.4634E+06    -141.580E+06    -35.6606E+06    -5.26475E+06    -55.5707E-03     110.958E-03    -55.3870E-03     34.9623E-03    -55.5644E-03     110.387E-03    -55.2927E-03     34.7592E-03
             828     4.25800E-03     91.3282E-03    -43.1821E+06    -134.141E+06    -29.0410E+06    -6.73313E+06    -55.6813E-03     111.066E-03    -55.3848E-03     43.4100E-03    -55.6911E-03     110.531E-03    -55.2729E-03     43.1436E-03
             829     5.10970E-03     91.3761E-03    -39.8139E+06    -130.620E+06    -23.1752E+06    -8.58069E+06    -55.8126E-03     111.193E-03    -55.3805E-03     51.6373E-03    -55.8364E-03     110.679E-03    -55.2493E-03     51.2948E-03
             830     5.96154E-03     91.4316E-03    -36.5126E+06    -130.642E+06    -19.2224E+06    -10.3167E+06    -55.9961E-03     111.366E-03    -55.3698E-03     59.7023E-03    -56.0327E-03     110.865E-03    -55.2236E-03     59.2761E-03
             831     6.81330E-03     91.4956E-03    -33.3002E+06    -120.916E+06    -18.0441E+06    -11.9012E+06    -56.1855E-03     111.516E-03    -55.3309E-03     67.6669E-03    -56.2535E-03     111.089E-03    -55.1975E-03     67.1495E-03
             832     7.66529E-03     91.5669E-03    -30.2982E+06    -114.361E+06    -17.6343E+06    -12.8601E+06    -56.4107E-03     111.704E-03    -55.2933E-03     75.4352E-03    -56.5169E-03     111.348E-03    -55.1717E-03     74.8213E-03
             833     8.51694E-03     91.6465E-03    -27.5840E+06    -109.029E+06    -16.7790E+06    -12.7477E+06    -56.6329E-03     111.893E-03    -55.2601E-03     83.1738E-03    -56.7930E-03     111.617E-03    -55.1459E-03     82.4626E-03
             834     9.36925E-03     91.7329E-03    -25.0947E+06    -101.138E+06    -16.8772E+06    -12.5375E+06    -56.9433E-03     112.164E-03    -55.2210E-03     91.1202E-03    -57.1831E-03     112.005E-03    -55.1224E-03     90.2935E-03
             835     10.2207E-03     91.8285E-03    -23.0258E+06    -89.6170E+06    -17.9504E+06    -12.1627E+06    -57.2170E-03     112.393E-03    -55.1758E-03     99.0962E-03    -57.5731E-03     112.401E-03    -55.1022E-03     98.1354E-03
             836     11.0730E-03     91.9314E-03    -21.5742E+06    -73.6238E+06    -18.5412E+06    -10.8397E+06    -57.4050E-03     112.530E-03    -55.1255E-03     107.443E-03    -57.9355E-03     112.777E-03    -55.0801E-03     106.335E-03
             837     11.9249E-03     92.0427E-03    -20.0227E+06    -51.0107E+06    -20.7290E+06    -8.56467E+06    -57.8180E-03     112.875E-03    -55.0568E-03     118.401E-03    -58.6283E-03     113.493E-03    -55.0575E-03     117.110E-03
             838     12.7773E-03     92.1673E-03    -19.4480E+06    -9.77256E+06    -26.9595E+06    -4.29258E+06    -58.8311E-03     113.782E-03    -54.9511E-03     137.963E-03    -60.2114E-03     115.137E-03    -55.0436E-03     136.413E-03
             839     13.6284E-03     92.3187E-03    -18.6710E+06     52.0100E+06    -18.1620E+06     197.551E+03    -61.7666E-03     116.662E-03    -54.8953E-03     185.397E-03    -64.6748E-03     119.741E-03    -55.0345E-03     183.408E-03
             840     14.4809E-03     92.5397E-03    -16.0684E+06     116.002E+06     27.9227E+06     2.09072E+06    -69.8035E-03     124.812E-03    -55.0086E-03     284.069E-03    -78.2448E-03     133.527E-03    -55.0139E-03     281.242E-03
             841     15.3329E-03     92.8945E-03    -11.7395E+06     165.844E+06     89.7481E+06     2.21274E+06    -78.0515E-03     133.251E-03    -55.1991E-03     395.698E-03    -99.8914E-03     155.377E-03    -54.9738E-03     394.637E-03
             842     16.1871E-03     93.3625E-03    -5.60058E+06     180.302E+06     116.267E+06     972.991E+03    -66.9763E-03     122.214E-03    -55.2378E-03     298.433E-03    -85.8892E-03     141.410E-03    -54.9098E-03     303.338E-03
             843     851.576E-06     92.2809E-03    -52.3982E+06    -151.451E+06    -51.5315E+06    -1.43381E+06    -55.3834E-03     110.733E-03    -55.3501E-03     9.66926E-03    -55.3524E-03     110.128E-03    -55.3121E-03     9.61778E-03
             844     1.70312E-03     92.2945E-03    -50.7713E+06    -148.923E+06    -47.4513E+06    -2.68553E+06    -55.4164E-03     110.782E-03    -55.3653E-03     17.8947E-03    -55.3900E-03     110.184E-03    -55.3130E-03     17.7975E-03
             845     2.55470E-03     92.3168E-03    -48.2793E+06    -141.625E+06    -41.9396E+06    -4.22505E+06    -55.4575E-03     110.823E-03    -55.3651E-03     26.4695E-03    -55.4426E-03     110.255E-03    -55.2995E-03     26.3188E-03
             846     3.40640E-03     92.3475E-03    -45.3739E+06    -138.025E+06    -34.8404E+06    -5.79237E+06    -55.5338E-03     110.904E-03    -55.3701E-03     34.9957E-03    -55.5283E-03     110.348E-03    -55.2784E-03     34.7862E-03
             847     4.25806E-03     92.3869E-03    -42.0475E+06    -130.433E+06    -28.1351E+06    -7.47843E+06    -55.6347E-03     110.997E-03    -55.3627E-03     43.4235E-03    -55.6455E-03     110.477E-03    -55.2533E-03     43.1481E-03
             848     5.10989E-03     92.4344E-03    -38.6604E+06    -126.521E+06    -22.0552E+06    -9.14932E+06    -55.7863E-03     111.142E-03    -55.3560E-03     51.6506E-03    -55.8118E-03     110.645E-03    -55.2268E-03     51.3013E-03
             849     5.96158E-03     92.4902E-03    -35.5028E+06    -126.521E+06    -17.6480E+06    -11.1011E+06    -55.9626E-03     111.310E-03    -55.3471E-03     59.7101E-03    -56.0022E-03     110.825E-03    -55.2004E-03     59.2745E-03
             850     6.81354E-03     92.5537E-03    -32.5921E+06    -116.891E+06    -17.1134E+06    -13.0919E+06    -56.1289E-03     111.432E-03    -55.3032E-03     67.7181E-03    -56.2003E-03     111.023E-03    -55.1720E-03     67.1864E-03
             851     7.66527E-03     92.6254E-03    -30.1079E+06    -112.150E+06    -17.7562E+06    -14.2815E+06    -56.3371E-03     111.596E-03    -55.2593E-03     75.5426E-03    -56.4449E-03     111.251E-03    -55.1418E-03     74.9121E-03
             852     8.51751E-03     92.7044E-03    -27.7223E+06    -107.791E+06    -17.4874E+06    -14.6157E+06    -56.6053E-03     111.828E-03    -55.2226E-03     83.3326E-03    -56.7665E-03     111.559E-03    -55.1135E-03     82.5988E-03
             853     9.36911E-03     92.7914E-03    -25.2802E+06    -99.8998E+06    -17.4266E+06    -14.5752E+06    -56.9108E-03     112.094E-03    -55.1835E-03     91.5390E-03    -57.1522E-03     111.942E-03    -55.0891E-03     90.6885E-03
             854     10.2213E-03     92.8869E-03    -23.1261E+06    -89.8083E+06    -18.6922E+06    -13.8852E+06    -57.0989E-03     112.233E-03    -55.1342E-03     99.5376E-03    -57.4533E-03     112.241E-03    -55.0639E-03     98.5590E-03
             855     11.0733E-03     92.9889E-03    -21.2507E+06    -75.0298E+06    -19.4264E+06    -12.5219E+06    -57.3025E-03     112.379E-03    -55.0764E-03     107.967E-03    -57.8277E-03     112.619E-03    -55.0339E-03     106.841E-03
             856     11.9256E-03     93.1013E-03    -19.9597E+06    -54.2577E+06    -22.0770E+06    -9.99197E+06    -58.0034E-03     113.015E-03    -55.0113E-03     119.158E-03    -58.8095E-03     113.621E-03    -55.0140E-03     117.846E-03
             857     12.7770E-03     93.2255E-03    -18.9150E+06    -15.6266E+06    -28.1147E+06    -5.60196E+06    -58.9294E-03     113.848E-03    -54.9188E-03     138.454E-03    -60.2999E-03     115.178E-03    -55.0093E-03     136.888E-03
             858     13.6294E-03     93.3777E-03    -18.3032E+06     47.2654E+06    -20.9561E+06    -1.30060E+06    -61.5781E-03     116.429E-03    -54.8504E-03     185.613E-03    -64.4655E-03     119.480E-03    -54.9972E-03     183.620E-03
             859     14.4821E-03     93.5969E-03    -16.8912E+06     114.545E+06     22.8025E+06     1.32582E+06    -69.9161E-03     124.863E-03    -54.9467E-03     284.183E-03    -78.3434E-03     133.571E-03    -54.9743E-03     281.342E-03
             860     15.3342E-03     93.9555E-03    -12.3394E+06     166.410E+06     87.2091E+06     1.59652E+06    -78.2950E-03     133.451E-03    -55.1565E-03     396.108E-03    -100.177E-03     155.628E-03    -54.9438E-03     394.968E-03
             861     16.1836E-03     94.4187E-03    -5.70600E+06     181.171E+06     116.506E+06     770.106E+03    -66.5604E-03     121.762E-03    -55.2018E-03     299.460E-03    -85.5373E-03     141.024E-03    -54.8737E-03     304.387E-03
             862     851.557E-06     93.3394E-03    -52.1422E+06    -148.022E+06    -51.3220E+06    -1.74825E+06    -55.3470E-03     110.673E-03    -55.3256E-03     9.75459E-03    -55.3200E-03     110.084E-03    -55.2920E-03     9.69911E-03
             863     1.70317E-03     93.3532E-03    -50.3635E+06    -144.907E+06    -47.4450E+06    -3.41982E+06    -55.3834E-03     110.715E-03    -55.3318E-03     17.9385E-03    -55.3607E-03     110.137E-03    -55.2859E-03     17.8321E-03
             864     2.55481E-03     93.3753E-03    -47.8915E+06    -137.915E+06    -41.8935E+06    -5.10324E+06    -55.4200E-03     110.751E-03    -55.3308E-03     26.4886E-03    -55.4085E-03     110.201E-03    -55.2708E-03     26.3268E-03
             865     3.40646E-03     93.4061E-03    -44.8043E+06    -134.185E+06    -34.5344E+06    -6.56990E+06    -55.4887E-03     110.823E-03    -55.3343E-03     35.0114E-03    -55.4863E-03     110.285E-03    -55.2475E-03     34.7924E-03
             866     4.25824E-03     93.4453E-03    -41.4876E+06    -126.361E+06    -27.6899E+06    -8.25546E+06    -55.5837E-03     110.908E-03    -55.3244E-03     43.4542E-03    -55.5981E-03     110.407E-03    -55.2195E-03     43.1695E-03
             867     5.10998E-03     93.4929E-03    -38.0432E+06    -122.643E+06    -21.7196E+06    -9.92590E+06    -55.7227E-03     111.037E-03    -55.3139E-03     51.7167E-03    -55.7509E-03     110.557E-03    -55.1895E-03     51.3587E-03
             868     5.96188E-03     93.5485E-03    -34.5054E+06    -121.683E+06    -16.8297E+06    -11.9090E+06    -55.8807E-03     111.181E-03    -55.3005E-03     59.8193E-03    -55.9232E-03     110.718E-03    -55.1582E-03     59.3749E-03
             869     6.81369E-03     93.6120E-03    -31.4392E+06    -112.709E+06    -15.8756E+06    -13.9732E+06    -56.0264E-03     111.279E-03    -55.2530E-03     67.8997E-03    -56.0994E-03     110.887E-03    -55.1233E-03     67.3590E-03
             870     7.66590E-03     93.6835E-03    -28.9290E+06    -109.307E+06    -16.8347E+06    -15.2647E+06    -56.2350E-03     111.438E-03    -55.2025E-03     75.7983E-03    -56.3418E-03     111.102E-03    -55.0863E-03     75.1583E-03
             871     8.51768E-03     93.7625E-03    -26.8432E+06    -105.569E+06    -17.2462E+06    -16.0710E+06    -56.5018E-03     111.659E-03    -55.1574E-03     83.7597E-03    -56.6615E-03     111.399E-03    -55.0516E-03     83.0109E-03
             872     9.36997E-03     93.8498E-03    -24.8832E+06    -98.6237E+06    -17.5332E+06    -16.3530E+06    -56.7073E-03     111.816E-03    -55.1087E-03     91.9476E-03    -56.9469E-03     111.668E-03    -55.0173E-03     91.0804E-03
             873     10.2222E-03     93.9444E-03    -22.9419E+06    -89.8784E+06    -19.0571E+06    -15.7671E+06    -56.9739E-03     112.025E-03    -55.0506E-03     99.9594E-03    -57.3254E-03     112.031E-03    -54.9823E-03     98.9620E-03
             874     11.0744E-03     94.0475E-03    -21.3350E+06    -76.1380E+06    -20.2382E+06    -14.4604E+06    -57.4052E-03     112.401E-03    -54.9958E-03     108.348E-03    -57.9293E-03     112.638E-03    -54.9556E-03     107.196E-03
             875     11.9265E-03     94.1586E-03    -19.6785E+06    -57.3060E+06    -22.8287E+06    -11.8716E+06    -57.9768E-03     112.916E-03    -54.9387E-03     119.987E-03    -58.7755E-03     113.507E-03    -54.9413E-03     118.656E-03
             876     12.7782E-03     94.2860E-03    -18.7093E+06    -21.7344E+06    -29.3670E+06    -7.35861E+06    -58.8906E-03     113.738E-03    -54.8470E-03     139.165E-03    -60.2495E-03     115.038E-03    -54.9352E-03     137.583E-03
             877     13.6302E-03     94.4334E-03    -18.1049E+06     42.4298E+06    -24.8392E+06    -2.18554E+06    -61.9162E-03     116.689E-03    -54.7732E-03     186.114E-03    -64.7964E-03     119.728E-03    -54.9327E-03     184.096E-03
             878     14.4816E-03     94.6580E-03    -16.0939E+06     112.114E+06     15.8816E+06     890.046E+03    -69.7643E-03     124.617E-03    -54.8527E-03     285.171E-03    -78.1649E-03     133.312E-03    -54.9126E-03     282.344E-03
             879     15.3337E-03     95.0112E-03    -11.6597E+06      166.15E+06     83.9692E+06     1.62780E+06    -77.0734E-03     132.104E-03    -55.0307E-03     397.736E-03    -98.9961E-03     154.332E-03    -54.8348E-03     396.866E-03
             880     16.1921E-03     95.4804E-03    -5.77702E+06     182.700E+06     117.575E+06     978.138E+03    -66.7995E-03     121.860E-03    -55.0608E-03     300.283E-03    -85.8247E-03     141.173E-03    -54.7295E-03     305.336E-03
             881     851.674E-06     94.3982E-03    -51.1494E+06    -143.574E+06    -50.4750E+06    -2.25396E+06    -55.3232E-03     110.563E-03    -55.2393E-03     9.82292E-03    -55.2989E-03     109.993E-03    -55.2093E-03     9.76103E-03
             882     1.70325E-03     94.4117E-03    -49.5209E+06    -140.093E+06    -46.7843E+06    -4.26346E+06    -55.3277E-03     110.603E-03    -55.2750E-03     17.9447E-03    -55.3088E-03     110.046E-03    -55.2339E-03     17.8277E-03
             883     2.55491E-03     94.4339E-03    -47.2111E+06    -133.863E+06    -41.4690E+06    -5.97494E+06    -55.3567E-03     110.629E-03    -55.2728E-03     26.5342E-03    -55.3483E-03     110.099E-03    -55.2176E-03     26.3617E-03
             884     3.40666E-03     94.4645E-03    -44.2319E+06    -129.952E+06    -34.4557E+06    -7.63627E+06    -55.4237E-03     110.696E-03    -55.2724E-03     35.0739E-03    -55.4246E-03     110.179E-03    -55.1921E-03     34.8420E-03
             885     4.25841E-03     94.5036E-03    -40.6445E+06    -122.212E+06    -27.6154E+06    -9.24846E+06    -55.4915E-03     110.750E-03    -55.2580E-03     43.5682E-03    -55.5077E-03     110.268E-03    -55.1599E-03     43.2721E-03
             886     5.11033E-03     94.5512E-03    -37.1767E+06    -118.640E+06    -21.4002E+06    -10.7613E+06    -55.5904E-03     110.830E-03    -55.2400E-03     51.8904E-03    -55.6203E-03     110.369E-03    -55.1211E-03     51.5238E-03
             887     5.96226E-03     94.6066E-03    -33.8184E+06    -116.353E+06    -16.5164E+06    -13.0560E+06    -55.7300E-03     110.944E-03    -55.2140E-03     60.0594E-03    -55.7767E-03     110.505E-03    -55.0788E-03     59.6033E-03
             888     6.81442E-03     94.6702E-03    -30.3973E+06    -108.572E+06    -14.6064E+06    -15.1598E+06    -55.8762E-03     111.039E-03    -55.1629E-03     68.1482E-03    -55.9512E-03     110.663E-03    -55.0344E-03     67.5957E-03
             889     7.66643E-03     94.7413E-03    -27.7156E+06    -106.338E+06    -15.2651E+06    -16.2254E+06    -56.0716E-03     111.178E-03    -55.1067E-03     76.1755E-03    -56.1781E-03     110.853E-03    -54.9886E-03     75.5274E-03
             890     8.51882E-03     94.8207E-03    -25.6381E+06    -102.336E+06    -16.1024E+06    -17.1819E+06    -56.3027E-03     111.352E-03    -55.0489E-03     84.2230E-03    -56.4614E-03     111.103E-03    -54.9439E-03     83.4658E-03
             891     9.37099E-03     94.9072E-03    -23.8438E+06    -96.8574E+06    -16.5718E+06    -17.6559E+06    -56.5625E-03     111.556E-03    -54.9939E-03     92.3056E-03    -56.7995E-03     111.413E-03    -54.9017E-03     91.4271E-03
             892     10.2233E-03     95.0025E-03    -22.4021E+06    -89.4508E+06    -18.5667E+06    -17.3022E+06    -56.9215E-03     111.857E-03    -54.9353E-03     100.476E-03    -57.2710E-03     111.863E-03    -54.8659E-03     99.4624E-03
             893     11.0756E-03     95.1051E-03    -20.7692E+06    -76.7110E+06    -19.8825E+06    -16.2300E+06    -57.3914E-03     112.276E-03    -54.8846E-03     109.173E-03    -57.9125E-03     112.509E-03    -54.8426E-03     108.003E-03
             894     11.9270E-03     95.2177E-03    -19.6249E+06    -60.6294E+06    -23.3897E+06    -13.9931E+06    -57.8775E-03     112.706E-03    -54.8282E-03     120.720E-03    -58.6704E-03     113.282E-03    -54.8288E-03     119.368E-03
             895     12.7803E-03     95.3422E-03    -18.3969E+06    -28.7100E+06    -30.6756E+06    -9.28024E+06    -58.8343E-03     113.570E-03    -54.7355E-03     140.020E-03    -60.1759E-03     114.833E-03    -54.8206E-03     138.422E-03
             896     13.6314E-03     95.4951E-03    -17.0218E+06     35.7575E+06    -30.9615E+06    -3.44047E+06    -61.8100E-03     116.441E-03    -54.6311E-03     187.394E-03    -64.6704E-03     119.458E-03    -54.8130E-03     185.372E-03
             897     14.4837E-03     95.7141E-03    -15.7055E+06     109.277E+06     7.02535E+06    -5.78094E+03    -69.2395E-03     123.911E-03    -54.6719E-03     286.306E-03    -77.6241E-03     132.608E-03    -54.7724E-03     283.532E-03
             898     15.3392E-03     96.0708E-03    -12.5199E+06     166.317E+06     80.8955E+06     869.213E+03    -77.0154E-03     131.882E-03    -54.8668E-03     396.912E-03    -98.8533E-03     154.032E-03    -54.6853E-03     396.008E-03
             899     16.1916E-03     96.5327E-03    -6.36931E+06     183.828E+06     118.343E+06     573.558E+03    -67.2563E-03     122.199E-03    -54.9428E-03     299.147E-03    -86.2135E-03     141.443E-03    -54.6084E-03     304.079E-03
             900     851.638E-06     95.4566E-03    -48.9138E+06    -138.027E+06    -48.2181E+06    -2.54036E+06    -55.2122E-03     110.417E-03    -55.2046E-03     9.81778E-03    -55.1880E-03     109.869E-03    -55.1746E-03     9.75247E-03
             901     1.70338E-03     95.4701E-03    -47.5669E+06    -134.578E+06    -44.8349E+06    -4.91043E+06    -55.2241E-03     110.419E-03    -55.1950E-03     17.9821E-03    -55.2061E-03     109.885E-03    -55.1551E-03     17.8572E-03
             902     2.55514E-03     95.4923E-03    -45.3591E+06    -129.359E+06    -39.9107E+06    -6.80229E+06    -55.2505E-03     110.434E-03    -55.1833E-03     26.5937E-03    -55.2416E-03     109.920E-03    -55.1295E-03     26.4114E-03
             903     3.40696E-03     95.5228E-03    -42.5086E+06    -125.056E+06    -33.5519E+06    -8.66658E+06    -55.2903E-03     110.461E-03    -55.1710E-03     35.2015E-03    -55.2908E-03     109.964E-03    -55.0958E-03     34.9578E-03
             904     4.25885E-03     95.5620E-03     -39.275E+06    -117.963E+06    -27.1800E+06    -10.4757E+06    -55.3350E-03     110.480E-03    -55.1454E-03     43.7344E-03    -55.3508E-03     110.017E-03    -55.0533E-03     43.4247E-03
             905     5.11094E-03     95.6091E-03    -35.5740E+06    -114.492E+06    -20.5725E+06    -12.0066E+06    -55.4052E-03     110.523E-03    -55.1177E-03     52.1025E-03    -55.4338E-03     110.078E-03    -55.0029E-03     51.7229E-03
             906     5.96308E-03     95.6647E-03    -31.8538E+06    -110.532E+06    -15.0997E+06    -14.1454E+06    -55.5179E-03     110.597E-03    -55.0791E-03     60.3497E-03    -55.5646E-03     110.182E-03    -54.9481E-03     59.8838E-03
             907     6.81525E-03     95.7278E-03    -28.9769E+06    -104.598E+06    -12.9145E+06    -16.1196E+06    -55.6631E-03     110.684E-03    -55.0212E-03     68.5104E-03    -55.7384E-03     110.323E-03    -54.8921E-03     67.9502E-03
             908     7.66769E-03     95.7993E-03    -26.5791E+06    -103.062E+06    -13.3578E+06    -17.1841E+06    -55.8621E-03     110.820E-03    -54.9582E-03     76.6113E-03    -55.9694E-03     110.506E-03    -54.8370E-03     75.9563E-03
             909     8.52004E-03     95.8778E-03    -24.6355E+06    -98.9344E+06    -14.4245E+06    -17.9866E+06    -56.0867E-03     110.978E-03    -54.8914E-03     84.6808E-03    -56.2462E-03     110.741E-03    -54.7844E-03     83.9201E-03
             910     9.37254E-03     95.9653E-03    -23.0841E+06    -94.7196E+06    -15.2638E+06    -18.6735E+06    -56.3969E-03     111.228E-03    -54.8315E-03     92.9322E-03    -56.6337E-03     111.091E-03    -54.7370E-03     92.0474E-03
             911     10.2250E-03     96.0595E-03    -21.5912E+06    -88.4631E+06    -17.7063E+06    -18.5868E+06    -56.7618E-03     111.531E-03    -54.7690E-03     101.410E-03    -57.1086E-03     111.538E-03    -54.6980E-03     100.388E-03
             912     11.0771E-03     96.1635E-03    -20.5902E+06    -77.1646E+06    -19.6988E+06    -17.5913E+06    -57.1918E-03     111.904E-03    -54.7123E-03     110.373E-03    -57.7097E-03     112.132E-03    -54.6690E-03     109.196E-03
             913     11.9304E-03     96.2747E-03    -19.3390E+06    -62.4195E+06    -22.9629E+06    -15.7315E+06    -57.9331E-03     112.594E-03    -54.6606E-03     121.864E-03    -58.7236E-03     113.161E-03    -54.6568E-03     120.494E-03
             914     12.7808E-03     96.4018E-03    -18.1060E+06    -35.9272E+06    -31.5055E+06    -11.4995E+06    -58.7618E-03     113.337E-03    -54.5748E-03     141.154E-03    -60.0899E-03     114.564E-03    -54.6540E-03     139.536E-03
             915     13.6344E-03     96.5514E-03    -17.5122E+06     27.6539E+06    -36.4643E+06    -5.78113E+06    -61.2523E-03     115.687E-03    -54.4349E-03     188.150E-03    -64.0827E-03     118.659E-03    -54.6319E-03     186.134E-03
             916     14.4877E-03     96.7737E-03    -16.1094E+06     106.469E+06    -950.582E+03    -1.60648E+06    -69.3858E-03     123.838E-03    -54.4522E-03     285.890E-03    -77.7382E-03     132.514E-03    -54.5880E-03     283.087E-03
             917     15.3396E-03     97.1255E-03    -12.1528E+06     166.280E+06     77.1116E+06     420.877E+03    -78.4801E-03     133.201E-03    -54.7207E-03     396.526E-03    -100.377E-03     155.421E-03    -54.5586E-03     395.372E-03
             918     16.1911E-03     97.5951E-03    -6.13609E+06     184.422E+06     118.383E+06     846.467E+03    -67.2717E-03     122.137E-03    -54.8649E-03     298.646E-03    -86.2656E-03     141.420E-03    -54.5315E-03     303.465E-03
             919     851.781E-06     96.5148E-03    -45.2835E+06    -131.934E+06    -44.8030E+06    -2.68896E+06    -55.0898E-03     110.183E-03    -55.0936E-03     9.83613E-03    -55.0612E-03     109.656E-03    -55.0607E-03     9.76929E-03
             920     1.70359E-03     96.5285E-03    -44.2983E+06    -128.476E+06    -41.5951E+06    -5.11639E+06    -55.0717E-03     110.142E-03    -55.0701E-03     18.0432E-03    -55.0509E-03     109.628E-03    -55.0276E-03     17.9165E-03
             921     2.55547E-03     96.5503E-03    -42.4373E+06    -124.123E+06    -37.0552E+06    -7.44841E+06    -55.0711E-03     110.115E-03    -55.0442E-03     26.6846E-03    -55.0592E-03     109.620E-03    -54.9880E-03     26.4954E-03
             922     3.40744E-03     96.5809E-03    -39.9541E+06    -119.823E+06    -31.3222E+06    -9.47295E+06    -55.0841E-03     110.100E-03    -55.0154E-03     35.3526E-03    -55.0825E-03     109.622E-03    -54.9403E-03     35.1007E-03
             923     4.25963E-03     96.6197E-03    -36.9277E+06    -113.029E+06    -25.2192E+06    -11.5126E+06    -55.1130E-03     110.089E-03    -54.9763E-03     43.9200E-03    -55.1267E-03     109.644E-03    -54.8849E-03     43.5998E-03
             924     5.11175E-03     96.6670E-03    -33.3973E+06    -109.632E+06    -19.0026E+06    -13.6752E+06    -55.1614E-03     110.096E-03    -54.9350E-03     52.3556E-03    -55.1878E-03     109.670E-03    -54.8226E-03     51.9584E-03
             925     5.96419E-03     96.7220E-03    -29.6554E+06    -105.345E+06    -13.6510E+06    -15.5551E+06    -55.2354E-03     110.117E-03    -54.8821E-03     60.7052E-03    -55.2797E-03     109.722E-03    -54.7546E-03     60.2265E-03
             926     6.81674E-03     96.7856E-03    -26.3534E+06    -100.905E+06    -10.4439E+06    -16.6913E+06    -55.3860E-03     110.204E-03    -54.8179E-03     68.9397E-03    -55.4560E-03     109.852E-03    -54.6856E-03     68.3784E-03
             927     7.66929E-03     96.8561E-03    -24.2914E+06    -99.5568E+06    -10.3997E+06    -17.3867E+06    -55.5952E-03     110.343E-03    -54.7482E-03     77.1367E-03    -55.6988E-03     110.038E-03    -54.6206E-03     76.4866E-03
             928     8.52188E-03     96.9357E-03    -22.7300E+06    -95.2604E+06    -11.8774E+06    -18.5941E+06    -55.8084E-03     110.480E-03    -54.6713E-03     85.3612E-03    -55.9655E-03     110.252E-03    -54.5596E-03     84.6015E-03
             929     9.37469E-03     97.0216E-03    -21.1431E+06    -92.5936E+06    -13.1865E+06    -19.3575E+06    -56.0755E-03     110.676E-03    -54.6006E-03     93.8788E-03    -56.3062E-03     110.541E-03    -54.5016E-03     92.9966E-03
             930     10.2273E-03     97.1177E-03    -20.1715E+06    -87.1409E+06    -16.1936E+06    -19.2836E+06    -56.5144E-03     111.042E-03    -54.5281E-03     102.532E-03    -56.8557E-03     111.050E-03    -54.4535E-03     101.513E-03
             931     11.0805E-03     97.2196E-03    -19.2862E+06    -76.7526E+06    -18.2883E+06    -18.5977E+06    -57.1678E-03     111.643E-03    -54.4752E-03     111.483E-03    -57.6808E-03     111.868E-03    -54.4274E-03     110.302E-03
             932     11.9318E-03     97.3338E-03    -18.3729E+06    -63.6815E+06    -21.7608E+06    -17.0011E+06    -57.8186E-03     112.251E-03    -54.4326E-03     122.944E-03    -58.6018E-03     112.806E-03    -54.4225E-03     121.569E-03
             933     12.7855E-03     97.4587E-03    -17.9572E+06    -41.9716E+06    -31.5146E+06    -13.8113E+06    -58.5233E-03     112.872E-03    -54.3483E-03     141.902E-03    -59.8380E-03     114.065E-03    -54.4190E-03     140.271E-03
             934     13.6370E-03     97.6098E-03    -16.9080E+06     20.4763E+06    -39.5811E+06    -8.51421E+06    -61.3381E-03     115.536E-03    -54.1983E-03     188.877E-03    -64.1432E-03     118.469E-03    -54.4014E-03     186.834E-03
             935     14.4898E-03     97.8295E-03    -15.0790E+06     102.225E+06    -8.57402E+06    -3.04178E+06    -70.1752E-03     124.391E-03    -54.2153E-03     287.742E-03    -78.5666E-03     133.116E-03    -54.3846E-03     284.856E-03
             936     15.3418E-03     98.1880E-03    -11.7284E+06     164.574E+06     71.8395E+06     184.031E+03    -79.0852E-03     133.608E-03    -54.5226E-03     399.362E-03    -101.205E-03     156.061E-03    -54.3850E-03     398.175E-03
             937     16.1942E-03     98.6527E-03    -6.24442E+06     184.710E+06     118.192E+06     996.045E+03    -67.3519E-03     122.054E-03    -54.7026E-03     298.054E-03    -86.4099E-03     141.403E-03    -54.3704E-03     302.858E-03
             938     851.902E-06     97.5729E-03    -41.3922E+06    -125.455E+06    -40.9547E+06    -3.04167E+06    -54.9362E-03     109.770E-03    -54.8338E-03     9.87601E-03    -54.9032E-03     109.264E-03    -54.7966E-03     9.80536E-03
             939     1.70391E-03     97.5863E-03    -39.8238E+06    -121.981E+06    -37.4597E+06    -5.63271E+06    -54.8571E-03     109.719E-03    -54.8615E-03     18.1445E-03    -54.8293E-03     109.225E-03    -54.8142E-03     18.0123E-03
             940     2.55601E-03     97.6082E-03    -37.6300E+06    -118.429E+06    -32.0984E+06     -7.8542E+06    -54.8303E-03     109.663E-03    -54.8330E-03     26.8186E-03    -54.8097E-03     109.182E-03    -54.7672E-03     26.6260E-03
             941     3.40829E-03     97.6384E-03    -35.0708E+06    -114.124E+06    -26.5461E+06    -10.0293E+06    -54.8207E-03     109.613E-03    -54.7925E-03     35.5202E-03    -54.8095E-03     109.149E-03    -54.7089E-03     35.2638E-03
             942     4.26050E-03     97.6773E-03    -32.3231E+06    -107.575E+06    -21.6168E+06    -12.2675E+06    -54.8013E-03     109.536E-03    -54.7346E-03     44.1637E-03    -54.8045E-03     109.105E-03    -54.6398E-03     43.8377E-03
             943     5.11318E-03     97.7240E-03    -29.8141E+06    -104.271E+06    -16.1505E+06    -14.2315E+06    -54.8197E-03     109.495E-03    -54.6749E-03     52.7137E-03    -54.8394E-03     109.085E-03    -54.5612E-03     52.3148E-03
             944     5.96574E-03     97.7793E-03    -27.5537E+06    -100.063E+06    -11.6699E+06    -16.3889E+06    -54.8985E-03     109.505E-03    -54.6063E-03     61.1857E-03    -54.9417E-03     109.129E-03    -54.4796E-03     60.7031E-03
             945     6.81861E-03     97.8420E-03    -25.1916E+06    -98.1092E+06    -8.94981E+06    -17.3782E+06    -55.0212E-03     109.554E-03    -54.5328E-03     69.5461E-03    -55.0900E-03     109.211E-03    -54.3988E-03     68.9846E-03
             946     7.67144E-03     97.9134E-03    -22.3440E+06    -95.7430E+06    -7.94697E+06    -18.0420E+06    -55.1939E-03     109.646E-03    -54.4517E-03     77.9051E-03    -55.2947E-03     109.350E-03    -54.3202E-03     77.2574E-03
             947     8.52464E-03     97.9916E-03    -19.8508E+06    -91.6175E+06    -9.02860E+06    -19.2609E+06    -55.3877E-03     109.748E-03    -54.3606E-03     86.2769E-03    -55.5371E-03     109.528E-03    -54.2441E-03     85.5213E-03
             948     9.37757E-03     98.0790E-03    -18.5210E+06    -90.4982E+06    -10.6696E+06    -19.6114E+06    -55.7198E-03     109.999E-03    -54.2791E-03     94.9757E-03    -55.9410E-03     109.864E-03    -54.1744E-03     94.1039E-03
             949     10.2312E-03     98.1731E-03    -17.6378E+06    -84.9509E+06    -13.7189E+06    -19.5002E+06    -56.3542E-03     110.560E-03    -54.2059E-03     103.906E-03    -56.6876E-03     110.569E-03    -54.1257E-03     102.896E-03
             950     11.0830E-03     98.2783E-03    -16.8611E+06    -76.0166E+06    -16.0983E+06    -19.0812E+06    -56.9912E-03     111.150E-03    -54.1589E-03     113.115E-03    -57.4938E-03     111.370E-03    -54.1047E-03     111.941E-03
             951     11.9365E-03     98.3899E-03    -16.7654E+06    -65.0666E+06    -20.4358E+06    -17.6920E+06    -57.5711E-03     111.687E-03    -54.1160E-03     124.775E-03    -58.3438E-03     112.228E-03    -54.0995E-03     123.410E-03
             952     12.7878E-03     98.5169E-03    -16.1764E+06    -45.1718E+06    -29.7404E+06    -15.3380E+06    -58.5095E-03     112.550E-03    -54.0406E-03     143.424E-03    -59.8130E-03     113.722E-03    -54.1003E-03     141.786E-03
             953     13.6417E-03     98.6659E-03    -15.7732E+06     14.0714E+06    -39.2519E+06    -10.9621E+06    -61.9529E-03     115.871E-03    -53.9179E-03     190.420E-03    -64.7534E-03     118.779E-03    -54.1117E-03     188.328E-03
             954     14.4939E-03     98.8895E-03    -15.2901E+06     94.6999E+06    -17.1127E+06    -5.09221E+06    -70.6117E-03     124.541E-03    -53.9298E-03     289.545E-03    -79.0233E-03     133.285E-03    -54.1305E-03     286.626E-03
             955     15.3466E-03     99.2466E-03    -11.3457E+06     161.861E+06     64.0458E+06    -519.007E+03    -78.5952E-03     132.827E-03    -54.2321E-03     400.885E-03    -100.788E-03     155.369E-03    -54.1301E-03     399.843E-03
             956     16.1996E-03     99.7143E-03    -6.62491E+06     184.936E+06     118.057E+06     1.30650E+06    -67.8191E-03     122.270E-03    -54.4506E-03     297.327E-03    -86.8526E-03     141.594E-03    -54.1189E-03     302.123E-03
             957     852.262E-06     98.6303E-03    -37.3141E+06    -117.900E+06    -37.0775E+06    -3.79396E+06    -54.6058E-03     109.129E-03    -54.5233E-03     9.90047E-03    -54.5689E-03     108.649E-03    -54.4836E-03     9.82093E-03
             958     1.70448E-03     98.6437E-03    -35.9462E+06    -114.944E+06    -33.7079E+06    -6.50644E+06    -54.5316E-03     109.071E-03    -54.5394E-03     18.2565E-03    -54.4999E-03     108.601E-03    -54.4891E-03     18.1148E-03
             959     2.55686E-03     98.6653E-03    -33.5467E+06    -112.612E+06    -28.4932E+06    -8.78416E+06    -54.5065E-03     109.016E-03    -54.5093E-03     27.0227E-03    -54.4789E-03     108.552E-03    -54.4399E-03     26.8207E-03
             960     3.40924E-03     98.6956E-03    -30.3003E+06    -107.644E+06    -22.7408E+06    -11.2125E+06    -54.4426E-03     108.902E-03    -54.4599E-03     35.7927E-03    -54.4221E-03     108.458E-03    -54.3736E-03     35.5250E-03
             961     4.26211E-03     98.7338E-03    -27.1575E+06    -102.800E+06    -17.3066E+06    -12.9197E+06    -54.3871E-03     108.778E-03    -54.3909E-03     44.5276E-03    -54.3771E-03     108.357E-03    -54.2890E-03     44.1987E-03
             962     5.11487E-03     98.7807E-03    -24.3161E+06    -98.8635E+06    -11.8564E+06    -14.3808E+06    -54.3845E-03     108.698E-03    -54.3134E-03     53.1897E-03    -54.3896E-03     108.300E-03    -54.1941E-03     52.7961E-03
             963     5.96811E-03     98.8353E-03    -22.0712E+06    -95.3845E+06    -7.49465E+06    -15.6947E+06    -54.4372E-03     108.666E-03    -54.2292E-03     61.8456E-03    -54.4643E-03     108.298E-03    -54.0964E-03     61.3813E-03
             964     6.82114E-03     98.8985E-03    -20.5935E+06    -94.3856E+06    -5.34623E+06    -16.9784E+06    -54.5360E-03     108.675E-03    -54.1393E-03     70.3951E-03    -54.5901E-03     108.337E-03    -53.9993E-03     69.8505E-03
             965     7.67477E-03     98.9687E-03    -18.9139E+06    -91.0020E+06    -5.33027E+06    -18.9943E+06    -54.6616E-03     108.698E-03    -54.0361E-03     78.9710E-03    -54.7529E-03     108.414E-03    -53.9033E-03     78.3254E-03
             966     8.52800E-03     99.0482E-03    -17.2066E+06    -89.2356E+06    -6.54758E+06    -19.6571E+06    -54.8841E-03     108.817E-03    -53.9330E-03     87.4701E-03    -55.0235E-03     108.598E-03    -53.8114E-03     86.7257E-03
             967     9.38207E-03     99.1335E-03    -15.9690E+06    -87.7567E+06    -8.17139E+06    -19.6774E+06    -55.3983E-03     109.244E-03    -53.8461E-03     96.5327E-03    -55.6110E-03     109.113E-03    -53.7366E-03     95.6761E-03
             968     10.2347E-03     99.2306E-03    -15.0408E+06    -83.1969E+06    -11.4505E+06    -19.8220E+06    -55.9768E-03     109.749E-03    -53.7723E-03     105.859E-03    -56.2986E-03     109.755E-03    -53.6871E-03     104.865E-03
             969     11.0887E-03     99.3335E-03    -14.6347E+06    -75.7413E+06    -14.4405E+06    -19.1482E+06    -56.5123E-03     110.228E-03    -53.7160E-03     115.308E-03    -57.0005E-03     110.438E-03    -53.6572E-03     114.160E-03
             970     11.9412E-03     99.4476E-03    -14.2391E+06    -65.3376E+06    -18.1826E+06    -18.0077E+06    -57.3784E-03     111.052E-03    -53.6732E-03     127.042E-03    -58.1355E-03     111.579E-03    -53.6488E-03     125.695E-03
             971     12.7952E-03     99.5734E-03    -14.3977E+06    -47.0650E+06    -27.7573E+06    -15.7470E+06    -58.9729E-03     112.600E-03    -53.6271E-03     145.629E-03    -60.2712E-03     113.761E-03    -53.6768E-03     143.988E-03
             972     13.6460E-03     99.7245E-03    -15.8028E+06     8.44474E+06    -36.2603E+06    -11.8203E+06    -62.8914E-03     116.467E-03    -53.5755E-03     192.632E-03    -65.7174E-03     119.372E-03    -53.7461E-03     190.502E-03
             973     14.4973E-03     99.9481E-03    -16.0563E+06     88.0046E+06    -21.3736E+06    -7.08222E+06    -71.3438E-03     124.959E-03    -53.6148E-03     290.526E-03    -79.7525E-03     133.685E-03    -53.8260E-03     287.561E-03
             974     15.3500E-03     100.304E-03    -13.5393E+06     156.707E+06     54.2922E+06    -2.86485E+06    -78.4845E-03     132.407E-03    -53.9230E-03     400.348E-03    -100.624E-03     154.897E-03    -53.8591E-03     399.387E-03
             975     16.2044E-03     100.773E-03    -7.29354E+06     182.943E+06     115.776E+06     53.3614E+03    -67.4608E-03     121.639E-03    -54.1780E-03     297.381E-03    -86.4696E-03     140.935E-03    -53.8538E-03     302.247E-03
             976     852.484E-06     99.6871E-03    -33.2465E+06    -109.057E+06    -32.8427E+06    -4.26329E+06    -54.0998E-03     108.233E-03    -54.1332E-03     9.93910E-03    -54.0615E-03     107.785E-03    -54.0911E-03     9.85446E-03
             977     1.70526E-03     99.7002E-03    -32.2880E+06    -107.418E+06    -30.3454E+06    -7.05502E+06    -54.0643E-03     108.150E-03    -54.0857E-03     18.4244E-03    -54.0300E-03     107.708E-03    -54.0348E-03     18.2781E-03
             978     2.55794E-03     99.7220E-03    -30.4202E+06    -105.508E+06    -26.2705E+06    -10.0542E+06    -54.0041E-03     108.044E-03    -54.0400E-03     27.3027E-03    -53.9741E-03     107.608E-03    -53.9742E-03     27.0884E-03
             979     3.41101E-03     99.7516E-03    -27.9044E+06    -101.035E+06    -21.0716E+06    -12.6917E+06    -53.9145E-03     107.890E-03    -53.9756E-03     36.1782E-03    -53.8935E-03     107.472E-03    -53.8940E-03     35.8969E-03
             980     4.26400E-03     99.7899E-03    -24.8410E+06    -98.3278E+06    -15.2083E+06    -14.2510E+06    -53.8362E-03     107.734E-03    -53.8979E-03     45.0470E-03    -53.8232E-03     107.328E-03    -53.7954E-03     44.7083E-03
             981     5.11755E-03     99.8361E-03    -21.5951E+06    -93.8112E+06    -10.2617E+06    -15.4282E+06    -53.7937E-03     107.594E-03    -53.8007E-03     53.9275E-03    -53.7934E-03     107.214E-03    -53.6847E-03     53.5304E-03
             982     5.97096E-03     99.8909E-03    -18.4305E+06    -92.0551E+06    -5.74132E+06    -16.1214E+06    -53.7903E-03     107.489E-03    -53.6985E-03     62.7529E-03    -53.8043E-03     107.127E-03    -53.5670E-03     62.2960E-03
             983     6.82509E-03     99.9532E-03    -15.1265E+06    -89.4699E+06    -2.26101E+06    -17.1480E+06    -53.8591E-03     107.447E-03    -53.5876E-03     71.5716E-03    -53.8944E-03     107.117E-03    -53.4472E-03     71.0408E-03
             984     7.67872E-03     100.024E-03    -13.3737E+06    -86.7186E+06    -1.57215E+06    -18.3457E+06    -53.9852E-03     107.453E-03    -53.4673E-03     80.3348E-03    -54.0564E-03     107.173E-03    -53.3301E-03     79.7165E-03
             985     8.53338E-03     100.102E-03    -13.0675E+06    -86.9932E+06    -3.27427E+06    -18.8117E+06    -54.3176E-03     107.671E-03    -53.3534E-03     89.2805E-03    -54.4396E-03     107.447E-03    -53.2247E-03     88.5680E-03
             986     9.38680E-03     100.190E-03    -12.5806E+06    -84.2480E+06    -5.19233E+06    -19.6435E+06    -54.8392E-03     108.096E-03    -53.2564E-03     98.8689E-03    -55.0387E-03     107.966E-03    -53.1419E-03     98.0371E-03
             987     10.2415E-03     100.285E-03    -12.0288E+06    -82.2228E+06    -9.03063E+06    -19.8407E+06    -55.4099E-03     108.585E-03    -53.1752E-03     108.359E-03    -55.7145E-03     108.581E-03    -53.0837E-03     107.393E-03
             988     11.0948E-03     100.389E-03    -11.7369E+06    -74.8441E+06    -12.2282E+06    -19.1277E+06    -56.2054E-03     109.324E-03    -53.1185E-03     117.892E-03    -56.6766E-03     109.523E-03    -53.0541E-03     116.771E-03
             989     11.9489E-03     100.503E-03    -11.5311E+06    -65.4082E+06    -15.4641E+06    -18.0147E+06    -57.5334E-03     110.638E-03    -53.1044E-03     129.640E-03    -58.2749E-03     111.151E-03    -53.0701E-03     128.313E-03
             990     12.8005E-03     100.631E-03    -12.3055E+06     -49.914E+06    -26.0163E+06    -15.3129E+06    -59.6064E-03     112.715E-03    -53.1086E-03     148.436E-03    -60.8951E-03     113.858E-03    -53.1485E-03     146.805E-03
             991     13.6526E-03     100.784E-03    -13.3167E+06     4.47446E+06    -32.0589E+06    -11.1715E+06    -63.7591E-03     116.893E-03    -53.1334E-03     195.591E-03    -66.5974E-03     119.792E-03    -53.2809E-03     193.458E-03
             992     14.5038E-03     101.008E-03    -13.8700E+06     83.3843E+06    -16.4482E+06    -6.66103E+06    -72.5168E-03     125.762E-03    -53.2456E-03     292.930E-03    -80.9599E-03     134.500E-03    -53.4286E-03     289.923E-03
             993     15.3542E-03     101.365E-03    -12.5774E+06     152.648E+06     54.5705E+06    -2.73468E+06    -78.8688E-03     132.449E-03    -53.5799E-03     401.312E-03    -100.917E-03     154.836E-03    -53.5101E-03     400.458E-03
             994     16.2070E-03     101.827E-03    -7.87567E+06     181.147E+06     113.922E+06    -1.05295E+06    -67.5634E-03     121.404E-03    -53.8405E-03     300.856E-03    -86.6269E-03     140.752E-03    -53.5221E-03     305.954E-03
             995     853.199E-06     100.743E-03    -28.8446E+06    -99.7650E+06    -28.7332E+06    -4.40416E+06    -53.4611E-03     106.975E-03    -53.5135E-03     10.1125E-03    -53.4202E-03     106.561E-03    -53.4707E-03     10.0277E-03
             996     1.70621E-03     100.756E-03    -27.9516E+06    -99.0199E+06    -26.2639E+06    -7.61331E+06    -53.4293E-03     106.884E-03    -53.4545E-03     18.6666E-03    -53.3912E-03     106.471E-03    -53.4017E-03     18.5164E-03
             997     2.55967E-03     100.777E-03    -26.2411E+06    -97.4005E+06    -22.5257E+06    -10.8680E+06    -53.3097E-03     106.706E-03    -53.3962E-03     27.6441E-03    -53.2755E-03     106.298E-03    -53.3296E-03     27.4244E-03
             998     3.41306E-03     100.807E-03    -24.4300E+06    -94.4252E+06    -18.6284E+06    -13.3986E+06    -53.1938E-03     106.504E-03    -53.3101E-03     36.6869E-03    -53.1678E-03     106.110E-03    -53.2309E-03     36.4040E-03
             999     4.26700E-03     100.844E-03    -22.3266E+06    -92.7796E+06    -14.2707E+06    -15.4685E+06    -53.0805E-03     106.290E-03    -53.2097E-03     45.7699E-03    -53.0630E-03     105.905E-03    -53.1142E-03     45.4255E-03
            1000     5.12089E-03     100.891E-03    -19.8336E+06    -89.3555E+06    -10.3539E+06    -16.7552E+06    -52.9735E-03     106.062E-03    -53.0886E-03     54.9141E-03    -52.9686E-03     105.700E-03    -52.9820E-03     54.5132E-03
            1001     5.97547E-03     100.945E-03    -17.1959E+06    -88.4157E+06    -6.27690E+06    -17.5416E+06    -52.9189E-03     105.880E-03    -52.9608E-03     64.0224E-03    -52.9282E-03     105.532E-03    -52.8391E-03     63.5641E-03
            1002     6.82975E-03     101.007E-03    -15.0312E+06    -85.1763E+06    -2.86598E+06    -18.4559E+06    -52.9187E-03     105.741E-03    -52.8223E-03     73.2087E-03    -52.9545E-03     105.429E-03    -52.6913E-03     72.6825E-03
            1003     7.68509E-03     101.077E-03    -12.7262E+06    -84.5653E+06    -885.944E+03    -18.3972E+06    -53.1023E-03     105.788E-03    -52.6859E-03     82.3277E-03    -53.1688E-03     105.512E-03    -52.5493E-03     81.7336E-03
            1004     8.53946E-03     101.156E-03    -10.7850E+06    -83.6842E+06    -1.40853E+06    -18.4565E+06    -53.4984E-03     106.055E-03    -52.5567E-03     91.8349E-03    -53.6098E-03     105.835E-03    -52.4268E-03     91.1554E-03
            1005     9.39498E-03     101.243E-03    -9.58114E+06    -80.6954E+06    -2.78880E+06    -19.5216E+06    -54.0450E-03     106.493E-03    -52.4480E-03     101.728E-03    -54.2299E-03     106.365E-03    -52.3310E-03     100.930E-03
            1006     10.2493E-03     101.339E-03    -9.05242E+06    -81.0748E+06    -6.37747E+06    -19.6363E+06    -54.8953E-03     107.266E-03    -52.3703E-03     111.532E-03    -55.1822E-03     107.251E-03    -52.2715E-03     110.602E-03
            1007     11.1039E-03     101.444E-03    -9.01895E+06    -73.6292E+06    -9.83084E+06    -18.8543E+06    -56.1165E-03     108.452E-03    -52.3355E-03     121.489E-03    -56.5729E-03     108.644E-03    -52.2648E-03     120.399E-03
            1008     11.9569E-03     101.559E-03    -9.34743E+06    -66.0215E+06    -12.8882E+06    -17.6917E+06    -57.7971E-03     110.166E-03    -52.3693E-03     133.905E-03    -58.5296E-03     110.669E-03    -52.3245E-03     132.604E-03
            1009     12.8097E-03     101.689E-03    -10.0866E+06    -53.1763E+06    -24.1727E+06    -14.8436E+06    -60.3711E-03     112.805E-03    -52.4342E-03     153.432E-03    -61.6573E-03     113.937E-03    -52.4634E-03     151.815E-03
            1010     13.6605E-03     101.842E-03    -11.2986E+06     1.57543E+06    -27.5555E+06    -10.3939E+06    -65.0641E-03     117.619E-03    -52.5547E-03     199.553E-03    -67.9287E-03     120.529E-03    -52.6784E-03     197.406E-03
            1011     14.5108E-03     102.069E-03    -11.9525E+06     78.5769E+06    -14.1095E+06    -5.70603E+06    -73.3842E-03     126.121E-03    -52.7372E-03     295.308E-03    -81.8538E-03     134.868E-03    -52.9044E-03     292.312E-03
            1012     15.3621E-03     102.426E-03    -9.36603E+06     148.780E+06     53.1233E+06    -1.81459E+06    -79.4178E-03     132.530E-03    -53.1122E-03     400.256E-03    -101.297E-03     154.750E-03    -53.0488E-03     399.353E-03
            1013     16.2197E-03     102.884E-03    -4.74200E+06     180.920E+06     114.501E+06     4.17525E+03    -68.4979E-03     121.950E-03    -53.4516E-03     300.558E-03    -87.4802E-03     141.225E-03    -53.1345E-03     305.619E-03
            1014     853.769E-06     101.797E-03    -25.3054E+06    -90.0978E+06    -24.8721E+06    -4.74189E+06    -52.6352E-03     105.251E-03    -52.6163E-03     10.3333E-03    -52.5961E-03     104.875E-03    -52.5733E-03     10.2466E-03
            1015     1.70778E-03     101.810E-03    -24.1972E+06    -89.7185E+06    -22.7224E+06    -8.19899E+06    -52.5518E-03     105.140E-03    -52.5883E-03     18.9475E-03    -52.5133E-03     104.763E-03    -52.5368E-03     18.7939E-03
            1016     2.56172E-03     101.831E-03    -22.7445E+06    -88.9573E+06    -19.8198E+06    -11.6356E+06    -52.3947E-03     104.911E-03    -52.5162E-03     28.1038E-03    -52.3587E-03     104.536E-03    -52.4534E-03     27.8810E-03
            1017     3.41622E-03     101.860E-03    -20.6445E+06    -87.5786E+06    -16.5658E+06    -14.2485E+06    -52.2145E-03     104.623E-03    -52.4086E-03     37.3743E-03    -52.1814E-03     104.254E-03    -52.3345E-03     37.0901E-03
            1018     4.27072E-03     101.897E-03    -18.2659E+06    -86.1547E+06    -12.5883E+06    -16.5418E+06    -52.0451E-03     104.325E-03    -52.2798E-03     46.7123E-03    -52.0176E-03     103.963E-03    -52.1913E-03     46.3670E-03
            1019     5.12585E-03     101.943E-03    -15.8042E+06    -85.0700E+06    -8.67806E+06    -17.9624E+06    -51.8771E-03     104.010E-03    -52.1325E-03     56.1522E-03    -51.8580E-03     103.657E-03    -52.0297E-03     55.7525E-03
            1020     5.98099E-03     101.997E-03    -13.3381E+06    -84.3024E+06    -4.63858E+06    -18.7019E+06    -51.7478E-03     103.720E-03    -51.9721E-03     65.6410E-03    -51.7422E-03     103.381E-03    -51.8537E-03     65.1892E-03
            1021     6.83704E-03     102.059E-03    -11.2611E+06    -82.3829E+06    -1.24975E+06    -18.5314E+06    -51.7372E-03     103.540E-03    -51.8028E-03     75.2081E-03    -51.7549E-03     103.229E-03    -51.6733E-03     74.7072E-03
            1022     7.69257E-03     102.129E-03    -10.4314E+06    -82.2410E+06     543.664E+03    -18.3956E+06    -51.9346E-03     103.575E-03    -51.6403E-03     84.9316E-03    -51.9877E-03     103.297E-03    -51.5032E-03     84.3688E-03
            1023     8.54906E-03     102.207E-03    -9.20151E+06    -80.0497E+06    -58.6828E+03    -19.3181E+06    -52.3777E-03     103.865E-03    -51.4874E-03     94.9566E-03    -52.4793E-03     103.650E-03    -51.3583E-03     94.3022E-03
            1024     9.40449E-03     102.294E-03    -7.95473E+06    -77.9868E+06    -1.29508E+06    -19.6025E+06    -53.1498E-03     104.521E-03    -51.3711E-03     105.396E-03    -53.3225E-03     104.392E-03    -51.2530E-03     104.635E-03
            1025     10.2604E-03     102.391E-03    -7.48477E+06    -79.7887E+06    -4.46291E+06    -19.3356E+06    -54.3127E-03     105.621E-03    -51.3078E-03     115.810E-03    -54.5863E-03     105.597E-03    -51.2036E-03     114.921E-03
            1026     11.1150E-03     102.497E-03    -7.70637E+06    -73.1731E+06    -8.30521E+06    -18.2135E+06    -55.8789E-03     107.181E-03    -51.3017E-03     126.578E-03    -56.3242E-03     107.363E-03    -51.2259E-03     125.532E-03
            1027     11.9690E-03     102.614E-03    -8.60703E+06    -65.9333E+06    -10.8354E+06    -16.9517E+06    -58.1687E-03     109.562E-03    -51.3931E-03     139.514E-03    -58.9021E-03     110.062E-03    -51.3392E-03     138.245E-03
            1028     12.8216E-03     102.745E-03    -9.98934E+06    -56.9350E+06    -23.1632E+06    -14.3135E+06    -61.5718E-03     113.120E-03    -51.5486E-03     159.187E-03    -62.8716E-03     114.250E-03    -51.5674E-03     157.574E-03
            1029     13.6713E-03     102.905E-03    -10.9800E+06    -2.50332E+06    -24.5820E+06    -9.66422E+06    -66.4669E-03     118.253E-03    -51.7860E-03     204.816E-03    -69.3776E-03     121.187E-03    -51.8894E-03     202.655E-03
            1030     14.5196E-03     103.130E-03    -11.6802E+06     75.3003E+06    -14.2205E+06    -5.83425E+06    -74.8445E-03     126.899E-03    -52.0547E-03     298.738E-03    -83.4120E-03     135.734E-03    -52.2180E-03     295.685E-03
            1031     15.3717E-03     103.486E-03    -11.3130E+06     145.561E+06     46.8977E+06    -2.32641E+06    -81.8861E-03     134.424E-03    -52.5375E-03     401.168E-03    -104.069E-03     156.947E-03    -52.4977E-03     399.983E-03
            1032     16.2162E-03     103.943E-03    -5.77793E+06     179.193E+06     112.637E+06    -146.458E+03    -69.8307E-03     122.864E-03    -53.0335E-03     299.644E-03    -89.0233E-03     142.346E-03    -52.7217E-03     304.483E-03
            1033     854.825E-06     102.849E-03    -21.6237E+06    -79.4779E+06    -21.2609E+06    -4.90865E+06    -51.4979E-03     102.979E-03    -51.4813E-03     10.5398E-03    -51.4610E-03     102.645E-03    -51.4410E-03     10.4540E-03
            1034     1.70961E-03     102.862E-03    -20.7809E+06    -79.8410E+06    -20.0649E+06    -8.89810E+06    -51.3619E-03     102.799E-03    -51.4367E-03     19.3229E-03    -51.3242E-03     102.462E-03    -51.3911E-03     19.1657E-03
            1035     2.56481E-03     102.882E-03    -19.4576E+06    -79.8420E+06    -17.9578E+06    -12.5872E+06    -51.1731E-03     102.513E-03    -51.3403E-03     28.6757E-03    -51.1359E-03     102.176E-03    -51.2861E-03     28.4488E-03
            1036     3.42006E-03     102.911E-03    -17.8693E+06    -80.1329E+06    -15.1698E+06    -15.6376E+06    -50.9233E-03     102.133E-03    -51.2092E-03     38.2195E-03    -50.8879E-03     101.793E-03    -51.1430E-03     37.9291E-03
            1037     4.27601E-03     102.948E-03    -16.1269E+06    -79.5428E+06    -12.1696E+06    -17.7478E+06    -50.6569E-03     101.702E-03    -51.0449E-03     47.8849E-03    -50.6267E-03     101.367E-03    -50.9670E-03     47.5402E-03
            1038     5.13207E-03     102.993E-03    -14.5820E+06    -80.4823E+06    -8.79750E+06    -19.0242E+06    -50.4189E-03     101.280E-03    -50.8613E-03     57.6717E-03    -50.3967E-03     100.946E-03    -50.7674E-03     57.2790E-03
            1039     5.98895E-03     103.046E-03    -12.9183E+06    -79.8185E+06    -5.88381E+06    -19.9218E+06    -50.2443E-03     100.903E-03    -50.6591E-03     67.5834E-03    -50.2361E-03     100.583E-03    -50.5540E-03     67.1418E-03
            1040     6.84568E-03     103.108E-03    -11.1819E+06    -81.7014E+06    -3.20711E+06    -19.1743E+06    -50.2151E-03     100.672E-03    -50.4571E-03     77.6645E-03    -50.2235E-03     100.360E-03    -50.3384E-03     77.1867E-03
            1041     7.70339E-03     103.178E-03    -9.06317E+06    -78.6123E+06    -73.4773E+03    -18.4841E+06    -50.4192E-03     100.682E-03    -50.2631E-03     88.0536E-03    -50.4603E-03     100.412E-03    -50.1364E-03     87.5273E-03
            1042     8.56040E-03     103.256E-03    -8.14137E+06    -76.7691E+06     451.062E+03    -19.2593E+06    -50.9992E-03     101.093E-03    -50.0941E-03     98.7439E-03    -51.0895E-03     100.881E-03    -49.9687E-03     98.1326E-03
            1043     9.41805E-03     103.344E-03    -8.54837E+06    -76.5792E+06    -1.57298E+06    -18.9038E+06    -52.0588E-03     102.034E-03    -49.9749E-03     109.928E-03    -52.2233E-03     101.900E-03    -49.8593E-03     109.222E-03
            1044     10.2743E-03     103.442E-03    -9.29941E+06    -77.2034E+06    -4.02184E+06    -18.7924E+06    -53.5989E-03     103.534E-03    -49.9350E-03     120.996E-03    -53.8738E-03     103.513E-03    -49.8296E-03     120.159E-03
            1045     11.1301E-03     103.549E-03    -9.87281E+06    -74.3747E+06    -8.80190E+06    -17.9226E+06    -55.7436E-03     105.722E-03    -49.9787E-03     132.195E-03    -56.1897E-03     105.895E-03    -49.9005E-03     131.190E-03
            1046     11.9846E-03     103.668E-03    -10.6466E+06    -64.7278E+06    -9.61434E+06    -16.1448E+06    -58.9159E-03     109.079E-03    -50.1629E-03     145.782E-03    -59.6667E-03     109.590E-03    -50.1017E-03     144.541E-03
            1047     12.8350E-03     103.804E-03    -11.2245E+06    -60.5130E+06    -21.3211E+06    -13.8023E+06    -62.7075E-03     113.147E-03    -50.4400E-03     165.955E-03    -64.0331E-03     114.280E-03    -50.4425E-03     164.352E-03
            1048     13.6846E-03     103.965E-03    -12.0567E+06    -6.96816E+06    -21.9752E+06    -9.70138E+06    -67.8335E-03     118.628E-03    -50.7948E-03     210.919E-03    -70.7979E-03     121.589E-03    -50.8771E-03     208.737E-03
            1049     14.5353E-03     104.194E-03    -13.2977E+06     72.6299E+06    -12.9610E+06    -5.60240E+06    -77.2475E-03     128.438E-03    -51.1902E-03     302.966E-03    -85.9670E-03     137.406E-03    -51.3411E-03     299.780E-03
            1050     15.3804E-03     104.551E-03    -12.3080E+06     143.465E+06     44.6185E+06    -2.36270E+06    -84.3264E-03     136.132E-03    -51.8056E-03     405.112E-03    -106.943E-03     159.085E-03    -51.7727E-03     403.778E-03
            1051     16.2336E-03     105.011E-03    -6.28504E+06     177.770E+06     113.101E+06    -888.138E+03    -73.2778E-03     125.763E-03    -52.4855E-03     299.260E-03    -92.6960E-03     145.463E-03    -52.1686E-03     303.841E-03
            1052     855.949E-06     103.898E-03    -18.3238E+06    -68.0308E+06    -18.3098E+06    -5.18518E+06    -50.0150E-03     100.019E-03    -50.0044E-03     10.7544E-03    -49.9824E-03     99.7333E-03    -49.9708E-03     10.6683E-03
            1053     1.71220E-03     103.911E-03    -17.4751E+06    -68.9420E+06    -17.6230E+06    -9.84295E+06    -49.8129E-03     99.7517E-03    -49.9388E-03     19.7691E-03    -49.7777E-03     99.4606E-03    -49.9016E-03     19.6060E-03
            1054     2.56853E-03     103.931E-03    -16.6225E+06    -70.4672E+06    -16.3272E+06    -13.5710E+06    -49.5708E-03     99.3825E-03    -49.8117E-03     29.3779E-03    -49.5346E-03     99.0841E-03    -49.7670E-03     29.1482E-03
            1055     3.42545E-03     103.959E-03    -15.7367E+06    -71.8565E+06    -14.5067E+06    -16.5831E+06    -49.2525E-03     98.8999E-03    -49.6473E-03     39.2050E-03    -49.2178E-03     98.5959E-03    -49.5929E-03     38.9163E-03
            1056     4.28259E-03     103.996E-03    -15.0521E+06    -73.7456E+06    -12.7180E+06    -18.3010E+06    -48.8979E-03     98.3442E-03    -49.4463E-03     49.2095E-03    -48.8671E-03     98.0348E-03    -49.3811E-03     48.8761E-03
            1057     5.14055E-03     104.040E-03    -14.2510E+06    -74.9589E+06    -10.6674E+06    -19.5262E+06    -48.5821E-03     97.7999E-03    -49.2179E-03     59.3952E-03    -48.5592E-03     97.4910E-03    -49.1418E-03     59.0199E-03
            1058     5.99861E-03     104.093E-03    -14.0059E+06     -76.536E+06    -8.79443E+06    -19.8018E+06    -48.3525E-03     97.3280E-03    -48.9755E-03     69.7940E-03    -48.3440E-03     97.0233E-03    -48.8882E-03     69.3836E-03
            1059     6.85764E-03     104.154E-03    -13.9524E+06    -79.8015E+06    -7.09185E+06    -19.5754E+06    -48.3122E-03     97.0480E-03    -48.7358E-03     80.5065E-03    -48.3228E-03     96.7460E-03    -48.6353E-03     80.0594E-03
            1060     7.71637E-03     104.223E-03    -13.4681E+06    -75.8716E+06    -5.81480E+06    -19.5893E+06    -48.5953E-03     97.1002E-03    -48.5048E-03     91.6085E-03    -48.6427E-03     96.8470E-03    -48.4044E-03     91.1101E-03
            1061     8.57586E-03     104.302E-03    -13.6519E+06    -75.5994E+06    -3.71903E+06    -17.8587E+06    -49.4168E-03     97.7526E-03    -48.3358E-03     103.023E-03    -49.5166E-03     97.5460E-03    -48.2250E-03     102.476E-03
            1062     9.43409E-03     104.390E-03    -15.1883E+06    -74.3509E+06    -4.29703E+06    -17.1538E+06    -50.8164E-03     99.0524E-03    -48.2360E-03     114.859E-03    -50.9983E-03     98.9287E-03    -48.1277E-03     114.224E-03
            1063     10.2922E-03     104.490E-03    -16.4350E+06    -74.5761E+06    -5.77993E+06    -17.8457E+06    -52.9472E-03     101.192E-03    -48.2444E-03     126.635E-03    -53.2457E-03     101.184E-03    -48.1413E-03     125.855E-03
            1064     11.1482E-03     104.599E-03    -17.6024E+06    -74.0725E+06    -10.2000E+06    -17.6846E+06    -56.1441E-03     104.531E-03    -48.3872E-03     138.512E-03    -56.6238E-03     104.715E-03    -48.3053E-03     137.537E-03
            1065     12.0013E-03     104.723E-03    -17.7084E+06    -64.2414E+06    -10.0681E+06    -16.4527E+06    -59.6768E-03     108.377E-03    -48.7005E-03     152.405E-03    -60.4681E-03     108.907E-03    -48.6320E-03     151.178E-03
            1066     12.8535E-03     104.862E-03    -17.5434E+06    -62.9284E+06    -19.8109E+06    -15.4688E+06    -63.7004E-03     112.815E-03    -49.1144E-03     172.465E-03    -65.0744E-03     113.961E-03    -49.0968E-03     170.846E-03
            1067     13.7032E-03     105.026E-03    -16.1791E+06    -11.8014E+06    -18.8964E+06    -11.6759E+06    -70.1234E-03     119.751E-03    -49.6275E-03     216.813E-03    -73.1766E-03     122.760E-03    -49.6814E-03     214.534E-03
            1068     14.5472E-03     105.259E-03    -14.6040E+06     69.2045E+06    -13.0491E+06    -6.20334E+06    -80.0135E-03     130.201E-03    -50.1879E-03     306.653E-03    -88.8976E-03     139.318E-03    -50.3323E-03     303.286E-03
            1069     15.3967E-03     105.618E-03    -12.4519E+06     140.604E+06     42.0213E+06    -3.70749E+06    -87.0287E-03     138.018E-03    -50.9893E-03     404.267E-03    -109.730E-03     161.053E-03    -50.9650E-03     402.540E-03
            1070     16.2416E-03     106.076E-03    -7.33031E+06     175.744E+06     113.731E+06    -1.49089E+06    -77.9271E-03     129.864E-03    -51.9373E-03     295.642E-03    -97.2773E-03     149.483E-03    -51.6128E-03     299.624E-03
            1071     857.610E-06     104.945E-03    -15.0201E+06    -55.5526E+06    -16.0646E+06    -5.92873E+06    -48.1094E-03     96.2230E-03    -48.1136E-03     10.9755E-03    -48.0815E-03     95.9910E-03    -48.0916E-03     10.8834E-03
            1072     1.71536E-03     104.957E-03    -15.4058E+06    -57.4349E+06    -16.1399E+06    -10.4705E+06    -47.8688E-03     95.8956E-03    -48.0268E-03     20.2509E-03    -47.8418E-03     95.6564E-03    -48.0019E-03     20.0869E-03
            1073     2.57356E-03     104.976E-03    -15.3074E+06    -60.6959E+06    -16.1154E+06    -14.3277E+06    -47.5515E-03     95.4235E-03    -47.8720E-03     30.1215E-03    -47.5221E-03     95.1707E-03    -47.8424E-03     29.8930E-03
            1074     3.43202E-03     105.004E-03    -15.4016E+06    -64.1383E+06    -16.0574E+06    -16.8111E+06    -47.1623E-03     94.8332E-03    -47.6708E-03     40.2263E-03    -47.1330E-03     94.5676E-03    -47.6358E-03     39.9499E-03
            1075     4.29123E-03     105.039E-03    -15.6502E+06    -67.8035E+06    -15.7008E+06    -18.3261E+06    -46.7369E-03     94.1682E-03    -47.4313E-03     50.5980E-03    -46.7102E-03     93.8904E-03    -47.3888E-03     50.2846E-03
            1076     5.15075E-03     105.083E-03    -16.5277E+06    -70.3899E+06    -15.3980E+06    -18.8558E+06    -46.3288E-03     93.4887E-03    -47.1598E-03     61.2504E-03    -46.3121E-03     93.2076E-03    -47.1108E-03     60.9096E-03
            1077     6.01125E-03     105.135E-03    -17.7441E+06    -74.0072E+06    -14.3538E+06    -18.4663E+06    -46.0700E-03     92.9495E-03    -46.8795E-03     72.1768E-03    -46.0685E-03     92.6634E-03    -46.8183E-03     71.8155E-03
            1078     6.87180E-03     105.195E-03    -18.9649E+06    -76.3954E+06    -12.9020E+06    -18.4187E+06    -46.1209E-03     92.7315E-03    -46.6106E-03     83.5024E-03    -46.1431E-03     92.4522E-03    -46.5369E-03     83.1080E-03
            1079     7.73310E-03     105.265E-03    -21.5010E+06    -74.5401E+06    -11.5928E+06    -17.3665E+06    -46.6451E-03     93.0251E-03    -46.3799E-03     95.2332E-03    -46.7138E-03     92.7860E-03    -46.2986E-03     94.8056E-03
            1080     8.59362E-03     105.344E-03    -23.2772E+06    -74.7564E+06    -8.78433E+06    -16.6855E+06    -47.7978E-03     94.0339E-03    -46.2361E-03     107.348E-03    -47.9250E-03     93.8383E-03    -46.1379E-03     106.862E-03
            1081     9.45396E-03     105.435E-03    -22.7361E+06    -72.8207E+06    -6.59654E+06    -15.8905E+06    -49.6994E-03     95.8929E-03    -46.1935E-03     119.764E-03    -49.9028E-03     95.7760E-03    -46.0879E-03     119.191E-03
            1082     10.3126E-03     105.535E-03    -23.5263E+06    -71.7393E+06    -6.17936E+06    -15.6164E+06    -52.6605E-03     98.9568E-03    -46.2963E-03     132.369E-03    -52.9871E-03     98.9631E-03    -46.1891E-03     131.656E-03
            1083     11.1689E-03     105.650E-03    -24.0198E+06    -70.9256E+06    -8.90661E+06    -17.0091E+06    -56.4439E-03     103.011E-03    -46.5671E-03     145.292E-03    -56.9577E-03     103.214E-03    -46.4740E-03     144.356E-03
            1084     12.0222E-03     105.776E-03    -23.4705E+06    -64.0766E+06    -9.93202E+06    -17.4822E+06    -60.6607E-03     107.681E-03    -47.0204E-03     159.298E-03    -61.4918E-03     108.231E-03    -46.9431E-03     158.068E-03
            1085     12.8729E-03     105.918E-03    -22.7422E+06    -62.7019E+06    -18.0991E+06    -17.0505E+06    -66.0072E-03     113.633E-03    -47.6262E-03     179.080E-03    -67.4549E-03     114.831E-03    -47.5928E-03     177.396E-03
            1086     13.7193E-03     106.090E-03    -21.4681E+06    -16.2494E+06    -16.3102E+06    -15.3057E+06    -73.2698E-03     121.648E-03    -48.3783E-03     222.076E-03    -76.4323E-03     124.725E-03    -48.4052E-03     219.635E-03
            1087     14.5660E-03     106.327E-03    -17.9906E+06     63.3947E+06    -11.7465E+06    -10.6941E+06    -83.8214E-03     133.008E-03    -49.1870E-03     308.317E-03    -92.8503E-03     142.233E-03    -49.3116E-03     304.601E-03
            1088     15.4062E-03     106.687E-03    -13.1195E+06     136.844E+06     42.1967E+06    -5.73439E+06    -92.0692E-03     142.348E-03    -50.2789E-03     402.515E-03    -114.894E-03     165.491E-03    -50.2473E-03     400.080E-03
            1089     16.2465E-03     107.147E-03    -6.38960E+06     171.776E+06     112.278E+06    -2.32262E+06    -82.2290E-03     133.743E-03    -51.5144E-03     294.197E-03    -101.626E-03     153.402E-03    -51.1928E-03     297.580E-03
            1090     859.625E-06     105.986E-03    -13.2179E+06    -42.5389E+06    -13.7807E+06    -6.31593E+06    -45.7493E-03     91.5220E-03    -45.7727E-03     11.2033E-03    -45.7345E-03     91.3489E-03    -45.7607E-03     11.1102E-03
            1091     1.71943E-03     105.998E-03    -14.0464E+06    -45.9576E+06    -15.3446E+06    -10.3147E+06    -45.4882E-03     91.1550E-03    -45.6669E-03     20.6812E-03    -45.4717E-03     90.9695E-03    -45.6566E-03     20.5266E-03
            1092     2.57953E-03     106.017E-03    -15.4983E+06    -50.9493E+06    -17.2770E+06    -13.9796E+06    -45.1058E-03     90.5946E-03    -45.4888E-03     30.8254E-03    -45.0888E-03     90.3912E-03    -45.4788E-03     30.6127E-03
            1093     3.44030E-03     106.044E-03    -16.9667E+06    -57.1434E+06    -19.6753E+06    -16.3619E+06    -44.6475E-03     89.9019E-03    -45.2544E-03     41.2425E-03    -44.6287E-03     89.6765E-03    -45.2453E-03     40.9877E-03
            1094     4.30149E-03     106.078E-03    -19.1115E+06    -62.7663E+06    -21.7739E+06    -17.0153E+06    -44.1488E-03     89.1255E-03    -44.9767E-03     51.9555E-03    -44.1344E-03     88.8829E-03    -44.9668E-03     51.6798E-03
            1095     5.16362E-03     106.121E-03    -22.0609E+06    -67.3802E+06    -22.9975E+06    -16.4544E+06    -43.7077E-03     88.3799E-03    -44.6723E-03     63.0135E-03    -43.7064E-03     88.1273E-03    -44.6576E-03     62.7299E-03
            1096     6.02609E-03     106.172E-03    -25.4373E+06    -71.6753E+06    -22.6305E+06    -15.6828E+06    -43.5377E-03     87.9098E-03    -44.3721E-03     74.4838E-03    -43.5580E-03     87.6505E-03    -44.3445E-03     74.1900E-03
            1097     6.88926E-03     106.232E-03    -29.4877E+06    -74.1718E+06    -19.5913E+06    -14.5986E+06    -43.8346E-03     87.9530E-03    -44.1184E-03     86.3601E-03    -43.8927E-03     87.6994E-03    -44.0660E-03     86.0507E-03
            1098     7.75200E-03     106.302E-03    -31.9078E+06    -73.4444E+06    -15.3964E+06    -13.9399E+06    -44.7416E-03     88.6787E-03    -43.9371E-03     98.7262E-03    -44.8460E-03     88.4533E-03    -43.8613E-03     98.3815E-03
            1099     8.61452E-03     106.383E-03    -32.6209E+06    -70.8860E+06    -11.6355E+06    -15.0531E+06    -46.3475E-03     90.2032E-03    -43.8557E-03     111.465E-03    -46.5089E-03     90.0306E-03    -43.7638E-03     111.040E-03
            1100     9.47571E-03     106.474E-03    -32.9010E+06    -73.1010E+06    -9.90689E+06    -15.5953E+06    -48.9797E-03     92.8961E-03    -43.9163E-03     124.674E-03    -49.2160E-03     92.7846E-03    -43.8122E-03     124.142E-03
            1101     10.3349E-03     106.579E-03    -30.4115E+06    -68.3617E+06    -7.37313E+06    -15.6676E+06    -52.6088E-03     96.7602E-03    -44.1514E-03     138.227E-03    -52.9638E-03     96.7860E-03    -44.0451E-03     137.546E-03
            1102     11.1912E-03     106.697E-03    -27.3427E+06    -67.9165E+06    -8.24194E+06    -17.8579E+06    -56.7684E-03     101.340E-03    -44.5714E-03     151.287E-03    -57.2992E-03     101.557E-03    -44.4745E-03     150.367E-03
            1103     12.0457E-03     106.828E-03    -25.8150E+06    -63.3652E+06    -9.29236E+06    -17.8123E+06    -62.1671E-03     107.364E-03    -45.1970E-03     165.980E-03    -63.0252E-03     107.933E-03    -45.1141E-03     164.743E-03
            1104     12.8940E-03     106.978E-03    -24.7415E+06    -59.4236E+06    -15.3540E+06    -18.4790E+06    -69.1282E-03     115.169E-03    -46.0406E-03     186.420E-03    -70.6538E-03     116.441E-03    -45.9954E-03     184.645E-03
            1105     13.7385E-03     107.154E-03    -21.7295E+06    -17.7617E+06    -12.1057E+06    -18.8648E+06    -77.5079E-03     124.596E-03    -47.0878E-03     228.249E-03    -80.7931E-03     127.777E-03    -47.0910E-03     225.582E-03
            1106     14.5771E-03     107.397E-03    -18.1387E+06     56.6963E+06    -8.83514E+06    -15.0800E+06    -88.9143E-03     137.120E-03    -48.2053E-03     312.575E-03    -98.1360E-03     146.505E-03    -48.3054E-03     308.412E-03
            1107     15.4163E-03     107.762E-03    -12.7054E+06     129.666E+06     42.8741E+06    -8.25093E+06    -97.1371E-03     146.725E-03    -49.5874E-03     405.624E-03    -120.335E-03     170.214E-03    -49.5427E-03     402.520E-03
            1108     16.2529E-03     108.223E-03    -6.65276E+06     168.735E+06     110.446E+06    -2.77940E+06    -87.1927E-03     138.276E-03    -51.0831E-03     295.117E-03    -106.826E-03     158.164E-03    -50.7659E-03     297.900E-03
            1109     861.957E-06     107.023E-03    -10.9924E+06    -29.9915E+06    -11.1055E+06    -5.67044E+06    -42.9637E-03     85.9343E-03    -42.9706E-03     11.3736E-03    -42.9598E-03     85.8165E-03    -42.9667E-03     11.2927E-03
            1110     1.72421E-03     107.034E-03    -12.4638E+06    -35.8041E+06    -13.6234E+06    -9.21225E+06    -42.6597E-03     85.5271E-03    -42.8674E-03     21.0447E-03    -42.6520E-03     85.3868E-03    -42.8655E-03     20.9115E-03
            1111     2.58688E-03     107.052E-03    -15.0035E+06    -42.0584E+06    -17.9895E+06    -12.0871E+06    -42.2456E-03     84.9117E-03    -42.6661E-03     31.4020E-03    -42.2368E-03     84.7517E-03    -42.6733E-03     31.2249E-03
            1112     3.45000E-03     107.078E-03    -19.0195E+06    -51.1628E+06    -22.9903E+06    -13.7818E+06    -41.7388E-03     84.1484E-03    -42.4096E-03     42.0813E-03    -41.7319E-03     83.9583E-03    -42.4228E-03     41.8751E-03
            1113     4.31391E-03     107.112E-03    -24.1950E+06    -60.4148E+06    -28.0292E+06    -13.0272E+06    -41.2298E-03     83.3405E-03    -42.1107E-03     53.0748E-03    -41.2313E-03     83.1222E-03    -42.1281E-03     52.8702E-03
            1114     5.17832E-03     107.154E-03    -30.2589E+06    -65.5237E+06    -30.8870E+06    -11.4175E+06    -40.9051E-03     82.7056E-03    -41.8005E-03     64.5231E-03    -40.9305E-03     82.4798E-03    -41.8160E-03     64.3284E-03
            1115     6.04346E-03     107.204E-03    -36.2285E+06    -70.4651E+06    -28.3194E+06    -10.0630E+06    -40.9932E-03     82.5328E-03    -41.5396E-03     76.4458E-03    -41.0534E-03     82.2958E-03    -41.5265E-03     76.2522E-03
            1116     6.90845E-03     107.264E-03    -39.6031E+06    -72.2534E+06    -22.8355E+06    -9.85112E+06    -41.6563E-03     83.0063E-03    -41.3500E-03     88.8697E-03    -41.7533E-03     82.7719E-03    -41.3019E-03     88.6523E-03
            1117     7.77324E-03     107.335E-03    -40.3699E+06    -69.8960E+06    -17.5570E+06    -11.7239E+06    -43.0029E-03     84.2538E-03    -41.2509E-03     101.873E-03    -43.1401E-03     84.0501E-03    -41.1788E-03     101.590E-03
            1118     8.63699E-03     107.417E-03    -40.1164E+06    -67.9732E+06    -13.3903E+06    -12.8183E+06    -45.2429E-03     86.5260E-03    -41.2831E-03     115.304E-03    -45.4313E-03     86.3692E-03    -41.1933E-03     114.942E-03
            1119     9.49914E-03     107.512E-03    -38.5190E+06     -69.011E+06    -10.8940E+06    -15.1716E+06    -48.5197E-03     90.0039E-03    -41.4842E-03     129.599E-03    -48.7774E-03     89.9114E-03    -41.3828E-03     129.104E-03
            1120     10.3585E-03     107.620E-03    -35.2356E+06    -64.4712E+06    -9.85866E+06    -19.0724E+06    -52.5896E-03     94.4543E-03    -41.8646E-03     144.075E-03    -52.9614E-03     94.5008E-03    -41.7693E-03     143.379E-03
            1121     11.2155E-03     107.743E-03    -31.9678E+06    -66.1942E+06    -10.0137E+06    -19.4148E+06    -57.8357E-03     100.305E-03    -42.4694E-03     157.855E-03    -58.3921E-03     100.543E-03    -42.3772E-03     156.925E-03
            1122     12.0671E-03     107.879E-03    -28.7556E+06    -61.4797E+06    -9.82986E+06    -19.6924E+06    -64.3044E-03     107.623E-03    -43.3182E-03     173.357E-03    -65.2025E-03     108.230E-03    -43.2366E-03     172.075E-03
            1123     12.9156E-03     108.038E-03    -24.2074E+06    -55.1576E+06    -13.1745E+06    -22.0987E+06    -71.6762E-03     116.072E-03    -44.3959E-03     194.691E-03    -73.2574E-03     117.411E-03    -44.3467E-03     192.818E-03
            1124     13.7566E-03     108.222E-03    -19.5607E+06    -17.2098E+06    -7.58538E+06    -22.8183E+06    -81.6568E-03     127.360E-03    -45.7034E-03     237.931E-03    -85.1022E-03     130.698E-03    -45.6880E-03     235.017E-03
            1125     14.5952E-03     108.473E-03    -14.3878E+06     49.0628E+06    -6.24553E+06    -17.6294E+06    -94.2269E-03     141.334E-03    -47.1076E-03     320.339E-03    -103.662E-03     150.912E-03    -47.1891E-03     315.731E-03
            1126     15.4292E-03     108.841E-03    -10.3300E+06     120.992E+06     43.2164E+06    -10.1021E+06    -102.544E-03     151.326E-03    -48.7824E-03     409.855E-03    -126.138E-03     175.190E-03    -48.7268E-03     405.980E-03
            1127     16.2636E-03     109.306E-03    -4.33983E+06     162.947E+06     108.765E+06    -3.72624E+06    -93.6343E-03     144.219E-03    -50.5844E-03     295.818E-03    -113.491E-03     164.324E-03    -50.2705E-03     297.667E-03
            1128     864.831E-06     108.053E-03    -13.1891E+06     -19.767E+06    -13.0961E+06    -3.88833E+06    -39.7356E-03     79.4818E-03    -39.7461E-03     11.4550E-03    -39.7546E-03     79.4209E-03    -39.7638E-03     11.4006E-03
            1129     1.72979E-03     108.064E-03    -16.0607E+06    -27.4848E+06    -17.5014E+06    -6.84596E+06    -39.4300E-03     79.0677E-03    -39.6377E-03     21.2555E-03    -39.4463E-03     78.9792E-03    -39.6621E-03     21.1594E-03
            1130     2.59519E-03     108.081E-03    -20.9003E+06    -36.1107E+06    -24.7042E+06    -8.20497E+06    -39.0049E-03     78.4332E-03    -39.4283E-03     31.7298E-03    -39.0233E-03     78.3199E-03    -39.4691E-03     31.6126E-03
            1131     3.46120E-03     108.107E-03    -28.2663E+06    -48.4402E+06    -31.7725E+06    -7.38418E+06    -38.5183E-03     77.6913E-03    -39.1730E-03     42.5699E-03    -38.5466E-03     77.5386E-03    -39.2207E-03     42.4597E-03
            1132     4.32778E-03     108.139E-03    -36.5470E+06    -59.8259E+06    -36.4784E+06    -5.99449E+06    -38.1630E-03     77.0655E-03    -38.9024E-03     53.8302E-03    -38.2114E-03     76.8767E-03    -38.9451E-03     53.7331E-03
            1133     5.19499E-03     108.180E-03    -43.0038E+06    -65.1848E+06    -36.2152E+06    -4.65927E+06    -38.1475E-03     76.8070E-03    -38.6595E-03     65.6230E-03    -38.2242E-03     76.6040E-03    -38.6837E-03     65.5352E-03
            1134     6.06213E-03     108.230E-03    -46.2746E+06    -69.2689E+06    -30.9872E+06    -4.48286E+06    -38.6228E-03     77.1128E-03    -38.4900E-03     77.9827E-03    -38.7243E-03     76.8934E-03    -38.4774E-03     77.8832E-03
            1135     6.92914E-03     108.291E-03    -46.6629E+06    -67.6351E+06    -24.9222E+06    -7.23903E+06    -39.6943E-03     78.0953E-03    -38.4010E-03     90.9926E-03    -39.8217E-03     77.8888E-03    -38.3599E-03     90.8337E-03
            1136     7.79543E-03     108.363E-03    -45.6205E+06    -66.2976E+06    -18.9566E+06    -9.63991E+06    -41.5695E-03     80.0024E-03    -38.4329E-03     104.636E-03    -41.7261E-03     79.8164E-03    -38.3654E-03     104.407E-03
            1137     8.66034E-03     108.448E-03    -43.1399E+06    -64.0025E+06    -13.7363E+06    -12.2734E+06    -44.3578E-03     82.9732E-03    -38.6154E-03     119.014E-03    -44.5557E-03     82.8304E-03    -38.5287E-03     118.687E-03
            1138     9.52291E-03     108.545E-03    -38.5831E+06    -61.5583E+06    -10.2486E+06    -17.1100E+06    -48.0510E-03     87.0194E-03    -38.9684E-03     134.410E-03    -48.3096E-03     86.9522E-03    -38.8744E-03     133.920E-03
            1139     10.3834E-03     108.659E-03    -35.3655E+06    -60.3193E+06    -9.66356E+06    -19.8376E+06    -52.7921E-03     92.3082E-03    -39.5161E-03     149.807E-03    -53.1634E-03     92.3681E-03    -39.4256E-03     149.127E-03
            1140     11.2397E-03     108.786E-03    -32.4472E+06    -63.8920E+06    -9.74817E+06    -21.5261E+06    -58.9750E-03     99.2865E-03    -40.3115E-03     165.554E-03    -59.5415E-03     99.5399E-03    -40.2205E-03     164.608E-03
            1141     12.0913E-03     108.933E-03    -27.3347E+06    -56.8380E+06    -9.56522E+06    -24.3284E+06    -66.1269E-03     107.484E-03    -41.3568E-03     182.838E-03    -67.0540E-03     108.140E-03    -41.2825E-03     181.483E-03
            1142     12.9364E-03     109.096E-03    -21.5573E+06    -52.3268E+06    -11.7968E+06    -26.4636E+06    -74.5176E-03     117.174E-03    -42.6568E-03     205.434E-03    -76.1718E-03     118.602E-03    -42.6087E-03     203.430E-03
            1143     13.7801E-03     109.292E-03    -17.6769E+06    -16.1211E+06    -4.83601E+06    -25.7348E+06    -85.8291E-03     130.050E-03    -44.2214E-03     248.436E-03    -89.4290E-03     133.547E-03    -44.1965E-03     245.288E-03
            1144     14.6127E-03     109.554E-03    -15.6726E+06     40.9123E+06    -6.46449E+06    -21.9674E+06    -99.1653E-03     145.076E-03    -45.9103E-03     326.104E-03    -108.712E-03     154.732E-03    -45.9792E-03     321.059E-03
            1145     15.4443E-03     109.924E-03    -12.2059E+06     109.183E+06     39.1638E+06    -12.8272E+06    -108.699E-03     156.585E-03    -47.8861E-03     413.968E-03    -132.577E-03     180.696E-03    -47.8309E-03     409.065E-03
            1146     16.2693E-03     110.397E-03    -8.01538E+06     157.024E+06     105.028E+06    -4.60918E+06    -101.347E-03     151.390E-03    -50.0433E-03     298.723E-03    -121.474E-03     171.743E-03    -49.7342E-03     299.354E-03
            1147     867.816E-06     109.076E-03    -21.9302E+06    -13.1820E+06    -23.3274E+06    -2.53809E+06    -36.1809E-03     72.3561E-03    -36.1751E-03     11.4069E-03    -36.2382E-03     72.3554E-03    -36.2409E-03     11.3727E-03
            1148     1.73598E-03     109.086E-03    -25.9523E+06    -22.9188E+06    -28.8552E+06    -2.92935E+06    -35.8834E-03     71.9564E-03    -36.0729E-03     21.1923E-03    -35.9389E-03     71.9210E-03    -36.1464E-03     21.1519E-03
            1149     2.60443E-03     109.104E-03    -33.4173E+06    -35.8135E+06    -35.9990E+06    -1.11389E+06    -35.5164E-03     71.4043E-03    -35.8879E-03     31.7060E-03    -35.5804E-03     71.3259E-03    -35.9676E-03     31.6882E-03
            1150     3.47342E-03     109.128E-03    -41.7910E+06    -49.5411E+06    -40.9275E+06     1.42054E+06    -35.2293E-03     70.9160E-03    -35.6868E-03     42.6462E-03    -35.3084E-03     70.7887E-03    -35.7590E-03     42.6600E-03
            1151     4.34284E-03     109.160E-03    -48.3230E+06    -59.6521E+06    -40.1912E+06     2.25362E+06    -35.2297E-03     70.7476E-03    -35.5179E-03     54.1423E-03    -35.3288E-03     70.5792E-03    -35.5623E-03     54.1642E-03
            1152     5.21219E-03     109.201E-03    -51.8947E+06    -64.5122E+06    -36.1385E+06     1.24638E+06    -35.6273E-03     71.0311E-03    -35.4038E-03     66.2346E-03    -35.7455E-03     70.8402E-03    -35.4157E-03     66.2374E-03
            1153     6.08147E-03     109.252E-03    -51.7346E+06    -65.0970E+06    -31.5897E+06    -2.24099E+06    -36.4912E-03     71.8474E-03    -35.3562E-03     79.0202E-03    -36.6197E-03     71.6522E-03    -35.3447E-03     78.9663E-03
            1154     6.95021E-03     109.313E-03    -49.3315E+06    -62.3037E+06    -25.1426E+06    -6.10839E+06    -38.0094E-03     73.4207E-03    -35.4114E-03     92.6242E-03    -38.1504E-03     73.2380E-03    -35.3752E-03     92.4990E-03
            1155     7.81777E-03     109.387E-03    -45.8944E+06    -62.5356E+06    -18.9123E+06    -9.42905E+06    -40.3246E-03     75.9250E-03    -35.6004E-03     107.116E-03    -40.4792E-03     75.7493E-03    -35.5378E-03     106.911E-03
            1156     8.68351E-03     109.474E-03    -41.0187E+06    -56.2317E+06    -13.1363E+06    -14.1648E+06    -43.4386E-03     79.3703E-03    -35.9317E-03     122.586E-03    -43.6273E-03     79.2517E-03    -35.8564E-03     122.260E-03
            1157     9.54745E-03     109.576E-03    -37.5248E+06    -55.3299E+06    -9.61404E+06    -18.3644E+06    -47.5948E-03     84.0363E-03    -36.4415E-03     139.125E-03    -47.8471E-03     83.9870E-03    -36.3549E-03     138.646E-03
            1158     10.4078E-03     109.694E-03    -34.3158E+06    -57.3461E+06    -8.48884E+06    -20.3778E+06    -53.0419E-03     90.2016E-03    -37.1596E-03     156.112E-03    -53.4066E-03     90.2658E-03    -37.0691E-03     155.448E-03
            1159     11.2641E-03     109.830E-03    -29.7352E+06    -56.4530E+06    -7.57311E+06    -24.8266E+06    -59.5935E-03     97.7089E-03    -38.1154E-03     173.700E-03    -60.1617E-03     97.9937E-03    -38.0283E-03     172.730E-03
            1160     12.1160E-03     109.983E-03    -24.7922E+06    -52.0580E+06    -8.34965E+06    -29.6290E+06    -67.3117E-03     106.630E-03    -39.3186E-03     192.159E-03    -68.2503E-03     107.321E-03    -39.2489E-03     190.738E-03
            1161     12.9639E-03     110.157E-03    -21.2235E+06    -51.6334E+06    -10.7184E+06    -29.4020E+06    -77.8145E-03     118.646E-03    -40.8315E-03     216.984E-03    -79.5596E-03     120.166E-03    -40.7795E-03     214.846E-03
            1162     13.7979E-03     110.364E-03    -18.4151E+06    -12.7478E+06    -3.12161E+06    -29.8214E+06    -90.6677E-03     133.337E-03    -42.6691E-03     260.318E-03    -94.4657E-03     137.036E-03    -42.6395E-03     256.876E-03
            1163     14.6310E-03     110.636E-03    -13.6226E+06     30.8895E+06    -4.95365E+06    -25.0090E+06    -104.644E-03     149.311E-03    -44.6674E-03     334.875E-03    -114.334E-03     159.079E-03    -44.7173E-03     329.315E-03
            1164     15.4574E-03     111.013E-03    -9.55404E+06     95.6081E+06     39.8386E+06    -12.3612E+06    -115.081E-03     162.021E-03    -46.9401E-03     421.102E-03    -139.062E-03     186.194E-03    -46.8657E-03     415.160E-03
            1165     16.2837E-03     111.495E-03    -4.69176E+06     152.417E+06     105.975E+06    -3.93408E+06    -110.276E-03     159.722E-03    -49.4460E-03     306.395E-03    -130.668E-03     180.334E-03    -49.1303E-03     305.817E-03
            1166     871.187E-06     110.092E-03    -35.2284E+06    -10.7258E+06    -35.8489E+06    -259.260E+03    -32.4649E-03     64.9029E-03    -32.4380E-03     11.1954E-03    -32.5739E-03     64.9518E-03    -32.5506E-03     11.1923E-03
            1167     1.74239E-03     110.102E-03    -40.9736E+06    -25.3030E+06    -42.6388E+06     2.57271E+06    -32.2228E-03     64.5903E-03    -32.3675E-03     20.7869E-03    -32.3296E-03     64.5844E-03    -32.4846E-03     20.8210E-03
            1168     2.61415E-03     110.118E-03    -47.5340E+06    -41.4238E+06    -45.7656E+06     7.24301E+06    -32.0672E-03     64.3237E-03    -32.2565E-03     31.2265E-03    -32.1786E-03     64.2511E-03    -32.3564E-03     31.3217E-03
            1169     3.48599E-03     110.142E-03    -52.6749E+06    -52.0946E+06    -44.2933E+06     9.35968E+06    -32.1567E-03     64.3324E-03    -32.1757E-03     42.2580E-03    -32.2802E-03     64.2116E-03    -32.2453E-03     42.3810E-03
            1170     4.35779E-03     110.174E-03    -55.2376E+06    -59.7829E+06    -40.2845E+06     8.44364E+06    -32.5808E-03     64.7319E-03    -32.1511E-03     53.9617E-03    -32.7119E-03     64.5708E-03    -32.1858E-03     54.0717E-03
            1171     5.22935E-03     110.216E-03    -54.4576E+06    -59.8891E+06    -35.4063E+06     4.10629E+06    -33.3595E-03     65.5428E-03    -32.1833E-03     66.3716E-03    -33.4951E-03     65.3746E-03    -32.1945E-03     66.4212E-03
            1172     6.10037E-03     110.267E-03    -51.4020E+06    -58.4832E+06    -29.9764E+06    -2.14326E+06    -34.6305E-03     66.9264E-03    -32.2959E-03     79.6092E-03    -34.7649E-03     66.7572E-03    -32.2864E-03     79.5685E-03
            1173     6.97050E-03     110.331E-03    -47.9773E+06    -58.4262E+06    -24.3066E+06    -6.03678E+06    -36.5076E-03     69.0220E-03    -32.5143E-03     93.8739E-03    -36.6427E-03     68.8495E-03    -32.4816E-03     93.7646E-03
            1174     7.83930E-03     110.407E-03    -43.9895E+06    -54.6542E+06    -18.7697E+06    -11.1296E+06    -39.0421E-03     71.8896E-03    -32.8476E-03     109.216E-03    -39.1904E-03     71.7420E-03    -32.7984E-03     109.009E-03
            1175     8.70654E-03     110.497E-03    -40.0805E+06    -49.5514E+06    -13.1597E+06    -16.1997E+06    -42.4536E-03     75.7761E-03    -33.3225E-03     125.756E-03    -42.6365E-03     75.6789E-03    -33.2583E-03     125.428E-03
            1176     9.57099E-03     110.603E-03    -36.5343E+06    -50.6890E+06    -8.93255E+06    -18.4583E+06    -47.0458E-03     81.0224E-03    -33.9766E-03     143.673E-03    -47.2885E-03     80.9814E-03    -33.8948E-03     143.219E-03
            1177     10.4323E-03     110.728E-03    -33.1154E+06    -51.0795E+06    -6.95667E+06    -22.4283E+06    -52.8751E-03     87.7062E-03    -34.8311E-03     162.514E-03    -53.2332E-03     87.7860E-03    -34.7438E-03     161.854E-03
            1178     11.2894E-03     110.870E-03    -29.3401E+06    -46.3751E+06    -4.73666E+06    -28.4298E+06    -59.9864E-03     95.9102E-03    -35.9238E-03     181.594E-03    -60.5664E-03     96.2360E-03    -35.8377E-03     180.602E-03
            1179     12.1415E-03     111.032E-03    -26.3522E+06    -48.2695E+06    -6.75682E+06    -31.8584E+06    -69.0121E-03     106.308E-03    -37.2963E-03     201.617E-03    -69.9875E-03     107.040E-03    -37.2219E-03     200.155E-03
            1180     12.9848E-03     111.216E-03    -24.0343E+06    -50.6975E+06    -9.26595E+06    -33.3328E+06    -80.5662E-03     119.576E-03    -39.0093E-03     229.192E-03    -82.3965E-03     121.170E-03    -38.9473E-03     226.940E-03
            1181     13.8245E-03     111.441E-03    -20.0093E+06    -6.62685E+06    -489.545E+03    -34.1046E+06    -94.7373E-03     135.798E-03    -41.0611E-03     273.209E-03    -98.7072E-03     139.678E-03    -41.0249E-03     269.506E-03
            1182     14.6514E-03     111.721E-03    -18.2514E+06     16.5294E+06    -5.08542E+06    -29.6601E+06    -110.790E-03     154.149E-03    -43.3585E-03     344.200E-03    -120.577E-03     163.947E-03    -43.3814E-03     338.019E-03
            1183     15.4758E-03     112.110E-03    -13.8929E+06     76.8672E+06     34.5659E+06    -17.1391E+06    -122.542E-03     168.498E-03    -45.9559E-03     425.950E-03    -146.235E-03     192.317E-03    -45.8744E-03     418.577E-03
            1184     16.2931E-03     112.594E-03    -8.90523E+06     145.089E+06     99.2810E+06    -6.97320E+06    -119.348E-03     168.183E-03    -48.8343E-03     315.703E-03    -139.873E-03     188.907E-03    -48.5354E-03     313.605E-03
            1185     874.271E-06     111.100E-03    -53.5003E+06    -19.5735E+06    -48.5643E+06     9.66879E+06    -28.7883E-03     57.5344E-03    -28.7461E-03     10.7747E-03    -28.9573E-03     57.5840E-03    -28.8829E-03     10.9009E-03
            1186     1.74894E-03     111.110E-03    -62.0434E+06    -33.2625E+06    -54.1122E+06     12.4988E+06    -28.7840E-03     57.5515E-03    -28.7675E-03     20.1073E-03    -28.9676E-03     57.5528E-03    -28.8999E-03     20.2714E-03
            1187     2.62336E-03     111.126E-03    -65.4443E+06    -47.5198E+06    -54.1535E+06     12.8967E+06    -28.9802E-03     57.7750E-03    -28.7948E-03     30.4191E-03    -29.1596E-03     57.7097E-03    -28.9018E-03     30.5900E-03
            1188     3.49782E-03     111.150E-03    -62.7874E+06    -54.6979E+06    -49.4838E+06     11.9237E+06    -29.4357E-03     58.3007E-03    -28.8650E-03     41.4886E-03    -29.5975E-03     58.1883E-03    -28.9420E-03     41.6482E-03
            1189     4.37177E-03     111.183E-03    -57.4675E+06    -58.2262E+06    -43.3212E+06     8.96026E+06    -30.2123E-03     59.2021E-03    -28.9899E-03     53.3547E-03    -30.3509E-03     59.0552E-03    -29.0387E-03     53.4761E-03
            1190     5.24525E-03     111.225E-03    -52.3004E+06    -53.1775E+06    -35.9899E+06     3.49166E+06    -31.3304E-03     60.5077E-03    -29.1773E-03     66.0392E-03    -31.4618E-03     60.3686E-03    -29.2044E-03     66.0873E-03
            1191     6.11795E-03     111.278E-03    -49.1935E+06    -52.2081E+06    -29.5056E+06    -1.80484E+06    -32.9179E-03     62.3693E-03    -29.4514E-03     79.7386E-03    -33.0476E-03     62.2242E-03    -29.4519E-03     79.7108E-03
            1192     6.98945E-03     111.343E-03    -46.1273E+06    -52.7905E+06    -24.2893E+06    -7.07835E+06    -35.0218E-03     64.8381E-03    -29.8163E-03     94.6356E-03    -35.1506E-03     64.6859E-03    -29.7943E-03     94.5248E-03
            1193     7.85965E-03     111.422E-03    -42.2811E+06    -45.4915E+06    -17.8241E+06    -12.6364E+06    -37.7539E-03     68.0364E-03    -30.2825E-03     110.763E-03    -37.9006E-03     67.9230E-03    -30.2443E-03     110.552E-03
            1194     8.72780E-03     111.516E-03    -39.2125E+06    -44.8600E+06    -12.6101E+06    -16.4847E+06    -41.4301E-03     72.3153E-03    -30.8852E-03     128.362E-03    -41.6052E-03     72.2285E-03    -30.8263E-03     128.052E-03
            1195     9.59356E-03     111.627E-03    -35.8734E+06    -44.8442E+06    -8.36784E+06    -20.0304E+06    -46.2778E-03     77.9283E-03    -31.6505E-03     147.727E-03    -46.5114E-03     77.8998E-03    -31.5753E-03     147.282E-03
            1196     10.4558E-03     111.757E-03    -30.7182E+06    -41.6763E+06    -3.73022E+06    -25.4402E+06    -52.4454E-03     85.0609E-03    -32.6155E-03     168.047E-03    -52.7930E-03     85.1627E-03    -32.5292E-03     167.381E-03
            1197     11.3137E-03     111.907E-03    -26.4632E+06    -38.5720E+06    -611.337E+03    -29.6021E+06    -60.3518E-03     94.1801E-03    -33.8283E-03     188.953E-03    -60.9218E-03     94.5220E-03    -33.7371E-03     187.974E-03
            1198     12.1652E-03     112.079E-03    -24.5399E+06    -44.0217E+06    -2.52843E+06    -31.7205E+06    -70.5687E-03     105.920E-03    -35.3513E-03     211.902E-03    -71.5602E-03     106.677E-03    -35.2645E-03     210.441E-03
            1199     13.0102E-03     112.278E-03    -21.6402E+06    -42.7316E+06    -3.41303E+06    -35.2454E+06    -83.2230E-03     120.461E-03    -37.2379E-03     241.527E-03    -85.1103E-03     122.132E-03    -37.1616E-03     239.195E-03
            1200     13.8442E-03     112.512E-03    -20.1397E+06    -6.85648E+06     1.46579E+06    -35.9302E+06    -99.0968E-03     138.591E-03    -39.4938E-03     285.975E-03    -103.174E-03     142.571E-03    -39.4473E-03     282.036E-03
            1201     14.6719E-03     112.815E-03    -20.2963E+06     7.91561E+06    -447.225E+03    -29.2675E+06    -117.231E-03     159.331E-03    -42.1000E-03     353.082E-03    -127.021E-03     169.082E-03    -42.0843E-03     346.345E-03
            1202     15.4877E-03     113.206E-03    -17.0343E+06     62.9478E+06     33.8181E+06    -23.5126E+06    -131.227E-03     176.276E-03    -45.0490E-03     431.609E-03    -154.709E-03     199.826E-03    -44.9464E-03     422.417E-03
            1203     16.3008E-03     113.705E-03    -7.12152E+06     125.202E+06     92.9592E+06    -12.7528E+06    -128.313E-03     176.614E-03    -48.3011E-03     328.355E-03    -149.162E-03     197.617E-03    -48.0075E-03     324.389E-03
            1204     877.641E-06     112.101E-03    -75.5554E+06    -43.6921E+06    -72.4200E+06     15.6409E+06    -25.5026E-03     50.9532E-03    -25.4506E-03     10.1321E-03    -25.7122E-03     50.9490E-03    -25.6398E-03     10.3358E-03
            1205     1.75467E-03     112.111E-03    -70.3966E+06    -43.6090E+06    -59.9129E+06     19.4037E+06    -25.8295E-03     51.4133E-03    -25.5838E-03     19.2787E-03    -26.0312E-03     51.3834E-03    -25.7181E-03     19.5327E-03
            1206     2.63158E-03     112.127E-03    -67.0472E+06    -49.9725E+06    -53.9504E+06     16.3308E+06    -26.4064E-03     52.1668E-03    -25.7604E-03     29.5736E-03    -26.5901E-03     52.0910E-03    -25.8605E-03     29.7901E-03
            1207     3.50787E-03     112.152E-03    -64.6327E+06    -54.5506E+06    -51.8880E+06     11.2018E+06    -27.1875E-03     53.1604E-03    -25.9729E-03     40.6304E-03    -27.3547E-03     53.0546E-03    -26.0595E-03     40.7824E-03
            1208     4.38393E-03     112.186E-03    -60.0452E+06    -53.4973E+06    -47.3888E+06     5.05156E+06    -28.2011E-03     54.4380E-03    -26.2369E-03     52.4505E-03    -28.3527E-03     54.3236E-03    -26.3092E-03     52.5237E-03
            1209     5.25907E-03     112.229E-03    -53.9557E+06    -48.2280E+06    -40.3305E+06     66.8858E+03    -29.5189E-03     56.0784E-03    -26.5595E-03     65.2231E-03    -29.6580E-03     55.9714E-03    -26.6130E-03     65.2305E-03
            1210     6.13325E-03     112.284E-03    -47.8518E+06    -47.2349E+06    -32.9366E+06    -3.42174E+06    -31.2718E-03     58.2273E-03    -26.9555E-03     79.2735E-03    -31.3943E-03     58.1075E-03    -26.9823E-03     79.2310E-03
            1211     7.00625E-03     112.352E-03    -42.8440E+06    -44.3071E+06    -24.6822E+06    -8.82126E+06    -33.5552E-03     60.9919E-03    -27.4367E-03     94.6626E-03    -33.6749E-03     60.8736E-03    -27.4337E-03     94.5386E-03
            1212     7.87764E-03     112.433E-03    -38.9826E+06    -39.1682E+06    -16.5540E+06    -13.5621E+06    -36.4992E-03     64.5154E-03    -28.0162E-03     111.509E-03    -36.6332E-03     64.4199E-03    -27.9856E-03     111.300E-03
            1213     8.74708E-03     112.532E-03    -35.1336E+06    -39.0777E+06    -10.2929E+06    -16.9914E+06    -40.3862E-03     69.1055E-03    -28.7193E-03     130.121E-03    -40.5414E-03     69.0272E-03    -28.6632E-03     129.824E-03
            1214     9.61374E-03     112.647E-03    -30.4689E+06    -36.4891E+06    -4.28048E+06    -22.1055E+06    -45.4251E-03     74.9995E-03    -29.5744E-03     150.698E-03    -45.6328E-03     74.9822E-03    -29.4987E-03     150.255E-03
            1215     10.4770E-03     112.784E-03    -26.6582E+06    -33.0017E+06     940.720E+03    -27.2529E+06    -51.9282E-03     82.5524E-03    -30.6242E-03     172.679E-03    -52.2521E-03     82.6624E-03    -30.5330E-03     172.026E-03
            1216     11.3354E-03     112.942E-03    -24.1998E+06    -34.1481E+06     2.91359E+06    -29.7541E+06    -60.5230E-03     92.4497E-03    -31.9267E-03     196.064E-03    -61.0703E-03     92.7824E-03    -31.8275E-03     195.121E-03
            1217     12.1880E-03     113.125E-03    -21.0026E+06    -37.3718E+06     3.58898E+06    -32.1106E+06    -71.5526E-03     105.111E-03    -33.5582E-03     221.534E-03    -72.5279E-03     105.870E-03    -33.4556E-03     220.096E-03
            1218     13.0317E-03     113.336E-03    -19.0125E+06    -34.5047E+06     2.45879E+06    -36.0741E+06    -86.0313E-03     121.615E-03    -35.5835E-03     253.642E-03    -87.9492E-03     123.339E-03    -35.4936E-03     251.248E-03
            1219     13.8668E-03     113.590E-03    -18.1323E+06    -9.38162E+06     5.18802E+06    -34.4747E+06    -103.773E-03     141.819E-03    -38.0456E-03     299.756E-03    -107.927E-03     145.864E-03    -37.9797E-03     295.627E-03
            1220     14.6884E-03     113.906E-03    -13.0336E+06     2.48142E+06     9.07740E+06    -30.7664E+06    -123.500E-03     164.418E-03    -40.9185E-03     366.297E-03    -133.281E-03     174.140E-03    -40.8578E-03     358.972E-03
            1221     15.5043E-03     114.315E-03    -3.47283E+06     54.5185E+06     41.4047E+06    -21.4488E+06    -140.112E-03     184.270E-03    -44.1580E-03     442.746E-03    -163.584E-03     207.808E-03    -44.0250E-03     431.787E-03
            1222     16.3090E-03     114.821E-03    -2.09837E+06     110.217E+06     92.5680E+06    -8.81765E+06    -138.244E-03     186.023E-03    -47.7789E-03     341.959E-03    -159.674E-03     207.574E-03    -47.4728E-03     335.994E-03
            1223     879.396E-06     113.096E-03    -111.506E+06    -64.6578E+06    -112.035E+06     5.09978E+06    -23.0727E-03     46.0537E-03    -22.9810E-03     9.45206E-03    -23.3740E-03     46.0544E-03    -23.2857E-03     9.51928E-03
            1224     1.75917E-03     113.106E-03    -94.1400E+06    -53.6242E+06    -92.1151E+06     9.02873E+06    -23.4785E-03     46.6163E-03    -23.1377E-03     18.0765E-03    -23.7377E-03     46.6177E-03    -23.3840E-03     18.1960E-03
            1225     2.63807E-03     113.124E-03    -77.1709E+06    -51.4968E+06    -73.7544E+06     9.38127E+06    -24.2155E-03     47.5940E-03    -23.3785E-03     28.0535E-03    -24.4189E-03     47.5542E-03    -23.5607E-03     28.1797E-03
            1226     3.51643E-03     113.149E-03    -64.3262E+06    -51.4963E+06    -59.9088E+06     6.11031E+06    -25.2531E-03     48.9423E-03    -23.6891E-03     39.1443E-03    -25.4115E-03     48.8629E-03    -23.8207E-03     39.2304E-03
            1227     4.39346E-03     113.184E-03    -56.3979E+06    -46.9005E+06    -50.6163E+06     493.835E+03    -26.5083E-03     50.5593E-03    -24.0510E-03     51.1305E-03    -26.6463E-03     50.4771E-03    -24.1543E-03     51.1455E-03
            1228     5.27000E-03     113.229E-03    -50.9351E+06    -44.1192E+06    -43.0701E+06    -4.31778E+06    -28.0232E-03     52.4960E-03    -24.4728E-03     64.0255E-03    -28.1484E-03     52.4085E-03    -24.5503E-03     63.9781E-03
            1229     6.14555E-03     113.287E-03    -45.4611E+06    -42.4419E+06    -35.2422E+06    -8.01342E+06    -29.8981E-03     54.8582E-03    -24.9600E-03     78.1220E-03    -30.0107E-03     54.7608E-03    -25.0088E-03     78.0236E-03
            1230     7.01985E-03     113.356E-03    -39.9075E+06    -36.9983E+06    -25.7022E+06    -11.6636E+06    -32.2407E-03     57.7619E-03    -25.5211E-03     93.7139E-03    -32.3514E-03     57.6740E-03    -25.5381E-03     93.5600E-03
            1231     7.89240E-03     113.442E-03    -34.8624E+06    -33.4572E+06    -15.7793E+06    -15.4935E+06    -35.3138E-03     61.4920E-03    -26.1783E-03     111.087E-03    -35.4301E-03     61.4116E-03    -26.1581E-03     110.865E-03
            1232     8.76290E-03     113.543E-03    -29.6312E+06    -32.8873E+06    -7.06581E+06    -19.2468E+06    -39.3567E-03     66.3108E-03    -26.9541E-03     130.562E-03    -39.4866E-03     66.2395E-03    -26.8988E-03     130.254E-03
            1233     9.63049E-03     113.664E-03    -26.1037E+06    -28.5506E+06     263.493E+03    -22.7808E+06    -44.5070E-03     72.3782E-03    -27.8712E-03     152.227E-03    -44.6917E-03     72.3684E-03    -27.7906E-03     151.804E-03
            1234     10.4948E-03     113.806E-03    -24.9244E+06    -25.8852E+06     5.22021E+06    -26.1966E+06    -51.3361E-03     80.3132E-03    -28.9771E-03     175.959E-03    -51.6388E-03     80.4210E-03    -28.8773E-03     175.360E-03
            1235     11.3545E-03     113.974E-03    -22.3909E+06    -27.9991E+06     7.95441E+06    -30.4818E+06    -60.3798E-03     90.7188E-03    -30.3390E-03     201.609E-03    -60.8928E-03     91.0310E-03    -30.2262E-03     200.710E-03
            1236     12.2071E-03     114.167E-03    -17.5371E+06    -31.0034E+06     9.87903E+06    -35.0396E+06    -72.5526E-03     104.600E-03    -32.0475E-03     229.986E-03    -73.4877E-03     105.336E-03    -31.9277E-03     228.550E-03
            1237     13.0518E-03     114.394E-03    -13.2257E+06    -29.7387E+06     9.99679E+06    -35.8718E+06    -88.3406E-03     122.525E-03    -34.1840E-03     265.128E-03    -90.2146E-03     124.220E-03    -34.0717E-03     262.740E-03
            1238     13.8833E-03     114.666E-03    -10.9229E+06    -13.1511E+06     12.8755E+06    -31.7630E+06    -107.010E-03     143.787E-03    -36.7772E-03     312.968E-03    -111.097E-03     147.755E-03    -36.6779E-03     308.789E-03
            1239     14.7081E-03     114.999E-03    -12.2821E+06     7.39280E+06     19.6055E+06    -31.1649E+06    -129.170E-03     168.988E-03    -39.8182E-03     380.241E-03    -138.882E-03     178.631E-03    -39.7131E-03     372.414E-03
            1240     15.5186E-03     115.427E-03    -17.3472E+06     36.0452E+06     28.8744E+06    -32.5162E+06    -149.012E-03     192.278E-03    -43.2662E-03     453.975E-03    -172.408E-03     215.663E-03    -43.1490E-03     441.046E-03
            1241     16.3201E-03     115.950E-03    -8.51735E+06     79.4380E+06     76.1118E+06    -15.1084E+06    -148.439E-03     195.699E-03    -47.2596E-03     354.537E-03    -170.303E-03     217.600E-03    -46.9819E-03     346.101E-03
            1242     880.810E-06     114.087E-03    -121.323E+06    -64.9645E+06    -120.409E+06    -5.77884E+06    -21.8976E-03     43.6467E-03    -21.7491E-03     8.75371E-03    -22.2354E-03     43.6725E-03    -22.0810E-03     8.67966E-03
            1243     1.76085E-03     114.097E-03    -112.577E+06    -55.7796E+06    -110.273E+06    -7.22101E+06    -22.2386E-03     44.1460E-03    -21.9074E-03     16.5848E-03    -22.5606E-03     44.1901E-03    -22.2146E-03     16.4928E-03
            1244     2.64123E-03     114.116E-03    -98.6365E+06    -51.1451E+06    -96.0404E+06    -7.77622E+06    -22.8337E-03     44.9467E-03    -22.1130E-03     25.6811E-03    -23.1130E-03     44.9728E-03    -22.3761E-03     25.5831E-03
            1245     3.52085E-03     114.143E-03    -82.5612E+06    -47.8977E+06    -83.3164E+06    -9.12353E+06    -23.7119E-03     46.0788E-03    -22.3669E-03     36.0733E-03    -23.9334E-03     46.0787E-03    -22.5943E-03     35.9599E-03
            1246     4.40016E-03     114.180E-03    -67.6935E+06    -41.7414E+06    -72.5619E+06    -10.7700E+06    -24.9469E-03     47.6255E-03    -22.6785E-03     47.8134E-03    -25.1177E-03     47.6181E-03    -22.8827E-03     47.6806E-03
            1247     5.27781E-03     114.227E-03    -55.5863E+06    -39.3815E+06    -56.2276E+06    -13.0428E+06    -26.6169E-03     49.7303E-03    -23.1134E-03     60.9283E-03    -26.7535E-03     49.6928E-03    -23.2568E-03     60.7671E-03
            1248     6.15410E-03     114.286E-03    -45.0901E+06    -37.3825E+06    -38.5846E+06    -15.7809E+06    -28.6942E-03     52.3446E-03    -23.6504E-03     75.3901E-03    -28.8069E-03     52.2765E-03    -23.7238E-03     75.1923E-03
            1249     7.02897E-03     114.358E-03    -36.0246E+06    -33.0083E+06    -25.2160E+06    -17.3865E+06    -31.2199E-03     55.4765E-03    -24.2566E-03     91.2245E-03    -31.3156E-03     55.4004E-03    -24.2826E-03     91.0004E-03
            1250     7.90259E-03     114.446E-03    -29.8700E+06    -28.9385E+06    -13.8637E+06    -17.9441E+06    -34.3943E-03     59.3509E-03    -24.9565E-03     108.856E-03    -34.4900E-03     59.2781E-03    -24.9406E-03     108.610E-03
            1251     8.77372E-03     114.552E-03    -27.2027E+06    -26.4129E+06    -4.27206E+06    -20.3727E+06    -38.3623E-03     64.1315E-03    -25.7692E-03     128.746E-03    -38.4822E-03     64.0738E-03    -25.7129E-03     128.441E-03
            1252     9.64251E-03     114.677E-03    -24.1653E+06    -23.0816E+06     4.14838E+06    -23.2459E+06    -43.6272E-03     70.3450E-03    -26.7177E-03     151.366E-03    -43.7945E-03     70.3329E-03    -26.6285E-03     150.966E-03
            1253     10.5076E-03     114.827E-03    -19.4255E+06    -19.7898E+06     11.6187E+06    -25.4449E+06    -50.6944E-03     78.5485E-03    -27.8541E-03     176.633E-03    -50.9503E-03     78.6322E-03    -27.7392E-03     176.089E-03
            1254     11.3673E-03     115.002E-03    -16.7000E+06    -18.6112E+06     16.4824E+06    -29.6572E+06    -60.1774E-03     89.4275E-03    -29.2501E-03     204.422E-03    -60.6287E-03     89.7068E-03    -29.1165E-03     203.597E-03
            1255     12.2216E-03     115.207E-03    -14.9857E+06    -20.5751E+06     17.8905E+06    -37.2185E+06    -73.1838E-03     104.183E-03    -30.9987E-03     236.361E-03    -74.0503E-03     104.873E-03    -30.8577E-03     234.975E-03
            1256     13.0641E-03     115.451E-03    -11.1286E+06    -31.6180E+06     15.2170E+06    -38.9525E+06    -89.2973E-03     122.471E-03    -33.1739E-03     274.487E-03    -91.0362E-03     124.017E-03    -33.0358E-03     272.159E-03
            1257     13.9002E-03     115.738E-03    -5.08002E+06    -20.0041E+06     18.8435E+06    -31.9797E+06    -109.255E-03     145.058E-03    -35.8036E-03     324.865E-03    -113.133E-03     148.797E-03    -35.6730E-03     320.711E-03
            1258     14.7215E-03     116.093E-03     3.19889E+06     11.6282E+06     32.9997E+06    -24.4461E+06    -134.556E-03     173.499E-03    -38.9429E-03     393.789E-03    -143.884E-03     182.790E-03    -38.7994E-03     385.727E-03
            1259     15.5305E-03     116.543E-03     10.9884E+06     37.8017E+06     48.5244E+06    -11.1765E+06    -157.042E-03     199.612E-03    -42.5703E-03     468.972E-03    -179.734E-03     222.343E-03    -42.3985E-03     455.048E-03
            1260     16.3222E-03     117.083E-03     5.75886E+06     71.2641E+06     86.8586E+06    -1.40372E+06    -161.019E-03     207.874E-03    -46.8548E-03     376.325E-03    -183.223E-03     230.111E-03    -46.5322E-03     365.710E-03
            1261     880.424E-06     115.077E-03    -91.9563E+06    -52.0278E+06    -89.5776E+06    -7.42676E+06    -22.0595E-03     43.9656E-03    -21.9061E-03     7.87246E-03    -22.3140E-03     43.9688E-03    -22.1452E-03     7.77583E-03
            1262     1.76113E-03     115.088E-03    -90.1669E+06    -47.7707E+06    -84.4963E+06    -12.1207E+06    -22.4324E-03     44.5132E-03    -22.0808E-03     14.7776E-03    -22.6916E-03     44.5277E-03    -22.3033E-03     14.6199E-03
            1263     2.64081E-03     115.107E-03    -87.8547E+06    -44.1659E+06    -80.5785E+06    -16.3207E+06    -22.9455E-03     45.2177E-03    -22.2722E-03     22.7701E-03    -23.2042E-03     45.2413E-03    -22.4836E-03     22.5578E-03
            1264     3.52060E-03     115.135E-03    -83.9857E+06    -40.8767E+06    -78.6267E+06    -20.4487E+06    -23.5657E-03     46.0430E-03    -22.4773E-03     31.7645E-03    -23.8127E-03     46.0747E-03    -22.6894E-03     31.4990E-03
            1265     4.39969E-03     115.172E-03    -77.4385E+06    -36.2800E+06    -73.9887E+06    -23.7373E+06    -24.3991E-03     47.1162E-03    -22.7171E-03     42.1278E-03    -24.6266E-03     47.1545E-03    -22.9222E-03     41.8207E-03
            1266     5.27870E-03     115.221E-03    -67.4305E+06    -33.8027E+06    -61.8662E+06    -25.8636E+06    -25.6431E-03     48.6838E-03    -23.0407E-03     54.2868E-03    -25.8413E-03     48.7020E-03    -23.2033E-03     53.9537E-03
            1267     6.15645E-03     115.282E-03    -55.9617E+06    -32.2144E+06    -47.9138E+06    -27.6491E+06    -27.4869E-03     50.9393E-03    -23.4523E-03     68.4706E-03    -27.6499E-03     50.9282E-03    -23.5640E-03     68.1152E-03
            1268     7.03249E-03     115.358E-03    -44.5831E+06    -31.2047E+06    -33.3567E+06    -27.6138E+06    -30.0967E-03     54.0767E-03    -23.9800E-03     84.7475E-03    -30.2262E-03     54.0341E-03    -24.0369E-03     84.3907E-03
            1269     7.90589E-03     115.449E-03    -33.0550E+06    -28.3891E+06    -16.0387E+06    -25.5382E+06    -33.4118E-03     58.0620E-03    -24.6503E-03     103.008E-03    -33.5176E-03     57.9964E-03    -24.6414E-03     102.670E-03
            1270     8.77765E-03     115.558E-03    -23.0077E+06    -23.4560E+06    -458.835E+03    -22.7877E+06    -37.5622E-03     63.0139E-03    -25.4518E-03     123.311E-03    -37.6612E-03     62.9497E-03    -25.3867E-03     122.988E-03
            1271     9.64671E-03     115.688E-03    -18.5860E+06    -18.3741E+06     10.7592E+06    -22.5773E+06    -42.9478E-03     69.3489E-03    -26.4012E-03     146.566E-03    -43.0817E-03     69.3209E-03    -26.2938E-03     146.202E-03
            1272     10.5119E-03     115.844E-03    -17.9495E+06    -14.2542E+06     17.7187E+06    -24.9239E+06    -49.9529E-03     77.4871E-03    -27.5342E-03     172.818E-03    -50.1736E-03     77.5428E-03    -27.3989E-03     172.332E-03
            1273     11.3734E-03     116.026E-03    -16.0474E+06    -8.64226E+06     23.9325E+06    -28.9640E+06    -59.7462E-03     88.6716E-03    -28.9253E-03     203.066E-03    -60.1395E-03     88.9090E-03    -28.7699E-03     202.332E-03
            1274     12.2257E-03     116.245E-03    -15.3058E+06    -7.22569E+06     26.5033E+06    -34.6229E+06    -72.7229E-03     103.381E-03    -30.6577E-03     238.050E-03    -73.4783E-03     103.981E-03    -30.4926E-03     236.836E-03
            1275     13.0729E-03     116.502E-03    -14.8895E+06    -28.3854E+06     21.3065E+06    -41.9104E+06    -88.8330E-03     121.627E-03    -32.7936E-03     278.330E-03    -90.3551E-03     122.936E-03    -32.6243E-03     276.172E-03
            1276     13.9070E-03     116.806E-03    -6.72139E+06    -30.3852E+06     21.6394E+06    -43.0646E+06    -110.594E-03     145.983E-03    -35.3894E-03     332.192E-03    -114.064E-03     149.263E-03    -35.2274E-03     328.102E-03
            1277     14.7304E-03     117.185E-03     136.606E+03    -6.81134E+06     33.6909E+06    -30.4634E+06    -137.252E-03     175.770E-03    -38.5181E-03     404.417E-03    -145.730E-03     184.132E-03    -38.3400E-03     396.466E-03
            1278     15.5388E-03     117.658E-03    -6.57817E+06     18.6024E+06     38.1365E+06    -18.2065E+06    -163.159E-03     205.306E-03    -42.1469E-03     479.779E-03    -184.175E-03     226.262E-03    -41.9736E-03     464.932E-03
            1279     16.3443E-03     118.224E-03    -4.75639E+06     60.8298E+06     78.2374E+06    -1.53167E+06    -170.865E-03     217.468E-03    -46.6029E-03     398.731E-03    -193.253E-03     239.843E-03    -46.2930E-03     385.435E-03
            1280     879.582E-06     116.068E-03    -60.9536E+06    -38.2922E+06    -59.7526E+06    -6.06579E+06    -23.6331E-03     47.1361E-03    -23.5030E-03     6.59978E-03    -23.7960E-03     47.1198E-03    -23.6579E-03     6.51886E-03
            1281     1.75831E-03     116.080E-03    -60.7239E+06    -36.3213E+06    -56.9430E+06    -10.8439E+06    -24.0399E-03     47.7096E-03    -23.6697E-03     12.3337E-03    -24.2090E-03     47.6989E-03    -23.8137E-03     12.1888E-03
            1282     2.63725E-03     116.100E-03    -58.5357E+06    -32.5838E+06    -50.9528E+06    -15.8884E+06    -24.6410E-03     48.5431E-03    -23.9021E-03     18.9502E-03    -24.8139E-03     48.5398E-03    -24.0247E-03     18.7375E-03
            1283     3.51517E-03     116.128E-03    -56.0896E+06    -30.1639E+06    -43.9793E+06    -20.9561E+06    -25.3004E-03     49.4827E-03    -24.1823E-03     26.3426E-03    -25.4756E-03     49.4786E-03    -24.2771E-03     26.0620E-03
            1284     4.39296E-03     116.166E-03    -54.7287E+06    -26.8069E+06    -39.4430E+06    -25.6354E+06    -25.9343E-03     50.3977E-03    -24.4634E-03     34.8639E-03    -26.1151E-03     50.4027E-03    -24.5424E-03     34.5210E-03
            1285     5.27006E-03     116.216E-03    -54.3368E+06    -25.8172E+06    -37.5827E+06    -29.8606E+06    -26.6451E-03     51.3818E-03    -24.7367E-03     44.8941E-03    -26.8289E-03     51.3894E-03    -24.8084E-03     44.4958E-03
            1286     6.14717E-03     116.278E-03    -53.0255E+06    -25.2481E+06    -35.6167E+06    -33.0223E+06    -27.7184E-03     52.7458E-03    -25.0274E-03     56.9734E-03    -27.8999E-03     52.7522E-03    -25.0920E-03     56.5347E-03
            1287     7.02352E-03     116.355E-03    -48.9086E+06    -27.2302E+06    -29.3974E+06    -35.4663E+06    -29.4740E-03     54.8689E-03    -25.3949E-03     71.8229E-03    -29.6413E-03     54.8508E-03    -25.4315E-03     71.3538E-03
            1288     7.89861E-03     116.450E-03    -41.5428E+06    -27.9942E+06    -19.2954E+06    -35.5371E+06    -32.2310E-03     58.1098E-03    -25.8789E-03     89.6200E-03    -32.3764E-03     58.0643E-03    -25.8745E-03     89.1488E-03
            1289     8.77071E-03     116.562E-03    -31.2133E+06    -25.3392E+06    -8.24501E+06    -32.9660E+06    -36.3393E-03     62.8535E-03    -26.5142E-03     110.593E-03    -36.4592E-03     62.7969E-03    -26.4734E-03     110.146E-03
            1290     9.63910E-03     116.697E-03    -20.2455E+06    -20.6390E+06     7.22148E+06    -26.3915E+06    -41.8287E-03     69.1944E-03    -27.3657E-03     134.747E-03    -41.9416E-03     69.1416E-03    -27.2703E-03     134.359E-03
            1291     10.5048E-03     116.857E-03    -13.5475E+06    -8.96389E+06     23.3292E+06    -22.9971E+06    -49.0765E-03     77.5276E-03    -28.4510E-03     162.082E-03    -49.2442E-03     77.5483E-03    -28.3018E-03     161.673E-03
            1292     11.3643E-03     117.049E-03    -11.7701E+06     106.677E+03     31.9321E+06    -26.0122E+06    -58.7687E-03     88.5633E-03    -29.7946E-03     193.898E-03    -59.0675E-03     88.7289E-03    -29.6181E-03     193.304E-03
            1293     12.2199E-03     117.277E-03    -11.0225E+06     1.56821E+06     36.4684E+06    -28.8665E+06    -71.0513E-03     102.513E-03    -31.4616E-03     230.107E-03    -71.6155E-03     102.939E-03    -31.2656E-03     229.162E-03
            1294     13.0647E-03     117.547E-03    -10.3373E+06    -9.45663E+06     37.2414E+06    -37.5058E+06    -87.2251E-03     120.740E-03    -33.5149E-03     272.547E-03    -88.4040E-03     121.743E-03    -33.3000E-03     270.769E-03
            1295     13.9024E-03     117.868E-03    -20.3814E+06    -32.0200E+06     25.3205E+06    -44.0149E+06    -109.810E-03     145.825E-03    -36.0152E-03     329.830E-03    -112.658E-03     148.418E-03    -35.8126E-03     326.215E-03
            1296     14.7248E-03     118.269E-03    -29.3225E+06    -20.4522E+06     30.2093E+06    -46.2184E+06    -138.210E-03     177.342E-03    -39.1321E-03     398.807E-03    -145.469E-03     184.341E-03    -38.9089E-03     391.124E-03
            1297     15.5414E-03     118.759E-03    -38.8750E+06     4.27041E+06     24.2589E+06    -44.9388E+06    -164.851E-03     207.578E-03    -42.7277E-03     474.360E-03    -182.473E-03     225.013E-03    -42.5562E-03     459.741E-03
            1298     16.3155E-03     119.361E-03    -32.6915E+06     20.0047E+06     47.2811E+06    -21.7535E+06    -167.308E-03     214.203E-03    -46.8952E-03     425.932E-03    -189.050E-03     235.777E-03    -46.6404E-03     411.541E-03
            1299     876.378E-06     117.064E-03    -34.2049E+06    -26.9922E+06    -32.9451E+06    -5.26393E+06    -26.9042E-03     53.7164E-03    -26.8123E-03     4.97462E-03    -26.9892E-03     53.6785E-03    -26.8883E-03     4.90132E-03
            1300     1.75311E-03     117.077E-03    -32.8120E+06    -24.6493E+06    -29.4440E+06    -9.82797E+06    -27.3795E-03     54.3642E-03    -26.9847E-03     9.25997E-03    -27.4667E-03     54.3312E-03    -27.0486E-03     9.12294E-03
            1301     2.62866E-03     117.097E-03    -31.7865E+06    -21.5934E+06    -23.0783E+06    -14.4000E+06    -28.0611E-03     55.3263E-03    -27.2652E-03     14.1072E-03    -28.1578E-03     55.2988E-03    -27.3032E-03     13.9056E-03
            1302     3.50395E-03     117.127E-03    -30.6722E+06    -19.5251E+06    -16.7862E+06    -18.2017E+06    -28.8418E-03     56.4516E-03    -27.6098E-03     19.4851E-03    -28.9465E-03     56.4250E-03    -27.6210E-03     19.2282E-03
            1303     4.37822E-03     117.165E-03    -29.6422E+06    -16.9471E+06    -12.3689E+06    -21.6763E+06    -29.6081E-03     57.5862E-03    -27.9781E-03     25.7230E-03    -29.7198E-03     57.5664E-03    -27.9724E-03     25.4149E-03
            1304     5.25221E-03     117.215E-03    -28.7584E+06    -15.8020E+06    -8.19366E+06    -25.2939E+06    -30.2900E-03     58.6444E-03    -28.3544E-03     33.1813E-03    -30.4074E-03     58.6253E-03    -28.3308E-03     32.8210E-03
            1305     6.12539E-03     117.277E-03    -28.7846E+06    -17.0988E+06    -4.39860E+06    -28.7388E+06    -30.9095E-03     59.6329E-03    -28.7234E-03     42.3733E-03    -31.0332E-03     59.6042E-03    -28.6788E-03     41.9648E-03
            1306     6.99832E-03     117.355E-03    -31.1821E+06    -18.9189E+06    -3.73353E+06    -31.6934E+06    -31.6516E-03     60.7223E-03    -29.0706E-03     53.8705E-03    -31.7878E-03     60.6891E-03    -29.0167E-03     53.4228E-03
            1307     7.87101E-03     117.450E-03    -33.8882E+06    -22.3701E+06    -5.72951E+06    -35.4007E+06    -33.0188E-03     62.4457E-03    -29.4269E-03     68.5354E-03    -33.1622E-03     62.4039E-03    -29.3739E-03     68.0411E-03
            1308     8.74282E-03     117.566E-03    -34.1991E+06    -23.5856E+06    -5.51418E+06    -37.5266E+06    -35.6305E-03     65.4984E-03    -29.8679E-03     87.3359E-03    -35.7755E-03     65.4528E-03    -29.8117E-03     86.8157E-03
            1309     9.61269E-03     117.704E-03    -29.5547E+06    -26.7052E+06     697.307E+03    -35.5561E+06    -40.0980E-03     70.5922E-03    -30.4943E-03     110.564E-03    -40.2296E-03     70.5215E-03    -30.4092E-03     110.064E-03
            1310     10.4772E-03     117.871E-03    -20.1247E+06    -12.2176E+06     16.4585E+06    -29.0174E+06    -46.8376E-03     78.2127E-03    -31.3751E-03     138.657E-03    -46.9848E-03     78.1975E-03    -31.2459E-03     138.216E-03
            1311     11.3373E-03     118.068E-03    -13.3399E+06     3.83438E+06     34.7911E+06    -24.1687E+06    -56.1449E-03     88.7197E-03    -32.5749E-03     171.874E-03    -56.3633E-03     88.8044E-03    -32.3871E-03     171.418E-03
            1312     12.1890E-03     118.305E-03    -12.9102E+06     7.41107E+06     46.8414E+06    -24.5415E+06    -68.2230E-03     102.351E-03    -34.1277E-03     208.854E-03    -68.6137E-03     102.587E-03    -33.8855E-03     208.187E-03
            1313     13.0374E-03     118.584E-03    -20.1652E+06     8.86315E+06     50.8872E+06    -28.3585E+06    -84.1707E-03     120.246E-03    -36.0749E-03     251.656E-03    -85.0177E-03     120.906E-03    -35.8041E-03     250.406E-03
            1314     13.8722E-03     118.922E-03    -24.2568E+06    -19.9057E+06     44.1223E+06    -32.1042E+06    -107.832E-03     146.402E-03    -38.5700E-03     306.625E-03    -109.873E-03     148.159E-03    -38.2853E-03     303.824E-03
            1315     14.6975E-03     119.338E-03    -25.2922E+06    -9.39165E+06     43.0663E+06    -33.0271E+06    -137.972E-03     179.721E-03    -41.7492E-03     372.333E-03    -143.333E-03     184.838E-03    -41.4836E-03     365.876E-03
            1316     15.4857E-03     119.854E-03    -21.9419E+06     4.99040E+06     36.4772E+06    -26.6242E+06    -152.410E-03     197.540E-03    -45.1305E-03     447.310E-03    -164.222E-03     209.186E-03    -44.9236E-03     436.720E-03
            1317     16.3204E-03     120.448E-03    -24.9918E+06    -9.14396E+06     34.5028E+06    -29.2204E+06    -144.566E-03     192.751E-03    -48.1844E-03     450.457E-03    -162.359E-03     210.330E-03    -47.9624E-03     439.635E-03
            1318     872.366E-06     118.069E-03    -8.49786E+06    -16.8411E+06    -6.61991E+06    -4.42063E+06    -32.2632E-03     64.3748E-03    -32.1116E-03     3.08674E-03    -32.2735E-03     64.3112E-03    -32.1080E-03     3.02080E-03
            1319     1.74372E-03     118.082E-03    -8.11589E+06    -14.6371E+06    -2.85248E+06    -8.13398E+06    -32.8480E-03     65.2174E-03    -32.3694E-03     5.52485E-03    -32.8659E-03     65.1591E-03    -32.3507E-03     5.40268E-03
            1320     2.61499E-03     118.104E-03    -7.54809E+06    -12.2250E+06     1.40257E+06    -11.3869E+06    -33.6254E-03     66.3484E-03    -32.7229E-03     8.17677E-03    -33.6511E-03     66.2960E-03    -32.6873E-03     8.00296E-03
            1321     3.48509E-03     118.133E-03    -6.87860E+06    -11.1169E+06     6.50119E+06    -14.4742E+06    -34.5417E-03     67.6985E-03    -33.1568E-03     11.1608E-03    -34.5747E-03     67.6447E-03    -33.0982E-03     10.9363E-03
            1322     4.35444E-03     118.174E-03    -6.32426E+06    -8.75938E+06     12.1606E+06    -17.1392E+06    -35.5067E-03     69.1563E-03    -33.6496E-03     14.7290E-03    -35.5508E-03     69.1073E-03    -33.5669E-03     14.4583E-03
            1323     5.22248E-03     118.224E-03    -7.04519E+06    -8.09751E+06     16.0212E+06    -19.1834E+06    -36.3930E-03     70.5658E-03    -34.1728E-03     19.2311E-03    -36.4503E-03     70.5182E-03    -34.0708E-03     18.9221E-03
            1324     6.08986E-03     118.287E-03    -9.46879E+06    -9.53692E+06     17.5308E+06    -20.7977E+06    -37.1113E-03     71.8112E-03    -34.6999E-03     25.0239E-03    -37.1845E-03     71.7608E-03    -34.5847E-03     24.6831E-03
            1325     6.95659E-03     118.363E-03    -11.6259E+06    -11.2100E+06     18.5727E+06    -22.7686E+06    -37.6913E-03     72.9095E-03    -35.2182E-03     32.5631E-03    -37.7787E-03     72.8560E-03    -35.0923E-03     32.1879E-03
            1326     7.82251E-03     118.458E-03    -14.1426E+06    -12.2649E+06     19.8856E+06    -26.1584E+06    -38.2569E-03     73.9865E-03    -35.7296E-03     42.4906E-03    -38.3617E-03     73.9331E-03    -35.5919E-03     42.0664E-03
            1327     8.68816E-03     118.572E-03    -18.2475E+06    -17.2767E+06     18.0942E+06    -29.4957E+06    -39.1998E-03     75.4452E-03    -36.2454E-03     55.7614E-03    -39.3192E-03     75.3788E-03    -36.1034E-03     55.2934E-03
            1328     9.55250E-03     118.712E-03    -22.9430E+06    -22.5499E+06     14.9858E+06    -32.5407E+06    -41.2238E-03     78.0427E-03    -36.8188E-03     73.5623E-03    -41.3574E-03     77.9644E-03    -36.6779E-03     73.0587E-03
            1329     10.4160E-03     118.880E-03    -24.0954E+06    -17.8386E+06     17.7889E+06    -33.7101E+06    -45.0881E-03     82.6296E-03    -37.5415E-03     97.1170E-03    -45.2412E-03     82.5764E-03    -37.3917E-03     96.6030E-03
            1330     11.2748E-03     119.084E-03    -19.7709E+06    -2.63867E+06     35.7637E+06    -26.9205E+06    -51.6905E-03     90.2383E-03    -38.5478E-03     127.202E-03    -51.8812E-03     90.2413E-03    -38.3365E-03     126.766E-03
            1331     12.1293E-03     119.327E-03    -16.2917E+06     8.17054E+06     59.1831E+06    -18.4228E+06    -62.1064E-03     102.037E-03    -39.9306E-03     163.016E-03    -62.3806E-03     102.109E-03    -39.6229E-03     162.614E-03
            1332     12.9699E-03     119.616E-03    -12.4995E+06     20.0645E+06     73.2412E+06    -16.0292E+06    -78.7169E-03     120.504E-03    -41.7867E-03     204.178E-03    -79.2133E-03     120.812E-03    -41.4314E-03     203.482E-03
            1333     13.8034E-03     119.962E-03    -10.6301E+06    -2.94865E+06     66.2137E+06    -18.1675E+06    -103.626E-03     147.982E-03    -44.3556E-03     255.483E-03    -104.756E-03     148.869E-03    -44.0049E-03     253.708E-03
            1334     14.6070E-03     120.399E-03    -12.6540E+06    -12.9440E+06     55.0243E+06    -13.1006E+06    -128.142E-03     175.759E-03    -47.6167E-03     316.988E-03    -130.989E-03     178.349E-03    -47.3045E-03     313.070E-03
            1335     15.4242E-03     120.920E-03     7.54000E+06     683.702E+03     70.0617E+06    -7.84406E+06    -126.456E-03     177.304E-03    -50.8478E-03     364.007E-03    -131.956E-03     182.614E-03    -50.5094E-03     358.470E-03
            1336     16.2456E-03     121.452E-03     22.5345E+06    -7.51755E+06     53.3186E+06    -18.3431E+06    -88.9033E-03     141.206E-03    -52.3024E-03     405.905E-03    -98.0432E-03     150.275E-03    -52.0575E-03     401.349E-03
            1337     865.437E-06     119.086E-03     15.4036E+06    -8.76632E+06     16.7508E+06    -2.69075E+06    -40.0348E-03     79.9216E-03    -39.8868E-03     1.00256E-03    -39.9728E-03     79.8280E-03    -39.8127E-03     955.649E-06
            1338     1.73071E-03     119.101E-03     15.1471E+06    -6.92455E+06     19.3435E+06    -5.60845E+06    -40.8438E-03     81.0563E-03    -40.2124E-03     967.425E-06    -40.7902E-03     80.9684E-03    -40.1276E-03     870.425E-06
            1339     2.59462E-03     119.123E-03     15.2521E+06    -5.50665E+06     23.1455E+06    -7.85590E+06    -41.6952E-03     82.3729E-03    -40.6777E-03     1.06586E-03    -41.6492E-03     82.2870E-03    -40.5761E-03     926.207E-06
            1340     3.45774E-03     119.155E-03     14.9295E+06    -4.28283E+06     28.1986E+06    -9.82962E+06    -42.7187E-03     83.9414E-03    -41.2227E-03     1.43870E-03    -42.6844E-03     83.8555E-03    -41.0971E-03     1.25841E-03
            1341     4.31940E-03     119.195E-03     13.9079E+06    -3.59983E+06     32.5908E+06    -11.0437E+06    -43.8966E-03     85.7447E-03    -41.8481E-03     2.20543E-03    -43.8762E-03     85.6583E-03    -41.7001E-03     1.99279E-03
            1342     5.17993E-03     119.247E-03     12.3544E+06    -3.00572E+06     35.5316E+06    -11.5593E+06    -45.1859E-03     87.7360E-03    -42.5501E-03     3.40580E-03    -45.1805E-03     87.6517E-03    -42.3860E-03     3.16799E-03
            1343     6.03879E-03     119.310E-03     11.0259E+06    -4.69108E+06     38.0416E+06    -12.2042E+06    -46.4576E-03     89.7861E-03    -43.3285E-03     5.16586E-03    -46.4630E-03     89.6933E-03    -43.1475E-03     4.89961E-03
            1344     6.89590E-03     119.388E-03     9.63980E+06    -4.31221E+06     41.1061E+06    -14.2891E+06    -47.5471E-03     91.7138E-03    -44.1666E-03     7.86352E-03    -47.5683E-03     91.6225E-03    -43.9688E-03     7.55000E-03
            1345     7.75174E-03     119.481E-03     7.19111E+06    -6.25618E+06     42.6253E+06    -15.1580E+06    -48.4522E-03     93.5020E-03    -45.0498E-03     11.9293E-03    -48.4897E-03     93.4049E-03    -44.8380E-03     11.5852E-03
            1346     8.60552E-03     119.595E-03     3.52037E+06    -8.38092E+06     42.9800E+06    -16.9454E+06    -49.1382E-03     95.1130E-03    -45.9749E-03     17.9726E-03    -49.1973E-03     95.0132E-03    -45.7529E-03     17.5886E-03
            1347     9.45834E-03     119.731E-03     1.47993E+06    -13.2456E+06     42.8813E+06    -21.0341E+06    -49.6093E-03     96.5564E-03    -46.9471E-03     26.8834E-03    -49.6778E-03     96.4387E-03    -46.7156E-03     26.4348E-03
            1348     10.3086E-03     119.898E-03    -869.041E+03    -13.9777E+06     45.7988E+06    -23.6138E+06    -50.3506E-03     98.3487E-03    -47.9981E-03     39.9420E-03    -50.4401E-03     98.2301E-03    -47.7476E-03     39.4568E-03
            1349     11.1578E-03     120.097E-03    -3.04380E+06    -10.4890E+06     52.6701E+06    -22.2369E+06    -52.2110E-03     101.401E-03    -49.1897E-03     58.6876E-03    -52.3313E-03     101.296E-03    -48.9067E-03     58.2271E-03
            1350     12.0017E-03     120.342E-03     3.73825E+06     68.5549E+03     75.2333E+06    -15.7896E+06    -57.4512E-03     108.158E-03    -50.7067E-03     83.4236E-03    -57.5960E-03     108.070E-03    -50.3360E-03     83.0428E-03
            1351     12.8438E-03     120.634E-03     14.6900E+06     15.7097E+06     95.9212E+06    -5.92653E+06    -69.4266E-03     122.170E-03    -52.7434E-03     116.087E-03    -69.6255E-03     122.175E-03    -52.3079E-03     115.732E-03
            1352     13.6575E-03     120.997E-03     18.9397E+06     10.3875E+06     90.6389E+06     4.03599E+06    -88.2388E-03     143.726E-03    -55.4875E-03     160.786E-03    -88.6092E-03     143.916E-03    -55.0768E-03     160.172E-03
            1353     14.4669E-03     121.433E-03     24.8301E+06    -3.30798E+06     95.9296E+06     1.56374E+06    -102.494E-03     161.429E-03    -58.9353E-03     208.280E-03    -103.330E-03     162.038E-03    -58.4869E-03     206.823E-03
            1354     15.2517E-03     121.934E-03     37.7921E+06     1.53444E+06     107.258E+06    -6.66109E+06    -89.6140E-03     151.585E-03    -61.9709E-03     240.329E-03    -91.1005E-03     152.893E-03    -61.4916E-03     238.231E-03
            1355     16.0639E-03     122.427E-03     29.1852E+06     6.52138E+06     78.7434E+06     2.33019E+06    -24.9540E-03     87.2808E-03    -62.3268E-03     255.018E-03    -27.0438E-03     89.2298E-03    -61.9849E-03     254.371E-03
            1356     856.923E-06     120.123E-03     35.1598E+06    -3.26067E+06     35.1814E+06    -1.95538E+06    -50.7884E-03     101.813E-03    -51.0247E-03    -2.81261E-03    -50.6657E-03     101.688E-03    -50.8951E-03    -2.85151E-03
            1357     1.71216E-03     120.138E-03     34.6074E+06    -2.18181E+06     37.0226E+06    -3.08100E+06    -51.3223E-03     102.429E-03    -51.1064E-03    -4.83658E-03    -51.2058E-03     102.308E-03    -50.9683E-03    -4.90089E-03
            1358     2.56706E-03     120.162E-03     33.7410E+06    -1.23279E+06     41.1387E+06    -3.96998E+06    -52.3180E-03     103.829E-03    -51.5114E-03    -6.94095E-03    -52.2131E-03     103.708E-03    -51.3529E-03    -7.02929E-03
            1359     3.42055E-03     120.194E-03     32.7189E+06    -972.969E+03     44.9123E+06    -4.22764E+06    -53.6298E-03     105.749E-03    -52.1192E-03    -9.14153E-03    -53.5361E-03     105.625E-03    -51.9407E-03    -9.24731E-03
            1360     4.27270E-03     120.238E-03     31.5581E+06    -399.330E+03     48.7335E+06    -4.44717E+06    -55.3081E-03     108.217E-03    -52.9086E-03    -11.5670E-03    -55.2270E-03     108.090E-03    -52.7101E-03    -11.6919E-03
            1361     5.12254E-03     120.290E-03     30.6603E+06    -1.09495E+06     53.4910E+06    -4.30585E+06    -57.3052E-03     111.194E-03    -53.8883E-03    -14.2491E-03    -57.2350E-03     111.057E-03    -53.6638E-03    -14.3912E-03
            1362     5.96971E-03     120.356E-03     29.8992E+06    -820.677E+03     58.2802E+06    -4.82082E+06    -59.5247E-03     114.576E-03    -55.0512E-03    -17.1983E-03    -59.4664E-03     114.433E-03    -54.8020E-03    -17.3692E-03
            1363     6.81411E-03     120.434E-03     28.2679E+06    -616.343E+03     61.0581E+06    -5.02015E+06    -61.8127E-03     118.201E-03    -56.3879E-03    -20.4855E-03    -61.7681E-03     118.055E-03    -56.1227E-03    -20.6845E-03
            1364     7.65495E-03     120.530E-03     26.5339E+06    -2.40343E+06     63.6634E+06    -5.49055E+06    -63.9296E-03     121.833E-03    -57.9037E-03    -24.0194E-03    -63.8963E-03     121.674E-03    -57.6203E-03    -24.2538E-03
            1365     8.49254E-03     120.642E-03     25.6866E+06    -3.84676E+06     67.6625E+06    -5.81822E+06    -65.5697E-03     125.161E-03    -59.5910E-03    -27.5354E-03    -65.5463E-03     124.985E-03    -59.2843E-03    -27.8057E-03
            1366     9.32546E-03     120.778E-03     23.1756E+06    -1.89612E+06     71.8014E+06    -9.05662E+06    -66.4485E-03     127.882E-03    -61.4339E-03    -30.6322E-03    -66.4492E-03     127.708E-03    -61.1057E-03    -30.9777E-03
            1367     10.1556E-03     120.938E-03     18.0323E+06    -11.1953E+06     72.1789E+06    -9.08716E+06    -66.3861E-03     129.828E-03    -63.4415E-03    -32.7739E-03    -66.4032E-03     129.606E-03    -63.0905E-03    -33.1543E-03
            1368     10.9801E-03     121.134E-03     16.2141E+06    -5.29712E+06     75.1915E+06    -12.8813E+06    -65.6843E-03     131.340E-03    -65.6560E-03    -33.9006E-03    -65.7283E-03     131.133E-03    -65.2959E-03    -34.3650E-03
            1369     11.8020E-03     121.366E-03     13.5150E+06    -10.4298E+06     79.6670E+06    -11.4841E+06    -64.8576E-03     133.091E-03    -68.2332E-03    -31.8873E-03    -64.9195E-03     132.846E-03    -67.8394E-03    -32.3592E-03
            1370     12.6048E-03     121.655E-03     11.9464E+06    -98.2657E+03     85.1131E+06    -8.16155E+06    -64.2266E-03     135.476E-03    -71.2496E-03    -20.2729E-03    -64.3298E-03     135.274E-03    -70.8413E-03    -20.6862E-03
            1371     13.4112E-03     122.003E-03     14.3527E+06     1.14590E+06     89.0509E+06     926.067E+03    -64.4928E-03     139.269E-03    -74.7757E-03     6.92012E-03    -64.6167E-03     139.088E-03    -74.3529E-03     6.63923E-03
            1372     14.1859E-03     122.436E-03     21.8451E+06     4.14515E+06     108.871E+06     2.28878E+06    -57.3889E-03     135.807E-03    -78.4176E-03     50.8572E-03    -57.5729E-03     135.706E-03    -77.9109E-03     50.5113E-03
            1373     14.9766E-03     122.907E-03     3.81172E+06     12.5570E+06     80.4504E+06    -11.0686E+06    -27.5883E-03     108.108E-03    -80.5196E-03     93.7787E-03    -27.8883E-03     108.201E-03    -80.1410E-03     93.2969E-03
            1374     15.8312E-03     123.362E-03    -4.06663E+06    -4.15631E+06     38.5031E+06     3.79094E+06     20.6664E-03     59.3396E-03    -80.0060E-03     81.9165E-03     20.4975E-03     59.3400E-03    -79.8015E-03     81.8502E-03
            1375     16.1928E-03     61.6203E-03    -6.47885E+06     165.445E+06     112.166E+06     659.429E+03    -68.7925E-03     124.069E-03    -55.2769E-03     297.526E-03    -88.0585E-03     143.575E-03    -54.9466E-03     302.282E-03
            1376     15.3302E-03     61.1423E-03    -10.4583E+06     153.072E+06     94.8723E+06     904.754E+03    -77.8604E-03     133.130E-03    -55.2695E-03     400.926E-03    -100.340E-03     155.841E-03    -55.0019E-03     400.030E-03
            1377     14.4806E-03     60.7848E-03    -15.0697E+06     111.519E+06     46.4251E+06     625.752E+03    -70.3153E-03     125.464E-03    -55.1483E-03     284.411E-03    -78.7710E-03     134.127E-03    -55.0560E-03     281.486E-03
            1378     13.6280E-03     60.5627E-03    -17.4257E+06     73.0096E+06     2.79149E+06     270.695E+03    -61.7366E-03     116.729E-03    -54.9927E-03     183.429E-03    -64.6919E-03     119.874E-03    -55.0594E-03     181.430E-03
            1379     12.7769E-03     60.4155E-03    -18.9242E+06     23.6429E+06    -12.1765E+06     396.862E+03    -58.4496E-03     113.452E-03    -55.0021E-03     135.737E-03    -59.8798E-03     114.934E-03    -55.0698E-03     134.260E-03
            1380     11.9251E-03     60.2889E-03    -20.5762E+06    -26.6159E+06    -8.17485E+06     186.677E+03    -57.7350E-03     112.853E-03    -55.1181E-03     117.691E-03    -58.5995E-03     113.574E-03    -55.0906E-03     116.512E-03
            1381     11.0725E-03     60.1783E-03    -21.6037E+06    -57.7577E+06    -7.37057E+06     245.699E+03    -57.3951E-03     112.586E-03    -55.1910E-03     106.684E-03    -57.9655E-03     112.896E-03    -55.1127E-03     105.715E-03
            1382     10.2208E-03     60.0754E-03    -22.5090E+06    -81.5583E+06    -7.65443E+06     352.403E+03    -57.2340E-03     112.479E-03    -55.2453E-03     98.8033E-03    -57.6145E-03     112.513E-03    -55.1327E-03     98.0018E-03
            1383     9.36875E-03     59.9801E-03    -23.5986E+06    -98.6389E+06    -7.40767E+06     352.572E+03    -57.0102E-03     112.300E-03    -55.2901E-03     90.9656E-03    -57.2600E-03     112.138E-03    -55.1499E-03     90.3039E-03
            1384     8.51694E-03     59.8929E-03    -25.2041E+06    -112.411E+06    -7.77680E+06     340.267E+03    -56.8173E-03     112.141E-03    -55.3238E-03     83.0192E-03    -56.9738E-03     111.832E-03    -55.1631E-03     82.4749E-03
            1385     7.66521E-03     59.8135E-03    -26.9403E+06    -123.095E+06    -7.92524E+06     716.365E+03    -56.5972E-03     111.946E-03    -55.3493E-03     75.3205E-03    -56.6881E-03     111.528E-03    -55.1714E-03     74.8806E-03
            1386     6.81350E-03     59.7416E-03    -29.0672E+06    -132.692E+06    -7.84698E+06     1.01191E+06    -56.3345E-03     111.709E-03    -55.3743E-03     67.5589E-03    -56.3790E-03     111.202E-03    -55.1790E-03     67.2076E-03
            1387     5.96171E-03     59.6778E-03    -32.2094E+06    -139.158E+06    -12.1328E+06     152.594E+03    -56.1118E-03     111.487E-03    -55.3751E-03     59.6565E-03    -56.1246E-03     110.926E-03    -55.1872E-03     59.3659E-03
            1388     5.10997E-03     59.6219E-03    -36.1014E+06    -143.394E+06    -17.8511E+06     194.085E+03    -55.8969E-03     111.263E-03    -55.3662E-03     51.6498E-03    -55.8911E-03     110.672E-03    -55.1952E-03     51.4216E-03
            1389     4.25835E-03     59.5740E-03    -39.5063E+06    -149.421E+06    -23.2963E+06     767.711E+03    -55.7080E-03     111.069E-03    -55.3615E-03     43.3980E-03    -55.6854E-03     110.444E-03    -55.2040E-03     43.2294E-03
            1390     3.40660E-03     59.5347E-03    -41.8148E+06    -153.945E+06    -29.9657E+06     422.320E+03    -55.5576E-03     110.905E-03    -55.3478E-03     34.9916E-03    -55.5183E-03     110.258E-03    -55.2138E-03     34.8628E-03
            1391     2.55490E-03     59.5036E-03    -44.1386E+06    -158.415E+06    -36.9000E+06     112.805E+03    -55.4520E-03     110.784E-03    -55.3320E-03     26.4854E-03    -55.3993E-03     110.119E-03    -55.2228E-03     26.3912E-03
            1392     1.70331E-03     59.4814E-03    -46.4151E+06    -162.570E+06    -43.3992E+06     34.7494E+03    -55.3760E-03     110.691E-03    -55.3152E-03     17.9112E-03    -55.3138E-03     110.013E-03    -55.2292E-03     17.8496E-03
            1393     851.588E-06     59.4676E-03    -47.7873E+06    -164.811E+06    -46.9664E+06     37.0026E+03    -55.3554E-03     110.634E-03    -55.2787E-03     9.72649E-03    -55.2886E-03     109.949E-03    -55.2052E-03     9.69430E-03
            1394     16.1784E-03     60.5587E-03    -5.65355E+06     163.878E+06     111.174E+06     29.1794E+03    -68.6566E-03     124.024E-03    -55.3670E-03     296.057E-03    -87.7456E-03     143.352E-03    -55.0405E-03     300.483E-03
            1395     15.3337E-03     60.0838E-03    -11.1095E+06     151.422E+06     93.6064E+06    -314.321E+03    -80.2317E-03     135.517E-03    -55.2853E-03     398.255E-03    -102.523E-03     158.035E-03    -55.0207E-03     396.741E-03
            1396     14.4804E-03     59.7256E-03    -15.2195E+06     111.863E+06     46.2375E+06     326.009E+03    -69.8077E-03     124.903E-03    -55.0957E-03     282.781E-03    -78.2233E-03     133.528E-03    -55.0047E-03     279.899E-03
            1397     13.6295E-03     59.5045E-03    -18.5133E+06     72.4605E+06     1.53665E+06     790.712E+03    -61.2236E-03     116.183E-03    -54.9590E-03     183.593E-03    -64.1626E-03     119.309E-03    -55.0295E-03     181.632E-03
            1398     12.7773E-03     59.3564E-03    -19.5660E+06     24.1326E+06    -12.3391E+06     799.619E+03    -58.5212E-03     113.507E-03    -54.9855E-03     136.584E-03    -59.9715E-03     115.009E-03    -55.0539E-03     135.104E-03
            1399     11.9249E-03     59.2318E-03    -19.8180E+06    -26.0456E+06    -7.42262E+06     587.345E+03    -57.5800E-03     112.689E-03    -55.1094E-03     118.335E-03    -58.4415E-03     113.410E-03    -55.0800E-03     117.168E-03
            1400     11.0726E-03     59.1198E-03    -21.0886E+06    -57.5367E+06    -7.15581E+06     306.645E+03    -57.2517E-03     112.446E-03    -55.1944E-03     107.333E-03    -57.8188E-03     112.755E-03    -55.1162E-03     106.370E-03
            1401     10.2205E-03     59.0170E-03    -22.2376E+06    -81.4875E+06    -7.76215E+06     121.684E+03    -57.2982E-03     112.551E-03    -55.2532E-03     98.9846E-03    -57.6777E-03     112.585E-03    -55.1416E-03     98.1792E-03
            1402     9.36879E-03     58.9218E-03    -23.5834E+06    -98.6202E+06    -7.46045E+06     251.277E+03    -57.0819E-03     112.376E-03    -55.2939E-03     91.0143E-03    -57.3316E-03     112.213E-03    -55.1540E-03     90.3509E-03
            1403     8.51694E-03     58.8344E-03    -25.0855E+06    -112.236E+06    -7.95911E+06     352.855E+03    -56.8184E-03     112.142E-03    -55.3238E-03     83.0510E-03    -56.9740E-03     111.833E-03    -55.1644E-03     82.5076E-03
            1404     7.66522E-03     58.7550E-03    -27.0189E+06    -123.819E+06    -8.43368E+06     475.640E+03    -56.5727E-03     111.924E-03    -55.3509E-03     75.3018E-03    -56.6621E-03     111.502E-03    -55.1744E-03     74.8593E-03
            1405     6.81341E-03     58.6832E-03    -28.9652E+06    -132.089E+06    -9.53064E+06     489.647E+03    -56.3363E-03     111.706E-03    -55.3698E-03     67.5637E-03    -56.3787E-03     111.204E-03    -55.1839E-03     67.2059E-03
            1406     5.96167E-03     58.6193E-03    -31.2370E+06    -139.142E+06    -12.0039E+06     967.489E+03    -56.1316E-03     111.510E-03    -55.3786E-03     59.6017E-03    -56.1397E-03     110.948E-03    -55.1916E-03     59.3213E-03
            1407     5.11006E-03     58.5634E-03    -34.7312E+06    -143.642E+06    -15.4265E+06     1.39282E+06    -55.9121E-03     111.291E-03    -55.3793E-03     51.5645E-03    -55.9027E-03     110.693E-03    -55.1978E-03     51.3513E-03
            1408     4.25826E-03     58.5156E-03    -38.3610E+06    -148.188E+06    -22.3390E+06     430.142E+03    -55.7158E-03     111.080E-03    -55.3640E-03     43.3740E-03    -55.6907E-03     110.457E-03    -55.2052E-03     43.2010E-03
            1409     3.40661E-03     58.4761E-03    -41.4042E+06    -153.970E+06    -30.1250E+06    -87.5234E+03    -55.5785E-03     110.923E-03    -55.3445E-03     34.9513E-03    -55.5369E-03     110.275E-03    -55.2118E-03     34.8158E-03
            1410     2.55498E-03     58.4452E-03    -44.1056E+06    -158.319E+06    -36.7172E+06     312.579E+03    -55.4577E-03     110.784E-03    -55.3259E-03     26.4510E-03    -55.4052E-03     110.119E-03    -55.2159E-03     26.3593E-03
            1411     1.70327E-03     58.4229E-03    -46.2871E+06    -162.287E+06    -42.9673E+06     309.696E+03    -55.3622E-03     110.671E-03    -55.3090E-03     17.8841E-03    -55.3004E-03     109.994E-03    -55.2214E-03     17.8261E-03
            1412     851.669E-06     58.4092E-03    -47.6001E+06    -164.637E+06    -46.7793E+06     118.459E+03    -55.3125E-03     110.622E-03    -55.3095E-03     9.75996E-03    -55.2453E-03     109.937E-03    -55.2357E-03     9.72877E-03
            1413     16.1843E-03     59.4925E-03    -5.72476E+06     164.056E+06     111.525E+06    -290.045E+03    -68.8232E-03     124.135E-03    -55.3123E-03     294.217E-03    -87.5531E-03     143.104E-03    -54.9842E-03     298.669E-03
            1414     15.3344E-03     59.0239E-03    -11.4540E+06     151.072E+06     93.1359E+06    -1.07059E+06    -79.3437E-03     134.562E-03    -55.2181E-03     395.078E-03    -101.250E-03     156.693E-03    -54.9549E-03     393.668E-03
            1415     14.4840E-03     58.6696E-03    -17.1338E+06     110.613E+06     44.6615E+06     1.74906E+03    -69.0203E-03     124.082E-03    -55.0621E-03     284.506E-03    -77.5141E-03     132.779E-03    -54.9743E-03     281.706E-03
            1416     13.6284E-03     58.4473E-03    -19.6358E+06     71.8952E+06     869.495E+03     1.08509E+06    -60.8553E-03     115.829E-03    -54.9735E-03     185.766E-03    -63.7970E-03     118.953E-03    -55.0450E-03     183.830E-03
            1417     12.7759E-03     58.2970E-03    -19.2851E+06     24.4516E+06    -12.1531E+06     494.851E+03    -58.3991E-03     113.427E-03    -55.0277E-03     137.416E-03    -59.8494E-03     114.931E-03    -55.0959E-03     135.933E-03
            1418     11.9246E-03     58.1740E-03    -19.9680E+06    -26.1251E+06    -7.67184E+06      423.74E+03    -57.8782E-03     113.027E-03    -55.1493E-03     118.480E-03    -58.7445E-03     113.752E-03    -55.1208E-03     117.303E-03
            1419     11.0723E-03     58.0617E-03    -20.8911E+06    -56.9819E+06    -6.96560E+06     597.888E+03    -57.5360E-03     112.753E-03    -55.2169E-03     107.750E-03    -58.1050E-03     113.066E-03    -55.1388E-03     106.787E-03
            1420     10.2204E-03     57.9584E-03    -22.2832E+06    -81.3236E+06    -7.92223E+06     377.048E+03    -57.3783E-03     112.641E-03    -55.2629E-03     98.9984E-03    -57.7578E-03     112.676E-03    -55.1523E-03     98.1959E-03
            1421     9.36871E-03     57.8631E-03    -23.7360E+06    -98.5089E+06    -7.61634E+06     163.621E+03    -57.1404E-03     112.439E-03    -55.2984E-03     90.9187E-03    -57.3908E-03     112.277E-03    -55.1592E-03     90.2534E-03
            1422     8.51702E-03     57.7761E-03    -25.3417E+06    -112.372E+06    -8.10226E+06     294.414E+03    -56.8148E-03     112.141E-03    -55.3265E-03     83.0978E-03    -56.9713E-03     111.832E-03    -55.1673E-03     82.5539E-03
            1423     7.66512E-03     57.6964E-03    -27.0447E+06    -123.875E+06    -8.48839E+06     360.781E+03    -56.5803E-03     111.934E-03    -55.3539E-03     75.3443E-03    -56.6695E-03     111.512E-03    -55.1775E-03     74.9006E-03
            1424     6.81342E-03     57.6248E-03    -29.5752E+06    -132.052E+06    -9.20765E+06     482.648E+03    -56.3726E-03     111.745E-03    -55.3726E-03     67.5172E-03    -56.4186E-03     111.244E-03    -55.1843E-03     67.1588E-03
            1425     5.96175E-03     57.5607E-03    -32.8374E+06    -140.305E+06    -12.5588E+06     1.12087E+06    -56.1327E-03     111.510E-03    -55.3769E-03     59.5524E-03    -56.1464E-03     110.945E-03    -55.1886E-03     59.2739E-03
            1426     5.10997E-03     57.5050E-03    -35.4852E+06    -142.637E+06    -16.8462E+06     1.28935E+06    -55.9060E-03     111.274E-03    -55.3678E-03     51.5115E-03    -55.8997E-03     110.684E-03    -55.1938E-03     51.2969E-03
            1427     4.25834E-03     57.4571E-03    -38.1877E+06    -146.677E+06    -23.5831E+06     622.254E+03    -55.7299E-03     111.079E-03    -55.3490E-03     43.3188E-03    -55.7044E-03     110.465E-03    -55.1988E-03     43.1480E-03
            1428     3.40668E-03     57.4177E-03    -41.4662E+06    -154.306E+06    -30.5907E+06     301.197E+03    -55.5777E-03     110.911E-03    -55.3332E-03     34.9210E-03    -55.5352E-03     110.262E-03    -55.2023E-03     34.7906E-03
            1429     2.55496E-03     57.3868E-03    -44.3720E+06    -158.203E+06    -36.5272E+06     249.381E+03    -55.4423E-03     110.759E-03    -55.3170E-03     26.4341E-03    -55.3916E-03     110.095E-03    -55.2059E-03     26.3417E-03
            1430     1.70334E-03     57.3645E-03    -46.2991E+06    -161.956E+06    -42.4729E+06     113.764E+03    -55.3646E-03     110.662E-03    -55.2971E-03     17.8786E-03    -55.3041E-03     109.985E-03    -55.2075E-03     17.8180E-03
            1431     851.617E-06     57.3508E-03    -47.5646E+06    -164.426E+06    -46.4085E+06     71.6456E+03    -55.3057E-03     110.586E-03    -55.2803E-03     9.68507E-03    -55.2392E-03     109.902E-03    -55.2050E-03     9.65340E-03
            1432     16.1908E-03     58.4383E-03    -6.25795E+06     165.278E+06     112.018E+06    -1.14709E+06    -68.5520E-03     123.777E-03    -55.2253E-03     296.816E-03    -87.5734E-03     143.038E-03    -54.8958E-03     301.561E-03
            1433     15.3350E-03     57.9666E-03    -13.2429E+06     150.397E+06     92.6996E+06    -466.099E+03    -77.0781E-03     132.308E-03    -55.2304E-03     399.631E-03    -99.2591E-03     154.708E-03    -54.9658E-03     398.739E-03
            1434     14.4784E-03     57.6112E-03    -18.3355E+06     109.533E+06     45.4408E+06     355.533E+03    -69.5397E-03     124.701E-03    -55.1616E-03     286.350E-03    -78.0377E-03     133.391E-03    -55.0666E-03     283.537E-03
            1435     13.6281E-03     57.3893E-03    -19.6409E+06     72.6229E+06     2.44845E+06     109.846E+03    -61.5461E-03     116.597E-03    -55.0511E-03     186.006E-03    -64.5122E-03     119.744E-03    -55.1157E-03     184.023E-03
            1436     12.7756E-03     57.2392E-03    -19.9629E+06     23.7139E+06    -13.0545E+06    -11.2302E+03    -58.4796E-03     113.556E-03    -55.0761E-03     137.391E-03    -59.9253E-03     115.053E-03    -55.1468E-03     135.904E-03
            1437     11.9231E-03     57.1147E-03    -20.4694E+06    -26.4029E+06    -8.32485E+06     525.516E+03    -58.1401E-03     113.328E-03    -55.1884E-03     118.114E-03    -59.0093E-03     114.055E-03    -55.1621E-03     116.929E-03
            1438     11.0722E-03     57.0033E-03    -21.6465E+06    -56.7888E+06    -7.28403E+06     697.745E+03    -57.8822E-03     113.117E-03    -55.2347E-03     107.235E-03    -58.4576E-03     113.435E-03    -55.1573E-03     106.263E-03
            1439     10.2205E-03     56.8997E-03    -22.9319E+06    -80.9950E+06    -8.13890E+06     512.779E+03    -57.3919E-03     112.658E-03    -55.2661E-03     98.9102E-03    -57.7745E-03     112.695E-03    -55.1561E-03     98.1098E-03
            1440     9.36870E-03     56.8047E-03    -24.4110E+06    -98.4782E+06    -7.98655E+06     279.736E+03    -57.0916E-03     112.394E-03    -55.3029E-03     90.9359E-03    -57.3447E-03     112.234E-03    -55.1646E-03     90.2728E-03
            1441     8.51681E-03     56.7175E-03    -26.1427E+06    -112.401E+06    -8.36893E+06     53.8950E+03    -56.8804E-03     112.211E-03    -55.3308E-03     83.0531E-03    -57.0408E-03     111.904E-03    -55.1717E-03     82.5048E-03
            1442     7.66515E-03     56.6381E-03    -28.0605E+06    -124.042E+06    -9.01624E+06     219.566E+03    -56.6337E-03     111.984E-03    -55.3506E-03     75.2760E-03    -56.7271E-03     111.564E-03    -55.1751E-03     74.8298E-03
            1443     6.81348E-03     56.5661E-03    -30.3718E+06    -132.489E+06    -9.90013E+06     773.423E+03    -56.3721E-03     111.736E-03    -55.3644E-03     67.4469E-03    -56.4205E-03     111.235E-03    -55.1777E-03     67.0921E-03
            1444     5.96177E-03     56.5024E-03    -32.8140E+06    -140.674E+06    -13.0173E+06     1.06464E+06    -56.1364E-03     111.503E-03    -55.3670E-03     59.4964E-03    -56.1487E-03     110.938E-03    -55.1805E-03     59.2170E-03
            1445     5.11011E-03     56.4464E-03    -35.8445E+06    -141.995E+06    -18.6798E+06     1.12149E+06    -55.9109E-03     111.259E-03    -55.3479E-03     51.4825E-03    -55.9047E-03     110.675E-03    -55.1834E-03     51.2657E-03
            1446     4.25839E-03     56.3987E-03    -39.1260E+06    -145.674E+06    -24.5938E+06     833.694E+03    -55.7134E-03     111.045E-03    -55.3320E-03     43.2811E-03    -55.6925E-03     110.440E-03    -55.1870E-03     43.1130E-03
            1447     3.40667E-03     56.3592E-03    -41.8610E+06    -153.996E+06    -29.7718E+06     269.604E+03    -55.5553E-03     110.882E-03    -55.3264E-03     34.9028E-03    -55.5164E-03     110.234E-03    -55.1913E-03     34.7720E-03
            1448     2.55503E-03     56.3284E-03    -44.1889E+06    -157.903E+06    -36.1542E+06    -84.0746E+03    -55.4349E-03     110.742E-03    -55.3075E-03     26.4196E-03    -55.3843E-03     110.079E-03    -55.1953E-03     26.3229E-03
            1449     1.70330E-03     56.3061E-03    -46.2287E+06    -161.987E+06    -42.6629E+06    -148.978E+03    -55.3630E-03     110.645E-03    -55.2819E-03     17.8899E-03    -55.3018E-03     109.968E-03    -55.1933E-03     17.8259E-03
            1450     851.775E-06     56.2923E-03    -47.5387E+06    -164.390E+06    -46.5901E+06    -92.4900E+03    -55.3089E-03     110.551E-03    -55.2420E-03     9.64336E-03    -55.2420E-03     109.867E-03    -55.1676E-03     9.60958E-03
            1451     16.1854E-03     57.3814E-03    -5.44979E+06     165.553E+06     111.879E+06    -130.984E+03    -67.0299E-03     122.402E-03    -55.3724E-03     300.080E-03    -86.2729E-03     141.890E-03    -55.0452E-03     304.921E-03
            1452     15.3288E-03     56.9096E-03    -14.0366E+06     150.029E+06     91.7931E+06     221.039E+03    -78.8703E-03     134.265E-03    -55.3946E-03     400.856E-03    -101.203E-03     156.814E-03    -55.1328E-03     399.683E-03
            1453     14.4790E-03     56.5512E-03    -17.8476E+06     109.663E+06     46.1374E+06    -783.060E+03    -70.4326E-03     125.698E-03    -55.2650E-03     284.964E-03    -78.9127E-03     134.370E-03    -55.1674E-03     282.050E-03
            1454     13.6268E-03     56.3298E-03    -19.0448E+06     71.8771E+06     3.07696E+06    -970.338E+03    -62.0736E-03     117.181E-03    -55.1070E-03     184.599E-03    -65.0567E-03     120.342E-03    -55.1682E-03     182.569E-03
            1455     12.7752E-03     56.1813E-03    -20.6333E+06     23.3274E+06    -12.9357E+06     164.570E+03    -58.9422E-03     114.036E-03    -55.0939E-03     136.660E-03    -60.3975E-03     115.538E-03    -55.1624E-03     135.160E-03
            1456     11.9239E-03     56.0555E-03    -21.7006E+06    -26.4070E+06    -8.74646E+06     708.944E+03    -58.1541E-03     113.339E-03    -55.1849E-03     117.675E-03    -59.0257E-03     114.065E-03    -55.1589E-03     116.493E-03
            1457     11.0722E-03     55.9441E-03    -22.5127E+06    -56.8762E+06    -7.64930E+06     453.104E+03    -57.7355E-03     112.969E-03    -55.2337E-03     106.732E-03    -58.3139E-03     113.288E-03    -55.1568E-03     105.758E-03
            1458     10.2205E-03     55.8416E-03    -23.5357E+06    -80.7503E+06     -8.1719E+06     380.433E+03    -57.3857E-03     112.656E-03    -55.2704E-03     98.8665E-03    -57.7717E-03     112.696E-03    -55.1600E-03     98.0641E-03
            1459     9.36845E-03     55.7462E-03    -24.8545E+06    -98.4814E+06    -8.16250E+06     253.889E+03    -57.1632E-03     112.467E-03    -55.3033E-03     90.9064E-03    -57.4188E-03     112.308E-03    -55.1653E-03     90.2413E-03
            1460     8.51693E-03     55.6589E-03    -26.4559E+06    -111.994E+06    -8.23460E+06     160.654E+03    -56.9398E-03     112.264E-03    -55.3247E-03     82.8460E-03    -57.1028E-03     111.960E-03    -55.1651E-03     82.2974E-03
            1461     7.66533E-03     55.5794E-03    -28.6950E+06    -124.635E+06    -9.01706E+06     271.160E+03    -56.6331E-03     111.974E-03    -55.3408E-03     75.1440E-03    -56.7289E-03     111.552E-03    -55.1636E-03     74.6978E-03
            1462     6.81355E-03     55.5078E-03    -31.1264E+06    -132.921E+06    -12.2853E+06     666.668E+03    -56.3472E-03     111.690E-03    -55.3423E-03     67.4138E-03    -56.3952E-03     111.191E-03    -55.1659E-03     67.0580E-03
            1463     5.96183E-03     55.4438E-03    -33.8046E+06    -140.606E+06    -15.6506E+06     1.00412E+06    -56.1302E-03     111.474E-03    -55.3435E-03     59.4755E-03    -56.1437E-03     110.913E-03    -55.1689E-03     59.1955E-03
            1464     5.11016E-03     55.3880E-03    -36.3959E+06    -141.691E+06    -17.9699E+06     986.203E+03    -55.9029E-03     111.242E-03    -55.3388E-03     51.4662E-03    -55.9008E-03     110.660E-03    -55.1705E-03     51.2477E-03
            1465     4.25842E-03     55.3402E-03    -38.6184E+06    -144.502E+06    -23.1053E+06     375.618E+03    -55.6939E-03     111.018E-03    -55.3237E-03     43.2543E-03    -55.6743E-03     110.415E-03    -55.1737E-03     43.0805E-03
            1466     3.40677E-03     55.3009E-03    -41.0406E+06    -153.637E+06    -29.5069E+06    -201.754E+03    -55.5451E-03     110.858E-03    -55.3131E-03     34.8786E-03    -55.5030E-03     110.211E-03    -55.1783E-03     34.7418E-03
            1467     2.55499E-03     55.2699E-03    -43.7476E+06    -158.000E+06    -36.4972E+06    -100.019E+03    -55.4253E-03     110.717E-03    -55.2922E-03     26.4063E-03    -55.3718E-03     110.054E-03    -55.1821E-03     26.3095E-03
            1468     1.70342E-03     55.2476E-03    -46.0555E+06    -162.043E+06    -42.9554E+06     54.1446E+03    -55.3265E-03     110.602E-03    -55.2752E-03     17.8784E-03    -55.2639E-03     109.925E-03    -55.1882E-03     17.8171E-03
            1469     851.578E-06     55.2340E-03    -47.5104E+06    -164.380E+06    -46.7312E+06     25.4206E+03    -55.2978E-03     110.557E-03    -55.2590E-03     9.66884E-03    -55.2305E-03     109.873E-03    -55.1854E-03     9.63646E-03
            1470     16.1743E-03     56.3157E-03    -5.49971E+06     165.390E+06     111.970E+06     1.02731E+06    -66.6081E-03     122.090E-03    -55.4819E-03     299.277E-03    -85.5664E-03     141.291E-03    -55.1539E-03     304.019E-03
            1471     15.3302E-03     55.8472E-03    -12.3792E+06     151.643E+06     92.6405E+06     41.8966E+03    -79.8307E-03     135.277E-03    -55.4465E-03     394.257E-03    -101.736E-03     157.408E-03    -55.1852E-03     392.792E-03
            1472     14.4783E-03     55.4932E-03    -16.5374E+06     109.925E+06     43.0153E+06    -1.35283E+06    -70.1279E-03     125.367E-03    -55.2390E-03     282.671E-03    -78.5899E-03     134.036E-03    -55.1594E-03     279.764E-03
            1473     13.6267E-03     55.2700E-03    -20.2245E+06     69.5645E+06    -1.06475E+06    -824.867E+03    -61.9156E-03     116.998E-03    -55.0827E-03     184.001E-03    -64.8872E-03     120.148E-03    -55.1596E-03     181.975E-03
            1474     12.7760E-03     55.1219E-03    -21.3922E+06     23.1282E+06    -12.9168E+06     480.744E+03    -59.1329E-03     114.214E-03    -55.0813E-03     136.004E-03    -60.5925E-03     115.717E-03    -55.1484E-03     134.497E-03
            1475     11.9243E-03     54.9970E-03    -21.8122E+06    -25.9520E+06    -8.45596E+06     400.720E+03    -58.0592E-03     113.225E-03    -55.1658E-03     117.692E-03    -58.9323E-03     113.953E-03    -55.1388E-03     116.508E-03
            1476     11.0721E-03     54.8858E-03    -22.7037E+06    -56.9921E+06    -7.74253E+06     124.115E+03    -57.5323E-03     112.756E-03    -55.2236E-03     106.706E-03    -58.1092E-03     113.072E-03    -55.1468E-03     105.733E-03
            1477     10.2202E-03     54.7829E-03    -23.5468E+06    -80.6566E+06    -8.13553E+06     117.518E+03    -57.4560E-03     112.720E-03    -55.2639E-03     98.5989E-03    -57.8431E-03     112.761E-03    -55.1535E-03     97.7901E-03
            1478     9.36890E-03     54.6876E-03    -24.6833E+06    -98.1867E+06    -7.74166E+06     72.1466E+03    -57.2306E-03     112.521E-03    -55.2902E-03     90.6918E-03    -57.4867E-03     112.363E-03    -55.1507E-03     90.0227E-03
            1479     8.51716E-03     54.6003E-03    -26.4281E+06    -112.297E+06    -8.19929E+06     410.977E+03    -56.8713E-03     112.180E-03    -55.3089E-03     82.7733E-03    -57.0334E-03     111.874E-03    -55.1488E-03     82.2289E-03
            1480     7.66536E-03     54.5211E-03    -28.4765E+06    -124.359E+06    -8.43874E+06     364.136E+03    -56.5936E-03     111.924E-03    -55.3306E-03     75.1552E-03    -56.6895E-03     111.502E-03    -55.1512E-03     74.7107E-03
            1481     6.81366E-03     54.4492E-03    -30.4810E+06    -133.554E+06    -10.1589E+06     328.798E+03    -56.3578E-03     111.698E-03    -55.3407E-03     67.4204E-03    -56.4046E-03     111.192E-03    -55.1537E-03     67.0602E-03
            1482     5.96194E-03     54.3854E-03    -32.5008E+06    -140.840E+06    -13.3063E+06     968.240E+03    -56.1234E-03     111.463E-03    -55.3399E-03     59.4723E-03    -56.1333E-03     110.896E-03    -55.1551E-03     59.1921E-03
            1483     5.11020E-03     54.3295E-03    -34.9821E+06    -140.334E+06    -16.8352E+06     383.394E+03    -55.8853E-03     111.212E-03    -55.3270E-03     51.4378E-03    -55.8797E-03     110.633E-03    -55.1570E-03     51.2118E-03
            1484     4.25854E-03     54.2818E-03    -37.6074E+06    -144.191E+06    -23.2967E+06    -325.867E+03    -55.6857E-03     110.994E-03    -55.3078E-03     43.2445E-03    -55.6612E-03     110.391E-03    -55.1607E-03     43.0618E-03
            1485     3.40674E-03     54.2425E-03    -40.5227E+06    -153.842E+06    -30.2641E+06     182.144E+03    -55.5394E-03     110.835E-03    -55.2954E-03     34.8674E-03    -55.4932E-03     110.186E-03    -55.1649E-03     34.7358E-03
            1486     2.55514E-03     54.2116E-03    -43.5800E+06    -158.025E+06    -36.6844E+06     420.017E+03    -55.3999E-03     110.679E-03    -55.2796E-03     26.3927E-03    -55.3452E-03     110.016E-03    -55.1707E-03     26.3028E-03
            1487     1.70330E-03     54.1893E-03    -45.8793E+06    -161.838E+06    -42.7651E+06     374.727E+03    -55.3022E-03     110.574E-03    -55.2718E-03     17.8535E-03    -55.2393E-03     109.898E-03    -55.1844E-03     17.7965E-03
            1488     851.699E-06     54.1756E-03    -47.2124E+06    -164.103E+06    -46.4081E+06     221.625E+03    -55.2987E-03     110.561E-03    -55.2624E-03     9.74581E-03    -55.2308E-03     109.878E-03    -55.1880E-03     9.71593E-03
            1489     16.1893E-03     55.2616E-03    -5.63489E+06     166.453E+06     113.359E+06     871.650E+03    -68.4675E-03     123.816E-03    -55.3487E-03     298.321E-03    -87.3499E-03     142.941E-03    -55.0151E-03     303.096E-03
            1490     15.3326E-03     54.7887E-03    -9.62827E+06     152.921E+06     94.4294E+06     853.645E+03    -77.9058E-03     133.214E-03    -55.3078E-03     394.166E-03    -99.6977E-03     155.240E-03    -55.0434E-03     393.097E-03
            1491     14.4806E-03     54.4357E-03    -15.5909E+06     110.038E+06     42.7473E+06     1.06994E+06    -69.6900E-03     124.845E-03    -55.1554E-03     282.426E-03    -78.1087E-03     133.475E-03    -55.0786E-03     279.587E-03
            1492     13.6280E-03     54.2115E-03    -19.4124E+06     70.4652E+06    -1.23258E+06     831.770E+03    -61.6090E-03     116.626E-03    -55.0167E-03     183.704E-03    -64.5497E-03     119.751E-03    -55.0968E-03     181.717E-03
            1493     12.7757E-03     54.0624E-03    -20.6849E+06     22.7005E+06    -13.5623E+06    -7.29011E+03    -58.5704E-03     113.610E-03    -55.0397E-03     135.581E-03    -60.0072E-03     115.093E-03    -55.1104E-03     134.091E-03
            1494     11.9241E-03     53.9387E-03    -21.2199E+06    -26.3224E+06    -8.19558E+06    -130.248E+03    -57.9730E-03     113.120E-03    -55.1471E-03     117.186E-03    -58.8433E-03     113.845E-03    -55.1191E-03     115.995E-03
            1495     11.0724E-03     53.8273E-03    -21.9719E+06    -56.4038E+06    -6.98482E+06     43.0549E+03    -57.6118E-03     112.814E-03    -55.2026E-03     106.464E-03    -58.1867E-03     113.131E-03    -55.1239E-03     105.488E-03
            1496     10.2209E-03     53.7243E-03    -23.3685E+06    -80.3562E+06    -7.85914E+06     32.7829E+03    -57.3749E-03     112.614E-03    -55.2396E-03     98.5635E-03    -57.7614E-03     112.656E-03    -55.1285E-03     97.7551E-03
            1497     9.36898E-03     53.6288E-03    -24.9143E+06    -98.4362E+06    -7.96142E+06     4.51682E+03    -57.1009E-03     112.373E-03    -55.2722E-03     90.7476E-03    -57.3566E-03     112.214E-03    -55.1332E-03     90.0803E-03
            1498     8.51720E-03     53.5421E-03    -26.3530E+06    -112.890E+06    -8.35308E+06     176.727E+03    -56.8224E-03     112.121E-03    -55.2988E-03     82.8696E-03    -56.9828E-03     111.812E-03    -55.1387E-03     82.3235E-03
            1499     7.66540E-03     53.4625E-03    -28.0499E+06    -123.775E+06    -8.33632E+06     381.942E+03    -56.5977E-03     111.919E-03    -55.3213E-03     75.2018E-03    -56.6922E-03     111.499E-03    -55.1428E-03     74.7580E-03
            1500     6.81372E-03     53.3908E-03    -30.8954E+06    -133.987E+06    -8.41576E+06     348.889E+03    -56.3692E-03     111.709E-03    -55.3402E-03     67.3979E-03    -56.4199E-03     111.199E-03    -55.1432E-03     67.0381E-03
            1501     5.96200E-03     53.3269E-03    -33.7147E+06    -140.526E+06    -12.7825E+06    -116.713E+03    -56.1114E-03     111.442E-03    -55.3310E-03     59.4709E-03    -56.1285E-03     110.878E-03    -55.1423E-03     59.1773E-03
            1502     5.11033E-03     53.2711E-03    -35.4263E+06    -139.276E+06    -19.1556E+06    -586.197E+03    -55.8593E-03     111.162E-03    -55.3023E-03     51.4569E-03    -55.8540E-03     110.592E-03    -55.1447E-03     51.2192E-03
            1503     4.25848E-03     53.2234E-03    -37.9610E+06    -145.293E+06    -24.8485E+06     69.3196E+03    -55.6782E-03     110.969E-03    -55.2909E-03     43.2268E-03    -55.6515E-03     110.364E-03    -55.1494E-03     43.0495E-03
            1504     3.40689E-03     53.1841E-03    -41.2115E+06    -153.892E+06    -30.1306E+06     699.618E+03    -55.5193E-03     110.806E-03    -55.2863E-03     34.8406E-03    -55.4766E-03     110.158E-03    -55.1540E-03     34.7159E-03
            1505     2.55503E-03     53.1533E-03    -43.8050E+06    -157.678E+06    -36.1348E+06     537.917E+03    -55.3846E-03     110.657E-03    -55.2725E-03     26.3717E-03    -55.3323E-03     109.994E-03    -55.1610E-03     26.2834E-03
            1506     1.70343E-03     53.1310E-03    -45.6407E+06    -161.397E+06    -42.1481E+06     314.918E+03    -55.3090E-03     110.568E-03    -55.2592E-03     17.8441E-03    -55.2465E-03     109.893E-03    -55.1697E-03     17.7864E-03
            1507     851.633E-06     53.1173E-03    -46.8328E+06    -163.628E+06    -45.7921E+06     161.122E+03    -55.2917E-03     110.523E-03    -55.2313E-03     9.78277E-03    -55.2235E-03     109.841E-03    -55.1551E-03     9.75220E-03
            1508     16.1874E-03     54.2068E-03    -6.57502E+06     165.514E+06     112.168E+06    -623.444E+03    -69.1786E-03     124.437E-03    -55.2585E-03     298.318E-03    -88.2915E-03     143.789E-03    -54.9281E-03     303.075E-03
            1509     15.3337E-03     53.7332E-03    -11.1668E+06     151.302E+06     93.9529E+06     627.415E+03    -77.8829E-03     133.112E-03    -55.2295E-03     398.987E-03    -100.035E-03     155.489E-03    -54.9629E-03     398.021E-03
            1510     14.4804E-03     53.3756E-03    -16.3355E+06     110.563E+06     45.8753E+06     2.34813E+06    -70.0815E-03     125.189E-03    -55.1072E-03     283.934E-03    -78.5067E-03     133.815E-03    -55.0145E-03     281.067E-03
            1511     13.6298E-03     53.1539E-03    -18.8759E+06     73.1670E+06     2.11452E+06     1.41529E+06    -61.5248E-03     116.485E-03    -54.9602E-03     183.581E-03    -64.4712E-03     119.618E-03    -55.0283E-03     181.607E-03
            1512     12.7771E-03     53.0049E-03    -19.9923E+06     22.9493E+06    -13.4272E+06    -131.709E+03    -58.1695E-03     113.152E-03    -54.9824E-03     135.856E-03    -59.6002E-03     114.632E-03    -55.0538E-03     134.380E-03
            1513     11.9246E-03     52.8797E-03    -20.8986E+06    -26.6777E+06    -8.48977E+06    -183.085E+03    -57.6901E-03     112.801E-03    -55.1104E-03     117.151E-03    -58.5531E-03     113.519E-03    -55.0839E-03     115.969E-03
            1514     11.0731E-03     52.7690E-03    -22.0411E+06    -56.3618E+06    -7.09640E+06     85.7271E+03    -57.5014E-03     112.681E-03    -55.1799E-03     106.768E-03    -58.0767E-03     112.999E-03    -55.1017E-03     105.794E-03
            1515     10.2209E-03     52.6658E-03    -23.2537E+06    -80.3691E+06    -7.84790E+06     138.834E+03    -57.2920E-03     112.517E-03    -55.2250E-03     98.9143E-03    -57.6776E-03     112.557E-03    -55.1140E-03     98.1102E-03
            1516     9.36899E-03     52.5707E-03    -24.7764E+06    -98.4345E+06    -8.11619E+06     171.876E+03    -57.0393E-03     112.302E-03    -55.2632E-03     90.8264E-03    -57.2932E-03     112.143E-03    -55.1251E-03     90.1635E-03
            1517     8.51714E-03     52.4834E-03    -26.5410E+06    -112.767E+06    -8.60732E+06    -90.7845E+03    -56.8413E-03     112.132E-03    -55.2909E-03     82.8513E-03    -57.0023E-03     111.824E-03    -55.1320E-03     82.3019E-03
            1518     7.66554E-03     52.4042E-03    -28.5754E+06    -124.446E+06    -9.24719E+06     266.662E+03    -56.6251E-03     111.933E-03    -55.3082E-03     75.1513E-03    -56.7198E-03     111.512E-03    -55.1325E-03     74.7061E-03
            1519     6.81375E-03     52.3323E-03    -30.6186E+06    -133.313E+06    -10.5874E+06     492.002E+03    -56.3610E-03     111.676E-03    -55.3152E-03     67.3289E-03    -56.4080E-03     111.172E-03    -55.1304E-03     66.9714E-03
            1520     5.96213E-03     52.2686E-03    -32.9277E+06    -139.181E+06    -14.7261E+06    -635.352E+03    -56.0942E-03     111.400E-03    -55.3057E-03     59.3947E-03    -56.1064E-03     110.844E-03    -55.1298E-03     59.0947E-03
            1521     5.11026E-03     52.2128E-03    -36.2576E+06    -140.476E+06    -20.4930E+06    -538.099E+03    -55.8510E-03     111.137E-03    -55.2861E-03     51.4245E-03    -55.8460E-03     110.564E-03    -55.1323E-03     51.1877E-03
            1522     4.25867E-03     52.1650E-03    -39.4292E+06    -145.972E+06    -25.1941E+06     300.712E+03    -55.6595E-03     110.939E-03    -55.2793E-03     43.1839E-03    -55.6386E-03     110.333E-03    -55.1364E-03     43.0098E-03
            1523     3.40679E-03     52.1258E-03    -41.7226E+06    -153.576E+06    -29.4713E+06     167.835E+03    -55.5047E-03     110.781E-03    -55.2763E-03     34.7974E-03    -55.4660E-03     110.134E-03    -55.1404E-03     34.6659E-03
            1524     2.55519E-03     52.0949E-03    -43.8557E+06    -157.317E+06    -35.5891E+06    -27.0864E+03    -55.3845E-03     110.642E-03    -55.2575E-03     26.3364E-03    -55.3338E-03     109.980E-03    -55.1437E-03     26.2408E-03
            1525     1.70337E-03     52.0727E-03    -45.7221E+06    -161.199E+06    -41.7489E+06    -125.454E+03    -55.3080E-03     110.542E-03    -55.2335E-03     17.8256E-03    -55.2467E-03     109.867E-03    -55.1422E-03     17.7622E-03
            1526     851.771E-06     52.0589E-03    -46.9129E+06    -163.546E+06    -45.7031E+06    -176.357E+03    -55.2715E-03     110.454E-03    -55.1821E-03     9.74364E-03    -55.2039E-03     109.772E-03    -55.1054E-03     9.70864E-03
            1527     16.1849E-03     53.1456E-03    -7.27463E+06     164.243E+06     110.512E+06    -705.889E+03    -68.4839E-03     123.784E-03    -55.3004E-03     296.361E-03    -87.4842E-03     143.021E-03    -54.9755E-03     300.905E-03
            1528     15.3331E-03     52.6768E-03    -14.3733E+06     149.198E+06     91.7837E+06    -572.810E+03    -79.3287E-03     134.571E-03    -55.2428E-03     398.403E-03    -101.472E-03     156.927E-03    -54.9793E-03     397.051E-03
            1529     14.4818E-03     52.3155E-03    -17.4763E+06     110.260E+06     46.6935E+06     103.963E+03    -69.8947E-03     124.988E-03    -55.0935E-03     284.769E-03    -78.3637E-03     133.651E-03    -54.9946E-03     281.888E-03
            1530     13.6293E-03     52.0961E-03    -18.2312E+06     73.1824E+06     3.43649E+06     653.059E+03    -61.4359E-03     116.395E-03    -54.9589E-03     184.725E-03    -64.3976E-03     119.542E-03    -55.0214E-03     182.749E-03
            1531     12.7774E-03     51.9467E-03    -18.7778E+06     23.9907E+06    -12.0604E+06     1.07966E+06    -58.4948E-03     113.471E-03    -54.9758E-03     136.988E-03    -59.9396E-03     114.969E-03    -55.0436E-03     135.513E-03
            1532     11.9253E-03     51.8222E-03    -20.2090E+06    -26.1027E+06    -7.89575E+06     474.338E+03    -57.5352E-03     112.636E-03    -55.1003E-03     118.138E-03    -58.3943E-03     113.353E-03    -55.0727E-03     116.973E-03
            1533     11.0723E-03     51.7105E-03    -21.5306E+06    -56.6654E+06    -7.12958E+06     70.1205E+03    -57.4545E-03     112.633E-03    -55.1789E-03     107.312E-03    -58.0272E-03     112.949E-03    -55.1012E-03     106.341E-03
            1534     10.2209E-03     51.6074E-03    -22.5954E+06    -80.5299E+06    -7.50067E+06     265.953E+03    -57.3944E-03     112.618E-03    -55.2241E-03     98.7421E-03    -57.7772E-03     112.657E-03    -55.1120E-03     97.9373E-03
            1535     9.36910E-03     51.5123E-03    -24.0788E+06    -97.9787E+06    -7.52059E+06     439.333E+03    -57.0872E-03     112.342E-03    -55.2552E-03     90.7539E-03    -57.3390E-03     112.183E-03    -55.1159E-03     90.0941E-03
            1536     8.51740E-03     51.4250E-03    -26.0996E+06    -112.212E+06    -8.27392E+06     247.037E+03    -56.8620E-03     112.140E-03    -55.2776E-03     82.8441E-03    -57.0219E-03     111.832E-03    -55.1184E-03     82.2993E-03
            1537     7.66557E-03     51.3456E-03    -28.0184E+06    -125.215E+06    -9.16300E+06     26.8606E+03    -56.6310E-03     111.923E-03    -55.2925E-03     75.0618E-03    -56.7217E-03     111.497E-03    -55.1161E-03     74.6137E-03
            1538     6.81401E-03     51.2739E-03    -29.6339E+06    -132.469E+06    -11.7967E+06    -197.799E+03    -56.3321E-03     111.622E-03    -55.2898E-03     67.2567E-03    -56.3734E-03     111.122E-03    -55.1137E-03     66.8909E-03
            1539     5.96210E-03     51.2102E-03    -32.1150E+06    -139.072E+06    -14.5382E+06     119.199E+03    -56.0835E-03     111.373E-03    -55.2893E-03     59.3444E-03    -56.0919E-03     110.816E-03    -55.1138E-03     59.0543E-03
            1540     5.11053E-03     51.1544E-03    -35.5927E+06    -141.383E+06    -18.2241E+06     691.790E+03    -55.8586E-03     111.138E-03    -55.2793E-03     51.3305E-03    -55.8523E-03     110.556E-03    -55.1138E-03     51.1094E-03
            1541     4.25859E-03     51.1068E-03    -38.7891E+06    -145.105E+06    -24.3490E+06     15.2116E+03    -55.6424E-03     110.902E-03    -55.2601E-03     43.1100E-03    -55.6208E-03     110.299E-03    -55.1152E-03     42.9324E-03
            1542     3.40701E-03     51.0674E-03    -41.4248E+06    -153.546E+06    -29.6775E+06    -684.686E+03    -55.4911E-03     110.743E-03    -55.2519E-03     34.7544E-03    -55.4507E-03     110.096E-03    -55.1176E-03     34.6119E-03
            1543     2.55515E-03     51.0367E-03    -43.8822E+06    -157.449E+06    -35.8302E+06    -578.299E+03    -55.3726E-03     110.603E-03    -55.2301E-03     26.3184E-03    -55.3215E-03     109.941E-03    -55.1174E-03     26.2158E-03
            1544     1.70353E-03     51.0143E-03    -45.9416E+06    -161.427E+06    -42.2194E+06    -452.168E+03    -55.2875E-03     110.488E-03    -55.2002E-03     17.8118E-03    -55.2263E-03     109.813E-03    -55.1106E-03     17.7442E-03
            1545     851.733E-06     51.0008E-03    -47.3190E+06    -164.015E+06    -46.4076E+06    -253.537E+03    -55.2304E-03     110.382E-03    -55.1513E-03     9.68268E-03    -55.1632E-03     109.699E-03    -55.0769E-03     9.64661E-03
            1546     16.1833E-03     52.0859E-03    -5.12860E+06     164.616E+06     111.730E+06     1.15782E+06    -68.3664E-03     123.666E-03    -55.3001E-03     295.835E-03    -87.1676E-03     142.710E-03    -54.9727E-03     300.403E-03
            1547     15.3342E-03     51.6145E-03    -10.9789E+06     151.060E+06     93.2824E+06     739.202E+03    -78.9499E-03     134.195E-03    -55.2451E-03     396.767E-03    -100.895E-03     156.367E-03    -54.9819E-03     395.457E-03
            1548     14.4815E-03     51.2607E-03    -16.5116E+06     110.004E+06     44.4076E+06    -500.010E+03    -69.4167E-03     124.520E-03    -55.1033E-03     285.475E-03    -77.9192E-03     133.226E-03    -55.0169E-03     282.640E-03
            1549     13.6275E-03     51.0364E-03    -19.3298E+06     70.9266E+06     495.957E+03     61.5735E+03    -61.3602E-03     116.354E-03    -54.9943E-03     185.630E-03    -64.3137E-03     119.490E-03    -55.0666E-03     183.652E-03
            1550     12.7765E-03     50.8876E-03    -19.4721E+06     24.3381E+06    -11.7616E+06     708.944E+03    -58.6763E-03     113.702E-03    -55.0256E-03     136.869E-03    -60.1254E-03     115.202E-03    -55.0915E-03     135.383E-03
            1551     11.9241E-03     50.7649E-03    -19.3382E+06    -25.0240E+06    -6.76394E+06     623.316E+03    -58.0314E-03     113.161E-03    -55.1295E-03     118.268E-03    -58.8962E-03     113.888E-03    -55.0990E-03     117.090E-03
            1552     11.0728E-03     50.6515E-03    -20.4496E+06    -56.4679E+06    -6.27528E+06     514.003E+03    -57.6894E-03     112.871E-03    -55.1820E-03     107.264E-03    -58.2593E-03     113.187E-03    -55.1019E-03     106.294E-03
            1553     10.2211E-03     50.5491E-03    -22.1902E+06    -80.7097E+06    -7.05252E+06     531.635E+03    -57.3721E-03     112.590E-03    -55.2181E-03     98.5796E-03    -57.7527E-03     112.626E-03    -55.1042E-03     97.7786E-03
            1554     9.36925E-03     50.4537E-03    -23.6474E+06    -97.7880E+06    -7.02867E+06     516.746E+03    -57.1413E-03     112.388E-03    -55.2465E-03     90.8454E-03    -57.3923E-03     112.228E-03    -55.1056E-03     90.1858E-03
            1555     8.51742E-03     50.3667E-03    -25.1466E+06    -112.009E+06    -7.63755E+06     532.781E+03    -56.9144E-03     112.177E-03    -55.2630E-03     82.8737E-03    -57.0706E-03     111.869E-03    -55.1023E-03     82.3326E-03
            1556     7.66589E-03     50.2870E-03    -27.1297E+06    -124.364E+06    -8.07285E+06    -94.8369E+03    -56.6085E-03     111.885E-03    -55.2763E-03     74.9868E-03    -56.6973E-03     111.459E-03    -55.0970E-03     74.5377E-03
            1557     6.81397E-03     50.2157E-03    -29.6279E+06    -132.949E+06    -9.42366E+06    -357.029E+03    -56.3145E-03     111.597E-03    -55.2829E-03     67.1980E-03    -56.3584E-03     111.091E-03    -55.0943E-03     66.8305E-03
            1558     5.96234E-03     50.1517E-03    -32.5409E+06    -140.309E+06    -12.6581E+06     723.328E+03    -56.0914E-03     111.370E-03    -55.2788E-03     59.2905E-03    -56.1028E-03     110.805E-03    -55.0915E-03     59.0084E-03
            1559     5.11048E-03     50.0962E-03    -35.1340E+06    -140.315E+06    -17.0108E+06     598.261E+03    -55.8448E-03     111.102E-03    -55.2570E-03     51.2305E-03    -55.8394E-03     110.523E-03    -55.0877E-03     51.0084E-03
            1560     4.25892E-03     50.0484E-03    -37.4432E+06    -144.204E+06    -23.7243E+06    -140.223E+03    -55.6247E-03     110.856E-03    -55.2317E-03     43.0629E-03    -55.5984E-03     110.254E-03    -55.0870E-03     42.8836E-03
            1561     3.40698E-03     50.0093E-03    -40.4722E+06    -153.528E+06    -30.1960E+06    -291.909E+03    -55.4690E-03     110.688E-03    -55.2188E-03     34.7321E-03    -55.4229E-03     110.041E-03    -55.0885E-03     34.5950E-03
            1562     2.55533E-03     49.9783E-03    -43.6840E+06    -157.790E+06    -36.6642E+06    -419.545E+03    -55.3427E-03     110.540E-03    -55.1974E-03     26.2976E-03    -55.2889E-03     109.877E-03    -55.0886E-03     26.1974E-03
            1563     1.70349E-03     49.9563E-03    -46.0661E+06    -161.897E+06    -43.1260E+06    -214.631E+03    -55.2491E-03     110.421E-03    -55.1722E-03     17.7897E-03    -55.1865E-03     109.746E-03    -55.0863E-03     17.7254E-03
            1564     851.799E-06     49.9425E-03    -47.5286E+06    -164.311E+06    -46.8645E+06     10.7934E+03    -55.1815E-03     110.339E-03    -55.1577E-03     9.65222E-03    -55.1142E-03     109.656E-03    -55.0849E-03     9.61971E-03
            1565     16.1885E-03     51.0267E-03    -5.76992E+06     164.092E+06     111.628E+06     253.638E+03    -68.1908E-03     123.495E-03    -55.3043E-03     298.017E-03    -87.2360E-03     142.779E-03    -54.9757E-03     302.837E-03
            1566     15.3334E-03     50.5586E-03    -10.6319E+06     151.803E+06     93.6804E+06     875.629E+03    -78.1710E-03     133.456E-03    -55.2855E-03     398.153E-03    -100.262E-03     155.777E-03    -55.0218E-03     397.120E-03
            1567     14.4791E-03     50.2012E-03    -16.1464E+06     111.296E+06     45.0255E+06     1.11998E+06    -70.0026E-03     125.161E-03    -55.1584E-03     285.570E-03    -78.4851E-03     133.851E-03    -55.0713E-03     282.714E-03
            1568     13.6290E-03     49.9786E-03    -19.3444E+06     71.4887E+06     1.01681E+06     121.095E+03    -61.7058E-03     116.731E-03    -55.0249E-03     184.984E-03    -64.6640E-03     119.871E-03    -55.0955E-03     182.989E-03
            1569     12.7751E-03     49.8295E-03    -20.0890E+06     23.4807E+06    -12.7355E+06    -631.040E+03    -58.6967E-03     113.734E-03    -55.0378E-03     135.907E-03    -60.1337E-03     115.220E-03    -55.1064E-03     134.408E-03
            1570     11.9245E-03     49.7048E-03    -20.3182E+06    -25.5445E+06    -7.70727E+06     247.746E+03    -58.2042E-03     113.336E-03    -55.1314E-03     117.401E-03    -59.0713E-03     114.062E-03    -55.1035E-03     116.212E-03
            1571     11.0730E-03     49.5936E-03    -21.4100E+06    -56.7230E+06    -6.93419E+06     837.800E+03    -57.6718E-03     112.849E-03    -55.1769E-03     107.091E-03    -58.2444E-03     113.164E-03    -55.0983E-03     106.126E-03
            1572     10.2209E-03     49.4904E-03    -22.5474E+06    -80.4465E+06    -7.29095E+06     641.263E+03    -57.3698E-03     112.584E-03    -55.2140E-03     98.8718E-03    -57.7517E-03     112.621E-03    -55.1011E-03     98.0741E-03
            1573     9.36917E-03     49.3955E-03    -23.8822E+06    -97.6399E+06    -7.24003E+06     477.288E+03    -57.2667E-03     112.504E-03    -55.2370E-03     90.8373E-03    -57.5191E-03     112.346E-03    -55.0970E-03     90.1755E-03
            1574     8.51772E-03     49.3078E-03    -25.5031E+06    -112.161E+06    -7.97399E+06     450.275E+03    -56.9287E-03     112.174E-03    -55.2455E-03     82.7219E-03    -57.0855E-03     111.865E-03    -55.0857E-03     82.1800E-03
            1575     7.66586E-03     49.2289E-03    -27.7006E+06    -123.122E+06    -8.04357E+06     264.673E+03    -56.5827E-03     111.840E-03    -55.2569E-03     74.9304E-03    -56.6759E-03     111.421E-03    -55.0785E-03     74.4868E-03
            1576     6.81424E-03     49.1571E-03    -30.9420E+06    -133.861E+06    -8.29167E+06     283.815E+03    -56.3460E-03     111.615E-03    -55.2694E-03     67.1482E-03    -56.3967E-03     111.105E-03    -55.0719E-03     66.7888E-03
            1577     5.96245E-03     49.0936E-03    -33.9282E+06    -140.429E+06    -12.6424E+06     168.138E+03    -56.0759E-03     111.329E-03    -55.2533E-03     59.2160E-03    -56.0939E-03     110.765E-03    -55.0637E-03     58.9272E-03
            1578     5.11084E-03     49.0377E-03    -36.0498E+06    -139.202E+06    -18.9116E+06    -464.687E+03    -55.7919E-03     111.012E-03    -55.2197E-03     51.2211E-03    -55.7898E-03     110.442E-03    -55.0601E-03     50.9862E-03
            1579     4.25882E-03     48.9904E-03    -38.4996E+06    -144.737E+06    -24.3934E+06    -341.852E+03    -55.5981E-03     110.803E-03    -55.2046E-03     43.0656E-03    -55.5754E-03     110.200E-03    -55.0608E-03     42.8843E-03
            1580     3.40721E-03     48.9509E-03    -41.0930E+06    -153.354E+06    -30.1761E+06     103.489E+03    -55.4508E-03     110.642E-03    -55.1914E-03     34.7183E-03    -55.4081E-03     109.997E-03    -55.0603E-03     34.5869E-03
            1581     2.55532E-03     48.9204E-03    -43.6774E+06    -157.961E+06    -37.0599E+06     287.061E+03    -55.3090E-03     110.476E-03    -55.1668E-03     26.2530E-03    -55.2543E-03     109.813E-03    -55.0597E-03     26.1621E-03
            1582     1.70359E-03     48.8979E-03    -46.0394E+06    -161.976E+06    -43.1906E+06     342.259E+03    -55.2038E-03     110.353E-03    -55.1497E-03     17.7518E-03    -55.1408E-03     109.677E-03    -55.0640E-03     17.6949E-03
            1583     851.739E-06     48.8846E-03    -47.3738E+06    -164.053E+06    -46.5738E+06     129.697E+03    -55.1578E-03     110.307E-03    -55.1490E-03     9.63778E-03    -55.0905E-03     109.624E-03    -55.0753E-03     9.60693E-03
            1584     16.1825E-03     49.9685E-03    -6.92501E+06     163.874E+06     110.669E+06    -409.901E+03    -67.3342E-03     122.722E-03    -55.3880E-03     299.532E-03    -86.5319E-03     142.156E-03    -55.0622E-03     304.335E-03
            1585     15.3296E-03     49.4984E-03    -12.9956E+06     149.973E+06     92.6381E+06    -191.343E+03    -79.2620E-03     134.634E-03    -55.3716E-03     397.887E-03    -101.459E-03     157.048E-03    -55.1070E-03     396.657E-03
            1586     14.4804E-03     49.1421E-03    -16.1676E+06     111.265E+06     47.3551E+06     174.221E+03    -70.7687E-03     125.965E-03    -55.1964E-03     283.907E-03    -79.2320E-03     134.629E-03    -55.0976E-03     280.976E-03
            1587     13.6271E-03     48.9196E-03    -17.2803E+06     73.7028E+06     4.18620E+06     184.503E+03    -62.0894E-03     117.105E-03    -55.0157E-03     183.864E-03    -65.0516E-03     120.255E-03    -55.0766E-03     181.851E-03
            1588     12.7777E-03     48.7709E-03    -19.3595E+06     22.9936E+06    -12.7368E+06     394.548E+03    -58.6960E-03     113.696E-03    -55.0003E-03     135.433E-03    -60.1208E-03     115.171E-03    -55.0693E-03     133.951E-03
            1589     11.9248E-03     48.6464E-03    -21.3856E+06    -27.1390E+06    -9.12012E+06     616.104E+03    -57.7249E-03     112.831E-03    -55.1058E-03     117.523E-03    -58.5870E-03     113.547E-03    -55.0810E-03     116.353E-03
            1590     11.0726E-03     48.5350E-03    -22.1134E+06    -56.6497E+06    -7.55202E+06     540.806E+03    -57.5828E-03     112.755E-03    -55.1720E-03     106.984E-03    -58.1572E-03     113.071E-03    -55.0955E-03     106.017E-03
            1591     10.2209E-03     48.4322E-03    -23.1148E+06    -80.0470E+06    -7.75230E+06     407.205E+03    -57.5563E-03     112.760E-03    -55.2037E-03     98.7312E-03    -57.9412E-03     112.801E-03    -55.0928E-03     97.9275E-03
            1592     9.36952E-03     48.3362E-03    -24.3910E+06    -97.6495E+06    -7.52876E+06     293.703E+03    -57.2790E-03     112.496E-03    -55.2174E-03     90.5657E-03    -57.5330E-03     112.339E-03    -55.0781E-03     89.9015E-03
            1593     8.51781E-03     48.2498E-03    -25.7819E+06    -112.093E+06    -8.21592E+06     300.190E+03    -56.8854E-03     112.109E-03    -55.2241E-03     82.5130E-03    -57.0429E-03     111.801E-03    -55.0653E-03     81.9697E-03
            1594     7.66608E-03     48.1703E-03    -27.7633E+06    -123.334E+06    -8.87869E+06     760.749E+03    -56.6021E-03     111.833E-03    -55.2309E-03     74.8718E-03    -56.6938E-03     111.414E-03    -55.0563E-03     74.4350E-03
            1595     6.81432E-03     48.0989E-03    -30.1270E+06    -133.276E+06    -8.50262E+06     688.216E+03    -56.3486E-03     111.589E-03    -55.2400E-03     67.0549E-03    -56.3955E-03     111.080E-03    -55.0456E-03     66.7013E-03
            1596     5.96274E-03     48.0351E-03    -32.7041E+06    -139.436E+06    -12.1097E+06    -388.619E+03    -56.0431E-03     111.268E-03    -55.2251E-03     59.1344E-03    -56.0570E-03     110.706E-03    -55.0360E-03     58.8389E-03
            1597     5.11071E-03     47.9798E-03    -35.7536E+06    -139.400E+06    -19.4531E+06    -536.961E+03    -55.7717E-03     110.961E-03    -55.1890E-03     51.1647E-03    -55.7669E-03     110.391E-03    -55.0323E-03     50.9293E-03
            1598     4.25910E-03     47.9319E-03    -38.8726E+06    -145.174E+06    -24.9529E+06    -255.383E+03    -55.5797E-03     110.753E-03    -55.1733E-03     42.9860E-03    -55.5572E-03     110.150E-03    -55.0312E-03     42.8061E-03
            1599     3.40716E-03     47.8930E-03    -41.8462E+06    -153.764E+06    -30.5049E+06    -47.3065E+03    -55.4190E-03     110.579E-03    -55.1600E-03     34.6383E-03    -55.3790E-03     109.933E-03    -55.0289E-03     34.5051E-03
            1600     2.55548E-03     47.8620E-03    -44.3785E+06    -158.094E+06    -36.9421E+06     358.824E+03    -55.2741E-03     110.410E-03    -55.1363E-03     26.1926E-03    -55.2228E-03     109.747E-03    -55.0274E-03     26.1027E-03
            1601     1.70359E-03     47.8402E-03    -46.0712E+06    -161.438E+06    -42.3493E+06     278.604E+03    -55.1706E-03     110.291E-03    -55.1199E-03     17.7164E-03    -55.1098E-03     109.616E-03    -55.0308E-03     17.6587E-03
            1602     851.803E-06     47.8262E-03    -47.1636E+06    -163.740E+06    -46.1401E+06     51.0416E+03    -55.1516E-03     110.241E-03    -55.0889E-03     9.64536E-03    -55.0844E-03     109.559E-03    -55.0138E-03     9.61358E-03
            1603     16.1809E-03     48.9102E-03    -4.64783E+06     165.238E+06     112.071E+06     845.414E+03    -67.5929E-03     122.962E-03    -55.3688E-03     297.122E-03    -86.4335E-03     142.047E-03    -55.0413E-03     301.744E-03
            1604     15.3319E-03     48.4362E-03    -11.9288E+06     150.349E+06     92.4935E+06    -615.674E+03    -79.1479E-03     134.468E-03    -55.3205E-03     394.313E-03    -100.997E-03     156.540E-03    -55.0587E-03     392.953E-03
            1605     14.4797E-03     48.0839E-03    -16.1795E+06     109.401E+06     44.4326E+06    -1.47668E+06    -70.3084E-03     125.435E-03    -55.1265E-03     282.132E-03    -78.7304E-03     134.059E-03    -55.0395E-03     279.201E-03
            1606     13.6302E-03     47.8596E-03    -18.9658E+06     71.7361E+06     874.341E+03     164.577E+03    -61.6348E-03     116.596E-03    -54.9615E-03     183.520E-03    -64.5801E-03     119.726E-03    -55.0337E-03     181.528E-03
            1607     12.7768E-03     47.7129E-03    -19.9002E+06     23.2349E+06    -12.5409E+06     1.59190E+06    -58.3379E-03     113.321E-03    -54.9831E-03     135.970E-03    -59.7644E-03     114.796E-03    -55.0507E-03     134.516E-03
            1608     11.9248E-03     47.5887E-03    -20.4332E+06    -25.7847E+06    -7.87439E+06     911.420E+03    -57.8639E-03     112.962E-03    -55.0982E-03     117.965E-03    -58.7296E-03     113.687E-03    -55.0706E-03     116.794E-03
            1609     11.0728E-03     47.4765E-03    -21.5491E+06    -56.3904E+06    -7.26339E+06     376.043E+03    -57.7692E-03     112.918E-03    -55.1491E-03     106.803E-03    -58.3422E-03     113.236E-03    -55.0724E-03     105.829E-03
            1610     10.2216E-03     47.3731E-03    -22.6751E+06    -79.9683E+06    -7.68245E+06     368.160E+03    -57.5363E-03     112.707E-03    -55.1705E-03     98.3788E-03    -57.9186E-03     112.747E-03    -55.0600E-03     97.5744E-03
            1611     9.36975E-03     47.2781E-03    -24.1658E+06    -97.5391E+06    -7.45517E+06     230.294E+03    -57.1323E-03     112.321E-03    -55.1884E-03     90.4337E-03    -57.3841E-03     112.162E-03    -55.0492E-03     89.7718E-03
            1612     8.51798E-03     47.1912E-03    -25.8749E+06    -112.252E+06    -8.28510E+06     212.442E+03    -56.8874E-03     112.086E-03    -55.1988E-03     82.4434E-03    -57.0448E-03     111.777E-03    -55.0399E-03     81.8993E-03
            1613     7.66631E-03     47.1121E-03    -27.4412E+06    -123.915E+06    -9.13937E+06     477.834E+03    -56.6313E-03     111.831E-03    -55.1997E-03     74.7308E-03    -56.7200E-03     111.409E-03    -55.0259E-03     74.2903E-03
            1614     6.81467E-03     47.0404E-03    -28.8945E+06    -131.874E+06    -9.79813E+06     59.4534E+03    -56.2948E-03     111.492E-03    -55.1973E-03     66.9371E-03    -56.3354E-03     110.990E-03    -55.0132E-03     66.5763E-03
            1615     5.96269E-03     46.9771E-03    -31.0861E+06    -139.235E+06    -12.2044E+06    -229.163E+03    -56.0308E-03     111.221E-03    -55.1898E-03     58.9778E-03    -56.0367E-03     110.657E-03    -55.0039E-03     58.6845E-03
            1616     5.11117E-03     46.9214E-03    -34.3305E+06    -140.190E+06    -17.4772E+06     423.701E+03    -55.7786E-03     110.940E-03    -55.1612E-03     51.0281E-03    -55.7683E-03     110.361E-03    -54.9955E-03     50.8050E-03
            1617     4.25915E-03     46.8741E-03    -38.0819E+06    -144.733E+06    -24.3708E+06     605.764E+03    -55.5573E-03     110.689E-03    -55.1321E-03     42.8770E-03    -55.5323E-03     110.086E-03    -54.9889E-03     42.7085E-03
            1618     3.40747E-03     46.8347E-03    -41.6110E+06    -153.928E+06    -30.3764E+06     265.488E+03    -55.3739E-03     110.490E-03    -55.1162E-03     34.5241E-03    -55.3326E-03     109.843E-03    -54.9846E-03     34.3951E-03
            1619     2.55549E-03     46.8043E-03    -44.3380E+06    -157.757E+06    -36.5774E+06    -146.449E+03    -55.2266E-03     110.320E-03    -55.0935E-03     26.1238E-03    -55.1761E-03     109.658E-03    -54.9833E-03     26.0276E-03
            1620     1.70373E-03     46.7819E-03    -46.1563E+06    -161.387E+06    -42.4556E+06    -321.962E+03    -55.1393E-03     110.210E-03    -55.0712E-03     17.6775E-03    -55.0788E-03     109.536E-03    -54.9825E-03     17.6122E-03
            1621     851.847E-06     46.7686E-03    -47.3477E+06    -163.810E+06    -46.2816E+06    -40.0818E+03    -55.1126E-03     110.134E-03    -55.0215E-03     9.65536E-03    -55.0459E-03     109.452E-03    -54.9468E-03     9.62250E-03
            1622     16.1904E-03     47.8531E-03    -5.11847E+06     165.797E+06     113.060E+06     381.760E+03    -69.1956E-03     124.462E-03    -55.2667E-03     297.478E-03    -88.1210E-03     143.630E-03    -54.9344E-03     302.087E-03
            1623     15.3352E-03     47.3829E-03    -9.95439E+06     153.215E+06     94.6119E+06     767.608E+03    -78.4868E-03     133.696E-03    -55.2089E-03     397.384E-03    -100.460E-03     155.903E-03    -54.9436E-03     396.230E-03
            1624     14.4829E-03     47.0231E-03    -16.4168E+06     108.646E+06     42.1891E+06     452.810E+03    -69.6122E-03     124.673E-03    -55.0606E-03     283.948E-03    -78.0391E-03     133.305E-03    -54.9834E-03     281.080E-03
            1625     13.6289E-03     46.8035E-03    -20.3091E+06     70.5014E+06    -1.57349E+06     603.464E+03    -61.0732E-03     116.018E-03    -54.9443E-03     184.343E-03    -64.0223E-03     119.149E-03    -55.0250E-03     182.383E-03
            1626     12.7763E-03     46.6544E-03    -21.0005E+06     23.8768E+06    -13.1439E+06     474.048E+03    -58.4778E-03     113.466E-03    -54.9877E-03     136.363E-03    -59.9191E-03     114.955E-03    -55.0576E-03     134.887E-03
            1627     11.9248E-03     46.5298E-03    -20.6940E+06    -24.9241E+06    -7.67500E+06     203.686E+03    -58.2860E-03     113.371E-03    -55.0851E-03     117.729E-03    -59.1589E-03     114.104E-03    -55.0574E-03     116.536E-03
            1628     11.0739E-03     46.4178E-03    -21.1633E+06    -56.0377E+06    -6.90939E+06     238.333E+03    -57.8461E-03     112.962E-03    -55.1160E-03     106.837E-03    -58.4187E-03     113.281E-03    -55.0387E-03     105.859E-03
            1629     10.2218E-03     46.3148E-03    -22.0746E+06    -79.8970E+06    -7.57538E+06     230.267E+03    -57.3938E-03     112.531E-03    -55.1372E-03     98.5212E-03    -57.7724E-03     112.569E-03    -55.0272E-03     97.7189E-03
            1630     9.36999E-03     46.2199E-03    -23.3134E+06    -97.8233E+06    -6.98462E+06     579.732E+03    -57.1468E-03     112.307E-03    -55.1603E-03     90.4231E-03    -57.3942E-03     112.145E-03    -55.0195E-03     89.7664E-03
            1631     8.51821E-03     46.1327E-03    -25.3735E+06    -111.907E+06    -7.43027E+06     664.743E+03    -56.8945E-03     112.063E-03    -55.1682E-03     82.3483E-03    -57.0506E-03     111.753E-03    -55.0063E-03     81.8108E-03
            1632     7.66671E-03     46.0536E-03    -27.5061E+06    -123.669E+06    -8.69705E+06    -57.1068E+03    -56.5958E-03     111.761E-03    -55.1654E-03     74.5817E-03    -56.6854E-03     111.339E-03    -54.9897E-03     74.1349E-03
            1633     6.81477E-03     45.9824E-03    -30.0017E+06    -131.538E+06    -11.6965E+06    -87.7077E+03    -56.2801E-03     111.430E-03    -55.1503E-03     66.8222E-03    -56.3236E-03     110.934E-03    -54.9745E-03     66.4602E-03
            1634     5.96320E-03     45.9187E-03    -33.1770E+06    -139.479E+06    -14.8491E+06     215.604E+03    -56.0083E-03     111.146E-03    -55.1373E-03     58.8765E-03    -56.0201E-03     110.588E-03    -54.9612E-03     58.5899E-03
            1635     5.11116E-03     45.8635E-03    -36.2095E+06    -140.989E+06    -17.5707E+06     496.942E+03    -55.7577E-03     110.874E-03    -55.1166E-03     50.9121E-03    -55.7553E-03     110.294E-03    -54.9475E-03     50.6903E-03
            1636     4.25952E-03     45.8158E-03    -38.6490E+06    -144.206E+06    -23.2830E+06     793.503E+03    -55.5141E-03     110.599E-03    -55.0846E-03     42.7531E-03    -55.4941E-03     109.997E-03    -54.9359E-03     42.5875E-03
            1637     3.40752E-03     45.7770E-03    -41.0447E+06    -153.120E+06    -29.5493E+06     292.836E+03    -55.3268E-03     110.389E-03    -55.0624E-03     34.4392E-03    -55.2849E-03     109.744E-03    -54.9286E-03     34.3110E-03
            1638     2.55575E-03     45.7461E-03    -43.5642E+06    -157.424E+06    -36.4440E+06    -178.379E+03    -55.1777E-03     110.212E-03    -55.0341E-03     26.0600E-03    -55.1240E-03     109.550E-03    -54.9249E-03     25.9639E-03
            1639     1.70376E-03     45.7243E-03    -45.9678E+06    -161.706E+06    -43.1370E+06    -134.401E+03    -55.0785E-03     110.088E-03    -55.0094E-03     17.6452E-03    -55.0156E-03     109.413E-03    -54.9239E-03     17.5827E-03
            1640     851.928E-06     45.7103E-03    -47.5792E+06    -164.045E+06    -46.7525E+06    -73.4220E+03    -55.0481E-03     110.017E-03    -54.9691E-03     9.63306E-03    -54.9816E-03     109.335E-03    -54.8960E-03     9.59988E-03
            1641     16.1846E-03     46.7969E-03    -6.72450E+06     164.025E+06     111.242E+06    -835.292E+03    -69.1684E-03     124.443E-03    -55.2743E-03     297.645E-03    -88.2857E-03     143.796E-03    -54.9462E-03     302.222E-03
            1642     15.3329E-03     46.3204E-03    -12.2350E+06     151.580E+06     93.1396E+06     248.510E+03    -78.7290E-03     133.953E-03    -55.2236E-03     399.344E-03    -100.977E-03     156.426E-03    -54.9600E-03     398.169E-03
            1643     14.4804E-03     45.9672E-03    -17.1742E+06     109.637E+06     45.0397E+06     1.47268E+06    -69.4453E-03     124.545E-03    -55.1002E-03     284.858E-03    -77.9026E-03     133.200E-03    -55.0091E-03     282.034E-03
            1644     13.6283E-03     45.7443E-03    -20.1720E+06     72.0959E+06     1.05680E+06     814.935E+03    -61.5374E-03     116.514E-03    -54.9765E-03     184.534E-03    -64.5036E-03     119.661E-03    -55.0465E-03     182.556E-03
            1645     12.7771E-03     45.5963E-03    -20.6642E+06     24.3437E+06    -13.4520E+06    -415.504E+03    -58.9183E-03     113.896E-03    -54.9780E-03     136.268E-03    -60.3664E-03     115.396E-03    -55.0506E-03     134.763E-03
            1646     11.9255E-03     45.4704E-03    -21.0084E+06    -25.5639E+06    -8.32731E+06    -349.719E+03    -58.1899E-03     113.254E-03    -55.0642E-03     117.982E-03    -59.0603E-03     113.983E-03    -55.0383E-03     116.787E-03
            1647     11.0735E-03     45.3594E-03    -21.9566E+06    -55.9564E+06    -7.28413E+06    -173.542E+03    -57.7951E-03     112.896E-03    -55.1010E-03     106.894E-03    -58.3710E-03     113.216E-03    -55.0244E-03     105.913E-03
            1648     10.2219E-03     45.2566E-03    -22.8838E+06    -80.0952E+06    -7.85140E+06    -92.3249E+03    -57.5399E-03     112.657E-03    -55.1174E-03     98.5192E-03    -57.9217E-03     112.696E-03    -55.0073E-03     97.7113E-03
            1649     9.37026E-03     45.1612E-03    -23.9700E+06    -98.2492E+06    -7.25094E+06     323.964E+03    -57.2386E-03     112.366E-03    -55.1275E-03     90.2767E-03    -57.4880E-03     112.203E-03    -54.9865E-03     89.6159E-03
            1650     8.51885E-03     45.0745E-03    -24.9869E+06    -111.506E+06    -7.18076E+06     522.489E+03    -56.8659E-03     111.994E-03    -55.1285E-03     82.2492E-03    -57.0202E-03     111.685E-03    -54.9665E-03     81.7114E-03
            1651     7.66672E-03     44.9954E-03    -26.7771E+06    -122.849E+06    -7.73950E+06     300.376E+03    -56.5645E-03     111.691E-03    -55.1267E-03     74.4669E-03    -56.6525E-03     111.271E-03    -54.9484E-03     74.0259E-03
            1652     6.81531E-03     44.9241E-03    -29.1737E+06    -132.178E+06    -9.33358E+06     252.975E+03    -56.2852E-03     111.402E-03    -55.1164E-03     66.6389E-03    -56.3268E-03     110.897E-03    -54.9291E-03     66.2818E-03
            1653     5.96323E-03     44.8609E-03    -31.5661E+06    -139.428E+06    -12.3135E+06     637.745E+03    -56.0087E-03     111.104E-03    -55.0950E-03     58.7605E-03    -56.0159E-03     110.540E-03    -54.9086E-03     58.4799E-03
            1654     5.11171E-03     44.8052E-03    -34.3472E+06    -140.753E+06    -15.2829E+06     292.183E+03    -55.7259E-03     110.792E-03    -55.0666E-03     50.7507E-03    -55.7177E-03     110.207E-03    -54.8891E-03     50.5269E-03
            1655     4.25966E-03     44.7582E-03    -37.3202E+06    -144.338E+06    -21.3239E+06     58.0220E+03    -55.4628E-03     110.494E-03    -55.0312E-03     42.6308E-03    -55.4387E-03     109.887E-03    -54.8745E-03     42.4561E-03
            1656     3.40786E-03     44.7189E-03    -40.1939E+06    -152.533E+06    -29.2255E+06     380.967E+03    -55.2740E-03     110.272E-03    -54.9983E-03     34.3571E-03    -55.2291E-03     109.628E-03    -54.8650E-03     34.2306E-03
            1657     2.55582E-03     44.6886E-03    -43.3522E+06    -157.413E+06    -36.4048E+06     497.116E+03    -55.1227E-03     110.090E-03    -54.9673E-03     25.9838E-03    -55.0680E-03     109.428E-03    -54.8582E-03     25.8968E-03
            1658     1.70396E-03     44.6662E-03    -45.7909E+06    -161.458E+06    -42.6816E+06     442.443E+03    -55.0092E-03     109.952E-03    -54.9424E-03     17.5913E-03    -54.9464E-03     109.277E-03    -54.8553E-03     17.5365E-03
            1659     851.907E-06     44.6530E-03    -47.2302E+06    -163.855E+06    -46.5094E+06     186.238E+03    -54.9758E-03     109.881E-03    -54.9055E-03     9.60154E-03    -54.9082E-03     109.199E-03    -54.8320E-03     9.57205E-03
            1660     16.1848E-03     45.7338E-03    -5.90258E+06     164.047E+06     111.327E+06    -58.9754E+03    -68.1628E-03     123.484E-03    -55.3215E-03     296.385E-03    -87.1848E-03     142.745E-03    -54.9941E-03     301.002E-03
            1661     15.3340E-03     45.2644E-03    -13.3226E+06     149.995E+06     91.7394E+06    -315.328E+03    -78.8668E-03     134.145E-03    -55.2778E-03     397.632E-03    -101.051E-03     156.548E-03    -55.0173E-03     396.403E-03
            1662     14.4803E-03     44.9088E-03    -18.4566E+06     108.949E+06     45.2014E+06     191.068E+03    -70.1000E-03     125.225E-03    -55.1250E-03     283.510E-03    -78.5615E-03     133.877E-03    -55.0302E-03     280.631E-03
            1663     13.6288E-03     44.6853E-03    -19.1848E+06     73.1074E+06     3.32034E+06     376.515E+03    -61.7260E-03     116.699E-03    -54.9731E-03     183.769E-03    -64.6738E-03     119.829E-03    -55.0347E-03     181.781E-03
            1664     12.7771E-03     44.5371E-03    -19.7942E+06     25.0199E+06    -12.4907E+06     215.310E+03    -58.7327E-03     113.699E-03    -54.9665E-03     136.453E-03    -60.1741E-03     115.195E-03    -55.0366E-03     134.964E-03
            1665     11.9252E-03     44.4124E-03    -21.2774E+06    -26.1334E+06    -8.76986E+06    -303.097E+03    -58.2017E-03     113.257E-03    -55.0551E-03     118.047E-03    -59.0717E-03     113.984E-03    -55.0302E-03     116.852E-03
            1666     11.0735E-03     44.3005E-03    -22.2119E+06    -56.0614E+06    -7.30129E+06    -350.985E+03    -57.9269E-03     113.013E-03    -55.0864E-03     106.576E-03    -58.5025E-03     113.332E-03    -55.0094E-03     105.591E-03
            1667     10.2223E-03     44.1978E-03    -23.4755E+06    -80.2601E+06    -7.96619E+06    -92.3684E+03    -57.6540E-03     112.744E-03    -55.0896E-03     98.0999E-03    -58.0382E-03     112.783E-03    -54.9790E-03     97.2896E-03
            1668     9.37086E-03     44.1028E-03    -24.8371E+06    -98.2231E+06    -7.92098E+06    -354.436E+03    -57.2182E-03     112.307E-03    -55.0889E-03     90.1553E-03    -57.4699E-03     112.145E-03    -54.9501E-03     89.4876E-03
            1669     8.51875E-03     44.0164E-03    -25.9871E+06    -111.836E+06    -8.18139E+06    -423.676E+03    -56.8957E-03     111.980E-03    -55.0839E-03     82.1497E-03    -57.0527E-03     111.671E-03    -54.9250E-03     81.6002E-03
            1670     7.66751E-03     43.9370E-03    -27.5034E+06    -123.114E+06    -8.00231E+06     294.450E+03    -56.5749E-03     111.652E-03    -55.0776E-03     74.2989E-03    -56.6652E-03     111.231E-03    -54.8992E-03     73.8589E-03
            1671     6.81535E-03     43.8662E-03    -30.0359E+06    -131.956E+06    -9.12909E+06     504.531E+03    -56.2678E-03     111.330E-03    -55.0622E-03     66.4650E-03    -56.3139E-03     110.827E-03    -54.8729E-03     66.1120E-03
            1672     5.96394E-03     43.8025E-03    -32.6461E+06    -139.093E+06    -12.3308E+06    -262.633E+03    -55.9783E-03     111.012E-03    -55.0335E-03     58.6009E-03    -55.9911E-03     110.451E-03    -54.8462E-03     58.3095E-03
            1673     5.11183E-03     43.7476E-03    -34.5920E+06    -140.496E+06    -15.9523E+06    -427.454E+03    -55.6609E-03     110.658E-03    -54.9973E-03     50.6365E-03    -55.6530E-03     110.075E-03    -54.8232E-03     50.4046E-03
            1674     4.26006E-03     43.7001E-03    -37.3599E+06    -144.996E+06    -22.3915E+06     152.854E+03    -55.4153E-03     110.374E-03    -54.9585E-03     42.5106E-03    -55.3887E-03     109.765E-03    -54.8060E-03     42.3378E-03
            1675     3.40800E-03     43.6615E-03    -40.8112E+06    -152.696E+06    -29.2379E+06     786.617E+03    -55.2200E-03     110.146E-03    -54.9258E-03     34.2378E-03    -55.1778E-03     109.501E-03    -54.7914E-03     34.1171E-03
            1676     2.55610E-03     43.6306E-03    -43.5547E+06    -156.892E+06    -35.5524E+06     781.034E+03    -55.0593E-03     109.950E-03    -54.8908E-03     25.8654E-03    -55.0075E-03     109.290E-03    -54.7780E-03     25.7822E-03
            1677     1.70402E-03     43.6089E-03    -45.5910E+06    -160.877E+06    -41.7349E+06     411.138E+03    -54.9411E-03     109.797E-03    -54.8561E-03     17.4835E-03    -54.8795E-03     109.124E-03    -54.7654E-03     17.4284E-03
            1678     852.079E-06     43.5950E-03    -46.8861E+06    -163.382E+06    -45.6996E+06     328.614E+03    -54.8851E-03     109.692E-03    -54.8069E-03     9.56929E-03    -54.8176E-03     109.011E-03    -54.7305E-03     9.54197E-03
            1679     16.1855E-03     44.6767E-03    -5.81540E+06     163.982E+06     111.408E+06     501.615E+03    -67.8237E-03     123.157E-03    -55.3334E-03     297.103E-03    -86.7802E-03     142.352E-03    -55.0057E-03     301.779E-03
            1680     15.3302E-03     44.2044E-03    -12.4721E+06     150.839E+06     93.1400E+06     870.265E+03    -79.0859E-03     134.387E-03    -55.3010E-03     397.712E-03    -101.202E-03     156.724E-03    -55.0360E-03     396.474E-03
            1681     14.4816E-03     43.8479E-03    -17.4231E+06     110.064E+06     44.8685E+06     159.648E+03    -70.6007E-03     125.722E-03    -55.1210E-03     283.597E-03    -79.0863E-03     134.406E-03    -55.0310E-03     280.662E-03
            1682     13.6301E-03     43.6287E-03    -20.2855E+06     72.4514E+06     684.438E+03    -372.435E+03    -61.7875E-03     116.735E-03    -54.9471E-03     184.010E-03    -64.7396E-03     119.870E-03    -55.0193E-03     182.011E-03
            1683     12.7767E-03     43.4783E-03    -20.8686E+06     24.6487E+06    -13.0394E+06    -53.6744E+03    -58.7700E-03     113.717E-03    -54.9465E-03     136.537E-03    -60.2156E-03     115.213E-03    -55.0172E-03     135.044E-03
            1684     11.9255E-03     43.3535E-03    -20.6798E+06    -25.3999E+06    -8.06956E+06    -61.1723E+03    -58.3150E-03     113.344E-03    -55.0293E-03     117.407E-03    -59.1819E-03     114.071E-03    -55.0028E-03     116.213E-03
            1685     11.0743E-03     43.2418E-03    -21.7672E+06    -56.3692E+06    -7.18452E+06    -160.510E+03    -57.9368E-03     112.988E-03    -55.0509E-03     106.353E-03    -58.5082E-03     113.303E-03    -54.9735E-03     105.372E-03
            1686     10.2228E-03     43.1390E-03    -23.0896E+06    -80.4255E+06    -7.92146E+06    -176.440E+03    -57.5837E-03     112.636E-03    -55.0526E-03     97.9333E-03    -57.9642E-03     112.672E-03    -54.9422E-03     97.1244E-03
            1687     9.37076E-03     43.0449E-03    -24.2781E+06    -97.7981E+06    -7.64837E+06    -314.506E+03    -57.2824E-03     112.330E-03    -55.0480E-03     89.9379E-03    -57.5318E-03     112.169E-03    -54.9092E-03     89.2705E-03
            1688     8.51963E-03     42.9575E-03    -26.3771E+06    -112.171E+06    -8.36136E+06    -499.397E+03    -56.9361E-03     111.969E-03    -55.0328E-03     81.8663E-03    -57.0937E-03     111.659E-03    -54.8737E-03     81.3160E-03
            1689     7.66754E-03     42.8794E-03    -28.5853E+06    -124.278E+06    -9.42080E+06    -65.7370E+03    -56.5830E-03     111.596E-03    -55.0127E-03     74.0403E-03    -56.6744E-03     111.172E-03    -54.8381E-03     73.5964E-03
            1690     6.81619E-03     42.8077E-03    -30.2956E+06    -131.093E+06    -11.4491E+06     221.510E+03    -56.2466E-03     111.227E-03    -54.9808E-03     66.2814E-03    -56.2914E-03     110.732E-03    -54.8040E-03     65.9257E-03
            1691     5.96406E-03     42.7451E-03    -32.5523E+06    -138.230E+06    -14.4701E+06    -410.090E+03    -55.9140E-03     110.862E-03    -54.9482E-03     58.3664E-03    -55.9241E-03     110.308E-03    -54.7729E-03     58.0740E-03
            1692     5.11237E-03     42.6895E-03    -36.2487E+06    -141.386E+06    -19.3972E+06    -407.706E+03    -55.6068E-03     110.514E-03    -54.9070E-03     50.4303E-03    -55.6007E-03     109.933E-03    -54.7464E-03     50.1994E-03
            1693     4.26027E-03     42.6427E-03    -39.5719E+06    -145.413E+06    -24.9124E+06     118.875E+03    -55.3622E-03     110.228E-03    -54.8662E-03     42.3100E-03    -55.3423E-03     109.624E-03    -54.7225E-03     42.1372E-03
            1694     3.40840E-03     42.6036E-03    -41.7338E+06    -152.752E+06    -28.8641E+06     60.0556E+03    -55.1562E-03     109.993E-03    -54.8367E-03     34.0633E-03    -55.1190E-03     109.349E-03    -54.6990E-03     33.9334E-03
            1695     2.55630E-03     42.5735E-03    -43.6549E+06    -156.467E+06    -34.9879E+06     2.81781E+03    -54.9743E-03     109.767E-03    -54.7930E-03     25.7454E-03    -54.9244E-03     109.108E-03    -54.6777E-03     25.6525E-03
            1696     1.70431E-03     42.5512E-03    -45.3814E+06    -160.569E+06    -41.5172E+06     65.8247E+03    -54.8532E-03     109.601E-03    -54.7477E-03     17.4059E-03    -54.7913E-03     108.928E-03    -54.6566E-03     17.3465E-03
            1697     852.125E-06     42.5381E-03    -46.6228E+06    -163.080E+06    -45.5760E+06     100.119E+03    -54.7587E-03     109.464E-03    -54.7051E-03     9.48835E-03    -54.6905E-03     108.783E-03    -54.6289E-03     9.45824E-03
            1698     16.1833E-03     43.6178E-03    -6.48632E+06     164.137E+06     111.350E+06     435.605E+03    -68.3925E-03     123.726E-03    -55.3335E-03     297.156E-03    -87.3470E-03     142.917E-03    -55.0054E-03     301.751E-03
            1699     15.3346E-03     43.1466E-03    -12.9848E+06     150.176E+06     92.3458E+06     124.997E+03    -79.0810E-03     134.357E-03    -55.2762E-03     396.706E-03    -101.089E-03     156.585E-03    -55.0134E-03     395.379E-03
            1700     14.4796E-03     42.7884E-03    -16.6201E+06     109.845E+06     45.0232E+06     437.927E+03    -69.8666E-03     124.981E-03    -55.1146E-03     283.203E-03    -78.2898E-03     133.605E-03    -55.0246E-03     280.327E-03
            1701     13.6279E-03     42.5689E-03    -19.0640E+06     72.8124E+06     1.25026E+06     89.7511E+03    -62.0251E-03     116.979E-03    -54.9539E-03     183.822E-03    -64.9797E-03     120.121E-03    -55.0256E-03     181.815E-03
            1702     12.7784E-03     42.4200E-03    -19.9580E+06     24.8864E+06    -12.8359E+06    -351.010E+03    -59.3169E-03     114.242E-03    -54.9253E-03     136.604E-03    -60.7699E-03     115.750E-03    -54.9966E-03     135.085E-03
            1703     11.9264E-03     42.2947E-03    -20.5030E+06    -24.9741E+06    -8.00354E+06    -106.953E+03    -58.3226E-03     113.310E-03    -54.9879E-03     117.565E-03    -59.1873E-03     114.037E-03    -54.9620E-03     116.373E-03
            1704     11.0747E-03     42.1832E-03    -21.4717E+06    -56.5417E+06    -7.45066E+06    -119.885E+03    -57.8663E-03     112.875E-03    -55.0085E-03     106.296E-03    -58.4335E-03     113.187E-03    -54.9326E-03     105.320E-03
            1705     10.2227E-03     42.0809E-03    -22.3897E+06    -80.2938E+06    -7.63079E+06    -223.749E+03    -57.6498E-03     112.658E-03    -55.0082E-03     97.6916E-03    -58.0259E-03     112.692E-03    -54.8974E-03     96.8830E-03
            1706     9.37183E-03     41.9858E-03    -23.9571E+06    -97.8092E+06    -7.67125E+06    -74.5278E+03    -57.3554E-03     112.347E-03    -54.9911E-03     89.5466E-03    -57.6027E-03     112.184E-03    -54.8529E-03     88.8813E-03
            1707     8.51980E-03     41.8999E-03    -25.6580E+06    -112.002E+06    -8.12160E+06     23.6169E+03    -56.9469E-03     111.912E-03    -54.9652E-03     81.5335E-03    -57.1008E-03     111.601E-03    -54.8062E-03     80.9907E-03
            1708     7.66853E-03     41.8207E-03    -27.3038E+06    -124.452E+06    -9.06950E+06    -373.622E+03    -56.5778E-03     111.514E-03    -54.9366E-03     73.7637E-03    -56.6625E-03     111.087E-03    -54.7619E-03     73.3165E-03
            1709     6.81644E-03     41.7503E-03    -29.0688E+06    -131.352E+06    -11.4792E+06    -378.701E+03    -56.2162E-03     111.111E-03    -54.8952E-03     65.9969E-03    -56.2540E-03     110.613E-03    -54.7200E-03     65.6343E-03
            1710     5.96484E-03     41.6868E-03    -31.8758E+06    -138.470E+06    -14.2176E+06     722.161E+03    -55.8735E-03     110.731E-03    -54.8571E-03     58.0500E-03    -55.8799E-03     110.174E-03    -54.6812E-03     57.7729E-03
            1711     5.11274E-03     41.6323E-03    -35.5093E+06    -141.073E+06    -18.3337E+06     935.626E+03    -55.5606E-03     110.370E-03    -54.8098E-03     50.1235E-03    -55.5525E-03     109.789E-03    -54.6455E-03     49.9103E-03
            1712     4.26086E-03     41.5848E-03    -38.5861E+06    -144.572E+06    -24.2744E+06    -384.702E+03    -55.2831E-03     110.041E-03    -54.7574E-03     42.0799E-03    -55.2603E-03     109.438E-03    -54.6132E-03     41.9011E-03
            1713     3.40874E-03     41.5466E-03    -41.0556E+06    -153.013E+06    -29.6549E+06    -1.01940E+06    -55.0516E-03     109.770E-03    -54.7186E-03     33.8887E-03    -55.0094E-03     109.125E-03    -54.5854E-03     33.7453E-03
            1714     2.55666E-03     41.5158E-03    -43.4508E+06    -156.952E+06    -35.9977E+06    -602.445E+03    -54.8584E-03     109.533E-03    -54.6744E-03     25.6398E-03    -54.8052E-03     108.873E-03    -54.5638E-03     25.5396E-03
            1715     1.70440E-03     41.4944E-03    -45.4375E+06    -160.763E+06    -42.1451E+06    -178.850E+03    -54.7347E-03     109.368E-03    -54.6334E-03     17.3483E-03    -54.6719E-03     108.695E-03    -54.5451E-03     17.2861E-03
            1716     852.304E-06     41.4805E-03    -46.6313E+06    -162.988E+06    -45.7778E+06    -54.7103E+03    -54.6302E-03     109.243E-03    -54.6127E-03     9.37704E-03    -54.5618E-03     108.563E-03    -54.5376E-03     9.34498E-03
            1717     16.1860E-03     42.5573E-03    -5.06975E+06     164.896E+06     112.432E+06     1.01934E+06    -68.7717E-03     124.087E-03    -55.3151E-03     297.727E-03    -87.7214E-03     143.278E-03    -54.9847E-03     302.326E-03
            1718     15.3329E-03     42.0871E-03    -10.5088E+06     150.864E+06     93.7110E+06     1.22328E+06    -78.9414E-03     134.190E-03    -55.2484E-03     396.279E-03    -100.840E-03     156.314E-03    -54.9833E-03     394.973E-03
            1719     14.4823E-03     41.7329E-03    -15.8280E+06     108.957E+06     44.7625E+06     786.159E+03    -69.8137E-03     124.904E-03    -55.0902E-03     283.955E-03    -78.2250E-03     133.516E-03    -55.0014E-03     281.111E-03
            1720     13.6295E-03     41.5091E-03    -17.6060E+06     74.3998E+06     2.89212E+06     606.954E+03    -62.0099E-03     116.950E-03    -54.9399E-03     183.910E-03    -64.9586E-03     120.092E-03    -55.0078E-03     181.909E-03
            1721     12.7771E-03     41.3604E-03    -18.5454E+06     25.6528E+06    -11.6384E+06     119.849E+03    -59.3102E-03     114.220E-03    -54.9099E-03     136.083E-03    -60.7544E-03     115.723E-03    -54.9784E-03     134.573E-03
            1722     11.9265E-03     41.2360E-03    -20.0990E+06    -25.6734E+06    -8.22935E+06    -171.133E+03    -58.5391E-03     113.497E-03    -54.9584E-03     117.384E-03    -59.4026E-03     114.222E-03    -54.9332E-03     116.185E-03
            1723     11.0748E-03     41.1249E-03    -20.9916E+06    -55.9379E+06    -6.97103E+06    -128.970E+03    -58.0780E-03     113.039E-03    -54.9606E-03     105.904E-03    -58.6442E-03     113.352E-03    -54.8839E-03     104.924E-03
            1724     10.2241E-03     41.0219E-03    -22.3855E+06    -80.2057E+06    -7.71051E+06    -134.905E+03    -57.7088E-03     112.651E-03    -54.9421E-03     97.3190E-03    -58.0839E-03     112.684E-03    -54.8319E-03     96.5113E-03
            1725     9.37197E-03     40.9279E-03    -23.5450E+06    -98.0717E+06    -7.41345E+06    -202.351E+03    -57.3341E-03     112.252E-03    -54.9176E-03     89.2161E-03    -57.5784E-03     112.086E-03    -54.7784E-03     88.5503E-03
            1726     8.52091E-03     40.8412E-03    -24.7885E+06    -111.932E+06      -7.827E+06     1.78228E+03    -56.9502E-03     111.833E-03    -54.8829E-03     81.1784E-03    -57.0995E-03     111.520E-03    -54.7238E-03     80.6359E-03
            1727     7.66886E-03     40.7633E-03    -26.9307E+06    -123.620E+06    -8.20547E+06    -235.022E+03    -56.5652E-03     111.412E-03    -54.8467E-03     73.4553E-03    -56.6499E-03     110.986E-03    -54.6694E-03     73.0107E-03
            1728     6.81742E-03     40.6920E-03    -29.8945E+06    -132.489E+06    -9.74109E+06    -122.713E+03    -56.1833E-03     110.987E-03    -54.8036E-03     65.6360E-03    -56.2256E-03     110.481E-03    -54.6169E-03     65.2775E-03
            1729     5.96531E-03     40.6297E-03    -32.5616E+06    -139.821E+06    -12.5490E+06     892.647E+03    -55.8191E-03     110.574E-03    -54.7546E-03     57.7593E-03    -55.8289E-03     110.008E-03    -54.5674E-03     57.4855E-03
            1730     5.11355E-03     40.5744E-03    -34.4875E+06    -139.227E+06    -16.3131E+06     664.467E+03    -55.4722E-03     110.166E-03    -54.6934E-03     49.8891E-03    -55.4644E-03     109.588E-03    -54.5231E-03     49.6734E-03
            1731     4.26136E-03     40.5280E-03    -36.8263E+06    -143.537E+06    -23.6493E+06    -305.139E+03    -55.1647E-03     109.795E-03    -54.6301E-03     41.8878E-03    -55.1352E-03     109.194E-03    -54.4868E-03     41.7111E-03
            1732     3.40923E-03     40.4890E-03    -40.1254E+06    -153.454E+06    -30.9291E+06    -383.599E+03    -54.9201E-03     109.506E-03    -54.5858E-03     33.7328E-03    -54.8706E-03     108.859E-03    -54.4597E-03     33.5986E-03
            1733     2.55691E-03     40.4593E-03    -43.3907E+06    -157.544E+06    -37.0754E+06    -225.459E+03    -54.7301E-03     109.276E-03    -54.5463E-03     25.5255E-03    -54.6741E-03     108.615E-03    -54.4403E-03     25.4309E-03
            1734     1.70470E-03     40.4370E-03    -45.6024E+06    -161.063E+06    -42.6795E+06    -121.774E+03    -54.5952E-03     109.110E-03    -54.5145E-03     17.2593E-03    -54.5319E-03     108.437E-03    -54.4282E-03     17.1984E-03
            1735     852.257E-06     40.4242E-03    -46.7297E+06    -163.019E+06    -45.9589E+06    -144.665E+03    -54.5225E-03     109.019E-03    -54.4963E-03     9.31349E-03    -54.4544E-03     108.340E-03    -54.4220E-03     9.28029E-03
            1736     16.1846E-03     41.4954E-03    -4.80049E+06     163.184E+06     111.291E+06     75.8337E+03    -68.2647E-03     123.552E-03    -55.2878E-03     297.791E-03    -87.1322E-03     142.660E-03    -54.9610E-03     302.515E-03
            1737     15.3341E-03     41.0305E-03    -11.2949E+06     150.337E+06     93.1792E+06     1.41934E+06    -78.6487E-03     133.900E-03    -55.2512E-03     396.652E-03    -100.525E-03     156.000E-03    -54.9869E-03     395.504E-03
            1738     14.4800E-03     40.6724E-03    -15.2154E+06     111.165E+06     46.1594E+06     1.15344E+06    -70.6541E-03     125.737E-03    -55.0833E-03     284.175E-03    -79.1034E-03     134.393E-03    -54.9917E-03     281.266E-03
            1739     13.6296E-03     40.4508E-03    -18.0938E+06     74.4322E+06     2.03923E+06     230.120E+03    -62.2408E-03     117.134E-03    -54.8935E-03     183.882E-03    -65.1942E-03     120.282E-03    -54.9650E-03     181.865E-03
            1740     12.7786E-03     40.3013E-03    -18.7554E+06     25.2734E+06    -12.0093E+06     77.6194E+03    -59.2033E-03     114.061E-03    -54.8579E-03     135.328E-03    -60.6399E-03     115.556E-03    -54.9274E-03     133.822E-03
            1741     11.9267E-03     40.1771E-03    -19.1740E+06    -24.9544E+06    -7.33033E+06     146.558E+03    -58.5880E-03     113.492E-03    -54.9039E-03     116.428E-03    -59.4470E-03     114.215E-03    -54.8766E-03     115.231E-03
            1742     11.0763E-03     40.0654E-03    -20.7443E+06    -56.1901E+06    -6.97423E+06     102.883E+03    -58.1402E-03     113.032E-03    -54.8920E-03     105.408E-03    -58.7041E-03     113.343E-03    -54.8153E-03     104.429E-03
            1743     10.2242E-03     39.9642E-03    -22.0118E+06    -79.8380E+06    -7.44689E+06     87.9882E+03    -57.7387E-03     112.601E-03    -54.8626E-03     97.0576E-03    -58.1121E-03     112.635E-03    -54.7522E-03     96.2530E-03
            1744     9.37336E-03     39.8689E-03    -23.6707E+06    -97.8246E+06    -7.39756E+06    -266.586E+03    -57.3311E-03     112.159E-03    -54.8280E-03     88.8627E-03    -57.5750E-03     111.993E-03    -54.6888E-03     88.1975E-03
            1745     8.52133E-03     39.7838E-03    -25.5282E+06    -112.578E+06    -8.10269E+06    -112.960E+03    -56.9257E-03     111.710E-03    -54.7846E-03     80.8130E-03    -57.0764E-03     111.394E-03    -54.6249E-03     80.2704E-03
            1746     7.67005E-03     39.7047E-03    -27.8255E+06    -123.050E+06    -8.21949E+06     418.617E+03    -56.5360E-03     111.274E-03    -54.7381E-03     73.0969E-03    -56.6251E-03     110.852E-03    -54.5605E-03     72.6622E-03
            1747     6.81801E-03     39.6349E-03    -30.7535E+06    -133.057E+06    -8.16420E+06     395.855E+03    -56.1243E-03     110.819E-03    -54.6943E-03     65.3113E-03    -56.1716E-03     110.308E-03    -54.4976E-03     64.9611E-03
            1748     5.96633E-03     39.5718E-03    -33.3726E+06    -139.632E+06    -12.5815E+06    -211.330E+03    -55.7213E-03     110.350E-03    -54.6283E-03     57.5161E-03    -55.7349E-03     109.786E-03    -54.4404E-03     57.2298E-03
            1749     5.11409E-03     39.5177E-03    -35.2952E+06    -138.507E+06    -19.0518E+06    -735.566E+03    -55.3407E-03     109.890E-03    -54.5494E-03     49.7151E-03    -55.3335E-03     109.321E-03    -54.3927E-03     49.4832E-03
            1750     4.26196E-03     39.4705E-03    -37.5958E+06    -144.351E+06    -24.5917E+06     86.2565E+03    -55.0371E-03     109.533E-03    -54.4958E-03     41.6890E-03    -55.0087E-03     108.930E-03    -54.3549E-03     41.5187E-03
            1751     3.40962E-03     39.4327E-03    -40.5423E+06    -153.209E+06    -30.3397E+06     759.937E+03    -54.7951E-03     109.249E-03    -54.4541E-03     33.5548E-03    -54.7487E-03     108.603E-03    -54.3248E-03     33.4365E-03
            1752     2.55731E-03     39.4020E-03    -43.4030E+06    -157.282E+06    -36.6586E+06     416.982E+03    -54.5992E-03     109.008E-03    -54.4093E-03     25.3684E-03    -54.5442E-03     108.347E-03    -54.3016E-03     25.2827E-03
            1753     1.70483E-03     39.3809E-03    -45.5366E+06    -160.958E+06    -42.5242E+06     53.1481E+03    -54.4603E-03     108.832E-03    -54.3721E-03     17.1278E-03    -54.3970E-03     108.159E-03    -54.2853E-03     17.0695E-03
            1754     852.486E-06     39.3670E-03    -46.8319E+06    -163.139E+06    -46.1126E+06    -55.7416E+03    -54.3923E-03     108.727E-03    -54.3350E-03     9.24337E-03    -54.3242E-03     108.048E-03    -54.2611E-03     9.21152E-03
            1755     16.1883E-03     40.4449E-03    -6.78642E+06     161.815E+06     110.072E+06    -550.180E+03    -68.5728E-03     123.895E-03    -55.3217E-03     299.190E-03    -87.6346E-03     143.188E-03    -54.9961E-03     303.835E-03
            1756     15.3307E-03     39.9683E-03    -12.4504E+06     149.823E+06     92.8833E+06     173.197E+03    -79.5877E-03     134.841E-03    -55.2537E-03     396.415E-03    -101.650E-03     157.122E-03    -54.9885E-03     395.146E-03
            1757     14.4828E-03     39.6144E-03    -15.6298E+06     112.033E+06     46.5077E+06     303.637E+03    -70.8735E-03     125.915E-03    -55.0413E-03     282.599E-03    -79.3057E-03     134.554E-03    -54.9486E-03     279.651E-03
            1758     13.6307E-03     39.3909E-03    -17.5156E+06     74.4298E+06     2.39349E+06     123.239E+03    -62.4092E-03     117.235E-03    -54.8262E-03     183.071E-03    -65.3583E-03     120.380E-03    -54.8968E-03     181.042E-03
            1759     12.7793E-03     39.2431E-03    -19.1642E+06     25.0272E+06    -12.5766E+06     118.903E+03    -59.2525E-03     114.025E-03    -54.7725E-03     135.007E-03    -60.6914E-03     115.521E-03    -54.8439E-03     133.499E-03
            1760     11.9288E-03     39.1175E-03    -20.2005E+06    -25.0682E+06    -8.11249E+06      255.43E+03    -58.3903E-03     113.207E-03    -54.8168E-03     116.427E-03    -59.2491E-03     113.929E-03    -54.7917E-03     115.239E-03
            1761     11.0763E-03     39.0079E-03    -20.7283E+06    -56.0959E+06    -7.00229E+06     237.905E+03    -58.0761E-03     112.886E-03    -54.8099E-03     105.222E-03    -58.6380E-03     113.195E-03    -54.7335E-03     104.248E-03
            1762     10.2258E-03     38.9045E-03    -21.8743E+06    -79.8252E+06    -7.51589E+06     164.697E+03    -57.7869E-03     112.560E-03    -54.7726E-03     96.6332E-03    -58.1582E-03     112.592E-03    -54.6627E-03     95.8298E-03
            1763     9.37387E-03     38.8118E-03    -23.5967E+06    -97.6837E+06    -6.98786E+06     512.831E+03    -57.3375E-03     112.066E-03    -54.7280E-03     88.4994E-03    -57.5804E-03     111.898E-03    -54.5871E-03     87.8459E-03
            1764     8.52270E-03     38.7249E-03    -26.1888E+06    -112.538E+06    -7.85516E+06     466.894E+03    -56.9130E-03     111.586E-03    -54.6735E-03     80.4845E-03    -57.0661E-03     111.270E-03    -54.5116E-03     79.9512E-03
            1765     7.67072E-03     38.6478E-03    -28.3737E+06    -123.606E+06    -9.08366E+06     438.343E+03    -56.4703E-03     111.083E-03    -54.6123E-03     72.7287E-03    -56.5591E-03     110.658E-03    -54.4373E-03     72.2965E-03
            1766     6.81909E-03     38.5768E-03    -30.2793E+06    -132.207E+06    -10.4376E+06     397.877E+03    -56.0267E-03     110.578E-03    -54.5515E-03     64.9977E-03    -56.0687E-03     110.074E-03    -54.3680E-03     64.6499E-03
            1767     5.96693E-03     38.5153E-03    -32.6767E+06    -138.268E+06    -14.5640E+06    -707.836E+03    -55.6227E-03     110.103E-03    -54.4805E-03     57.2150E-03    -55.6313E-03     109.547E-03    -54.3054E-03     56.9240E-03
            1768     5.11487E-03     38.4602E-03    -35.8324E+06    -139.584E+06    -20.5017E+06    -635.633E+03    -55.2305E-03     109.634E-03    -54.4034E-03     49.3982E-03    -55.2219E-03     109.062E-03    -54.2516E-03     49.1691E-03
            1769     4.26250E-03     38.4143E-03    -39.0645E+06    -145.366E+06    -25.5545E+06     214.185E+03    -54.9116E-03     109.259E-03    -54.3470E-03     41.4031E-03    -54.8873E-03     108.654E-03    -54.2074E-03     41.2357E-03
            1770     3.41018E-03     38.3756E-03    -41.4815E+06    -153.002E+06    -29.5729E+06     411.423E+03    -54.6676E-03     108.971E-03    -54.3032E-03     33.3077E-03    -54.6272E-03     108.326E-03    -54.1691E-03     33.1856E-03
            1771     2.55768E-03     38.3462E-03    -43.4911E+06    -156.654E+06    -35.6740E+06     371.257E+03    -54.4537E-03     108.702E-03    -54.2486E-03     25.1659E-03    -54.4013E-03     108.043E-03    -54.1368E-03     25.0803E-03
            1772     1.70523E-03     38.3240E-03    -45.4561E+06    -160.662E+06    -42.1689E+06     210.757E+03    -54.2969E-03     108.499E-03    -54.2019E-03     16.9978E-03    -54.2341E-03     107.827E-03    -54.1139E-03     16.9420E-03
            1773     852.597E-06     38.3114E-03    -46.8997E+06    -163.034E+06    -45.9843E+06     152.040E+03    -54.2318E-03     108.379E-03    -54.1475E-03     9.22809E-03    -54.1644E-03     107.700E-03    -54.0730E-03     9.19916E-03
            1774     16.1780E-03     39.3752E-03    -5.80957E+06     161.575E+06     110.327E+06     400.570E+03    -69.3214E-03     124.624E-03    -55.3030E-03     295.577E-03    -88.1812E-03     143.717E-03    -54.9772E-03     300.011E-03
            1775     15.3367E-03     38.9114E-03    -10.2735E+06     149.582E+06     93.4361E+06    -919.545E+03    -79.5939E-03     134.780E-03    -55.1863E-03     394.362E-03    -101.551E-03     156.960E-03    -54.9211E-03     392.967E-03
            1776     14.4824E-03     38.5540E-03    -15.0809E+06     112.103E+06     46.2499E+06    -354.199E+03    -70.6820E-03     125.642E-03    -54.9600E-03     282.707E-03    -79.1395E-03     134.310E-03    -54.8694E-03     279.756E-03
            1777     13.6320E-03     38.3328E-03    -18.2252E+06     73.9487E+06     1.76199E+06     475.883E+03    -62.2504E-03     117.003E-03    -54.7524E-03     183.420E-03    -65.1910E-03     120.136E-03    -54.8244E-03     181.406E-03
            1778     12.7811E-03     38.1832E-03    -19.3048E+06     25.2262E+06    -12.5806E+06     454.351E+03    -59.1976E-03     113.902E-03    -54.7046E-03     135.444E-03    -60.6363E-03     115.398E-03    -54.7761E-03     133.943E-03
            1779     11.9285E-03     38.0606E-03    -20.0958E+06    -24.6065E+06    -7.84896E+06     333.116E+03    -58.5675E-03     113.309E-03    -54.7413E-03     116.491E-03    -59.4264E-03     114.032E-03    -54.7158E-03     115.302E-03
            1780     11.0782E-03     37.9477E-03    -21.4205E+06    -55.8874E+06    -7.34122E+06     161.184E+03    -58.1509E-03     112.868E-03    -54.7171E-03     104.975E-03    -58.7137E-03     113.178E-03    -54.6417E-03     104.000E-03
            1781     10.2263E-03     37.8475E-03    -22.6334E+06    -80.3005E+06    -7.90984E+06     283.312E+03    -57.7596E-03     112.429E-03    -54.6696E-03     96.2221E-03    -58.1310E-03     112.458E-03    -54.5599E-03     95.4231E-03
            1782     9.37524E-03     37.7525E-03    -24.1505E+06    -98.1084E+06    -7.18599E+06     843.931E+03    -57.3553E-03     111.970E-03    -54.6147E-03     88.0960E-03    -57.5983E-03     111.800E-03    -54.4733E-03     87.4488E-03
            1783     8.52345E-03     37.6681E-03    -25.4640E+06    -111.473E+06    -7.27279E+06     729.409E+03    -56.8931E-03     111.440E-03    -54.5470E-03     80.0270E-03    -57.0434E-03     111.125E-03    -54.3848E-03     79.4995E-03
            1784     7.67200E-03     37.5894E-03    -27.1553E+06    -123.856E+06    -8.99104E+06     275.235E+03    -56.3912E-03     110.866E-03    -54.4744E-03     72.2677E-03    -56.4723E-03     110.437E-03    -54.3004E-03     71.8359E-03
            1785     6.81991E-03     37.5205E-03    -28.9738E+06    -131.270E+06    -11.8279E+06    -72.9695E+03    -55.9243E-03     110.322E-03    -54.3975E-03     64.6021E-03    -55.9581E-03     109.821E-03    -54.2243E-03     64.2507E-03
            1786     5.96791E-03     37.4576E-03    -31.4566E+06    -138.094E+06    -14.3851E+06     86.9332E+03    -55.5293E-03     109.857E-03    -54.3280E-03     56.8121E-03    -55.5317E-03     109.299E-03    -54.1541E-03     56.5332E-03
            1787     5.11569E-03     37.4042E-03    -35.1063E+06    -140.588E+06    -18.3678E+06     741.824E+03    -55.1420E-03     109.394E-03    -54.2516E-03     48.9861E-03    -55.1310E-03     108.812E-03    -54.0887E-03     48.7759E-03
            1788     4.26331E-03     37.3574E-03    -38.5230E+06    -144.574E+06    -24.7576E+06     356.038E+03    -54.7900E-03     108.963E-03    -54.1731E-03     41.0791E-03    -54.7650E-03     108.360E-03    -54.0314E-03     40.9147E-03
            1789     3.41080E-03     37.3199E-03    -41.2418E+06    -153.124E+06    -30.0906E+06    -321.798E+03    -54.5048E-03     108.620E-03    -54.1152E-03     33.0354E-03    -54.4620E-03     107.974E-03    -53.9838E-03     32.9049E-03
            1790     2.55823E-03     37.2895E-03    -43.7088E+06    -156.752E+06    -35.9637E+06    -65.9148E+03    -54.2653E-03     108.324E-03    -54.0585E-03     24.9773E-03    -54.2134E-03     107.664E-03    -53.9476E-03     24.8868E-03
            1791     1.70549E-03     37.2686E-03    -45.7077E+06    -160.478E+06    -42.0110E+06     180.572E+03    -54.1000E-03     108.114E-03    -54.0143E-03     16.8845E-03    -54.0389E-03     107.443E-03    -53.9254E-03     16.8290E-03
            1792     852.735E-06     37.2549E-03    -46.9613E+06    -162.755E+06    -45.7896E+06     2.07407E+03    -54.0443E-03     108.004E-03    -53.9600E-03     9.18293E-03    -53.9779E-03     107.326E-03    -53.8849E-03     9.15226E-03
            1793     16.1962E-03     38.3265E-03    -5.56121E+06     162.257E+06     110.830E+06    -292.197E+03    -69.9324E-03     125.172E-03    -55.2398E-03     295.849E-03    -88.7972E-03     144.272E-03    -54.9129E-03     300.297E-03
            1794     15.3335E-03     37.8508E-03    -9.91735E+06     149.657E+06     93.8454E+06    -648.204E+03    -79.4412E-03     134.578E-03    -55.1363E-03     397.557E-03    -101.485E-03     156.845E-03    -54.8697E-03     396.239E-03
            1795     14.4848E-03     37.4958E-03    -16.0323E+06     111.067E+06     45.4724E+06     232.397E+03    -70.9949E-03     125.918E-03    -54.9236E-03     283.489E-03    -79.4529E-03     134.582E-03    -54.8340E-03     280.518E-03
            1796     13.6325E-03     37.2734E-03    -18.8658E+06     73.8744E+06     1.45356E+06     604.515E+03    -62.3037E-03     117.013E-03    -54.7089E-03     183.528E-03    -65.2314E-03     120.131E-03    -54.7813E-03     181.524E-03
            1797     12.7799E-03     37.1255E-03    -19.6299E+06     25.5256E+06    -12.5179E+06     480.264E+03    -59.4563E-03     114.105E-03    -54.6489E-03     135.362E-03    -60.8926E-03     115.599E-03    -54.7200E-03     133.858E-03
            1798     11.9305E-03     37.0000E-03    -20.3373E+06    -24.3347E+06    -7.93387E+06     369.253E+03    -58.8458E-03     113.506E-03    -54.6603E-03     115.896E-03    -59.7051E-03     114.230E-03    -54.6351E-03     114.702E-03
            1799     11.0788E-03     36.8908E-03    -21.4860E+06    -55.7227E+06    -7.29700E+06     496.364E+03    -58.2386E-03     112.853E-03    -54.6142E-03     104.532E-03    -58.7990E-03     113.160E-03    -54.5387E-03     103.564E-03
            1800     10.2278E-03     36.7879E-03    -23.0595E+06    -80.5218E+06    -8.02266E+06     578.110E+03    -57.7870E-03     112.339E-03    -54.5517E-03     95.7660E-03    -58.1575E-03     112.365E-03    -54.4417E-03     94.9733E-03
            1801     9.37625E-03     36.6956E-03    -24.2126E+06    -98.1161E+06     -7.6383E+06     320.250E+03    -57.3494E-03     111.830E-03    -54.4804E-03     87.5757E-03    -57.5896E-03     111.658E-03    -54.3413E-03     86.9248E-03
            1802     8.52496E-03     36.6094E-03    -25.4754E+06    -111.170E+06    -7.59079E+06     312.776E+03    -56.8134E-03     111.215E-03    -54.4018E-03     79.4984E-03    -56.9619E-03     110.901E-03    -54.2416E-03     78.9690E-03
            1803     7.67301E-03     36.5331E-03    -27.2951E+06    -123.340E+06    -8.27192E+06     171.941E+03    -56.3126E-03     110.637E-03    -54.3248E-03     71.8038E-03    -56.3948E-03     110.209E-03    -54.1477E-03     71.3736E-03
            1804     6.82112E-03     36.4628E-03    -29.9610E+06    -131.291E+06    -11.3976E+06     158.374E+03    -55.8567E-03     110.092E-03    -54.2357E-03     64.1233E-03    -55.8951E-03     109.591E-03    -54.0589E-03     63.7769E-03
            1805     5.96894E-03     36.4017E-03    -33.1149E+06    -138.810E+06    -14.7807E+06     785.624E+03    -55.4151E-03     109.566E-03    -54.1505E-03     56.3374E-03    -55.4233E-03     109.006E-03    -53.9751E-03     56.0698E-03
            1806     5.11659E-03     36.3472E-03    -35.5194E+06    -140.204E+06    -17.7067E+06     661.886E+03    -55.0070E-03     109.071E-03    -54.0639E-03     48.5508E-03    -54.9991E-03     108.491E-03    -53.8976E-03     48.3412E-03
            1807     4.26420E-03     36.3018E-03    -37.5594E+06    -143.699E+06    -24.0303E+06     278.061E+03    -54.6294E-03     108.602E-03    -53.9724E-03     40.7069E-03    -54.6016E-03     108.000E-03    -53.8297E-03     40.5428E-03
            1808     3.41154E-03     36.2635E-03    -40.5204E+06    -153.007E+06    -30.5775E+06     249.234E+03    -54.3076E-03     108.211E-03    -53.9037E-03     32.7723E-03    -54.2604E-03     107.566E-03    -53.7760E-03     32.6506E-03
            1809     2.55872E-03     36.2344E-03    -43.7254E+06    -156.888E+06    -36.4865E+06    -5.09599E+03    -54.0600E-03     107.906E-03    -53.8457E-03     24.7642E-03    -54.0070E-03     107.246E-03    -53.7373E-03     24.6755E-03
            1810     1.70585E-03     36.2126E-03    -45.8463E+06    -160.430E+06    -42.2303E+06    -179.843E+03    -53.8972E-03     107.695E-03    -53.7982E-03     16.7324E-03    -53.8365E-03     107.025E-03    -53.7103E-03     16.6727E-03
            1811     852.982E-06     36.2000E-03    -47.0427E+06    -162.741E+06    -46.1062E+06    -98.6412E+03    -53.8087E-03     107.565E-03    -53.7564E-03     9.10335E-03    -53.7423E-03     106.888E-03    -53.6827E-03     9.07178E-03
            1812     16.1779E-03     37.2601E-03    -7.05249E+06     162.464E+06     109.979E+06    -1.37517E+06    -69.5102E-03     124.803E-03    -55.2926E-03     297.279E-03    -88.4907E-03     144.016E-03    -54.9680E-03     301.671E-03
            1813     15.3353E-03     36.7920E-03    -13.4114E+06     148.142E+06     92.0580E+06    -864.615E+03    -80.7660E-03     135.931E-03    -55.1654E-03     396.954E-03    -102.779E-03     158.156E-03    -54.9005E-03     395.385E-03
            1814     14.4827E-03     36.4339E-03    -17.7494E+06     109.874E+06     45.6821E+06    -416.413E+03    -71.2872E-03     126.197E-03    -54.9099E-03     282.266E-03    -79.6826E-03     134.787E-03    -54.8150E-03     279.274E-03
            1815     13.6325E-03     36.2163E-03    -19.4844E+06     73.9597E+06     1.75606E+06    -269.858E+03    -62.7391E-03     117.400E-03    -54.6609E-03     182.470E-03    -65.6682E-03     120.517E-03    -54.7312E-03     180.436E-03
            1816     12.7830E-03     36.0646E-03    -19.9378E+06     25.5692E+06    -13.0060E+06     273.906E+03    -59.7100E-03     114.276E-03    -54.5657E-03     134.964E-03    -61.1433E-03     115.767E-03    -54.6389E-03     133.454E-03
            1817     11.9308E-03     35.9427E-03    -20.7204E+06    -24.3816E+06    -8.16389E+06     666.857E+03    -58.8744E-03     113.435E-03    -54.5611E-03     115.401E-03    -59.7307E-03     114.155E-03    -54.5365E-03     114.213E-03
            1818     11.0804E-03     35.8307E-03    -21.9218E+06    -55.6158E+06    -7.40826E+06     697.198E+03    -58.3547E-03     112.855E-03    -54.4998E-03     103.991E-03    -58.9146E-03     113.161E-03    -54.4245E-03     103.026E-03
            1819     10.2291E-03     35.7311E-03    -22.9680E+06    -80.2158E+06    -8.02830E+06     456.691E+03    -57.8632E-03     112.280E-03    -54.4172E-03     95.2835E-03    -58.2309E-03     112.305E-03    -54.3077E-03     94.4916E-03
            1820     9.37787E-03     35.6365E-03    -24.2310E+06    -97.7192E+06    -7.66868E+06     189.688E+03    -57.2926E-03     111.623E-03    -54.3308E-03     87.0564E-03    -57.5309E-03     111.451E-03    -54.1923E-03     86.4079E-03
            1821     8.52613E-03     35.5531E-03    -26.0204E+06    -111.783E+06    -8.08464E+06     185.103E+03    -56.7359E-03     110.978E-03    -54.2416E-03     78.9707E-03    -56.8834E-03     110.659E-03    -54.0822E-03     78.4435E-03
            1822     7.67433E-03     35.4752E-03    -28.3697E+06    -122.809E+06    -8.24114E+06     476.524E+03    -56.2719E-03     110.424E-03    -54.1523E-03     71.2751E-03    -56.3589E-03     109.998E-03    -53.9743E-03     70.8515E-03
            1823     6.82242E-03     35.4068E-03    -31.2277E+06    -131.997E+06    -9.87228E+06     748.458E+03    -55.7919E-03     109.846E-03    -54.0542E-03     63.5196E-03    -55.8368E-03     109.340E-03    -53.8669E-03     63.1829E-03
            1824     5.97020E-03     35.3448E-03    -33.4612E+06    -137.902E+06    -14.0065E+06     234.043E+03    -55.2915E-03     109.236E-03    -53.9443E-03     55.8186E-03    -55.3031E-03     108.680E-03    -53.7658E-03     55.5461E-03
            1825     5.11787E-03     35.2917E-03    -34.9865E+06    -139.654E+06    -17.7918E+06    -882.363E+03    -54.8151E-03     108.657E-03    -53.8419E-03     48.1206E-03    -54.8045E-03     108.078E-03    -53.6777E-03     47.8936E-03
            1826     4.26510E-03     35.2457E-03    -37.2549E+06    -145.333E+06    -23.2311E+06     244.194E+03    -54.4190E-03     108.172E-03    -53.7531E-03     40.3037E-03    -54.3880E-03     107.560E-03    -53.6045E-03     40.1412E-03
            1827     3.41230E-03     35.2087E-03    -40.3795E+06    -151.959E+06    -29.2302E+06     1.19255E+06    -54.1031E-03     107.780E-03    -53.6768E-03     32.4253E-03    -54.0585E-03     107.137E-03    -53.5441E-03     32.3171E-03
            1828     2.55933E-03     35.1788E-03    -43.3167E+06    -156.154E+06    -35.8004E+06     303.365E+03    -53.8500E-03     107.455E-03    -53.6050E-03     24.4851E-03    -53.7969E-03     106.798E-03    -53.4947E-03     24.4013E-03
            1829     1.70633E-03     35.1580E-03    -45.6584E+06    -160.483E+06    -42.6491E+06    -49.4454E+03    -53.6623E-03     107.205E-03    -53.5427E-03     16.5394E-03    -53.6000E-03     106.535E-03    -53.4570E-03     16.4821E-03
            1830     853.127E-06     35.1445E-03    -47.1716E+06    -162.867E+06    -46.3869E+06     5.64913E+03    -53.5447E-03     107.047E-03    -53.5028E-03     8.98591E-03    -53.4783E-03     106.370E-03    -53.4302E-03     8.95609E-03
            1831     16.1877E-03     36.1975E-03    -5.98122E+06     163.104E+06     110.584E+06     120.240E+03    -69.4243E-03     124.699E-03    -55.2749E-03     295.233E-03    -88.0805E-03     143.593E-03    -54.9498E-03     299.561E-03
            1832     15.3349E-03     35.7313E-03    -12.9338E+06     148.483E+06     91.3590E+06    -545.274E+03    -80.5408E-03     135.664E-03    -55.1228E-03     393.246E-03    -102.173E-03     157.512E-03    -54.8626E-03     391.644E-03
            1833     14.4854E-03     35.3761E-03    -17.1217E+06     109.844E+06     45.8396E+06    -1.44399E+06    -71.2753E-03     126.132E-03    -54.8570E-03     281.651E-03    -79.6575E-03     134.711E-03    -54.7622E-03     278.644E-03
            1834     13.6347E-03     35.1548E-03    -19.7130E+06     72.2960E+06     1.28978E+06    -528.158E+03    -62.8977E-03     117.495E-03    -54.5973E-03     182.497E-03    -65.8259E-03     120.606E-03    -54.6671E-03     180.454E-03
            1835     12.7827E-03     35.0074E-03    -20.8574E+06     25.1720E+06    -13.9715E+06     494.877E+03    -59.9866E-03     114.467E-03    -54.4801E-03     135.063E-03    -61.4250E-03     115.961E-03    -54.5562E-03     133.548E-03
            1836     11.9328E-03     34.8821E-03    -21.2922E+06    -24.1897E+06     -8.5441E+06     536.419E+03    -59.0361E-03     113.491E-03    -54.4551E-03     115.093E-03    -59.8917E-03     114.210E-03    -54.4318E-03     113.903E-03
            1837     11.0816E-03     34.7736E-03    -22.1150E+06    -55.5427E+06    -7.78971E+06     443.061E+03    -58.4675E-03     112.841E-03    -54.3732E-03     103.509E-03    -59.0252E-03     113.145E-03    -54.2996E-03     102.542E-03
            1838     10.2306E-03     34.6716E-03    -23.2258E+06    -79.8900E+06    -8.29990E+06     440.216E+03    -57.9314E-03     112.202E-03    -54.2706E-03     94.7043E-03    -58.2978E-03     112.226E-03    -54.1626E-03     93.9142E-03
            1839     9.37930E-03     34.5802E-03    -24.8962E+06    -97.4364E+06    -8.04077E+06     369.739E+03    -57.2922E-03     111.458E-03    -54.1653E-03     86.3520E-03    -57.5312E-03     111.286E-03    -54.0281E-03     85.7086E-03
            1840     8.52764E-03     34.4950E-03    -26.7108E+06    -111.920E+06    -8.44784E+06     293.212E+03    -56.7336E-03     110.791E-03    -54.0572E-03     78.3107E-03    -56.8820E-03     110.472E-03    -53.8984E-03     77.7873E-03
            1841     7.67600E-03     34.4192E-03    -28.6636E+06    -123.327E+06     -9.2022E+06     727.274E+03    -56.2207E-03     110.165E-03    -53.9443E-03     70.5769E-03    -56.3055E-03     109.737E-03    -53.7700E-03     70.1592E-03
            1842     6.82387E-03     34.3497E-03    -30.9187E+06    -131.675E+06    -10.3571E+06     887.946E+03    -55.6675E-03     109.497E-03    -53.8293E-03     62.8786E-03    -55.7093E-03     108.991E-03    -53.6454E-03     62.5469E-03
            1843     5.97171E-03     34.2894E-03    -33.3803E+06    -135.442E+06    -14.5429E+06    -741.814E+03    -55.1167E-03     108.820E-03    -53.7034E-03     55.2663E-03    -55.1297E-03     108.276E-03    -53.5313E-03     54.9841E-03
            1844     5.11896E-03     34.2358E-03    -36.3723E+06    -140.526E+06    -18.9695E+06    -1.34156E+06    -54.6117E-03     108.206E-03    -53.5943E-03     47.6491E-03    -54.6043E-03     107.626E-03    -53.4327E-03     47.4188E-03
            1845     4.26623E-03     34.1910E-03    -39.4457E+06    -147.557E+06    -22.8090E+06    -192.833E+03    -54.2104E-03     107.716E-03    -53.5051E-03     39.8615E-03    -54.1873E-03     107.095E-03    -53.3480E-03     39.6953E-03
            1846     3.41320E-03     34.1533E-03    -41.4112E+06    -151.008E+06    -28.3579E+06     232.220E+03    -53.8722E-03     107.284E-03    -53.4115E-03     32.0299E-03    -53.8351E-03     106.646E-03    -53.2743E-03     31.9108E-03
            1847     2.56011E-03     34.1245E-03    -43.3258E+06    -155.804E+06    -35.4992E+06     381.734E+03    -53.5894E-03     106.915E-03    -53.3252E-03     24.1714E-03    -53.5372E-03     106.258E-03    -53.2139E-03     24.0897E-03
            1848     1.70677E-03     34.1031E-03    -45.5798E+06    -160.156E+06    -42.2064E+06     438.202E+03    -53.3826E-03     106.639E-03    -53.2565E-03     16.3286E-03    -53.3209E-03     105.969E-03    -53.1692E-03     16.2783E-03
            1849     853.476E-06     34.0907E-03    -47.0799E+06    -162.718E+06    -46.2061E+06     201.196E+03    -53.2675E-03     106.466E-03    -53.1989E-03     8.87948E-03    -53.2011E-03     105.789E-03    -53.1257E-03     8.85264E-03
            1850     16.1873E-03     35.1404E-03    -5.64114E+06     163.601E+06     111.054E+06     524.420E+03    -70.4127E-03     125.613E-03    -55.2006E-03     297.297E-03    -89.1368E-03     144.576E-03    -54.8744E-03     301.617E-03
            1851     15.3364E-03     34.6709E-03    -11.2498E+06     150.981E+06     93.5228E+06     215.998E+03    -79.9126E-03     134.978E-03    -55.0654E-03     395.322E-03    -101.661E-03     156.951E-03    -54.8004E-03     393.892E-03
            1852     14.4853E-03     34.3158E-03    -16.3997E+06     110.022E+06     44.9298E+06    -413.813E+03    -71.3045E-03     126.120E-03    -54.8156E-03     282.318E-03    -79.7070E-03     134.725E-03    -54.7267E-03     279.332E-03
            1853     13.6335E-03     34.0965E-03    -20.0813E+06     71.6900E+06     342.567E+03     34.8954E+03    -63.3811E-03     117.924E-03    -54.5432E-03     182.894E-03    -66.3153E-03     121.041E-03    -54.6163E-03     180.837E-03
            1854     12.7845E-03     33.9462E-03    -20.9441E+06     24.7648E+06    -13.6687E+06     78.2069E+03    -60.3918E-03     114.790E-03    -54.3981E-03     133.946E-03    -61.8281E-03     116.279E-03    -54.4720E-03     132.412E-03
            1855     11.9336E-03     33.8245E-03    -21.2087E+06    -25.1178E+06    -9.34295E+06     108.929E+03    -59.2421E-03     113.578E-03    -54.3361E-03     114.350E-03    -60.0903E-03     114.289E-03    -54.3157E-03     113.153E-03
            1856     11.0831E-03     33.7139E-03    -21.9757E+06    -55.4407E+06    -7.84694E+06     433.077E+03    -58.6169E-03     112.848E-03    -54.2308E-03     102.760E-03    -59.1712E-03     113.150E-03    -54.1578E-03     101.791E-03
            1857     10.2323E-03     33.6144E-03    -23.2331E+06    -79.5875E+06    -8.34687E+06     541.975E+03    -57.9929E-03     112.097E-03    -54.1041E-03     93.7579E-03    -58.3566E-03     112.120E-03    -53.9967E-03     92.9706E-03
            1858     9.38100E-03     33.5219E-03    -24.5936E+06    -97.2210E+06    -7.96012E+06     610.517E+03    -57.3590E-03     111.333E-03    -53.9742E-03     85.4742E-03    -57.5947E-03     111.160E-03    -53.8374E-03     84.8352E-03
            1859     8.52967E-03     33.4387E-03    -26.5017E+06    -111.377E+06    -8.30446E+06     520.970E+03    -56.7404E-03     110.580E-03    -53.8397E-03     77.5105E-03    -56.8867E-03     110.261E-03    -53.6813E-03     76.9923E-03
            1860     7.67771E-03     33.3621E-03    -28.2601E+06    -123.983E+06    -9.85320E+06     263.668E+03    -56.1071E-03     109.810E-03    -53.7032E-03     69.8191E-03    -56.1861E-03     109.377E-03    -53.5317E-03     69.3992E-03
            1861     6.82572E-03     33.2943E-03    -29.1177E+06    -130.611E+06    -12.4183E+06    -114.963E+03    -55.4973E-03     109.060E-03    -53.5624E-03     62.1822E-03    -55.5271E-03     108.558E-03    -53.3929E-03     61.8412E-03
            1862     5.97308E-03     33.2334E-03    -30.9292E+06    -134.558E+06    -14.4297E+06    -105.019E+03    -54.9350E-03     108.369E-03    -53.4340E-03     54.5600E-03    -54.9362E-03     107.824E-03    -53.2662E-03     54.2888E-03
            1863     5.12050E-03     33.1812E-03    -34.9370E+06    -141.101E+06    -16.8657E+06     207.778E+03    -54.4341E-03     107.756E-03    -53.3220E-03     46.9550E-03    -54.4212E-03     107.167E-03    -53.1511E-03     46.7466E-03
            1864     4.26745E-03     33.1359E-03    -38.9012E+06    -147.217E+06    -22.8767E+06    -740.451E+03    -53.9782E-03     107.183E-03    -53.2045E-03     39.3120E-03    -53.9523E-03     106.562E-03    -53.0490E-03     39.1407E-03
            1865     3.41433E-03     33.0993E-03    -41.8618E+06    -151.868E+06    -30.0472E+06    -1.02879E+06    -53.5876E-03     106.682E-03    -53.0942E-03     31.6061E-03    -53.5488E-03     106.042E-03    -52.9635E-03     31.4723E-03
            1866     2.56086E-03     33.0701E-03    -44.1881E+06    -156.324E+06    -36.3135E+06    -152.325E+03    -53.2781E-03     106.284E-03    -53.0061E-03     23.8478E-03    -53.2281E-03     105.628E-03    -52.8970E-03     23.7604E-03
            1867     1.70737E-03     33.0496E-03    -45.8120E+06    -159.848E+06    -41.8572E+06     215.769E+03    -53.0648E-03     106.002E-03    -52.9373E-03     16.1150E-03    -53.0051E-03     105.334E-03    -52.8484E-03     16.0627E-03
            1868     853.650E-06     33.0365E-03    -46.9101E+06    -162.235E+06    -45.8002E+06     154.408E+03    -52.9486E-03     105.821E-03    -52.8725E-03     8.74096E-03    -52.8826E-03     105.146E-03    -52.7982E-03     8.71390E-03
            1869     16.1874E-03     34.0823E-03    -5.69978E+06     164.261E+06     111.283E+06     375.466E+03    -70.6707E-03     125.917E-03    -55.2462E-03     297.108E-03    -89.5911E-03     145.077E-03    -54.9197E-03     301.332E-03
            1870     15.3360E-03     33.6092E-03    -11.9267E+06     151.205E+06     92.6093E+06    -180.224E+03    -80.7991E-03     135.879E-03    -55.0797E-03     396.109E-03    -102.814E-03     158.119E-03    -54.8186E-03     394.558E-03
            1871     14.4846E-03     33.2583E-03    -17.0202E+06     109.659E+06     45.6496E+06     144.252E+03    -72.2099E-03     126.992E-03    -54.7817E-03     280.772E-03    -80.5974E-03     135.576E-03    -54.6878E-03     277.727E-03
            1872     13.6359E-03     33.0337E-03    -19.0226E+06     72.4317E+06     2.42002E+06     243.632E+03    -63.8695E-03     118.325E-03    -54.4553E-03     181.113E-03    -66.7834E-03     121.421E-03    -54.5207E-03     179.037E-03
            1873     12.7858E-03     32.8879E-03    -20.0634E+06     24.3014E+06    -13.8980E+06    -102.660E+03    -60.4513E-03     114.720E-03    -54.2684E-03     132.450E-03    -61.8657E-03     116.189E-03    -54.3440E-03     130.918E-03
            1874     11.9355E-03     32.7645E-03    -21.0748E+06    -24.9896E+06    -9.43286E+06     248.179E+03    -59.4340E-03     113.618E-03    -54.1835E-03     113.236E-03    -60.2759E-03     114.323E-03    -54.1639E-03     112.040E-03
            1875     11.0852E-03     32.6559E-03    -22.2023E+06    -55.5504E+06    -8.12172E+06     371.019E+03    -58.6707E-03     112.723E-03    -54.0522E-03     101.577E-03    -59.2204E-03     113.020E-03    -53.9801E-03     100.610E-03
            1876     10.2343E-03     32.5560E-03    -23.1566E+06    -79.4087E+06    -8.40711E+06     485.809E+03    -57.9959E-03     111.900E-03    -53.9039E-03     92.7792E-03    -58.3554E-03     111.920E-03    -53.7973E-03     91.9946E-03
            1877     9.38324E-03     32.4650E-03    -24.4240E+06    -97.1070E+06    -8.16943E+06     523.310E+03    -57.3830E-03     111.133E-03    -53.7500E-03     84.6300E-03    -57.6148E-03     110.957E-03    -53.6146E-03     83.9928E-03
            1878     8.53165E-03     32.3815E-03    -25.7029E+06    -111.017E+06    -8.19655E+06     506.183E+03    -56.6947E-03     110.286E-03    -53.5913E-03     76.6257E-03    -56.8353E-03     109.965E-03    -53.4340E-03     76.1110E-03
            1879     7.67996E-03     32.3064E-03    -27.3205E+06    -122.890E+06    -9.11203E+06    -163.521E+03    -55.9768E-03     109.413E-03    -53.4357E-03     69.0017E-03    -56.0517E-03     108.981E-03    -53.2635E-03     68.5803E-03
            1880     6.82752E-03     32.2384E-03    -29.8190E+06    -130.830E+06    -12.4591E+06    -624.352E+03    -55.3245E-03     108.602E-03    -53.2771E-03     61.4078E-03    -55.3559E-03     108.099E-03    -53.1064E-03     61.0641E-03
            1881     5.97510E-03     32.1788E-03    -32.5153E+06    -135.528E+06    -15.2828E+06     283.387E+03    -54.7494E-03     107.877E-03    -53.1275E-03     53.8339E-03    -54.7547E-03     107.330E-03    -52.9603E-03     53.5710E-03
            1882     5.12213E-03     32.1262E-03    -34.3929E+06    -140.184E+06    -15.9346E+06     250.355E+03    -54.2044E-03     107.203E-03    -52.9988E-03     46.2825E-03    -54.1906E-03     106.616E-03    -52.8253E-03     46.0775E-03
            1883     4.26903E-03     32.0822E-03    -36.9693E+06    -146.474E+06    -22.3057E+06    -146.143E+03    -53.6964E-03     106.558E-03    -52.8617E-03     38.7080E-03    -53.6623E-03     105.937E-03    -52.7073E-03     38.5467E-03
            1884     3.41545E-03     32.0454E-03    -40.8183E+06    -152.455E+06    -31.0545E+06    -181.961E+03    -53.2625E-03     105.999E-03    -52.7368E-03     31.1027E-03    -53.2158E-03     105.356E-03    -52.6118E-03     30.9818E-03
            1885     2.56183E-03     32.0171E-03    -44.1182E+06    -156.714E+06    -37.4424E+06    -433.386E+03    -52.9343E-03     105.577E-03    -52.6430E-03     23.4775E-03    -52.8816E-03     104.920E-03    -52.5390E-03     23.3881E-03
            1886     1.70792E-03     31.9962E-03    -46.1046E+06    -160.118E+06    -42.8481E+06    -344.691E+03    -52.7052E-03     105.276E-03    -52.5713E-03     15.8695E-03    -52.6450E-03     104.609E-03    -52.4865E-03     15.8109E-03
            1887     854.061E-06     31.9838E-03    -47.2094E+06    -162.145E+06    -46.1469E+06    -132.167E+03    -52.5870E-03     105.092E-03    -52.5049E-03     8.59138E-03    -52.5221E-03     104.418E-03    -52.4320E-03     8.56098E-03
            1888     16.1837E-03     33.0184E-03    -5.44433E+06     164.249E+06     111.387E+06     210.969E+03    -70.7530E-03     126.038E-03    -55.2851E-03     295.416E-03    -89.5696E-03     145.095E-03    -54.9584E-03     299.456E-03
            1889     15.3340E-03     32.5485E-03    -11.5828E+06     151.504E+06     93.1771E+06     428.846E+03    -82.1542E-03     137.217E-03    -55.0623E-03     393.555E-03    -104.035E-03     159.323E-03    -54.7993E-03     391.757E-03
            1890     14.4880E-03     32.1943E-03    -16.6520E+06     109.511E+06     45.3741E+06     212.242E+03    -73.0944E-03     127.769E-03    -54.6744E-03     278.671E-03    -81.4202E-03     136.293E-03    -54.5822E-03     275.551E-03
            1891     13.6386E-03     31.9759E-03    -18.8198E+06     72.2735E+06     1.84316E+06     413.991E+03    -63.9933E-03     118.291E-03    -54.2979E-03     179.912E-03    -66.8873E-03     121.370E-03    -54.3662E-03     177.839E-03
            1892     12.7877E-03     31.8273E-03    -20.5295E+06     24.8935E+06    -13.9511E+06      810.03E+03    -60.4694E-03     114.562E-03    -54.0931E-03     131.516E-03    -61.8706E-03     116.020E-03    -54.1692E-03     130.005E-03
            1893     11.9381E-03     31.7059E-03    -21.5125E+06    -24.6090E+06    -9.80896E+06     229.883E+03    -59.4421E-03     113.431E-03    -53.9892E-03     112.134E-03    -60.2796E-03     114.134E-03    -53.9714E-03     110.941E-03
            1894     11.0875E-03     31.5972E-03    -22.2613E+06    -55.5076E+06    -8.40264E+06     195.615E+03    -58.6271E-03     112.468E-03    -53.8408E-03     100.714E-03    -59.1701E-03     112.759E-03    -53.7701E-03     99.7519E-03
            1895     10.2367E-03     31.4988E-03    -23.3375E+06    -79.5128E+06    -8.89573E+06     389.046E+03    -58.0014E-03     111.674E-03    -53.6724E-03     91.9338E-03    -58.3567E-03     111.690E-03    -53.5678E-03     91.1525E-03
            1896     9.38546E-03     31.4075E-03    -24.5003E+06    -97.0043E+06    -8.50211E+06     305.927E+03    -57.3405E-03     110.837E-03    -53.4960E-03     83.7091E-03    -57.5686E-03     110.658E-03    -53.3623E-03     83.0742E-03
            1897     8.53414E-03     31.3254E-03    -25.9883E+06    -110.840E+06    -8.54222E+06     127.770E+03    -56.5984E-03     109.914E-03    -53.3152E-03     75.6617E-03    -56.7372E-03     109.591E-03    -53.1595E-03     75.1468E-03
            1898     7.68206E-03     31.2505E-03    -28.0462E+06    -121.899E+06    -9.12993E+06    -5.45670E+03    -55.8549E-03     108.993E-03    -53.1379E-03     68.0789E-03    -55.9326E-03     108.565E-03    -52.9661E-03     67.6638E-03
            1899     6.82986E-03     31.1837E-03    -30.8521E+06    -131.448E+06    -11.2166E+06     240.149E+03    -55.1686E-03     108.133E-03    -52.9640E-03     60.5622E-03    -55.2043E-03     107.625E-03    -52.7848E-03     60.2338E-03
            1900     5.97703E-03     31.1241E-03    -33.4675E+06    -135.324E+06    -15.3466E+06    -236.918E+03    -54.5160E-03     107.300E-03    -52.7844E-03     53.0718E-03    -54.5248E-03     106.755E-03    -52.6164E-03     52.8065E-03
            1901     5.12404E-03     31.0726E-03    -35.9252E+06    -139.645E+06    -18.3541E+06    -880.088E+03    -53.9051E-03     106.532E-03    -52.6274E-03     45.6142E-03    -53.8952E-03     105.953E-03    -52.4646E-03     45.3984E-03
            1902     4.27053E-03     31.0285E-03    -38.5293E+06    -147.625E+06    -23.2612E+06     -94.304E+03    -53.3812E-03     105.867E-03    -52.4854E-03     38.0929E-03    -53.3512E-03     105.243E-03    -52.3318E-03     37.9349E-03
            1903     3.41690E-03     30.9927E-03    -40.9651E+06    -151.954E+06    -30.3769E+06     630.068E+03    -52.9207E-03     105.270E-03    -52.3488E-03     30.5814E-03    -52.8760E-03     104.628E-03    -52.2210E-03     30.4732E-03
            1904     2.56281E-03     30.9642E-03    -43.6412E+06    -156.356E+06    -37.4510E+06     283.319E+03    -52.5544E-03     104.793E-03    -52.2390E-03     23.0765E-03    -52.4995E-03     104.137E-03    -52.1363E-03     22.9980E-03
            1905     1.70871E-03     30.9441E-03    -46.0964E+06    -160.322E+06    -43.7695E+06    -23.8431E+03    -52.2985E-03     104.458E-03    -52.1596E-03     15.5933E-03    -52.2366E-03     103.790E-03    -52.0791E-03     15.5400E-03
            1906     854.293E-06     30.9314E-03    -47.5319E+06    -162.339E+06    -46.9852E+06    -82.5008E+03    -52.1793E-03     104.272E-03    -52.0926E-03     8.48831E-03    -52.1145E-03     103.598E-03    -52.0232E-03     8.45927E-03
            1907     16.1860E-03     31.9579E-03    -5.57925E+06     163.745E+06     110.763E+06    -237.397E+03    -71.9042E-03     127.100E-03    -55.1956E-03     293.210E-03    -90.4678E-03     145.904E-03    -54.8711E-03     297.041E-03
            1908     15.3396E-03     31.4859E-03    -11.4762E+06     150.987E+06     93.6199E+06     309.911E+03    -82.2945E-03     137.223E-03    -54.9287E-03     391.978E-03    -103.938E-03     159.091E-03    -54.6629E-03     390.128E-03
            1909     14.4890E-03     31.1336E-03    -16.3275E+06     109.484E+06     45.0966E+06     1.11428E+06    -72.9578E-03     127.479E-03    -54.5209E-03     277.627E-03    -81.2215E-03     135.942E-03    -54.4305E-03     274.522E-03
            1910     13.6398E-03     30.9147E-03    -19.7660E+06     72.3860E+06      106.33E+03     940.587E+03    -64.2066E-03     118.326E-03    -54.1198E-03     178.497E-03    -67.0839E-03     121.390E-03    -54.1956E-03     176.427E-03
            1911     12.7913E-03     30.7685E-03    -20.3423E+06     25.8323E+06    -13.6891E+06     585.664E+03    -60.5163E-03     114.413E-03    -53.8965E-03     130.743E-03    -61.9091E-03     115.865E-03    -53.9729E-03     129.233E-03
            1912     11.9404E-03     30.6468E-03    -20.6493E+06    -24.2745E+06    -9.44202E+06     378.619E+03    -59.3128E-03     113.092E-03    -53.7795E-03     111.583E-03    -60.1380E-03     113.785E-03    -53.7616E-03     110.402E-03
            1913     11.0899E-03     30.5395E-03    -21.8606E+06    -55.7104E+06    -8.53513E+06     321.021E+03    -58.7044E-03     112.318E-03    -53.6134E-03     99.9310E-03    -59.2396E-03     112.602E-03    -53.5436E-03     98.9742E-03
            1914     10.2392E-03     30.4408E-03    -23.1043E+06    -79.4709E+06    -8.87542E+06     361.554E+03    -58.0581E-03     111.476E-03    -53.4180E-03     91.0047E-03    -58.4080E-03     111.488E-03    -53.3136E-03     90.2269E-03
            1915     9.38830E-03     30.3511E-03    -24.5525E+06    -96.7120E+06    -8.58602E+06     373.972E+03    -57.2768E-03     110.491E-03    -53.2145E-03     82.6711E-03    -57.5015E-03     110.310E-03    -53.0816E-03     82.0425E-03
            1916     8.53656E-03     30.2691E-03    -26.3209E+06    -110.486E+06    -8.58416E+06     141.485E+03    -56.4833E-03     109.494E-03    -53.0107E-03     74.6463E-03    -56.6209E-03     109.171E-03    -52.8553E-03     74.1372E-03
            1917     7.68474E-03     30.1955E-03    -28.3905E+06    -122.099E+06    -9.38536E+06     245.927E+03    -55.7431E-03     108.551E-03    -52.8074E-03     67.0532E-03    -55.8194E-03     108.120E-03    -52.6362E-03     66.6459E-03
            1918     6.83219E-03     30.1289E-03    -30.2532E+06    -131.243E+06    -11.2644E+06     136.077E+03    -54.9845E-03     107.590E-03    -52.6059E-03     59.6099E-03    -55.0155E-03     107.081E-03    -52.4280E-03     59.2848E-03
            1919     5.97945E-03     30.0705E-03    -32.3754E+06    -134.342E+06    -14.8041E+06    -308.413E+03    -54.2397E-03     106.646E-03    -52.4060E-03     52.2090E-03    -54.2438E-03     106.101E-03    -52.2383E-03     51.9474E-03
            1920     5.12599E-03     30.0193E-03    -35.5139E+06    -139.880E+06    -19.2194E+06    -397.925E+03    -53.5893E-03     105.817E-03    -52.2281E-03     44.8439E-03    -53.5747E-03     105.236E-03    -52.0699E-03     44.6383E-03
            1921     4.27236E-03     29.9761E-03    -38.9500E+06    -148.720E+06    -24.9863E+06    -221.711E+03    -53.0355E-03     105.104E-03    -52.0687E-03     37.4033E-03    -53.0027E-03     104.478E-03    -51.9216E-03     37.2467E-03
            1922     3.41824E-03     29.9404E-03    -41.7807E+06    -152.191E+06    -30.7085E+06     251.715E+03    -52.5389E-03     104.463E-03    -51.9238E-03     30.0239E-03    -52.4970E-03     103.821E-03    -51.7961E-03     29.9133E-03
            1923     2.56403E-03     29.9128E-03    -44.1305E+06    -155.870E+06    -36.7908E+06     755.891E+03    -52.1439E-03     103.948E-03    -51.8043E-03     22.6708E-03    -52.0929E-03     103.294E-03    -51.6982E-03     22.6003E-03
            1924     1.70939E-03     29.8925E-03    -46.2391E+06    -159.802E+06    -43.1169E+06     621.232E+03    -51.8672E-03     103.579E-03    -51.7121E-03     15.3010E-03    -51.8076E-03     102.913E-03    -51.6290E-03     15.2573E-03
            1925     854.796E-06     29.8804E-03    -47.6786E+06    -162.082E+06    -46.8796E+06     262.314E+03    -51.7243E-03     103.358E-03    -51.6338E-03     8.33989E-03    -51.6607E-03     102.686E-03    -51.5640E-03     8.31606E-03
            1926     16.1914E-03     30.8974E-03    -5.86603E+06     164.003E+06     110.851E+06     139.457E+03    -73.6282E-03     128.724E-03    -55.0958E-03     292.800E-03    -92.2502E-03     147.586E-03    -54.7708E-03     296.447E-03
            1927     15.3397E-03     30.4248E-03    -11.1491E+06     150.609E+06     93.4104E+06     576.103E+03    -82.6199E-03     137.400E-03    -54.7804E-03     393.343E-03    -104.416E-03     159.421E-03    -54.5156E-03     391.492E-03
            1928     14.4921E-03     30.0726E-03    -16.3499E+06     109.664E+06     46.8061E+06     1.41173E+06    -73.0583E-03     127.424E-03    -54.3653E-03     276.761E-03    -81.2772E-03     135.838E-03    -54.2666E-03     273.646E-03
            1929     13.6437E-03     29.8540E-03    -19.0849E+06     73.6691E+06     2.31209E+06     1.27298E+06    -64.0640E-03     118.015E-03    -53.9510E-03     177.680E-03    -66.9077E-03     121.046E-03    -54.0186E-03     175.630E-03
            1930     12.7929E-03     29.7097E-03    -20.1076E+06     25.8701E+06    -14.3941E+06     258.082E+03    -60.5726E-03     114.276E-03    -53.7037E-03     130.122E-03    -61.9554E-03     115.721E-03    -53.7841E-03     128.611E-03
            1931     11.9430E-03     29.5884E-03    -20.8450E+06    -24.2262E+06    -9.97879E+06     437.885E+03    -59.5139E-03     113.077E-03    -53.5631E-03     110.995E-03    -60.3318E-03     113.764E-03    -53.5477E-03     109.819E-03
            1932     11.0927E-03     29.4813E-03    -21.8411E+06    -55.5475E+06    -8.81688E+06     684.286E+03    -58.8216E-03     112.188E-03    -53.3664E-03     99.0181E-03    -59.3514E-03     112.469E-03    -53.2983E-03     98.0685E-03
            1933     10.2422E-03     29.3837E-03    -23.2138E+06    -79.3274E+06    -9.16652E+06     522.195E+03    -58.0909E-03     111.232E-03    -53.1407E-03     89.9951E-03    -58.4361E-03     111.239E-03    -53.0379E-03     89.2245E-03
            1934     9.39104E-03     29.2945E-03    -24.6801E+06     -96.421E+06    -8.73359E+06     509.158E+03    -57.2447E-03     110.153E-03    -52.9086E-03     81.6001E-03    -57.4659E-03     109.970E-03    -52.7767E-03     80.9790E-03
            1935     8.53957E-03     29.2138E-03    -26.4870E+06    -110.151E+06    -8.77147E+06     476.247E+03    -56.4162E-03     109.091E-03    -52.6747E-03     73.5892E-03    -56.5514E-03     108.766E-03    -52.5204E-03     73.0901E-03
            1936     7.68742E-03     29.1405E-03    -28.6193E+06    -122.197E+06    -9.61404E+06     263.504E+03    -55.5951E-03     108.037E-03    -52.4423E-03     65.9499E-03    -55.6694E-03     107.604E-03    -52.2717E-03     65.5483E-03
            1937     6.83503E-03     29.0752E-03    -31.1863E+06    -130.593E+06    -12.9534E+06     19.9473E+03    -54.7416E-03     106.949E-03    -52.2076E-03     58.5504E-03    -54.7736E-03     106.445E-03    -52.0378E-03     58.2290E-03
            1938     5.98175E-03     29.0172E-03    -33.8306E+06    -134.065E+06    -17.3161E+06    -298.040E+03    -53.9410E-03     105.924E-03    -51.9832E-03     51.2796E-03    -53.9476E-03     105.385E-03    -51.8264E-03     51.0232E-03
            1939     5.12828E-03     28.9670E-03    -36.1957E+06    -140.415E+06    -20.2394E+06    -58.7160E+03    -53.2560E-03     105.049E-03    -51.7926E-03     44.0003E-03    -53.2414E-03     104.466E-03    -51.6377E-03     43.8033E-03
            1940     4.27423E-03     28.9242E-03    -38.8757E+06    -148.815E+06    -25.8259E+06     309.776E+03    -52.6438E-03     104.259E-03    -51.6152E-03     36.6422E-03    -52.6086E-03     103.632E-03    -51.4722E-03     36.4960E-03
            1941     3.41993E-03     28.8894E-03    -41.9492E+06    -152.539E+06    -31.6702E+06     348.128E+03    -52.1119E-03     103.570E-03    -51.4577E-03     29.4103E-03    -52.0685E-03     102.928E-03    -51.3340E-03     29.3036E-03
            1942     2.56511E-03     28.8618E-03    -44.6481E+06    -155.769E+06    -36.8068E+06     415.147E+03    -51.7038E-03     103.034E-03    -51.3300E-03     22.1920E-03    -51.6552E-03     102.380E-03    -51.2234E-03     22.1190E-03
            1943     1.71032E-03     28.8422E-03    -46.3999E+06    -159.089E+06    -42.3924E+06     412.316E+03    -51.4060E-03     102.630E-03    -51.2240E-03     14.9717E-03    -51.3492E-03     101.967E-03    -51.1380E-03     14.9265E-03
            1944     855.154E-06     28.8299E-03    -47.6479E+06    -161.481E+06    -46.3992E+06     327.056E+03    -51.2212E-03     102.357E-03    -51.1362E-03     8.16101E-03    -51.1590E-03     101.687E-03    -51.0649E-03     8.13880E-03
            1945     16.1879E-03     29.8359E-03    -6.99660E+06     163.084E+06     109.652E+06    -375.764E+03    -74.5493E-03     129.614E-03    -55.0648E-03     290.318E-03    -93.1064E-03     148.407E-03    -54.7429E-03     293.607E-03
            1946     15.3421E-03     29.3603E-03    -12.5471E+06     149.422E+06     93.0667E+06     26.8865E+03    -83.6470E-03     138.340E-03    -54.6925E-03     392.865E-03    -105.453E-03     160.362E-03    -54.4256E-03     390.746E-03
            1947     14.4949E-03     29.0118E-03    -16.6366E+06     109.463E+06     47.4668E+06     942.751E+03    -73.2868E-03     127.521E-03    -54.2345E-03     276.232E-03    -81.4464E-03     135.873E-03    -54.1317E-03     273.105E-03
            1948     13.6443E-03     28.7944E-03    -19.1030E+06     74.0943E+06     2.74600E+06     743.480E+03    -64.2216E-03     118.018E-03    -53.7962E-03     177.333E-03    -67.0449E-03     121.028E-03    -53.8622E-03     175.279E-03
            1949     12.7954E-03     28.6501E-03    -19.8682E+06     26.1755E+06    -14.2741E+06     751.877E+03    -60.8832E-03     114.402E-03    -53.5190E-03     129.246E-03    -62.2566E-03     115.839E-03    -53.5995E-03     127.737E-03
            1950     11.9459E-03     28.5298E-03    -20.9785E+06    -24.1540E+06    -10.3404E+06     930.108E+03    -59.8326E-03     113.170E-03    -53.3376E-03     110.088E-03    -60.6448E-03     113.852E-03    -53.3238E-03     108.917E-03
            1951     11.0956E-03     28.4234E-03    -22.2612E+06    -54.9408E+06    -9.05291E+06     850.610E+03    -58.9543E-03     112.058E-03    -53.1033E-03     98.1513E-03    -59.4801E-03     112.336E-03    -53.0366E-03     97.2088E-03
            1952     10.2451E-03     28.3265E-03    -23.3716E+06    -79.1106E+06    -9.59005E+06     708.305E+03    -58.1307E-03     110.975E-03    -52.8441E-03     88.8685E-03    -58.4704E-03     110.979E-03    -52.7435E-03     88.1065E-03
            1953     9.39415E-03     28.2385E-03    -24.8607E+06    -96.3321E+06    -9.06323E+06     656.374E+03    -57.2633E-03     109.842E-03    -52.5787E-03     80.4351E-03    -57.4805E-03     109.655E-03    -52.4483E-03     79.8217E-03
            1954     8.54260E-03     28.1584E-03    -26.4963E+06    -109.796E+06    -8.85256E+06     621.489E+03    -56.3616E-03     108.671E-03    -52.3097E-03     72.3845E-03    -56.4936E-03     108.345E-03    -52.1564E-03     71.8929E-03
            1955     7.69064E-03     28.0864E-03    -28.5949E+06    -121.921E+06    -9.41154E+06     601.602E+03    -55.4038E-03     107.451E-03    -52.0474E-03     64.7601E-03    -55.4755E-03     107.016E-03    -51.8762E-03     64.3693E-03
            1956     6.83776E-03     28.0218E-03    -31.0849E+06    -130.069E+06    -12.4194E+06     429.464E+03    -54.4940E-03     106.281E-03    -51.7872E-03     57.4029E-03    -54.5248E-03     105.776E-03    -51.6156E-03     57.0924E-03
            1957     5.98458E-03     27.9651E-03    -33.7199E+06    -133.657E+06    -17.2076E+06     60.6231E+03    -53.6500E-03     105.184E-03    -51.5342E-03     50.2190E-03    -53.6551E-03     104.645E-03    -51.3776E-03     49.9721E-03
            1958     5.13065E-03     27.9153E-03    -36.6284E+06    -141.038E+06    -21.4442E+06    -8.12750E+03    -52.8772E-03     104.194E-03    -51.3163E-03     43.0502E-03    -52.8608E-03     103.609E-03    -51.1660E-03     42.8584E-03
            1959     4.27638E-03     27.8735E-03    -39.3648E+06    -149.111E+06    -26.5707E+06     526.551E+03    -52.2196E-03     103.343E-03    -51.1231E-03     35.8253E-03    -52.1845E-03     102.716E-03    -50.9826E-03     35.6856E-03
            1960     3.42154E-03     27.8390E-03    -41.9374E+06    -152.058E+06    -31.5750E+06     660.995E+03    -51.6668E-03     102.617E-03    -50.9504E-03     28.7191E-03    -51.6237E-03     101.977E-03    -50.8270E-03     28.6192E-03
            1961     2.56660E-03     27.8121E-03    -44.4221E+06    -155.418E+06    -37.0711E+06     129.570E+03    -51.2107E-03     102.016E-03    -50.8057E-03     21.6486E-03    -51.1609E-03     101.365E-03    -50.7013E-03     21.5739E-03
            1962     1.71114E-03     27.7927E-03    -46.4716E+06    -158.994E+06    -42.9785E+06    -36.3872E+03    -50.8786E-03     101.571E-03    -50.6920E-03     14.6208E-03    -50.8213E-03     100.909E-03    -50.6089E-03     14.5713E-03
            1963     855.694E-06     27.7809E-03    -47.5902E+06    -161.087E+06    -46.5651E+06     53.4367E+03    -50.6814E-03     101.295E-03    -50.6131E-03     7.95538E-03    -50.6192E-03     100.627E-03    -50.5433E-03     7.93031E-03
            1964     16.1900E-03     28.7674E-03    -5.95823E+06     163.450E+06     109.932E+06     413.515E+03    -74.9262E-03     129.994E-03    -55.0683E-03     290.163E-03    -93.2970E-03     148.606E-03    -54.7470E-03     293.350E-03
            1965     15.3439E-03     28.2989E-03    -12.8280E+06     149.137E+06     92.8426E+06     187.133E+03    -84.6026E-03     139.260E-03    -54.6572E-03     391.813E-03    -106.144E-03     161.016E-03    -54.3906E-03     389.489E-03
            1966     14.4941E-03     27.9489E-03    -17.2608E+06     108.837E+06     46.6792E+06    -97.6780E+03    -73.9523E-03     128.098E-03    -54.1456E-03     275.216E-03    -82.0804E-03     136.416E-03    -54.0450E-03     272.031E-03
            1967     13.6476E-03     27.7346E-03    -19.2346E+06     73.1472E+06     1.38588E+06     303.466E+03    -64.8836E-03     118.535E-03    -53.6510E-03     175.884E-03    -67.6898E-03     121.528E-03    -53.7223E-03     173.801E-03
            1968     12.7980E-03     27.5902E-03    -20.1162E+06     26.3112E+06    -14.8004E+06     1.47593E+06    -61.3109E-03     114.636E-03    -53.3254E-03     128.522E-03    -62.6753E-03     116.066E-03    -53.4084E-03     127.019E-03
            1969     11.9484E-03     27.4713E-03    -20.9660E+06    -23.5052E+06    -10.4417E+06     1.45613E+06    -60.1525E-03     113.254E-03    -53.1016E-03     109.024E-03    -60.9576E-03     113.932E-03    -53.0893E-03     107.858E-03
            1970     11.0987E-03     27.3653E-03    -21.9229E+06    -54.5146E+06    -8.92737E+06     976.733E+03    -59.1618E-03     111.988E-03    -52.8258E-03     96.9290E-03    -59.6793E-03     112.260E-03    -52.7596E-03     95.9921E-03
            1971     10.2484E-03     27.2699E-03    -23.2757E+06    -78.7544E+06    -9.66383E+06     963.994E+03    -58.2271E-03     110.753E-03    -52.5256E-03     87.5554E-03    -58.5608E-03     110.752E-03    -52.4260E-03     86.8020E-03
            1972     9.39748E-03     27.1825E-03    -24.7394E+06    -96.0612E+06    -9.23947E+06     874.549E+03    -57.2841E-03     109.505E-03    -52.2206E-03     79.1107E-03    -57.4959E-03     109.315E-03    -52.0917E-03     78.5059E-03
            1973     8.54609E-03     27.1037E-03    -26.6428E+06    -109.583E+06    -8.86020E+06     852.275E+03    -56.2363E-03     108.154E-03    -51.9174E-03     71.0056E-03    -56.3651E-03     107.825E-03    -51.7642E-03     70.5241E-03
            1974     7.69376E-03     27.0327E-03    -28.7759E+06    -121.715E+06    -9.29237E+06     755.840E+03    -55.2109E-03     106.835E-03    -51.6246E-03     63.4831E-03    -55.2808E-03     106.398E-03    -51.4529E-03     63.1009E-03
            1975     6.84099E-03     26.9694E-03    -31.1344E+06    -129.643E+06    -12.1529E+06     696.911E+03    -54.2606E-03     105.594E-03    -51.3331E-03     56.1791E-03    -54.2902E-03     105.088E-03    -51.1608E-03     55.8778E-03
            1976     5.98742E-03     26.9133E-03    -34.0312E+06    -133.321E+06    -17.0243E+06     726.195E+03    -53.3284E-03     104.378E-03    -51.0501E-03     49.0586E-03    -53.3340E-03     103.839E-03    -50.8925E-03     48.8255E-03
            1977     5.13336E-03     26.8648E-03    -37.1956E+06    -141.017E+06    -21.7846E+06     674.588E+03    -52.4778E-03     103.283E-03    -50.8049E-03     42.0148E-03    -52.4626E-03     102.698E-03    -50.6554E-03     41.8365E-03
            1978     4.27857E-03     26.8235E-03    -40.0957E+06    -149.161E+06    -27.0737E+06     373.136E+03    -51.7748E-03     102.364E-03    -50.5889E-03     34.9614E-03    -51.7417E-03     101.737E-03    -50.4499E-03     34.8238E-03
            1979     3.42360E-03     26.7898E-03    -42.2657E+06    -151.581E+06    -31.4726E+06     123.397E+03    -51.1728E-03     101.571E-03    -50.3980E-03     27.9865E-03    -51.1317E-03     100.933E-03    -50.2743E-03     27.8827E-03
            1980     2.56795E-03     26.7634E-03    -44.4063E+06    -155.091E+06    -37.3970E+06     166.673E+03    -50.6683E-03     100.905E-03    -50.2366E-03     21.0663E-03    -50.6181E-03     100.255E-03    -50.1343E-03     20.9942E-03
            1981     1.71219E-03     26.7445E-03    -46.4742E+06    -158.926E+06    -43.6425E+06     100.579E+03    -50.3079E-03     100.423E-03    -50.1150E-03     14.2211E-03    -50.2496E-03     99.7619E-03    -50.0353E-03     14.1748E-03
            1982     856.067E-06     26.7328E-03    -47.8852E+06    -161.102E+06    -47.1439E+06     20.2431E+03    -50.1144E-03     100.140E-03    -50.0259E-03     7.71671E-03    -50.0528E-03     99.4737E-03    -49.9586E-03     7.69192E-03
            1983     16.1871E-03     27.6978E-03    -5.68283E+06     163.519E+06     110.280E+06     1.06955E+06    -75.0870E-03     130.168E-03    -55.0807E-03     291.014E-03    -93.3190E-03     148.640E-03    -54.7582E-03     294.233E-03
            1984     15.3411E-03     27.2334E-03    -11.8853E+06     149.920E+06     92.8854E+06     908.634E+03    -85.1873E-03     139.813E-03    -54.6256E-03     387.836E-03    -106.425E-03     161.271E-03    -54.3613E-03     385.464E-03
            1985     14.4973E-03     26.8857E-03    -16.4585E+06     108.847E+06     45.8208E+06    -137.130E+03    -74.4300E-03     128.481E-03    -54.0510E-03     272.587E-03    -82.4862E-03     136.732E-03    -53.9558E-03     269.362E-03
            1986     13.6483E-03     26.6735E-03    -19.1927E+06     72.0534E+06     933.677E+03     1.00938E+06    -65.4254E-03     118.935E-03    -53.5097E-03     174.586E-03    -68.2039E-03     121.899E-03    -53.5817E-03     172.499E-03
            1987     12.8003E-03     26.5304E-03    -20.5598E+06     26.3929E+06    -14.8660E+06     1.67197E+06    -62.0275E-03     115.155E-03    -53.1278E-03     127.239E-03    -63.3847E-03     116.576E-03    -53.2106E-03     125.722E-03
            1988     11.9516E-03     26.4121E-03    -21.2177E+06    -22.6920E+06    -10.9647E+06     1.29691E+06    -60.5100E-03     113.352E-03    -52.8424E-03     107.420E-03    -61.3068E-03     114.025E-03    -52.8336E-03     106.251E-03
            1989     11.1021E-03     26.3077E-03    -22.0989E+06    -54.4252E+06    -9.50142E+06     1.27120E+06    -59.3240E-03     111.846E-03    -52.5218E-03     95.4335E-03    -59.8336E-03     112.111E-03    -52.4584E-03     94.5050E-03
            1990     10.2519E-03     26.2132E-03    -23.2833E+06    -78.2154E+06    -9.80715E+06     1.23949E+06    -58.3341E-03     110.515E-03    -52.1813E-03     86.2231E-03    -58.6622E-03     110.512E-03    -52.0831E-03     85.4788E-03
            1991     9.40122E-03     26.1270E-03    -24.8551E+06    -95.9170E+06    -9.76374E+06     1.27123E+06    -57.2612E-03     109.096E-03    -51.8350E-03     77.6429E-03    -57.4676E-03     108.902E-03    -51.7087E-03     77.0504E-03
            1992     8.54958E-03     26.0496E-03    -26.8545E+06    -109.418E+06    -9.41140E+06     1.29189E+06    -56.1032E-03     107.599E-03    -51.4958E-03     69.5387E-03    -56.2279E-03     107.267E-03    -51.3453E-03     69.0706E-03
            1993     7.69732E-03     25.9798E-03    -29.2538E+06    -121.182E+06    -9.89590E+06     1.00350E+06    -55.0375E-03     106.205E-03    -51.1674E-03     62.0655E-03    -55.1064E-03     105.768E-03    -50.9987E-03     61.6931E-03
            1994     6.84427E-03     25.9175E-03    -31.8303E+06    -129.738E+06    -12.8748E+06     942.721E+03    -53.9915E-03     104.833E-03    -50.8418E-03     54.7980E-03    -54.0208E-03     104.326E-03    -50.6719E-03     54.5061E-03
            1995     5.99060E-03     25.8628E-03    -34.4709E+06    -133.219E+06    -17.2141E+06     1.27667E+06    -52.9790E-03     103.509E-03    -50.5296E-03     47.7713E-03    -52.9848E-03     102.969E-03    -50.3725E-03     47.5508E-03
            1996     5.13608E-03     25.8151E-03    -37.1933E+06    -140.238E+06    -21.3357E+06     1.07451E+06    -52.0766E-03     102.333E-03    -50.2566E-03     40.8632E-03    -52.0619E-03     101.750E-03    -50.1060E-03     40.6946E-03
            1997     4.28118E-03     25.7748E-03    -39.7544E+06    -148.234E+06    -26.7335E+06     281.363E+03    -51.2901E-03     101.304E-03    -50.0139E-03     34.0158E-03    -51.2562E-03     100.680E-03    -49.8750E-03     33.8812E-03
            1998     3.42547E-03     25.7417E-03    -42.4704E+06    -151.651E+06    -32.3735E+06    -168.557E+03    -50.6226E-03     100.424E-03    -49.8015E-03     27.2078E-03    -50.5805E-03     99.7867E-03    -49.6819E-03     27.1037E-03
            1999     2.56962E-03     25.7161E-03    -44.9190E+06    -155.304E+06    -38.2354E+06     93.1175E+03    -50.1016E-03     99.7277E-03    -49.6261E-03     20.4429E-03    -50.0522E-03     99.0783E-03    -49.5269E-03     20.3721E-03
            2000     1.71321E-03     25.6975E-03    -46.7622E+06    -158.661E+06    -43.7983E+06     391.263E+03    -49.7149E-03     99.2043E-03    -49.4894E-03     13.7812E-03    -49.6581E-03     98.5452E-03    -49.4105E-03     13.7402E-03
            2001     856.744E-06     25.6861E-03    -48.0161E+06    -160.761E+06    -47.2927E+06     260.006E+03    -49.4835E-03     98.8691E-03    -49.3856E-03     7.48288E-03    -49.4228E-03     98.2045E-03    -49.3194E-03     7.46207E-03
            2002     16.1890E-03     26.6325E-03    -5.58526E+06     163.327E+06     110.561E+06     461.067E+03    -76.2240E-03     131.259E-03    -55.0346E-03     289.436E-03    -94.3438E-03     149.618E-03    -54.7105E-03     292.429E-03
            2003     15.3463E-03     26.1664E-03    -11.5509E+06     149.683E+06     92.1073E+06     516.790E+03    -85.0035E-03     139.530E-03    -54.5264E-03     384.770E-03    -106.030E-03     160.780E-03    -54.2662E-03     382.377E-03
            2004     14.4978E-03     25.8248E-03    -16.3605E+06     108.464E+06     45.9991E+06     1.41198E+06    -74.6973E-03     128.624E-03    -53.9268E-03     270.094E-03    -82.6124E-03     136.733E-03    -53.8303E-03     266.896E-03
            2005     13.6506E-03     25.6110E-03    -19.8069E+06     72.0188E+06     1.96395E+06     1.64945E+06    -66.1175E-03     119.456E-03    -53.3386E-03     172.455E-03    -68.8670E-03     122.385E-03    -53.4045E-03     170.354E-03
            2006     12.8035E-03     25.4698E-03    -20.8013E+06     26.5050E+06    -15.2756E+06     1.41542E+06    -62.4846E-03     115.373E-03    -52.8887E-03     124.699E-03    -63.8189E-03     116.772E-03    -52.9733E-03     123.175E-03
            2007     11.9551E-03     25.3530E-03    -21.1415E+06    -22.1048E+06    -11.3575E+06     1.55158E+06    -60.6560E-03     113.211E-03    -52.5553E-03     105.645E-03    -61.4399E-03     113.875E-03    -52.5494E-03     104.486E-03
            2008     11.1057E-03     25.2503E-03    -22.2986E+06    -53.9444E+06    -10.0310E+06     1.45975E+06    -59.4574E-03     111.653E-03    -52.1960E-03     94.0718E-03    -59.9599E-03     111.914E-03    -52.1356E-03     93.1510E-03
            2009     10.2557E-03     25.1566E-03    -23.5808E+06    -78.2842E+06    -10.5162E+06     1.44024E+06    -58.4356E-03     110.249E-03    -51.8136E-03     84.7573E-03    -58.7576E-03     110.240E-03    -51.7185E-03     84.0213E-03
            2010     9.40496E-03     25.0720E-03    -24.8882E+06    -95.7517E+06    -10.2583E+06     1.55635E+06    -57.2313E-03     108.657E-03    -51.4256E-03     75.9656E-03    -57.4312E-03     108.458E-03    -51.3020E-03     75.3845E-03
            2011     8.55341E-03     24.9960E-03    -26.3593E+06    -109.169E+06    -9.82065E+06     1.58538E+06    -56.0271E-03     107.072E-03    -51.0447E-03     67.9331E-03    -56.1446E-03     106.737E-03    -50.8973E-03     67.4756E-03
            2012     7.70109E-03     24.9274E-03    -28.3478E+06    -120.399E+06    -9.76305E+06     1.54846E+06    -54.8477E-03     105.525E-03    -50.6770E-03     60.4622E-03    -54.9098E-03     105.087E-03    -50.5101E-03     60.1037E-03
            2013     6.84794E-03     24.8666E-03    -31.0090E+06    -129.861E+06    -11.3120E+06     1.40420E+06    -53.6953E-03     104.019E-03    -50.3239E-03     53.2926E-03    -53.7200E-03     103.506E-03    -50.1472E-03     53.0130E-03
            2014     5.99388E-03     24.8129E-03    -33.7611E+06    -133.155E+06    -15.1705E+06     1.46784E+06    -52.6130E-03     102.594E-03    -49.9809E-03     46.3672E-03    -52.6164E-03     102.049E-03    -49.8148E-03     46.1547E-03
            2015     5.13924E-03     24.7665E-03    -36.4312E+06    -139.011E+06    -20.4872E+06     1.17008E+06    -51.6287E-03     101.299E-03    -49.6702E-03     39.6415E-03    -51.6118E-03     100.719E-03    -49.5183E-03     39.4792E-03
            2016     4.28370E-03     24.7271E-03    -39.5039E+06    -147.366E+06    -26.2721E+06     661.186E+03    -50.7716E-03     100.173E-03    -49.4016E-03     32.9560E-03    -50.7374E-03     99.5518E-03    -49.2620E-03     32.8304E-03
            2017     3.42779E-03     24.6949E-03    -42.5828E+06    -151.443E+06    -32.9247E+06     337.377E+03    -50.0420E-03     99.2080E-03    -49.1660E-03     26.3376E-03    -49.9993E-03     98.5720E-03    -49.0493E-03     26.2434E-03
            2018     2.57117E-03     24.6698E-03    -45.2630E+06    -155.651E+06    -39.5361E+06     265.270E+03    -49.4859E-03     98.4595E-03    -48.9736E-03     19.7856E-03    -49.4355E-03     97.8104E-03    -48.8800E-03     19.7196E-03
            2019     1.71443E-03     24.6518E-03    -47.1242E+06    -158.377E+06    -44.0319E+06     333.919E+03    -49.0757E-03     97.9043E-03    -48.8285E-03     13.3368E-03    -49.0206E-03     97.2473E-03    -48.7507E-03     13.2966E-03
            2020     857.229E-06     24.6407E-03    -48.2298E+06    -160.168E+06    -47.1370E+06     244.826E+03    -48.8302E-03     97.5334E-03    -48.7032E-03     7.22594E-03    -48.7715E-03     96.8718E-03    -48.6367E-03     7.20570E-03
            2021     16.1930E-03     25.5665E-03    -4.51948E+06     162.837E+06     110.254E+06     363.970E+03    -77.2130E-03     132.211E-03    -54.9981E-03     290.125E-03    -95.2936E-03     150.534E-03    -54.6764E-03     292.940E-03
            2022     15.3445E-03     25.1010E-03    -11.4792E+06     149.623E+06     92.9287E+06     1.51086E+06    -86.0980E-03     140.549E-03    -54.4512E-03     384.650E-03    -107.024E-03     161.696E-03    -54.1869E-03     382.108E-03
            2023     14.5004E-03     24.7608E-03    -17.0449E+06     108.501E+06     47.0458E+06     2.03660E+06    -76.0593E-03     129.833E-03    -53.7732E-03     267.199E-03    -83.8665E-03     137.828E-03    -53.6706E-03     263.913E-03
            2024     13.6549E-03     24.5486E-03    -19.3305E+06     72.8514E+06     2.45614E+06     1.57165E+06    -66.7448E-03     119.836E-03    -53.0917E-03     169.623E-03    -69.4588E-03     122.733E-03    -53.1570E-03     167.500E-03
            2025     12.8073E-03     24.4093E-03    -20.3721E+06     27.0991E+06    -15.3439E+06     1.88610E+06    -62.2190E-03     114.819E-03    -52.6000E-03     122.334E-03    -63.5174E-03     116.186E-03    -52.6865E-03     120.843E-03
            2026     11.9586E-03     24.2944E-03    -21.2873E+06    -21.9757E+06    -11.9268E+06     1.96793E+06    -60.6158E-03     112.865E-03    -52.2487E-03     104.243E-03    -61.3854E-03     113.515E-03    -52.2456E-03     103.101E-03
            2027     11.1093E-03     24.1928E-03    -22.3155E+06    -53.6221E+06    -10.3841E+06     1.75106E+06    -59.7220E-03     111.574E-03    -51.8525E-03     92.6137E-03    -60.2175E-03     111.831E-03    -51.7943E-03     91.6986E-03
            2028     10.2597E-03     24.1002E-03    -23.5557E+06    -77.9782E+06    -10.9124E+06     1.66587E+06    -58.5412E-03     109.961E-03    -51.4201E-03     82.8734E-03    -58.8550E-03     109.946E-03    -51.3274E-03     82.1467E-03
            2029     9.40905E-03     24.0176E-03    -24.8129E+06    -95.5484E+06    -10.5317E+06     1.61518E+06    -57.2186E-03     108.205E-03    -50.9864E-03     74.1030E-03    -57.4118E-03     108.001E-03    -50.8645E-03     73.5300E-03
            2030     8.55759E-03     23.9426E-03    -26.4538E+06    -108.904E+06    -10.1656E+06     1.72156E+06    -55.9104E-03     106.472E-03    -50.5613E-03     66.1155E-03    -56.0234E-03     106.134E-03    -50.4159E-03     65.6672E-03
            2031     7.70516E-03     23.8760E-03    -28.5039E+06    -120.068E+06    -9.94812E+06     1.82655E+06    -54.6100E-03     104.764E-03    -50.1543E-03     58.7563E-03    -54.6692E-03     104.325E-03    -49.9886E-03     58.4090E-03
            2032     6.85171E-03     23.8163E-03    -30.9217E+06    -129.322E+06    -11.4667E+06     1.81107E+06    -53.3738E-03     103.138E-03    -49.7644E-03     51.6895E-03    -53.3957E-03     102.625E-03    -49.5894E-03     51.4220E-03
            2033     5.99757E-03     23.7642E-03    -33.6129E+06    -132.881E+06    -15.5836E+06     1.56209E+06    -52.1971E-03     101.585E-03    -49.3880E-03     44.9350E-03    -52.1974E-03     101.040E-03    -49.2245E-03     44.7300E-03
            2034     5.14231E-03     23.7189E-03    -36.6486E+06    -138.297E+06    -20.2255E+06     1.55875E+06    -51.1492E-03     100.201E-03    -49.0516E-03     38.3569E-03    -51.1333E-03     99.6225E-03    -48.8991E-03     38.2049E-03
            2035     4.28660E-03     23.6807E-03    -39.8375E+06    -146.502E+06    -25.7613E+06     1.28266E+06    -50.2270E-03     98.9847E-03    -48.7576E-03     31.8315E-03    -50.1955E-03     98.3664E-03    -48.6163E-03     31.7184E-03
            2036     3.42999E-03     23.6494E-03    -42.9569E+06    -150.952E+06    -32.8943E+06     914.317E+03    -49.4404E-03     97.9379E-03    -48.4976E-03     25.4206E-03    -49.3998E-03     97.3043E-03    -48.3809E-03     25.3374E-03
            2037     2.57306E-03     23.6250E-03    -45.4705E+06    -155.240E+06    -39.8771E+06     645.391E+03    -48.8184E-03     97.1073E-03    -48.2888E-03     19.0932E-03    -48.7688E-03     96.4607E-03    -48.1972E-03     19.0349E-03
            2038     1.71551E-03     23.6075E-03    -47.2275E+06    -158.000E+06    -44.4591E+06     252.376E+03    -48.3785E-03     96.5198E-03    -48.1414E-03     12.8676E-03    -48.3237E-03     95.8654E-03    -48.0661E-03     12.8281E-03
            2039     857.900E-06     23.5968E-03    -48.5013E+06    -159.811E+06    -47.4191E+06     21.4482E+03    -48.1544E-03     96.1644E-03    -48.0100E-03     6.98715E-03    -48.0971E-03     95.5053E-03    -47.9451E-03     6.96490E-03
            2040     16.1861E-03     24.4958E-03    -5.50001E+06     161.540E+06     108.986E+06     442.721E+03    -77.9863E-03     132.967E-03    -54.9804E-03     287.812E-03    -95.7852E-03     151.003E-03    -54.6618E-03     290.348E-03
            2041     15.3465E-03     24.0324E-03    -12.6217E+06     148.397E+06     92.1979E+06     1.27582E+06    -87.5241E-03     141.876E-03    -54.3517E-03     380.619E-03    -108.160E-03     162.726E-03    -54.0876E-03     377.800E-03
            2042     14.5038E-03     23.6948E-03    -16.3040E+06     108.888E+06     47.2346E+06     1.31416E+06    -76.9522E-03     130.523E-03    -53.5713E-03     263.761E-03    -84.6485E-03     138.412E-03    -53.4693E-03     260.382E-03
            2043     13.6590E-03     23.4861E-03    -18.6443E+06     72.5001E+06     2.33448E+06     1.93723E+06    -66.8792E-03     119.707E-03    -52.8274E-03     167.126E-03    -69.5376E-03     122.550E-03    -52.8938E-03     165.017E-03
            2044     12.8114E-03     23.3501E-03    -19.7329E+06     27.5957E+06    -14.7619E+06     2.64765E+06    -62.1867E-03     114.496E-03    -52.3089E-03     120.770E-03    -63.4596E-03     115.839E-03    -52.3941E-03     119.303E-03
            2045     11.9621E-03     23.2364E-03    -20.9397E+06    -21.0018E+06    -12.0666E+06     2.48625E+06    -60.8897E-03     112.809E-03    -51.9188E-03     102.957E-03    -61.6465E-03     113.451E-03    -51.9184E-03     101.827E-03
            2046     11.1136E-03     23.1343E-03    -22.1095E+06    -53.2806E+06    -10.7231E+06     2.13352E+06    -59.9239E-03     111.398E-03    -51.4736E-03     90.6193E-03    -60.4080E-03     111.645E-03    -51.4179E-03     89.7141E-03
            2047     10.2641E-03     23.0450E-03    -23.2406E+06    -77.4168E+06    -10.9408E+06     2.04862E+06    -58.6024E-03     109.595E-03    -50.9929E-03     80.7497E-03    -58.9068E-03     109.574E-03    -50.9016E-03     80.0354E-03
            2048     9.41354E-03     22.9628E-03    -24.9588E+06    -95.2392E+06    -10.9537E+06     2.00952E+06    -57.1427E-03     107.656E-03    -50.5131E-03     72.1120E-03    -57.3295E-03     107.448E-03    -50.3935E-03     71.5531E-03
            2049     8.56204E-03     22.8906E-03    -26.9182E+06    -108.831E+06    -10.6768E+06     2.11734E+06    -55.7122E-03     105.760E-03    -50.0483E-03     64.2498E-03    -55.8213E-03     105.419E-03    -49.9048E-03     63.8162E-03
            2050     7.70932E-03     22.8248E-03    -29.0904E+06    -119.435E+06    -10.9588E+06     2.02815E+06    -54.3461E-03     103.947E-03    -49.6004E-03     56.9760E-03    -54.4036E-03     103.509E-03    -49.4399E-03     56.6398E-03
            2051     6.85590E-03     22.7673E-03    -31.2216E+06    -128.844E+06    -12.6381E+06     1.71072E+06    -53.0098E-03     102.184E-03    -49.1741E-03     50.0136E-03    -53.0290E-03     101.672E-03    -49.0052E-03     49.7529E-03
            2052     6.00108E-03     22.7164E-03    -33.7440E+06    -132.770E+06    -16.1660E+06     1.96655E+06    -51.7766E-03     100.544E-03    -48.7678E-03     43.3903E-03    -51.7746E-03     99.9981E-03    -48.6071E-03     43.1973E-03
            2053     5.14580E-03     22.6725E-03    -36.6743E+06    -137.670E+06    -20.2599E+06     2.00721E+06    -50.6457E-03     99.0477E-03    -48.4020E-03     36.9250E-03    -50.6291E-03     98.4710E-03    -48.2505E-03     36.7846E-03
            2054     4.28937E-03     22.6355E-03    -39.8339E+06    -145.662E+06    -25.6728E+06     1.80367E+06    -49.6497E-03     97.7314E-03    -48.0818E-03     30.6107E-03    -49.6184E-03     97.1161E-03    -47.9412E-03     30.5093E-03
            2055     3.43249E-03     22.6052E-03    -42.9184E+06    -150.082E+06    -32.7334E+06     1.43995E+06    -48.8113E-03     96.6109E-03    -47.7996E-03     24.4223E-03    -48.7713E-03     95.9807E-03    -47.6834E-03     24.3497E-03
            2056     2.57480E-03     22.5817E-03    -45.4681E+06    -154.325E+06    -39.5001E+06     867.519E+03    -48.1433E-03     95.7163E-03    -47.5730E-03     18.3193E-03    -48.0952E-03     95.0735E-03    -47.4808E-03     18.2668E-03
            2057     1.71684E-03     22.5647E-03    -47.3273E+06    -157.389E+06    -44.5684E+06     412.409E+03    -47.6559E-03     95.0686E-03    -47.4127E-03     12.3323E-03    -47.6021E-03     94.4173E-03    -47.3387E-03     12.2970E-03
            2058     858.395E-06     22.5543E-03    -48.6333E+06    -159.540E+06    -47.9677E+06     117.491E+03    -47.3848E-03     94.7002E-03    -47.3153E-03     6.69710E-03    -47.3278E-03     94.0434E-03    -47.2533E-03     6.67715E-03
            2059     16.1949E-03     23.4296E-03    -5.73580E+06     161.063E+06     108.980E+06     887.532E+03    -80.4631E-03     135.365E-03    -54.9015E-03     285.170E-03    -98.0809E-03     153.218E-03    -54.5818E-03     287.296E-03
            2060     15.3505E-03     22.9642E-03    -10.8340E+06     147.776E+06     92.5650E+06     1.05880E+06    -88.3374E-03     142.506E-03    -54.1684E-03     378.391E-03    -108.728E-03     163.115E-03    -53.9042E-03     375.356E-03
            2061     14.5070E-03     22.6288E-03    -15.7706E+06     108.299E+06     47.0516E+06     1.92451E+06    -76.6528E-03     130.001E-03    -53.3480E-03     260.675E-03    -84.1601E-03     137.700E-03    -53.2469E-03     257.327E-03
            2062     13.6617E-03     22.4233E-03    -19.0422E+06     72.0082E+06     1.98160E+06     2.50393E+06    -66.8327E-03     119.420E-03    -52.5871E-03     164.541E-03    -69.4255E-03     122.195E-03    -52.6540E-03     162.462E-03
            2063     12.8140E-03     22.2914E-03    -20.6932E+06     27.8551E+06    -16.0294E+06     2.65085E+06    -62.9857E-03     114.997E-03    -52.0118E-03     118.691E-03    -64.2472E-03     116.331E-03    -52.1023E-03     117.208E-03
            2064     11.9671E-03     22.1763E-03    -21.0702E+06    -19.5779E+06    -12.4398E+06     2.69983E+06    -61.3528E-03     112.903E-03    -51.5501E-03     100.971E-03    -62.0979E-03     113.540E-03    -51.5534E-03     99.8434E-03
            2065     11.1184E-03     22.0782E-03    -21.9440E+06    -52.5461E+06    -11.0681E+06     2.55367E+06    -59.9177E-03     110.971E-03    -51.0538E-03     88.7047E-03    -60.3881E-03     111.210E-03    -51.0011E-03     87.8179E-03
            2066     10.2687E-03     21.9883E-03    -23.3189E+06    -77.3251E+06    -11.5901E+06     2.52090E+06    -58.5481E-03     109.082E-03    -50.5339E-03     78.6762E-03    -58.8420E-03     109.052E-03    -50.4459E-03     77.9794E-03
            2067     9.41842E-03     21.9101E-03    -24.7095E+06    -94.7764E+06    -11.2380E+06     2.64262E+06    -57.0175E-03     107.032E-03    -50.0148E-03     70.0509E-03    -57.1950E-03     106.818E-03    -49.8978E-03     69.5118E-03
            2068     8.56639E-03     21.8382E-03    -26.4236E+06    -108.589E+06    -11.2355E+06     2.66602E+06    -55.5218E-03     105.030E-03    -49.5083E-03     62.2726E-03    -55.6218E-03     104.684E-03    -49.3687E-03     61.8568E-03
            2069     7.71397E-03     21.7752E-03    -28.1896E+06    -118.208E+06    -11.5961E+06     2.13268E+06    -54.0533E-03     103.072E-03    -49.0192E-03     54.9897E-03    -54.1021E-03     102.635E-03    -48.8649E-03     54.6651E-03
            2070     6.85976E-03     21.7188E-03    -30.4475E+06    -128.724E+06    -11.8891E+06     1.86678E+06    -52.6708E-03     101.234E-03    -48.5630E-03     48.1430E-03    -52.6838E-03     100.716E-03    -48.3916E-03     47.8931E-03
            2071     6.00524E-03     21.6697E-03    -33.1812E+06    -133.097E+06    -14.7411E+06     2.40501E+06    -51.3440E-03     99.4666E-03    -48.1226E-03     41.5892E-03    -51.3381E-03     98.9132E-03    -47.9552E-03     41.4097E-03
            2072     5.14915E-03     21.6273E-03    -36.3721E+06    -136.686E+06    -20.1706E+06     2.64809E+06    -50.1077E-03     97.8230E-03    -47.7153E-03     35.3186E-03    -50.0893E-03     97.2488E-03    -47.5652E-03     35.1932E-03
            2073     4.29255E-03     21.5916E-03    -39.6126E+06    -144.755E+06    -25.5547E+06     2.23321E+06    -49.0448E-03     96.4122E-03    -47.3674E-03     29.2117E-03    -49.0127E-03     95.7997E-03    -47.2279E-03     29.1212E-03
            2074     3.43488E-03     21.5624E-03    -42.5320E+06    -148.888E+06    -32.2528E+06     1.77627E+06    -48.1477E-03     95.2097E-03    -47.0621E-03     23.2657E-03    -48.1074E-03     94.5835E-03    -46.9458E-03     23.2018E-03
            2075     2.57684E-03     21.5397E-03    -45.0927E+06    -153.220E+06    -39.0897E+06     1.26590E+06    -47.4427E-03     94.2552E-03    -46.8126E-03     17.4161E-03    -47.3944E-03     93.6163E-03    -46.7205E-03     17.3719E-03
            2076     1.71813E-03     21.5235E-03    -47.2864E+06    -156.567E+06    -44.3897E+06     800.853E+03    -46.9201E-03     93.5467E-03    -46.6266E-03     11.7114E-03    -46.8675E-03     92.8991E-03    -46.5530E-03     11.6831E-03
            2077     859.225E-06     21.5134E-03    -48.7028E+06    -158.908E+06    -48.0561E+06     507.538E+03    -46.5814E-03     93.0970E-03    -46.5156E-03     6.34720E-03    -46.5254E-03     92.4436E-03    -46.4549E-03     6.33356E-03
            2078     16.1909E-03     22.3562E-03    -5.43525E+06     160.329E+06     108.338E+06     750.781E+03    -82.3797E-03     137.222E-03    -54.8423E-03     284.621E-03    -99.8495E-03     154.928E-03    -54.5252E-03     286.418E-03
            2079     15.3526E-03     21.8936E-03    -10.8515E+06     146.969E+06     92.8857E+06     1.05096E+06    -89.5602E-03     143.583E-03    -54.0225E-03     376.138E-03    -109.659E-03     163.895E-03    -53.7554E-03     372.847E-03
            2080     14.5109E-03     21.5639E-03    -16.1734E+06     107.821E+06     47.9573E+06     2.59878E+06    -76.8009E-03     129.946E-03    -53.1450E-03     257.487E-03    -84.1304E-03     137.462E-03    -53.0381E-03     254.164E-03
            2081     13.6642E-03     21.3624E-03    -19.4801E+06     72.0159E+06     2.35865E+06     2.99115E+06    -67.4157E-03     119.745E-03    -52.3293E-03     161.521E-03    -69.9466E-03     122.456E-03    -52.3937E-03     159.447E-03
            2082     12.8193E-03     21.2281E-03    -20.3669E+06     28.4768E+06    -16.0282E+06     2.70593E+06    -63.4728E-03     115.158E-03    -51.6857E-03     116.069E-03    -64.7068E-03     116.468E-03    -51.7776E-03     114.586E-03
            2083     11.9719E-03     21.1196E-03    -21.0798E+06    -18.7662E+06    -13.1990E+06     2.90418E+06    -61.6257E-03     112.788E-03    -51.1624E-03     99.1365E-03    -62.3548E-03     113.414E-03    -51.1707E-03     98.0191E-03
            2084     11.1230E-03     21.0201E-03    -22.1198E+06    -51.9460E+06    -11.7183E+06     2.91135E+06    -60.0219E-03     110.640E-03    -50.6178E-03     86.9823E-03    -60.4796E-03     110.868E-03    -50.5690E-03     86.1128E-03
            2085     10.2739E-03     20.9343E-03    -23.1567E+06    -77.0398E+06    -12.2455E+06     2.90590E+06    -58.4730E-03     108.528E-03    -50.0550E-03     76.6090E-03    -58.7532E-03     108.488E-03    -49.9709E-03     75.9326E-03
            2086     9.42281E-03     20.8563E-03    -24.3525E+06    -94.5355E+06    -11.8732E+06     2.99082E+06    -56.9666E-03     106.458E-03    -49.4916E-03     67.8386E-03    -57.1329E-03     106.237E-03    -49.3786E-03     67.3161E-03
            2087     8.57170E-03     20.7875E-03    -25.5857E+06    -107.730E+06    -11.5156E+06     2.81587E+06    -55.3579E-03     104.295E-03    -48.9372E-03     59.9463E-03    -55.4473E-03     103.945E-03    -48.8015E-03     59.5445E-03
            2088     7.71825E-03     20.7259E-03    -27.3988E+06    -117.367E+06    -12.1533E+06     2.59065E+06    -53.7958E-03     102.196E-03    -48.4003E-03     52.7627E-03    -53.8356E-03     101.757E-03    -48.2511E-03     52.4551E-03
            2089     6.86468E-03     20.6715E-03    -30.1247E+06    -128.599E+06    -12.6888E+06     2.78185E+06    -52.3171E-03     100.216E-03    -47.8993E-03     45.9291E-03    -52.3234E-03     99.6960E-03    -47.7326E-03     45.7009E-03
            2090     6.00916E-03     20.6242E-03    -33.4912E+06    -133.143E+06    -15.3975E+06     3.01646E+06    -50.8595E-03     98.2794E-03    -47.4199E-03     39.5590E-03    -50.8511E-03     97.7242E-03    -47.2553E-03     39.3961E-03
            2091     5.15311E-03     20.5834E-03    -36.3400E+06    -135.703E+06    -20.0322E+06     2.92406E+06    -49.5501E-03     96.5284E-03    -46.9783E-03     33.4877E-03    -49.5311E-03     95.9568E-03    -46.8290E-03     33.3731E-03
            2092     4.29570E-03     20.5492E-03    -39.0620E+06    -143.567E+06    -25.2930E+06     2.58669E+06    -48.4093E-03     95.0056E-03    -46.5963E-03     27.6098E-03    -48.3752E-03     94.3965E-03    -46.4579E-03     27.5299E-03
            2093     3.43777E-03     20.5211E-03    -42.0362E+06    -147.719E+06    -31.9401E+06     2.15658E+06    -47.4386E-03     93.7007E-03    -46.2621E-03     21.9354E-03    -47.3972E-03     93.0783E-03    -46.1466E-03     21.8811E-03
            2094     2.57886E-03     20.4995E-03    -44.7617E+06    -151.991E+06    -38.5929E+06     1.76991E+06    -46.6689E-03     92.6594E-03    -45.9905E-03     16.3976E-03    -46.6211E-03     92.0250E-03    -45.8982E-03     16.3634E-03
            2095     1.71964E-03     20.4838E-03    -46.8758E+06    -155.358E+06    -43.9544E+06     1.28734E+06    -46.1049E-03     91.8920E-03    -45.7870E-03     11.0235E-03    -46.0524E-03     91.2489E-03    -45.7136E-03     11.0038E-03
            2096     859.890E-06     20.4744E-03    -48.2916E+06    -157.611E+06    -47.5675E+06     816.504E+03    -45.7592E-03     91.4018E-03    -45.6426E-03     6.02155E-03    -45.7037E-03     90.7534E-03    -45.5819E-03     6.01321E-03
            2097     16.1926E-03     21.2767E-03    -6.08441E+06     160.279E+06     107.952E+06     523.888E+03    -83.2037E-03     137.993E-03    -54.7896E-03     282.100E-03    -100.306E-03     155.330E-03    -54.4734E-03     283.698E-03
            2098     15.3554E-03     20.8236E-03    -11.8745E+06     145.750E+06     91.8834E+06     809.577E+03    -90.1086E-03     144.004E-03    -53.8957E-03     370.462E-03    -109.688E-03     163.793E-03    -53.6304E-03     367.066E-03
            2099     14.5115E-03     20.4982E-03    -16.5031E+06     105.856E+06     47.9657E+06     2.10625E+06    -77.8351E-03     130.770E-03    -52.9351E-03     253.049E-03    -84.9759E-03     138.089E-03    -52.8249E-03     249.673E-03
            2100     13.6704E-03     20.2975E-03    -18.2234E+06     72.0346E+06     4.03610E+06     3.43693E+06    -67.8535E-03     119.898E-03    -52.0441E-03     158.371E-03    -70.3086E-03     122.532E-03    -52.1019E-03     156.310E-03
            2101     12.8233E-03     20.1696E-03    -19.6097E+06     29.2464E+06    -15.7376E+06     3.92769E+06    -63.5029E-03     114.852E-03    -51.3495E-03     114.478E-03    -64.7008E-03     116.130E-03    -51.4421E-03     113.033E-03
            2102     11.9755E-03     20.0593E-03    -20.7748E+06    -17.7720E+06    -13.7928E+06     3.49145E+06    -61.9638E-03     112.743E-03    -50.7797E-03     97.2480E-03    -62.6746E-03     113.358E-03    -50.7928E-03     96.1456E-03
            2103     11.1285E-03     19.9643E-03    -21.7968E+06    -51.5057E+06    -12.4056E+06     3.22463E+06    -60.3137E-03     110.489E-03    -50.1758E-03     84.6524E-03    -60.7538E-03     110.706E-03    -50.1315E-03     83.7971E-03
            2104     10.2783E-03     19.8794E-03    -22.8534E+06    -76.4500E+06    -12.8248E+06     3.23840E+06    -58.6351E-03     108.186E-03    -49.5511E-03     74.2617E-03    -58.9012E-03     108.137E-03    -49.4712E-03     73.6023E-03
            2105     9.42869E-03     19.8038E-03    -23.9741E+06    -94.2051E+06    -12.6537E+06     3.17705E+06    -56.9637E-03     105.891E-03    -48.9269E-03     65.1359E-03    -57.1169E-03     105.661E-03    -48.8188E-03     64.6293E-03
            2106     8.57632E-03     19.7373E-03    -25.5603E+06    -106.879E+06    -12.3504E+06     3.13320E+06    -55.2377E-03     103.552E-03    -48.3139E-03     57.2137E-03    -55.3189E-03     103.199E-03    -48.1836E-03     56.8289E-03
            2107     7.72394E-03     19.6775E-03    -27.4911E+06    -117.007E+06    -13.0670E+06     3.21574E+06    -53.5493E-03     101.270E-03    -47.7209E-03     50.1001E-03    -53.5827E-03     100.829E-03    -47.5767E-03     49.8127E-03
            2108     6.86921E-03     19.6254E-03    -29.8110E+06    -128.747E+06    -13.3970E+06     3.81476E+06    -51.8934E-03     99.0644E-03    -47.1710E-03     43.3761E-03    -51.8922E-03     98.5392E-03    -47.0081E-03     43.1726E-03
            2109     6.01401E-03     19.5799E-03    -32.4616E+06    -131.951E+06    -15.1211E+06     3.76427E+06    -50.3396E-03     96.9898E-03    -46.6503E-03     37.2005E-03    -50.3249E-03     96.4354E-03    -46.4875E-03     37.0568E-03
            2110     5.15706E-03     19.5409E-03    -35.5046E+06    -134.791E+06    -20.1506E+06     3.15089E+06    -48.9302E-03     95.0982E-03    -46.1680E-03     31.4073E-03    -48.9060E-03     94.5278E-03    -46.0218E-03     31.3036E-03
            2111     4.29950E-03     19.5081E-03    -38.5978E+06    -142.462E+06    -25.4027E+06     3.01859E+06    -47.7073E-03     93.4587E-03    -45.7513E-03     25.8262E-03    -47.6709E-03     92.8531E-03    -45.6158E-03     25.7581E-03
            2112     3.44063E-03     19.4815E-03    -41.5916E+06    -146.379E+06    -31.6820E+06     2.72191E+06    -46.6544E-03     92.0434E-03    -45.3890E-03     20.4830E-03    -46.6122E-03     91.4257E-03    -45.2749E-03     20.4409E-03
            2113     2.58130E-03     19.4607E-03    -44.1793E+06    -150.623E+06     -38.225E+06     2.19361E+06    -45.8132E-03     90.9101E-03    -45.0969E-03     15.2904E-03    -45.7645E-03     90.2807E-03    -45.0056E-03     15.2652E-03
            2114     1.72112E-03     19.4461E-03    -46.1739E+06    -153.716E+06    -43.2988E+06     1.62415E+06    -45.2045E-03     90.0896E-03    -44.8851E-03     10.2707E-03    -45.1515E-03     89.4525E-03    -44.8117E-03     10.2578E-03
            2115     860.673E-06     19.4369E-03    -47.4079E+06    -155.772E+06    -46.7341E+06     962.755E+03    -44.8657E-03     89.5943E-03    -44.7286E-03     5.57270E-03    -44.8096E-03     88.9526E-03    -44.6677E-03     5.56744E-03
            2116     16.1968E-03     20.2037E-03    -4.84353E+06     159.457E+06     107.745E+06     713.438E+03    -84.7383E-03     139.466E-03    -54.7273E-03     281.094E-03    -101.561E-03     156.525E-03    -54.4127E-03     282.381E-03
            2117     15.3550E-03     19.7516E-03    -10.2140E+06     145.093E+06     92.3848E+06     2.07248E+06    -91.2572E-03     145.008E-03    -53.7510E-03     366.453E-03    -110.424E-03     164.386E-03    -53.4846E-03     362.886E-03
            2118     14.5187E-03     19.4294E-03    -15.1038E+06     105.485E+06     49.0278E+06     2.68280E+06    -78.3406E-03     131.053E-03    -52.7124E-03     248.131E-03    -85.2548E-03     138.146E-03    -52.5983E-03     244.739E-03
            2119     13.6727E-03     19.2363E-03    -18.3281E+06     71.1252E+06     4.27101E+06     3.76954E+06    -68.0372E-03     119.802E-03    -51.7643E-03     155.612E-03    -70.4160E-03     122.356E-03    -51.8195E-03     153.579E-03
            2120     12.8268E-03     19.1084E-03    -19.5985E+06     29.8727E+06    -15.6226E+06     4.59928E+06    -64.1054E-03     115.117E-03    -51.0120E-03     112.096E-03    -65.2736E-03     116.367E-03    -51.1050E-03     110.660E-03
            2121     11.9813E-03     19.0004E-03    -20.2888E+06    -16.7461E+06    -14.0034E+06     4.23830E+06    -62.3218E-03     112.695E-03    -50.3733E-03     94.5421E-03    -63.0077E-03     113.290E-03    -50.3896E-03     93.4582E-03
            2122     11.1325E-03     18.9079E-03    -21.2567E+06    -50.7111E+06    -12.6900E+06     3.77358E+06    -60.7445E-03     110.444E-03    -49.6990E-03     81.7126E-03    -61.1651E-03     110.646E-03    -49.6581E-03     80.8734E-03
            2123     10.2848E-03     18.8245E-03    -22.4076E+06    -75.6911E+06    -13.2491E+06     3.59218E+06    -58.9638E-03     107.957E-03    -48.9935E-03     71.0298E-03    -59.2133E-03     107.897E-03    -48.9175E-03     70.3865E-03
            2124     9.43384E-03     18.7524E-03    -23.5769E+06    -93.8780E+06    -13.0022E+06     3.57472E+06    -57.0025E-03     105.297E-03    -48.2941E-03     61.8554E-03    -57.1414E-03     105.056E-03    -48.1888E-03     61.3693E-03
            2125     8.58289E-03     18.6871E-03    -24.9799E+06    -106.229E+06    -12.8905E+06     3.74359E+06    -55.1210E-03     102.732E-03    -47.6109E-03     53.9583E-03    -55.1902E-03     102.373E-03    -47.4851E-03     53.5958E-03
            2126     7.72934E-03     18.6306E-03    -27.3494E+06    -117.347E+06    -13.3570E+06     4.42150E+06    -53.2225E-03     100.182E-03    -46.9592E-03     46.9137E-03    -53.2472E-03     99.7315E-03    -46.8161E-03     46.6558E-03
            2127     6.87515E-03     18.5802E-03    -30.2095E+06    -127.871E+06    -14.6495E+06     4.57891E+06    -51.4108E-03     97.7608E-03    -46.3501E-03     40.4437E-03    -51.4059E-03     97.2374E-03    -46.1941E-03     40.2626E-03
            2128     6.01895E-03     18.5372E-03    -32.5867E+06    -130.391E+06    -17.2347E+06     3.84926E+06    -49.7297E-03     95.5068E-03    -45.7771E-03     34.5369E-03    -49.7113E-03     94.9598E-03    -45.6270E-03     34.4049E-03
            2129     5.16188E-03     18.4998E-03    -34.9105E+06    -134.077E+06    -20.6104E+06     3.78174E+06    -48.2065E-03     93.4704E-03    -45.2638E-03     29.0388E-03    -48.1774E-03     92.9011E-03    -45.1219E-03     28.9518E-03
            2130     4.30329E-03     18.4689E-03    -37.8696E+06    -141.196E+06    -25.3211E+06     3.67306E+06    -46.8760E-03     91.6946E-03    -44.8186E-03     23.8240E-03    -46.8364E-03     91.0927E-03    -44.6855E-03     23.7713E-03
            2131     3.44405E-03     18.4435E-03    -40.7880E+06    -144.900E+06    -31.4359E+06     3.23302E+06    -45.7606E-03     90.1954E-03    -44.4348E-03     18.8817E-03    -45.7160E-03     89.5827E-03    -44.3227E-03     18.8514E-03
            2132     2.58367E-03     18.4242E-03    -43.3529E+06    -148.835E+06    -37.7025E+06     2.68804E+06    -44.8787E-03     89.0057E-03    -44.1270E-03     14.0865E-03    -44.8288E-03     88.3828E-03    -44.0368E-03     14.0715E-03
            2133     1.72286E-03     18.4100E-03    -45.3580E+06    -151.719E+06    -42.5331E+06     1.86731E+06    -44.2502E-03     88.1502E-03    -43.9000E-03     9.45821E-03    -44.1970E-03     87.5207E-03    -43.8269E-03     9.45085E-03
            2134     861.550E-06     18.4016E-03    -46.5861E+06    -153.662E+06    -45.8377E+06     1.01859E+06    -43.8898E-03     87.6054E-03    -43.7156E-03     5.09467E-03    -43.8339E-03     86.9716E-03    -43.6544E-03     5.09138E-03
            2135     16.1916E-03     19.1263E-03    -5.48710E+06     157.959E+06     106.530E+06     7.84815E+03    -86.6592E-03     141.341E-03    -54.6817E-03     278.070E-03    -103.091E-03     158.005E-03    -54.3701E-03     278.918E-03
            2136     15.3608E-03     18.6741E-03    -11.8655E+06     143.174E+06     90.8927E+06     1.10241E+06    -92.0961E-03     145.704E-03    -53.6083E-03     361.454E-03    -110.749E-03     164.560E-03    -53.3442E-03     357.634E-03
            2137     14.5187E-03     18.3637E-03    -16.2825E+06     104.481E+06     49.1987E+06     2.77013E+06    -78.5653E-03     131.074E-03    -52.5090E-03     243.420E-03    -85.2602E-03     137.940E-03    -52.3909E-03     240.052E-03
            2138     13.6764E-03     18.1723E-03    -19.0733E+06     70.2956E+06     4.89067E+06     3.95702E+06    -69.0776E-03     120.566E-03    -51.4881E-03     151.972E-03    -71.3874E-03     123.043E-03    -51.5379E-03     149.922E-03
            2139     12.8331E-03     18.0464E-03    -19.8225E+06     30.0038E+06    -15.8958E+06     4.50984E+06    -64.8785E-03     115.516E-03    -50.6379E-03     109.003E-03    -66.0100E-03     116.730E-03    -50.7322E-03     107.564E-03
            2140     11.9855E-03     17.9430E-03    -19.9935E+06    -15.4220E+06    -14.3951E+06     4.74251E+06    -63.0303E-03     112.938E-03    -49.9072E-03     91.5608E-03    -63.6904E-03     113.514E-03    -49.9278E-03     90.4885E-03
            2141     11.1396E-03     17.8497E-03    -20.8675E+06    -49.5964E+06    -12.9651E+06     4.39063E+06    -61.3032E-03     110.443E-03    -49.1397E-03     78.0306E-03    -61.7019E-03     110.629E-03    -49.1024E-03     77.2091E-03
            2142     10.2906E-03     17.7714E-03    -22.0334E+06    -74.9853E+06    -13.6186E+06     4.24051E+06    -59.2393E-03     107.581E-03    -48.3422E-03     66.9171E-03    -59.4695E-03     107.507E-03    -48.2696E-03     66.2977E-03
            2143     9.44139E-03     17.7001E-03    -23.4928E+06    -93.1136E+06    -13.3638E+06     4.13303E+06    -57.0572E-03     104.615E-03    -47.5578E-03     57.9228E-03    -57.1827E-03     104.365E-03    -47.4555E-03     57.4607E-03
            2144     8.58931E-03     17.6391E-03    -25.1993E+06    -106.422E+06    -13.5588E+06     4.39256E+06    -54.9002E-03     101.699E-03    -46.7991E-03     50.1331E-03    -54.9589E-03     101.330E-03    -46.6760E-03     49.7964E-03
            2145     7.73642E-03     17.5840E-03    -26.6280E+06    -117.501E+06    -14.1021E+06     5.18399E+06    -52.8193E-03     98.8995E-03    -46.0801E-03     43.2554E-03    -52.8315E-03     98.4410E-03    -45.9417E-03     43.0229E-03
            2146     6.88125E-03     17.5371E-03    -28.1401E+06    -126.275E+06    -14.5028E+06     5.31076E+06    -50.8407E-03     96.2543E-03    -45.4136E-03     37.0634E-03    -50.8226E-03     95.7302E-03    -45.2622E-03     36.9053E-03
            2147     6.02496E-03     17.4955E-03    -30.8804E+06    -128.884E+06    -17.4359E+06     4.82034E+06    -49.0023E-03     93.7936E-03    -44.7913E-03     31.4746E-03    -48.9735E-03     93.2483E-03    -44.6468E-03     31.3666E-03
            2148     5.16698E-03     17.4609E-03    -34.1111E+06    -133.324E+06    -21.3629E+06     4.43832E+06    -47.3373E-03     91.5778E-03    -44.2405E-03     26.3414E-03    -47.3017E-03     91.0098E-03    -44.1045E-03     26.2721E-03
            2149     4.30794E-03     17.4314E-03    -36.9074E+06    -139.817E+06    -25.5088E+06     4.40471E+06    -45.9056E-03     89.6771E-03    -43.7715E-03     21.5897E-03    -45.8614E-03     89.0794E-03    -43.6427E-03     21.5538E-03
            2150     3.44751E-03     17.4079E-03    -39.8040E+06    -143.114E+06    -31.3872E+06     4.01247E+06    -44.7374E-03     88.1092E-03    -43.3718E-03     17.0656E-03    -44.6896E-03     87.5030E-03    -43.2635E-03     17.0508E-03
            2151     2.58650E-03     17.3893E-03    -42.3416E+06    -146.613E+06    -37.0401E+06     3.18815E+06    -43.8344E-03     86.8878E-03    -43.0534E-03     12.7180E-03    -43.7831E-03     86.2730E-03    -42.9646E-03     12.7133E-03
            2152     1.72469E-03     17.3764E-03    -44.2467E+06    -149.314E+06    -41.7616E+06     2.24094E+06    -43.1763E-03     85.9937E-03    -42.8174E-03     8.55419E-03    -43.1219E-03     85.3732E-03    -42.7455E-03     8.55415E-03
            2153     862.485E-06     17.3682E-03    -45.4569E+06    -151.218E+06    -44.9613E+06     1.19456E+06    -42.8156E-03     85.4354E-03    -42.6197E-03     4.61432E-03    -42.7589E-03     84.8109E-03    -42.5594E-03     4.61461E-03
            2154     16.1994E-03     18.0427E-03    -5.61799E+06     158.026E+06     106.564E+06     435.464E+03    -88.2663E-03     142.903E-03    -54.6363E-03     275.437E-03    -104.277E-03     159.146E-03    -54.3245E-03     275.991E-03
            2155     15.3606E-03     17.6031E-03    -11.2734E+06     141.701E+06     90.9546E+06     1.30728E+06    -92.6561E-03     146.140E-03    -53.4842E-03     356.353E-03    -110.728E-03     164.412E-03    -53.2185E-03     352.421E-03
            2156     14.5222E-03     17.2935E-03    -16.6278E+06     102.018E+06     49.1465E+06     2.50599E+06    -79.7117E-03     132.013E-03    -52.3014E-03     237.815E-03    -86.1538E-03     138.616E-03    -52.1795E-03     234.383E-03
            2157     13.6823E-03     17.1070E-03    -18.6982E+06     69.7138E+06     6.06066E+06     3.97493E+06    -70.1744E-03     121.351E-03    -51.1761E-03     147.491E-03    -72.3938E-03     123.734E-03    -51.2198E-03     145.425E-03
            2158     12.8363E-03     16.9865E-03    -19.4481E+06     31.1068E+06    -15.5055E+06     4.78312E+06    -66.0457E-03     116.254E-03    -50.2085E-03     105.434E-03    -67.1345E-03     117.430E-03    -50.3030E-03     103.991E-03
            2159     11.9932E-03     16.8816E-03    -20.3396E+06    -14.4558E+06    -15.5725E+06     4.80376E+06    -64.1008E-03     113.450E-03    -49.3496E-03     87.5486E-03    -64.7332E-03     114.005E-03    -49.3770E-03     86.4762E-03
            2160     11.1464E-03     16.7944E-03    -20.9409E+06    -49.0254E+06    -14.0628E+06     5.02131E+06    -61.9283E-03     110.392E-03    -48.4634E-03     73.6057E-03    -62.3010E-03     110.557E-03    -48.4323E-03     72.8064E-03
            2161     10.2992E-03     16.7163E-03    -22.1197E+06    -74.0969E+06    -14.4902E+06     5.08234E+06    -59.5047E-03     107.066E-03    -47.5612E-03     62.1706E-03    -59.7149E-03     106.977E-03    -47.4941E-03     61.5814E-03
            2162     9.44908E-03     16.6505E-03    -23.6641E+06    -92.5371E+06    -14.3910E+06      5.0859E+06    -57.0239E-03     103.707E-03    -46.6829E-03     53.2447E-03    -57.1341E-03     103.446E-03    -46.5864E-03     52.8157E-03
            2163     8.59779E-03     16.5907E-03    -25.3590E+06    -106.103E+06    -14.5291E+06     5.19212E+06    -54.6065E-03     100.449E-03    -45.8422E-03     45.6260E-03    -54.6537E-03     100.071E-03    -45.7242E-03     45.3192E-03
            2164     7.74403E-03     16.5400E-03    -26.9121E+06    -117.132E+06    -15.9924E+06     5.08993E+06    -52.2913E-03     97.3384E-03    -45.0472E-03     38.9903E-03    -52.2945E-03     96.8768E-03    -44.9183E-03     38.7742E-03
            2165     6.88885E-03     16.4946E-03    -28.4543E+06    -125.518E+06    -16.0779E+06     5.53785E+06    -50.1181E-03     94.4394E-03    -44.3213E-03     33.1594E-03    -50.0947E-03     93.9161E-03    -44.1784E-03     33.0194E-03
            2166     6.03172E-03     16.4565E-03    -30.1774E+06    -127.571E+06    -17.7792E+06     5.90032E+06    -48.0950E-03     91.7502E-03    -43.6552E-03     27.9660E-03    -48.0603E-03     91.2070E-03    -43.5153E-03     27.8845E-03
            2167     5.17306E-03     16.4235E-03    -32.6999E+06    -131.995E+06    -22.1081E+06     5.83142E+06    -46.3087E-03     89.3751E-03    -43.0664E-03     23.2937E-03    -46.2643E-03     88.8101E-03    -42.9381E-03     23.2525E-03
            2168     4.31288E-03     16.3965E-03    -35.9752E+06    -138.194E+06    -25.8061E+06     5.47182E+06    -44.7993E-03     87.3729E-03    -42.5736E-03     19.0211E-03    -44.7508E-03     86.7809E-03    -42.4501E-03     19.0066E-03
            2169     3.45178E-03     16.3741E-03    -38.7355E+06    -140.747E+06    -30.8743E+06     4.71912E+06    -43.5664E-03     85.7241E-03    -42.1577E-03     15.0061E-03    -43.5166E-03     85.1266E-03    -42.0518E-03     15.0063E-03
            2170     2.58958E-03     16.3572E-03    -40.9298E+06    -144.113E+06    -36.4649E+06     3.80227E+06    -42.6214E-03     84.4498E-03    -41.8284E-03     11.1647E-03    -42.5671E-03     83.8442E-03    -41.7424E-03     11.1720E-03
            2171     1.72678E-03     16.3448E-03    -42.7840E+06    -146.478E+06    -40.5451E+06     2.73877E+06    -41.9446E-03     83.5373E-03    -41.5927E-03     7.49053E-03    -41.8886E-03     82.9269E-03    -41.5210E-03     7.49956E-03
            2172     863.471E-06     16.3375E-03    -43.9550E+06    -148.185E+06    -43.4140E+06     1.48824E+06    -41.5853E-03     82.9879E-03    -41.4026E-03     4.04393E-03    -41.5276E-03     82.3741E-03    -41.3411E-03     4.04940E-03
            2173     16.1942E-03     16.9626E-03    -5.48718E+06     157.033E+06     105.269E+06     528.716E+03    -89.7564E-03     144.403E-03    -54.6464E-03     274.199E-03    -105.399E-03     160.278E-03    -54.3398E-03     274.351E-03
            2174     15.3618E-03     16.5244E-03    -11.5727E+06     140.268E+06     90.3245E+06     1.52530E+06    -94.9049E-03     148.283E-03    -53.3785E-03     350.242E-03    -112.390E-03     165.964E-03    -53.1135E-03     345.905E-03
            2175     14.5274E-03     16.2228E-03    -15.6627E+06     101.411E+06     51.0841E+06     2.43415E+06    -81.2104E-03     133.267E-03    -52.0571E-03     231.181E-03    -87.3773E-03     139.591E-03    -51.9260E-03     227.658E-03
            2176     13.6846E-03     16.0429E-03    -18.4524E+06     68.6463E+06     7.11646E+06     3.64760E+06    -71.5857E-03     122.381E-03    -50.7951E-03     142.253E-03    -73.7027E-03     124.656E-03    -50.8323E-03     140.161E-03
            2177     12.8453E-03     15.9213E-03    -19.4055E+06     30.6411E+06    -16.0596E+06     4.89981E+06    -67.5944E-03     117.272E-03    -49.6775E-03     100.660E-03    -68.6333E-03     118.398E-03    -49.7741E-03     99.2014E-03
            2178     12.0004E-03     15.8236E-03    -19.8526E+06    -13.5853E+06    -16.5367E+06     5.65423E+06    -65.2407E-03     113.907E-03    -48.6667E-03     82.6148E-03    -65.8346E-03     114.431E-03    -48.7009E-03     81.5584E-03
            2179     11.1558E-03     15.7357E-03    -21.0505E+06    -48.4656E+06    -15.4523E+06     5.71468E+06    -62.6182E-03     110.262E-03    -47.6438E-03     68.1338E-03    -62.9607E-03     110.403E-03    -47.6203E-03     67.3615E-03
            2180     10.3084E-03     15.6645E-03    -21.9192E+06    -73.3964E+06    -15.5198E+06     5.81986E+06    -59.7611E-03     106.383E-03    -46.6216E-03     56.5568E-03    -59.9472E-03     106.276E-03    -46.5610E-03     56.0001E-03
            2181     9.45913E-03     15.5997E-03    -23.0430E+06    -91.8031E+06    -15.1950E+06     6.17424E+06    -56.9493E-03     102.586E-03    -45.6370E-03     47.7649E-03    -57.0399E-03     102.314E-03    -45.5464E-03     47.3729E-03
            2182     8.60732E-03     15.5453E-03    -24.5188E+06    -104.890E+06    -15.0913E+06     6.04710E+06    -54.2214E-03     98.9239E-03    -44.7025E-03     40.3403E-03    -54.2533E-03     98.5404E-03    -44.5903E-03     40.0659E-03
            2183     7.75354E-03     15.4964E-03    -26.5277E+06    -116.528E+06    -16.5140E+06     6.08683E+06    -51.6229E-03     95.4526E-03    -43.8296E-03     34.0365E-03    -51.6158E-03     94.9857E-03    -43.7048E-03     33.8524E-03
            2184     6.89755E-03     15.4553E-03    -28.6286E+06    -124.523E+06    -18.6576E+06     5.87392E+06    -49.1931E-03     92.2236E-03    -43.0305E-03     28.6389E-03    -49.1623E-03     91.7033E-03    -42.9017E-03     28.5199E-03
            2185     6.03960E-03     15.4191E-03    -30.2509E+06    -127.039E+06    -19.3897E+06     5.82779E+06    -47.0057E-03     89.3269E-03    -42.3212E-03     23.9502E-03    -46.9657E-03     88.7848E-03    -42.1901E-03     23.8814E-03
            2186     5.17999E-03     15.3891E-03    -31.9040E+06    -131.242E+06    -20.7904E+06     6.84869E+06    -45.1160E-03     86.8217E-03    -41.7057E-03     19.7580E-03    -45.0681E-03     86.2549E-03    -41.5731E-03     19.7404E-03
            2187     4.31897E-03     15.3636E-03    -34.1952E+06    -135.353E+06    -24.8192E+06     6.72923E+06    -43.5088E-03     84.6835E-03    -41.1748E-03     16.0427E-03    -43.4553E-03     84.1000E-03    -41.0530E-03     16.0527E-03
            2188     3.45655E-03     15.3434E-03    -36.9120E+06    -138.185E+06    -30.1751E+06     5.56508E+06    -42.2014E-03     82.9363E-03    -40.7349E-03     12.6267E-03    -42.1463E-03     82.3469E-03    -40.6319E-03     12.6440E-03
            2189     2.59327E-03     15.3273E-03    -39.3033E+06    -141.068E+06    -35.1895E+06     4.56637E+06    -41.2125E-03     81.6052E-03    -40.3927E-03     9.36583E-03    -41.1558E-03     81.0101E-03    -40.3071E-03     9.38739E-03
            2190     1.72924E-03     15.3162E-03    -40.9748E+06     -143.08E+06    -38.7871E+06     3.15281E+06    -40.5164E-03     80.6629E-03    -40.1465E-03     6.24902E-03    -40.4587E-03     80.0640E-03    -40.0735E-03     6.26619E-03
            2191     864.772E-06     15.3091E-03    -42.0299E+06    -144.701E+06    -41.5302E+06     1.72522E+06    -40.1274E-03     80.0825E-03    -39.9551E-03     3.38344E-03    -40.0679E-03     79.4805E-03    -39.8920E-03     3.39347E-03
            2192     16.1936E-03     15.8741E-03    -5.66735E+06     156.473E+06     104.948E+06     1.01690E+06    -91.8051E-03     146.443E-03    -54.6377E-03     270.117E-03    -106.952E-03     161.821E-03    -54.3316E-03     269.840E-03
            2193     15.3659E-03     15.4435E-03    -11.3978E+06     140.286E+06     89.3045E+06     1.47833E+06    -96.6916E-03     149.909E-03    -53.2178E-03     341.400E-03    -113.421E-03     166.838E-03    -52.9582E-03     336.744E-03
            2194     14.5293E-03     15.1522E-03    -16.5086E+06     100.211E+06     47.1201E+06     1.69155E+06    -83.1189E-03     134.839E-03    -51.7203E-03     223.407E-03    -88.9628E-03     140.844E-03    -51.6061E-03     219.786E-03
            2195     13.6947E-03     14.9736E-03    -18.9314E+06     66.3067E+06     2.99243E+06     3.52975E+06    -73.7446E-03     124.026E-03    -50.2810E-03     136.007E-03    -75.7461E-03     126.187E-03    -50.3347E-03     133.868E-03
            2196     12.8517E-03     14.8596E-03    -20.0152E+06     29.8315E+06    -18.7246E+06     5.63332E+06    -69.2554E-03     118.245E-03    -48.9898E-03     94.8551E-03    -70.2325E-03     119.312E-03    -49.0976E-03     93.3965E-03
            2197     12.0110E-03     14.7607E-03    -20.5773E+06    -12.7985E+06    -18.4739E+06     6.17512E+06    -66.4159E-03     114.231E-03    -47.8148E-03     76.2373E-03    -66.9695E-03     114.720E-03    -47.8587E-03     75.1970E-03
            2198     11.1668E-03     14.6808E-03    -20.8206E+06    -47.5006E+06    -16.4102E+06     6.20286E+06    -63.2387E-03     109.884E-03    -46.6449E-03     61.5106E-03    -63.5477E-03     109.998E-03    -46.6279E-03     60.7668E-03
            2199     10.3201E-03     14.6106E-03    -21.4858E+06    -72.7155E+06    -16.2665E+06     6.47128E+06    -59.9726E-03     105.463E-03    -45.4909E-03     50.0603E-03    -60.1330E-03     105.337E-03    -45.4356E-03     49.5371E-03
            2200     9.47088E-03     14.5524E-03    -22.3555E+06    -90.9589E+06    -15.7078E+06     6.75222E+06    -56.8024E-03     101.189E-03    -44.3870E-03     41.4745E-03    -56.8732E-03     100.904E-03    -44.3012E-03     41.1142E-03
            2201     8.61899E-03     14.5000E-03    -23.6075E+06    -103.777E+06    -15.5377E+06     6.98089E+06    -53.7275E-03     97.0737E-03    -43.3461E-03     34.3546E-03    -53.7439E-03     96.6831E-03    -43.2391E-03     34.1149E-03
            2202     7.76473E-03     14.4562E-03    -24.8652E+06    -115.558E+06    -16.1741E+06     7.01919E+06    -50.8065E-03     93.1933E-03    -42.3868E-03     28.3917E-03    -50.7844E-03     92.7197E-03    -42.2640E-03     28.2398E-03
            2203     6.90793E-03     14.4174E-03    -26.1949E+06    -122.655E+06    -17.7917E+06     6.68415E+06    -48.1151E-03     89.6305E-03    -41.5154E-03     23.4901E-03    -48.0702E-03     89.1089E-03    -41.3885E-03     23.3985E-03
            2204     6.04914E-03     14.3850E-03    -28.2493E+06    -126.526E+06    -18.8886E+06     6.55522E+06    -45.7401E-03     86.4888E-03    -40.7486E-03     19.3659E-03    -45.6877E-03     85.9416E-03    -40.6186E-03     19.3204E-03
            2205     5.18839E-03     14.3570E-03    -30.6320E+06    -131.052E+06    -20.3993E+06     7.18076E+06    -43.6984E-03     83.7861E-03    -40.0876E-03     15.8092E-03    -43.6424E-03     83.2152E-03    -39.9552E-03     15.8070E-03
            2206     4.32604E-03     14.3342E-03    -32.8291E+06    -132.569E+06    -23.9214E+06     7.54857E+06    -41.9841E-03     81.5027E-03    -39.5186E-03     12.7351E-03    -41.9275E-03     80.9282E-03    -39.3984E-03     12.7642E-03
            2207     3.46240E-03     14.3153E-03    -35.1850E+06    -134.938E+06    -28.5968E+06     6.71629E+06    -40.6057E-03     79.6565E-03    -39.0508E-03     9.96253E-03    -40.5480E-03     79.0776E-03    -38.9472E-03     10.0009E-03
            2208     2.59770E-03     14.3010E-03    -37.2454E+06    -137.343E+06    -33.2429E+06     5.12935E+06    -39.5523E-03     78.2381E-03    -38.6858E-03     7.37041E-03    -39.4931E-03     77.6552E-03    -38.5988E-03     7.40372E-03
            2209     1.73224E-03     14.2904E-03    -38.7155E+06    -139.256E+06    -36.8898E+06     3.53124E+06    -38.8124E-03     77.2356E-03    -38.4232E-03     4.92086E-03    -38.7514E-03     76.6495E-03    -38.3496E-03     4.94585E-03
            2210     866.241E-06     14.2843E-03    -39.6230E+06    -140.717E+06    -39.4246E+06     2.05720E+06    -38.3908E-03     76.6257E-03    -38.2349E-03     2.67394E-03    -38.3280E-03     76.0369E-03    -38.1705E-03     2.68982E-03
            2211     16.1992E-03     14.7865E-03    -5.02596E+06     155.351E+06     104.759E+06     1.01082E+06    -94.7678E-03     149.326E-03    -54.5583E-03     268.629E-03    -109.515E-03     164.303E-03    -54.2524E-03     267.779E-03
            2212     15.3669E-03     14.3637E-03    -9.81860E+06     139.860E+06     89.8698E+06     2.08369E+06    -98.9319E-03     151.897E-03    -52.9656E-03     332.692E-03    -114.946E-03     168.114E-03    -52.7048E-03     327.702E-03
            2213     14.5382E-03     14.0752E-03    -15.1361E+06     99.6876E+06     43.5837E+06     3.23042E+06    -85.3765E-03     136.633E-03    -51.2561E-03     214.310E-03    -90.8337E-03     142.264E-03    -51.1608E-03     210.606E-03
            2214     13.7001E-03     13.9063E-03    -19.2517E+06     64.3778E+06    -1.02936E+06     4.92263E+06    -76.1362E-03     125.748E-03    -49.6114E-03     128.399E-03    -78.0110E-03     127.786E-03    -49.6819E-03     126.231E-03
            2215     12.8648E-03     13.7923E-03    -20.9191E+06     29.9782E+06    -19.6553E+06     6.09797E+06    -71.0241E-03     119.154E-03    -48.1297E-03     87.4023E-03    -71.9363E-03     120.156E-03    -48.2411E-03     85.9427E-03
            2216     12.0235E-03     13.7016E-03    -20.8656E+06    -11.6685E+06    -20.2819E+06     6.22866E+06    -67.3628E-03     114.135E-03    -46.7723E-03     69.4624E-03    -67.8723E-03     114.588E-03    -46.8265E-03     68.4427E-03
            2217     11.1801E-03     13.6231E-03    -21.0940E+06    -46.8949E+06    -17.7977E+06     6.52937E+06    -63.8488E-03     109.299E-03    -45.4499E-03     54.3788E-03    -64.1265E-03     109.387E-03    -45.4403E-03     53.6623E-03
            2218     10.3341E-03     13.5603E-03    -21.7405E+06    -71.9541E+06    -17.3028E+06     6.93273E+06    -60.1206E-03     104.272E-03    -44.1518E-03     43.0445E-03    -60.2588E-03     104.129E-03    -44.1025E-03     42.5538E-03
            2219     9.48472E-03     13.5046E-03    -22.4853E+06    -90.1779E+06    -16.6200E+06     7.09234E+06    -56.5592E-03     99.4767E-03    -42.9176E-03     34.7449E-03    -56.6142E-03     99.1804E-03    -42.8373E-03     34.4142E-03
            2220     8.63290E-03     13.4582E-03    -23.0825E+06    -102.941E+06    -15.9350E+06     7.29807E+06    -53.1027E-03     94.8654E-03    -41.7627E-03     27.9241E-03    -53.1055E-03     94.4674E-03    -41.6596E-03     27.7115E-03
            2221     7.77780E-03     13.4174E-03    -24.3324E+06    -114.534E+06    -15.8918E+06     7.71725E+06    -49.8362E-03     90.5445E-03    -40.7082E-03     22.4754E-03    -49.8054E-03     90.0669E-03    -40.5863E-03     22.3526E-03
            2222     6.92039E-03     13.3833E-03    -26.3723E+06    -120.788E+06    -17.0605E+06     7.67887E+06    -46.8748E-03     86.6316E-03    -39.7568E-03     18.1675E-03    -46.8292E-03     86.1132E-03    -39.6287E-03     18.1054E-03
            2223     6.06030E-03     13.3534E-03    -28.3251E+06    -125.505E+06    -19.5345E+06     7.48291E+06    -44.2510E-03     83.1696E-03    -38.9186E-03     14.7420E-03    -44.1960E-03     82.6251E-03    -38.7932E-03     14.7221E-03
            2224     5.19829E-03     13.3288E-03    -30.1071E+06    -130.358E+06    -22.1572E+06     7.86454E+06    -42.0361E-03     80.2389E-03    -38.2027E-03     11.8965E-03    -41.9738E-03     79.6710E-03    -38.0808E-03     11.9136E-03
            2225     4.33447E-03     13.3079E-03    -32.0043E+06    -130.223E+06    -23.7388E+06     7.89683E+06    -40.2072E-03     77.8108E-03    -37.6036E-03     9.52943E-03    -40.1489E-03     77.2452E-03    -37.4870E-03     9.57093E-03
            2226     3.46928E-03     13.2913E-03    -33.5154E+06    -131.153E+06    -26.6016E+06     6.95583E+06    -38.7455E-03     75.8587E-03    -37.1132E-03     7.46141E-03    -38.6872E-03     75.2926E-03    -37.0074E-03     7.50861E-03
            2227     2.60293E-03     13.2780E-03    -34.9198E+06    -133.349E+06    -31.0939E+06     5.51305E+06    -37.6301E-03     74.3582E-03    -36.7281E-03     5.55246E-03    -37.5677E-03     73.7883E-03    -36.6396E-03     5.59469E-03
            2228     1.73573E-03     13.2689E-03    -36.3101E+06    -135.123E+06    -34.4125E+06     3.89339E+06    -36.8557E-03     73.3113E-03    -36.4556E-03     3.72868E-03    -36.7921E-03     72.7386E-03    -36.3791E-03     3.76086E-03
            2229     868.017E-06     13.2629E-03    -37.1194E+06    -136.271E+06    -36.6326E+06     2.15251E+06    -36.4174E-03     72.6812E-03    -36.2638E-03     2.00561E-03    -36.3526E-03     72.1069E-03    -36.1955E-03     2.02402E-03
            2230     16.1941E-03     13.6954E-03    -5.54925E+06     154.171E+06     103.215E+06     287.078E+03    -98.6030E-03     153.045E-03    -54.4416E-03     265.179E-03    -112.801E-03     167.471E-03    -54.1410E-03     263.532E-03
            2231     15.3758E-03     13.2738E-03    -11.6720E+06     136.931E+06     87.8715E+06     612.253E+03    -102.069E-03     154.692E-03    -52.6235E-03     323.241E-03    -117.320E-03     170.134E-03    -52.3657E-03     317.687E-03
            2232     14.5447E-03     13.0036E-03    -15.9314E+06     97.7808E+06     45.5729E+06     4.47126E+06    -88.2187E-03     138.910E-03    -50.6910E-03     205.638E-03    -93.3505E-03     144.201E-03    -50.5818E-03     201.810E-03
            2233     13.7147E-03     12.8302E-03    -18.9797E+06     64.0232E+06     1.58973E+06     6.42797E+06    -78.5918E-03     127.405E-03    -48.8133E-03     120.755E-03    -80.3520E-03     129.322E-03    -48.8706E-03     118.560E-03
            2234     12.8774E-03     12.7295E-03    -20.0323E+06     30.2188E+06    -19.9421E+06     6.35888E+06    -72.5850E-03     119.694E-03    -47.1093E-03     79.7936E-03    -73.4240E-03     120.628E-03    -47.2237E-03     78.3410E-03
            2235     12.0376E-03     12.6390E-03    -20.2735E+06    -10.3611E+06    -21.2893E+06     6.87622E+06    -68.4807E-03     114.044E-03    -45.5635E-03     62.5689E-03    -68.9465E-03     114.464E-03    -45.6255E-03     61.5747E-03
            2236     11.1959E-03     12.5685E-03    -21.0161E+06    -45.8691E+06    -18.5971E+06     7.12168E+06    -64.3409E-03     108.416E-03    -44.0754E-03     46.7078E-03    -64.5869E-03     108.480E-03    -44.0714E-03     46.0251E-03
            2237     10.3497E-03     12.5094E-03    -21.9252E+06    -71.2042E+06    -17.9246E+06     7.31200E+06    -60.1365E-03     102.767E-03    -42.6308E-03     35.9594E-03    -60.2548E-03     102.608E-03    -42.5854E-03     35.5002E-03
            2238     9.50098E-03     12.4601E-03    -22.6660E+06    -89.0000E+06    -17.0150E+06     7.45921E+06    -56.1396E-03     97.4060E-03    -41.2664E-03     28.0969E-03    -56.1822E-03     97.1020E-03    -41.1896E-03     27.7959E-03
            2239     8.64823E-03     12.4176E-03    -24.0997E+06    -102.571E+06    -16.2889E+06     7.86448E+06    -52.2541E-03     92.2574E-03    -40.0033E-03     21.8405E-03    -52.2521E-03     91.8533E-03    -39.9010E-03     21.6578E-03
            2240     7.79278E-03     12.3823E-03    -25.7804E+06    -113.651E+06    -16.0025E+06     8.45608E+06    -48.6677E-03     87.5260E-03    -38.8583E-03     17.1280E-03    -48.6388E-03     87.0487E-03    -38.7361E-03     17.0334E-03
            2241     6.93397E-03     12.3516E-03    -27.2594E+06    -118.979E+06    -17.0400E+06     8.35075E+06    -45.4218E-03     83.2528E-03    -37.8310E-03     13.5487E-03    -45.3792E-03     82.7405E-03    -37.7041E-03     13.5103E-03
            2242     6.07281E-03     12.3261E-03    -29.0567E+06    -124.259E+06    -19.7877E+06     8.25104E+06    -42.5783E-03     79.5130E-03    -36.9347E-03     10.8615E-03    -42.5259E-03     78.9737E-03    -36.8114E-03     10.8629E-03
            2243     5.20913E-03     12.3040E-03    -30.7484E+06    -128.555E+06    -22.0982E+06     7.95861E+06    -40.1824E-03     76.3610E-03    -36.1787E-03     8.80022E-03    -40.1245E-03     75.8016E-03    -36.0582E-03     8.82734E-03
            2244     4.34370E-03     12.2860E-03    -31.3145E+06    -127.570E+06    -23.0577E+06     7.06731E+06    -38.2347E-03     73.7890E-03    -35.5543E-03     7.13400E-03    -38.1770E-03     73.2339E-03    -35.4392E-03     7.17113E-03
            2245     3.47663E-03     12.2709E-03    -31.8770E+06    -128.111E+06    -25.6418E+06     6.41256E+06    -36.7085E-03     71.7595E-03    -35.0510E-03     5.64830E-03    -36.6474E-03     71.2045E-03    -34.9472E-03     5.69285E-03
            2246     2.60845E-03     12.2596E-03    -32.9140E+06    -129.405E+06    -28.7022E+06     5.50535E+06    -35.5738E-03     70.2394E-03    -34.6657E-03     4.27048E-03    -35.5104E-03     69.6828E-03    -34.5738E-03     4.31549E-03
            2247     1.73944E-03     12.2511E-03    -33.8481E+06    -130.703E+06    -31.3503E+06     3.78452E+06    -34.7925E-03     69.1841E-03    -34.3916E-03     2.91592E-03    -34.7274E-03     68.6255E-03    -34.3098E-03     2.94845E-03
            2248     869.856E-06     12.2462E-03    -34.3889E+06    -131.905E+06    -33.8284E+06     1.97207E+06    -34.3690E-03     68.5459E-03    -34.1769E-03     1.57527E-03    -34.3009E-03     67.9854E-03    -34.1049E-03     1.59225E-03
            2249     16.2050E-03     12.5985E-03    -4.22591E+06     155.049E+06     103.967E+06     1.53086E+06    -102.844E-03     157.130E-03    -54.2863E-03     260.385E-03    -116.400E-03     170.921E-03    -53.9852E-03     258.008E-03
            2250     15.3783E-03     12.1879E-03    -11.1420E+06     135.471E+06     87.7546E+06     2.26002E+06    -105.568E-03     157.807E-03    -52.2385E-03     316.644E-03    -120.117E-03     172.543E-03    -51.9801E-03     310.620E-03
            2251     14.5562E-03     11.9198E-03    -17.1269E+06     94.3200E+06     46.0465E+06     3.90785E+06    -92.3395E-03     142.381E-03    -50.0417E-03     196.190E-03    -97.1755E-03     147.359E-03    -49.9234E-03     192.115E-03
            2252     13.7255E-03     11.7587E-03    -18.8075E+06     63.1408E+06     3.87159E+06     6.17475E+06    -81.0259E-03     128.919E-03    -47.8931E-03     111.574E-03    -82.6529E-03     130.694E-03    -47.9381E-03     109.351E-03
            2253     12.8918E-03     11.6617E-03    -19.0535E+06     31.4577E+06    -19.7313E+06     7.70282E+06    -74.2340E-03     120.191E-03    -45.9567E-03     71.5978E-03    -74.9983E-03     121.057E-03    -46.0734E-03     70.1759E-03
            2254     12.0551E-03     11.5785E-03    -20.4063E+06    -8.93065E+06    -22.6402E+06     7.86977E+06    -69.4855E-03     113.699E-03    -44.2133E-03     54.6937E-03    -69.9105E-03     114.086E-03    -44.2839E-03     53.7314E-03
            2255     11.2127E-03     11.5135E-03    -21.4233E+06    -44.9201E+06    -19.2158E+06     7.97799E+06    -64.4429E-03     107.016E-03    -42.5729E-03     39.4643E-03    -64.6619E-03     107.056E-03    -42.5728E-03     38.8260E-03
            2256     10.3675E-03     11.4612E-03    -22.3387E+06    -69.7464E+06    -17.7063E+06     8.02279E+06    -59.8010E-03     100.809E-03    -41.0077E-03     29.5521E-03    -59.9058E-03     100.639E-03    -40.9627E-03     29.1304E-03
            2257     9.51760E-03     11.4169E-03    -23.6990E+06    -88.2701E+06    -16.7717E+06     8.08066E+06    -55.3189E-03     94.8631E-03    -39.5442E-03     22.4226E-03    -55.3563E-03     94.5522E-03    -39.4657E-03     22.1553E-03
            2258     8.66462E-03     11.3807E-03    -24.9576E+06    -102.117E+06    -15.2509E+06     8.68495E+06    -51.0909E-03     89.2985E-03    -38.2076E-03     17.0502E-03    -51.0881E-03     88.8892E-03    -38.0996E-03     16.8990E-03
            2259     7.80761E-03     11.3498E-03    -26.1603E+06    -111.994E+06    -14.7880E+06     8.52511E+06    -47.2315E-03     84.2343E-03    -37.0028E-03     13.2139E-03    -47.2043E-03     83.7598E-03    -36.8764E-03     13.1366E-03
            2260     6.94783E-03     11.3242E-03    -27.3320E+06    -117.713E+06    -15.2917E+06     8.29608E+06    -43.7934E-03     79.7297E-03    -35.9363E-03     10.4428E-03    -43.7532E-03     79.2190E-03    -35.8024E-03     10.4157E-03
            2261     6.08489E-03     11.3020E-03    -28.5937E+06    -122.813E+06    -17.2551E+06     8.53542E+06    -40.8121E-03     75.8257E-03    -35.0137E-03     8.45829E-03    -40.7619E-03     75.2881E-03    -34.8804E-03     8.47192E-03
            2262     5.21976E-03     11.2837E-03    -29.6424E+06    -125.122E+06    -19.8060E+06     7.33722E+06    -38.3047E-03     72.5399E-03    -34.2351E-03     7.06368E-03    -38.2490E-03     71.9921E-03    -34.1098E-03     7.08896E-03
            2263     4.35244E-03     11.2678E-03    -30.7334E+06    -125.257E+06    -22.1025E+06     5.82587E+06    -36.2851E-03     69.8858E-03    -33.6008E-03     5.90734E-03    -36.2289E-03     69.3398E-03    -33.4851E-03     5.93280E-03
            2264     3.48370E-03     11.2553E-03    -31.4193E+06    -125.760E+06    -24.5786E+06     5.23122E+06    -34.7404E-03     67.8406E-03    -33.1002E-03     4.79977E-03    -34.6818E-03     67.2950E-03    -32.9951E-03     4.83196E-03
            2265     2.61371E-03     11.2450E-03    -31.5013E+06    -125.876E+06    -26.2432E+06     4.27414E+06    -33.6073E-03     66.3318E-03    -32.7245E-03     3.72533E-03    -33.5455E-03     65.7871E-03    -32.6275E-03     3.75634E-03
            2266     1.74292E-03     11.2379E-03    -31.6464E+06    -126.857E+06    -28.8535E+06     3.03221E+06    -32.8408E-03     65.2974E-03    -32.4565E-03     2.59001E-03    -32.7739E-03     64.7512E-03    -32.3710E-03     2.61394E-03
            2267     871.602E-06     11.2332E-03    -31.8848E+06    -127.986E+06    -31.3060E+06     1.68246E+06    -32.4264E-03     64.6834E-03    -32.2570E-03     1.43806E-03    -32.3550E-03     64.1352E-03    -32.1817E-03     1.45184E-03
            2268     16.2018E-03     11.5061E-03    -4.97419E+06     153.393E+06     102.679E+06     1.48975E+06    -108.135E-03     162.309E-03    -54.1737E-03     256.788E-03    -121.228E-03     175.631E-03    -53.8756E-03     253.436E-03
            2269     15.3849E-03     11.0908E-03    -10.2556E+06     134.093E+06     88.5975E+06     3.26350E+06    -111.454E-03     163.258E-03    -51.8039E-03     307.769E-03    -125.308E-03     177.296E-03    -51.5405E-03     300.931E-03
            2270     14.5661E-03     10.8329E-03    -14.6051E+06     93.0950E+06     47.5761E+06     4.65356E+06    -96.2122E-03     145.471E-03    -49.2586E-03     182.216E-03    -100.631E-03     150.033E-03    -49.1345E-03     177.970E-03
            2271     13.7420E-03     10.6849E-03    -18.0216E+06     61.6124E+06     5.36416E+06     6.77987E+06    -83.3130E-03     130.143E-03    -46.8300E-03     99.1660E-03    -84.7655E-03     131.737E-03    -46.8664E-03     96.9577E-03
            2272     12.9093E-03     10.5934E-03    -20.5556E+06     31.7237E+06    -19.6018E+06     8.99827E+06    -75.1858E-03     119.870E-03    -44.6847E-03     63.1009E-03    -75.8862E-03     120.669E-03    -44.7989E-03     61.7341E-03
            2273     12.0719E-03     10.5184E-03    -21.6556E+06    -7.09656E+06    -23.8984E+06     9.32189E+06    -69.5056E-03     112.300E-03    -42.7941E-03     47.2487E-03    -69.8942E-03     112.657E-03    -42.8719E-03     46.3514E-03
            2274     11.2306E-03     10.4606E-03    -22.8568E+06    -43.6272E+06    -19.6321E+06     9.12506E+06    -63.9571E-03     105.018E-03    -41.0608E-03     33.5429E-03    -64.1598E-03     105.042E-03    -41.0626E-03     32.9600E-03
            2275     10.3841E-03     10.4144E-03    -24.2998E+06    -68.0649E+06    -17.0360E+06     9.02755E+06    -58.8219E-03     98.2548E-03    -39.4329E-03     24.6688E-03    -58.9254E-03     98.0805E-03    -39.3842E-03     24.2937E-03
            2276     9.53393E-03     10.3771E-03    -25.5654E+06    -86.9515E+06    -15.5606E+06     8.62600E+06    -53.9847E-03     91.9176E-03    -37.9329E-03     18.5668E-03    -54.0269E-03     91.6060E-03    -37.8475E-03     18.3329E-03
            2277     8.67913E-03     10.3463E-03    -26.1286E+06    -100.845E+06    -13.8785E+06     7.92927E+06    -49.5352E-03     86.1148E-03    -36.5795E-03     14.2429E-03    -49.5378E-03     85.7072E-03    -36.4648E-03     14.1015E-03
            2278     7.82114E-03     10.3212E-03    -25.9579E+06    -110.126E+06    -12.5486E+06     7.43903E+06    -45.5615E-03     80.9375E-03    -35.3760E-03     11.3057E-03    -45.5373E-03     80.4669E-03    -35.2415E-03     11.2280E-03
            2279     6.95944E-03     10.2997E-03    -26.3775E+06    -117.212E+06    -12.2715E+06     7.67152E+06    -42.0868E-03     76.4114E-03    -34.3246E-03     9.29731E-03    -42.0460E-03     75.8966E-03    -34.1778E-03     9.27158E-03
            2280     6.09525E-03     10.2821E-03    -27.3208E+06    -120.920E+06    -13.3392E+06     7.66785E+06    -39.1294E-03     72.5475E-03    -33.4181E-03     7.88524E-03    -39.0810E-03     72.0116E-03    -33.2698E-03     7.89376E-03
            2281     5.22839E-03     10.2666E-03    -28.5105E+06    -121.577E+06    -16.4345E+06     6.62802E+06    -36.6562E-03     69.3037E-03    -32.6475E-03     6.87608E-03    -36.6048E-03     68.7671E-03    -32.5121E-03     6.89614E-03
            2282     4.35974E-03     10.2538E-03    -29.7799E+06    -122.617E+06    -19.9988E+06     5.04105E+06    -34.6641E-03     66.6833E-03    -32.0192E-03     5.97603E-03    -34.6100E-03     66.1461E-03    -31.8982E-03     5.99388E-03
            2283     3.48939E-03     10.2429E-03    -30.4589E+06    -123.258E+06    -22.8122E+06     3.31880E+06    -33.1367E-03     64.6634E-03    -31.5267E-03     5.00891E-03    -33.0795E-03     64.1266E-03    -31.4178E-03     5.01807E-03
            2284     2.61800E-03     10.2345E-03    -30.5320E+06    -123.535E+06    -24.8278E+06     2.21500E+06    -32.0231E-03     63.1807E-03    -31.1576E-03     3.95398E-03    -31.9619E-03     62.6445E-03    -31.0584E-03     3.95946E-03
            2285     1.74574E-03     10.2280E-03    -30.4838E+06    -124.463E+06    -27.5914E+06     1.66211E+06    -31.2662E-03     62.1626E-03    -30.8964E-03     2.76177E-03    -31.1988E-03     61.6250E-03    -30.8097E-03     2.76860E-03
            2286     872.988E-06     10.2243E-03    -30.3284E+06    -125.117E+06    -29.5751E+06     1.09536E+06    -30.8640E-03     61.5736E-03    -30.7097E-03     1.54607E-03    -30.7915E-03     61.0351E-03    -30.6321E-03     1.55259E-03
            2287     16.2012E-03     10.3885E-03    -5.46889E+06     151.277E+06     101.762E+06     1.17477E+06    -115.170E-03     169.160E-03    -53.9898E-03     249.762E-03    -127.649E-03     181.861E-03    -53.6924E-03     245.211E-03
            2288     15.3971E-03     9.99342E-03    -9.63717E+06     131.948E+06     88.4081E+06     2.29895E+06    -117.893E-03     169.069E-03    -51.1763E-03     291.357E-03    -130.702E-03     182.059E-03    -50.9116E-03     283.627E-03
            2289     14.5821E-03     9.74175E-03    -13.9775E+06     91.3278E+06     49.6124E+06     5.90259E+06    -98.7097E-03     146.986E-03    -48.2762E-03     166.121E-03    -102.625E-03     151.035E-03    -48.1403E-03     161.890E-03
            2290     13.7585E-03     9.60892E-03    -18.4912E+06     58.9548E+06     6.96808E+06     8.92455E+06    -83.9045E-03     129.553E-03    -45.6485E-03     86.5184E-03    -85.1692E-03     130.943E-03    -45.6724E-03     84.4419E-03
            2291     12.9267E-03     9.52732E-03    -21.3919E+06     31.6284E+06    -19.9604E+06     10.7196E+06    -74.8258E-03     118.210E-03    -43.3837E-03     55.7212E-03    -75.4618E-03     118.941E-03    -43.4984E-03     54.4540E-03
            2292     12.0893E-03     9.45962E-03    -23.6116E+06    -4.73314E+06    -24.3598E+06     11.5019E+06    -68.4512E-03     109.893E-03    -41.4415E-03     41.3616E-03    -68.8122E-03     110.225E-03    -41.5222E-03     40.5628E-03
            2293     11.2462E-03     9.40975E-03    -25.6902E+06    -41.0373E+06    -19.0186E+06     10.6593E+06    -62.5263E-03     102.229E-03    -39.7028E-03     29.1408E-03    -62.7273E-03     102.249E-03    -39.7011E-03     28.6290E-03
            2294     10.3989E-03     9.37078E-03    -26.8189E+06    -65.6617E+06    -15.5354E+06     9.07487E+06    -57.0404E-03     95.1395E-03    -38.0991E-03     21.7313E-03    -57.1513E-03     94.9678E-03    -38.0427E-03     21.3963E-03
            2295     9.54656E-03     9.34006E-03    -26.7995E+06    -84.6005E+06    -13.1324E+06     7.68222E+06    -52.0659E-03     88.7159E-03    -36.6499E-03     16.8973E-03    -52.1162E-03     88.4093E-03    -36.5541E-03     16.6788E-03
            2296     8.69054E-03     9.31551E-03    -26.8096E+06    -98.5652E+06    -11.4217E+06     6.36236E+06    -47.6308E-03     82.9919E-03    -35.3611E-03     13.7079E-03    -47.6418E-03     82.5913E-03    -35.2364E-03     13.5649E-03
            2297     7.83044E-03     9.29534E-03    -27.4031E+06    -109.145E+06    -10.4889E+06     5.69524E+06    -43.7672E-03     77.9987E-03    -34.2315E-03     11.6130E-03    -43.7542E-03     77.5317E-03    -34.0859E-03     11.5247E-03
            2298     6.96754E-03     9.27886E-03    -27.7504E+06    -116.732E+06    -10.2345E+06     5.82179E+06    -40.4879E-03     73.7398E-03    -33.2519E-03     10.2249E-03    -40.4579E-03     73.2268E-03    -33.0936E-03     10.1826E-03
            2299     6.10165E-03     9.26457E-03    -28.0060E+06    -119.349E+06    -10.9832E+06     5.91594E+06    -37.7533E-03     70.1587E-03    -32.4055E-03     9.15066E-03    -37.7144E-03     69.6288E-03    -32.2467E-03     9.14083E-03
            2300     5.23386E-03     9.25272E-03    -28.5202E+06    -118.652E+06    -12.6799E+06     5.05368E+06    -35.4818E-03     67.1656E-03    -31.6838E-03     8.23889E-03    -35.4405E-03     66.6387E-03    -31.5338E-03     8.24094E-03
            2301     4.36403E-03     9.24213E-03    -28.8312E+06    -119.466E+06    -16.2821E+06     3.15048E+06    -33.6300E-03     64.7111E-03    -31.0812E-03     7.32040E-03    -33.5814E-03     64.1834E-03    -30.9475E-03     7.31518E-03
            2302     3.49292E-03     9.23350E-03    -29.1314E+06    -121.016E+06    -20.7250E+06     1.51986E+06    -32.1824E-03     62.7774E-03    -30.5950E-03     6.21016E-03    -32.1250E-03     62.2471E-03    -30.4809E-03     6.19698E-03
            2303     2.62057E-03     9.22622E-03    -29.8456E+06    -122.275E+06    -24.2012E+06     543.654E+03    -31.0991E-03     61.3239E-03    -30.2249E-03     4.90362E-03    -31.0372E-03     60.7922E-03    -30.1253E-03     4.88811E-03
            2304     1.74751E-03     9.22110E-03    -30.2985E+06    -123.587E+06    -27.4836E+06     123.031E+03    -30.3540E-03     60.3104E-03    -29.9563E-03     3.40951E-03    -30.2871E-03     59.7768E-03    -29.8706E-03     3.39683E-03
            2305     873.868E-06     9.21763E-03    -30.2065E+06    -123.995E+06    -29.2323E+06     54.7938E+03    -29.9290E-03     59.6834E-03    -29.7544E-03     1.90097E-03    -29.8580E-03     59.1499E-03    -29.6770E-03     1.89426E-03
            2306     16.2120E-03     9.27049E-03    -5.42035E+06     149.821E+06     101.651E+06     636.860E+03    -123.374E-03     176.976E-03    -53.6020E-03     245.504E-03    -135.086E-03     188.907E-03    -53.3032E-03     239.790E-03
            2307     15.4094E-03     8.88328E-03    -9.95419E+06     128.746E+06     88.1833E+06     2.93206E+06    -122.686E-03     173.070E-03    -50.3846E-03     275.515E-03    -134.302E-03     184.857E-03    -50.1159E-03     267.299E-03
            2308     14.6007E-03     8.65239E-03    -16.1382E+06     87.3097E+06     50.2671E+06     7.27953E+06    -99.8244E-03     147.048E-03    -47.2235E-03     150.310E-03    -103.240E-03     150.575E-03    -47.0754E-03     146.258E-03
            2309     13.7759E-03     8.53473E-03    -19.7804E+06     55.8588E+06     9.56055E+06     11.0673E+06    -82.6353E-03     127.144E-03    -44.5092E-03     76.3692E-03    -83.7292E-03     128.341E-03    -44.5137E-03     74.5163E-03
            2310     12.9425E-03     8.46249E-03    -22.9711E+06     31.4113E+06    -18.4223E+06     14.3077E+06    -73.2137E-03     115.456E-03    -42.2427E-03     50.2581E-03    -73.7935E-03     116.121E-03    -42.3471E-03     49.1564E-03
            2311     12.1032E-03     8.40402E-03    -26.9011E+06    -846.363E+03    -23.0975E+06     14.3703E+06    -66.4279E-03     106.769E-03    -40.3407E-03     37.9318E-03    -66.7817E-03     107.092E-03    -40.4160E-03     37.2532E-03
            2312     11.2587E-03     8.36182E-03    -28.6409E+06    -35.8531E+06    -16.0096E+06     10.8634E+06    -60.0960E-03     98.7901E-03    -38.6941E-03     27.0542E-03    -60.3075E-03     98.8199E-03    -38.6806E-03     26.6069E-03
            2313     10.4087E-03     8.33057E-03    -28.3937E+06    -62.0625E+06    -12.0946E+06     7.33962E+06    -54.4616E-03     91.6791E-03    -37.2175E-03     21.2515E-03    -54.5833E-03     91.5154E-03    -37.1468E-03     20.9381E-03
            2314     9.55440E-03     8.30633E-03    -27.8392E+06    -82.2055E+06    -9.35865E+06     5.29518E+06    -49.6383E-03     85.5573E-03    -35.9190E-03     17.7206E-03    -49.7000E-03     85.2560E-03    -35.8062E-03     17.5005E-03
            2315     8.69590E-03     8.28748E-03    -27.8115E+06    -97.0666E+06    -7.09118E+06     4.64418E+06    -45.5248E-03     80.3130E-03    -34.7882E-03     15.5046E-03    -45.5488E-03     79.9147E-03    -34.6426E-03     15.3576E-03
            2316     7.83438E-03     8.27243E-03    -28.5793E+06    -107.999E+06    -6.94349E+06     4.22403E+06    -42.0852E-03     75.8868E-03    -33.8016E-03     14.0674E-03    -42.0854E-03     75.4226E-03    -33.6383E-03     13.9708E-03
            2317     6.96980E-03     8.25983E-03    -29.6372E+06    -115.773E+06    -7.75695E+06     3.41011E+06    -39.2466E-03     72.1924E-03    -32.9458E-03     13.0228E-03    -39.2318E-03     71.6841E-03    -32.7738E-03     12.9551E-03
            2318     6.10327E-03     8.24921E-03    -29.6938E+06    -117.972E+06    -7.80950E+06     2.41673E+06    -36.9059E-03     69.1115E-03    -32.2056E-03     12.0437E-03    -36.8828E-03     68.5870E-03    -32.0306E-03     11.9919E-03
            2319     5.23464E-03     8.23987E-03    -28.6716E+06    -116.497E+06    -9.08991E+06     1.23721E+06    -34.9706E-03     66.5303E-03    -31.5597E-03     10.9652E-03    -34.9389E-03     66.0097E-03    -31.3946E-03     10.9196E-03
            2320     4.36465E-03     8.23195E-03    -28.3132E+06    -117.568E+06    -13.2950E+06     380.806E+03    -33.3649E-03     64.3681E-03    -31.0032E-03     9.73732E-03    -33.3212E-03     63.8451E-03    -30.8582E-03     9.69720E-03
            2321     3.49321E-03     8.22490E-03    -29.0489E+06    -119.784E+06    -18.5458E+06    -282.628E+03    -32.0565E-03     62.5977E-03    -30.5412E-03     8.26568E-03    -32.0038E-03     62.0705E-03    -30.4182E-03     8.22996E-03
            2322     2.62089E-03     8.21934E-03    -29.9203E+06    -121.770E+06    -23.1027E+06    -838.218E+03    -31.0459E-03     61.2214E-03    -30.1755E-03     6.51147E-03    -30.9869E-03     60.6909E-03    -30.0711E-03     6.47875E-03
            2323     1.74768E-03     8.21496E-03    -30.6548E+06    -123.780E+06    -27.4795E+06    -1.08454E+06    -30.3132E-03     60.2122E-03    -29.8990E-03     4.52618E-03    -30.2478E-03     59.6782E-03    -29.8125E-03     4.49838E-03
            2324     874.084E-06     8.21237E-03    -31.0841E+06    -124.826E+06    -30.0956E+06    -839.748E+03    -29.8447E-03     59.5560E-03    -29.7114E-03     2.50939E-03    -29.7756E-03     59.0209E-03    -29.6358E-03     2.49142E-03
            2325     16.2179E-03     8.14579E-03    -5.91167E+06     148.227E+06     100.673E+06     749.598E+03    -131.880E-03     185.034E-03    -53.1544E-03     239.906E-03    -142.723E-03     196.093E-03    -52.8574E-03     233.179E-03
            2326     15.4234E-03     7.76606E-03    -12.1629E+06     123.916E+06     86.5051E+06     3.90652E+06    -125.031E-03     174.635E-03    -49.6041E-03     259.211E-03    -135.420E-03     185.176E-03    -49.3337E-03     250.960E-03
            2327     14.6139E-03     7.56305E-03    -17.8732E+06     82.6059E+06     51.6123E+06     8.76874E+06    -98.7975E-03     145.124E-03    -46.3265E-03     133.776E-03    -101.709E-03     148.121E-03    -46.1623E-03     130.079E-03
            2328     13.7891E-03     7.46255E-03    -22.7668E+06     51.4885E+06     13.7111E+06     13.9880E+06    -80.5289E-03     124.166E-03    -43.6375E-03     68.3524E-03    -81.4912E-03     125.194E-03    -43.6106E-03     66.7452E-03
            2329     12.9535E-03     7.40169E-03    -27.2675E+06     30.5347E+06    -11.9430E+06     17.6309E+06    -70.4683E-03     111.943E-03    -41.4749E-03     47.5018E-03    -71.0197E-03     112.542E-03    -41.5393E-03     46.5900E-03
            2330     12.1119E-03     7.35070E-03    -29.1895E+06     6.21138E+06    -15.2744E+06     15.7202E+06    -63.3320E-03     103.047E-03    -39.7147E-03     36.7110E-03    -63.6932E-03     103.372E-03    -39.7577E-03     36.1453E-03
            2331     11.2644E-03     7.31812E-03    -29.4963E+06    -27.8204E+06    -8.72355E+06     9.33773E+06    -56.7631E-03     95.0206E-03    -38.2574E-03     27.5985E-03    -56.9875E-03     95.0677E-03    -38.2179E-03     27.2024E-03
            2332     10.4117E-03     7.29361E-03    -29.3956E+06    -57.9656E+06    -5.66273E+06     4.41325E+06    -51.3643E-03     88.3753E-03    -37.0109E-03     23.6114E-03    -51.5013E-03     88.2191E-03    -36.9126E-03     23.3069E-03
            2333     9.55457E-03     7.27570E-03    -29.0147E+06    -80.6082E+06    -3.17821E+06     2.47202E+06    -47.0352E-03     82.9867E-03    -35.9516E-03     21.0974E-03    -47.1123E-03     82.6845E-03    -35.8085E-03     20.8707E-03
            2334     8.69420E-03     7.26184E-03    -28.8077E+06    -96.4607E+06    -840.569E+03     1.77260E+06    -43.5580E-03     78.6069E-03    -35.0489E-03     19.5806E-03    -43.5969E-03     78.2039E-03    -34.8715E-03     19.4143E-03
            2335     7.83095E-03     7.25086E-03    -28.5053E+06    -107.202E+06    -304.339E+03     1.47057E+06    -40.8203E-03     75.0849E-03    -34.2646E-03     18.4157E-03    -40.8317E-03     74.6157E-03    -34.0693E-03     18.2931E-03
            2336     6.96580E-03     7.24177E-03    -28.3532E+06    -113.869E+06    -1.87580E+06     415.470E+03    -38.6106E-03     72.1821E-03    -33.5715E-03     17.3571E-03    -38.6016E-03     71.6737E-03    -33.3746E-03     17.2557E-03
            2337     6.09867E-03     7.23382E-03    -28.3256E+06    -115.795E+06    -4.33597E+06    -1.94685E+06    -36.7895E-03     69.7452E-03    -32.9557E-03     16.1593E-03    -36.7685E-03     69.2252E-03    -32.7684E-03     16.0538E-03
            2338     5.23030E-03     7.22698E-03    -28.4733E+06    -116.361E+06    -7.97200E+06    -3.12273E+06    -35.2610E-03     67.6696E-03    -32.4086E-03     14.6642E-03    -35.2307E-03     67.1482E-03    -32.2384E-03     14.5637E-03
            2339     4.36056E-03     7.22087E-03    -28.8110E+06    -117.856E+06    -12.3271E+06    -2.67875E+06    -33.9590E-03     65.8895E-03    -31.9305E-03     12.9119E-03    -33.9191E-03     65.3646E-03    -31.7795E-03     12.8334E-03
            2340     3.48989E-03     7.21576E-03    -29.4257E+06    -119.712E+06    -16.8592E+06    -2.52650E+06    -32.8573E-03     64.3814E-03    -31.5241E-03     10.8971E-03    -32.8092E-03     63.8526E-03    -31.3921E-03     10.8334E-03
            2341     2.61821E-03     7.21128E-03    -30.3864E+06    -122.388E+06    -22.3037E+06    -2.54911E+06    -31.9674E-03     63.1570E-03    -31.1896E-03     8.56069E-03    -31.9110E-03     62.6228E-03    -31.0796E-03     8.50686E-03
            2342     1.74598E-03     7.20815E-03    -31.3095E+06    -125.194E+06    -27.7095E+06    -2.03138E+06    -31.2969E-03     62.2325E-03    -30.9356E-03     5.93549E-03    -31.2325E-03     61.6926E-03    -30.8472E-03     5.89628E-03
            2343     873.014E-06     7.20606E-03    -32.0342E+06    -126.930E+06    -31.0790E+06    -1.19859E+06    -30.8668E-03     61.6489E-03    -30.7821E-03     3.28290E-03    -30.7981E-03     61.1060E-03    -30.7070E-03     3.26075E-03
            2344     16.2286E-03     7.00697E-03    -5.61847E+06     146.099E+06     99.7347E+06     2.18491E+06    -139.881E-03     192.672E-03    -52.7911E-03     227.897E-03    -149.611E-03     202.617E-03    -52.4961E-03     220.481E-03
            2345     15.4350E-03     6.65272E-03    -12.8743E+06     119.898E+06     84.8592E+06     6.57556E+06    -124.207E-03     173.193E-03    -48.9858E-03     240.575E-03    -133.218E-03     182.345E-03    -48.7167E-03     232.829E-03
            2346     14.6240E-03     6.47258E-03    -20.6251E+06     76.3566E+06     52.7126E+06     11.7540E+06    -95.1940E-03     140.962E-03    -45.7678E-03     119.044E-03    -97.5934E-03     143.411E-03    -45.5851E-03     115.897E-03
            2347     13.7963E-03     6.39532E-03    -27.0141E+06     47.0442E+06     22.3468E+06     16.7889E+06    -77.3197E-03     120.585E-03    -43.2653E-03     62.8658E-03    -78.1785E-03     121.453E-03    -43.1827E-03     61.5297E-03
            2348     12.9578E-03     6.34281E-03    -29.3728E+06     32.3197E+06     2.69813E+06     17.7749E+06    -67.1009E-03     108.405E-03    -41.3044E-03     47.8047E-03    -67.6392E-03     108.948E-03    -41.2952E-03     47.0448E-03
            2349     12.1130E-03     6.30241E-03    -29.2851E+06     14.8854E+06    -1.71249E+06     14.0409E+06    -59.2071E-03     98.9806E-03    -39.7735E-03     38.0427E-03    -59.5735E-03     99.3021E-03    -39.7612E-03     37.5674E-03
            2350     11.2615E-03     6.27781E-03    -29.3298E+06    -18.3475E+06     2.05674E+06     7.31303E+06    -52.7650E-03     91.3735E-03    -38.6085E-03     31.4678E-03    -53.0054E-03     91.4395E-03    -38.5291E-03     31.1228E-03
            2351     10.4055E-03     6.25995E-03    -29.6519E+06    -53.8518E+06     3.37774E+06     1.17453E+06    -48.2704E-03     85.9471E-03    -37.6768E-03     28.8585E-03    -48.4230E-03     85.7941E-03    -37.5388E-03     28.5584E-03
            2352     9.54602E-03     6.24701E-03    -29.2614E+06    -79.5580E+06     4.86601E+06    -1.45544E+06    -44.7929E-03     81.7024E-03    -36.9095E-03     26.9089E-03    -44.8828E-03     81.3923E-03    -36.7274E-03     26.6596E-03
            2353     8.68385E-03     6.23723E-03    -28.4635E+06    -95.9784E+06     6.23198E+06    -2.47947E+06    -42.2067E-03     78.4728E-03    -36.2661E-03     25.6330E-03    -42.2548E-03     78.0613E-03    -36.0545E-03     25.4280E-03
            2354     7.81994E-03     6.22921E-03    -27.6724E+06    -106.924E+06     6.12480E+06    -3.36019E+06    -40.3068E-03     76.0124E-03    -35.7056E-03     24.2731E-03    -40.3240E-03     75.5342E-03    -35.4798E-03     24.0973E-03
            2355     6.95444E-03     6.22266E-03    -26.4945E+06    -112.286E+06     3.55707E+06    -4.50175E+06    -38.8143E-03     74.0068E-03    -35.1925E-03     22.7440E-03    -38.8065E-03     73.4959E-03    -34.9735E-03     22.5844E-03
            2356     6.08795E-03     6.21684E-03    -26.1377E+06    -114.674E+06    -2.46268E+06    -5.47253E+06    -37.5587E-03     72.2704E-03    -34.7117E-03     20.9317E-03    -37.5314E-03     71.7501E-03    -34.5198E-03     20.7838E-03
            2357     5.22032E-03     6.21178E-03    -27.2422E+06    -117.509E+06    -8.47708E+06    -5.79592E+06    -36.4645E-03     70.7442E-03    -34.2797E-03     18.7533E-03    -36.4258E-03     70.2160E-03    -34.1122E-03     18.6205E-03
            2358     4.35187E-03     6.20739E-03    -28.4343E+06    -119.373E+06    -12.8110E+06    -5.69688E+06    -35.4878E-03     69.3882E-03    -33.9004E-03     16.3019E-03    -35.4433E-03     68.8557E-03    -33.7501E-03     16.1861E-03
            2359     3.48255E-03     6.20350E-03    -29.2349E+06    -121.368E+06    -17.1472E+06    -5.04542E+06    -34.6250E-03     68.1966E-03    -33.5716E-03     13.5919E-03    -34.5733E-03     67.6595E-03    -33.4390E-03     13.4973E-03
            2360     2.61263E-03     6.20039E-03    -30.4227E+06    -124.538E+06    -22.9140E+06    -3.93049E+06    -33.9054E-03     67.2031E-03    -33.2977E-03     10.5778E-03    -33.8454E-03     66.6589E-03    -33.1876E-03     10.5074E-03
            2361     1.74198E-03     6.19796E-03    -31.8574E+06    -127.852E+06    -28.5103E+06    -2.67946E+06    -33.3750E-03     66.4653E-03    -33.0903E-03     7.27328E-03    -33.3085E-03     65.9139E-03    -33.0013E-03     7.22660E-03
            2362     871.203E-06     6.19658E-03    -32.7564E+06    -129.725E+06    -31.7331E+06    -1.44493E+06    -33.0340E-03     65.9959E-03    -32.9619E-03     4.00005E-03    -32.9641E-03     65.4408E-03    -32.8850E-03     3.97518E-03
            2363     16.2322E-03     5.85704E-03    -6.11386E+06     141.570E+06     95.9511E+06     3.48383E+06    -144.897E-03     197.723E-03    -52.8254E-03     220.918E-03    -153.565E-03     206.599E-03    -52.5421E-03     213.127E-03
            2364     15.4414E-03     5.54065E-03    -14.1553E+06     113.142E+06     81.1355E+06     10.4627E+06    -123.478E-03     172.364E-03    -48.8857E-03     223.836E-03    -131.079E-03     180.091E-03    -48.6236E-03     216.665E-03
            2365     14.6247E-03     5.38791E-03    -21.5173E+06     70.7946E+06     55.2171E+06     16.1449E+06    -91.0320E-03     136.829E-03    -45.7972E-03     107.486E-03    -92.9305E-03     138.748E-03    -45.5925E-03     104.947E-03
            2366     13.7923E-03     5.33059E-03    -26.7022E+06     47.2433E+06     34.5083E+06     17.7941E+06    -72.7806E-03     116.365E-03    -43.5849E-03     60.8818E-03    -73.5332E-03     117.093E-03    -43.4421E-03     59.8331E-03
            2367     12.9516E-03     5.28648E-03    -28.2240E+06     36.8293E+06     18.9256E+06     15.6027E+06    -62.6124E-03     104.558E-03    -41.9456E-03     51.1608E-03    -63.1298E-03     105.053E-03    -41.8634E-03     50.5342E-03
            2368     12.1029E-03     5.25899E-03    -27.9608E+06     23.1622E+06     12.5681E+06     10.5160E+06    -54.7291E-03     95.4800E-03    -40.7509E-03     43.2528E-03    -55.0941E-03     95.7928E-03    -40.6811E-03     42.8454E-03
            2369     11.2471E-03     5.24092E-03    -27.6088E+06    -9.14498E+06     14.2146E+06     3.63930E+06    -49.2394E-03     89.1796E-03    -39.9401E-03     38.9913E-03    -49.4914E-03     89.2605E-03    -39.8158E-03     38.6677E-03
            2370     10.3884E-03     5.22765E-03    -27.3863E+06    -49.5173E+06     14.1369E+06    -2.42171E+06    -45.8712E-03     85.2211E-03    -39.3499E-03     36.4550E-03    -46.0284E-03     85.0648E-03    -39.1677E-03     36.1512E-03
            2371     9.52734E-03     5.21885E-03    -27.8132E+06    -78.4797E+06     13.8567E+06    -5.85110E+06    -43.5576E-03     82.4383E-03    -38.8808E-03     34.5032E-03    -43.6519E-03     82.1154E-03    -38.6574E-03     34.2229E-03
            2372     8.66462E-03     5.21149E-03    -27.7789E+06    -95.7601E+06     11.9336E+06    -7.59906E+06    -42.0251E-03     80.5001E-03    -38.4751E-03     32.7001E-03    -42.0767E-03     80.0785E-03    -38.2363E-03     32.4448E-03
            2373     7.80076E-03     5.20560E-03    -26.8974E+06    -106.426E+06     8.21860E+06    -9.11625E+06    -40.9316E-03     79.0346E-03    -38.1030E-03     30.5037E-03    -40.9477E-03     78.5532E-03    -37.8686E-03     30.2641E-03
            2374     6.93628E-03     5.20049E-03    -26.1750E+06    -113.007E+06     3.44826E+06    -9.79255E+06    -40.0805E-03     77.8324E-03    -37.7520E-03     28.0605E-03    -40.0691E-03     77.3165E-03    -37.5329E-03     27.8396E-03
            2375     6.07103E-03     5.19621E-03    -25.8833E+06    -116.320E+06    -3.34851E+06    -9.01933E+06    -39.3349E-03     76.7433E-03    -37.4085E-03     25.3254E-03    -39.3021E-03     76.2148E-03    -37.2190E-03     25.1366E-03
            2376     5.20524E-03     5.19241E-03    -25.7356E+06    -119.192E+06    -9.26379E+06    -8.27597E+06    -38.6368E-03     75.7258E-03    -37.0890E-03     22.3132E-03    -38.5867E-03     75.1874E-03    -36.9252E-03     22.1520E-03
            2377     4.33885E-03     5.18919E-03    -26.3919E+06    -121.730E+06    -14.3428E+06    -7.60156E+06    -37.9679E-03     74.7664E-03    -36.7985E-03     19.0705E-03    -37.9073E-03     74.2208E-03    -36.6555E-03     18.9326E-03
            2378     3.47191E-03     5.18647E-03    -28.1081E+06    -124.789E+06    -19.4917E+06    -6.26465E+06    -37.3353E-03     73.8782E-03    -36.5429E-03     15.6426E-03    -37.2696E-03     73.3254E-03    -36.4187E-03     15.5338E-03
            2379     2.60436E-03     5.18417E-03    -30.0469E+06    -128.066E+06    -24.5466E+06    -4.36252E+06    -36.7963E-03     73.1272E-03    -36.3309E-03     11.9970E-03    -36.7270E-03     72.5669E-03    -36.2244E-03     11.9221E-03
            2380     1.73657E-03     5.18252E-03    -31.6057E+06    -130.966E+06    -29.1691E+06    -2.75474E+06    -36.3892E-03     72.5571E-03    -36.1679E-03     8.18350E-03    -36.3161E-03     71.9905E-03    -36.0780E-03     8.13647E-03
            2381     868.280E-06     5.18142E-03    -32.7403E+06    -132.893E+06    -32.1778E+06    -1.46937E+06    -36.1197E-03     72.1871E-03    -36.0674E-03     4.46928E-03    -36.0447E-03     71.6166E-03    -35.9881E-03     4.44439E-03
            2382     16.2146E-03     4.68984E-03    -6.91308E+06     134.945E+06     89.1703E+06     7.44993E+06    -146.585E-03     200.088E-03    -53.5022E-03     215.572E-03    -154.055E-03     207.757E-03    -53.2420E-03     207.802E-03
            2383     15.4276E-03     4.41967E-03    -16.4893E+06     103.393E+06     74.6036E+06     13.2132E+06    -123.148E-03     172.662E-03    -49.5143E-03     194.958E-03    -128.972E-03     178.591E-03    -49.2673E-03     188.465E-03
            2384     14.6147E-03     4.30915E-03    -19.6091E+06     67.9306E+06     58.8724E+06     16.7959E+06    -85.8684E-03     132.457E-03    -46.5885E-03     92.2044E-03    -87.2567E-03     133.853E-03    -46.3643E-03     90.2444E-03
            2385     13.7785E-03     4.26860E-03    -21.7459E+06     51.2496E+06     45.9539E+06     16.2209E+06    -65.9122E-03     110.703E-03    -44.7904E-03     62.9240E-03    -66.5520E-03     111.317E-03    -44.6034E-03     62.1440E-03
            2386     12.9311E-03     4.23580E-03    -23.5213E+06     42.9551E+06     32.7840E+06     12.1100E+06    -57.0816E-03     100.714E-03    -43.6320E-03     59.0177E-03    -57.5592E-03     101.167E-03    -43.4962E-03     58.5117E-03
            2387     12.0772E-03     4.21785E-03    -23.7120E+06     31.6889E+06     25.2238E+06     5.76387E+06    -51.4276E-03     94.2684E-03    -42.8408E-03     51.9638E-03    -51.7751E-03     94.5718E-03    -42.7263E-03     51.5922E-03
            2388     11.2203E-03     4.20440E-03    -23.4759E+06    -2.23528E+06     23.5147E+06    -1.02135E+06    -47.5381E-03     89.8849E-03    -42.3469E-03     48.2783E-03    -47.7796E-03     89.9672E-03    -42.1920E-03     47.9511E-03
            2389     10.3603E-03     4.19534E-03    -24.2844E+06    -46.2111E+06     21.5129E+06    -5.93248E+06    -45.3323E-03     87.3614E-03    -42.0291E-03     44.7892E-03    -45.4800E-03     87.1962E-03    -41.8193E-03     44.4802E-03
            2390     9.49889E-03     4.18814E-03    -25.4454E+06    -76.5132E+06     19.5351E+06    -9.73246E+06    -44.1730E-03     85.9510E-03    -41.7779E-03     41.5675E-03    -44.2603E-03     85.6190E-03    -41.5324E-03     41.2639E-03
            2391     8.63719E-03     4.18234E-03    -25.6448E+06    -95.2823E+06     13.9589E+06    -12.9854E+06    -43.4996E-03     85.0276E-03    -41.5281E-03     38.2799E-03    -43.5395E-03     84.5971E-03    -41.2829E-03     37.9737E-03
            2392     7.77511E-03     4.17746E-03    -25.0866E+06    -107.085E+06     6.41996E+06    -14.4089E+06    -42.9713E-03     84.2449E-03    -41.2736E-03     34.8572E-03    -42.9713E-03     83.7563E-03    -41.0499E-03     34.5630E-03
            2393     6.91252E-03     4.17337E-03    -24.6215E+06    -115.948E+06    -380.156E+03    -14.0991E+06    -42.5259E-03     83.5532E-03    -41.0273E-03     31.3197E-03    -42.4946E-03     83.0231E-03    -40.8254E-03     31.0533E-03
            2394     6.04973E-03     4.16986E-03    -24.1246E+06    -119.890E+06    -7.50561E+06    -12.7260E+06    -42.0953E-03     82.8723E-03    -40.7770E-03     27.6970E-03    -42.0410E-03     82.3275E-03    -40.6057E-03     27.4676E-03
            2395     5.18654E-03     4.16699E-03    -24.0201E+06    -122.905E+06    -12.7918E+06    -10.6508E+06    -41.6515E-03     82.1927E-03    -40.5412E-03     23.9864E-03    -41.5813E-03     81.6370E-03    -40.3921E-03     23.7994E-03
            2396     4.32296E-03     4.16457E-03    -25.0580E+06    -125.830E+06    -17.2261E+06    -8.03641E+06    -41.1937E-03     81.5160E-03    -40.3224E-03     20.1816E-03    -41.1158E-03     80.9514E-03    -40.1897E-03     20.0410E-03
            2397     3.45899E-03     4.16269E-03    -27.0428E+06    -128.891E+06    -21.5474E+06    -5.64988E+06    -40.7493E-03     80.8726E-03    -40.1233E-03     16.3307E-03    -40.6691E-03     80.3002E-03    -40.0050E-03     16.2314E-03
            2398     2.59472E-03     4.16112E-03    -29.1328E+06    -131.772E+06    -25.7401E+06    -3.90029E+06    -40.3370E-03     80.2880E-03    -39.9510E-03     12.4029E-03    -40.2560E-03     79.7092E-03    -39.8464E-03     12.3348E-03
            2399     1.72995E-03     4.15998E-03    -30.6916E+06    -134.206E+06    -29.4009E+06    -2.28623E+06    -40.0014E-03     79.8174E-03    -39.8160E-03     8.39434E-03    -39.9187E-03     79.2334E-03    -39.7239E-03     8.35360E-03
            2400     865.114E-06     4.15932E-03    -31.5765E+06    -135.561E+06    -31.4969E+06    -1.03147E+06    -39.7659E-03     79.5114E-03    -39.7455E-03     4.55140E-03    -39.6822E-03     78.9247E-03    -39.6607E-03     4.53227E-03
            2401     16.1963E-03     3.51031E-03    -5.32496E+06     127.544E+06     85.1166E+06     11.5300E+06    -149.879E-03     204.457E-03    -54.5780E-03     199.194E-03    -155.664E-03     210.436E-03    -54.3296E-03     191.743E-03
            2402     15.4146E-03     3.29764E-03    -9.60074E+06     98.0880E+06     75.3670E+06     14.9304E+06    -113.899E-03     164.627E-03    -50.7281E-03     150.650E-03    -117.482E-03     168.324E-03    -50.4796E-03     145.751E-03
            2403     14.5932E-03     3.23602E-03    -13.0203E+06     67.8906E+06     64.2117E+06     15.0615E+06    -73.5770E-03     121.973E-03    -48.3961E-03     84.3593E-03    -74.5093E-03     122.922E-03    -48.1546E-03     83.0930E-03
            2404     13.7464E-03     3.21582E-03    -15.1274E+06     56.0955E+06     56.0476E+06     12.2447E+06    -59.8846E-03     107.127E-03    -47.2424E-03     76.4819E-03    -60.4326E-03     107.659E-03    -47.0215E-03     75.8935E-03
            2405     12.8921E-03     3.18742E-03    -14.8259E+06     50.6513E+06     44.1424E+06     7.31678E+06    -54.8791E-03     101.370E-03    -46.4912E-03     68.7546E-03    -55.2844E-03     101.774E-03    -46.3225E-03     68.3256E-03
            2406     12.0384E-03     3.17506E-03    -15.9169E+06     38.7528E+06     29.1202E+06     1.86893E+06    -50.8450E-03     96.7905E-03    -45.9455E-03     59.6837E-03    -51.1330E-03     97.0749E-03    -45.8330E-03     59.3548E-03
            2407     11.1809E-03     3.16553E-03    -17.8845E+06     1.70462E+06     19.6988E+06    -3.43114E+06    -48.9562E-03     94.5673E-03    -45.6111E-03     54.2772E-03    -49.1475E-03     94.6431E-03    -45.4892E-03     53.9772E-03
            2408     10.3227E-03     3.15838E-03    -19.6500E+06    -43.3546E+06     15.1096E+06    -8.36646E+06    -47.8194E-03     93.2044E-03    -45.3850E-03     48.7276E-03    -47.9230E-03     93.0392E-03    -45.2181E-03     48.4293E-03
            2409     9.46439E-03     3.15202E-03    -20.1305E+06    -73.1720E+06     11.3188E+06    -13.5287E+06    -47.1433E-03     92.3225E-03    -45.1792E-03     43.5945E-03    -47.1857E-03     91.9996E-03    -44.9873E-03     43.2729E-03
            2410     8.60548E-03     3.14706E-03    -19.8613E+06    -94.9361E+06     5.52523E+06    -17.3760E+06    -46.6480E-03     91.6190E-03    -44.9710E-03     38.8595E-03    -46.6393E-03     91.1856E-03    -44.7769E-03     38.5206E-03
            2411     7.74622E-03     3.14281E-03    -19.7610E+06    -110.193E+06    -1.12976E+06    -17.9604E+06    -46.2447E-03     91.0051E-03    -44.7603E-03     34.4947E-03    -46.1971E-03     90.4983E-03    -44.5775E-03     34.1728E-03
            2412     6.88685E-03     3.13939E-03    -20.1783E+06    -120.193E+06    -7.84969E+06    -16.4706E+06    -45.8514E-03     90.4012E-03    -44.5497E-03     30.3572E-03    -45.7771E-03     89.8502E-03    -44.3855E-03     30.0736E-03
            2413     6.02699E-03     3.13654E-03    -21.3635E+06    -125.212E+06    -14.6770E+06    -13.9782E+06    -45.4534E-03     89.7941E-03    -44.3407E-03     26.4114E-03    -45.3645E-03     89.2265E-03    -44.2016E-03     26.1755E-03
            2414     5.16687E-03     3.13428E-03    -23.1628E+06    -128.735E+06    -18.7582E+06    -10.6248E+06    -45.0593E-03     89.2135E-03    -44.1542E-03     22.5681E-03    -44.9661E-03     88.6345E-03    -44.0278E-03     22.3881E-03
            2415     4.30643E-03     3.13257E-03    -25.0019E+06    -131.127E+06    -21.1482E+06    -7.34127E+06    -44.6833E-03     88.6699E-03    -43.9866E-03     18.8128E-03    -44.5908E-03     88.0834E-03    -43.8659E-03     18.6854E-03
            2416     3.44567E-03     3.13124E-03    -26.5540E+06    -132.937E+06    -23.2110E+06    -4.76186E+06    -44.3333E-03     88.1670E-03    -43.8337E-03     15.1254E-03    -44.2418E-03     87.5755E-03    -43.7185E-03     15.0400E-03
            2417     2.58456E-03     3.13029E-03    -28.0793E+06    -135.000E+06    -26.0125E+06    -2.86274E+06    -44.0108E-03     87.7076E-03    -43.6968E-03     11.4311E-03    -43.9192E-03     87.1114E-03    -43.5904E-03     11.3774E-03
            2418     1.72331E-03     3.12965E-03    -29.3883E+06    -136.881E+06    -28.6895E+06    -1.63011E+06    -43.7401E-03     87.3280E-03    -43.5879E-03     7.73685E-03    -43.6479E-03     86.7276E-03    -43.4903E-03     7.70513E-03
            2419     861.657E-06     3.12926E-03    -29.9388E+06    -137.575E+06    -29.7552E+06    -802.773E+03    -43.5492E-03     87.0798E-03    -43.5306E-03     4.20336E-03    -43.4569E-03     86.4781E-03    -43.4364E-03     4.18740E-03
            2420     16.1854E-03     2.31959E-03    -5.11200E+06     118.668E+06     83.9524E+06     10.7828E+06    -147.840E-03     204.392E-03    -56.5512E-03     185.663E-03    -152.021E-03     208.757E-03    -56.2961E-03     179.073E-03
            2421     15.3916E-03     2.19703E-03    -872.340E+03     93.8946E+06     80.5869E+06     14.2487E+06    -95.0151E-03     148.288E-03    -53.2724E-03     132.122E-03    -96.8901E-03     150.277E-03    -53.0043E-03     129.348E-03
            2422     14.5392E-03     2.18963E-03    -3.68200E+06     72.6731E+06     73.0025E+06     12.7962E+06    -66.2961E-03     118.013E-03    -51.7172E-03     96.7781E-03    -66.9262E-03     118.674E-03    -51.4522E-03     96.0437E-03
            2423     13.6858E-03     2.14892E-03    -6.25528E+06     63.5678E+06     63.5434E+06     7.11556E+06    -62.1559E-03     113.028E-03    -50.8725E-03     85.4398E-03    -62.5811E-03     113.470E-03    -50.6379E-03     84.9737E-03
            2424     12.8446E-03     2.13844E-03    -7.31844E+06     55.3978E+06     43.2395E+06     2.64991E+06    -58.7163E-03     108.826E-03    -50.1092E-03     68.1423E-03    -59.0090E-03     109.162E-03    -49.9627E-03     67.7964E-03
            2425     11.9899E-03     2.12635E-03    -7.99012E+06     41.6436E+06     17.6808E+06     629.523E+03    -55.2855E-03     104.755E-03    -49.4697E-03     57.3239E-03    -55.4765E-03     105.012E-03    -49.4301E-03     57.0750E-03
            2426     11.1378E-03     2.11919E-03    -9.68119E+06     5.60015E+06     259.750E+03    -3.01305E+06    -53.6749E-03     102.696E-03    -49.0209E-03     48.5953E-03    -53.7719E-03     102.776E-03    -49.0137E-03     48.3699E-03
            2427     10.2849E-03     2.11283E-03    -10.8339E+06    -38.7208E+06    -7.90813E+06     -9.4251E+06    -52.5457E-03     101.230E-03    -48.6839E-03     42.2155E-03    -52.5583E-03     101.088E-03    -48.6516E-03     41.9536E-03
            2428     9.43075E-03     2.10822E-03    -11.3445E+06    -70.0404E+06    -13.2782E+06    -14.8306E+06    -51.5410E-03     99.9230E-03    -48.3820E-03     36.7505E-03    -51.4945E-03     99.6249E-03    -48.3303E-03     36.4511E-03
            2429     8.57573E-03     2.10402E-03    -12.7746E+06    -95.6717E+06    -16.7840E+06    -17.5512E+06    -50.6466E-03     98.7678E-03    -48.1213E-03     32.0234E-03    -50.5594E-03     98.3434E-03    -48.0479E-03     31.7126E-03
            2430     7.72013E-03     2.10080E-03    -14.9577E+06    -114.701E+06    -19.9522E+06    -17.4138E+06    -49.8950E-03     97.7839E-03    -47.8890E-03     27.8873E-03    -49.7828E-03     97.2685E-03    -47.8007E-03     27.5962E-03
            2431     6.86369E-03     2.09806E-03    -17.2847E+06    -125.807E+06    -21.4416E+06    -14.9627E+06    -49.2468E-03     96.9310E-03    -47.6842E-03     24.1802E-03    -49.1256E-03     96.3632E-03    -47.5839E-03     23.9343E-03
            2432     6.00692E-03     2.09605E-03    -20.0385E+06    -131.700E+06    -23.0141E+06    -11.4130E+06    -48.6726E-03     96.1731E-03    -47.5005E-03     20.7993E-03    -48.5525E-03     95.5804E-03    -47.3955E-03     20.6102E-03
            2433     5.14959E-03     2.09441E-03    -22.7541E+06    -134.417E+06    -24.8533E+06    -8.12780E+06    -48.1872E-03     95.5254E-03    -47.3382E-03     17.6594E-03    -48.0728E-03     94.9245E-03    -47.2346E-03     17.5217E-03
            2434     4.29189E-03     2.09329E-03    -24.8004E+06    -135.718E+06    -25.0663E+06    -5.75655E+06    -47.7902E-03     94.9964E-03    -47.2062E-03     14.6609E-03    -47.6829E-03     94.3913E-03    -47.0988E-03     14.5612E-03
            2435     3.43388E-03     2.09246E-03    -26.2973E+06    -136.710E+06    -25.5151E+06    -3.76512E+06    -47.4663E-03     94.5617E-03    -47.0955E-03     11.7706E-03    -47.3638E-03     93.9539E-03    -46.9867E-03     11.7030E-03
            2436     2.57569E-03     2.09195E-03    -27.3338E+06    -137.749E+06    -26.5078E+06    -2.09765E+06    -47.2160E-03     94.2207E-03    -47.0046E-03     8.88568E-03    -47.1154E-03     93.6102E-03    -46.8978E-03     8.84489E-03
            2437     1.71717E-03     2.09168E-03    -27.9469E+06    -138.574E+06    -27.6331E+06    -1.11992E+06    -47.0342E-03     93.9693E-03    -46.9351E-03     6.02086E-03    -46.9335E-03     93.3569E-03    -46.8318E-03     5.99749E-03
            2438     858.669E-06     2.09153E-03    -28.3936E+06    -139.190E+06    -28.5307E+06    -665.837E+03    -46.9089E-03     93.8080E-03    -46.8991E-03     3.28397E-03    -46.8080E-03     93.1944E-03    -46.7988E-03     3.27065E-03
            2439     16.1256E-03     1.14963E-03     203.282E+03     112.672E+06     89.0812E+06     7.26646E+06    -141.680E-03     202.619E-03    -60.9394E-03     179.264E-03    -144.177E-03     205.284E-03    -60.6577E-03     174.739E-03
            2440     15.2937E-03     1.13347E-03    -653.754E+03      90.234E+06     83.1699E+06     8.17914E+06    -98.6230E-03     156.392E-03    -57.7685E-03     121.402E-03    -99.4849E-03     157.323E-03    -57.4826E-03     120.229E-03
            2441     14.4645E-03     1.10612E-03     224.952E+03     78.4443E+06     78.4222E+06     6.90943E+06    -82.0246E-03     137.856E-03    -55.8314E-03     84.6421E-03    -82.4219E-03     138.297E-03    -55.5533E-03     84.2254E-03
            2442     13.6387E-03     1.08353E-03     481.677E+03     69.7956E+06     61.9838E+06     3.79931E+06    -72.9083E-03     127.299E-03    -54.3907E-03     61.2791E-03    -73.1775E-03     127.636E-03    -54.1826E-03     61.0066E-03
            2443     12.7907E-03     1.07265E-03    -688.349E+03     57.2163E+06     31.1505E+06     870.241E+03    -65.8685E-03     119.106E-03    -53.2372E-03     43.4233E-03    -66.0375E-03     119.384E-03    -53.1634E-03     43.2391E-03
            2444     11.9526E-03     1.06771E-03    -734.234E+03     41.1251E+06     216.612E+03     38.2217E+03    -62.0882E-03     114.409E-03    -52.3205E-03     35.3289E-03    -62.1752E-03     114.637E-03    -52.3779E-03     35.1840E-03
            2445     11.1058E-03     1.06286E-03     -82.594E+03     9.74118E+06    -21.3205E+06    -1.74378E+06    -59.1789E-03     110.794E-03    -51.6151E-03     29.3985E-03    -59.1760E-03     110.887E-03    -51.7357E-03     29.2744E-03
            2446     10.2568E-03     1.05935E-03    -613.463E+03    -33.1053E+06    -34.3202E+06    -6.49330E+06    -57.0784E-03     108.159E-03    -51.0803E-03     24.7052E-03    -56.9925E-03     108.052E-03    -51.2030E-03     24.5455E-03
            2447     9.40642E-03     1.05628E-03    -3.11009E+06    -68.7615E+06    -40.9697E+06    -10.1543E+06    -55.3726E-03     106.025E-03    -50.6525E-03     21.0545E-03    -55.2349E-03     105.751E-03    -50.7531E-03     20.8654E-03
            2448     8.55479E-03     1.05417E-03    -7.07021E+06    -97.0877E+06    -41.8578E+06    -11.0093E+06    -53.9497E-03     104.266E-03    -50.3160E-03     18.1129E-03    -53.7876E-03     103.855E-03    -50.3743E-03     17.9254E-03
            2449     7.70167E-03     1.05226E-03    -11.7110E+06    -118.162E+06    -40.7663E+06    -10.7598E+06    -52.7538E-03     102.798E-03    -50.0438E-03     15.6511E-03    -52.5847E-03     102.285E-03    -50.0593E-03     15.4764E-03
            2450     6.84784E-03     1.05076E-03    -16.0250E+06    -131.392E+06    -36.4688E+06    -9.17674E+06    -51.7714E-03     101.605E-03    -49.8338E-03     13.4423E-03    -51.6101E-03     101.026E-03    -49.8024E-03     13.2954E-03
            2451     5.99301E-03     1.04966E-03    -19.4609E+06    -137.241E+06    -31.3299E+06    -6.45723E+06    -50.9796E-03     100.648E-03    -49.6684E-03     11.4856E-03    -50.8338E-03     100.037E-03    -49.5978E-03     11.3796E-03
            2452     5.13769E-03     1.04881E-03    -22.0809E+06    -138.120E+06    -29.2583E+06    -4.36557E+06    -50.3695E-03     99.8955E-03    -49.5259E-03     9.72824E-03    -50.2382E-03     99.2800E-03    -49.4399E-03     9.65385E-03
            2453     4.28189E-03     1.04823E-03    -24.1523E+06    -138.696E+06    -28.0277E+06    -3.13023E+06    -49.9220E-03     99.3408E-03    -49.4187E-03     8.06919E-03    -49.8017E-03     98.7234E-03    -49.3228E-03     8.01458E-03
            2454     3.42578E-03     1.04786E-03    -25.6562E+06    -139.302E+06    -27.6492E+06    -2.13949E+06    -49.6123E-03     98.9533E-03    -49.3410E-03     6.47286E-03    -49.4989E-03     98.3343E-03    -49.2400E-03     6.43436E-03
            2455     2.56939E-03     1.04764E-03    -26.5445E+06    -139.681E+06    -27.5427E+06    -1.36350E+06    -49.4144E-03     98.7035E-03    -49.2891E-03     4.88365E-03    -49.3049E-03     98.0835E-03    -49.1857E-03     4.85807E-03
            2456     1.71304E-03     1.04754E-03    -27.0382E+06    -139.829E+06    -27.3803E+06    -691.358E+03    -49.3054E-03     98.5634E-03    -49.2579E-03     3.30119E-03    -49.1984E-03     97.9431E-03    -49.1529E-03     3.28699E-03
            2457     856.491E-06     1.04754E-03    -27.4042E+06    -140.154E+06    -27.7039E+06    -164.930E+03    -49.2583E-03     98.4915E-03    -49.2332E-03     1.78918E-03    -49.1519E-03     97.8707E-03    -49.1288E-03     1.78426E-03


